
units lj                  # Use reduced LJ style units
atom_style atomic         # Uncharged point particles
atom_modify map hash      # Needed for indexing of clusters etc
                          # Used to be able to find where atoms are in relation to each other.

lattice fcc 1.0 spacing 1 1 1
Lattice spacing in x,y,z = 1.5874011 1.5874011 1.5874011
region box block 0 10 0 10 0 10 units lattice
create_box 2 box
Created orthogonal box = (0.0000000 0.0000000 0.0000000) to (15.874011 15.874011 15.874011)
  3 by 4 by 4 MPI processor grid
create_atoms 1 box
Created 4000 atoms
  using lattice units in orthogonal box = (0.0000000 0.0000000 0.0000000) to (15.874011 15.874011 15.874011)
  create_atoms CPU = 0.018 seconds
set type 1 type/fraction 2 0.15 78393
Setting atom values ...
  634 settings made for type/fraction
mass 1 1.0
mass 2 1.0
pair_style lj/cut  3.5
pair_modify tail  yes
pair_coeff 1  1  1.0  1.0   # Intearaction between 1 and 1 set with epsilon = 1 and sigma = 1
pair_coeff 1  2  1.5  0.8
pair_coeff 2  2  0.5  0.88

write_data data.0
System init for write_data ...
Neighbor list info ...
  update every 1 steps, delay 10 steps, check yes
  max neighbors/atom: 2000, page size: 100000
  master list distance cutoff = 3.8
  ghost atom cutoff = 3.8
  binsize = 1.9, bins = 9 9 9
  1 neighbor lists, perpetual/occasional/extra = 1 0 0
  (1) pair lj/cut, perpetual
      attributes: half, newton on
      pair build: half/bin/atomonly/newton
      stencil: half/bin/3d
      bin: standard
WARNING: Not all mixed pair coeffs generated from mixing. Use write_data with 'pair ij' option to store all pair coeffs. (../write_data.cpp:312)


#############################
#   M E L T   S Y S T E M   #
#############################

velocity all create 2.4 8172548 mom yes dist gaussian # Assign velocities
                                                    # Temperature 2.4, random number seed, zero linear momentum
                                                                                # Gaussian distribution

timestep 0.002   # simulation timestep
thermo 1000       # output thermodynamic data every 1000 steps bf 100

# Define a fix  in this case with index 1 applied to all
# particles in the simulation. This fix is for simulations
# in the anisotropic NPT ensemble. Note that we use the MTK
# correction.
fix 1 all npt temp 2.4 2.4 0.1 iso 5.68 5.68 0.5 mtk yes tchain 5 pchain 5 # Use NPT ensemble
                                                                         # Set temperature and pressure and damping
                                                                         # Numbers of thermostats in chain and in barostat
run 10000          # run for 10000 steps
Per MPI rank memory allocation (min/avg/max) = 3.642 | 3.644 | 3.648 Mbytes
Step Temp E_pair E_mol TotEng Press Volume 
       0          2.4   -7.3553801            0   -3.7562801   -3.3553213         4000 
    1000    2.3752585    -4.755411            0    -1.193414     5.719777    4625.0843 
    2000    2.3984098   -4.7109505            0   -1.1142352    5.7745306    4649.2198 
    3000    2.4620947   -4.7768718            0    -1.084653    5.5172762    4650.0123 
    4000    2.4323423   -4.7336468            0   -1.0860455    5.5567995    4664.7085 
    5000    2.3856063   -4.6929736            0   -1.1154587    5.7975464    4655.4587 
    6000    2.4058425   -4.7459735            0    -1.138112    6.0052013    4612.1112 
    7000    2.3754264   -4.7080919            0   -1.1458431    5.4702708    4676.8944 
    8000    2.4821423   -4.7557903            0   -1.0335076    6.0439076    4605.3822 
    9000    2.3906105   -4.7042004            0   -1.1191811    5.7340079    4656.3914 
   10000    2.4081678   -4.7790621            0   -1.1677134    5.2746326    4679.3675 
Loop time of 2.23658 on 48 procs for 10000 steps with 4000 atoms

Performance: 772608.046 tau/day, 4471.111 timesteps/s
99.6% CPU use with 48 MPI tasks x no OpenMP threads

MPI task timing breakdown:
Section |  min time  |  avg time  |  max time  |%varavg| %total
---------------------------------------------------------------
Pair    | 0.90518    | 1.0023     | 1.0519     |   2.7 | 44.82
Neigh   | 0.186      | 0.202      | 0.2207     |   1.2 |  9.03
Comm    | 0.70162    | 0.77512    | 0.88604    |   3.8 | 34.66
Output  | 0.00024624 | 0.0002535  | 0.00031078 |   0.0 |  0.01
Modify  | 0.20457    | 0.24203    | 0.28035    |   4.0 | 10.82
Other   |            | 0.01485    |            |       |  0.66

Nlocal:        83.3333 ave          94 max          75 min
Histogram: 1 3 10 8 9 8 3 3 1 2
Nghost:        1481.88 ave        1513 max        1445 min
Histogram: 2 0 5 3 6 12 10 6 3 1
Neighs:        8141.02 ave        9727 max        7202 min
Histogram: 3 8 8 11 7 5 3 1 1 1

Total # of neighbors = 390769
Ave neighs/atom = 97.692250
Neighbor list builds = 903
Dangerous builds = 188

# Equilibrate just above the melting temperature to avoid step fn in T

fix 1 all npt temp 1.25 1.25 0.1 iso 5.68 5.68 0.5 mtk yes tchain 5 pchain 5
run 2000
Per MPI rank memory allocation (min/avg/max) = 3.642 | 3.644 | 3.648 Mbytes
Step Temp E_pair E_mol TotEng Press Volume 
   10000    2.4081678   -4.7790621            0   -1.1677134    5.2746326    4679.3675 
   11000    1.2512609   -6.4077481            0   -4.5313259    5.7894858    3793.6396 
   12000     1.240769   -6.3762718            0   -4.5155836    5.6341325    3815.7669 
Loop time of 0.497751 on 48 procs for 2000 steps with 4000 atoms

Performance: 694322.425 tau/day, 4018.070 timesteps/s
99.6% CPU use with 48 MPI tasks x no OpenMP threads

MPI task timing breakdown:
Section |  min time  |  avg time  |  max time  |%varavg| %total
---------------------------------------------------------------
Pair    | 0.22327    | 0.23842    | 0.26207    |   1.8 | 47.90
Neigh   | 0.032801   | 0.034617   | 0.038108   |   0.6 |  6.95
Comm    | 0.13698    | 0.17006    | 0.18705    |   2.5 | 34.16
Output  | 5.0019e-05 | 5.2002e-05 | 6.5477e-05 |   0.0 |  0.01
Modify  | 0.044889   | 0.050003   | 0.05647    |   1.6 | 10.05
Other   |            | 0.004601   |            |       |  0.92

Nlocal:        83.3333 ave          92 max          71 min
Histogram: 1 1 2 4 6 9 10 9 3 3
Nghost:        1697.98 ave        1723 max        1680 min
Histogram: 6 6 3 6 7 6 9 4 0 1
Neighs:        10004.9 ave       11593 max        8352 min
Histogram: 1 1 6 5 8 11 11 3 0 2

Total # of neighbors = 480236
Ave neighs/atom = 120.05900
Neighbor list builds = 143
Dangerous builds = 15

#############################
# L I N E A R  Q U E N C H  #
#############################

# Define solid atoms. This closely follows ten Wolde  Ruiz-Montero and Frenkel  Faraday Discuss  1996  104  93-110
# Compute components of the per-atom q6 vector
compute q6 all orientorder/atom degrees 1 6 components 6 nnn NULL cutoff 1.3 # compute the Q6 parameter.
                                                                             # Use all neighbours within 1.3 unit cell.

# get number of connections
compute coord_number all coord/atom orientorder q6 0.5

# An atom is solid if it has 8 or more connections (of a possible 14)
variable is_solid atom c_coord_number>=8
group solid dynamic all var is_solid    # Must be dynamic to update
dynamic group solid defined

# do clustering
compute cluster solid cluster/atom 1.3 # Create a cluster where all atoms within are solid and max 1.3 units from another member

# define chunks one chunk per cluster
compute clus_chunks solid chunk/atom c_cluster nchunk every compress yes  # Says which atoms are in which chunk

# count the size of each chunk
compute size_chunks solid property/chunk clus_chunks count


# Find the maximum entry in the vector of chunk sizes
variable max_n equal max(c_size_chunks)


# Thermo style which includes this variable
# thermo_style custom step temp pe vol v_max_n

thermo ${N}  # Print the thermo information every 100 steps
thermo 1000  

# Reset the npt fix at a lower temperature (below freezing)
fix 1  all npt temp  ${temp} ${temp}  0.1  iso  5.68  5.68  0.5  mtk yes tchain  5  pchain  5
fix 1  all npt temp  0.45 ${temp}  0.1  iso  5.68  5.68  0.5  mtk yes tchain  5  pchain  5
fix 1  all npt temp  0.45 0.45  0.1  iso  5.68  5.68  0.5  mtk yes tchain  5  pchain  5

dump dmp2 all dcd ${N} traj.dcd
dump dmp2 all dcd 1000 traj.dcd


compute msd all msd com yes
variable twopoint equal c_msd[4]/6/(step*dt+1.0e-6)
fix 9 all vector 10 c_msd[4]
variable fit equal slope(f_9)/6/(10*dt)
thermo_style custom step temp pe c_msd[4] v_twopoint v_fit v_max_n

fix 1 all npt temp 1.25 ${temp} 0.1 iso 5.68 5.68 0.5 mtk yes tchain 5 pchain 5
fix 1 all npt temp 1.25 0.45 0.1 iso 5.68 5.68 0.5 mtk yes tchain 5 pchain 5
run 2000000 # 5000000  # Run for this many steps
Neighbor list info ...
  update every 1 steps, delay 10 steps, check yes
  max neighbors/atom: 2000, page size: 100000
  master list distance cutoff = 3.8
  ghost atom cutoff = 3.8
  binsize = 1.9, bins = 9 9 9
  4 neighbor lists, perpetual/occasional/extra = 1 3 0
  (1) pair lj/cut, perpetual
      attributes: half, newton on
      pair build: half/bin/atomonly/newton
      stencil: half/bin/3d
      bin: standard
  (2) compute orientorder/atom, occasional
      attributes: full, newton on
      pair build: full/bin/atomonly
      stencil: full/bin/3d
      bin: standard
  (3) compute coord/atom, occasional
      attributes: full, newton on
      pair build: full/bin/atomonly
      stencil: full/bin/3d
      bin: standard
  (4) compute cluster/atom, occasional
      attributes: full, newton on
      pair build: full/bin/atomonly
      stencil: full/bin/3d
      bin: standard
Per MPI rank memory allocation (min/avg/max) = 9.763 | 9.768 | 9.772 Mbytes
Step Temp PotEng c_msd[4] v_twopoint v_fit v_max_n 
   12000     1.240769   -6.3762718 2.7332058e-30 1.8980595e-32 8.3333333e+20            2 
   13000    1.2592898   -6.4171911   0.55991839 0.0035892203  0.045955127            1 
   14000    1.2469015   -6.3965552    1.0859257  0.006463843  0.045055461            1 
   15000    1.2259698   -6.4092497    1.5898286  0.008832381  0.043756395            1 
   16000    1.2510124   -6.3840627    2.1567651  0.011233151  0.043707603            2 
   17000    1.2390993   -6.3704511    2.6553793  0.013016565  0.043783239            2 
   18000    1.2679101   -6.4256093    3.2533387  0.015061753  0.044308171            2 
   19000    1.2373917    -6.414407      3.77041  0.016536886  0.044762329            1 
   20000    1.2378562   -6.3706557    4.3327341  0.018053058   0.04486909            2 
   21000    1.2567421   -6.3910144    4.8916169  0.019411178  0.045034342            3 
   22000     1.224803    -6.383013    5.4151989  0.020512117  0.045065723            2 
   23000    1.2540523   -6.4206593    5.8363638  0.021146245  0.044978713            4 
   24000    1.2547942   -6.3982418    6.3550303  0.022066077  0.044663975            4 
   25000    1.2272198   -6.3830365    6.8961814  0.022987271  0.044418023            3 
   26000    1.2303034   -6.3964133     7.316253  0.023449529  0.044143784            4 
   27000    1.2681662   -6.3936621    7.7999732  0.024073991  0.043876706            2 
   28000    1.2356378   -6.3921305    8.1963293  0.024393837  0.043484423            2 
   29000    1.2277242   -6.3607227    8.6202818  0.024770924  0.043069865            2 
   30000    1.2482744   -6.3710989     9.263816  0.025732822  0.042734474            1 
   31000    1.2305571   -6.4286901    9.7281433  0.026150923  0.042584007            1 
   32000    1.2584419   -6.4194593    10.365548  0.026993613  0.042532699            5 
   33000    1.2516757   -6.4501799     10.87928  0.027472928  0.042543145            1 
   34000    1.2372986   -6.3919884    11.468208  0.028108352  0.042563793            1 
   35000    1.2448146   -6.3914113    12.028734  0.028639842  0.042641897            1 
   36000    1.2246099   -6.4547429    12.633589  0.029244419  0.042761798            3 
   37000    1.2299551   -6.4332291    13.017762  0.029319284  0.042832729            2 
   38000    1.2601278   -6.3934601     13.44527  0.029485242  0.042845999            2 
   39000    1.2478227   -6.4373159    13.918613  0.029740627   0.04279398            2 
   40000    1.2296152    -6.436163    14.499461  0.030207211  0.042771883            1 
   41000     1.249894   -6.4052102    15.260546  0.031017369  0.042810084            3 
   42000     1.215455     -6.40953    15.835131   0.03141891  0.042936268            2 
   43000    1.2411947   -6.4197729    16.434993  0.031850761  0.043079846            2 
   44000    1.2360424   -6.4326329    16.918817  0.032043213  0.043226369            1 
   45000    1.2376335   -6.4397965    17.341769  0.032114388  0.043322205            2 
   46000    1.2501312   -6.4453755    17.917476  0.032459195  0.043395588            2 
   47000    1.2226038   -6.4041491    18.421483  0.032662204  0.043463524            2 
   48000    1.2525672   -6.4068637    18.891063  0.032796984  0.043511307            1 
   49000    1.2462077   -6.4625784    19.413147  0.033015555  0.043532453            1 
   50000    1.2572172   -6.4141051    19.883928   0.03313988  0.043531049            1 
   51000     1.196799   -6.4377003    20.351512  0.033254104  0.043504734            3 
   52000     1.242118   -6.4423736    20.835386  0.033390041  0.043477882            1 
   53000    1.2356649    -6.373516    21.407201   0.03365912  0.043461461            3 
   54000    1.2445218   -6.3998436    21.853679  0.033724813  0.043423837            3 
   55000     1.253851   -6.4414852    22.194763  0.033628428  0.043372667            2 
   56000    1.2146008   -6.4258623    22.760575  0.033869903  0.043321285            3 
   57000    1.2473527   -6.3989014    23.316386  0.034088283  0.043277438            3 
   58000    1.2284645   -6.4095425    23.730328  0.034095299  0.043225219            2 
   59000    1.2268872   -6.3942465    24.272808  0.034283626   0.04316474            2 
   60000    1.2253657   -6.3648491    24.777921  0.034413779  0.043117677            1 
   61000    1.2241399    -6.423411    25.272013  0.034524608   0.04307176            2 
   62000    1.2221631   -6.4460627    25.532752  0.034318215  0.043016012            2 
   63000    1.2548006   -6.4284171    26.171949   0.03461898  0.042952674            1 
   64000    1.1980663   -6.3985177    26.674212  0.034732047  0.042895085            4 
   65000    1.2157182   -6.4375528    27.195203  0.034865644  0.042850711            2 
   66000    1.2313719   -6.4304399    27.640951   0.03490019  0.042796702            1 
   67000    1.2023389    -6.405754    28.192197  0.035064922  0.042757077            2 
   68000    1.2000578   -6.4446355    28.617908  0.035070966  0.042720228            2 
   69000    1.2113139   -6.3981474    29.117133  0.035165619  0.042674953            1 
   70000    1.2258708   -6.4517974    29.527126   0.03515134  0.042628142            2 
   71000    1.2034487   -6.4486431    30.073854   0.03529795  0.042592443            2 
   72000    1.2344773   -6.4191161      30.6678  0.035495139   0.04256664            2 
   73000    1.2345943   -6.4169079    31.102042  0.035504614  0.042536757            3 
   74000    1.2099377   -6.4382223    31.562746  0.035543632  0.042494927            1 
   75000    1.2026166   -6.4732743     31.94809  0.035497877  0.042445156            2 
   76000    1.2250582   -6.4416444    32.457038  0.035588857  0.042397021            2 
   77000    1.2074103   -6.4266821    33.034422  0.035751539  0.042354812            2 
   78000    1.2274919   -6.4408834    33.482388  0.035771782  0.042321894            2 
   79000    1.2207457   -6.4250353    33.953874  0.035816322  0.042291683            3 
   80000    1.2446798   -6.4275299    34.590011  0.036031261    0.0422648            3 
   81000    1.2146361   -6.4121459    35.224416  0.036239111  0.042246829            3 
   82000    1.2014534   -6.4315327    35.717622  0.036298396  0.042236123            1 
   83000    1.2603128   -6.4232394     36.40244  0.036548634  0.042234279            1 
   84000    1.2227468   -6.4774965    36.651242  0.036360359  0.042236057            5 
   85000    1.2444482    -6.492075    37.360129  0.036627577  0.042246315            2 
   86000    1.2479681   -6.4472575     37.75959   0.03658875  0.042255074            1 
   87000    1.2154782     -6.44363    38.692034  0.037061335  0.042269888            3 
   88000    1.1997005   -6.4379948    39.125384  0.037050553  0.042292096            2 
   89000    1.2377977   -6.4395163    39.273795  0.036773216  0.042297889            2 
   90000    1.2173978   -6.4294183    39.903362  0.036947557  0.042296934            2 
   91000    1.2042203   -6.4757204    40.223557  0.036834759  0.042289966            1 
   92000    1.2353939   -6.4390293    40.899534  0.037046679  0.042284665            1 
   93000    1.1999173   -6.4712512    41.398007  0.037094989  0.042283242            2 
   94000    1.2056956   -6.4701044    41.652756  0.036926202  0.042275668            4 
   95000    1.2000159   -6.4094773    42.195085  0.037013232  0.042260834            3 
   96000     1.224666   -6.4397122    42.654796  0.037026733  0.042238697       -1e+20 
   97000    1.2135311   -6.4178776    43.173692    0.0370908  0.042218467            1 
   98000     1.210189   -6.4442063    43.641115  0.037109791  0.042198301            1 
   99000    1.1920649   -6.4820172    43.962892  0.037005801  0.042171707            3 
  100000     1.237497   -6.4340588    44.603312  0.037169426  0.042142113            1 
  101000    1.2085134    -6.451933    45.057993  0.037176562  0.042118479            2 
  102000    1.2001952   -6.4705293    45.492165  0.037166801  0.042097531            2 
  103000     1.176091    -6.411892    46.213432  0.037389508   0.04208268            1 
  104000    1.2329298   -6.3892084    46.737317  0.037449773  0.042070526            3 
  105000    1.2136344   -6.4266997    47.356255  0.037584329   0.04207046            4 
  106000    1.2170806   -6.4872786     47.70975  0.037507665  0.042065256            2 
  107000    1.2225917   -6.4780092    48.087204  0.037451093  0.042063503            2 
  108000    1.2139295   -6.4875631    48.641193  0.037531784  0.042059541            3 
  109000    1.2277728    -6.466922    49.322713  0.037708496  0.042060138            4 
  110000    1.2258522   -6.4641544    49.873948  0.037783294  0.042061244            1 
  111000    1.2169589   -6.4352465    50.197691  0.037685954  0.042054236            2 
  112000    1.2147879   -6.4627657    50.740238  0.037753153  0.042047777            1 
  113000    1.2304077   -6.4700371     51.48841  0.037970804  0.042050455            6 
  114000    1.2287335   -6.4568416    52.169181  0.038135366  0.042057042            2 
  115000     1.217832   -6.4909855    52.560057  0.038086997  0.042065432            3 
  116000    1.2233615   -6.4869136    53.014114  0.038084852  0.042074072            3 
  117000    1.1818584   -6.4563896    53.366739  0.038010497   0.04207856            4 
  118000    1.2176515   -6.4591074    53.861842  0.038038024  0.042083059            2 
  119000    1.1697715   -6.4801771    54.435046   0.03811978  0.042084153            2 
  120000    1.2106664   -6.4279694    55.088588  0.038255963  0.042086349            2 
  121000    1.2193325    -6.439432    55.404903  0.038157647  0.042089006            3 
  122000    1.2022367   -6.4676987    55.911235  0.038190734  0.042090923            3 
  123000    1.1798875   -6.4647607    56.456983  0.038249988  0.042094329            1 
  124000    1.2290278   -6.4906616    56.868865  0.038218323  0.042094794            3 
  125000    1.1783294   -6.4495241     57.52415  0.038349433  0.042093608            2 
  126000    1.1940509   -6.4509906    57.931142  0.038314247  0.042099272            2 
  127000    1.2133518   -6.4618961    58.371528  0.038301527  0.042095522            3 
  128000    1.2203529   -6.4400438    58.972474  0.038393538   0.04209445            3 
  129000    1.2034945    -6.461817    59.402361  0.038373618  0.042093761            2 
  130000    1.2134063    -6.503739    59.383937  0.038066626  0.042082132            3 
  131000    1.1825854   -6.4926642    60.231697  0.038315329  0.042069004            1 
  132000    1.1942631   -6.4701027    60.548701   0.03822519  0.042057842            1 
  133000    1.1759942   -6.4657132    61.100838  0.038283733  0.042047771            2 
  134000     1.190049   -6.4627467    61.462262    0.0382228  0.042035345            2 
  135000      1.16689   -6.4605197    62.202834  0.038396811  0.042023468            1 
  136000    1.1966041   -6.5183895    62.572291  0.038340865  0.042015611            2 
  137000    1.2225303   -6.4802582    63.455349  0.038598144  0.042010194            2 
  138000     1.222898   -6.4785684    63.847189  0.038555066  0.042006715            2 
  139000    1.1809013   -6.4751821    64.596951  0.038727189  0.042006209            4 
  140000    1.1895299   -6.4786903    65.324315   0.03888352  0.042014161            1 
  141000    1.1873989   -6.4856172    65.661158  0.038806831  0.042021976            5 
  142000    1.2193105   -6.4731867    65.970065  0.038714827  0.042023847            2 
  143000    1.2041535   -6.4477674    66.260713  0.038613469  0.042022825            3 
  144000    1.1996963   -6.4873547    66.640436  0.038565067  0.042017288            1 
  145000     1.198567   -6.4894613    67.379382  0.038723783  0.042012972            1 
  146000    1.1862706   -6.5045939    67.734188  0.038661066  0.042010893            1 
  147000    1.1781659    -6.478756    68.383273  0.038766028  0.042006084            1 
  148000    1.1877582   -6.4942534    68.635792  0.038646279  0.042002608            2 
  149000    1.1884252   -6.4949675    69.181403   0.03869206  0.041996955            5 
  150000     1.197458   -6.5571393    69.644638  0.038691465  0.041988778            2 
  151000    1.2076607   -6.4656358    70.278417  0.038784998  0.041978241            2 
  152000    1.1818175   -6.5001587    70.311302  0.038547863  0.041966273            1 
  153000    1.1826087   -6.4772315    71.093802  0.038722114  0.041951802            2 
  154000    1.2114912   -6.4820782    71.428799  0.038651947  0.041943009            2 
  155000    1.1798215    -6.528899    71.761488  0.038581445  0.041929389            2 
  156000    1.2237582   -6.5147986    72.280956  0.038611622  0.041916653            2 
  157000    1.1758791   -6.5194255    72.575478  0.038522016  0.041901352            2 
  158000    1.2114588   -6.5132212    73.137899  0.038574841  0.041885078            4 
  159000    1.1522262   -6.5037878    73.661482  0.038606647  0.041870405            2 
  160000     1.179313   -6.4982271    73.923719  0.038501937  0.041850623            2 
  161000    1.1800855   -6.4894311     74.28682  0.038450735  0.041831567            1 
  162000    1.2246735   -6.5246701    74.512834  0.038329647  0.041808183            1 
  163000    1.2115085   -6.4990471    75.025533  0.038356612  0.041781178            1 
  164000    1.1430294    -6.508324    75.270967  0.038247443  0.041751432            1 
  165000    1.1603576   -6.5028543    75.657424   0.03821082  0.041719406            2 
  166000    1.1866504   -6.5435528    76.064395  0.038184937  0.041688037            3 
  167000    1.1830637   -6.5156036     76.61004  0.038228563  0.041655708            1 
  168000    1.2177365   -6.4825395     77.27175  0.038329241  0.041629791            1 
  169000    1.1890488   -6.5195841    77.795769  0.038360833  0.041603724            1 
  170000    1.1992387   -6.5024769    78.109903  0.038289168   0.04157936            3 
  171000    1.1780636   -6.5311262     78.40933  0.038211175  0.041552608            2 
  172000    1.1715909    -6.504895    78.945798  0.038248933  0.041523784            1 
  173000    1.1806218   -6.4529947     79.49336  0.038291599  0.041494798            2 
  174000    1.1927451   -6.4691124    79.700238  0.038170612  0.041464833            2 
  175000    1.1874285   -6.5280186    79.630191  0.037919139  0.041433611            4 
  176000    1.1992487    -6.537212    80.089827   0.03792132  0.041400409            2 
  177000    1.1868861   -6.5384838    80.767311  0.038026041  0.041366432            2 
  178000    1.1708948   -6.4941067     81.19379  0.038012074  0.041334484            1 
  179000    1.1794688   -6.4984906    81.909832  0.038133069  0.041302627            2 
  180000     1.194379   -6.5112814    82.360183  0.038129714  0.041271027            3 
  181000    1.1639418   -6.5238982    82.616416  0.038037024  0.041238323            3 
  182000    1.1844833   -6.5040717    83.165624  0.038079498  0.041205388            2 
  183000    1.1941751   -6.5464339    83.642442  0.038088544  0.041174242            1 
  184000    1.1687746   -6.5421375    83.866994   0.03798324  0.041144412            2 
  185000    1.1991613   -6.5400341    84.484665  0.038056156  0.041117489            2 
  186000    1.1905845    -6.489129    85.363987  0.038245514   0.04109209            2 
  187000    1.1846113   -6.5370133    85.638795  0.038163456  0.041063946            2 
  188000    1.1645828   -6.5387699    85.782783  0.038024283  0.041033861            3 
  189000    1.1768681   -6.4734375    86.830098  0.038284875  0.041006649            1 
  190000    1.1724632   -6.5245968    87.056528  0.038182688  0.040982592            1 
  191000    1.2276538   -6.5419962     87.56311    0.0382038  0.040959263            4 
  192000    1.1792819   -6.5216543    87.858295   0.03813294  0.040934457            1 
  193000    1.1751105    -6.498248    88.527541  0.038224327  0.040908169            1 
  194000    1.1676689   -6.5387178     88.59297    0.0380554    0.0408822            2 
  195000    1.1558473   -6.5367388    88.955666  0.038015242  0.040850931            3 
  196000    1.2098773   -6.5222435    89.562896  0.038079463   0.04082263            4 
  197000     1.195503   -6.5634842    89.671564  0.037932134  0.040795306            2 
  198000    1.1651646   -6.5636282    90.030774   0.03789174   0.04076787            4 
  199000    1.1940138   -6.5134415    90.463445  0.037882515  0.040738517            2 
  200000    1.1836359   -6.5714398    90.867596  0.037861498  0.040710992            3 
  201000    1.1801736   -6.5054061    91.844905  0.038078319  0.040685681            2 
  202000     1.189996   -6.5270333    92.573888  0.038190548  0.040663356            2 
  203000    1.1966608   -6.5660728    92.452404  0.037952547  0.040639803            4 
  204000    1.1867763     -6.52301    93.108238  0.038034411  0.040614735            4 
  205000    1.1588889   -6.5336133    93.532596  0.038021381  0.040589269            2 
  206000    1.1867428    -6.524877    94.151001  0.038086974  0.040566374            2 
  207000    1.1532263    -6.554881    94.894005  0.038202095  0.040545949            2 
  208000    1.1524321   -6.5192641    95.161203  0.038125482  0.040522503            1 
  209000    1.1722986    -6.537072    95.029986  0.037890744  0.040499176            3 
  210000    1.1620524    -6.587759    95.570159  0.037924666   0.04047332            2 
  211000    1.1891803   -6.5132494    96.256904  0.038016155  0.040449644            2 
  212000      1.19923   -6.5619196    96.694315  0.038008772  0.040425671            4 
  213000    1.1453131    -6.528603    97.377991  0.038097806  0.040402433            3 
  214000    1.1491544    -6.529173    97.597023  0.038005071  0.040379824            1 
  215000    1.1526524   -6.4988235    98.365007  0.038125972  0.040359664            2 
  216000    1.1887021   -6.5699912       98.421  0.037971065  0.040341232            2 
  217000    1.1537763   -6.5450464    98.996745  0.038017183  0.040319222            3 
  218000    1.1769856   -6.5496351    99.284297  0.037952713  0.040298298            2 
  219000    1.1706056   -6.5012572    99.234164  0.037760336  0.040274285            2 
  220000     1.173466   -6.5673974    99.627641  0.037737743  0.040249098            1 
  221000    1.1600489   -6.5265538    100.35257  0.037840335  0.040221955            1 
  222000     1.184591   -6.5373265    100.48702  0.037720354  0.040195625            3 
  223000    1.1608301   -6.5442676    100.73351  0.037643313  0.040165231            2 
  224000    1.1649941   -6.5829869    100.94632  0.037554435  0.040135964            2 
  225000    1.1366134   -6.5697459    101.24833  0.037499383  0.040103812            3 
  226000    1.1729239   -6.5542809     101.8677  0.037561838  0.040069422            2 
  227000     1.139217    -6.552794    102.25136  0.037537208  0.040036502            1 
  228000    1.1669155   -6.5232814    102.31063  0.037394238  0.040004023            3 
  229000    1.1488794   -6.5118129    103.10975  0.037521743  0.039972095            2 
  230000    1.1700648   -6.5709918    103.64327  0.037551911  0.039943193            2 
  231000     1.165198   -6.5692159    103.59481  0.037371866   0.03991395            4 
  232000    1.1375999   -6.5727549    104.43353  0.037512042  0.039883974            2 
  233000    1.1812715   -6.5461474    104.67926  0.037438933  0.039852958            2 
  234000    1.1725005   -6.5543978    105.02657  0.037402625  0.039821962            1 
  235000    1.1774542   -6.5766788    105.88686  0.037548532  0.039794473            4 
  236000    1.1733086   -6.5200049    106.55796  0.037626398  0.039769174            2 
  237000    1.1613916   -6.5523851    106.91648  0.037593699  0.039745654            2 
  238000    1.1385998   -6.5137079     107.3534  0.037588724  0.039721576            1 
  239000    1.1582797   -6.5497873    108.10335  0.037692939  0.039698413            2 
  240000     1.156741   -6.5452526    108.47324  0.037664321  0.039676354            2 
  241000    1.1740011   -6.5710814    108.70974  0.037589812  0.039654254            2 
  242000    1.1541748   -6.5598081    109.23563  0.037615574  0.039631833            2 
  243000    1.1610955   -6.5122126     110.1813  0.037785081  0.039609828            6 
  244000    1.1549487   -6.5782148    109.98435  0.037562962   0.03958759            2 
  245000    1.1463114   -6.5876882    110.41156  0.037554953    0.0395659            2 
  246000    1.1647763   -6.5639064    110.74513  0.037515289  0.039541594            2 
  247000    1.1572768   -6.5783959    110.84895  0.037398431  0.039517328            4 
  248000     1.148585   -6.6035093    111.09228  0.037329396    0.0394928            2 
  249000    1.1619895   -6.5536777    112.16165  0.037537367  0.039468697            5 
  250000    1.1607947   -6.5412465    112.28616  0.037428719  0.039443752            3 
  251000    1.1532551   -6.5676941    112.24168  0.037264834  0.039418099            2 
  252000    1.1451462   -6.5717985    113.04316  0.037381999     0.039391            1 
  253000    1.1607121   -6.5562713    113.09879  0.037252567  0.039364953            4 
  254000    1.1356389   -6.5352753    114.31975   0.03750648   0.03933871            1 
  255000    1.1485992   -6.5781628    113.58963  0.037120793  0.039312362            6 
  256000    1.1248966   -6.5399129    114.01321  0.037113676  0.039284153            2 
  257000    1.1588749   -6.5418202    114.78439  0.037219324  0.039255946            3 
  258000    1.1320036   -6.5483446    114.86675  0.037101664  0.039228327            5 
  259000     1.146542   -6.5197416    115.45218  0.037146777  0.039200056            2 
  260000    1.1551667   -6.5680736    115.29705  0.036954184  0.039170428            4 
  261000    1.1528196   -6.5525028    116.04769  0.037052264  0.039139817            1 
  262000    1.1541324    -6.582635     116.1731  0.036950731  0.039108181            2 
  263000    1.1586934   -6.5901651     116.7105  0.036980513   0.03907733            1 
  264000    1.1274242   -6.5893347     117.1367  0.036974968  0.039048021            1 
  265000    1.1453998    -6.595963    117.01159  0.036796096  0.039018082            4 
  266000    1.1591635   -6.5960542     117.6857  0.036868955  0.038987564            2 
  267000    1.1647493   -6.5388588    118.06084  0.036847952  0.038956798            2 
  268000    1.1373814   -6.5864275     118.2897  0.036781623  0.038926564            3 
  269000    1.1342631   -6.5854529    118.52323  0.036717235  0.038896723            3 
  270000    1.1207421    -6.564435    119.00312  0.036729359  0.038866612            3 
  271000    1.1556342   -6.5785386    119.25065   0.03666994  0.038834697            2 
  272000    1.1285909   -6.5806889    119.40539  0.036582534  0.038802418            3 
  273000    1.1323489   -6.6096069    120.07389  0.036652592  0.038768957            3 
  274000    1.1238622    -6.617599    120.33559  0.036598415   0.03873631            2 
  275000    1.1475423   -6.5830003     120.9677   0.03665688   0.03870457            3 
  276000    1.1332329   -6.6464222    121.09518  0.036562555  0.038673213            2 
  277000    1.1614247   -6.6109238    121.85624  0.036659518  0.038641092            3 
  278000    1.1464107   -6.6261489     121.7179   0.03648618  0.038608666            2 
  279000    1.1457616   -6.6130809    122.13934  0.036481284  0.038578073            3 
  280000    1.1366721   -6.5987197    122.95091  0.036592532  0.038548563            1 
  281000    1.1549001   -6.5664387    123.51687  0.036630151  0.038518674            3 
  282000    1.1420886   -6.5774434    123.60745  0.036527025  0.038488058            1 
  283000    1.1657558   -6.5714873    123.89511  0.036482659  0.038458022            3 
  284000    1.1534987   -6.6245192    124.32247  0.036479598  0.038427119            2 
  285000    1.1471954    -6.601046    124.35414   0.03636086  0.038397147            1 
  286000    1.1399386   -6.6027716    125.06967  0.036442212  0.038366231            2 
  287000    1.1529866   -6.5829906    125.75081  0.036513011  0.038335518            2 
  288000    1.1214408   -6.6169659    125.85595  0.036416651  0.038306116            3 
  289000    1.1394655   -6.6027515    125.94365  0.036315932  0.038275803            3 
  290000    1.1472091   -6.5950661    126.47243  0.036342653  0.038245934            2 
  291000    1.1491753   -6.6240866     127.3171   0.03645965  0.038217386            5 
  292000    1.1469591   -6.5990483    127.49684  0.036386085  0.038189095            1 
  293000    1.1369309   -6.5861519     127.8963  0.036375511  0.038161302            1 
  294000    1.1233424   -6.5968341    128.49563  0.036421663  0.038133596            2 
  295000    1.1433029    -6.596828     128.4963  0.036298389  0.038105795            3 
  296000    1.1357962   -6.5655926    129.49141  0.036455915  0.038078536            2 
  297000    1.1512457   -6.5864985    129.74774  0.036405091  0.038052307            3 
  298000    1.1403371   -6.6344336    130.18956  0.036406477  0.038026253            3 
  299000    1.1494717   -6.6159753     130.5968  0.036398216  0.038001721            2 
  300000    1.1340834   -6.6290241     131.2151   0.03644864  0.037977351            3 
  301000    1.1485966   -6.5975931    131.15833   0.03631183  0.037952552            2 
  302000    1.1294046   -6.6239942    131.81657  0.036373225  0.037928814            2 
  303000    1.1419532   -6.5903897    132.04276   0.03631539  0.037904106            5 
  304000    1.1123825   -6.5998732    132.11319   0.03621524  0.037879477            3 
  305000      1.11895   -6.5988583    133.12958  0.036374201  0.037855598            1 
  306000    1.1244941   -6.6048627    133.53537  0.036365842  0.037831889            2 
  307000    1.1320964   -6.6053803    133.88038  0.036341038  0.037809925            4 
  308000     1.121078   -6.6244033    134.00956  0.036257998   0.03778682            5 
  309000    1.1396379   -6.6171996    134.58616   0.03629616  0.037763354            4 
  310000    1.1407736   -6.6238295    134.41633  0.036133421  0.037739182            1 
  311000    1.1351111   -6.6251163    135.22723  0.036234521  0.037714746            1 
  312000    1.1115604   -6.6191208    135.66718  0.036235893  0.037691041            7 
  313000    1.1205694   -6.5899526    136.02519  0.036215439  0.037666002            3 
  314000    1.1267583   -6.6394285    136.36249   0.03618962  0.037641335            4 
  315000    1.1232269    -6.597334    136.34333  0.036069663  0.037617203            2 
  316000    1.1196706   -6.6153498     136.8537  0.036090112  0.037591668            3 
  317000    1.1085079   -6.5492519    137.35973  0.036109286  0.037566311            3 
  318000    1.1124847   -6.6060337    137.90959  0.036139829  0.037542417            1 
  319000    1.1391913    -6.636016    138.43126  0.036162815  0.037518125            2 
  320000    1.1170471   -6.6680033    138.39161  0.036039482  0.037493108            6 
  321000    1.1093038   -6.5707719    139.05345  0.036099026   0.03746749            1 
  322000    1.1393685   -6.6204153    138.65306  0.035883298  0.037441651            4 
  323000     1.127867   -6.6193661    139.23518  0.035922389  0.037414481            2 
  324000    1.1219219   -6.5715649    139.59653  0.035904457  0.037387653            2 
  325000    1.1447181   -6.6516583    139.18654  0.035688857  0.037360077            3 
  326000    1.1143248   -6.6846851    139.80634  0.035737816  0.037332588            4 
  327000     1.135129   -6.6062092    141.04413  0.035943968  0.037306191            2 
  328000    1.1297408    -6.581303     141.5518  0.035963364  0.037282126            2 
  329000    1.1332153   -6.6179667    141.69814   0.03589112   0.03725874            2 
  330000    1.1353722   -6.6129694    142.33215  0.035942461   0.03723498            3 
  331000    1.1280886   -6.6319171    142.84319  0.035962536   0.03721167            5 
  332000    1.1001828   -6.6338031    143.42233  0.035999581  0.037189731            2 
  333000    1.1202537   -6.6601427    143.46512  0.035902183  0.037168688            3 
  334000    1.1194084   -6.6341287    143.96019  0.035918212  0.037148019            2 
  335000    1.1439856   -6.6140666    145.14361  0.036105376  0.037128826            1 
  336000      1.12031   -6.6352431    144.88746  0.035934389  0.037109626            3 
  337000    1.1309948   -6.6522433    145.48632  0.035975844  0.037090185            4 
  338000    1.1121568   -6.6292257    145.68943  0.035919485  0.037069969            3 
  339000    1.1221582   -6.6578946    146.03421  0.035898283  0.037050122            3 
  340000    1.1257956   -6.6227369    146.26565  0.035849423  0.037029889            4 
  341000     1.126398   -6.6314138     146.8335  0.035883065  0.037009849            3 
  342000    1.1289978   -6.6649496    146.94438  0.035805162   0.03698983            1 
  343000    1.1031911   -6.6132265    148.13492   0.03599002  0.036970316            2 
  344000    1.1182096   -6.6140272    148.41467  0.035953166  0.036951626            3 
  345000    1.1052137   -6.6471003    148.81253  0.035945054   0.03693397            2 
  346000    1.1024057    -6.614553    149.38963  0.035980161  0.036915084            1 
  347000    1.1304318   -6.6490586    149.27868  0.035849827  0.036897279            3 
  348000    1.1270205   -6.6380903    150.17187  0.035960697  0.036881189            2 
  349000    1.1091916   -6.6249268    150.21543  0.035868058  0.036864365            1 
  350000    1.1034815   -6.5990086    151.62527  0.036101256  0.036848385            1 
  351000    1.1193285   -6.6227312    151.60816   0.03599434    0.0368324            3 
  352000    1.1321969    -6.578096     151.9916  0.035982859  0.036816793            1 
  353000     1.128891   -6.6633774    152.43551  0.035985721  0.036799998            2 
  354000    1.1014419   -6.6270985    152.68545  0.035942902  0.036783156            2 
  355000    1.1002751   -6.6069215    153.25624  0.035975643  0.036767544            2 
  356000    1.1079669   -6.6216348    153.42681  0.035914515   0.03675114            3 
  357000    1.1073052   -6.6500219    153.51251  0.035833918  0.036735032            3 
  358000    1.1207274   -6.6432747    153.86138  0.035815033  0.036718344            5 
  359000    1.1339562   -6.6497082    154.33309  0.035824766  0.036702351            2 
  360000    1.1230309   -6.6685835    154.66762   0.03580269  0.036687308            3 
  361000    1.1276412   -6.6945742    155.45983  0.035886388  0.036670786            2 
  362000    1.0946039   -6.6510079    155.61373  0.035822683  0.036655388            3 
  363000    1.1190448   -6.6818822    155.90774  0.035791493  0.036640082            2 
  364000    1.1127814   -6.6413961    156.48937   0.03582632  0.036624332            3 
  365000    1.1125408   -6.6347698    157.29065  0.035911108  0.036609298            1 
  366000    1.0914569    -6.666803    157.21544  0.035795864  0.036594565            4 
  367000    1.0954747   -6.6407784    156.88191  0.035622595  0.036577395            3 
  368000    1.1069391    -6.703312    157.79397  0.035732331   0.03656168            2 
  369000    1.1004595   -6.6671126    158.29228  0.035748031  0.036545133            3 
  370000    1.1145846   -6.6801524    158.97023  0.035804105  0.036528852            6 
  371000    1.1267459   -6.6591689    158.76771   0.03566211  0.036513236            3 
  372000    1.1099659   -6.6379268    159.57455  0.035746988  0.036497745            2 
  373000    1.0973727   -6.6913604    160.02947  0.035752785  0.036483597            4 
  374000    1.1069412   -6.6329322    160.11688  0.035676666  0.036468748            3 
  375000    1.1190984   -6.6954735    160.06861  0.035570802  0.036453143            3 
  376000    1.1112557   -6.6859852    160.17671  0.035500157    0.0364365            3 
  377000    1.0955594   -6.6813639    161.05798  0.035600791  0.036419692            5 
  378000    1.0941538   -6.6266065    161.51365  0.035607066  0.036404475            3 
  379000    1.1054295   -6.6422882     161.4302  0.035494767  0.036388133            1 
  380000    1.0808246   -6.6418249    161.91397  0.035507448  0.036371927            2 
  381000    1.1159345   -6.6998487    162.15882  0.035467809  0.036353753            3 
  382000    1.1122519   -6.6547666    162.71348  0.035495959  0.036336603            2 
  383000    1.0985815   -6.6509036    163.16912  0.035502419  0.036320048            3 
  384000    1.0985865     -6.67532    163.38151  0.035456056  0.036303875            4 
  385000    1.1111285   -6.6901299     163.7236  0.035438008  0.036286923            2 
  386000    1.1366563   -6.6602879    164.15888  0.035440172  0.036269939            2 
  387000    1.0990964   -6.6729457    165.13174  0.035558084   0.03625358            2 
  388000    1.0967514   -6.6745341     165.6066  0.035568428   0.03623754            6 
  389000    1.0941359     -6.66756    165.18888  0.035387507     0.036221            2 
  390000    1.1184167   -6.6722463    165.38142   0.03533791  0.036203445            1 
  391000    1.0819668   -6.7103614    165.45889  0.035264043  0.036185241            2 
  392000    1.0574732   -6.6911332    165.97352  0.035283486  0.036166345            1 
  393000    1.0838613   -6.6967011    166.12099  0.035224977  0.036147697            4 
  394000    1.1089133   -6.6751839    166.76068  0.035270872  0.036129427            4 
  395000    1.0968517    -6.663857    166.96956  0.035225645  0.036110404            2 
  396000    1.0717434   -6.6936142     166.5429  0.035046907  0.036089831            2 
  397000    1.0856113   -6.6890503    166.94427  0.035042877  0.036069088            2 
  398000    1.1221873   -6.7030459    167.14612  0.034997095  0.036048073            4 
  399000    1.0809318   -6.6521269    167.61185  0.035006652  0.036028077            2 
  400000    1.1313952   -6.6822577    167.70183  0.034937882  0.036008167            1 
  401000    1.0880104   -6.6795366    168.37296  0.034990225  0.035988039            1 
  402000    1.0730806   -6.6839698    168.99704  0.035032553  0.035968592            2 
  403000    1.0926688    -6.671772    169.27951  0.035004034  0.035948655            3 
  404000    1.0996754   -6.7243383    169.94887  0.035055459   0.03592932            3 
  405000    1.0801784   -6.6785416    170.02619  0.034984812  0.035911205            2 
  406000    1.0802577    -6.706717    170.25369  0.034945339  0.035892443            4 
  407000    1.0989066    -6.705412    170.48492  0.034906822  0.035873052            4 
  408000     1.077111    -6.697201    171.41946  0.035012145  0.035853855            2 
  409000    1.1108669   -6.7228739    170.76221  0.034792625  0.035834264            4 
  410000    1.0839309   -6.6862206    172.12924  0.034985618  0.035814133            2 
  411000    1.0795012   -6.7252078    171.82231  0.034838262  0.035793563            2 
  412000    1.0910158   -6.6992231    171.72605  0.034734233  0.035772605            6 
  413000     1.091645   -6.6595837    172.46071  0.034798368  0.035752697            2 
  414000     1.088619   -6.6944919    173.22275  0.034867703  0.035733487            2 
  415000    1.1112228   -6.6914411    173.76766  0.034893105  0.035714902            4 
  416000    1.0800065   -6.6718426    174.70161  0.034996317   0.03569698            3 
  417000    1.0981015   -6.7143642    174.02771   0.03477772  0.035679188            2 
  418000    1.0843855   -6.6767669    175.22371  0.034932957  0.035661066            3 
  419000     1.075061   -6.7056024    175.17906  0.034840703   0.03564303            4 
  420000    1.1073632   -6.7093067    175.45024  0.034811556  0.035625481            3 
  421000     1.100175   -6.6732731    175.97084  0.034831916  0.035607345            1 
  422000    1.0893574   -6.6820753    176.31727  0.034817786  0.035589176            3 
  423000    1.0963726   -6.6669303    176.73045  0.034816874  0.035570646            3 
  424000    1.0907928   -6.6955857    176.70696  0.034730141   0.03555203            2 
  425000    1.1127671   -6.7260027    176.61291  0.034629982  0.035532748            3 
  426000    1.0716975   -6.7259494    176.94886  0.034614409  0.035513806            4 
  427000    1.0662814   -6.7240153    177.40188  0.034621756  0.035494172            2 
  428000    1.0808957   -6.6942928    177.57057   0.03457371  0.035475382            3 
  429000     1.061587   -6.6966425    177.85487  0.034548343  0.035455602            5 
  430000    1.1082206   -6.7006985    178.51031   0.03459502  0.035436123            2 
  431000    1.0765185   -6.7201188    178.51422   0.03451551  0.035417052            4 
  432000    1.0869312   -6.7031232    179.46169  0.034618382  0.035398225            2 
  433000    1.0795928   -6.7515154    179.55165  0.034555745  0.035380191            4 
  434000    1.0743866   -6.7346438    180.19118  0.034598921  0.035361737            5 
  435000    1.0819181   -6.7016849    180.66064  0.034609318  0.035343944            7 
  436000    1.0476486   -6.7254208    181.02195  0.034598997  0.035325855            3 
  437000    1.0782188   -6.7510545    181.24041  0.034561481  0.035307706            2 
  438000    1.1149379    -6.709419    182.16537  0.034658556  0.035290392            3 
  439000    1.0853298    -6.699637    181.96627  0.034541812  0.035273229            4 
  440000     1.068102    -6.698716    182.48618  0.034561776  0.035255626            2 
  441000    1.0626094   -6.7309014     181.8113  0.034355876  0.035237777            5 
  442000     1.095367   -6.7358602    182.25054  0.034360961  0.035219586            4 
  443000     1.081429   -6.7170419     183.5415  0.034526241  0.035201068            2 
  444000    1.0637269   -6.6980691     183.3009  0.034403322  0.035182356            2 
  445000    1.0874254   -6.7382794    183.71708  0.034403948  0.035163532            4 
  446000    1.0976695   -6.6849393    184.50978  0.034474921  0.035144848            2 
  447000    1.0738388   -6.7185762    184.61524  0.034417457  0.035126704            4 
  448000     1.078318   -6.7392229    185.11837  0.034434221  0.035108978            6 
  449000    1.0722327    -6.712465    185.81268  0.034486392  0.035092106            3 
  450000    1.0469213   -6.7453659    185.57036  0.034364882  0.035074808            4 
  451000    1.0516923   -6.6936461    186.27484  0.034418854  0.035057931            1 
  452000    1.0839055   -6.7383658    185.97966  0.034288285  0.035040771            4 
  453000    1.0985027    -6.696074    186.12966  0.034240187  0.035022949            4 
  454000    1.0834572   -6.7189473    186.61134  0.034253183  0.035004561            4 
  455000    1.0657058   -6.7535084    186.76645   0.03420631  0.034985909            2 
  456000    1.0849467   -6.7355218    187.20253  0.034210989  0.034967616            3 
  457000    1.0798425   -6.7163335    188.08753  0.034297507  0.034949363            3 
  458000    1.0491702   -6.7056733    188.22067  0.034246846  0.034931183            3 
  459000    1.0640142   -6.7106406    188.71078  0.034261216  0.034913381            2 
  460000    1.0363215   -6.6796343    189.57146  0.034342656  0.034896317            3 
  461000    1.0765104   -6.7212797    189.42166  0.034241082  0.034879728            8 
  462000    1.0852495   -6.7536435    189.99986  0.034271259  0.034862637            4 
  463000    1.0729912   -6.7322669    190.20712  0.034234542  0.034845814            2 
  464000    1.0735634   -6.7014843    190.80423  0.034268001  0.034828819            1 
  465000    1.0824324   -6.7143466    190.50499  0.034140679  0.034811802            2 
  466000    1.0703238   -6.7414216    191.19242  0.034190346  0.034794134            1 
  467000    1.0657578   -6.6905541    191.67662  0.034203537  0.034777047            5 
  468000    1.0809196   -6.7528115     190.9716  0.034004915   0.03475913            1 
  469000    1.0632783   -6.7328388    191.83478  0.034085781  0.034741126            2 
  470000    1.0668424   -6.7500154     191.0314  0.033870816  0.034723282            2 
  471000    1.0708739   -6.7384924    191.97126  0.033965191  0.034704949            6 
  472000     1.044483   -6.7359875    192.84358  0.034047242  0.034686917            2 
  473000    1.0544918   -6.7121909    193.18557  0.034035512  0.034669311            7 
  474000    1.0620445   -6.7231564    193.28078  0.033980447  0.034651793            3 
  475000    1.0752202   -6.7376587    193.72433  0.033986724  0.034634174            4 
  476000    1.0788464   -6.7307818    193.67846  0.033907293  0.034616644            3 
  477000    1.0469829   -6.7455041    194.43934  0.033969137  0.034598772            5 
  478000    1.0757245   -6.7462685    194.55739  0.033918652  0.034580903            2 
  479000     1.043724   -6.7683327    195.04381  0.033932465  0.034563332            5 
  480000    1.0447443   -6.7613547    195.73556  0.033981868  0.034545331            2 
  481000    1.0566984    -6.717542    195.41815  0.033856228   0.03452721            3 
  482000    1.0647853   -6.7589242    195.79314   0.03385082  0.034509305            3 
  483000    1.0567855   -6.7269557    195.59237  0.033746095  0.034490681            3 
  484000    1.0494618   -6.7357633    196.19186   0.03377959  0.034471856            3 
  485000    1.0698707   -6.7747594     196.0693  0.033688883  0.034452924            3 
  486000    1.0565915   -6.7392326    196.40193    0.0336766  0.034434282            2 
  487000    1.0677194   -6.7585543    197.18617  0.033741645     0.034415            3 
  488000    1.0535442   -6.7458058    197.12707   0.03366241  0.034395291            2 
  489000    1.0583739   -6.7704298    196.90424  0.033555597  0.034375366            2 
  490000    1.0627268   -6.7188892    197.28298  0.033551528  0.034355239            1 
  491000    1.0834866   -6.7364256    197.86556   0.03358207  0.034335443            4 
  492000    1.0537835    -6.782527    197.87445   0.03351532  0.034315532            4 
  493000    1.0420378    -6.759422     198.2962  0.033518628  0.034296218            2 
  494000    1.0757475   -6.7787355    199.79532  0.033703664  0.034277033            3 
  495000     1.037779   -6.7096094    200.75023  0.033796335  0.034258438            6 
  496000    1.0444778   -6.7563155     199.5871  0.033532779  0.034240284            2 
  497000    1.0531908   -6.7757877    199.76033  0.033494354  0.034221376            2 
  498000    1.0392878   -6.7446325    200.20585  0.033501649  0.034202436            2 
  499000    1.0572852   -6.8079081    200.76413  0.033527744  0.034183484            3 
  500000    1.0273343    -6.767367    200.55321  0.033425535  0.034165003            3 
  501000    1.0714116   -6.7796244    201.32329  0.033486908  0.034146517            2 
  502000    1.0274109   -6.7387883    201.21729  0.033402605   0.03412808            3 
  503000    1.0655363    -6.727149    202.31785  0.033518531  0.034110168            3 
  504000    1.0759161   -6.7759959    202.61066  0.033500439  0.034092299            3 
  505000    1.0793307    -6.776462    202.35415  0.033391774  0.034073971            3 
  506000    1.0317895    -6.807629    203.01964  0.033435381  0.034055668            2 
  507000    1.0579515   -6.7634312    203.89546  0.033513389  0.034038015            4 
  508000     1.041723   -6.7540754    203.98985  0.033462902  0.034020582            3 
  509000    1.0603714   -6.7273072    204.00474  0.033399597  0.034002841            2 
  510000    1.0632672    -6.791328    204.55544  0.033424092  0.033985303            5 
  511000    1.0250479    -6.781684    205.28708  0.033477997  0.033967949            3 
  512000    1.0495016   -6.7720108    205.33892  0.033421048  0.033951166            4 
  513000    1.0351296   -6.7616826    205.84753  0.033438521  0.033934346            4 
  514000    1.0166733   -6.7827665    205.92631  0.033386237  0.033917561            2 
  515000    1.0363086   -6.7958955    206.74263    0.0334535  0.033900524            3 
  516000     1.036812   -6.7477799    207.77268  0.033555019  0.033883729            2 
  517000    1.0722189   -6.7878141    207.51649  0.033448821  0.033868048            4 
  518000    1.0015705   -6.7881874    207.55969  0.033391198  0.033851745            4 
  519000    1.0481708    -6.765737    207.62314  0.033337049  0.033835637            5 
  520000    1.0416988    -6.799028    207.97012  0.033328545  0.033819556            3 
  521000    1.0456448    -6.788186    208.78706  0.033395242  0.033803676            2 
  522000    1.0357812   -6.7523977    209.83373  0.033498361  0.033788047            4 
  523000    1.0300973   -6.7584465    209.98744  0.033458802  0.033772726            3 
  524000    1.0224034    -6.762694    210.21351  0.033430901  0.033757794            2 
  525000    1.0509516   -6.7631551    210.55588  0.033421568   0.03374277            3 
  526000    1.0366533   -6.7674111    210.65521  0.033373765  0.033727852            3 
  527000    1.0447913   -6.7617313    211.61921  0.033462873  0.033712729            4 
  528000    1.0298466     -6.76448    211.32917   0.03335372   0.03369784            3 
  529000    1.0504635   -6.7718149    210.83852  0.033213378  0.033682145            4 
  530000    1.0328521    -6.775121    211.39893  0.033238826  0.033666457            2 
  531000    1.0486778   -6.7645365    211.23883  0.033151104  0.033650134            3 
  532000    1.0564648   -6.7390225      212.098  0.033223371  0.033634194            4 
  533000     1.007825    -6.755433     212.4833  0.033221279  0.033618371            4 
  534000      1.05611   -6.7948083    212.43517  0.033151557  0.033602104            2 
  535000    1.0316919   -6.7762755    212.50126  0.033099884  0.033585614            2 
  536000    1.0537917    -6.775754    214.16705  0.033297117  0.033569496            4 
  537000    1.0319723   -6.7834391    213.79642  0.033177595  0.033554341            3 
  538000     1.022523   -6.8145271    213.45793  0.033063496  0.033538525            3 
  539000    1.0396241   -6.8055367     213.6984  0.033039332  0.033522253            2 
  540000    1.0618031   -6.7590793    214.69112  0.033131346  0.033505932            3 
  541000    1.0385605   -6.7974562    214.97909  0.033114463  0.033489532            2 
  542000    1.0388109    -6.790072    214.37977  0.032961219  0.033473098            2 
  543000    1.0429838   -6.8042959    214.84807  0.032972386   0.03345633            2 
  544000    1.0316539   -6.8161761     215.1695  0.032961015  0.033439559            4 
  545000    1.0444067   -6.7600395    216.03778    0.0330333   0.03342291            4 
  546000    1.0595866   -6.7650053    216.13231  0.032987227  0.033406036            1 
  547000    1.0375128   -6.7813539    216.24498  0.032944086  0.033389266            3 
  548000    1.0267205   -6.8040443    216.54781  0.032930019  0.033372151            2 
  549000    1.0208021   -6.7910788    216.60463  0.032878663  0.033355033            7 
  550000    1.0258939   -6.7884415    217.09839  0.032893695  0.033337789            4 
  551000    1.0167941   -6.7894083    217.55605  0.032903214  0.033320792            1 
  552000     1.031696    -6.837718    216.79466  0.032728663  0.033303657            2 
  553000    1.0208709   -6.8042792     217.9221  0.032839375  0.033286772            2 
  554000    1.0212019   -6.8295561    218.09296    0.0328058  0.033270253            3 
  555000    1.0443445    -6.821511    218.27684    0.0327743  0.033253563            4 
  556000    1.0450887   -6.8174615    218.76885  0.032789096  0.033237076            2 
  557000    1.0140176   -6.8530124    218.81329  0.032736878  0.033220109            3 
  558000    1.0115971   -6.8070015    218.29377  0.032600622  0.033202905            2 
  559000    1.0312892   -6.8392597    219.24589   0.03268424  0.033185332            7 
  560000    1.0405021   -6.7988739    219.33775  0.032639546   0.03316758            1 
  561000    1.0471759   -6.8024532    220.21338  0.032711435   0.03315005            2 
  562000    1.0289163    -6.775007    221.01306  0.032771807  0.033133303            3 
  563000    1.0300963    -6.819186    219.95166  0.032556492  0.033116449            3 
  564000    1.0156052    -6.846265     220.8343  0.032629181  0.033099045            3 
  565000    1.0328415   -6.8178515     220.7085  0.032552875  0.033081529            3 
  566000    1.0336086   -6.7909232    221.13671  0.032558408  0.033064004            3 
  567000    1.0248378   -6.8362207    220.85462  0.032459526  0.033046117            2 
  568000    1.0227444   -6.8480318     220.9657  0.032418677  0.033027228            4 
  569000    1.0191064   -6.8180688    220.65344  0.032315969  0.033008051            3 
  570000    1.0189462   -6.8379497    220.52078  0.032239879  0.032989162            2 
  571000    1.0376216   -6.8418048    221.32312  0.032300514  0.032969858            3 
  572000    1.0123138   -6.8325197    221.15942  0.032220195   0.03295061            3 
  573000    1.0186407   -6.8032881     222.5406  0.032364834  0.032931849            4 
  574000    1.0287565   -6.8479615    222.49546  0.032301896  0.032913491            4 
  575000     1.009247   -6.8484567    222.52473  0.032249961  0.032894543            7 
  576000    1.0156156   -6.8203655    223.46208  0.032329583  0.032875425            5 
  577000     1.042713    -6.822219    222.86205  0.032186893  0.032856525            4 
  578000    1.0309876   -6.7997088    224.39433  0.032352124  0.032837788            2 
  579000    1.0256268    -6.792221    224.02818   0.03224355   0.03281892            1 
  580000    1.0426425   -6.8156312    223.42638  0.032101491  0.032799525            7 
  581000    1.0403012   -6.8312005    224.19221  0.032156083  0.032780552            3 
  582000    1.0316329   -6.8477936    223.99893  0.032073157  0.032761323            5 
  583000    1.0482201   -6.8267344    223.94433  0.032010338  0.032741508            3 
  584000    1.0413725   -6.7865605    224.25867  0.032000382  0.032722219            6 
  585000    1.0221882   -6.8107588    225.17071    0.0320756  0.032702701            7 
  586000    1.0317991   -6.8149928    224.83125   0.03197259  0.032683642            2 
  587000    1.0047556    -6.840569    224.84889  0.031920627  0.032664428            4 
  588000    1.0339147   -6.8049925    225.51585  0.031960863  0.032644769            2 
  589000    1.0240571   -6.8323987    226.72972  0.032078342  0.032625481            2 
  590000    1.0153409   -6.8318082    226.62046   0.03200854  0.032606291            2 
  591000    1.0395044   -6.8476939    227.32882  0.032054261  0.032587695            3 
  592000    1.0036988   -6.8238281    227.46338  0.032019056  0.032569659            2 
  593000    1.0147205   -6.8469906    228.37249  0.032092818  0.032551971            2 
  594000    1.0278685   -6.8141982    227.86142   0.03196709  0.032533381            6 
  595000    1.0027483   -6.8397012    227.95514   0.03192649  0.032514838            3 
  596000    1.0227407   -6.8403012    228.26628  0.031916425  0.032496484            4 
  597000    1.0050075   -6.8368849    228.81529  0.031939599  0.032477958            3 
  598000    1.0145161   -6.8411307    229.48057  0.031978898  0.032459625            1 
  599000    1.0237953   -6.8244083    229.13241  0.031877074  0.032441494            5 
  600000    1.0107347   -6.8531638     229.4486  0.031867861   0.03242308            4 
  601000    1.0243467   -6.8034786    230.21651  0.031921313  0.032405304            5 
  602000    1.0212635   -6.8097299    230.48962  0.031906094  0.032387361            3 
  603000    1.0134742   -6.8334583    230.58008  0.031865683  0.032369873            2 
  604000    1.0007628   -6.8537432    230.52719  0.031805628  0.032352217            2 
  605000    1.0046621   -6.8435525    231.10871  0.031833155  0.032334446            2 
  606000    1.0142944   -6.8223897    231.87328  0.031885764  0.032316815            4 
  607000    1.0044132   -6.8487506    232.80427  0.031961047  0.032299626            4 
  608000    1.0295153   -6.8526734    232.22666  0.031829312  0.032282399            5 
  609000    1.0390321   -6.8347925    232.50418  0.031815021  0.032265135            1 
  610000    1.0252882   -6.8831546    232.91302  0.031818719  0.032247679            2 
  611000    1.0073534   -6.8069362    233.52422  0.031850002  0.032230536            5 
  612000    1.0168447   -6.8838481    233.31544  0.031769532  0.032213687            3 
  613000    1.0468009   -6.8349444    234.32891   0.03185548  0.032197122            3 
  614000    1.0132999   -6.8192236     235.0648  0.031903475  0.032180102            3 
  615000    1.0248496   -6.8588718     233.6491  0.031659769  0.032162686            2 
  616000    1.0222198   -6.8193477    234.32331  0.031699582  0.032145158            1 
  617000    1.0003369   -6.8218618    234.66734  0.031694671  0.032127784            7 
  618000     1.003695    -6.849156    234.48636  0.031618981   0.03211026            2 
  619000   0.99989671    -6.853221    234.36879  0.031552072  0.032092458            3 
  620000    1.0045281   -6.8688701    235.11339  0.031601262  0.032074516            3 
  621000    1.0159886   -6.8462633    234.88694  0.031519987  0.032057108            3 
  622000   0.98918753   -6.8509594    236.35765  0.031666352  0.032039506            3 
  623000      1.00086   -6.8605239    235.96788  0.031563386  0.032022113            3 
  624000     1.018416   -6.8791926    235.75244  0.031484033  0.032004374            4 
  625000    1.0067844   -6.8409262    236.04343  0.031472458   0.03198631            5 
  626000    1.0048565   -6.8633468    236.53105  0.031487093  0.031968237            5 
  627000   0.98407928   -6.8508566    237.02352  0.031502328  0.031949887            5 
  628000   0.99814401   -6.8591617    237.24067   0.03148098  0.031931938            5 
  629000   0.98703628    -6.914494    237.13306  0.031416674   0.03191395            4 
  630000    1.0024917   -6.8614167    237.23993  0.031380943  0.031895662            3 
  631000    1.0053934   -6.8523343    237.84297  0.031410851  0.031877307            4 
  632000    1.0213859   -6.8695237    237.05427  0.031257156  0.031858875            4 
  633000   0.99282126   -6.8572405    238.91861  0.031453214  0.031840786            3 
  634000    1.0034655   -6.8587445    238.34594  0.031328331  0.031822747            2 
  635000   0.96377974   -6.8673239    238.75999  0.031333332  0.031804543            2 
  636000   0.99761786   -6.8792716    238.77016  0.031285399  0.031786543            3 
  637000    1.0146393    -6.867387    239.15303  0.031286373  0.031768515            3 
  638000   0.98799285   -6.8628592    239.79084  0.031320643  0.031750146            2 
  639000   0.99097931   -6.8796935    238.97431  0.031165143  0.031731428            3 
  640000   0.97322104    -6.894343    239.36682  0.031167555  0.031712795            5 
  641000     0.985535   -6.8744867    239.61179  0.031150778  0.031693945            2 
  642000   0.97534454   -6.8718551    239.33531  0.031066369  0.031675086            3 
  643000   0.98876303   -6.8726262    239.98089  0.031101723  0.031656296            2 
  644000    1.0096916   -6.9162417    239.97174  0.031052244  0.031637382            4 
  645000   0.98401189   -6.8612242    240.57733  0.031082343  0.031618457            5 
  646000   0.98063407   -6.8453317    242.00897  0.031218908  0.031599857            2 
  647000   0.99465844    -6.841164    242.18552  0.031193396  0.031581411            5 
  648000   0.98975589    -6.855606    241.34675   0.03103739  0.031562843            2 
  649000    0.9786563   -6.8829529    242.16998  0.031095272  0.031544097            4 
  650000   0.98052598    -6.873121    241.08036  0.030907738  0.031525369            4 
  651000    1.0041146   -6.8640391    241.90384  0.030965673  0.031506751            5 
  652000    1.0034007    -6.834987    242.95015  0.031051911  0.031488301            3 
  653000    0.9912812    -6.881172    242.82023  0.030987778  0.031469822            2 
  654000   0.98616462   -6.8989661    242.50936  0.030900785  0.031450813            2 
  655000   0.98457501   -6.8745327    242.73131  0.030881846   0.03143182            7 
  656000    1.0262586   -6.8982377    242.91679  0.030858331  0.031413361            3 
  657000   0.99354689   -6.8928864     243.4015  0.030872844  0.031394625            3 
  658000    1.0061115   -6.8815913    243.15024  0.030794104  0.031375542            3 
  659000   0.97653785   -6.8671673    244.28232  0.030890531  0.031356863            4 
  660000   0.99219783   -6.8518979    244.24361   0.03083884  0.031338052            4 
  661000    0.9994206   -6.8880013    243.81528  0.030738185  0.031319326            3 
  662000   0.97651401   -6.8745745    244.35317  0.030759463  0.031300548            2 
  663000   0.99524285   -6.8956759    244.62124  0.030746762  0.031281709            3 
  664000   0.97962092   -6.9168114    244.84094  0.030728029  0.031263166            2 
  665000   0.97999956   -6.8929951    245.48388  0.030762392  0.031244356            2 
  666000   0.99956452   -6.9023788    245.86245   0.03076357  0.031225675            3 
  667000   0.98722327   -6.8730229    245.89087  0.030720998  0.031207018            2 
  668000   0.97299213   -6.8969232     244.8919  0.030550387  0.031188335            4 
  669000   0.98299261   -6.9186128     246.2434  0.030673069   0.03116974            2 
  670000   0.96594746    -6.846673    247.18883   0.03074488  0.031150993            4 
  671000   0.95729296   -6.8707018    246.64164  0.030631102  0.031132578            4 
  672000   0.99856752   -6.8966163    246.63244  0.030584379  0.031113586            2 
  673000   0.99987527   -6.9120051    246.83285   0.03056375  0.031094528            4 
  674000   0.99973839   -6.8461355    247.54557  0.030606524  0.031075546            4 
  675000   0.94281952   -6.9258539    246.70343  0.030457214  0.031056328            4 
  676000   0.98768763   -6.8714302    246.96639  0.030444574  0.031037292            2 
  677000   0.99406347   -6.8827384    247.25349  0.030434945  0.031018313            2 
  678000   0.98419035   -6.9404234     247.5286   0.03042387  0.030999186            7 
  679000   0.98585414   -6.8881214    247.40169  0.030363487  0.030979947            1 
  680000   0.97677758    -6.919252    248.76275  0.030485631  0.030960981            2 
  681000   0.98276366   -6.9038056     248.7889  0.030444065  0.030942178            5 
  682000   0.99217494   -6.8801697    248.63383  0.030380477  0.030922998            4 
  683000   0.99026751   -6.9134276    249.31463  0.030419062  0.030904436            3 
  684000   0.98770466   -6.9129354    249.79513   0.03043313  0.030885848            4 
  685000   0.97127766   -6.9310299    250.34686  0.030455822  0.030867205            2 
  686000    0.9776245   -6.9413576    249.36164  0.030291744  0.030848311            5 
  687000   0.98438071   -6.9359552    249.94455  0.030318359  0.030829364            4 
  688000   0.98129959   -6.9080657    250.60049  0.030353741  0.030810575            4 
  689000   0.97537017   -6.8994826    250.07643  0.030246302  0.030791943            5 
  690000   0.96853615     -6.88487    251.06924  0.030322372  0.030773226            3 
  691000   0.96481195   -6.9510649    250.62626  0.030225067  0.030754453            6 
  692000   0.97811041    -6.921265    250.91397  0.030216037  0.030735495            3 
  693000   0.98004882   -6.9209319    251.30954  0.030220002  0.030716461            2 
  694000   0.97393492   -6.8970619    251.64395  0.030216612  0.030697497            4 
  695000   0.97883073   -6.9441747    251.76192  0.030187281  0.030678368            5 
  696000   0.98539465   -6.9188069    252.60382   0.03024471  0.030659294            5 
  697000   0.97541745   -6.9169216    252.15941  0.030148184  0.030640484            2 
  698000   0.99581547   -6.9113666    252.90029  0.030193445  0.030622031            2 
  699000   0.97726903   -6.9261446     252.6958  0.030125871  0.030603379            4 
  700000   0.95574641   -6.9355491    253.05044  0.030125052  0.030584577            5 
  701000   0.98356898   -6.9108565     253.7567  0.030166037  0.030565988            3 
  702000   0.96876657   -6.9235214    253.73148  0.030120071  0.030547296            7 
  703000   0.95351074   -6.9151221    254.29055  0.030143498  0.030528458            3 
  704000   0.96739203   -6.9550519    253.87566   0.03005157  0.030509636            2 
  705000    0.9894566   -6.9662554    253.61089  0.029977646  0.030490759            5 
  706000   0.98609048   -6.9100883    254.29588  0.030016039  0.030472318            2 
  707000   0.96895759    -6.904412    254.92813  0.030048106  0.030453861            4 
  708000    0.9688137   -6.9530434    254.56151  0.029962513  0.030435618            4 
  709000   0.98171438   -6.9222748    255.49206  0.030029626  0.030417365            5 
  710000    0.9951762     -6.93171    255.68144  0.030009559  0.030399216            3 
  711000   0.96407709    -6.940099    256.39968  0.030051533  0.030381032            4 
  712000   0.96666377   -6.9152423    256.32961  0.030001124  0.030362975            4 
  713000   0.95816706   -6.9257588    256.41348   0.02996885  0.030345103            5 
  714000   0.96078128   -6.9351413    256.16558  0.029897943  0.030326886            4 
  715000   0.95188707    -6.922707    257.12929  0.029968449   0.03030899           10 
  716000   0.98265058   -6.9290249    256.98026  0.029909248  0.030291081            3 
  717000   0.97913546   -6.9371755    257.84359  0.029967874  0.030273517            5 
  718000    0.9672335   -6.9209434    257.96919  0.029940714  0.030256077            4 
  719000   0.95519992   -6.9337892    258.48822  0.029959229    0.0302386            2 
  720000   0.95296986   -6.9064635    259.06762  0.029984678  0.030221336            4 
  721000   0.97103984   -6.9843825    258.51631   0.02987937  0.030204133            3 
  722000   0.94652661   -6.9730018     258.1387  0.029794402  0.030186572            5 
  723000   0.97072322   -6.9531488    258.77489  0.029826521  0.030168585           13 
  724000   0.96250301   -6.9452956    259.24357  0.029839269  0.030151002            3 
  725000   0.95305234    -6.874701    260.24669  0.029913412  0.030133606            3 
  726000   0.94448197   -6.9087887    259.59037  0.029796874  0.030116357            1 
  727000   0.97008586   -6.9592198    259.31347  0.029724148  0.030098783            4 
  728000   0.97817384   -6.9611555    260.41992  0.029809972  0.030081217            4 
  729000   0.96679103   -6.9394218    260.88837  0.029822631  0.030063926            2 
  730000   0.95755917   -6.9072445    261.40702  0.029840984  0.030047055            3 
  731000   0.94481222   -6.9687476    260.68289  0.029717612  0.030030052            5 
  732000   0.96519551   -6.9489121    261.39674  0.029758281   0.03001286            3 
  733000    0.9553511    -6.913168    261.47526   0.02972661  0.029995475            2 
  734000   0.96041782    -6.956162    261.19362  0.029654135   0.02997819            3 
  735000   0.95100875   -6.9655333    261.35651  0.029632257  0.029960691            5 
  736000   0.95682668    -6.944072    262.22221  0.029690014  0.029943114            2 
  737000   0.96231111   -6.9651713    262.07404  0.029632976  0.029925703            5 
  738000   0.95584195   -6.9006022    263.49743  0.029753549  0.029908333            5 
  739000   0.94553437   -6.9665038    262.72461   0.02962614  0.029891193            3 
  740000   0.97502281   -6.9588908    262.98993  0.029615983  0.029874023            3 
  741000   0.95002768   -6.9608938    263.28034  0.029608676  0.029857062            3 
  742000   0.96444117    -6.965895    263.84428  0.029632106  0.029840253            3 
  743000   0.95362302    -6.947843    264.92214  0.029713116  0.029823586            3 
  744000   0.95257427   -6.9121954     264.5798  0.029634834  0.029807021            5 
  745000   0.96326139   -6.9435971    264.90801  0.029631769  0.029790383            4 
  746000   0.96915033   -6.9951102    263.87276  0.029476403   0.02977352            6 
  747000   0.97661316   -6.9852433    265.41229   0.02960869  0.029756486            5 
  748000   0.93859972   -6.9193556    265.15205  0.029540112  0.029739444            2 
  749000   0.95048501   -6.9876482    265.16825  0.029502475  0.029722538            3 
  750000   0.95850591   -6.9623184    265.47802  0.029497558  0.029705563            5 
  751000   0.96798008   -6.9724556    265.54239  0.029465422  0.029688489            5 
  752000   0.98051451   -6.9437381    265.39427  0.029409826  0.029671307            4 
  753000   0.94828513   -6.9664951    266.15968  0.029455476  0.029654298            2 
  754000   0.93048147    -6.983738    265.68827  0.029364309  0.029637175            2 
  755000   0.96600534   -7.0115147     266.5216  0.029417395  0.029620199            2 
  756000   0.95561221    -6.986646    266.98124  0.029429149  0.029603483            2 
  757000   0.95022882   -6.9850285    266.54868  0.029342655  0.029586582            5 
  758000   0.94305625   -6.9686833    266.99611  0.029353134  0.029569581            3 
  759000   0.96248239   -6.9759426    267.48298  0.029367916   0.02955307           11 
  760000    0.9524094   -6.9581699    267.11112  0.029288499  0.029536098            3 
  761000   0.95356412   -6.9905092    266.60693  0.029194802  0.029518911            3 
  762000   0.94871422   -6.9463752    267.54395  0.029258962  0.029501864            2 
  763000   0.94325676   -6.9450958    268.33173  0.029306655  0.029484934            3 
  764000   0.97572343   -6.9500605    267.68408  0.029197653  0.029467849            7 
  765000   0.95593559   -6.9733674    268.70316  0.029270497  0.029450296           14 
  766000   0.97132732    -6.981207    267.93101  0.029148282  0.029433101            2 
  767000   0.96170653   -6.9740569     268.7469  0.029198924  0.029416017            4 
  768000   0.95074671    -6.992713    268.42139  0.029125585   0.02939852            5 
  769000   0.94383708   -6.9902594    268.17015  0.029060485  0.029380967            3 
  770000   0.94942045   -6.9912355    267.64233  0.028965621  0.029363118            2 
  771000   0.94104279   -7.0029809    268.03233  0.028970205  0.029345303            4 
  772000   0.95019337   -6.9559786     268.7129  0.029006142  0.029327599            5 
  773000   0.92106158   -6.9626131    268.44881  0.028940148  0.029309849            3 
  774000   0.92651147   -6.9624433    268.90454  0.028951824  0.029292058            6 
  775000   0.94153905   -6.9832807    269.09179  0.028934601  0.029274257            3 
  776000   0.91703645   -6.9932271    269.51636  0.028942908  0.029256605            4 
  777000   0.93550517   -6.9379295    269.89044  0.028945779  0.029238617            5 
  778000   0.95148565   -6.9858952    269.56863  0.028874103  0.029220781            4 
  779000   0.94225435   -7.0094114    268.82566  0.028757559  0.029202615            6 
  780000   0.94875794   -6.9764908    269.74282  0.028818677  0.029184324            3 
  781000   0.96229155   -6.9678146    270.11198  0.028821167  0.029166325            4 
  782000   0.93027469   -6.9750164    270.74405  0.028851668  0.029148309            2 
  783000    0.9478274   -6.9868632    270.56853   0.02879614  0.029130296            4 
  784000     0.949084   -6.9903484    270.50306  0.028752452  0.029112113            3 
  785000   0.96445782   -6.9981714      270.817  0.028749151  0.029093892            4 
  786000   0.92993357   -6.9709288    270.83996  0.028715008  0.029075715            5 
  787000    0.9395553   -7.0041207    271.66582   0.02876597  0.029057478            4 
  788000    0.9438023   -6.9865342    271.15455  0.028675396   0.02903943            5 
  789000   0.94458806   -6.9839794    271.38439  0.028663328  0.029021299            4 
  790000   0.94817937   -7.0009786    271.99719  0.028691687  0.029003341            2 
  791000   0.91993861   -6.9795758    271.34291  0.028586485  0.028985148            5 
  792000   0.91166737    -6.995707       272.16  0.028636364  0.028967104            3 
  793000   0.93333254   -7.0185879    271.57371  0.028538642  0.028949114            4 
  794000   0.93530516   -7.0078455    272.64868  0.028615521  0.028931052            6 
  795000   0.93080035   -6.9642995    271.95928  0.028507262  0.028912968            1 
  796000   0.91702682   -6.9895253    272.92047  0.028572076  0.028895179            9 
  797000   0.93763288   -6.9543684    273.95515  0.028644412  0.028877237            3 
  798000   0.94496996     -6.99017    273.66467  0.028578182  0.028859416            1 
  799000   0.93244318   -7.0232563    272.86916  0.028459445  0.028841296            4 
  800000   0.92652336   -6.9805848    273.34579   0.02847352  0.028823125            2 
  801000   0.92169512   -6.9898039    274.04023   0.02851022  0.028805322            5 
  802000   0.92028997   -7.0326405    273.83644  0.028453496  0.028787247            3 
  803000   0.93803121   -7.0078812    273.66718  0.028400496  0.028769058            2 
  804000   0.93802642   -6.9802299     273.9515  0.028394642  0.028750687            4 
  805000   0.93677165   -6.9698803    275.53764  0.028523565  0.028732461            3 
  806000   0.94507745   -7.0071376    274.84019  0.028416066  0.028714498            3 
  807000   0.94716716   -7.0206674    273.89768  0.028283528  0.028696312            3 
  808000   0.91968755   -7.0322067    273.75361  0.028233665   0.02867785            4 
  809000   0.91382112   -7.0110262    273.71441  0.028194727  0.028659258            2 
  810000   0.93424251   -7.0102071    274.67391  0.028258633   0.02864071            4 
  811000   0.92199351   -7.0037115    275.40623  0.028299037  0.028622421            2 
  812000   0.93456125   -6.9992052    275.64171  0.028288353  0.028603995            4 
  813000   0.93096339   -6.9914619    275.22838  0.028211191  0.028585699            3 
  814000   0.92773543   -7.0358024    275.04247  0.028157501  0.028567297            3 
  815000   0.93004822     -7.00883    275.10502  0.028129348    0.0285488            5 
  816000   0.92735973   -6.9915338    276.45644  0.028232888  0.028530516            5 
  817000   0.92409593   -7.0259115    276.35245  0.028187724  0.028512299            4 
  818000   0.91518296   -7.0002291     276.9703  0.028216208  0.028494171            5 
  819000   0.93370262    -7.022525    276.61497  0.028145602    0.0284759            4 
  820000   0.91775186   -7.0347952    276.76923  0.028126954  0.028457503            5 
  821000   0.92788907   -7.0090803    277.15801  0.028132157  0.028439336            6 
  822000   0.91278214   -6.9866299    277.33271  0.028115643  0.028421342            1 
  823000   0.92610776   -7.0140604    277.61138  0.028109698  0.028403392            3 
  824000   0.92158325   -7.0321143     277.9136  0.028106149  0.028385585            4 
  825000   0.92980855   -7.0351058    278.61743  0.028143175  0.028368022            3 
  826000   0.93018808   -7.0322879    277.95048  0.028041816  0.028350375            4 
  827000    0.8997625   -7.0172912      278.697  0.028083131   0.02833276            6 
  828000   0.92626741    -7.032008    278.26705  0.028005943   0.02831522            3 
  829000   0.93294834   -7.0101686    279.42333  0.028088392  0.028297596            7 
  830000   0.92030607   -7.0204555    279.99928  0.028112378  0.028280299            2 
  831000   0.91398648   -7.0553828    279.36115  0.028014556  0.028262649            6 
  832000   0.92070197   -7.0085776    279.58238  0.028003042  0.028245095            2 
  833000   0.92003388   -7.0094581    280.46414  0.028057637  0.028227871            7 
  834000   0.92717928   -7.0571265    280.19781  0.027997383  0.028210354            3 
  835000   0.91132335   -7.0269196    279.20371  0.027864642  0.028192558            7 
  836000   0.92168294    -7.017011     280.0779  0.027918451  0.028174949            6 
  837000   0.91980129    -7.021204    279.75814  0.027853259  0.028157452            2 
  838000   0.91933235   -7.0176958    280.77229  0.027920872  0.028139859            6 
  839000   0.90909825   -7.0296109    280.67804  0.027878232  0.028122265            8 
  840000   0.94024664   -7.0370009    280.46305  0.027823715  0.028104597            5 
  841000   0.92414499    -7.028859     280.7826  0.027822295  0.028086694            3 
  842000   0.89626035   -7.0255315    280.90461  0.027801328  0.028068914            3 
  843000   0.92172146   -7.0343204     280.5247  0.027730793  0.028051089            2 
  844000   0.92232373   -7.0254302    281.61667  0.027805753   0.02803323            2 
  845000   0.91028312    -7.053776    280.86888    0.0276991  0.028015153            6 
  846000   0.90495923   -7.0377334     281.2672  0.027705595  0.027997363            2 
  847000    0.9177218    -7.047173    280.69555  0.027616642   0.02797963            6 
  848000   0.91178265   -7.0522504    282.37529  0.027749144  0.027961942            4 
  849000   0.91408514   -7.0589905    282.35127  0.027714102  0.027944395            2 
  850000   0.90937474   -7.0643363    282.78281  0.027723804  0.027926902            9 
  851000   0.91291639   -7.0410331    283.59938  0.027771189  0.027909573            9 
  852000    0.9149401   -7.0462313    284.19569  0.027796918  0.027892426            7 
  853000   0.92528093   -7.0261492      283.712  0.027717077  0.027875343            2 
  854000   0.91850658   -7.0606192    284.10548  0.027723017  0.027858343           10 
  855000   0.91105754   -7.0559571    284.66667  0.027745289   0.02784151            7 
  856000   0.90398156   -7.0614164    284.54143  0.027700684  0.027824773            3 
  857000    0.9181109   -7.0546235    283.74212  0.027590637  0.027807936            3 
  858000    0.9035382   -7.0833055    284.50338  0.027632418  0.027791156            4 
  859000   0.92061292   -7.0485203    285.38305  0.027685589  0.027774337            2 
  860000   0.89357023   -7.0521302    285.77826  0.027691691  0.027757747            4 
  861000   0.93080854   -7.0774642    285.08241   0.02759218  0.027741122            4 
  862000   0.91375152   -7.0699412    285.54423  0.027604818  0.027724464            2 
  863000   0.88777922   -7.0550725    286.03554  0.027620272  0.027707641            4 
  864000    0.8969692   -7.0366809    286.41139  0.027624555  0.027691125            7 
  865000   0.88998625   -7.0582193    286.93873  0.027643423  0.027674694            4 
  866000   0.93634822   -7.0390564    285.96475  0.027517778  0.027658191            6 
  867000   0.93027077   -7.0499895    286.88846  0.027574823   0.02764164            3 
  868000   0.90739883   -7.0502637    287.28186  0.027580824  0.027625264            4 
  869000    0.8917217   -7.0589907    287.07579  0.027529324  0.027608888            5 
  870000   0.89110811     -7.03503    286.73709  0.027465238  0.027592383            6 
  871000    0.9200998   -7.0757927    286.95532  0.027454584  0.027575699            6 
  872000   0.88906817   -7.0879491    287.44441  0.027469841  0.027559142            7 
  873000   0.91284139   -7.0591044    288.02752  0.027494036   0.02754272            6 
  874000   0.90939614   -7.0589368    288.05808  0.027465492  0.027526508            5 
  875000   0.90742676   -7.0467705    287.54935  0.027385653  0.027510039            4 
  876000   0.89991156   -7.0911847    288.55187  0.027449759  0.027493675            4 
  877000   0.89729591   -7.0439826    288.39397  0.027403456   0.02747703            4 
  878000   0.89452216   -7.0706445    288.57176  0.027389119  0.027460317            7 
  879000   0.91253337   -7.1052352    287.76487  0.027281463  0.027443638           10 
  880000   0.91305327   -7.0692817    289.49384  0.027414189  0.027427004            3 
  881000    0.9146649   -7.0899924    288.53543  0.027292417   0.02741035            6 
  882000   0.88478355   -7.0368841    288.77665  0.027284264  0.027393756            6 
  883000   0.87901842   -7.0806877    288.62155  0.027238727  0.027377206            5 
  884000   0.91318274    -7.086507    288.85497  0.027229918  0.027360312            8 
  885000   0.91199602   -7.0792644     289.7556  0.027283955   0.02734368            5 
  886000   0.90630048    -7.076233    289.26983  0.027207471  0.027327057            3 
  887000   0.91342081    -7.081558    289.69967  0.027217181  0.027310461            3 
  888000   0.89634647   -7.1114582    289.29349  0.027148413  0.027293772            4 
  889000   0.89329754   -7.0432813    290.37281  0.027219048  0.027277136            5 
  890000   0.89399978    -7.093731      290.541  0.027204213  0.027260466            4 
  891000   0.92333608   -7.0916864    289.93394  0.027116904  0.027243859            6 
  892000   0.91880706   -7.0773674    290.83981  0.027171133   0.02722751            4 
  893000   0.91078482    -7.073067    290.54977   0.02711364   0.02721111            5 
  894000   0.89133668   -7.0799691    290.63272  0.027091044  0.027194701            6 
  895000   0.90385096   -7.1062608    291.63136  0.027153757  0.027178124            4 
  896000   0.89970495   -7.1288982    291.43819  0.027105486  0.027161554            5 
  897000   0.89895773   -7.0864268    291.34808  0.027066898  0.027145082            2 
  898000   0.89864842   -7.0990269    292.05581  0.027102432  0.027128871            3 
  899000    0.9061109    -7.087406    291.75423   0.02704433  0.027112522            5 
  900000   0.88767992   -7.0874892    292.50022  0.027083354  0.027096012            7 
  901000   0.87626615   -7.0954849    292.27256  0.027032238  0.027079491           10 
  902000   0.88764013   -7.1081792    292.56647  0.027029423  0.027063082            2 
  903000   0.89963789   -7.1012947     292.9585  0.027035668  0.027046835            7 
  904000   0.88649369   -7.1106741    293.07343  0.027016356  0.027030711            3 
  905000    0.9007872    -7.116296    292.75047  0.026956765  0.027014372            6 
  906000   0.89955611   -7.1038413    292.54767  0.026908359   0.02699792            3 
  907000   0.90010072   -7.0942185    292.54901  0.026878814   0.02698133            2 
  908000   0.88855689   -7.0698195    294.11206  0.026992663  0.026965044            6 
  909000   0.88264333   -7.1148361    292.97493  0.026858721  0.026948676            4 
  910000   0.88268682   -7.1162613    292.66738  0.026801042  0.026932112            2 
  911000   0.89712517   -7.1271784    292.67117   0.02677197  0.026915272            4 
  912000   0.87938238   -7.1220001    292.94432  0.026767573  0.026898455            4 
  913000   0.87672073   -7.1091096    293.95273  0.026830296    0.0268818            5 
  914000   0.89443329   -7.1261524     293.5282  0.026762235  0.026865182            9 
  915000   0.89386536   -7.1199667    294.53418  0.026824607  0.026848386            3 
  916000   0.88132888   -7.1068722     294.0263  0.026749118  0.026831925            3 
  917000   0.88841652   -7.1128572     294.4204  0.026755762  0.026815576            6 
  918000   0.90392298   -7.1152435    294.50289  0.026734104  0.026798942            2 
  919000   0.89363643   -7.1093829    293.23989  0.026590487  0.026782488            4 
  920000   0.89388704    -7.099564    294.71025  0.026694769  0.026766037            3 
  921000   0.87927313   -7.0878612    295.36387  0.026724925  0.026749668            3 
  922000   0.88888971   -7.0937885    294.88051  0.026652251   0.02673318           16 
  923000   0.90449228   -7.1127141    295.20318  0.026652508  0.026716478            4 
  924000   0.87652386    -7.117372    295.33913  0.026635924  0.026699829            6 
  925000   0.88300925   -7.1223367    294.93452  0.026570677  0.026683063            4 
  926000   0.88994202   -7.0992842    295.50514  0.026593335  0.026666316            7 
  927000   0.88712429   -7.0914335     295.8421  0.026594939  0.026649799            9 
  928000   0.87581041   -7.1569124    296.29241  0.026606718  0.026633363           10 
  929000   0.92226488   -7.1048903    295.82675  0.026536307  0.026616892            6 
  930000   0.88310888   -7.1466788    296.09565  0.026531868  0.026600435            4 
  931000   0.88794436     -7.13271    296.51654  0.026541044   0.02658407            3 
  932000   0.89953571   -7.1515013    296.81773  0.026539497  0.026567708            4 
  933000   0.88422148   -7.1105068    296.12937  0.026449569  0.026551211            9 
  934000   0.87329756    -7.102582    297.28875  0.026524692  0.026534883            3 
  935000   0.86054358   -7.1012207    296.74521  0.026447879  0.026518587            2 
  936000   0.86780745   -7.1275492    296.92819  0.026435915  0.026502107            2 
  937000   0.89089071   -7.1084927    297.33269  0.026443676  0.026485664            4 
  938000    0.8729002   -7.1180133    296.92474  0.026379241  0.026469307            5 
  939000   0.87736644   -7.1171007    297.27943  0.026382626  0.026452811            4 
  940000   0.86598554   -7.1381518    297.48954  0.026373186  0.026436163            5 
  941000   0.89780289   -7.1232674    297.94563   0.02638555  0.026419677            8 
  942000   0.88443673   -7.1568189    297.60519  0.026327423  0.026403098            5 
  943000   0.86259176    -7.128058    297.62744  0.026301471  0.026386377            7 
  944000   0.85592151   -7.1503357    297.79053  0.026288005  0.026369635            3 
  945000   0.87999405   -7.1426832     298.3307  0.026307822  0.026353012            3 
  946000    0.8678242   -7.1180803    297.99446  0.026250393  0.026336494            6 
  947000   0.86776718   -7.1543475    298.18624   0.02623955  0.026319733            4 
  948000   0.86344716   -7.1412231    297.63149  0.026163105  0.026302942           10 
  949000   0.88583439   -7.1385938    299.16083   0.02626983   0.02628626            4 
  950000   0.87167061    -7.093836    299.61701  0.026282194  0.026269859            4 
  951000   0.88200043    -7.123026    298.89822  0.026191572  0.026253461            6 
  952000    0.8678223    -7.102607    299.40443  0.026208371  0.026237153            9 
  953000   0.87380439   -7.1073098    300.22043  0.026252224  0.026220756            4 
  954000   0.88210907   -7.1387268    299.94071  0.026200271  0.026204355            7 
  955000   0.86826444   -7.1594563    298.69143  0.026063824  0.026187738            3 
  956000   0.86373495   -7.1376775    300.12526  0.026161546  0.026171127            4 
  957000   0.89453151     -7.12075    299.58375  0.026087056  0.026154616            4 
  958000   0.87670394   -7.1563158    298.80161  0.025991789  0.026137963            5 
  959000   0.88526082   -7.1507602    299.49891  0.026025279  0.026121459            5 
  960000   0.85451882   -7.1284482    300.37403  0.026074135  0.026104907           10 
  961000   0.87316038   -7.1294511    300.46663  0.026055032  0.026088505            4 
  962000   0.88357675   -7.1575789    301.19688  0.026091206   0.02607198            5 
  963000    0.8603296   -7.1227676    300.08595  0.025967977   0.02605545            8 
  964000    0.8689707   -7.1815156    299.76533  0.025913324  0.026038787            6 
  965000   0.87132076   -7.1530822    300.27708  0.025930663  0.026022187            9 
  966000   0.86533006   -7.1559905    300.94311  0.025961276  0.026005667            5 
  967000   0.87414161   -7.1441376    301.32932  0.025967711  0.025989267            4 
  968000   0.87700533   -7.1343081    301.43928  0.025950352  0.025972826            7 
  969000   0.87349716   -7.1634336    301.04939   0.02589004  0.025956452            5 
  970000   0.88828844   -7.1954427    300.84296  0.025845615   0.02593991           10 
  971000   0.86605832   -7.1421584    301.69248  0.025891905  0.025923413            9 
  972000   0.87828436   -7.1370981    301.33892  0.025834955  0.025906887            3 
  973000   0.88940031   -7.1359048     301.7873  0.025846805  0.025890324            5 
  974000   0.85357083   -7.1720247    301.01828  0.025754473  0.025873735            4 
  975000     0.854971   -7.1305115    302.33693  0.025840763   0.02585728            5 
  976000   0.87844476   -7.1670715    302.68291  0.025843828  0.025840842            5 
  977000   0.86682479   -7.1293955    302.64252  0.025813931  0.025824524            4 
  978000    0.8564958   -7.1371108    303.35554  0.025848291  0.025808371            4 
  979000    0.8721602   -7.1247732    302.28675  0.025730912  0.025792105            8 
  980000    0.8808368   -7.1730189    303.27926  0.025789053  0.025775825            4 
  981000   0.85545122    -7.115955    303.15635  0.025752323  0.025759614            3 
  982000   0.87098593   -7.1633511    302.56455  0.025675878  0.025743348            3 
  983000    0.8783948   -7.1711708    303.04782  0.025690727  0.025726875            3 
  984000    0.8683873   -7.1768615    302.67989   0.02563346  0.025710202            5 
  985000    0.8568597   -7.1937648    302.31514  0.025576577   0.02569344           11 
  986000   0.86047219    -7.167333    302.34134  0.025552852  0.025676679            4 
  987000   0.87373208   -7.1662589    303.33261  0.025610656  0.025659967            7 
  988000   0.85761018   -7.1811769     303.0382  0.025559902  0.025643279            6 
  989000   0.85298854   -7.1698348    302.66008  0.025502197  0.025626603            4 
  990000   0.87821656   -7.1735392    303.49682   0.02554687  0.025609847            7 
  991000   0.86259784   -7.1766909    302.54295   0.02544088  0.025593328            5 
  992000   0.86131679    -7.147264    303.89577  0.025528879  0.025576804            6 
  993000   0.84067038   -7.1769959    304.28762  0.025536054   0.02556027            6 
  994000   0.84350698   -7.1636524    304.69547  0.025544556  0.025543819            5 
  995000   0.87070779   -7.1463323    304.47454  0.025500381  0.025527393            7 
  996000   0.86633676   -7.1251766    304.82268  0.025503906   0.02551104            4 
  997000   0.83588133   -7.1716965    303.92645  0.025403414    0.0254947            6 
  998000   0.86427157    -7.111092    304.45265  0.025421898  0.025478311            2 
  999000   0.86775274   -7.1856695    304.63575  0.025411724  0.025461681            3 
 1000000   0.82896426   -7.2017379     303.9414   0.02532845  0.025444705            3 
 1001000   0.85554588   -7.1834341     303.6766  0.025281102  0.025427712            5 
 1002000   0.85488652    -7.173925    304.41266  0.025317087  0.025410789            2 
 1003000   0.84434125   -7.1999169    304.03308  0.025260309  0.025393935            6 
 1004000    0.8688504    -7.169403     305.0199  0.025317057  0.025377146            8 
 1005000   0.86397087   -7.1854623    304.32973  0.025234638  0.025360391            4 
 1006000    0.8307597   -7.1718129    305.38651  0.025297093  0.025343656            6 
 1007000   0.84536663   -7.1778871    305.01907  0.025241565  0.025326942            7 
 1008000   0.85072123   -7.1584125    305.25498  0.025236027  0.025310231            5 
 1009000   0.84999187    -7.209867    305.19095  0.025205727  0.025293413            4 
 1010000    0.8553014   -7.1733832    305.61784  0.025215993  0.025276697            5 
 1011000   0.87666698   -7.1823912    305.42258  0.025174957   0.02525999            2 
 1012000   0.85200997   -7.1616215    305.80711  0.025181745  0.025243331            2 
 1013000   0.86559151   -7.2180205    305.14984  0.025102817  0.025226571            2 
 1014000   0.85329992   -7.1928873    305.87531  0.025137681  0.025209895            7 
 1015000   0.85030355   -7.1879745    306.28569  0.025146608   0.02519316            5 
 1016000   0.84135263   -7.1978876    306.28111  0.025121482  0.025176449           17 
 1017000   0.87291462   -7.1849849    306.29031  0.025097534  0.025159845            3 
 1018000   0.85760556   -7.1832536    306.77583  0.025112625  0.025143121            3 
 1019000    0.8187532   -7.1779181    305.56456  0.024988924  0.025126412            3 
 1020000   0.84194404   -7.1554801     306.5684  0.025046438  0.025109809            2 
 1021000   0.84857713   -7.1864574    306.41855  0.025009676  0.025093279            5 
 1022000   0.83714966   -7.2038957    306.11788  0.024960688  0.025076619            3 
 1023000   0.84208723   -7.1886304    307.10446  0.025016655  0.025059829            7 
 1024000   0.84389899    -7.197832    306.82661  0.024969613   0.02504318            4 
 1025000   0.84017055   -7.1960389    307.42618  0.024993999  0.025026513            4 
 1026000   0.86320541   -7.1815168    306.76472  0.024915913  0.025009827            3 
 1027000   0.84912897   -7.2152046    307.24726  0.024930806  0.024993197            7 
 1028000   0.84554799   -7.1803642    307.48332   0.02492569  0.024976473            6 
 1029000   0.83878467   -7.1703737    307.63687  0.024913903  0.024959884            6 
 1030000   0.84171477   -7.1757672    307.99634  0.024918798  0.024943324            3 
 1031000   0.85323716   -7.2122324     307.2505  0.024834344  0.024926744            5 
 1032000   0.83595878   -7.2222241    307.10484  0.024798517   0.02491005            6 
 1033000   0.84261901   -7.1936386    308.31416  0.024872068  0.024893362            4 
 1034000   0.83632208    -7.222941    307.83476  0.024809378  0.024876811            4 
 1035000   0.85045967   -7.2069628    308.55963   0.02484377  0.024860098            4 
 1036000   0.84623868   -7.1906957    308.90866  0.024847865  0.024843337            5 
 1037000   0.81994412   -7.2082423    308.36192  0.024779968  0.024826591           12 
 1038000   0.82437121    -7.176905    308.72751  0.024785446  0.024809868            4 
 1039000   0.84108576   -7.2382496    307.73542  0.024682019  0.024793177            6 
 1040000   0.81977562   -7.1997223    308.34707  0.024707297  0.024776225            6 
 1041000   0.83213878   -7.2210626    307.84673  0.024643511  0.024759522            4 
 1042000   0.84289468   -7.1645691    309.08875  0.024719189  0.024742943            6 
 1043000   0.82994112   -7.1949771      308.752  0.024668584  0.024726377           15 
 1044000   0.83215682   -7.1763491    309.01706  0.024666113  0.024709906            3 
 1045000   0.84773413   -7.2208736    308.11248  0.024570373  0.024693379            5 
 1046000    0.8591372   -7.2103971    310.21812  0.024714637  0.024676918           11 
 1047000   0.83585044   -7.2029094    310.56708  0.024718806  0.024660553            6 
 1048000   0.83038847   -7.2161015    310.59056  0.024697087  0.024644292            5 
 1049000   0.82105204   -7.2079894    310.65309  0.024678511  0.024628141            9 
 1050000   0.83533287   -7.1937328    310.96509  0.024679769  0.024611852            6 
 1051000   0.83357808    -7.202257    310.06322  0.024584778  0.024595624            5 
 1052000   0.83556408   -7.1962096     310.4241  0.024589995  0.024579293            3 
 1053000   0.82086491   -7.2046287    310.52299  0.024574469  0.024562983            5 
 1054000   0.84348295    -7.222023    310.40664  0.024541954  0.024546688            4 
 1055000   0.80921885   -7.2206243    310.82588  0.024551807  0.024530459            2 
 1056000   0.83002533   -7.2567424    310.39016  0.024494173  0.024514168            7 
 1057000   0.84992307   -7.2097235    310.92743  0.024513358  0.024497744            7 
 1058000   0.82459846   -7.2065201    310.78951  0.024479325  0.024481412            9 
 1059000   0.83340859   -7.2292637    310.73699  0.024452076  0.024465127            2 
 1060000   0.81629855   -7.2216232    311.26261  0.024470331  0.024448807            9 
 1061000   0.84233693   -7.2310952    310.50607  0.024387847  0.024432423            7 
 1062000   0.82214558   -7.2083279    311.82094  0.024468059   0.02441623            3 
 1063000   0.83431249   -7.1944118    312.17073  0.024472462  0.024400178            3 
 1064000   0.82099169   -7.2177615    311.80238  0.024420612  0.024383999            3 
 1065000    0.8386786   -7.2462853    311.46654  0.024371403  0.024367837            7 
 1066000   0.83496089   -7.2634284    311.65446  0.024363232  0.024351674            4 
 1067000   0.81713139   -7.2250874    312.47188  0.024404239  0.024335565            9 
 1068000   0.83140036   -7.2524651    311.71303  0.024322178  0.024319425            5 
 1069000   0.82066986    -7.233335    312.56065  0.024365502  0.024303375            3 
 1070000   0.82415813   -7.2508079    313.13323  0.024387323  0.024287257            1 
 1071000   0.84079985   -7.2468742    312.40935  0.024308228  0.024271187            4 
 1072000   0.82414985   -7.2485742    311.79305  0.024237644  0.024255139            3 
 1073000   0.81300162   -7.2223577    313.46799  0.024345137  0.024239205            7 
 1074000   0.83312409   -7.2568629    313.48923  0.024324118  0.024223219            5 
 1075000   0.82176931   -7.2360945     313.6872  0.024316837  0.024207167            7 
 1076000   0.81173832   -7.2492035    313.37075   0.02426973  0.024191266            7 
 1077000   0.81215905   -7.2732844    312.70968  0.024196044  0.024175327            5 
 1078000   0.81741298   -7.2463937    313.99601  0.024273038  0.024159361            6 
 1079000   0.82992919   -7.2420752    313.88315  0.024241825  0.024143601            4 
 1080000   0.79929157   -7.2329144     314.0244  0.024230277  0.024127855            7 
 1081000   0.83595011   -7.2475272    314.30532  0.024229519  0.024112227            7 
 1082000   0.81656857   -7.2151664    313.84944  0.024172015  0.024096602           12 
 1083000   0.81735028   -7.2402388    314.74342  0.024218484  0.024081016            8 
 1084000   0.81239562   -7.2401618     314.6978  0.024192635  0.024065358            9 
 1085000   0.81275688   -7.2379202     315.0766  0.024199432   0.02404965           11 
 1086000   0.81471262    -7.242547    315.72016  0.024226532  0.024034133            7 
 1087000   0.82795743   -7.2562502    315.13146  0.024159112  0.024018516            3 
 1088000   0.82484882   -7.2557598    314.44623  0.024084424  0.024002862            4 
 1089000   0.81949354   -7.2359153    315.09699  0.024112105  0.023987058            5 
 1090000   0.82553634   -7.2582214     315.8551  0.024147943  0.023971334            2 
 1091000   0.80021838   -7.2529721    314.84639  0.024048762  0.023955447            4 
 1092000   0.81389195   -7.2705951    314.11925  0.023971249  0.023939611            6 
 1093000     0.802361   -7.2690388    313.80197  0.023925128  0.023923678            4 
 1094000    0.8056347   -7.2699273    315.08843  0.024001252  0.023907792            8 
 1095000   0.82350574   -7.2511588    315.40863  0.024003701  0.023892076            4 
 1096000   0.82821045   -7.2131198    316.01604  0.024027983    0.0238764            6 
 1097000   0.81280061   -7.2519879    315.07143  0.023934323  0.023860668            7 
 1098000    0.8131145   -7.2396705    315.47947  0.023943494  0.023844896            5 
 1099000   0.82041144   -7.2436149    315.69195  0.023937818  0.023829201            7 
 1100000   0.84115445   -7.2306668    316.09887  0.023946884  0.023813489            3 
 1101000   0.80454798   -7.2758885    315.53077  0.023882135  0.023797806            5 
 1102000   0.81464994   -7.2462399    316.31004  0.023919392   0.02378218            5 
 1103000   0.82445154   -7.2599064     315.4428  0.023832185  0.023766538            5 
 1104000   0.82126172   -7.2531317    316.20885  0.023868422  0.023750846            5 
 1105000   0.80013217   -7.2415329    316.15145  0.023842493  0.023735148            6 
 1106000   0.81360231   -7.2582511    316.67717  0.023860546  0.023719362            4 
 1107000   0.81223218   -7.2730574    316.62623  0.023835157    0.0237036           10 
 1108000   0.80491742    -7.229178    316.37811  0.023794984  0.023687817            4 
 1109000   0.79660908   -7.2619551    316.88803  0.023811845  0.023672044            7 
 1110000    0.8318146   -7.2672563    316.83037  0.023786064  0.023656344            4 
 1111000   0.79871915   -7.2029416    317.60817  0.023822995  0.023640805            4 
 1112000    0.8119142    -7.239783    316.86771  0.023746082  0.023625183            8 
 1113000   0.81018508   -7.2771375    316.87193  0.023725062  0.023609538            4 
 1114000   0.78697416   -7.2636113     317.2801  0.023734299  0.023593885            3 
 1115000   0.82189222   -7.2357655    318.17398  0.023779819  0.023578385            3 
 1116000   0.81557006   -7.2763964    317.98236  0.023744202  0.023562885            3 
 1117000   0.80459858   -7.2606537    317.49383  0.023686499  0.023547339            7 
 1118000   0.80351025   -7.2859893    317.88159  0.023694215  0.023531793           10 
 1119000   0.78442774   -7.3033353    317.41162  0.023638041  0.023516074           13 
 1120000   0.83257229   -7.2822235    318.40525  0.023690867  0.023500396            4 
 1121000   0.81954563   -7.2441498    317.46495  0.023599833  0.023484779            4 
 1122000   0.80615087   -7.2878923    317.91514  0.023612236  0.023469161            5 
 1123000   0.81753852   -7.2857625    317.25651  0.023542335  0.023453513           10 
 1124000    0.8202467   -7.2824892    318.01152  0.023577366  0.023438025            7 
 1125000   0.79689981   -7.2706622    318.18862  0.023569527  0.023422529            6 
 1126000   0.81971136   -7.3040904     317.9696  0.023532386  0.023407095            5 
 1127000   0.81078632   -7.2929354    318.11112   0.02352197  0.023391605            5 
 1128000   0.79690775   -7.2620361    318.35107  0.023518844  0.023376081            6 
 1129000    0.8020128   -7.2732343    318.45125  0.023505407  0.023360476            3 
 1130000   0.80704927   -7.2781528    318.51747  0.023489489  0.023344927            3 
 1131000   0.80807519   -7.2944688    317.28321  0.023377778  0.023329285            9 
 1132000   0.81377407    -7.302767    317.46311   0.02337037  0.023313527            5 
 1133000   0.79257353   -7.2952184    318.52996  0.023428212  0.023297714            4 
 1134000   0.80861873   -7.3095376    317.84726  0.023357382   0.02328183            7 
 1135000    0.7914994    -7.286101    318.43058  0.023379631  0.023265969            4 
 1136000   0.81043558   -7.2842774    318.50058  0.023364186  0.023250045            7 
 1137000   0.80816054    -7.291783    318.50146  0.023343701   0.02323421            5 
 1138000   0.79085699   -7.2873548    318.87056  0.023350217  0.023218478            4 
 1139000   0.78549768    -7.271845    319.15492  0.023350521  0.023202697            7 
 1140000   0.79630443   -7.3045005    318.32026  0.023269025  0.023186925           11 
 1141000   0.80277129   -7.2963476    318.73817  0.023279154  0.023171084            6 
 1142000   0.80599552   -7.2903535    318.55899  0.023245694  0.023155155            5 
 1143000   0.80818918   -7.3118048    318.25491  0.023203186  0.023139331            7 
 1144000   0.79791263   -7.2955158    319.35927   0.02326335   0.02312347            9 
 1145000   0.80198202   -7.3291564    318.27377   0.02316403  0.023107526            7 
 1146000   0.77702061   -7.3077282    318.51614  0.023161441  0.023091607            8 
 1147000   0.80221093   -7.3098406    318.62864  0.023149422   0.02307583            3 
 1148000   0.79498177   -7.2910028    318.78267  0.023140438   0.02306007            6 
 1149000   0.78954363   -7.2923949    318.83115  0.023123814   0.02304432            5 
 1150000   0.77147561   -7.2963118    319.79023  0.023173205   0.02302863            4 
 1151000   0.78774558   -7.2821371    319.85318  0.023157629  0.023012966            6 
 1152000   0.78095983   -7.3000915     319.4155  0.023105866  0.022997298            4 
 1153000   0.79926824   -7.2892075    320.22792  0.023144544  0.022981713            8 
 1154000   0.79969157   -7.2957087    320.18022  0.023121044  0.022966073            8 
 1155000   0.78277053   -7.2749389    319.33396  0.023039968  0.022950469            8 
 1156000   0.78899714   -7.3177278     320.1076  0.023075807  0.022934824            9 
 1157000   0.78129161   -7.3122838    319.48022  0.023010675  0.022919272            6 
 1158000   0.79392837   -7.3017093    320.16154  0.023039835   0.02290361            7 
 1159000   0.79972943   -7.3116677    320.81648  0.023067046   0.02288806            3 
 1160000   0.78228343   -7.3097611    320.51547  0.023025537   0.02287256            6 
 1161000   0.80096518   -7.3136354    320.38689  0.022996475  0.022856974            6 
 1162000   0.77568621   -7.3214457    320.68381  0.022997978  0.022841358            6 
 1163000     0.802877   -7.2794606    320.95966  0.022997969  0.022825896            4 
 1164000   0.78790753   -7.3344507     320.7347  0.022962106  0.022810353            6 
 1165000   0.78708191   -7.3241389    320.88469  0.022953125  0.022794774           15 
 1166000   0.79265699    -7.326616    320.29751  0.022891475  0.022779227            8 
 1167000    0.7906576   -7.3140193    320.95644  0.022918912  0.022763666            6 
 1168000   0.78121456   -7.3339127    321.07434  0.022907701  0.022748233            4 
 1169000   0.76739348   -7.3184388    321.15412  0.022893793  0.022732715            3 
 1170000   0.79012558   -7.3359687    321.93294  0.022929696  0.022717215            6 
 1171000   0.75867537   -7.3142872    321.36392  0.022869622  0.022701728            7 
 1172000   0.81417332   -7.3381082    321.84148  0.022884064  0.022686341            4 
 1173000   0.78371667   -7.3066894    322.20464  0.022890355  0.022670958            8 
 1174000   0.77433036   -7.3041404     321.5945  0.022827549  0.022655617            9 
 1175000   0.79191968   -7.3352842    321.85962  0.022826923  0.022640251            6 
 1176000   0.77171837   -7.3461129    322.05724  0.022821516  0.022624872            5 
 1177000   0.80926522   -7.3376682    321.76581  0.022781493  0.022609485            7 
 1178000   0.78986032   -7.3085324    321.41153  0.022737092  0.022594088            3 
 1179000   0.79511646   -7.3275364     322.2663  0.022778223  0.022578782            7 
 1180000   0.79052647   -7.2769262    322.71835  0.022790844  0.022563551           11 
 1181000   0.78357373   -7.3407731     322.7682  0.022775063  0.022548358            3 
 1182000   0.76587389   -7.3254626    322.81245  0.022758915  0.022533036            7 
 1183000   0.78864159   -7.3339597    323.17805  0.022765431  0.022517691            3 
 1184000   0.75261127   -7.3276845     322.5739  0.022703681  0.022502394           11 
 1185000   0.79010689   -7.3132407    322.84241  0.022703404  0.022487109            4 
 1186000   0.77275249   -7.3442892    322.59279  0.022666722  0.022471836            6 
 1187000   0.75976162   -7.3484529    322.08133  0.022611719  0.022456502            5 
 1188000   0.76113463   -7.3636881    322.22674  0.022602886  0.022441107            6 
 1189000   0.76946626   -7.3457033    322.51622  0.022604165  0.022425818            4 
 1190000   0.77681335   -7.3350892    323.20464  0.022633378  0.022410462            4 
 1191000   0.78967567   -7.3446188    323.67392   0.02264721  0.022395225            8 
 1192000   0.78728134   -7.3565782    323.49657  0.022615812  0.022379959            8 
 1193000   0.78500972   -7.3475388    323.07501  0.022567408  0.022364767           19 
 1194000   0.78585921   -7.3496588    323.01818  0.022544541  0.022349495            7 
 1195000   0.76484988   -7.3504084    323.15257  0.022535047  0.022334239            4 
 1196000   0.78100783   -7.3209682    324.16442  0.022586707    0.0223191           10 
 1197000   0.76546964   -7.3333781    324.25483  0.022574132  0.022304045            4 
 1198000    0.7995964   -7.3484278    323.72022  0.022518101   0.02228905            5 
 1199000   0.78347657   -7.3583678    323.50093  0.022484079  0.022273902            5 
 1200000   0.77369038   -7.3363314    323.87268  0.022491158  0.022258748            5 
 1201000   0.78220183   -7.3453297    323.73242  0.022462699  0.022243576            4 
 1202000   0.77435505   -7.3498632    323.77627  0.022447051  0.022228327            4 
 1203000   0.78927983   -7.3627642    323.30729  0.022395905  0.022213098            5 
 1204000   0.77401619   -7.3652237    323.71403  0.022405456  0.022197978            7 
 1205000   0.77749897   -7.3250522     324.2282   0.02242242  0.022182771            3 
 1206000   0.77966296   -7.3553928    324.59657  0.022429282  0.022167569            5 
 1207000   0.78231409   -7.3828762    323.99552  0.022369202  0.022152354           14 
 1208000   0.77081797   -7.3387416    324.22023  0.022366186  0.022137181           10 
 1209000   0.75031663      -7.3605    324.63868  0.022376528  0.022121943            6 
 1210000   0.76631947   -7.3774235    324.72626  0.022364068  0.022106778           12 
 1211000   0.75342743   -7.3379983    324.43623  0.022325642  0.022091637            7 
 1212000   0.76864451   -7.3475314    324.54272  0.022314543  0.022076519            4 
 1213000   0.77530393    -7.354021    324.71502  0.022307985  0.022061444            8 
 1214000   0.78332902   -7.3633322    323.96052  0.022237817  0.022046277           10 
 1215000    0.7803918   -7.3732328    324.24406  0.022238962  0.022031014            4 
 1216000   0.77050918   -7.3725183    324.30318  0.022224724  0.022015785            7 
 1217000   0.75738292   -7.3608398    324.32929  0.022208251  0.022000574            6 
 1218000   0.74599718   -7.3461204    324.16609  0.022178851  0.021985357           23 
 1219000   0.76406394    -7.386986    324.96561  0.022215314  0.021970107           20 
 1220000   0.77275823   -7.3684683    324.49228  0.022164773  0.021954848            3 
 1221000    0.7520929   -7.3982534    323.32751  0.022067124   0.02193955           10 
 1222000   0.76414824   -7.3716155    324.49824  0.022128903  0.021924368            7 
 1223000   0.77762058   -7.3787236    324.61295  0.022118625  0.021909085            4 
 1224000   0.76559585   -7.3588317    324.30045  0.022079279  0.021893844            7 
 1225000   0.77888692   -7.3849894    325.13716  0.022118174  0.021878649            9 
 1226000   0.77518799   -7.3866762    325.28442  0.022110143  0.021863487            4 
 1227000   0.74751039   -7.3585994    325.53572  0.022109191  0.021848324            3 
 1228000   0.76274313   -7.3635887     324.6042  0.022027972  0.021833177            4 
 1229000   0.76618827   -7.3579661    325.46584  0.022068473  0.021818065            9 
 1230000   0.76437657   -7.3650422    325.39783  0.022045923  0.021802989            5 
 1231000   0.75757834   -7.3693302    325.72742  0.022050326  0.021787832           12 
 1232000   0.76283351    -7.408481    325.71918  0.022031871  0.021772789            9 
 1233000    0.7580654   -7.3852015    325.33774  0.021988222  0.021757679            6 
 1234000   0.76220526   -7.3986046    325.31222  0.021968681  0.021742586           10 
 1235000   0.76395144   -7.3732243    326.00785   0.02199783  0.021727586            2 
 1236000   0.78527618   -7.3666917    325.49653  0.021945559  0.021712669            5 
 1237000   0.75741509   -7.3641893    326.04958  0.021965076  0.021697694            4 
 1238000   0.77894532   -7.3552167    326.08393  0.021949645  0.021682718           14 
 1239000   0.77530626   -7.3775543    326.36349  0.021950732  0.021667778            8 
 1240000   0.75042351   -7.3832141    326.34605  0.021931858  0.021652782            6 
 1241000   0.76380669   -7.3715994        326.7  0.021937953  0.021637774            4 
 1242000   0.76057155   -7.4065798    326.56836  0.021911457  0.021622873            8 
 1243000   0.75979736   -7.3670006    326.52032  0.021890609  0.021607916            4 
 1244000   0.74778688   -7.4007279    326.00287  0.021838349  0.021592947            5 
 1245000   0.74934613   -7.4025718    326.11095  0.021828042   0.02157791            8 
 1246000   0.74035786   -7.3834474    326.45472  0.021833516  0.021562929            7 
 1247000    0.7560985   -7.3573153    326.22183  0.021800443  0.021547932            6 
 1248000    0.7534487   -7.3880382    326.54095  0.021804283  0.021532965           11 
 1249000   0.74845678   -7.4046672    326.39638   0.02177718  0.021517886           17 
 1250000   0.76266516   -7.4065633    325.98434  0.021732289  0.021502766            7 
 1251000   0.74862753   -7.4126514    326.12838  0.021724512  0.021487725            9 
 1252000   0.74649171   -7.3806536    326.69764   0.02174505   0.02147274            8 
 1253000   0.76389228   -7.3926606    326.26374  0.021698839  0.021457683           13 
 1254000   0.75390187   -7.3843836     325.9736  0.021662254  0.021442606           21 
 1255000   0.74685257   -7.3820935    327.50443  0.021746642  0.021427671            7 
 1256000   0.74780736    -7.378266    327.13558  0.021704856  0.021412821            6 
 1257000   0.73758057   -7.4000269    326.21879  0.021626809  0.021397941           12 
 1258000   0.73305263   -7.3896538    326.98283   0.02166023  0.021382969            5 
 1259000   0.74256045   -7.4069189    326.70956  0.021624938   0.02136803           10 
 1260000   0.75602742    -7.390809    325.92804  0.021556087   0.02135298            9 
 1261000   0.75054285   -7.4036604     326.1025  0.021550522  0.021338033           15 
 1262000   0.75795931   -7.3965547    327.15703  0.021603079  0.021323146            3 
 1263000   0.74316579   -7.3905151    327.51843   0.02160982  0.021308244            9 
 1264000   0.75322496   -7.4051998    327.30258  0.021578493  0.021293271            4 
 1265000   0.74795896   -7.3787333    326.44367  0.021504853  0.021278364            5 
 1266000   0.76080486   -7.4121411    326.76165  0.021508798  0.021263454            4 
 1267000   0.75824973   -7.4126861    327.43406  0.021536047  0.021248589            6 
 1268000   0.74380418   -7.3940546    327.63423  0.021532218  0.021233774            4 
 1269000    0.7435409   -7.4315567    327.13559  0.021482506  0.021218917            5 
 1270000    0.7482859   -7.4443798    327.85632  0.021512882    0.0212041            7 
 1271000   0.74661504   -7.4006015    327.59091  0.021478554  0.021189301           12 
 1272000   0.73785309   -7.4097251    327.02109  0.021424337  0.021174499            8 
 1273000   0.74009214    -7.406431    328.17993  0.021483368  0.021159728            7 
 1274000    0.7351979   -7.3938171    327.93172  0.021450269  0.021144972            7 
 1275000   0.73908421   -7.3886961    328.01055  0.021438598  0.021130262            3 
 1276000   0.73303015   -7.4073031     327.6228  0.021396473  0.021115513            6 
 1277000   0.73745669   -7.4207822    327.82148  0.021392684  0.021100708            6 
 1278000    0.7575743   -7.4320943    327.53104  0.021357006  0.021085908            6 
 1279000   0.75540491   -7.4084497    328.43558  0.021399243   0.02107115            7 
 1280000   0.75050065   -7.4151859    328.39825  0.021380094  0.021056372            5 
 1281000   0.75097364   -7.3938843    328.14576  0.021346979  0.021041572            8 
 1282000   0.74062372   -7.4083217    328.20078  0.021333904  0.021026807            8 
 1283000    0.7477651   -7.4162277    327.99778  0.021304091  0.021012066            9 
 1284000   0.74866461   -7.3923577    328.66141  0.021330569  0.020997376            6 
 1285000   0.74931241   -7.3979696    328.73761  0.021318911  0.020982694            4 
 1286000    0.7433016   -7.4268589    327.61833  0.021229804  0.020967926            3 
 1287000   0.73024376   -7.4210944    328.20993  0.021251615  0.020953202            6 
 1288000   0.73137015   -7.4160492    328.35605  0.021244568  0.020938461            5 
 1289000   0.74152727   -7.4007787    328.85665  0.021260451  0.020923808            4 
 1290000   0.72884752    -7.378086    328.62628  0.021229088  0.020909143            5 
 1291000   0.74634326   -7.4037718    327.99762  0.021172064  0.020894467            6 
 1292000   0.73473388   -7.4181845    328.03371  0.021158005  0.020879728           12 
 1293000   0.72222442   -7.4251621     329.0418  0.021206613  0.020865013           10 
 1294000   0.72231954   -7.4142001    328.53826  0.021157796  0.020850339            7 
 1295000   0.73834275   -7.4121932    328.96945  0.021169205  0.020835704           11 
 1296000   0.73108527   -7.4512161    328.73666  0.021137903  0.020821028            6 
 1297000   0.75288282   -7.4163037    328.56521  0.021110589  0.020806281            7 
 1298000   0.73918994   -7.4156958    328.87153  0.021113991  0.020791612            5 
 1299000   0.74080809    -7.408694    329.10359  0.021112624  0.020776954           17 
 1300000   0.73876814   -7.4363848     328.2732  0.021043154  0.020762241            5 
 1301000   0.74359586   -7.4167548    328.96115  0.021071044  0.020747551           22 
 1302000    0.7333709   -7.4227446    329.12554  0.021065383  0.020732886            5 
 1303000   0.75800048   -7.4184289    329.03751  0.021043586  0.020718332            3 
 1304000   0.72920462   -7.4293085    328.64699  0.021002491   0.02070375            4 
 1305000   0.71844762   -7.4336187    328.32561  0.020965875  0.020689043            7 
 1306000   0.73526502    -7.447934    328.32947  0.020950068  0.020674293            7 
 1307000   0.72779429   -7.4481251    328.48854  0.020944181  0.020659583            7 
 1308000   0.74187924    -7.423114     329.2329  0.020975592  0.020644911            6 
 1309000   0.75043762   -7.4513483     329.6826  0.020988197  0.020630289            6 
 1310000   0.74738199   -7.4360895    329.53018   0.02096248  0.020615647            5 
 1311000   0.72483347    -7.422792    328.88826  0.020905686  0.020601102            5 
 1312000   0.73841782   -7.4341796    328.66738  0.020875723  0.020586565            7 
 1313000   0.74127484   -7.4589282    329.20484  0.020893935  0.020572013            3 
 1314000   0.71912347    -7.471183    329.04007  0.020867584  0.020557473            8 
 1315000   0.72583279   -7.4650612    329.21874  0.020863038  0.020542924            7 
 1316000   0.74579738   -7.4780935    329.44621  0.020861589  0.020528329           11 
 1317000   0.74186894   -7.4404499    329.55624  0.020852711  0.020513843            8 
 1318000   0.72120134   -7.4105806    330.41316   0.02089107   0.02049938            9 
 1319000   0.73622317   -7.4217992    329.89096  0.020842239  0.020485065            8 
 1320000   0.73104912   -7.4231464      329.794  0.020820328  0.020470681            6 
 1321000   0.71762411   -7.4505995    329.74991  0.020801786  0.020456247            9 
 1322000   0.71175608   -7.4348616     330.3044  0.020821004  0.020441897            4 
 1323000    0.7279336   -7.4358589    330.61821  0.020825032  0.020427575            8 
 1324000   0.72647839   -7.4587637    330.45604  0.020799096  0.020413241            8 
 1325000   0.70990303   -7.4483005    330.73426  0.020800897  0.020398855            7 
 1326000   0.71492918   -7.4580565    330.41049  0.020764862  0.020384524            5 
 1327000   0.72964464   -7.4629429    330.08471  0.020728756  0.020370128            2 
 1328000   0.74162161   -7.4697818    330.37986  0.020731668  0.020355738            7 
 1329000   0.71858979   -7.4474304     331.0207  0.020756251  0.020341318            7 
 1330000    0.7100758   -7.4321896    330.18431   0.02068824  0.020326983           11 
 1331000   0.73228102   -7.4523206    330.63653   0.02070101  0.020312686            6 
 1332000   0.72428124   -7.4450411    331.57093  0.020743927  0.020298473            5 
 1333000   0.72992408   -7.4594647    329.95954  0.020627628  0.020284163            4 
 1334000   0.72413769   -7.4548745    329.86616  0.020606332  0.020269806            9 
 1335000   0.72271943   -7.4505575    331.07066  0.020666084  0.020255507           10 
 1336000   0.72892523   -7.4629613    330.57915  0.020619957  0.020241183            3 
 1337000    0.7299537   -7.4633257    330.90603  0.020624908  0.020226879            7 
 1338000   0.70418678   -7.4791524    330.78532  0.020601975  0.020212568           10 
 1339000   0.71210448   -7.4648299     331.0752  0.020604631    0.0201982            6 
 1340000    0.7213017    -7.451408    330.88629  0.020577506  0.020183886            5 
 1341000   0.72491367   -7.4885764    330.47265  0.020536456  0.020169503           11 
 1342000    0.7293108   -7.4882204    330.72427  0.020536778  0.020155132            7 
 1343000   0.73732117   -7.4829683    330.16652  0.020486878   0.02014079            6 
 1344000   0.72357064   -7.4588078    330.60963  0.020499109  0.020126404           21 
 1345000   0.72594984   -7.4720312    330.12025  0.020453547  0.020112074            4 
 1346000    0.7203343   -7.4666971    331.45666  0.020521091  0.020097762            6 
 1347000   0.71196014   -7.4716191    330.39006   0.02043987  0.020083447            9 
 1348000   0.70943616    -7.474081    330.86343  0.020453971  0.020069191            8 
 1349000   0.71811656   -7.4737165    330.89389   0.02044069  0.020054985            6 
 1350000   0.71370767   -7.5097175    331.66396  0.020473084  0.020040764            7 
 1351000   0.73154741   -7.4635051    331.32333  0.020436919  0.020026502            9 
 1352000   0.71006684   -7.4742936    330.61554  0.020378177   0.02001229            7 
 1353000   0.73306391   -7.4857113     331.3566  0.020408758  0.019998004           22 
 1354000   0.70348024   -7.4584038    330.60364  0.020347344  0.019983678           11 
 1355000   0.71461114   -7.4702098     330.2636  0.020311415  0.019969417            8 
 1356000   0.70773165   -7.4587434    331.09576  0.020347576  0.019955193            4 
 1357000   0.72057041   -7.4802398     331.4719   0.02035568  0.019940999           12 
 1358000   0.71455789   -7.4568789    332.33854  0.020393872  0.019926767           19 
 1359000    0.7257407   -7.4866631    331.46175  0.020325101  0.019912552            5 
 1360000   0.70514801   -7.4958789    330.82722  0.020271276  0.019898359            5 
 1361000   0.70008503   -7.4780328    330.84539  0.020257494   0.01988405            6 
 1362000   0.69341779   -7.4717813    330.94734  0.020248858   0.01986976            4 
 1363000   0.70222232   -7.4779183    331.12805  0.020245051  0.019855501            6 
 1364000   0.70829119   -7.4988358    331.09393  0.020228124  0.019841218            6 
 1365000   0.72251299   -7.4890229    331.05894  0.020211169  0.019826956            8 
 1366000   0.71413896    -7.510863    331.27256  0.020209404  0.019812709           10 
 1367000   0.69876286   -7.5116289    330.69607  0.020159477    0.0197985            9 
 1368000   0.70846207   -7.5070575    331.64099  0.020202302  0.019784227           10 
 1369000    0.7086802   -7.4777976     332.4686  0.020237923  0.019769973            9 
 1370000   0.71483882    -7.482371    331.99588  0.020194397  0.019755775            8 
 1371000   0.72591739   -7.5122843    331.72628   0.02016328  0.019741555           16 
 1372000   0.70384329    -7.483389    331.12362  0.020111979  0.019727277           14 
 1373000   0.68824302   -7.4902076    331.20444  0.020102236  0.019712996            9 
 1374000   0.68867913   -7.4984264    331.01809  0.020076303    0.0196987            8 
 1375000    0.7065733   -7.5264624    331.55226  0.020094076  0.019684347            5 
 1376000   0.70489594   -7.4968944    331.08123  0.020050946  0.019670064            8 
 1377000   0.70931279   -7.5004433    330.96257  0.020029204  0.019655782           17 
 1378000    0.7089832   -7.5241485    331.02045  0.020018169  0.019641466           13 
 1379000   0.72372298   -7.4999508    331.62333  0.020040085  0.019627161           11 
 1380000   0.69645149   -7.5113002     331.1853  0.019999112  0.019612912           10 
 1381000   0.69237518   -7.4787433    331.58066  0.020008488  0.019598682           12 
 1382000   0.68580469   -7.4795301    332.28653  0.020036573  0.019584492           10 
 1383000   0.69977853   -7.5039524    332.32914  0.020024653  0.019570289            6 
 1384000   0.69156759   -7.5135058    331.83189  0.019980244  0.019556126            8 
 1385000   0.69150045   -7.5009608     331.8904  0.019969338  0.019541907           10 
 1386000   0.71720442   -7.5049723    332.44592  0.019988331  0.019527733            4 
 1387000   0.70419147   -7.4900875    331.63155  0.019924991  0.019513623            6 
 1388000   0.68656073   -7.4959393    331.92719  0.019928385  0.019499499            7 
 1389000   0.70436137   -7.4783946    332.22602  0.019931967  0.019485394            6 
 1390000   0.70149393   -7.4903565    331.95015  0.019901088  0.019471346            6 
 1391000   0.70714106   -7.5431237    332.00961  0.019890343   0.01945719            9 
 1392000   0.68058912   -7.5098696    331.81739  0.019864547  0.019443046            9 
 1393000   0.69424068   -7.5246658    331.69749  0.019843114  0.019428932           12 
 1394000   0.69032655   -7.5040992    332.28467  0.019863981  0.019414838           15 
 1395000   0.69361152   -7.5387861    331.65082  0.019811877  0.019400733           16 
 1396000   0.69131162    -7.525797    332.05521  0.019821825  0.019386659           19 
 1397000   0.68963631   -7.4957548    332.18567  0.019815418  0.019372603           10 
 1398000   0.69712403   -7.5062498    331.35898  0.019751966  0.019358521            4 
 1399000   0.68417961   -7.5329226    332.29761  0.019793758  0.019344449            7 
 1400000   0.71477737   -7.5213755    331.81888  0.019751124  0.019330358            9 
 1401000   0.70246188   -7.5450432    331.84411  0.019738527  0.019316283            8 
 1402000    0.6771884   -7.5195409    332.21194  0.019746311  0.019302189            5 
 1403000   0.69820356   -7.5091645     332.2768  0.019736089  0.019288113            7 
 1404000   0.68718623   -7.5255194    331.73812  0.019690059  0.019274051            4 
 1405000   0.69392781   -7.5625607    331.76558  0.019677674  0.019259977           11 
 1406000   0.70234598   -7.5389014    331.38471  0.019641104  0.019245874            7 
 1407000   0.70605009   -7.5515919    331.69689  0.019645635  0.019231792            7 
 1408000   0.70605747   -7.5315693    332.39535   0.01967302  0.019217722            7 
 1409000   0.69310412   -7.5562226    332.36961  0.019657536   0.01920369            4 
 1410000   0.69197273   -7.5399449    332.15038  0.019630637  0.019189662            4 
 1411000   0.68764162   -7.5010999    332.81353   0.01965589  0.019175663            4 
 1412000   0.68973621   -7.4985759    333.06851  0.019657018  0.019161655            4 
 1413000    0.6863823   -7.5267946    332.69414  0.019621027  0.019147652            9 
 1414000   0.69574618   -7.5270763    332.13462  0.019574176  0.019133633           15 
 1415000   0.68944739   -7.5154554    332.23267  0.019566117  0.019119624           16 
 1416000   0.68157383   -7.5180304    332.06425  0.019542387   0.01910564            3 
 1417000   0.69619785   -7.5197319    332.35488  0.019545688  0.019091671            3 
 1418000   0.70820278   -7.5392568    332.74929  0.019555083  0.019077661            6 
 1419000   0.68549422   -7.5536372    332.09546  0.019502904  0.019063702           13 
 1420000   0.69243416    -7.543014    332.81577  0.019531442  0.019049787            7 
 1421000   0.69703262   -7.5560396    332.45193   0.01949636  0.019035831            6 
 1422000   0.68154197   -7.5465736    332.30103  0.019473806  0.019021853           11 
 1423000   0.69133852   -7.5506711    331.83337  0.019432734  0.019007911           14 
 1424000   0.69570852   -7.5626593    331.83265  0.019419046  0.018993916           16 
 1425000   0.67560961   -7.5448003    331.97587  0.019413793   0.01897989           22 
 1426000   0.70020661   -7.5480682    332.41686   0.01942595  0.018965943           17 
 1427000   0.68324096    -7.552855    331.85359  0.019379444   0.01895197           14 
 1428000   0.69973702   -7.5489294    332.48906  0.019402956  0.018937957            6 
 1429000   0.67807663   -7.5257035    332.71871  0.019402771  0.018924017           15 
 1430000    0.6922601   -7.5459505    333.18854  0.019416582  0.018910096           15 
 1431000   0.69817265   -7.5483962    332.36458   0.01935503  0.018896142            4 
 1432000   0.68876529   -7.5093767    332.94675  0.019375393  0.018882259            7 
 1433000    0.6872658   -7.5624835    332.90142  0.019359236  0.018868394           11 
 1434000   0.67874043   -7.5584803    331.96281  0.019291191   0.01885447           13 
 1435000    0.6876711   -7.5668774    331.75246  0.019265532  0.018840577            6 
 1436000   0.66700961   -7.5519263    331.96533  0.019264469  0.018826649           10 
 1437000   0.68152488   -7.5569261    332.49649  0.019281866  0.018812764            4 
 1438000   0.67414533   -7.5462269    333.08999   0.01930285  0.018798937            7 
 1439000   0.69222117   -7.5517064    332.49102   0.01925475   0.01878508            9 
 1440000   0.67205526   -7.5694356    332.58491  0.019246812  0.018771219            3 
 1441000   0.68208946    -7.565206    331.96144    0.0191974  0.018757378            5 
 1442000   0.68355194   -7.5438469    332.72367  0.019228136  0.018743509            6 
 1443000   0.67884128   -7.5586442    332.85099  0.019222164  0.018729684            7 
 1444000   0.67707844   -7.5842153    332.15354  0.019168602  0.018715832            7 
 1445000    0.6705448   -7.5861031    332.93405  0.019200349  0.018701993            5 
 1446000   0.68169473   -7.5678102    332.69465  0.019173274  0.018688169           16 
 1447000   0.66699445   -7.5682853    332.40591  0.019143395  0.018674378           12 
 1448000   0.68607026   -7.5741413    332.30702  0.019124483  0.018660616            7 
 1449000   0.66761676   -7.5757873    332.44052  0.019118962  0.018646838            9 
 1450000   0.67173027   -7.5831506    333.32545  0.019156635  0.018633066            8 
 1451000   0.66572678   -7.5717627    332.74713  0.019110219  0.018619301            6 
 1452000   0.67561345   -7.5913577    333.03644  0.019113662  0.018605536           13 
 1453000   0.67907882   -7.5484701    333.52317  0.019128422  0.018591789           11 
 1454000   0.67993635   -7.5590815    333.33421  0.019104437  0.018578088            5 
 1455000   0.66563888   -7.5644073    333.35419  0.019092451  0.018564398            8 
 1456000   0.67165319   -7.5557657    333.45304  0.019084995  0.018550711            6 
 1457000   0.66655903   -7.5772915    333.12932  0.019053381  0.018537038            6 
 1458000      0.66189    -7.572759    333.80112   0.01907871  0.018523398           13 
 1459000   0.66958577    -7.574268     333.5894  0.019053541   0.01850975           14 
 1460000   0.67823549   -7.5677451       333.43  0.019031393  0.018496104            9 
 1461000    0.6855362   -7.5641615    332.89252   0.01898771  0.018482449           15 
 1462000    0.6660884   -7.5799721      333.778  0.019025194  0.018468825           13 
 1463000   0.65653052   -7.5838457    332.95661  0.018965403  0.018455194            8 
 1464000   0.66805387   -7.5442879    332.87823  0.018947987  0.018441546           10 
 1465000   0.67616342   -7.5880038    333.48042  0.018969307  0.018427911            5 
 1466000   0.67030915   -7.5505823    332.91644  0.018924309  0.018414297            8 
 1467000   0.66897654   -7.5804501     332.6651  0.018897131  0.018400669            9 
 1468000   0.66147164   -7.5555719    333.13552  0.018910963   0.01838706           13 
 1469000   0.66631329   -7.5891626    333.35355  0.018910458  0.018373448           13 
 1470000   0.67457454    -7.569545    332.92205  0.018873132  0.018359867            9 
 1471000   0.68244328   -7.5798322    333.45048  0.018890238  0.018346262            5 
 1472000   0.66244285   -7.5860422    333.03436  0.018853847  0.018332644            5 
 1473000   0.67037004    -7.561808    333.37426  0.018860277  0.018319065            7 
 1474000   0.67542934   -7.5707106    333.46838  0.018852803  0.018305468            4 
 1475000   0.65621057   -7.5647449    333.25405  0.018827912  0.018291857            6 
 1476000   0.65930354    -7.595679    333.03482  0.018802779  0.018278253           12 
 1477000   0.66529666   -7.5730333    332.52114  0.018761066  0.018264651           10 
 1478000   0.66553788   -7.5862345    332.78977  0.018763519  0.018251063           13 
 1479000   0.66853962   -7.5855696    333.01605  0.018763582  0.018237492           14 
 1480000   0.67105915   -7.5749892    332.54222  0.018724224  0.018223949           19 
 1481000   0.67364507   -7.5828418    332.78575  0.018725284    0.0182104           31 
 1482000   0.65997821   -7.5844187    333.47775   0.01875156  0.018196886            7 
 1483000   0.65658237   -7.5894669    333.44028  0.018736811  0.018183389           18 
 1484000   0.65065411   -7.6086036    333.43963  0.018724148   0.01816986            6 
 1485000   0.65036843   -7.5956978    333.19844  0.018698005   0.01815632           17 
 1486000   0.66076428    -7.597859    332.24252  0.018631815  0.018142812           17 
 1487000    0.6644674   -7.6090717    333.41462  0.018684971  0.018129295           18 
 1488000   0.66379215   -7.6078222    333.60788  0.018683237  0.018115753            9 
 1489000   0.66841289   -7.5924248    333.57785  0.018669009  0.018102221           11 
 1490000   0.65542607   -7.5993675      333.382  0.018645526   0.01808872           15 
 1491000   0.66244397   -7.5994668    333.75466  0.018653849  0.018075178            9 
 1492000   0.65558413   -7.5924452    333.43835  0.018623679  0.018061674           16 
 1493000   0.65847565   -7.6093177    333.26277  0.018601405  0.018048157            9 
 1494000   0.65774582   -7.5947992    333.61287  0.018608482  0.018034653            9 
 1495000   0.65737686   -7.5981411    332.61152  0.018540219  0.018021159           13 
 1496000   0.65298903   -7.6037796    333.81074  0.018594627  0.018007677           15 
 1497000   0.66089641   -7.6076675    333.23465  0.018550136   0.01799417           26 
 1498000   0.65795725   -7.6211579    333.11696  0.018531206  0.017980692           15 
 1499000   0.65541153   -7.6134399    333.17183  0.018521894   0.01796724           23 
 1500000    0.6482998   -7.6202254    332.78449  0.018488027  0.017953823           28 
 1501000   0.65941125   -7.5963041     333.5045  0.018515684  0.017940407           18 
 1502000   0.67782661   -7.5949399    333.65046  0.018511455  0.017927006           10 
 1503000   0.65820887   -7.6204875    333.59434  0.018496027  0.017913597           18 
 1504000   0.64936588   -7.6109243     333.8583  0.018498354  0.017900184            9 
 1505000   0.65139213   -7.6170785     333.1251  0.018445465  0.017886786           19 
 1506000   0.64785915   -7.6160126    333.27122  0.018441303  0.017873412           22 
 1507000   0.66241305   -7.6254069    333.38568  0.018435395  0.017860008           17 
 1508000   0.64876509   -7.6191958    333.39078  0.018423452  0.017846585           15 
 1509000   0.64888445   -7.6346688    333.20055  0.018400737  0.017833154           17 
 1510000   0.64656456   -7.6261825    333.74193  0.018418429  0.017819765           14 
 1511000    0.6474094   -7.6122113    333.71464  0.018404734  0.017806385           16 
 1512000   0.63952339   -7.6288127    333.01147  0.018353807  0.017793014           25 
 1513000   0.65722775    -7.648053    333.29748  0.018357429  0.017779628           29 
 1514000   0.65791532   -7.6347492     332.4628  0.018299362  0.017766212           27 
 1515000   0.64738046   -7.6363141    333.30115  0.018333396  0.017752829           14 
 1516000   0.64641398    -7.622364    333.39582  0.018326507  0.017739447           18 
 1517000   0.65237326   -7.6522015    332.50959  0.018265743  0.017726057           27 
 1518000   0.64236215    -7.651614    332.67127  0.018262586   0.01771264           19 
 1519000   0.64100687   -7.6554823    332.61618  0.018247541  0.017699225           33 
 1520000   0.64165936   -7.6369115    333.09283  0.018261668  0.017685873           16 
 1521000   0.65393036   -7.6424573    333.13962  0.018252226  0.017672497           21 
 1522000   0.64463995   -7.6350139    333.19262  0.018243135  0.017659109           12 
 1523000   0.63024557   -7.6157045    332.87727  0.018213902  0.017645729           13 
 1524000   0.64340778   -7.6377697    332.67603  0.018190946  0.017632338           25 
 1525000   0.64760517   -7.6432261     332.9789  0.018195568  0.017618981           11 
 1526000   0.64004484   -7.6418589    333.49132  0.018211628  0.017605617           17 
 1527000   0.64434279   -7.6372881    332.98177  0.018171893  0.017592258            6 
 1528000   0.65235902   -7.6423386    333.33262  0.018179135  0.017578912           10 
 1529000   0.64789789   -7.6394315    332.77789  0.018137012  0.017565571           11 
 1530000   0.65043403   -7.6670438    332.64317  0.018117819  0.017552258            5 
 1531000   0.64537182   -7.6313789    333.00181  0.018125507  0.017538984           11 
 1532000   0.64014768   -7.6300069    333.36965  0.018133684  0.017525738            9 
 1533000   0.64445139   -7.6433835    333.04335  0.018104118  0.017512487            9 
 1534000   0.65532527   -7.6678803    332.97598  0.018088656  0.017499258           10 
 1535000   0.65340811   -7.6305063    332.64238  0.018058761  0.017485994           15 
 1536000   0.63072231   -7.6413893    333.26459  0.018080761  0.017472749           18 
 1537000    0.6423785   -7.6528975    332.56534  0.018031086  0.017459524           16 
 1538000   0.63326707   -7.6525419    332.52953  0.018017421  0.017446316           13 
 1539000   0.64246794   -7.6461158    332.89259  0.018025373  0.017433101           11 
 1540000   0.63420803   -7.6388624    333.11368  0.018025632  0.017419937           24 
 1541000   0.65868837   -7.6616668    332.70832  0.017992014  0.017406739           24 
 1542000   0.63219622   -7.6486036    333.58864   0.01802792  0.017393571            9 
 1543000   0.63557378   -7.6253486    333.54148   0.01801369  0.017380419           15 
 1544000   0.64985219   -7.6534755    333.95774  0.018024489  0.017367292            6 
 1545000   0.62733049   -7.6455638    334.01669  0.018016003  0.017354146            7 
 1546000   0.64524038   -7.6429035    333.76132  0.017990584  0.017341029            5 
 1547000   0.63842669   -7.6559807    333.93136  0.017988115  0.017327922            9 
 1548000   0.63548489    -7.675225     333.3811  0.017946872  0.017314823           10 
 1549000   0.62256964   -7.6639198    333.50629  0.017942021  0.017301744           15 
 1550000   0.63230664   -7.6771105    333.45691  0.017927791  0.017288626           12 
 1551000   0.64318978   -7.6641967    333.29465  0.017907514  0.017275549            9 
 1552000   0.61845326   -7.6683071    333.76792  0.017921388  0.017262479            7 
 1553000     0.635952   -7.6651076    333.99264  0.017921906  0.017249426           11 
 1554000   0.62978142   -7.6483746    333.63533  0.017891212  0.017236338           16 
 1555000   0.62150629   -7.6793959    333.59904  0.017877762  0.017223292           13 
 1556000   0.64131314    -7.664494    333.52554  0.017862336  0.017210263           16 
 1557000   0.61912883   -7.6691864    333.62987  0.017856448  0.017197256            8 
 1558000   0.63103505   -7.6564459    333.80629  0.017854423  0.017184235           10 
 1559000   0.64129387   -7.6783003    333.10296  0.017805375  0.017171214            8 
 1560000   0.64654204   -7.6767182    333.14072  0.017795979  0.017158179            9 
 1561000   0.61362588   -7.6619854    333.50034  0.017803777  0.017145158           12 
 1562000   0.62690285   -7.6598313    333.59562  0.017797462  0.017132174            6 
 1563000   0.63691482    -7.677185    333.78523  0.017796184  0.017119218            8 
 1564000    0.6394574    -7.665328    333.25413  0.017756508  0.017106272            9 
 1565000   0.62933773   -7.6651857    333.20854  0.017742734  0.017093335           16 
 1566000     0.632171   -7.6644858    333.49843   0.01774683  0.017080407           11 
 1567000   0.61582569   -7.6742746     333.4263  0.017731669  0.017067465           17 
 1568000   0.63196045   -7.6701039    333.52592  0.017725655  0.017054514           19 
 1569000   0.63211697   -7.6694679    333.38241  0.017706735  0.017041569           15 
 1570000   0.62777378   -7.6959917    334.12743  0.017735001  0.017028649           13 
 1571000   0.62617729   -7.6671058    333.96156  0.017714914  0.017015786           12 
 1572000   0.63969797   -7.6792913    333.73099  0.017691422  0.017002925            7 
 1573000   0.62714637   -7.6451306    333.72466   0.01767984  0.016990059           17 
 1574000   0.62060982   -7.6628042    333.65953  0.017665159    0.0169772           15 
 1575000   0.61030089   -7.6753749    333.87084  0.017665124  0.016964349            7 
 1576000   0.61782081   -7.6763096    333.53146   0.01763597  0.016951485            9 
 1577000   0.63155932   -7.6724883    333.99211  0.017649129  0.016938615           11 
 1578000   0.62279708   -7.6832428    333.69169  0.017622079  0.016925765            9 
 1579000   0.62352515    -7.684106    333.77628  0.017615383  0.016912881            7 
 1580000   0.62118934   -7.6898305    333.44581  0.017586804  0.016900013           14 
 1581000   0.61784151   -7.7098537    333.63775  0.017585797   0.01688715            9 
 1582000   0.61904679    -7.677308    333.52576  0.017568782  0.016874292           11 
 1583000   0.61901909   -7.6734773     333.9614  0.017580617  0.016861471           13 
 1584000   0.63871328   -7.6747885    333.34577   0.01753713  0.016848675           13 
 1585000   0.61676203   -7.6786862    333.15908   0.01751625  0.016835867           12 
 1586000    0.6298769   -7.6936103    333.07658  0.017500871  0.016823032            7 
 1587000   0.63102904   -7.6857267    332.95302  0.017483355  0.016810223            6 
 1588000   0.62061264   -7.6873993    333.58297  0.017505404  0.016797403            7 
 1589000   0.61437365   -7.7063109    333.23184  0.017475972  0.016784604            7 
 1590000   0.61396987   -7.6772965    333.55095  0.017481706   0.01677178            8 
 1591000   0.62194346   -7.6780268    333.45976  0.017465942  0.016758966            4 
 1592000   0.61930275   -7.6899956    333.72992  0.017469112  0.016746169            8 
 1593000   0.61333016   -7.7052503    333.03911  0.017422008   0.01673336            9 
 1594000   0.60246785   -7.6751452    332.57391  0.017386758   0.01672056            6 
 1595000   0.60622776   -7.6932648    332.86732  0.017391187  0.016707768            9 
 1596000   0.61604211   -7.6890953    333.00217  0.017387331  0.016694977            5 
 1597000   0.60046074   -7.6913494    333.20568  0.017387063  0.016682193           21 
 1598000   0.62347347   -7.6999547     332.9789  0.017364357  0.016669405           15 
 1599000   0.61826043   -7.6912253    333.15717  0.017362788  0.016656605            6 
 1600000   0.62038831   -7.7088328    333.58081  0.017374001   0.01664384           15 
 1601000   0.61311087   -7.6794015    332.84342  0.017324767  0.016631068            8 
 1602000   0.61588927   -7.6882609    333.07263  0.017325875  0.016618288            7 
 1603000   0.61244249   -7.6997591    332.48079    0.0172843  0.016605539            7 
 1604000   0.60809135   -7.6922968    333.73618  0.017338746  0.016592804            6 
 1605000   0.61661647   -7.6973497    333.17867  0.017298996  0.016580067            9 
 1606000   0.61271578   -7.6982764    332.98327  0.017278086  0.016567324            9 
 1607000   0.60525919   -7.7205146    332.82498  0.017259126   0.01655461            9 
 1608000   0.61858923   -7.6925022    332.82077  0.017248174  0.016541909            6 
 1609000   0.61556751   -7.6973208     333.1776  0.017255935  0.016529221           10 
 1610000   0.60505431   -7.6932505      333.455  0.017259575  0.016516531            7 
 1611000   0.60657858   -7.7015849    332.60221  0.017204749  0.016503866           11 
 1612000   0.61488602   -7.7270136    332.67567  0.017197874  0.016491199           11 
 1613000   0.60329583   -7.7075615    332.97316  0.017202581  0.016478535            7 
 1614000   0.60733945   -7.6949284    332.86123  0.017186144  0.016465892            8 
 1615000   0.61709152   -7.7215913    332.57986  0.017160983  0.016453246            9 
 1616000   0.60637665    -7.704196    333.22922   0.01718385  0.016440615            6 
 1617000    0.6013705   -7.7063042    332.96194  0.017159448   0.01642802           12 
 1618000    0.6029281   -7.6841069    332.56207  0.017128248  0.016415411            6 
 1619000   0.60635439   -7.7063164    333.31091  0.017156213  0.016402808            7 
 1620000   0.59963371   -7.7244606    332.70687  0.017114551  0.016390221           16 
 1621000   0.60518492   -7.7251274    333.05578   0.01712193  0.016377624            8 
 1622000   0.60963127   -7.7066052    332.63487  0.017089749  0.016365025           12 
 1623000   0.59747886   -7.7002036    332.58521  0.017076669  0.016352472           16 
 1624000   0.60891697   -7.7111628    332.70413  0.017072256  0.016339926            9 
 1625000   0.61117002   -7.7023955    333.31579  0.017093117   0.01632738           13 
 1626000   0.60723726   -7.7239406    332.66027  0.017049009  0.016314834           14 
 1627000    0.6006189   -7.7251798    332.32636  0.017021428  0.016302282           14 
 1628000   0.60481796    -7.712595    333.90327  0.017091691  0.016289759           13 
 1629000   0.61047602   -7.7490791    332.58725  0.017013876  0.016277233           19 
 1630000   0.60605464   -7.7214276    333.04971  0.017027081  0.016264714           10 
 1631000    0.6051262   -7.7208342    333.58598  0.017044042   0.01625221           10 
 1632000   0.58864625   -7.7374164    333.16417  0.017012059  0.016239713            9 
 1633000   0.60787252    -7.701929     332.5464  0.016970117  0.016227227           17 
 1634000   0.60494324   -7.7138008     332.7652   0.01697089  0.016214752           10 
 1635000   0.60818453   -7.7297242    332.36936  0.016940334  0.016202273           13 
 1636000   0.59396647   -7.7284803    332.94976  0.016959544    0.0161898            8 
 1637000   0.59204632   -7.7227112    333.05287  0.016954432  0.016177344            4 
 1638000   0.60223828   -7.7307571     333.1841  0.016950758  0.016164882           12 
 1639000   0.60541829   -7.7347751    332.52811  0.016907063  0.016152453           20 
 1640000   0.59017961    -7.731925    332.94744  0.016918061  0.016140045           14 
 1641000   0.61304852     -7.72827    333.16942  0.016919024   0.01612765           12 
 1642000   0.60288295   -7.7310302    332.75271  0.016887571  0.016115256           10 
 1643000   0.58412618   -7.7425322     333.1789   0.01689891  0.016102842           19 
 1644000    0.6038839   -7.7287483    333.06913  0.016883066  0.016090431           11 
 1645000   0.58769871   -7.7564412    332.94112  0.016866318  0.016078029           12 
 1646000   0.60164304    -7.739543    331.88044  0.016802371  0.016065633           33 
 1647000   0.59385927   -7.7596274    333.19644  0.016858756  0.016053258           19 
 1648000   0.58015159   -7.7425948    332.27129  0.016801744  0.016040869            7 
 1649000   0.60812595   -7.7274146    333.34588   0.01684586   0.01602853           10 
 1650000   0.59194844   -7.7390293     332.4984  0.016792848  0.016016194           13 
 1651000   0.59500541   -7.7425998    333.44605  0.016830509  0.016003866           11 
 1652000   0.59615427   -7.7338059    332.82062  0.016788772  0.015991541           12 
 1653000   0.58322799   -7.7397796    333.07482  0.016791431  0.015979242           17 
 1654000   0.58407235   -7.7473585     332.6517  0.016759961  0.015966937           13 
 1655000   0.59072503   -7.7463249    332.90501  0.016762589  0.015954628           17 
 1656000   0.59601372   -7.7552218    332.81013  0.016747692  0.015942328           10 
 1657000   0.58979965   -7.7448549    332.93534  0.016743882  0.015930048           10 
 1658000   0.58597199   -7.7553638     332.4868  0.016711238  0.015917769           16 
 1659000   0.59651003   -7.7656418    332.68873  0.016711308  0.015905494           14 
 1660000   0.58019557   -7.7517078    332.60191  0.016696883  0.015893239           11 
 1661000   0.58403132   -7.7575595    332.98708  0.016706155     0.015881            9 
 1662000   0.58624091   -7.7627721    333.35548  0.016714575  0.015868756           20 
 1663000   0.58856336   -7.7600754    332.07365  0.016640291  0.015856494           12 
 1664000   0.60355019   -7.7709693    332.30411  0.016641832  0.015844232           11 
 1665000   0.58536882   -7.7540961    332.74102  0.016653705   0.01583197           10 
 1666000   0.58651395   -7.7599606     333.3319  0.016673264   0.01581973            8 
 1667000   0.58879965   -7.7778748    332.32793  0.016613074    0.0158075           11 
 1668000   0.57537428   -7.7729278    332.42704  0.016608066  0.015795265            9 
 1669000   0.59188597   -7.7774767    332.33222   0.01659338  0.015783031           13 
 1670000   0.59982468   -7.7791539    332.19911  0.016576802  0.015770809           12 
 1671000   0.57479909   -7.7667786    331.88949  0.016551441    0.0157586           10 
 1672000   0.59583491   -7.7719583    332.12404  0.016553232  0.015746402           13 
 1673000   0.57238605   -7.7679932    332.24486  0.016549355  0.015734216           21 
 1674000   0.58227275   -7.7729898    332.27456  0.016540948  0.015722024           16 
 1675000   0.58651926   -7.7558977    332.47344  0.016540967  0.015709849            9 
 1676000   0.59004817   -7.7542434    332.39744  0.016527319  0.015697684           14 
 1677000   0.58161493    -7.776947    331.85285  0.016490402  0.015685511            8 
 1678000   0.59203928   -7.7630611    332.09424  0.016492563  0.015673352           25 
 1679000   0.60034136   -7.7614707    332.31241  0.016493568  0.015661211           25 
 1680000   0.57834328   -7.7869253     332.4849  0.016492307  0.015649098           13 
 1681000   0.58714038   -7.7737557    332.01986  0.016459442  0.015636974           17 
 1682000   0.58174577   -7.7820977    332.81557  0.016489079  0.015624868            9 
 1683000   0.57440307   -7.7770359    332.74059  0.016475569  0.015612768           12 
 1684000   0.57931354   -7.7684938    331.70024  0.016414303  0.015600661           26 
 1685000   0.58231503   -7.7561232    332.40741  0.016439536  0.015588556           32 
 1686000    0.5837655   -7.7773025    332.47101  0.016432929  0.015576468           13 
 1687000    0.5758871   -7.7862336    332.37516  0.016418453  0.015564373           16 
 1688000   0.58191282   -7.7761112    332.67649  0.016423602  0.015552279           12 
 1689000   0.58419731   -7.7713587    332.34994  0.016397767  0.015540209           13 
 1690000   0.56938266   -7.7708599    332.31695  0.016386438  0.015528139            8 
 1691000   0.56759381   -7.7718232     332.3576   0.01637875  0.015516062           11 
 1692000   0.57296044   -7.7670462     331.9715  0.016350054  0.015503985            9 
 1693000    0.5831558   -7.7844768      332.124  0.016347903  0.015491933           13 
 1694000   0.57936289   -7.7808992    331.59664   0.01631231  0.015479887            8 
 1695000   0.57457317   -7.7850006    332.25678  0.016335141  0.015467823           13 
 1696000   0.56653919   -7.7956567    332.31839  0.016328537  0.015455771           16 
 1697000   0.57523562   -7.7703976    331.93502  0.016300089  0.015443726           14 
 1698000    0.5841144   -7.7906046    332.10465  0.016298815  0.015431713           10 
 1699000   0.56575603   -7.7809713    332.07663  0.016287847    0.0154197           14 
 1700000   0.56703678   -7.7835034    332.13931  0.016281339  0.015407697            7 
 1701000   0.58201334   -7.7947894    331.18628  0.016225077  0.015395698           16 
 1702000   0.57427307   -7.7800529     332.0714  0.016258882  0.015383704           20 
 1703000     0.582369   -7.7853318    331.78098  0.016235123  0.015371706           13 
 1704000   0.58188645   -7.7732641    331.61212  0.016217338  0.015359717            9 
 1705000   0.58710309   -7.7890774    331.99953  0.016226761  0.015347754           10 
 1706000   0.57705371   -7.8183441    332.29251   0.01623156  0.015335794            9 
 1707000   0.57714175   -7.8123543    331.82267  0.016199115  0.015323835            7 
 1708000   0.56841307   -7.8108871    332.03662  0.016200069  0.015311879            8 
 1709000   0.57412618   -7.7847876    331.15707  0.016147702  0.015299942            8 
 1710000   0.57470206   -7.8267899    331.72374  0.016165874  0.015287996           12 
 1711000   0.56903693   -7.8222214    331.82569  0.016161391  0.015276054            8 
 1712000   0.56653633   -7.8074291    331.64564  0.016143187  0.015264128            9 
 1713000   0.57732418   -7.8156557    331.72348   0.01613755  0.015252208            8 
 1714000   0.57600059   -7.7907477    331.31175  0.016108117  0.015240308            6 
 1715000    0.5585985   -7.7945024    332.20475  0.016142116  0.015228394           10 
 1716000   0.57171138   -7.7892085    331.60032  0.016103357    0.0152165            9 
 1717000   0.56781147   -7.8271864    331.51739  0.016089953  0.015204593            6 
 1718000   0.56611745   -7.8137999     331.2633  0.016068262  0.015192708            7 
 1719000   0.56497092   -7.8154842    331.24864  0.016058204  0.015180832            5 
 1720000   0.58027871   -7.7995553    331.15945  0.016044547  0.015168965            9 
 1721000   0.57802644   -7.8218997    331.58515  0.016055837  0.015157106           11 
 1722000   0.58355082   -7.8189892    331.30816  0.016033109  0.015145256           10 
 1723000   0.56454995   -7.8121434    331.84202  0.016049624   0.01513342           14 
 1724000   0.57317032    -7.821319    331.58428  0.016027856  0.015121591           11 
 1725000   0.55359225   -7.8237528    331.86192  0.016031977  0.015109769            7 
 1726000   0.55722316   -7.8045224    331.60499  0.016010283  0.015097949           13 
 1727000   0.55586592   -7.8295816    331.57835  0.015999728  0.015086158           13 
 1728000   0.57293588   -7.8126574    331.81026  0.016001652  0.015074392           15 
 1729000   0.56425273   -7.8018335    332.06167  0.016004515  0.015062627           14 
 1730000   0.56404397   -7.8001288    332.36144  0.016009703  0.015050895           11 
 1731000    0.5485346   -7.7972536    332.60899  0.016012372  0.015039151            8 
 1732000   0.56548485   -7.8177232    331.63511   0.01595627  0.015027419           18 
 1733000   0.56157754   -7.8321271    331.84291  0.015957055  0.015015705           12 
 1734000   0.56125019   -7.8226378    331.68979  0.015940493   0.01500397           12 
 1735000   0.54177513   -7.8130844    331.73455  0.015933456  0.014992264           10 
 1736000   0.56229694   -7.7964762    331.50194  0.015913111  0.014980552            6 
 1737000   0.56227985   -7.8192301     331.4314  0.015900566  0.014968837            8 
 1738000   0.55312686    -7.822834    331.52664  0.015895984  0.014957161            7 
 1739000   0.54371929   -7.8479835    331.78272  0.015899114  0.014945454           14 
 1740000   0.55484037   -7.8422936     332.1036  0.015905345  0.014933765           11 
 1741000   0.54955541   -7.8231993    331.29234  0.015857378  0.014922113           18 
 1742000   0.55287771   -7.8206578    331.67244  0.015866458  0.014910462            9 
 1743000   0.56626361   -7.8461258    331.83916  0.015865326  0.014898816           16 
 1744000   0.55277788    -7.832112    331.04975  0.015818509  0.014887188            5 
 1745000   0.55957944   -7.8210864    330.75688  0.015795458  0.014875549            9 
 1746000    0.5690066   -7.8289744    331.36241  0.015815312  0.014863916            9 
 1747000    0.5445975   -7.8381058    331.42853  0.015809413  0.014852285           15 
 1748000   0.53894104   -7.8212506    331.62535  0.015809751  0.014840667            7 
 1749000   0.55746787   -7.8292777    330.69587  0.015756426  0.014829065           12 
 1750000   0.55088508   -7.8418585    331.73788  0.015797042  0.014817464           11 
 1751000   0.55218667   -7.8336673    331.33232  0.015768719  0.014805862           10 
 1752000   0.54496866   -7.8289244    331.90402  0.015786911  0.014794309            9 
 1753000   0.54394666   -7.8389115    331.56865  0.015761963  0.014782732           13 
 1754000   0.56342261   -7.8446958    331.75048  0.015761615   0.01477117           16 
 1755000   0.54704987   -7.8212508     331.2021  0.015726595  0.014759619           13 
 1756000   0.54785576   -7.8368662    331.72115  0.015742272  0.014748078           15 
 1757000   0.56506541   -7.8342027    331.04957  0.015701459  0.014736552            8 
 1758000   0.54206267   -7.8356077    331.28724  0.015703794  0.014725044           16 
 1759000   0.54963396   -7.8377658    331.14519  0.015688136   0.01471355            9 
 1760000    0.5423455   -7.8285372    330.97982  0.015671393   0.01470206            9 
 1761000   0.54425744    -7.853953    331.60144   0.01569191  0.014690591            7 
 1762000   0.54397632    -7.837639    331.81406   0.01569306  0.014679124           15 
 1763000   0.54873724   -7.8384179    331.20759  0.015655492  0.014667654           11 
 1764000   0.54692871   -7.8560139    331.31117   0.01565151  0.014656208           11 
 1765000   0.55837115   -7.8343237     331.4354  0.015648508  0.014644774           21 
 1766000   0.55229569   -7.8323968     331.5938  0.015647121  0.014633371           22 
 1767000   0.54042869   -7.8403065    331.46585  0.015632232  0.014621964           10 
 1768000   0.55411498   -7.8371113    331.22612  0.015612091  0.014610569           11 
 1769000   0.54275158   -7.8470356      331.325  0.015607923  0.014599175           23 
 1770000   0.53702042   -7.8335011    331.26751  0.015596399  0.014587768           11 
 1771000   0.54045623   -7.8633362    331.55443  0.015601093  0.014576374            9 
 1772000    0.5439727   -7.8375865    331.24957  0.015577952  0.014564977           11 
 1773000   0.54816532    -7.829921    331.16164  0.015565033  0.014553598           12 
 1774000   0.54937734   -7.8519498    330.78743   0.01553868  0.014542232            9 
 1775000   0.55210497   -7.8463172    330.48659  0.015515802  0.014530873            6 
 1776000    0.5473948   -7.8552467    331.33882  0.015547054  0.014519517            8 
 1777000   0.55134049    -7.843401    330.41393  0.015494932  0.014508174           12 
 1778000   0.54334042   -7.8643365     331.1401  0.015520252  0.014496818           14 
 1779000   0.54455174   -7.8498566    331.12961  0.015511037  0.014485494           18 
 1780000   0.53033282   -7.8419239    330.99035  0.015495803  0.014474168           17 
 1781000   0.54522486   -7.8427332    330.97408  0.015486341  0.014462858           14 
 1782000   0.55325961   -7.8441263    330.92846  0.015475517  0.014451553           14 
 1783000   0.53728998   -7.8680214    330.97532  0.015469028  0.014440242           10 
 1784000   0.55051804   -7.8597432    330.92367  0.015457944  0.014428938           13 
 1785000   0.54317545   -7.8414779    331.01324  0.015453466  0.014417655            9 
 1786000   0.54083086   -7.8646251    330.59488  0.015425293   0.01440636           12 
 1787000   0.53855079   -7.8561671    330.84048  0.015428114  0.014395085           11 
 1788000   0.54329319   -7.8497792    330.96302  0.015425197  0.014383836           13 
 1789000   0.52654487   -7.8634065    331.06852  0.015421489  0.014372592           10 
 1790000   0.53783671   -7.8673843    331.16454  0.015417344  0.014361354           29 
 1791000   0.53522382   -7.8438077    331.42461  0.015420836  0.014350146           27 
 1792000   0.53284176   -7.8897271     331.2515  0.015404181  0.014338933           20 
 1793000   0.53506066   -7.8528164    331.08618  0.015387906  0.014327733           16 
 1794000   0.54169891   -7.8722915    331.17243  0.015383335  0.014316544           12 
 1795000    0.5492754   -7.8743294    331.15185  0.015373809  0.014305364           12 
 1796000    0.5291895   -7.8438093    330.32682  0.015326968  0.014294186           12 
 1797000   0.54178483   -7.8657664    330.73852  0.015337531  0.014283022           21 
 1798000   0.53577183   -7.8479774    330.82516  0.015333016  0.014271861           23 
 1799000   0.53254457   -7.8666022    331.09352  0.015336924    0.0142607           11 
 1800000   0.52868712   -7.8474005    330.83643  0.015316501  0.014249553           14 
 1801000   0.53411535   -7.8573769     330.0997  0.015273908  0.014238411           21 
 1802000   0.53292836   -7.8497969    330.75639    0.0152958  0.014227269           12 
 1803000   0.53299242   -7.8553038    331.04298  0.015300563  0.014216138           12 
 1804000   0.52864052   -7.8550492    330.80262  0.015280978   0.01420502           15 
 1805000   0.53956946   -7.8740182    330.84915  0.015274661   0.01419392           14 
 1806000   0.53622185   -7.8672223     330.9633   0.01527147  0.014182814            9 
 1807000   0.52940547   -7.8664688    331.25053  0.015276265  0.014171721            8 
 1808000   0.53340545   -7.8628039    330.97758  0.015255235  0.014160645           12 
 1809000   0.52370253   -7.8705803    330.40114  0.015220248  0.014149576           17 
 1810000   0.53316943   -7.8554093    331.08517  0.015243332  0.014138504            8 
 1811000   0.52129929   -7.8908996    330.87212  0.015225111  0.014127439           15 
 1812000   0.53046392   -7.8789862     331.1799  0.015230864  0.014116392           10 
 1813000   0.52630981   -7.8638854    330.25215  0.015179819  0.014105327           11 
 1814000   0.52544955   -7.8835388    330.36265  0.015176527  0.014094287            6 
 1815000   0.53584205   -7.8749693    330.08426  0.015155384  0.014083246           10 
 1816000   0.52140269   -7.8660537    330.68935  0.015174805  0.014072229           10 
 1817000   0.52675891   -7.8845866    330.72054  0.015167884  0.014061226            6 
 1818000   0.54124258   -7.8733103    330.45252  0.015147255  0.014050233           11 
 1819000   0.52318826   -7.8819558    330.68113  0.015149401  0.014039242           15 
 1820000   0.53032445   -7.8784336    330.53732  0.015134493  0.014028248           12 
 1821000   0.53471516   -7.8907841    330.64496  0.015131107  0.014017269           13 
 1822000   0.53609231   -7.8758191    330.15862  0.015100559  0.014006297            7 
 1823000   0.52149647   -7.8752419    330.37052  0.015101962  0.013995339            8 
 1824000   0.52602905   -7.8852432    331.23119  0.015133004  0.013984381            8 
 1825000   0.51206898   -7.8677625    329.86831   0.01506248  0.013973426           12 
 1826000    0.5210107   -7.8885628    330.80884  0.015097154  0.013962488            8 
 1827000   0.51879442   -7.8812268    330.61614  0.015080101  0.013951558            9 
 1828000   0.52660423   -7.8836329    330.29432  0.015057181  0.013940646           11 
 1829000   0.51643397   -7.8728561    330.84795  0.015074173  0.013929739           12 
 1830000   0.51828106   -7.8797238    330.18062  0.015035547   0.01391883           13 
 1831000    0.5340424   -7.8923401    330.60331  0.015046573  0.013907932           15 
 1832000   0.52068046   -7.8817976    330.13515  0.015017065  0.013897041           12 
 1833000   0.50990764   -7.8963651    330.65605  0.015032554  0.013886173           13 
 1834000   0.51612153   -7.8776981    330.90653  0.015035738  0.013875312           10 
 1835000   0.52165829   -7.8850871    330.49555  0.015008881  0.013864465            9 
 1836000   0.52299008   -7.9077908     330.3309  0.014993233  0.013853628           11 
 1837000   0.52282146   -7.8808135    330.46696  0.014991243  0.013842804           10 
 1838000    0.5123405    -7.886919    330.42133  0.014981018  0.013831971           25 
 1839000   0.51848095   -7.8876249    330.57217  0.014979707  0.013821161           16 
 1840000   0.51627569   -7.8988949    331.01208  0.014991489  0.013810356           25 
 1841000   0.52101506   -7.8982088    330.15949  0.014944753  0.013799555           16 
 1842000   0.52081522   -7.8827359     330.0381  0.014931148   0.01378877           14 
 1843000   0.51787753   -7.8818551    330.06426  0.014924229  0.013777991           21 
 1844000    0.5285684   -7.9218945    330.39335  0.014931008  0.013767234           17 
 1845000   0.52257811   -7.8859169    330.03298  0.014906639   0.01375648           12 
 1846000    0.5116099   -7.8915336    330.23434  0.014907653  0.013745733           22 
 1847000   0.52331769   -7.8919796    330.40746  0.014907393  0.013735016           16 
 1848000   0.51997617   -7.8877192     330.0947  0.014885223  0.013724287           23 
 1849000   0.51178795   -7.8974675    330.08005  0.014876512  0.013713561           18 
 1850000   0.51914252   -7.8893323    330.59518  0.014891675  0.013702847           17 
 1851000   0.50638638   -7.8982641    330.09717  0.014861209  0.013692144           12 
 1852000   0.51957144   -7.9016349    330.96901  0.014892414  0.013681465           18 
 1853000   0.50397493   -7.8907615    330.58335  0.014867033   0.01367079           16 
 1854000    0.5049062   -7.8854033    330.42242  0.014851781  0.013660114           24 
 1855000   0.51520993   -7.8989989    330.18268  0.014833004  0.013649452           15 
 1856000   0.51631113   -7.8927076    329.94513  0.014814347  0.013638792           15 
 1857000   0.49137586   -7.9346243    330.41402  0.014827411   0.01362814           21 
 1858000   0.50329349   -7.9119318    330.15082  0.014807625  0.013617495           16 
 1859000   0.50056809   -7.9034873    330.59862  0.014819734  0.013606871           21 
 1860000   0.52983281   -7.9208172    329.97105  0.014783649  0.013596252           21 
 1861000    0.5129825   -7.9088137    329.74209  0.014765453  0.013585641           20 
 1862000   0.50387491   -7.8918879    329.79062  0.014759695  0.013575029           18 
 1863000   0.51155411   -7.9239222    329.93052   0.01475803  0.013564418           19 
 1864000   0.50544555   -7.9087335    330.02637  0.014754398  0.013553837           18 
 1865000   0.50705524    -7.909873    329.68937  0.014731429  0.013543258           22 
 1866000    0.5017232   -7.9141332    329.90994  0.014733384  0.013532687           14 
 1867000   0.50997321   -7.8939054    329.63153  0.014713066  0.013522115           23 
 1868000   0.51461528   -7.9143458    330.34804  0.014737154  0.013511567           29 
 1869000   0.50362996   -7.9282668    330.07361  0.014717033  0.013501039           16 
 1870000   0.49876828   -7.9016431    330.03237  0.014707325  0.013490509           20 
 1871000   0.50515985    -7.928292     330.7404  0.014730999  0.013479997           15 
 1872000   0.50781179   -7.9103989    329.94388  0.014687673  0.013469489           15 
 1873000   0.51569482   -7.9231264    330.30516  0.014695905  0.013459001           21 
 1874000   0.49945008   -7.9234202    330.43559  0.014693863  0.013448507           18 
 1875000    0.5064382   -7.9265723    329.57441  0.014647752  0.013438012           21 
 1876000   0.49757379   -7.9091783    329.70541  0.014645763  0.013427546           15 
 1877000   0.50566486   -7.9231202     329.8116  0.014642675  0.013417086           19 
 1878000   0.49801581   -7.9473881    330.05716  0.014645774  0.013406627           20 
 1879000   0.49951729   -7.9229369    329.43454  0.014610366  0.013396174           16 
 1880000    0.5029874   -7.9215796    329.59102  0.014609531  0.013385734           21 
 1881000    0.5002415   -7.9192256     329.3866  0.014592708    0.0133753           17 
 1882000   0.51014835   -7.9332183    329.68794  0.014598297  0.013364876           20 
 1883000   0.50525798   -7.9193631    329.94331  0.014601846  0.013354454           19 
 1884000   0.50158912   -7.9304425    329.76467  0.014586194  0.013344046           11 
 1885000    0.5138455   -7.9232066     329.6617  0.014573903  0.013333637           12 
 1886000   0.49017251   -7.9176496    329.22244  0.014546768   0.01332324           16 
 1887000   0.50961907   -7.9211044    329.85557  0.014567019   0.01331285           25 
 1888000   0.50285383   -7.9312529     329.9989  0.014565629  0.013302471           21 
 1889000   0.49966668   -7.9290316    329.93701  0.014555188   0.01329211           17 
 1890000   0.50020716   -7.9280023    330.28844  0.014562983  0.013281743           14 
 1891000   0.50213413   -7.9334502    329.91591  0.014538864  0.013271393           19 
 1892000    0.4932235   -7.9397559     329.7437  0.014523595  0.013261047           12 
 1893000   0.47929262   -7.9436287     329.5852  0.014508945  0.013250698           15 
 1894000   0.50259552   -7.9416711    329.16664  0.014482869  0.013240363           18 
 1895000   0.49461696   -7.9385821    330.13988  0.014518025  0.013230047           17 
 1896000   0.49909522   -7.9331868    329.71795  0.014491823  0.013219729           18 
 1897000   0.49951307   -7.9262453    329.77298  0.014486601  0.013209432           24 
 1898000   0.48932899   -7.9444976    329.49066  0.014466573   0.01319914           14 
 1899000   0.49752219   -7.9347861    328.95624  0.014435503  0.013188847           17 
 1900000   0.50079045    -7.934559    329.68333  0.014459795  0.013178562           21 
 1901000   0.49149254   -7.9424183    329.93941  0.014463414  0.013168294           17 
 1902000   0.48992942   -7.9486119    329.73072  0.014446667  0.013158036           20 
 1903000   0.49419827   -7.9388051    329.47868  0.014428038  0.013147795           24 
 1904000   0.50382014   -7.9535027    329.57735  0.014424779  0.013137547           19 
 1905000   0.48510357   -7.9339871    329.49384  0.014413554  0.013127318           17 
 1906000   0.49109221   -7.9323066    329.85205  0.014421653  0.013117095           12 
 1907000   0.48572502   -7.9310417    329.29524  0.014389759  0.013106888           23 
 1908000   0.49353253   -7.9489562    329.83085   0.01440561   0.01309669           17 
 1909000   0.49659292   -7.9547016    329.55638  0.014386082    0.0130865           21 
 1910000   0.48320195    -7.943198    329.30481  0.014367575  0.013076315           16 
 1911000    0.5038834   -7.9424697    329.39685   0.01436407  0.013066146           15 
 1912000   0.48960824   -7.9400289    329.01312  0.014339833  0.013055977           14 
 1913000   0.48470622   -7.9373692    329.21386  0.014341081  0.013045818           19 
 1914000   0.48259794   -7.9496354    329.51569   0.01434673  0.013035671           24 
 1915000   0.48544776   -7.9510174    329.21553  0.014326176  0.013025529           20 
 1916000   0.48522265   -7.9489839    329.26066  0.014320662  0.013015396           15 
 1917000   0.48763149   -7.9590028    329.22415  0.014311605  0.013005264           26 
 1918000   0.49188559   -7.9574424    328.96261  0.014292779  0.012995145           20 
 1919000   0.49448443   -7.9488148    329.37554  0.014303263  0.012985038           21 
 1920000   0.48230843   -7.9286412    329.40561  0.014297119  0.012974936           17 
 1921000   0.48561707   -7.9601269    329.71878  0.014303261  0.012964848           24 
 1922000    0.4844397   -7.9603846    328.86268  0.014258701  0.012954757           19 
 1923000   0.48344273   -7.9448408    329.60194  0.014283322  0.012944687           24 
 1924000   0.48852806   -7.9556639    329.23686  0.014260086  0.012934632           20 
 1925000   0.49748056   -7.9309394    329.94136  0.014283176  0.012924578           10 
 1926000   0.47402769     -7.94938    328.93637  0.014232276  0.012914529           14 
 1927000   0.47674151   -7.9498242    329.61969  0.014254441  0.012904497           36 
 1928000   0.48301807   -7.9529723    328.79426   0.01421137  0.012894461           21 
 1929000   0.48275422   -7.9523995    329.28697  0.014225288  0.012884436           20 
 1930000   0.47903089   -7.9715885    329.79113  0.014239686  0.012874421           15 
 1931000    0.4856443   -7.9668401    329.46965  0.014218438  0.012864422           19 
 1932000   0.47451982   -7.9548967    329.58193  0.014215922   0.01285443           23 
 1933000   0.47702731   -7.9533378    329.24913   0.01419422  0.012844457           19 
 1934000   0.48407644   -7.9544515    328.69058  0.014162813  0.012834482           26 
 1935000   0.48043321   -7.9604163    329.41067  0.014186506  0.012824531           19 
 1936000   0.47889202   -7.9490033    329.39257  0.014178399  0.012814577           19 
 1937000   0.48473707   -7.9708725    329.01148  0.014154684   0.01280463           19 
 1938000   0.48274576    -7.941251    329.04341  0.014148754  0.012794706           17 
 1939000   0.47337682   -7.9595988    329.43905   0.01415846  0.012784776           15 
 1940000     0.479171   -7.9741479    328.85358  0.014126013  0.012774864           16 
 1941000   0.47706847   -7.9629429     329.5916  0.014150421  0.012764959           19 
 1942000   0.48700508   -7.9484491    329.08075  0.014121213  0.012755061           19 
 1943000   0.48044852   -7.9611506    328.89753  0.014106087  0.012745178           18 
 1944000   0.48214795   -7.9526542    329.27297  0.014114925  0.012735305           23 
 1945000   0.46622491   -7.9767606    329.41599  0.014113795  0.012725437           27 
 1946000   0.48061706   -7.9415845    329.07142  0.014091787  0.012715583           17 
 1947000   0.47715002   -7.9823001    329.09937  0.014085746  0.012705726           14 
 1948000   0.47010592   -7.9610854    328.89845   0.01406992  0.012695887           20 
 1949000   0.48041322   -7.9605441    329.70358  0.014097126  0.012686057           13 
 1950000   0.47051632   -7.9580961    329.50556  0.014081434  0.012676229           17 
 1951000   0.47280212   -7.9682365    329.22807  0.014062364  0.012666414           15 
 1952000   0.49598632   -7.9527136    329.39645  0.014062348  0.012656613           21 
 1953000   0.47769053   -7.9537003    328.68595  0.014024832  0.012646816           25 
 1954000   0.47979213   -7.9535529    329.45873  0.014050611  0.012637035           12 
 1955000   0.47046188   -7.9590775    329.22497   0.01403346  0.012627257           18 
 1956000   0.47273343   -7.9784028    329.07446  0.014019873  0.012617483           20 
 1957000   0.47622753   -7.9563372    328.48912  0.013987784  0.012607728           25 
 1958000   0.47752693   -7.9869854    329.13624  0.014008182  0.012597968           16 
 1959000   0.47244087   -7.9586205    328.69724  0.013982356  0.012588228           19 
 1960000   0.46438346   -7.9910644    329.38975  0.014004666  0.012578489           22 
 1961000   0.46846483   -7.9669453    328.79958  0.013972445  0.012568759           26 
 1962000   0.45973163   -7.9652502    329.03641  0.013975383  0.012559048           20 
 1963000   0.46876913   -7.9786901    328.96509  0.013965236  0.012549338           25 
 1964000   0.46098264   -7.9696373    329.50531  0.013981047  0.012539641           21 
 1965000   0.46705939   -7.9721005    328.74156  0.013941542  0.012529951           24 
 1966000   0.47001337   -7.9596537    328.82472  0.013937976  0.012520266           31 
 1967000   0.46549174   -7.9759859    328.64039   0.01392308  0.012510596           17 
 1968000   0.47856672   -7.9874752    329.29187  0.013943592  0.012500935           24 
 1969000   0.45581604   -7.9861663    328.97003  0.013922889  0.012491276           21 
 1970000   0.46373274     -7.97859    329.53468  0.013939707  0.012481621           20 
 1971000   0.46894678   -7.9634759    329.29667  0.013922572  0.012471982           30 
 1972000   0.47108067   -7.9893183    328.73985  0.013891982  0.012462352           20 
 1973000   0.45804101   -7.9796332        329.1  0.013900152  0.012452732           34 
 1974000   0.46113633    -7.971524    328.99663  0.013888747  0.012443125           13 
 1975000   0.46685535   -7.9872409    328.95472  0.013879946  0.012433523           24 
 1976000   0.46790345     -7.97702    329.13419   0.01388049  0.012423932           10 
 1977000   0.46323549   -7.9682731    329.37676  0.013883694  0.012414361           16 
 1978000   0.45581109   -7.9790009    328.49449  0.013839505  0.012404784           18 
 1979000   0.45784901   -7.9592578    329.09993  0.013858006  0.012395216           27 
 1980000   0.46695921   -7.9754009    328.97261  0.013845649  0.012385662           26 
 1981000   0.47460384    -7.984327    329.03223  0.013841167  0.012376119           32 
 1982000   0.45846362    -8.005846    328.74378  0.013822056  0.012366576           21 
 1983000   0.45605199   -7.9880086    328.66588  0.013811812  0.012357039           24 
 1984000   0.45917171   -7.9892378    329.14757  0.013825083  0.012347513           29 
 1985000   0.46214119   -7.9754302    328.35763  0.013784955  0.012337993           24 
 1986000   0.46583332   -7.9845643    328.61433  0.013788785  0.012328482           16 
 1987000     0.464283   -7.9944724    328.81467  0.013790248  0.012318977           17 
 1988000   0.45320295   -7.9753776    328.68385  0.013777828  0.012309488           19 
 1989000   0.44923072   -7.9793745    328.56146  0.013765773  0.012300007           25 
 1990000   0.45792681    -7.979588    328.13062  0.013740813  0.012290531           22 
 1991000   0.46239408   -8.0016829    328.75771  0.013760158  0.012281058           21 
 1992000   0.46976326   -7.9919701    328.40076  0.013738318  0.012271594           19 
 1993000   0.46409586    -7.988712    328.63601  0.013741262  0.012262147           19 
 1994000   0.46026705   -8.0083346     328.4968  0.013728552  0.012252704           22 
 1995000   0.46037522   -8.0008383    328.75053   0.01373227  0.012243268           31 
 1996000   0.45555155   -7.9854137    328.97525  0.013734772  0.012233844           24 
 1997000   0.46262412   -7.9925381    328.29546  0.013699527  0.012224433           24 
 1998000    0.4573288   -8.0018666    328.63934  0.013707013   0.01221503           20 
 1999000    0.4444697   -7.9955861    328.91094  0.013711478  0.012205632           23 
 2000000   0.45793329    -7.998362    328.94413  0.013706005  0.012196243           17 
 2001000   0.44972502   -8.0152017    328.86835     0.013696  0.012186858           38 
 2002000   0.46048573   -8.0167312    329.09547  0.013698613  0.012177478           26 
 2003000   0.45706899   -7.9885641    328.43654  0.013664359  0.012168112           23 
 2004000   0.44891712   -7.9880557    328.27021  0.013650624  0.012158751           24 
 2005000   0.45536254     -7.99468    328.45715  0.013651586  0.012149397           20 
 2006000   0.44973803   -7.9966479    328.97233  0.013666182  0.012140071           17 
 2007000   0.44150535   -7.9994099    328.66347  0.013646549  0.012130743           19 
 2008000   0.45357939   -8.0055043    328.32408  0.013625667  0.012121423           20 
 2009000   0.44447467   -8.0018599    328.12974  0.013610824  0.012112106           32 
 2010000   0.45155268   -7.9896603    328.51823  0.013620159  0.012102797           22 
 2011000   0.45166026   -8.0018491    328.03303   0.01359328  0.012093502           23 
 2012000   0.44269296   -7.9936467    328.46721  0.013604507  0.012084216           24 
Loop time of 4485.27 on 48 procs for 2000000 steps with 4000 atoms

Performance: 77052.144 tau/day, 445.904 timesteps/s
99.4% CPU use with 48 MPI tasks x no OpenMP threads

MPI task timing breakdown:
Section |  min time  |  avg time  |  max time  |%varavg| %total
---------------------------------------------------------------
Pair    | 283.32     | 294.06     | 310.42     |  36.6 |  6.56
Neigh   | 28.264     | 29.143     | 30.449     |   7.8 |  0.65
Comm    | 256.1      | 271.73     | 290.1      |  43.4 |  6.06
Output  | 3.9928     | 3.9946     | 4.0242     |   0.2 |  0.09
Modify  | 3822.6     | 3841.3     | 3854.2     |   9.3 | 85.64
Other   |            | 45.04      |            |       |  1.00

Nlocal:        83.3333 ave          90 max          73 min
Histogram: 1 0 1 3 8 9 8 12 4 2
Nghost:        1870.75 ave        1896 max        1838 min
Histogram: 1 1 3 4 6 11 9 10 2 1
Neighs:        11680.5 ave       13027 max       10583 min
Histogram: 3 5 6 4 10 7 7 3 0 3
FullNghs:      23361.0 ave       25277 max       20075 min
Histogram: 1 0 1 3 4 9 10 12 5 3

Total # of neighbors = 1121326
Ave neighs/atom = 280.33150
Neighbor list builds = 107650
Dangerous builds = 0

#clear
#
#next RN
#
#jump SELF
Total wall time: 1:14:48
