
units lj                  # Use reduced LJ style units
atom_style atomic         # Uncharged point particles
atom_modify map hash      # Needed for indexing of clusters etc
                          # Used to be able to find where atoms are in relation to each other.

lattice fcc 1.0 spacing 1 1 1
Lattice spacing in x,y,z = 1.5874011 1.5874011 1.5874011
region box block 0 10 0 10 0 10 units lattice
create_box 2 box
Created orthogonal box = (0.0000000 0.0000000 0.0000000) to (15.874011 15.874011 15.874011)
  3 by 4 by 4 MPI processor grid
create_atoms 1 box
Created 4000 atoms
  using lattice units in orthogonal box = (0.0000000 0.0000000 0.0000000) to (15.874011 15.874011 15.874011)
  create_atoms CPU = 0.023 seconds
set type 1 type/fraction 2 0.96 78393
Setting atom values ...
  3848 settings made for type/fraction
mass 1 1.0
mass 2 1.0
pair_style lj/cut  3.5
pair_modify tail  yes
pair_coeff 1  1  1.0  1.0   # Intearaction between 1 and 1 set with epsilon = 1 and sigma = 1
pair_coeff 1  2  1.5  0.8
pair_coeff 2  2  0.5  0.88

write_data data.0
System init for write_data ...
Neighbor list info ...
  update every 1 steps, delay 10 steps, check yes
  max neighbors/atom: 2000, page size: 100000
  master list distance cutoff = 3.8
  ghost atom cutoff = 3.8
  binsize = 1.9, bins = 9 9 9
  1 neighbor lists, perpetual/occasional/extra = 1 0 0
  (1) pair lj/cut, perpetual
      attributes: half, newton on
      pair build: half/bin/atomonly/newton
      stencil: half/bin/3d
      bin: standard
WARNING: Not all mixed pair coeffs generated from mixing. Use write_data with 'pair ij' option to store all pair coeffs. (../write_data.cpp:312)


#############################
#   M E L T   S Y S T E M   #
#############################

velocity all create 2.4 1741580 mom yes dist gaussian # Assign velocities
                                                    # Temperature 2.4, random number seed, zero linear momentum
                                                                                # Gaussian distribution

timestep 0.002   # simulation timestep
thermo 1000       # output thermodynamic data every 1000 steps bf 100

# Define a fix  in this case with index 1 applied to all
# particles in the simulation. This fix is for simulations
# in the anisotropic NPT ensemble. Note that we use the MTK
# correction.
fix 1 all npt temp 2.4 2.4 0.1 iso 5.68 5.68 0.5 mtk yes tchain 5 pchain 5 # Use NPT ensemble
                                                                         # Set temperature and pressure and damping
                                                                         # Numbers of thermostats in chain and in barostat
run 10000          # run for 10000 steps
Per MPI rank memory allocation (min/avg/max) = 3.642 | 3.644 | 3.648 Mbytes
Step Temp E_pair E_mol TotEng Press Volume 
       0          2.4   -2.8820212            0   0.71707882   -2.0430313         4000 
    1000    2.3492914    -1.727899            0    1.7951571    5.5160089    4186.9498 
    2000    2.3697222    -1.697774            0    1.8559207    5.7915434    4154.7428 
    3000    2.3567551   -1.7124936            0    1.8217552    5.6923851    4159.0078 
    4000    2.4238558   -1.7678686            0    1.8670062    5.3958701    4191.0627 
    5000    2.4100077   -1.7243471            0    1.8897607    5.6518007    4159.6567 
    6000    2.3481741   -1.6973025            0    1.8240781    5.8131467    4157.7541 
    7000    2.3564352   -1.7582985            0    1.7754706    5.6286989      4130.07 
    8000    2.4372687   -1.7378448            0    1.9171443    5.7927412    4137.7111 
    9000    2.3536178   -1.7361822            0    1.7933619    5.6987351    4144.6485 
   10000    2.3513575   -1.7063367            0    1.8198177    5.5882478     4185.173 
Loop time of 2.45708 on 48 procs for 10000 steps with 4000 atoms

Performance: 703273.003 tau/day, 4069.867 timesteps/s
99.6% CPU use with 48 MPI tasks x no OpenMP threads

MPI task timing breakdown:
Section |  min time  |  avg time  |  max time  |%varavg| %total
---------------------------------------------------------------
Pair    | 1.0546     | 1.1131     | 1.1716     |   2.7 | 45.30
Neigh   | 0.20336    | 0.2109     | 0.22101    |   0.8 |  8.58
Comm    | 0.773      | 0.85977    | 0.95126    |   4.1 | 34.99
Output  | 0.00024076 | 0.00024884 | 0.00041876 |   0.0 |  0.01
Modify  | 0.2246     | 0.25806    | 0.28783    |   3.7 | 10.50
Other   |            | 0.01505    |            |       |  0.61

Nlocal:        83.3333 ave          92 max          71 min
Histogram: 1 1 4 6 2 8 9 9 4 4
Nghost:        1590.60 ave        1622 max        1560 min
Histogram: 1 1 5 9 8 8 9 6 0 1
Neighs:        9111.98 ave       10405 max        7405 min
Histogram: 1 1 5 5 3 10 10 6 4 3

Total # of neighbors = 437375
Ave neighs/atom = 109.34375
Neighbor list builds = 906
Dangerous builds = 187

# Equilibrate just above the melting temperature to avoid step fn in T

fix 1 all npt temp 1.25 1.25 0.1 iso 5.68 5.68 0.5 mtk yes tchain 5 pchain 5
run 2000
Per MPI rank memory allocation (min/avg/max) = 3.643 | 3.645 | 3.649 Mbytes
Step Temp E_pair E_mol TotEng Press Volume 
   10000    2.3513575   -1.7063367            0    1.8198177    5.5882478     4185.173 
   11000     1.269261     -2.61507            0  -0.71165451    5.7279965    3260.4645 
   12000    1.2519387   -2.6338953            0  -0.75645673    5.6052377    3253.3182 
Loop time of 0.578125 on 48 procs for 2000 steps with 4000 atoms

Performance: 597794.513 tau/day, 3459.459 timesteps/s
99.7% CPU use with 48 MPI tasks x no OpenMP threads

MPI task timing breakdown:
Section |  min time  |  avg time  |  max time  |%varavg| %total
---------------------------------------------------------------
Pair    | 0.25928    | 0.27888    | 0.29724    |   2.0 | 48.24
Neigh   | 0.038818   | 0.040921   | 0.042845   |   0.5 |  7.08
Comm    | 0.19047    | 0.21068    | 0.23204    |   2.6 | 36.44
Output  | 5.0784e-05 | 5.251e-05  | 6.7309e-05 |   0.0 |  0.01
Modify  | 0.039231   | 0.042695   | 0.046582   |   0.9 |  7.39
Other   |            | 0.0049     |            |       |  0.85

Nlocal:        83.3333 ave          90 max          76 min
Histogram: 1 3 7 3 8 9 2 10 2 3
Nghost:        1880.73 ave        1904 max        1850 min
Histogram: 1 2 5 3 7 9 4 8 6 3
Neighs:        11748.0 ave       13301 max       10024 min
Histogram: 1 1 5 8 7 9 7 2 5 3

Total # of neighbors = 563904
Ave neighs/atom = 140.97600
Neighbor list builds = 145
Dangerous builds = 15

#############################
# L I N E A R  Q U E N C H  #
#############################

# Define solid atoms. This closely follows ten Wolde  Ruiz-Montero and Frenkel  Faraday Discuss  1996  104  93-110
# Compute components of the per-atom q6 vector
compute q6 all orientorder/atom degrees 1 6 components 6 nnn NULL cutoff 1.3 # compute the Q6 parameter.
                                                                             # Use all neighbours within 1.3 unit cell.

# get number of connections
compute coord_number all coord/atom orientorder q6 0.5

# An atom is solid if it has 8 or more connections (of a possible 14)
variable is_solid atom c_coord_number>=8
group solid dynamic all var is_solid    # Must be dynamic to update
dynamic group solid defined

# do clustering
compute cluster solid cluster/atom 1.3 # Create a cluster where all atoms within are solid and max 1.3 units from another member

# define chunks one chunk per cluster
compute clus_chunks solid chunk/atom c_cluster nchunk every compress yes  # Says which atoms are in which chunk

# count the size of each chunk
compute size_chunks solid property/chunk clus_chunks count


# Find the maximum entry in the vector of chunk sizes
variable max_n equal max(c_size_chunks)


# Thermo style which includes this variable
# thermo_style custom step temp pe vol v_max_n

thermo ${N}  # Print the thermo information every 100 steps
thermo 1000  

# Reset the npt fix at a lower temperature (below freezing)
fix 1  all npt temp  ${temp} ${temp}  0.1  iso  5.68  5.68  0.5  mtk yes tchain  5  pchain  5
fix 1  all npt temp  0.45 ${temp}  0.1  iso  5.68  5.68  0.5  mtk yes tchain  5  pchain  5
fix 1  all npt temp  0.45 0.45  0.1  iso  5.68  5.68  0.5  mtk yes tchain  5  pchain  5

dump dmp2 all dcd ${N} traj.dcd
dump dmp2 all dcd 1000 traj.dcd


compute msd all msd com yes
variable twopoint equal c_msd[4]/6/(step*dt+1.0e-6)
fix 9 all vector 10 c_msd[4]
variable fit equal slope(f_9)/6/(10*dt)
thermo_style custom step temp pe c_msd[4] v_twopoint v_fit v_max_n

fix 1 all npt temp 1.25 ${temp} 0.1 iso 5.68 5.68 0.5 mtk yes tchain 5 pchain 5
fix 1 all npt temp 1.25 0.45 0.1 iso 5.68 5.68 0.5 mtk yes tchain 5 pchain 5
run 2000000 # 5000000  # Run for this many steps
Neighbor list info ...
  update every 1 steps, delay 10 steps, check yes
  max neighbors/atom: 2000, page size: 100000
  master list distance cutoff = 3.8
  ghost atom cutoff = 3.8
  binsize = 1.9, bins = 8 8 8
  4 neighbor lists, perpetual/occasional/extra = 1 3 0
  (1) pair lj/cut, perpetual
      attributes: half, newton on
      pair build: half/bin/atomonly/newton
      stencil: half/bin/3d
      bin: standard
  (2) compute orientorder/atom, occasional
      attributes: full, newton on
      pair build: full/bin/atomonly
      stencil: full/bin/3d
      bin: standard
  (3) compute coord/atom, occasional
      attributes: full, newton on
      pair build: full/bin/atomonly
      stencil: full/bin/3d
      bin: standard
  (4) compute cluster/atom, occasional
      attributes: full, newton on
      pair build: full/bin/atomonly
      stencil: full/bin/3d
      bin: standard
Per MPI rank memory allocation (min/avg/max) = 9.812 | 9.819 | 9.824 Mbytes
Step Temp PotEng c_msd[4] v_twopoint v_fit v_max_n 
   12000    1.2519387   -2.6338953 1.9721523e-34 1.3695501e-36 8.3333333e+20            1 
   13000    1.2730032   -2.6404438    1.1902451 0.0076297762   0.10044729            3 
   14000    1.2216535   -2.6024058    2.4335094  0.014485175   0.10410029            1 
   15000       1.2424   -2.6431864    3.6530524  0.020294735   0.10284506            1 
   16000    1.2330222   -2.5977068    4.9255011  0.025653651    0.1032169            2 
   17000     1.243003   -2.6402825    6.0996849  0.029900415   0.10347596            3 
   18000    1.2741042   -2.6340189     7.486494  0.034659694   0.10358804            3 
   19000    1.2309957   -2.6316722    8.8295368  0.038726037    0.1048999            3 
   20000    1.2594991   -2.6416359    10.182816  0.042428399   0.10622106            1 
   21000    1.2366308   -2.6237556    11.384529  0.045176701   0.10680061            1 
   22000    1.2507764   -2.6009238    12.730666  0.048222218   0.10713364            1 
   23000    1.2169213   -2.6626263    13.952556  0.050552738   0.10702067            1 
   24000    1.2517827   -2.6608264    15.117363  0.052490841   0.10688265            2 
   25000    1.2554242   -2.6388622    16.342522  0.054475072   0.10647902            1 
   26000    1.2592752   -2.6363244    17.487888  0.056050921    0.1059813            1 
   27000    1.2491867    -2.608989    18.777012   0.05795374   0.10552567            1 
   28000    1.2223757    -2.630069      19.8738  0.059148213   0.10500171            4 
   29000    1.2513387    -2.619546    21.224911  0.060991122   0.10481943            1 
   30000    1.2180173   -2.6488842     22.48537  0.062459361   0.10462948            2 
   31000    1.2536656   -2.6505986    23.828253  0.064054441   0.10452899            1 
   32000    1.2311671   -2.6334399    25.148127  0.065489913   0.10457646            2 
   33000     1.267498   -2.6904287     26.58628   0.06713707   0.10478151            1 
   34000    1.2416333   -2.6249629    28.028522  0.068697357   0.10514039            1 
   35000     1.256481   -2.6477651    29.343841  0.069866288   0.10549325            3 
   36000    1.2427826   -2.6331293    30.867929  0.071453537   0.10589223            4 
   37000    1.2501173   -2.6277221    32.033817  0.072148236   0.10636811            1 
   38000    1.2167243   -2.6502637    33.409248  0.073265894   0.10669178            1 
   39000    1.2392554   -2.6324057    34.698641  0.074142395   0.10694495            1 
   40000    1.2646252   -2.6325044    36.075481   0.07515725   0.10711694            1 
   41000    1.2566144   -2.6333929    36.893538  0.074986866   0.10715213            1 
   42000    1.2432505   -2.6033222    38.230147  0.075853465   0.10711384            2 
   43000    1.2260574   -2.6542256    39.162001   0.07589535   0.10703506            1 
   44000    1.2844678   -2.6483111    40.607342  0.076907845    0.1069253            1 
   45000    1.2562627   -2.6592974    41.984863  0.077749746   0.10686306            1 
   46000    1.2261927   -2.6514274    43.045674  0.077981292   0.10679039            3 
   47000    1.2142166   -2.6607987     44.44549  0.078804059   0.10666464            1 
   48000    1.2629814   -2.6341645    45.644382  0.079243718   0.10653324            3 
   49000    1.2108773   -2.6275014      46.5572  0.079178911   0.10628688            2 
   50000    1.2528027   -2.6560478    47.442651  0.079071085   0.10604408            3 
   51000    1.2541966   -2.6503294     49.13097  0.080279362   0.10586615            1 
   52000    1.2226042   -2.6362187     49.96019  0.080064406   0.10573744            2 
   53000    1.2439796   -2.6469951     51.42127  0.080851052   0.10559346            2 
   54000     1.228092   -2.6786048    52.414829  0.080887081   0.10543768            2 
   55000    1.2339862   -2.6561311    53.886588  0.081646345   0.10529539            1 
   56000     1.253109    -2.653654    55.065185  0.081942239   0.10519873            2 
   57000    1.2360824   -2.6633181    56.791827  0.083028986   0.10511857            2 
   58000    1.2323848   -2.6239325    58.078812  0.083446569   0.10508638            2 
   59000    1.2618998   -2.6475163    59.104992  0.083481626    0.1050879            1 
   60000    1.2460901   -2.6402378    60.721308  0.084335149   0.10509529            1 
   61000      1.21034    -2.669678    61.802873  0.084430154   0.10512447            1 
   62000    1.2201018   -2.6403748    63.371796  0.085177144   0.10515157            1 
   63000    1.2399342   -2.6527718    64.274865  0.085019663   0.10512845            2 
   64000    1.2340365    -2.641637    65.585282  0.085397503   0.10511782            1 
   65000    1.2089282   -2.6537701    66.614639  0.085403383   0.10511724            2 
   66000    1.2044695   -2.6553791     67.52545  0.085259406   0.10509451            3 
   67000    1.2228182   -2.6437387    69.109113  0.085956607   0.10504555            1 
   68000    1.2403206   -2.6523157    70.104734  0.085912664   0.10498315            1 
   69000    1.2123247   -2.6479232     71.19742  0.085987221   0.10487729            1 
   70000    1.2181105   -2.6772448    72.285164  0.086053766   0.10478636            1 
   71000    1.2584534    -2.626237    73.538567  0.086312871   0.10467083            1 
   72000    1.2570412   -2.6250555    75.133489  0.086960056    0.1045851            1 
   73000    1.2090789   -2.6720559    76.062912  0.086829807   0.10451785            1 
   74000    1.2284989   -2.6733671    77.388283  0.087148966   0.10447483            1 
   75000    1.2098184   -2.6781522    77.906473  0.086562747   0.10440984            2 
   76000    1.2254938   -2.6773846    79.897207  0.087606586   0.10432539            1 
   77000    1.2428098   -2.6666387    80.662826   0.08729743   0.10422349            2 
   78000    1.2494351   -2.6718513    82.187118   0.08780675    0.1041246            1 
   79000    1.2115561   -2.6665909    82.769058  0.087309133   0.10403878            2 
   80000    1.2258511    -2.655828    84.054695  0.087556973   0.10393626            1 
   81000    1.2039658   -2.6407732    85.517695  0.087981167   0.10379197            1 
   82000    1.2120911   -2.6488838    86.002455  0.087400869   0.10366152            1 
   83000    1.2451388   -2.6581268    87.180245  0.087530366   0.10354015            1 
   84000     1.225914   -2.6374959    88.722239  0.088018094   0.10342369            4 
   85000      1.21981   -2.6507178    89.884202  0.088121766   0.10330092            2 
   86000    1.2060567   -2.6147999    91.025189  0.088202702    0.1032127            1 
   87000     1.182543   -2.6883745     92.66558  0.088760133   0.10313345            1 
   88000    1.1845914   -2.6846215    93.609952  0.088645787   0.10305103            1 
   89000    1.2295141   -2.6135347    95.009151  0.088959879   0.10297881            2 
   90000    1.2093547    -2.675142    96.164993  0.089041659   0.10289952            1 
   91000    1.2148801   -2.6622804     97.51259  0.089297243   0.10281663            1 
   92000    1.2303869   -2.6483327    98.513377  0.089233131   0.10275534            1 
   93000    1.2127018    -2.646012    99.737887  0.089370866   0.10267354            1 
   94000    1.2318029   -2.6713697    100.61364  0.089196486   0.10259827            6 
   95000    1.2304111   -2.6659769    102.97545  0.090329338   0.10254148            3 
   96000    1.2133628   -2.6825255     103.0866  0.089484899   0.10247364            2 
   97000    1.2563506   -2.6692736    104.16371  0.089487725   0.10241573            1 
   98000    1.2455884   -2.6528949    105.70846  0.089888143   0.10235145            2 
   99000    1.2348077   -2.6766585    106.98365  0.090053574   0.10230248            3 
  100000    1.2374541   -2.6807521    107.86576  0.089888136   0.10226012            1 
  101000    1.2263585   -2.6512529    109.51371  0.090357847    0.1022033            1 
  102000    1.2083591   -2.6617409    110.30644  0.090119643   0.10216894            2 
  103000    1.2285866   -2.6674826    112.05372   0.09065835   0.10213975            1 
  104000    1.2231518   -2.6594844    113.30238  0.090787162   0.10211348            1 
  105000    1.2135487   -2.6922004    113.91323  0.090407325   0.10205601            2 
  106000    1.2170706   -2.6651697    114.83971  0.090282788   0.10200902            2 
  107000    1.2019215   -2.6684509    115.87414   0.09024466    0.1019553            2 
  108000     1.209333   -2.6935865    117.34174  0.090541469   0.10190266            2 
  109000    1.2266265   -2.6657456    118.12182  0.090307198   0.10184109            2 
  110000    1.2176028   -2.6343681    119.94668  0.090868696   0.10180104            2 
  111000    1.2082688   -2.6560605    121.14751   0.09095158   0.10175585            1 
  112000    1.2181489   -2.6739571    122.79558  0.091365758   0.10172505            2 
  113000    1.2210942   -2.6225528     123.6362  0.091177141   0.10168462            2 
  114000    1.1803458   -2.6549807    124.11695  0.090728767   0.10163734            2 
  115000     1.213891   -2.6451491    125.81685   0.09117163   0.10158458            3 
  116000    1.2079719   -2.6596984    126.64922  0.090983635   0.10153151            1 
  117000    1.2165245   -2.6795267    128.06938  0.091217504   0.10149418            1 
  118000    1.2108608   -2.6774498    128.85641  0.091000287   0.10145011            1 
  119000    1.2169579   -2.6511732    131.24015  0.091904864   0.10140853            3 
  120000    1.1955772   -2.6944237    132.69328  0.092148108   0.10138922            1 
  121000    1.2219995   -2.6944155    133.38305  0.091861607   0.10138967            4 
  122000    1.2207773   -2.6728153    134.68446  0.091997579   0.10138901            1 
  123000    1.2049838   -2.6762732    136.76421  0.092658677   0.10138953            1 
  124000    1.2095293   -2.6710719    137.75846  0.092579612   0.10139309            1 
  125000    1.2301908   -2.6926013    138.98597  0.092657314   0.10139507            1 
  126000     1.216686   -2.6824466    139.75748  0.092432197   0.10139959            2 
  127000    1.2162923    -2.694388    140.98951  0.092512799   0.10139665            1 
  128000    1.2051109   -2.6804338    142.74344  0.092931925   0.10140859            2 
  129000    1.1909313   -2.6497428     143.4128  0.092643929   0.10141831            1 
  130000    1.2011618   -2.6580639    145.52933  0.093288029   0.10142198            1 
  131000    1.1851517   -2.6562029    145.65648  0.092656793    0.1014242            1 
  132000    1.2000446   -2.7025143     146.8336   0.09269798   0.10141322            1 
  133000    1.2013949   -2.7113307     148.1289  0.092812591   0.10141096            1 
  134000    1.2184886   -2.6764649    148.99813  0.092660527   0.10140255            2 
  135000      1.21443   -2.7134852    150.27296  0.092761085   0.10138657            2 
  136000    1.2022252   -2.6876562    151.23047  0.092665729   0.10137849            1 
  137000    1.2301103   -2.7078172    152.89219  0.093000114   0.10135473            7 
  138000    1.2422413   -2.6835538    154.25643  0.093150015   0.10133796            1 
  139000    1.2023427   -2.6917694     156.0546  0.093557915   0.10133358            2 
  140000    1.1733757   -2.6730701    156.58415  0.093204849     0.101326            1 
  141000    1.1815046    -2.694801    157.59652  0.093142153   0.10130282            4 
  142000    1.1861803   -2.7010398    158.56358  0.093053742   0.10127328            1 
  143000    1.1878493   -2.6695949    159.63548  0.093027669   0.10124622            1 
  144000    1.1940137   -2.7062468    160.63972  0.092962802   0.10122019            2 
  145000    1.1846669   -2.7005052    160.82282  0.092426905   0.10118026            2 
  146000    1.1991318   -2.6780131    162.39173  0.092689346   0.10114119            1 
  147000     1.181085   -2.6992304    162.90827  0.092351628   0.10109796            1 
  148000    1.1782687   -2.7035258    165.33406  0.093093502   0.10106259            1 
  149000    1.2080999   -2.6784255    164.70625  0.092117588   0.10102371            1 
  150000    1.1745736   -2.6729934    166.23343  0.092351907   0.10096977            3 
  151000    1.1880701   -2.7209221    168.34999  0.092908384   0.10092753            1 
  152000    1.1832389   -2.6998112    169.35327  0.092847187   0.10089022            1 
  153000    1.1966564   -2.6730597    170.36302  0.092790314   0.10085795            2 
  154000    1.1823909   -2.6860147    172.10826  0.093132178   0.10083307            1 
  155000    1.2235179   -2.7266924    173.09603  0.093062379   0.10080427            2 
  156000    1.1917165   -2.6753357    173.55467  0.092710828   0.10076384            2 
  157000    1.1727317   -2.7071329    175.66465  0.093240261   0.10072105            2 
  158000    1.2062308   -2.7112863    176.19864   0.09293177   0.10068624            3 
  159000    1.2091072   -2.6694883    177.30903  0.092929259   0.10064888            3 
  160000    1.1941575   -2.6825336    178.02611  0.092721929   0.10060155            2 
  161000    1.1955962   -2.7211682    178.97704  0.092638221    0.1005518            1 
  162000    1.2021852   -2.6990695    180.41653  0.092806855   0.10050832            3 
  163000    1.2132664   -2.6782949    181.54378  0.092813795   0.10046237            1 
  164000    1.1790258    -2.725256    181.52611  0.092238878   0.10041293            5 
  165000    1.2017123   -2.7285183     182.2867  0.092063989   0.10035292            1 
  166000    1.1998842   -2.7226177    185.08753  0.092915425   0.10029557            1 
  167000    1.1892004   -2.7398677    185.51506  0.092572386   0.10024654            2 
  168000    1.2075515   -2.6685735    187.89027  0.093199539   0.10019984            2 
  169000    1.1890348    -2.677434    188.90885   0.09315032    0.1001569            3 
  170000    1.1897643   -2.7046147    188.89163  0.092593938   0.10011234            2 
  171000    1.2049759   -2.6925539     191.0348  0.093096879   0.10006575            1 
  172000    1.1677706   -2.7102597    191.20424  0.092637715   0.10001711            1 
  173000    1.1799372   -2.6778397    193.23683  0.093081325  0.099965465            2 
  174000    1.1689933   -2.6970812    194.51861  0.093160255  0.099925588            2 
  175000    1.1734306   -2.7005365    196.25345  0.093454023  0.099888106            1 
  176000    1.1927808   -2.7063963    197.27675  0.093407553  0.099857936            2 
  177000    1.1884336   -2.6977492    198.03658   0.09323756  0.099824702            1 
  178000    1.1938298   -2.7204664    199.23152  0.093273183  0.099795936            2 
  179000     1.205821    -2.733261    200.07459  0.093144597  0.099759977            2 
  180000    1.1536721   -2.7216553    202.62156  0.093806278  0.099726099            3 
  181000      1.15389   -2.7135811    203.52468  0.093703812  0.099699935            2 
  182000     1.178561   -2.7157063    204.80653  0.093775885  0.099676719            1 
  183000    1.1672574   -2.7309517     204.9856  0.093344991  0.099650259            2 
  184000    1.1713579   -2.7011895    207.39202  0.093927545  0.099631043            2 
  185000    1.1774961   -2.7158397    207.86347  0.093632194  0.099612401            1 
  186000    1.1830221   -2.7107144    208.70652  0.093506505  0.099596022            2 
  187000    1.1844459   -2.6963545    210.67019  0.093881546  0.099579948            3 
  188000    1.1865494   -2.6596122    210.56541  0.093335731  0.099566346            4 
  189000    1.2009416   -2.6920896    212.83748  0.093843688   0.09955162            2 
  190000    1.2013974   -2.6924233    214.46354  0.094062956  0.099532976            1 
  191000    1.1829861   -2.7163716    214.83067   0.09373066  0.099521818            2 
  192000    1.2094854   -2.7598249    217.10329  0.094228857  0.099515805            1 
  193000    1.1952408    -2.730296    217.63385   0.09396971  0.099511289            2 
  194000    1.1595285   -2.7006508    219.52975  0.094299722  0.099509159            4 
  195000    1.1822084   -2.7285102    220.86532  0.094386887  0.099513271            1 
  196000    1.1852524    -2.748552    221.12021  0.094013692  0.099510064            1 
  197000     1.189242   -2.6946716    221.60878  0.093743138   0.09949853            1 
  198000    1.1959365   -2.7318879    223.32698  0.093992837  0.099488684            3 
  199000    1.1542559   -2.6916036    225.03902  0.094237445  0.099478082            2 
  200000     1.155623   -2.7125117    225.53223  0.093971761  0.099461164            2 
  201000    1.1830914   -2.6859274    225.71796  0.093581244  0.099431804            2 
  202000    1.1728722   -2.6853988    226.90794  0.093608887  0.099398537            1 
  203000    1.1832835   -2.7128663    226.07546  0.092806018   0.09936333            2 
  204000    1.1784941   -2.7137075    227.40417   0.09289386  0.099317746            1 
  205000     1.182241   -2.7394727    227.48371  0.092473052  0.099265879            1 
  206000    1.1986907   -2.7327864    230.59292  0.093281926  0.099216258            1 
  207000    1.1738079   -2.6922626       230.74  0.092890499  0.099174182            1 
  208000    1.1638889   -2.6963404    231.62786  0.092799622  0.099128048            3 
  209000    1.1670803    -2.720448    232.51692  0.092710094  0.099075548            2 
  210000    1.1454748   -2.7394739    234.34343  0.092993422  0.099024845            2 
  211000    1.1909589   -2.7105709    235.33748   0.09294529  0.098977523            1 
  212000     1.164127   -2.7187546     236.6943  0.093040211  0.098925237            2 
  213000    1.1626467   -2.7225337    237.07408  0.092751987  0.098876564            2 
  214000    1.1729499   -2.7526785    238.01565  0.092685222  0.098827825            1 
  215000    1.1453959   -2.7348921    238.93912  0.092612061  0.098778855            2 
  216000    1.1986502   -2.7287584    240.45127  0.092766692  0.098733706            1 
  217000    1.1433821   -2.7241374    241.61856  0.092787466  0.098692055            2 
  218000    1.1483117   -2.7271744    242.88319  0.092845257  0.098646395            2 
  219000    1.1536555   -2.7531155    243.21689  0.092548282  0.098602898            2 
  220000     1.165713   -2.7259384    244.63916  0.092666347  0.098553745            1 
  221000    1.1812768    -2.734899    245.34648  0.092513757  0.098506376            3 
  222000    1.1574523   -2.7132021    247.49218  0.092902468  0.098459932            1 
  223000     1.159239   -2.7177422    248.34557  0.092804773  0.098407513            1 
  224000    1.1542007   -2.7483089    249.47997   0.09281249  0.098360027            3 
  225000    1.1782194    -2.745538    250.53478  0.092790659  0.098315365            2 
  226000    1.1760163   -2.7198296    250.21806  0.092263297  0.098270267            1 
  227000    1.1372085   -2.7002186    252.93251  0.092853343  0.098224756            1 
  228000    1.1289406   -2.7585969    252.50128  0.092288481  0.098182028            2 
  229000      1.16634   -2.7056867    255.31831  0.092910593  0.098130246            2 
  230000    1.1637523   -2.7263374    255.49706  0.092571397  0.098082313            1 
  231000    1.1535267   -2.7320748    257.10626  0.092751176  0.098036241            2 
  232000    1.1819896   -2.7179025    258.42341  0.092824499  0.097992907            1 
  233000    1.1631077   -2.7296064    259.69257  0.092880031  0.097951961            1 
  234000    1.1623905    -2.710953    260.17096  0.092653477  0.097909751            2 
  235000    1.1387846   -2.7164882    261.63366  0.092777893  0.097872758            3 
  236000    1.1639442     -2.72089    262.55753  0.092710992  0.097839272            3 
  237000    1.1203672   -2.7345956    263.09033  0.092507148  0.097800544            1 
  238000    1.1676106   -2.7304268    264.43793   0.09259031  0.097760315            1 
  239000    1.1837536    -2.727651    265.28338   0.09249769  0.097717434            1 
  240000    1.1673879   -2.7419094    266.10092  0.092396151  0.097676861            1 
  241000    1.1541976   -2.7268412    267.53455  0.092508489   0.09763533            1 
  242000    1.1453239    -2.728381    268.36133  0.092410924  0.097590993            2 
  243000    1.1672803   -2.7371968    268.61477  0.092117548  0.097546625            1 
  244000    1.1210925   -2.7472679    268.99854  0.091871087  0.097498857            1 
  245000    1.1310009   -2.7214429     272.5405  0.092700852   0.09745783            1 
  246000    1.1662649    -2.712804    273.15348  0.092531666  0.097413766            3 
  247000    1.1428091   -2.7479545    273.18494  0.092167659  0.097367051            2 
  248000    1.1555388   -2.7204483    273.54773   0.09191792  0.097323119            1 
  249000    1.1417883   -2.7393157    275.53773   0.09221477  0.097277057            2 
  250000    1.1635301   -2.7029254    278.60873  0.092869575  0.097227639            1 
  251000    1.1472079   -2.7446795     277.7951  0.092229448  0.097178695            2 
  252000    1.1629024   -2.6950214    278.68501  0.092157741  0.097131504            2 
  253000    1.1378037   -2.7147078    280.59347  0.092422091  0.097087511            2 
  254000    1.1633266   -2.7351085    280.72408  0.092101076  0.097037342            1 
  255000    1.1456322   -2.7444091    281.54331  0.092007617  0.096990581            3 
  256000    1.1785158   -2.7469948     283.1731  0.092178744     0.096944            1 
  257000    1.1429913   -2.7372342    283.59718   0.09195758  0.096892391            5 
  258000    1.1730402   -2.7454651    286.18928  0.092438397  0.096845596            1 
  259000    1.1548277   -2.7396935    287.00493  0.092343927  0.096801858            2 
  260000    1.1566333   -2.7232143    286.87476  0.091947037  0.096755803            2 
  261000    1.1805656    -2.745781    288.36416  0.092070292  0.096706341            1 
  262000    1.1508975   -2.7393065    289.26409  0.092005118  0.096660981            1 
  263000    1.1111773    -2.717644    291.28826  0.092296659  0.096617258            1 
  264000    1.1741213   -2.7226418    291.36017  0.091969751  0.096573616            4 
  265000    1.1722195   -2.7123103    293.01275  0.092142375  0.096530606            1 
  266000    1.1549707   -2.7327096    292.88463  0.091755838  0.096487315            2 
  267000    1.1409848   -2.7354406    293.60221  0.091636147  0.096441329            2 
  268000    1.1385316    -2.733943    294.53162  0.091583216  0.096396702            1 
  269000    1.1433582   -2.7351517     295.7864  0.091631473  0.096353156            2 
  270000    1.1952993   -2.7471169    296.69695  0.091573133  0.096310535            2 
  271000    1.1532685   -2.7430235     299.6519  0.092143882   0.09626976            2 
  272000    1.1518038   -2.7528946    298.82889   0.09155297   0.09622764       -1e+20 
  273000    1.1637995   -2.7694829    299.80575  0.091515798  0.096184142            2 
  274000    1.1430729   -2.7428729    301.82862  0.091797027    0.0961459            1 
  275000     1.118918    -2.762723     303.6281  0.092008516  0.096107239            1 
  276000    1.1515733   -2.7354669    305.31851   0.09218554  0.096069262            2 
  277000    1.1565672   -2.7726984    306.25229  0.092133661  0.096035168            2 
  278000    1.1347266   -2.7281991    307.07941  0.092050184   0.09600317            2 
  279000    1.1362194   -2.7526259    308.80046  0.092234307  0.095969113            2 
  280000    1.1478901   -2.7368486    308.95137  0.091949814  0.095938064            2 
  281000    1.1249366    -2.763764    309.44041  0.091767619  0.095902994            3 
  282000    1.1328318   -2.7711686    310.48706  0.091751495  0.095866795            3 
  283000     1.140739   -2.7250631     311.6906  0.091781685  0.095832628            1 
  284000    1.1636474    -2.729704     313.4651  0.091979195  0.095803159            2 
  285000    1.1377351   -2.7401337    314.25972  0.091888808  0.095770343            3 
  286000    1.1413643   -2.7665687    316.17262   0.09212489  0.095742595            1 
  287000    1.1312797   -2.7697574    316.63987  0.091939567  0.095715836            1 
  288000    1.1523046   -2.7276578    318.78354  0.092240608  0.095690787            1 
  289000    1.1404604   -2.7499487    317.56341  0.091569611  0.095663931            1 
  290000    1.1415058   -2.7814626    320.70793  0.092157451  0.095634478            2 
  291000    1.1465782   -2.7416252    320.24307  0.091707636  0.095604875            2 
  292000    1.1399876   -2.7398875    322.75044  0.092109143  0.095574917            6 
  293000    1.1223862   -2.7515148      322.451  0.091709613  0.095542281            2 
  294000    1.1256951   -2.7561772    324.39148  0.091947698  0.095506981            1 
  295000    1.1438254   -2.7611632    323.60879  0.091414912  0.095470613            1 
  296000    1.1118941   -2.7079017    326.03875   0.09179019  0.095436738            2 
  297000    1.1300283   -2.7308909    326.51918  0.091615931  0.095403685            1 
  298000    1.1539298   -2.7648898    327.44028  0.091566072  0.095371838            2 
  299000     1.116956   -2.7623467     328.2115  0.091474777  0.095336848            3 
  300000     1.145464   -2.7229125    330.15904  0.091710844  0.095300797            1 
  301000    1.1469585   -2.7836027    331.07741  0.091660412  0.095263293            1 
  302000    1.1453782   -2.7542203    331.66763  0.091519766  0.095224063            2 
  303000    1.1319849   -2.7592809    333.20041  0.091639276  0.095186313            2 
  304000    1.1455945   -2.7543449    333.94954  0.091543186  0.095150262            1 
  305000    1.1400029    -2.764767    334.78831  0.091472216  0.095113242            2 
  306000    1.1317306    -2.772061    335.29954   0.09131251  0.095075466            4 
  307000    1.1289923   -2.7709511    335.84102  0.091162057  0.095035037            1 
  308000     1.103982    -2.770156    336.73614  0.091108262  0.094993771            1 
  309000    1.1250868   -2.7855304     335.9019  0.090588432  0.094950725            2 
  310000    1.1259899   -2.7248321    342.17114  0.091981488   0.09490949            1 
  311000    1.1347729   -2.7358391    340.32685  0.091191547   0.09487163            2 
  312000    1.1469737   -2.7598015    341.15927  0.091121599  0.094832261            2 
  313000    1.1057067   -2.7646096    341.19387  0.090839688  0.094788079            2 
  314000    1.1271031   -2.7627754    343.32202  0.091115186  0.094744342            3 
  315000    1.1275402   -2.7721091    343.19807   0.09079314  0.094701275            2 
  316000    1.1117424    -2.742255    345.33986  0.091070638  0.094653996            4 
  317000    1.1347019   -2.7536398     344.8291   0.09064908  0.094609269            3 
  318000    1.1129893   -2.7655848    345.25464  0.090475534  0.094562131            2 
  319000    1.0850455   -2.7469657    348.06529  0.090926146  0.094515572            3 
  320000    1.1352631   -2.7557699    345.75137   0.09003942  0.094466379            1 
  321000    1.1135757   -2.7588063    347.35215  0.090174493  0.094416762            2 
  322000    1.1156763   -2.7399087    351.00892  0.090840817  0.094370806            1 
  323000     1.152389   -2.7896147    349.09703  0.090066312  0.094325234            1 
  324000    1.1061911   -2.7669186    351.34583  0.090366725  0.094279627            2 
  325000     1.141836   -2.7551934    353.25135  0.090577268  0.094233558            4 
  326000    1.1259912   -2.7736022    353.24598  0.090298053  0.094184051            4 
  327000    1.1056659   -2.7316281    354.02155   0.09021956  0.094131836            4 
  328000    1.1181084    -2.744626    355.25464  0.090257783  0.094084982            2 
  329000    1.1293451   -2.7474155    358.23461  0.090738249  0.094042728            1 
  330000    1.1224686    -2.758648    357.25856  0.090216807  0.093997363            2 
  331000    1.1242141   -2.7735485    357.48961   0.09000242  0.093953342            4 
  332000    1.1320511   -2.7686771     358.5227  0.089990638  0.093911739            3 
  333000    1.1496784    -2.777061    360.70151  0.090265643  0.093868453            3 
  334000    1.1281261   -2.7841259    362.44729  0.090430961  0.093824695            1 
  335000    1.1050506   -2.7716792    361.80515  0.090001281  0.093782358            2 
  336000    1.1371007   -2.7676314    362.62663  0.089937159   0.09373904            6 
  337000    1.1328062   -2.7980526    363.83887  0.089970047  0.093693344            1 
  338000     1.117099   -2.7887173    364.27428  0.089811212  0.093646639            2 
  339000    1.1362812   -2.7895744    365.14317  0.089759876  0.093599162            1 
  340000    1.1087628   -2.7592374     368.1842  0.090241225  0.093549691            1 
  341000    1.0954479   -2.7917131     367.3325   0.08976845  0.093502404            2 
  342000    1.1123326   -2.8031698    367.39499  0.089521195  0.093454586            3 
  343000    1.0971307   -2.7750725    369.16425  0.089690051  0.093407128            4 
  344000    1.1309553   -2.7932721     370.5066  0.089754505  0.093356267            1 
  345000    1.1103666   -2.7945723    370.84152  0.089575246  0.093305263            3 
  346000    1.1263911   -2.7724747    372.28896   0.08966497  0.093257273            1 
  347000    1.1269006   -2.7684118    373.54485  0.089708178   0.09320874            2 
  348000    1.1054231   -2.7809439    373.12366  0.089349535  0.093159133            2 
  349000    1.1138409   -2.7659428    373.29097  0.089133469  0.093112039            3 
  350000    1.0967745   -2.8008846    375.48645  0.089401535  0.093064709            2 
  351000    1.1185563   -2.7903491    376.38414  0.089359958  0.093017412            3 
  352000    1.1288055   -2.7858784    376.80688  0.089206174  0.092971388            2 
  353000    1.0998085   -2.7909391    376.25324  0.088822768  0.092925274            2 
  354000    1.0904844    -2.801072    379.47133  0.089329409  0.092878841            2 
  355000    1.0862908   -2.7782096    380.68166  0.089361893  0.092835032            1 
  356000    1.1148087   -2.8081257    381.34982   0.08926728   0.09279142            1 
  357000    1.1224167   -2.7928362    384.01305    0.0896389  0.092746078            1 
  358000     1.107834   -2.7905447    383.20216  0.089199758  0.092702621            5 
  359000    1.1528266   -2.7891301    385.22336  0.089420463  0.092661614            1 
  360000    1.1107914   -2.7689705    385.56899  0.089252081  0.092617638            5 
  361000    1.1106421   -2.7531391    386.77458  0.089283143  0.092572994            1 
  362000    1.1093291   -2.7767736    387.15401  0.089123852  0.092527989            2 
  363000    1.1104486   -2.8012545    386.76747  0.088789593  0.092479718            1 
  364000    1.1077347   -2.8071412    388.83699  0.089019456  0.092430017            2 
  365000    1.0900559   -2.7845022    389.07959  0.088830956  0.092381643            2 
  366000    1.1037274   -2.7805587    390.06814  0.088813328   0.09233036            1 
  367000     1.072005   -2.7949927    392.45381  0.089113036  0.092280191            1 
  368000    1.1110579   -2.7708868    391.57251  0.088671311  0.092230879            1 
  369000    1.0853846    -2.785026    392.00849   0.08852947  0.092181914            4 
  370000    1.1018967     -2.79396    392.96754  0.088506202  0.092134644            2 
  371000    1.0959649   -2.7767757    395.70685  0.088882939   0.09208673            1 
  372000    1.1141356   -2.7727842    396.85579  0.088901387   0.09204023            2 
  373000    1.0922909   -2.7900767    396.81457  0.088653835  0.091995096            3 
  374000    1.1069551   -2.8083888    398.07784  0.088698271  0.091952504            2 
  375000    1.1055015   -2.7469432    401.07216  0.089127147  0.091910523            2 
  376000    1.1073977   -2.7753746     399.4735  0.088535793  0.091868647            1 
  377000    1.0642048   -2.7983354    401.36742  0.088719589  0.091827102            1 
  378000    1.1036998   -2.7870376    403.32945  0.088917428  0.091784955            2 
  379000    1.0952318    -2.770913    405.03566  0.089057973  0.091746268            3 
  380000    1.1021615   -2.7712015    405.54394  0.088935075  0.091707345            2 
  381000    1.0692128   -2.8317428     406.1002  0.088823316  0.091666994            7 
  382000     1.109234   -2.7804428    408.71293  0.089160761  0.091625595            2 
  383000    1.1105137   -2.8122367    407.96331  0.088764862   0.09158533            2 
  384000    1.0909542   -2.8282414    408.54961  0.088660939  0.091543294            2 
  385000    1.0871354   -2.7740614    407.96929   0.08830504  0.091501689            2 
  386000    1.0825166   -2.7896511    409.87471  0.088487632  0.091460078            2 
  387000    1.0952201   -2.7830588    412.44554  0.088812563  0.091416323            3 
  388000    1.0892202   -2.7721145    411.97734  0.088483106  0.091373398            1 
  389000    1.0947572   -2.7878553     411.5879  0.088172215  0.091331535            2 
  390000    1.0970595   -2.7983001    414.01408  0.088464546  0.091288887            2 
  391000    1.1141574   -2.7862165    414.52632  0.088347468  0.091246246            1 
  392000    1.1037579    -2.777352    414.89514  0.088200498  0.091203109            2 
  393000     1.093786   -2.8087388    416.66492  0.088351339  0.091159806            2 
  394000    1.0997773   -2.8134695    416.50055  0.088092332  0.091117655            4 
  395000    1.0932341   -2.7967037     416.9161  0.087956983  0.091073205            2 
  396000    1.1136489   -2.8204502    416.31458  0.087608287  0.091029188            1 
  397000    1.0901833   -2.7925743     418.3543  0.087815764  0.090983973            1 
  398000    1.1411651   -2.7755622    420.99846  0.088148757  0.090937799            2 
  399000    1.0794778   -2.7942168    419.42562  0.087599336  0.090893315            2 
  400000     1.088244   -2.7808847    422.19778  0.087957871  0.090846008            2 
  401000     1.061559   -2.8015469    422.61875  0.087826009  0.090800354            1 
  402000    1.0815431   -2.7870516    424.47375   0.08799207  0.090752737            1 
  403000    1.1074651   -2.7950951     423.9968  0.087675104  0.090709245            3 
  404000    1.0593335   -2.8043299    425.69233  0.087807824  0.090664985            2 
  405000    1.1049832   -2.7985163    424.85124   0.08741795  0.090618895            5 
  406000    1.0883111   -2.7937401    427.64865  0.087776816  0.090570545            2 
  407000    1.1063386   -2.7875167    427.88876   0.08761031  0.090524166            3 
  408000    1.0996472    -2.805789     427.8289  0.087383353  0.090479043            2 
  409000    1.1056482   -2.8163302    431.49245  0.087916146  0.090432465            3 
  410000    1.0891183   -2.8022502    431.66964  0.087737731  0.090386721            2 
  411000    1.1025644   -2.8191733    431.88775  0.087568481   0.09034383            3 
  412000    1.0870531   -2.8155271    432.05746  0.087390263  0.090302122            1 
  413000    1.0849341   -2.7866903    435.55529  0.087884441  0.090260732            1 
  414000     1.091775   -2.7910261    435.56093  0.087673294  0.090220202            1 
  415000    1.1080017   -2.8226508    436.37769  0.087626042  0.090179548            2 
  416000    1.0731975   -2.8165158    437.09719  0.087559533  0.090140175            3 
  417000    1.1021936   -2.8229662    439.52409  0.087834549  0.090101027            2 
  418000    1.0979927   -2.8176695    437.95372  0.087311347  0.090062708            1 
  419000    1.0598672   -2.7890198    441.26072  0.087760684  0.090024987            2 
  420000    1.0592736   -2.8072252    441.23282  0.087546195  0.089986871            3 
  421000    1.0949349   -2.8314787    443.28283  0.087744027  0.089948544            2 
  422000    1.0894644   -2.8173039    444.86867  0.087849263  0.089911243            2 
  423000    1.0985221   -2.8267284    442.84464  0.087242836  0.089873145            2 
  424000    1.0981986   -2.8085664     445.1815  0.087496364  0.089837061            1 
  425000      1.08143   -2.8278227    447.47944  0.087741067  0.089800574            3 
  426000    1.0969298   -2.8381596    446.74735  0.087391891  0.089762772            1 
  427000    1.0945217   -2.8053723    448.49504  0.087528305  0.089725035            1 
  428000    1.0824036   -2.8017678    449.82044  0.087581861  0.089689993            1 
  429000    1.0512273   -2.8167875    450.16434   0.08744451  0.089653336            1 
  430000    1.0558236    -2.802576    451.72471  0.087543548    0.0896183            3 
  431000    1.0914361   -2.8270273    451.97697  0.087389206  0.089582271            1 
  432000    1.0713219   -2.8372703    451.26484  0.087049545  0.089547812            2 
  433000    1.1047973   -2.8242964    452.71306  0.087127224  0.089509109            3 
  434000    1.0545506   -2.8065765    454.13982  0.087200427  0.089472388            2 
  435000    1.0769626   -2.7854459    455.65811  0.087290826  0.089432656            1 
  436000    1.0581644   -2.8014543    455.25018  0.087012649  0.089395196            1 
  437000    1.0764217   -2.8171464    457.79648  0.087299101  0.089356973            2 
  438000    1.0885492   -2.8402618    457.45489  0.087034797  0.089317091            2 
  439000     1.084234   -2.8328303      455.194  0.086407365   0.08927699            3 
  440000     1.065669   -2.8044743    460.45697   0.08720776  0.089236608            2 
  441000    1.0933562   -2.8137829    458.84331  0.086705085  0.089195048            2 
  442000    1.0870797    -2.837885    461.71024  0.087049443  0.089156083            2 
  443000    1.0653136   -2.8325421    460.02165  0.086535299  0.089115747            1 
  444000    1.0909271    -2.815736    462.47571  0.086800997  0.089078025            2 
  445000    1.0870857   -2.8276969    463.82368  0.086858366  0.089038343            2 
  446000    1.0758423    -2.796602    464.15343  0.086725229  0.089000363            2 
  447000    1.1041642   -2.8489708     464.3504  0.086567934  0.088958682            4 
  448000     1.081392    -2.807391    464.72299  0.086444008  0.088918306            3 
  449000    1.0785746   -2.8205971    465.34569  0.086367054  0.088877345            1 
  450000    1.0965087   -2.8104273    467.57795  0.086588508  0.088836585            2 
  451000    1.1009823   -2.8252329    467.73948  0.086426363  0.088794717            2 
  452000    1.0788411   -2.8356645    468.79786  0.086430285  0.088754477            2 
  453000    1.0704269   -2.8116913      469.782  0.086420529   0.08871289            2 
  454000    1.0860753   -2.8120439    468.96002  0.086079299  0.088671521            3 
  455000    1.0574589   -2.8284764    470.35611  0.086145808  0.088628496            2 
  456000    1.0686998   -2.8318169    471.73969  0.086209738  0.088586046            2 
  457000    1.0735275   -2.8323204      471.101  0.085904632  0.088543834            2 
  458000    1.0727656   -2.8232701    473.82515  0.086212727  0.088501233            3 
  459000    1.0992022   -2.8399941    475.13336   0.08626241  0.088461556            2 
  460000    1.0697163   -2.8087244    475.08124  0.086065442  0.088420366            1 
  461000      1.07864   -2.8482101    475.99848  0.086044555  0.088378093            2 
  462000    1.0634663   -2.8460532    478.43579  0.086297941  0.088335812            1 
  463000    1.0638926   -2.8322783    476.56212   0.08577432  0.088293376            1 
  464000    1.0647669   -2.8149076    479.65038  0.086144105  0.088250521            1 
  465000    1.0408488   -2.8354811     478.6327  0.085776469  0.088207756            1 
  466000    1.0760107   -2.8172537    479.88731  0.085816758  0.088164587            2 
  467000    1.0719687   -2.8540114    480.15812  0.085681321  0.088122441            3 
  468000    1.0722506   -2.8410847    480.21829  0.085508955  0.088078652            1 
  469000    1.0711529   -2.8180233    483.34188  0.085881642  0.088035913            1 
  470000    1.0633568   -2.8302181    482.91699  0.085623581  0.087993011            2 
  471000    1.0627876   -2.8361989    482.41001  0.085352089  0.087951049            4 
  472000    1.0526397    -2.850897    484.09816  0.085469308  0.087909071            2 
  473000    1.0844295   -2.8405356    486.02686  0.085628411  0.087867534            1 
  474000    1.0553528    -2.862646    485.13178  0.085290397  0.087825895            2 
  475000       1.0619   -2.8314116    487.72453  0.085565707  0.087782853            1 
  476000    1.0844181   -2.8473333    485.92477  0.085070863  0.087738235            2 
  477000     1.042709   -2.8359127     489.3311  0.085487614  0.087696508            3 
  478000    1.0639047   -2.8344831    490.90013   0.08558231  0.087656623            2 
  479000     1.075328   -2.8745134    489.23722   0.08511434  0.087615578            3 
  480000    1.0537696    -2.837415     490.1933  0.085103003  0.087571707            4 
  481000    1.0449214    -2.855791    491.52742   0.08515721  0.087530047            2 
  482000    1.0586764   -2.8413349    493.67397  0.085351655   0.08748884            2 
  483000    1.0716764   -2.8537141    494.70661  0.085353107  0.087449212            3 
  484000    1.0543647   -2.8330224    494.68317  0.085172723  0.087408794            1 
  485000    1.0752494   -2.8265352     496.0866  0.085238248  0.087367588            3 
  486000    1.0573091   -2.8705263    495.15031  0.084902316  0.087327792            3 
  487000    1.0804358    -2.829909    497.54618  0.085137949  0.087285836            2 
  488000    1.0866324   -2.8626773     497.3491  0.084929832  0.087244301            2 
  489000    1.0630967   -2.8663331    498.47387  0.084947831  0.087202352            1 
  490000    1.0692614   -2.8407655    499.92595   0.08502142  0.087161699            2 
  491000    1.0707929    -2.861254    501.27741  0.085077632  0.087119681            2 
  492000    1.0320498   -2.8685487    499.70673  0.084638673  0.087078666            1 
  493000    1.0654875   -2.8451237    503.37991  0.085087882  0.087037802            1 
  494000    1.0721904   -2.8518514    502.57796  0.084780358  0.086994006            3 
  495000    1.0242626   -2.8533307    502.74152  0.084636619  0.086951879            1 
  496000     1.076763   -2.8228707    503.12311  0.084530092  0.086907822            2 
  497000    1.0508873   -2.8314576    504.15457  0.084532959  0.086865957            2 
  498000    1.0460667   -2.8491491    505.62193  0.084608757   0.08682225            2 
  499000    1.0436036   -2.8324067    506.14881  0.084527189  0.086776608            2 
  500000    1.0712931   -2.8805193    505.39354  0.084232257  0.086731498            2 
  501000    1.0326229   -2.8445104    505.92219  0.084152061  0.086685992            4 
  502000    1.0636424   -2.8695809    505.95573  0.083989995   0.08664021            3 
  503000    1.0334765   -2.8557406    509.57743  0.084423033  0.086594983            4 
  504000     1.054309     -2.87336    509.10066  0.084176696   0.08655141            1 
  505000    1.0469469   -2.8348054    511.47948  0.084402555  0.086505988            1 
  506000    1.0533453   -2.8564023    509.84692  0.083966885  0.086462052            1 
  507000    1.0830613   -2.8295212    512.12023  0.084174923  0.086418338            3 
  508000    1.0510025   -2.9175271    510.43632  0.083732992  0.086371488            3 
  509000    1.0588716   -2.8573463    512.42055  0.083893344  0.086326182            3 
  510000    1.0427623   -2.8424327    513.93224  0.083975857  0.086281999            4 
  511000    1.0531174   -2.8600553    515.97951  0.084145386    0.0862382            3 
  512000    1.0598875   -2.8556876    514.94435  0.083812557   0.08619314            2 
  513000    1.0298635   -2.8630269    514.66568  0.083603912  0.086149303            1 
  514000    1.0462219   -2.8615639    516.82575  0.083791464  0.086104759            2 
  515000    1.0280004   -2.8384189    516.33659  0.083549611  0.086061541            2 
  516000      1.05091   -2.8650852    518.31467   0.08370715  0.086018393            1 
  517000     1.049405    -2.870849    520.19182  0.083847811  0.085974619            1 
  518000    1.0518491   -2.8375252    521.43288  0.083885599  0.085929906            2 
  519000    1.0503369   -2.8454739    522.01486  0.083817414  0.085886632            4 
  520000    1.0582444   -2.8621794    520.52767  0.083417896  0.085842206            2 
  521000    1.0402912   -2.8430429    520.14099  0.083195936  0.085796865            2 
  522000    1.0293054   -2.8652655    523.94274  0.083643477  0.085752075            3 
  523000    1.0517176   -2.8668406    524.22305  0.083528211  0.085707197            2 
  524000    1.0822981   -2.9025962    523.54372  0.083260769  0.085663759            2 
  525000    1.0427852   -2.8699797     526.5939  0.083586333  0.085619216            5 
  526000    1.0287334   -2.8260378    529.05046  0.083816613  0.085576542            2 
  527000    1.0570011   -2.8445954    528.58934  0.083584651  0.085532657            1 
  528000    1.0312394   -2.8926612    527.37019  0.083233932  0.085489715            2 
  529000     1.005446   -2.8732366    528.32249  0.083226605  0.085446942            2 
  530000    1.0648919   -2.8570622    530.17331  0.083360584  0.085402252            3 
  531000    1.0279439   -2.8714301    528.54817  0.082948552  0.085358543            2 
  532000    1.0538363   -2.8885351    529.41223  0.082927982   0.08531276            2 
  533000    1.0358787   -2.8788897    529.98069  0.082861271  0.085269588            1 
  534000    1.0363354    -2.850465    529.60754  0.082647868  0.085225416            3 
  535000    1.0284371   -2.8809181    534.06302  0.083187387   0.08518009            2 
  536000    1.0195654   -2.8606644    534.15251    0.0830461  0.085136067            3 
  537000    1.0394665   -2.8513525    534.22856  0.082903252  0.085091919            1 
  538000    1.0447154   -2.8731764    535.36044  0.082924479  0.085046935            2 
  539000    1.0459018   -2.8640094    533.96673  0.082555152  0.085003155            2 
  540000    1.0545901   -2.8619565    537.20427  0.082901893  0.084959058            3 
  541000    1.0460583    -2.864442    537.90908  0.082857222  0.084914105            6 
  542000    1.0544093   -2.8695998    538.08123  0.082730816  0.084869086            2 
  543000    1.0251548   -2.8702254    539.63386  0.082816737  0.084823657            2 
  544000    1.0426856   -2.8721055    540.01661  0.082723132  0.084778833            1 
  545000    1.0237504    -2.880992    538.91238  0.082402504  0.084733662            3 
  546000    1.0269376   -2.8731854    541.19667  0.082600225  0.084689185            2 
  547000    1.0652587   -2.8774204    544.26247  0.082916281  0.084645003            3 
  548000    1.0427918   -2.8686868    542.64703  0.082519318  0.084601557            2 
  549000    1.0388433   -2.9064503    544.08622  0.082587465  0.084557765            2 
  550000     1.034618   -2.8684487    543.78056  0.082390994  0.084512313            2 
  551000    1.0250434   -2.9029261    545.62014  0.082519683   0.08446843            3 
  552000    1.0355037   -2.8935804    547.00747   0.08257963   0.08442477            2 
  553000    1.0389367   -2.8834193    545.30992  0.082174491  0.084381794            2 
  554000    1.0268602   -2.8632167    549.80361  0.082702107  0.084338841            2 
  555000    1.0354579   -2.8784944    549.72774  0.082541702  0.084294945            3 
  556000    1.0550801     -2.87344    551.42793  0.082648071  0.084253798            1 
  557000    1.0394118   -2.9054899    550.11837  0.082303766  0.084212251            4 
  558000    1.0529096   -2.8880247    550.64658  0.082235152  0.084170587            1 
  559000    1.0452949   -2.9137255    550.22091  0.082024584   0.08412882            1 
  560000    1.0561632   -2.8579131    551.84059  0.082119135  0.084086312            5 
  561000    1.0310773   -2.8976214    553.05915  0.082153765  0.084044922            1 
  562000     1.037996   -2.8733873    555.63361  0.082389325  0.084002866            3 
  563000    1.0598252   -2.8911621    555.13495  0.082169176  0.083960996            1 
  564000    1.0246216   -2.8719432    557.65142  0.082395305  0.083920006            3 
  565000    1.0223066   -2.8780578    557.85478  0.082279466  0.083879783            3 
  566000    1.0010894   -2.8728848    557.83449  0.082131108  0.083839539            3 
  567000    1.0102424   -2.8662553    556.51117  0.081791765  0.083797219            3 
  568000    1.0314424   -2.8599144    559.01834  0.082015602   0.08375535            3 
  569000    1.0362137   -2.8785791    557.55634  0.081657344  0.083712267            2 
  570000     1.027798   -2.9124749    559.48056  0.081795404   0.08366798            2 
  571000    1.0573728   -2.8682567     560.6764  0.081826678  0.083624808            4 
  572000    1.0338286    -2.906695    559.55718  0.081520569  0.083581624            2 
  573000    1.0337487   -2.8584952    564.95604  0.082163472  0.083539043            2 
  574000    1.0203297   -2.8945926    560.82796  0.081421016  0.083497056            2 
  575000    1.0318369   -2.8795987     563.3269   0.08164158  0.083454531            2 
  576000    1.0163093   -2.9072833    564.18174  0.081623515  0.083411886            2 
  577000    1.0320175   -2.9045957    563.48094  0.081380841  0.083368162            3 
  578000    1.0288804   -2.8836066    567.35877   0.08179913  0.083327294            1 
  579000      1.00727   -2.8686987     569.2875  0.081935448  0.083286167            2 
  580000    1.0150007   -2.8934188    566.31947   0.08136774  0.083246228            3 
  581000    1.0147463   -2.9162755    567.58772  0.081409598  0.083204535            4 
  582000    1.0270232   -2.8726201    569.87704  0.081597515  0.083163776            3 
  583000    1.0200667   -2.8774702    570.60498  0.081561604   0.08312283            2 
  584000    1.0178719   -2.8814278    570.73513  0.081440516  0.083082809            2 
  585000    1.0371305   -2.8787997    571.98323  0.081479093  0.083042643            1 
  586000    1.0077007   -2.8704092    572.97928  0.081481695  0.083002981            9 
  587000     1.046527   -2.8980858    574.90133  0.081615748  0.082963035            1 
  588000   0.99776968   -2.8943132    573.97977  0.081346339  0.082922281            3 
  589000    1.0041113   -2.8862561    575.88811  0.081478227  0.082881765            2 
  590000    1.0200832   -2.9073537    576.21257  0.081385956   0.08284013            2 
  591000    1.0166023   -2.9079565    572.07727  0.080665153  0.082798293            3 
  592000     1.020702   -2.8907909    576.10522  0.081095892  0.082757897            1 
  593000    1.0099853   -2.8974478    577.59236  0.081168122  0.082717738            3 
  594000    1.0091945   -2.8927656    576.03024  0.080812323  0.082676744            1 
  595000    1.0163162   -2.9104963    580.27982  0.081271683  0.082637568            3 
  596000    1.0253537    -2.897728    579.96611  0.081091459  0.082598107            2 
  597000    1.0158615   -2.9096018    582.04976  0.081246476  0.082558472            2 
  598000    1.0388377   -2.9275392    578.22679   0.08057787   0.08251871            3 
  599000      1.00841   -2.8930786    583.50014  0.081176981  0.082478943            3 
  600000    1.0116188   -2.9089501    582.57806  0.080913619  0.082439275            1 
  601000     1.014786   -2.8854465    583.53851  0.080912162  0.082398584            1 
  602000   0.99493378   -2.9121735     582.4704  0.080629901  0.082358916            3 
  603000    1.0193325   -2.9102756    584.28635  0.080747146  0.082319623            4 
  604000    1.0123083   -2.9174586    585.26196  0.080748063  0.082279656            2 
  605000    1.0071248    -2.915755    585.15139  0.080599365  0.082238683            2 
  606000    1.0008299   -2.8929532    587.98371  0.080855846  0.082199001            4 
  607000    1.0046537   -2.9217144    587.91956  0.080713833  0.082158574            6 
  608000    0.9842865   -2.9036265    589.05444  0.080736629  0.082118124            1 
  609000    1.0109013    -2.921489    587.99352  0.080458884  0.082077293            2 
  610000    1.0109335   -2.8719065    592.08004  0.080885251  0.082038199            1 
  611000    1.0119726   -2.9156912      590.537  0.080542417  0.081999721            1 
  612000    1.0061134   -2.8955797    592.61863  0.080694258  0.081960389            2 
  613000    1.0062607   -2.9036926    591.69044  0.080436438  0.081920891            4 
  614000   0.99857718   -2.9078762    593.16492  0.080505553  0.081882685            3 
  615000    1.0066008   -2.8921195    596.51312  0.080828336  0.081845146            1 
  616000    1.0237735   -2.9233412    593.06748   0.08023099  0.081806167            1 
  617000   0.99821806   -2.9124832    594.36991  0.080276865  0.081766288            3 
  618000    1.0137901    -2.908604    596.40307  0.080421126   0.08172752            3 
  619000    1.0299183   -2.8979754    599.58569  0.080719668  0.081689115            2 
  620000   0.98232274   -2.9398784    596.26955  0.080143756   0.08164998            2 
  621000   0.97808238   -2.9250014    595.29527   0.07988396  0.081609771            1 
  622000    1.0104087   -2.9077224    600.30104  0.080426185  0.081569641            2 
  623000   0.99917489   -2.9035129    599.68374  0.080214519  0.081530801            1 
  624000    1.0175532   -2.8817558    600.56316  0.080203413   0.08149162            4 
  625000    1.0098018   -2.9149049     601.4983  0.080199773  0.081452645            4 
  626000    1.0256254   -2.8963371    600.15205  0.079892445  0.081413609            2 
  627000    1.0218645   -2.8932002    601.70016  0.079970782  0.081374628            2 
  628000   0.99165086    -2.905559    604.87608  0.080264872  0.081336455            4 
  629000   0.99578736   -2.9106864    605.54993  0.080226541  0.081298022            3 
  630000    1.0203439   -2.9159372    605.13763   0.08004466  0.081259204            3 
  631000    1.0163805   -2.8890454    606.83768  0.080142324  0.081220408            5 
  632000   0.98840592   -2.9007649    606.04161   0.07991055  0.081181906            2 
  633000    1.0094805   -2.9206194    609.14844  0.080193318  0.081143217            8 
  634000    1.0009487   -2.9138401     606.0916  0.079665036  0.081105149            4 
  635000    1.0006212   -2.9136052    608.49785  0.079855361   0.08106601            6 
  636000    1.0175912   -2.8948801     607.8917   0.07965038  0.081027016            3 
  637000   0.98340306   -2.9164041    609.72749  0.079765502  0.080986314            2 
  638000   0.97860421   -2.9031706    612.13905  0.079955466  0.080947455            4 
  639000   0.98187251   -2.8909382    613.95238   0.08006682  0.080908107            1 
  640000   0.99202276   -2.9249446    611.54638  0.079628435  0.080868268            1 
  641000    1.0159576   -2.9192765    610.74742   0.07940034  0.080829205            2 
  642000    1.0227476   -2.9187092    612.14091  0.079457542  0.080790158            2 
  643000   0.98368442   -2.9045906    613.28806  0.079482642  0.080751012            1 
  644000     1.004646   -2.8998432    615.84802  0.079690479  0.080713157            2 
  645000   0.98539606    -2.929264    613.46905  0.079259568  0.080675474            1 
  646000   0.99393043   -2.9199706    615.98331  0.079461211  0.080637508            4 
  647000   0.98527036   -2.9196497    617.27136  0.079504297  0.080599219            2 
  648000   0.99601653   -2.9150719    618.82572  0.079581497  0.080560355            2 
  649000   0.99775871   -2.9344888    618.48159  0.079414688  0.080522208            1 
  650000   0.98937779   -2.8941135    618.75324  0.079327338  0.080484796            1 
  651000    1.0118534   -2.9254818    620.38569  0.079414451  0.080446755            4 
  652000    0.9711965   -2.9052514    619.64995  0.079198613  0.080408126            3 
  653000    1.0011291   -2.9172931    620.91984  0.079239387  0.080369284            2 
  654000    1.0062132   -2.9130026    620.26805  0.079035174  0.080331616            4 
  655000   0.98156619    -2.947193    621.66274  0.079091952  0.080294681            2 
  656000   0.99432514   -2.9243019     621.8634  0.078996875  0.080257739            3 
  657000    1.0040591   -2.9256498    621.40067  0.078817944  0.080221346            3 
  658000   0.99133062   -2.9121979    625.97179  0.079277076   0.08018378            3 
  659000   0.98048556   -2.9342755    626.23753  0.079190381  0.080146282            2 
  660000    1.0059589   -2.9362449    624.68311   0.07887413  0.080108245            2 
  661000   0.97561041   -2.9521861    626.76823  0.079017679  0.080070636            4 
  662000   0.98396411   -2.9141226    628.79942  0.079154006  0.080032997            2 
  663000   0.99079963   -2.9408574    631.51098  0.079375438  0.079996664            2 
  664000   0.98639229   -2.9106458    628.38282  0.078863306  0.079960292            5 
  665000   0.98761957   -2.9208119    630.57402    0.0790193  0.079923856            3 
  666000   0.98579293   -2.9254805    627.90766  0.078567024  0.079886552            5 
  667000   0.99114949   -2.9465712    629.72511  0.078676301  0.079847915            2 
  668000   0.97514211   -2.9423042     631.4934  0.078779117  0.079809235            5 
  669000   0.98842701    -2.930754    631.66188  0.078682347  0.079771013            3 
  670000    0.9925797   -2.8969263    631.44725  0.078538215  0.079733666            1 
  671000    0.9887504   -2.9041903    630.43076  0.078294927  0.079694207            4 
  672000   0.98868667   -2.9459426    632.10153  0.078385606   0.07965516            2 
  673000   0.97807639   -2.9540966    633.41427  0.078431682  0.079615116            3 
  674000   0.99752004   -2.9404191    631.54289  0.078083938  0.079576225            4 
  675000    1.0099864   -2.9242472    635.85467  0.078500576  0.079536462            1 
  676000    1.0022102   -2.9487835    637.17526  0.078547246  0.079498253            2 
  677000   0.98677838   -2.9467927    637.46514  0.078466906  0.079460077            4 
  678000   0.98621593   -2.9261339    637.44245  0.078348384  0.079421091            3 
  679000   0.96892767   -2.9264955    638.64865  0.078381033  0.079382718            2 
  680000    0.9795139   -2.9184482    638.27234   0.07821965  0.079343279            2 
  681000   0.98553057    -2.944168    634.84064  0.077684856  0.079305264            5 
  682000   0.98323309   -2.9367483    641.53257  0.078388633  0.079266606            2 
  683000   0.97021635   -2.9196012    640.97228  0.078205501  0.079228106            3 
  684000   0.99584795    -2.937217     642.1813  0.078238463  0.079190127            2 
  685000   0.98963611    -2.927834    641.47209  0.078037967  0.079153821            2 
  686000    1.0011656   -2.9418081    643.61862  0.078184964   0.07911608            2 
  687000   0.99044659   -2.9645471    641.80173  0.077850768  0.079078519            1 
  688000   0.97844485   -2.9534562     643.9638  0.077999491  0.079041752            2 
  689000    0.9584943   -2.9213623    644.14103   0.07790772  0.079004529            3 
  690000   0.97800367   -2.9487847    646.00401  0.078019808  0.078967017            1 
  691000   0.99153515   -2.9407311    644.36749  0.077709538  0.078929667            2 
  692000   0.97024578   -2.9518031    648.19907  0.078058655  0.078892223            3 
  693000     1.000039   -2.9400177    647.78453  0.077896168  0.078854412            4 
  694000   0.97749653   -2.9797303    644.87708  0.077434807  0.078816594            2 
  695000   0.94027676   -2.9551479    648.34088  0.077738715  0.078778253            2 
  696000   0.97372639    -2.936093    649.94187  0.077818711  0.078740157            2 
  697000   0.95519979   -2.9716793     649.0504  0.077600478  0.078702105            3 
  698000   0.97485737    -2.913542    652.31837  0.077879461  0.078665278            4 
  699000   0.99244086   -2.9524868    651.10318  0.077623174  0.078628131            2 
  700000   0.99357939   -2.9489587    655.44342  0.078028978  0.078590884            8 
  701000   0.98171472    -2.951166    652.92433  0.077618203  0.078554389            4 
  702000   0.95875252   -2.9440174    654.48667    0.0776931  0.078517738            3 
  703000   0.98341708   -2.9141952    655.29602  0.077678523  0.078480511            1 
  704000   0.98171707   -2.9521346    656.44568  0.077704271  0.078444444            2 
  705000   0.94048476   -2.9464984    656.33115  0.077580514  0.078408367            3 
  706000    0.9826971   -2.9491196    657.13588  0.077565614  0.078372247            3 
  707000   0.98010841   -2.9368145    660.24922  0.077822869  0.078337164            2 
  708000   0.97312161   -2.9368375    657.09044  0.077341153  0.078301081            1 
  709000   0.97924276   -2.9420088    660.32382  0.077612109  0.078265028            3 
  710000   0.98763719    -2.953061    660.23989  0.077492945  0.078229853            2 
  711000   0.98858353   -2.9466961    661.27047  0.077504743  0.078195339            2 
  712000   0.97340359    -2.928363    660.30838  0.077283284   0.07816086            3 
  713000   0.95045174   -2.9773599    661.07529  0.077264527  0.078125793            2 
  714000   0.98391474   -2.9573975    663.36564  0.077423628  0.078091323            3 
  715000   0.95771859   -2.9802304    664.61069  0.077460453  0.078056573            3 
  716000   0.98149745   -2.9639752    664.38629   0.07732615  0.078020574            3 
  717000    0.9656974   -2.9840839    661.42232  0.076873816  0.077984595            3 
  718000   0.98621899   -2.9710785    665.68896   0.07726195  0.077948478            3 
  719000    0.9560997   -2.9878647    662.78214  0.076817587  0.077911781            3 
  720000   0.97652419   -2.9796699     665.0344  0.076971574  0.077875119            6 
  721000   0.96959809   -2.9562376    666.31842  0.077013225  0.077838634            3 
  722000   0.95162188    -2.953886    666.51275  0.076928987  0.077802958            4 
  723000   0.97490228   -2.9719357    665.03383  0.076652124  0.077767957            4 
  724000    0.9746768   -2.9667418    668.72148  0.076970704  0.077731893            7 
  725000   0.97289258   -2.9552637    672.23692  0.077268611  0.077697433            1 
  726000   0.95921263   -2.9549387    670.25584  0.076934784  0.077661662            3 
  727000   0.95658267   -2.9517158    671.98073  0.077026677  0.077626182            3 
  728000   0.98425447   -2.9470488    672.87592  0.077023342  0.077591094            3 
  729000   0.96470562   -2.9795238    672.32738  0.076854982  0.077555786            2 
  730000   0.97013813   -2.9514533    673.48217  0.076881526  0.077521011            6 
  731000   0.97927031   -2.9783482    672.63352  0.076679608  0.077484635            2 
  732000   0.96861572   -2.9586748     674.7665  0.076817679  0.077448773            3 
  733000   0.98254243   -2.9356871     675.3302  0.076776967  0.077413436            2 
  734000   0.93040962   -2.9519115    674.55817  0.076584715  0.077377431            3 
  735000   0.96393246   -2.9714828    675.07845  0.076539507  0.077342357            4 
  736000   0.95895102   -2.9488962    677.43344  0.076702155  0.077307751            5 
  737000   0.94510603   -2.9581185    676.23675  0.076462771  0.077272317            2 
  738000   0.95304502   -2.9607423    677.49641  0.076501401  0.077237442            2 
  739000   0.96166333   -2.9691985    681.05642  0.076799326  0.077202729            4 
  740000    0.9439317   -2.9696817    677.70721   0.07631838  0.077167615            5 
  741000   0.95689945   -2.9995354    678.64986  0.076321397  0.077132335            2 
  742000   0.96079616   -2.9657867    681.28074  0.076514009  0.077097715            2 
  743000   0.95744147   -2.9548719    681.11001  0.076391881  0.077063153            2 
  744000   0.95037026   -2.9786359     684.2771   0.07664394  0.077027665            2 
  745000   0.94659328   -2.9758935    684.56039   0.07657275  0.076992449            6 
  746000   0.96792354   -2.9539013    686.54089  0.076691341   0.07695758            2 
  747000   0.94424461   -2.9909998    685.70138  0.076495023  0.076923961            3 
  748000   0.95070849   -2.9815465    686.14034   0.07644166  0.076890216            1 
  749000   0.96932299   -2.9646631    685.61937  0.076281639  0.076855753            2 
  750000   0.93822467   -3.0124162    684.13308  0.076014787   0.07682128            1 
  751000   0.94489019   -2.9757985    685.76995  0.076095201  0.076787015            1 
  752000   0.96308957   -2.9368245    688.68293  0.076316814  0.076752661            5 
  753000   0.92713765    -2.973274    687.42854  0.076076642  0.076719133            2 
  754000   0.94195684   -2.9964722    688.85657  0.076133573  0.076685221            3 
  755000   0.96417784   -2.9880824    693.32333  0.076525754  0.076651375            6 
  756000   0.95942673   -2.9867437     692.6257   0.07634763  0.076618067            2 
  757000   0.93398554    -2.990289    691.59264  0.076133052    0.0765853            5 
  758000   0.95909163    -2.988119    692.75912  0.076160853  0.076553618            3 
  759000   0.94183693    -2.971459    695.00081  0.076306633  0.076520934            2 
  760000   0.95390635   -2.9909019    694.39854  0.076140191  0.076487376            2 
  761000   0.95212352   -2.9642568    692.89871  0.075875899  0.076453387            2 
  762000   0.96110814   -2.9762431    694.26908   0.07592619  0.076419305            2 
  763000   0.95650078   -2.9783921    695.55759  0.075967408   0.07638553            2 
  764000   0.93033685   -2.9925367    696.69921  0.075992497  0.076351074            3 
  765000   0.94032351   -2.9869662    695.78721  0.075793814  0.076317455            3 
  766000   0.95404293   -2.9721854    696.54849  0.075777686  0.076284515            3 
  767000    0.9382782   -2.9823078    697.04969  0.075733343  0.076251904            1 
  768000    0.9538159   -2.9587355    701.56007  0.076124139  0.076218891            2 
  769000   0.94739184   -2.9764037    697.19621  0.075552255  0.076185299            3 
  770000   0.94256516   -2.9742821    700.19256  0.075778416   0.07615163            4 
  771000   0.95140743   -3.0120889    700.42106  0.075704827  0.076118981            4 
  772000   0.95287715   -2.9629682    704.06989  0.076000636  0.076086457            1 
  773000   0.93542276   -2.9808382    702.35015   0.07571692  0.076053472            2 
  774000   0.95551307   -2.9876094    700.89733  0.075462675   0.07602017            2 
  775000   0.93200515   -2.9651806    702.46152  0.075533497  0.075986167            2 
  776000   0.93269063   -2.9918363    700.99666  0.075278851  0.075951993            3 
  777000   0.92992821    -2.969125    704.52507  0.075560389  0.075918169            2 
  778000   0.96887154   -2.9868812    705.32153  0.075548579  0.075884206            3 
  779000   0.94910171   -2.9917139    705.09114  0.075426951  0.075850563            3 
  780000   0.94704963   -2.9901471     703.7548  0.075187479  0.075817155            2 
  781000    0.9219918   -2.9898043    705.25814  0.075251616  0.075783303            5 
  782000   0.93251647   -2.9944171    704.79599  0.075106137  0.075749678            3 
  783000   0.94448777   -3.0124664    707.91186  0.075341833   0.07571601            2 
  784000   0.95404666   -2.9774223    707.60189  0.075212786  0.075682641            5 
  785000   0.96145254   -2.9771498    706.56373  0.075006765  0.075649035            2 
  786000   0.93607322   -2.9884565    709.34508  0.075206221  0.075615996            2 
  787000     0.935486   -2.9775983    709.27809  0.075103568  0.075582305            3 
  788000   0.95362759   -3.0031741    711.61006  0.075254871  0.075549572            7 
  789000   0.95215599   -2.9741355    713.42413  0.075351091  0.075516999            2 
  790000   0.93209148   -3.0205015    710.93851  0.074993514  0.075483505            4 
  791000   0.95092681   -2.9967504    712.79282   0.07509406  0.075450716            1 
  792000   0.95401754   -2.9794129    714.71949  0.075201966  0.075417268            3 
  793000   0.94249087    -2.980173    713.91789  0.075022897   0.07538422            2 
  794000   0.92287941   -2.9986198    715.32899   0.07507651  0.075350908            1 
  795000   0.95269805   -3.0143475    714.98561   0.07494608  0.075316851            1 
  796000   0.93400372   -2.9933503    717.29142  0.075093323  0.075284139            2 
  797000   0.92075104   -2.9906528      716.919  0.074960163  0.075250994            3 
  798000   0.94143276   -3.0167224    718.34996   0.07501566  0.075217664            4 
  799000   0.91610562   -3.0109709    716.49838  0.074728659  0.075184896            3 
  800000   0.94057133   -3.0089555    717.17223  0.074705441  0.075150976            2 
  801000   0.92126447   -3.0198741    715.67084  0.074455975   0.07511672            2 
  802000   0.94305022   -3.0062954    717.69683  0.074573652   0.07508248            2 
  803000   0.94314432   -3.0088264    718.85777  0.074601263  0.075048893            3 
  804000   0.93596405   -2.9942523    718.46911  0.074468191  0.075014278            2 
  805000   0.92523281   -3.0279242    718.97491  0.074428044  0.074979525            3 
  806000   0.92369936   -2.9996325    721.62071  0.074609254  0.074944535            3 
  807000    0.9224961   -3.0180328    719.79419   0.07432819  0.074909088            5 
  808000   0.93719323    -3.003049    720.58525  0.074317786  0.074874138            3 
  809000   0.94338486   -3.0316117    722.08975  0.074380897   0.07483853            4 
  810000   0.94203727   -3.0215301    718.51086  0.073920871  0.074802725            3 
  811000   0.91074408    -3.042805    719.45044  0.073926268  0.074766803            2 
  812000   0.94143564   -3.0123289     720.4614  0.073938978  0.074730877            5 
  813000    0.9398459   -3.0013131    721.67149  0.073972067  0.074695325            2 
  814000   0.91025129   -3.0196455    723.97312  0.074116822  0.074660908            7 
  815000   0.92041879   -3.0157058    723.04111  0.073930584     0.074626            3 
  816000   0.94677599   -3.0132305    724.53908  0.073992961  0.074590528            4 
  817000   0.92142715   -3.0036685    725.01756  0.073951199  0.074554574            2 
  818000   0.92982422   -2.9923782    726.03334  0.073964276  0.074519546            2 
  819000   0.92150112   -2.9784908    725.20033  0.073789207    0.0744841            5 
  820000   0.95385956   -3.0396864    727.76655  0.073960015  0.074449241            2 
  821000   0.93238188   -3.0225283    725.31345  0.073620935  0.074413397            2 
  822000   0.94257712   -3.0237015    726.88521  0.073690715  0.074378074            2 
  823000   0.93591459   -3.0221383    726.51935   0.07356413  0.074342691            4 
  824000   0.93257959   -3.0154888    729.85019   0.07381171  0.074306388            2 
  825000    0.9184258   -3.0098516    728.76777  0.073612906   0.07427091            1 
  826000   0.94545133   -2.9994165    729.36942  0.073584485  0.074236065            2 
  827000   0.92051662   -3.0629993    729.21745  0.073480195  0.074201045            3 
  828000   0.91238234   -3.0063316    733.27599  0.073799918  0.074165284            2 
  829000   0.93454734   -3.0120687    731.94802  0.073577405  0.074130151            1 
  830000   0.92105965   -3.0153884     731.6288  0.073456707  0.074095012            2 
  831000   0.93165295   -3.0121785    732.58254  0.073463953  0.074059331            6 
  832000   0.92593225   -3.0054288    732.30144    0.0733475  0.074023444            3 
  833000   0.93181426   -3.0293986    732.41365  0.073270673    0.0739878            4 
  834000   0.91146582    -3.012201    735.89031  0.073530207  0.073952491            3 
  835000   0.90803086   -3.0079165     739.3761   0.07379003   0.07391762            3 
  836000    0.9215495   -3.0476915    734.72428  0.073238066  0.073881986            3 
  837000   0.91481514   -3.0108656    738.94314  0.073570603  0.073847166            3 
  838000   0.94490512   -3.0379609    740.70566  0.073658081  0.073813135            2 
  839000   0.91900487   -2.9970047    739.78813  0.073479154   0.07377908            4 
  840000   0.92192673   -3.0244939    738.93882  0.073307422  0.073745026            4 
  841000   0.92896055   -3.0188641    740.02788  0.073328169  0.073711083            2 
  842000   0.89145394   -3.0177561    745.74241  0.073806652  0.073677607            3 
  843000   0.90949373    -3.003836    741.37987  0.073287848  0.073644028            2 
  844000   0.91618239   -3.0160624     746.0503  0.073662154  0.073611172            6 
  845000   0.91339196   -3.0333446     742.4965  0.073224507  0.073578437            2 
  846000   0.91456164   -3.0429589    743.46098  0.073232957  0.073544148            2 
  847000   0.91244769   -3.0018387    744.10191  0.073209555  0.073510789            3 
  848000   0.91078062   -3.0172216     744.1483  0.073127781  0.073476468            2 
  849000    0.9081843   -3.0134224    743.48946  0.072976979  0.073442772            2 
  850000   0.92023904    -3.025927    744.24832  0.072965521  0.073409194            5 
  851000   0.90913692   -3.0274775    747.22264  0.073171038  0.073376019            5 
  852000   0.90199656   -3.0357142    749.34543  0.073292785  0.073343614            4 
  853000   0.90811545   -3.0290553    746.77217  0.072955468  0.073310664            2 
  854000    0.9274416   -3.0519351    748.15944   0.07300541  0.073278598            3 
  855000   0.90285915   -3.0506879    750.14873  0.073113912  0.073246188            2 
  856000   0.93082655    -3.041857    752.01492  0.073210176   0.07321372            4 
  857000   0.93439372   -3.0543185    748.62912  0.072795519  0.073180575            3 
  858000   0.89988448   -3.0444088    751.22797   0.07296309  0.073147388            3 
  859000   0.90473047   -2.9918663    748.09579  0.072574291  0.073115167            2 
  860000    0.8943214   -3.0373829    750.72528  0.072744698   0.07308156            2 
  861000   0.91028127   -2.9999025    750.46564  0.072635079  0.073048466            2 
  862000   0.91042973   -3.0406353    753.09001  0.072804525  0.073014245            6 
  863000   0.90463163   -3.0446487    751.60187  0.072576465  0.072980249            1 
  864000   0.90444529   -3.0190617    751.62341  0.072494542   0.07294663            2 
  865000   0.89657016   -3.0249805    752.76157  0.072520382  0.072913898            2 
  866000   0.92216832   -3.0213639    756.49712  0.072796105  0.072880385            3 
  867000   0.91424866   -3.0506081     751.2236  0.072205267  0.072847322            4 
  868000   0.90263224   -3.0466577    757.60196  0.072734443  0.072814115            3 
  869000   0.89413946   -3.0345731    753.73888  0.072280291  0.072781626            3 
  870000   0.90437238   -3.0615041    757.99385  0.072604775  0.072748813            3 
  871000   0.90446069   -3.0347313    757.24921  0.072450173    0.0727161            7 
  872000   0.90479346   -3.0516159    759.82038  0.072612804  0.072683667            5 
  873000   0.91142074    -3.039429    758.41873  0.072395832  0.072650216            3 
  874000   0.88382504   -3.0308095    763.25541  0.072774162  0.072617259            6 
  875000   0.89311653   -3.0454591    761.15287   0.07249075   0.07258467            2 
  876000   0.90536736   -3.0453234    757.44229  0.072055012  0.072551451            3 
  877000   0.91339076   -3.0463593    765.02387  0.072693261  0.072518806            2 
  878000   0.91793214   -3.0287467    764.17268  0.072529678  0.072486531            3 
  879000   0.89697028   -3.0468472    765.41509   0.07256495  0.072454847            3 
  880000   0.90791381   -3.0248903    764.59825  0.072405137  0.072422878            3 
  881000   0.89409186    -3.032975    762.80874  0.072153683  0.072390247            2 
  882000   0.91400464    -3.052218    761.33794  0.071932912  0.072357623            3 
  883000    0.8937962   -3.0485436    764.54444  0.072154062  0.072325216            3 
  884000   0.89923172   -3.0424148    765.38582  0.072151755  0.072292772            4 
  885000    0.8987651   -3.0495822    765.30985  0.072063074  0.072260688            2 
  886000   0.89703266   -3.0586323    766.28882  0.072073816  0.072227642            3 
  887000   0.88906581   -3.0368209    768.29383  0.072180931  0.072194747            4 
  888000   0.88289061   -3.0381444    768.38686  0.072108377   0.07216214            2 
  889000    0.8888348   -3.0290952    767.15615    0.0719119  0.072129725            3 
  890000   0.88724146   -3.0465173     768.0481  0.071914616  0.072097719            1 
  891000   0.89799791    -3.010529    769.95806  0.072012539  0.072065152            4 
  892000   0.88979262   -3.0559253    769.06003   0.07184791  0.072032364           11 
  893000   0.89472376   -3.0577733    769.26763  0.071786826  0.071999335            2 
  894000   0.87325435   -3.0476281    768.79371  0.071662352  0.071966576            2 
  895000   0.89378009   -3.0278772    771.23848  0.071809914  0.071933676            1 
  896000   0.90510637   -3.0655726    767.75202  0.071405508  0.071900728            3 
  897000   0.90397392   -3.0621676    769.75082  0.071511596  0.071868218            4 
  898000   0.87667543   -3.0773021    772.41425  0.071679125  0.071835582            3 
  899000   0.90187891   -3.0655524    771.48656    0.0715134  0.071803177            5 
  900000   0.89767393   -3.0480006     774.2892  0.071693444  0.071770308            2 
  901000   0.89397449   -3.0517557    773.63523  0.071553387  0.071737058            5 
  902000   0.86227971   -3.0729391    773.11298  0.071425811  0.071704262            5 
  903000   0.90387243   -3.0537763    774.29868  0.071456135   0.07167101            1 
  904000   0.90620887   -3.0628845    777.52423  0.071674431  0.071637947            2 
  905000   0.88479894    -3.083337    775.08349  0.071370487  0.071605354            2 
  906000   0.90988219   -3.0701574    775.96721  0.071372996  0.071572531            3 
  907000   0.88211037   -3.0415637    779.67872  0.071635311  0.071540534            2 
  908000   0.89506651   -3.0541257    779.65331  0.071554085  0.071508305            3 
  909000   0.90320038   -3.0653889     777.5056  0.071278474   0.07147675            2 
  910000   0.88705656   -3.0436799    784.24843  0.071817622  0.071445417            1 
  911000   0.87389611   -3.0341462    782.73652  0.071600487  0.071414203            5 
  912000   0.88742856   -3.0668152    782.64584  0.071513692  0.071383072            2 
  913000   0.87076471   -3.0724899    784.05569  0.071564046  0.071352762            3 
  914000   0.88118867   -3.0659078    782.63778  0.071356472  0.071321732            2 
  915000   0.90459389   -3.0666641    785.20891  0.071512651  0.071290788            5 
  916000   0.88336699   -3.0712087    782.31211  0.071171044  0.071259864            5 
  917000   0.89283105   -3.0795001    786.50264  0.071474249  0.071229577            4 
  918000   0.87151986   -3.0769548    785.65488  0.071319433  0.071198951            6 
  919000   0.87679409   -3.0627929    786.40123  0.071309506  0.071168699            3 
  920000   0.87323823   -3.0905613     785.9561  0.071191676  0.071137962            2 
  921000   0.88791221   -3.0573912    787.51328  0.071255273  0.071107579            5 
  922000   0.86811466   -3.0741452    789.30658  0.071340074   0.07107628            3 
  923000   0.88549876   -3.0591488    786.54894  0.071013808  0.071045689            2 
  924000   0.86201332   -3.0722283    787.68731   0.07103962   0.07101454            2 
  925000   0.88223188   -3.0695409    788.76028  0.071059485  0.070983806            2 
  926000   0.88341962   -3.0359548    789.52952  0.071051973  0.070952646            5 
  927000   0.87713939   -3.0620407    790.62908  0.071074171  0.070921714            2 
  928000   0.87729942   -3.0456466    792.01634  0.071122157  0.070890943            4 
  929000   0.90003487   -3.0553819    791.15915  0.070968707  0.070859865            3 
  930000   0.88271403   -3.0858194    794.47716   0.07118971  0.070828775            5 
  931000   0.89586592   -3.0549196    792.41777  0.070928909  0.070797929            5 
  932000   0.86629849   -3.0611812    792.04186  0.070819193  0.070767523            6 
  933000   0.89608825   -3.0658065    799.02198  0.071366736  0.070737478            2 
  934000   0.90167089   -3.0925823    792.64584  0.070721435  0.070707285            2 
  935000   0.87010754   -3.0484272    795.56357  0.070905844  0.070677266            2 
  936000   0.87906148   -3.0856298    795.09084  0.070788002  0.070647524            3 
  937000   0.90304713   -3.0952264    796.08246  0.070800646  0.070617551            2 
  938000    0.8878156    -3.075603    796.30147  0.070744622  0.070587122            4 
  939000   0.85334521   -3.0776388    796.39123  0.070677248   0.07055673            3 
  940000   0.88071612   -3.0698812     797.0598   0.07066133  0.070526613            2 
  941000   0.89036435   -3.0657646    801.60127  0.070988422  0.070496627            3 
  942000   0.87250102   -3.0868082    800.49521  0.070815217   0.07046728            2 
  943000   0.88660408   -3.0598243    800.68721  0.070757088  0.070437658            2 
  944000   0.88767002   -3.0709195    801.31806  0.070737823  0.070408537            1 
  945000   0.87232527   -3.0548803    803.19314  0.070828319  0.070379247            3 
  946000   0.87252808   -3.0629457    799.93475  0.070466416  0.070350189            1 
  947000   0.87541035   -3.0907784    799.67883  0.070369485  0.070320553            3 
  948000    0.8481879   -3.0777562    804.30276  0.070701719  0.070290994            3 
  949000   0.88910926   -3.0691531    802.56307  0.070474453   0.07026082            4 
  950000   0.89543635   -3.0896875    803.59602  0.070490879  0.070231647            6 
  951000   0.87542358   -3.0710449    807.36875  0.070747349  0.070202826            2 
  952000   0.86285128   -3.0470339    807.90202  0.070719715  0.070174288            3 
  953000   0.85837965   -3.0819093    809.61381  0.070795191  0.070145506            4 
  954000   0.88741139   -3.1011324     808.0421  0.070583692  0.070117046            6 
  955000   0.86422456   -3.0941479    809.09447  0.070601611  0.070088532            5 
  956000   0.88425285   -3.0711945    807.95222  0.070428192  0.070060591            2 
  957000   0.85692058   -3.0839383    808.37775  0.070391653  0.070032209            5 
  958000   0.86833679   -3.0885244    810.13517  0.070471048   0.07000368            4 
  959000   0.88534526   -3.0730003    809.56958  0.070348417  0.069975194            5 
  960000    0.8794712   -3.0799989    811.71989  0.070461796   0.06994667            2 
  961000   0.88152025   -3.0903583     810.1259  0.070250251  0.069918352            4 
  962000   0.86485437   -3.0992398    809.69003  0.070139469  0.069889273            4 
  963000   0.85581571   -3.0749023    813.08888  0.070360755  0.069860523            3 
  964000   0.84015017   -3.0900338     810.5774  0.070070661  0.069831148            2 
  965000   0.87275945   -3.0868021    812.70942  0.070182161  0.069801675            4 
  966000    0.8720875   -3.0782165     816.0443  0.070397197   0.06977283            5 
  967000    0.8391495   -3.0925411    813.70171  0.070122519  0.069744027            3 
  968000   0.85259684   -3.0954113    812.74655  0.069967851  0.069714071            3 
  969000   0.85382579    -3.093062    815.65274  0.070145575   0.06968452            4 
  970000   0.87580546   -3.1173735    810.63075  0.069641817   0.06965481            3 
  971000   0.85769306   -3.0861709    814.43565   0.06989664  0.069624637            6 
  972000   0.85771063   -3.0968455    816.77806  0.070025554  0.069594765            5 
  973000   0.85886932   -3.0752849    813.89568  0.069706721  0.069564313            4 
  974000   0.87258724   -3.1043851    815.94794  0.069810741  0.069533945            1 
  975000    0.8740094   -3.1156281    815.67429  0.069715751  0.069504314            2 
  976000   0.87082821   -3.0737222    815.56915  0.069635344  0.069474315            2 
  977000   0.86773613   -3.1061929    815.83953  0.069587131  0.069444237            2 
  978000   0.88482802   -3.1303734    814.75688  0.069423729   0.06941428            5 
  979000    0.8613569   -3.1096586    815.16415  0.069387483  0.069384067            6 
  980000   0.86060252   -3.0882947    820.30065  0.069753456  0.069353516            3 
  981000   0.86033961   -3.1151054    817.88101   0.06947681  0.069323526            7 
  982000   0.86449405   -3.0982672    812.44254  0.068944547  0.069292853            6 
  983000   0.87160894   -3.0864527    822.17053  0.069699095  0.069262811            6 
  984000   0.84514747   -3.1140232     820.7119  0.069504734  0.069232595            4 
  985000    0.8492726   -3.1048726    821.99219  0.069542487  0.069202295            5 
  986000   0.86465786   -3.1051395    819.84416  0.069290413  0.069172419            4 
  987000   0.83674005   -3.1128255    819.06887  0.069154751   0.06914205            4 
  988000   0.86853114   -3.0895953     820.5427  0.069209067  0.069111425            4 
  989000   0.84543782    -3.096803    822.51487  0.069305264  0.069081423            2 
  990000   0.85610956   -3.1081872    823.88844  0.069350879  0.069051353            4 
  991000   0.85994675   -3.0999006    821.50364   0.06908036  0.069021124            3 
  992000   0.86466199   -3.1027354    823.57601  0.069184812  0.068990555            7 
  993000     0.842376   -3.1117024    825.92446  0.069312224  0.068960605            4 
  994000   0.85143384   -3.0982232    827.23632  0.069352474  0.068930639            5 
  995000   0.85112408   -3.0922671    825.53955  0.069140666  0.068900646            3 
  996000   0.86247351    -3.119472    825.62697  0.069078562  0.068870498            6 
  997000   0.86472785   -3.0941958    823.48506  0.068830246  0.068840077            3 
  998000   0.82951896   -3.1307528    825.83584  0.068957569  0.068809982            3 
  999000   0.84656075   -3.1215795     830.9036  0.069311278  0.068779828            4 
 1000000   0.84207959   -3.1015743    827.48329  0.068956941  0.068749666            2 
 1001000   0.85896051    -3.122359    824.78139  0.068663119   0.06871931            5 
 1002000   0.85727666   -3.1266865    826.16679  0.068709813  0.068688864            4 
 1003000   0.85030784    -3.092897    833.45147   0.06924655  0.068658736            2 
 1004000   0.86566377   -3.0870411    829.58454  0.068856619  0.068628936            4 
 1005000   0.85027252    -3.138984    829.28341  0.068763135   0.06859862           17 
 1006000   0.83771928   -3.1164431    829.66044  0.068726014  0.068568275            4 
 1007000   0.83375178   -3.1181757    832.22972  0.068870384  0.068538289            6 
 1008000   0.86523758   -3.1201026    831.77561  0.068764518  0.068508362            2 
 1009000   0.84877078   -3.1606848    830.86806  0.068621412  0.068478252            5 
 1010000    0.8391179   -3.1152269    832.75659   0.06870929   0.06844837            4 
 1011000   0.85110586   -3.1024269    833.37624  0.068692404  0.068418813            2 
 1012000   0.85278674   -3.1242986     833.9095  0.068668437  0.068388994            2 
 1013000   0.85370328   -3.1328239    834.31706  0.068634178  0.068359243            3 
 1014000   0.84373144   -3.0993474    836.07536  0.068710993  0.068329362            9 
 1015000   0.85187117   -3.1034093    835.24661  0.068575256  0.068299361            2 
 1016000   0.85833234   -3.1132731    835.73785  0.068548052  0.068269636            3 
 1017000   0.85848708    -3.127954    836.61817  0.068552784  0.068239126            3 
 1018000    0.8278122   -3.1196497    836.45583  0.068472154  0.068208677            3 
 1019000   0.83606183   -3.1083527    838.30506  0.068556187  0.068178652            3 
 1020000   0.84932747   -3.1236564    834.60126  0.068186377   0.06814788            2 
 1021000   0.85423615   -3.0891296    838.58499  0.068444743  0.068116998            2 
 1022000   0.84714169   -3.0982555    838.18773  0.068345379  0.068086444            6 
 1023000    0.8584267   -3.1170266    837.28432  0.068204978  0.068056148            4 
 1024000   0.84053338   -3.1250778    835.23405  0.067971521  0.068024799            3 
 1025000   0.83937322   -3.1121749    834.36515  0.067834565  0.067993997            6 
 1026000   0.86443772   -3.1463672    839.25141  0.068165319  0.067963078            5 
 1027000   0.84346768   -3.1067816    838.74261  0.068057661  0.067932703            3 
 1028000    0.8377038   -3.0990566    839.36277  0.068041729  0.067902233            5 
 1029000   0.82968759   -3.1395821    840.43699    0.0680626   0.06787158            3 
 1030000   0.84185596   -3.1146278    839.66344  0.067933935  0.067841202            5 
 1031000   0.83555628   -3.1176889    840.74079  0.067955123  0.067810816            4 
 1032000   0.84579101   -3.1097138    842.08995   0.06799822  0.067780417            5 
 1033000   0.83609815   -3.1094995     838.8527   0.06767124  0.067749616            5 
 1034000    0.8302571    -3.125166    842.97592  0.067938098  0.067719053            3 
 1035000   0.85247213   -3.1251506    840.64524  0.067684802  0.067688514            2 
 1036000   0.83908096   -3.1260066    842.07777  0.067734698  0.067658101            3 
 1037000   0.83204686   -3.1510265    844.68496  0.067878894  0.067627417            4 
 1038000   0.83430948   -3.1343209    844.85743  0.067827347  0.067596609            3 
 1039000   0.86713414   -3.1122524    847.63813  0.067985092  0.067566434            4 
 1040000   0.85096508    -3.149983    844.67988  0.067682683  0.067536095            7 
 1041000   0.84399483   -3.1359313    845.42192  0.067677067  0.067505669            7 
 1042000   0.83641702   -3.1392387     848.9995  0.067898232  0.067475499            4 
 1043000   0.84833075   -3.1177766    843.06019  0.067358596  0.067445126            4 
 1044000   0.84116987   -3.1266941    847.20795  0.067625155   0.06741466            4 
 1045000   0.82498548   -3.1183168    848.58542  0.067670288   0.06738421            3 
 1046000   0.83364051   -3.1269103    846.74019  0.067458587  0.067354039            4 
 1047000   0.82498426    -3.130725    847.69788  0.067470382   0.06732327            3 
 1048000   0.83858918   -3.1243762    851.05949  0.067673306  0.067292881            4 
 1049000   0.83020659   -3.1547614    851.04799   0.06760788  0.067262663            4 
 1050000   0.82034417   -3.1440441    849.57628  0.067426689  0.067232543            4 
 1051000   0.84250817   -3.1532543    849.29252  0.067340035  0.067202466            3 
 1052000   0.82590147   -3.1682912    851.28085  0.067433527  0.067172297            6 
 1053000   0.85590434   -3.1354355    849.51633  0.067229845  0.067142322            7 
 1054000   0.84158989   -3.1556261    851.78164  0.067345165   0.06711205            2 
 1055000   0.83500824   -3.1450846    854.11018  0.067465259  0.067082557            2 
 1056000   0.83690813   -3.1569057     849.8863  0.067068048  0.067052973            3 
 1057000   0.84082797   -3.1323222     854.9074  0.067400457  0.067023612            5 
 1058000   0.83471229   -3.1575994    854.06063  0.067270056  0.066993968            3 
 1059000   0.82515566   -3.1520039    854.45796  0.067237799  0.066963913            3 
 1060000    0.8241852    -3.137615    854.73392  0.067196063  0.066934612            2 
 1061000   0.82913912   -3.1380951    853.42188   0.06702968  0.066905254            2 
 1062000   0.82143712   -3.1551073    855.83971  0.067156286  0.066875479            3 
 1063000   0.84546361   -3.1473903    858.19341  0.067277627  0.066846309            5 
 1064000   0.82435282   -3.1535113    858.86072   0.06726666  0.066816685            2 
 1065000   0.82707361   -3.1397054    856.08521  0.066986323  0.066787319            3 
 1066000   0.84753242   -3.1572724     856.2464  0.066936085  0.066757058            4 
 1067000   0.82611326   -3.1363947    856.50772  0.066893761  0.066727334            4 
 1068000   0.81656028   -3.1498095    857.03594  0.066872342  0.066697169            1 
 1069000   0.81876223   -3.1283853    857.70004  0.066861556  0.066667415            5 
 1070000   0.83285458    -3.158543    858.34818  0.066849547  0.066637009            3 
 1071000   0.81729853   -3.1423528     857.1644   0.06669502  0.066606755            5 
 1072000   0.82910445   -3.1438777    857.79435  0.066681775  0.066576378            4 
 1073000   0.81969828   -3.1479969    858.81829  0.066699152  0.066545595            2 
 1074000   0.82470025   -3.1512597    859.76806  0.066710743  0.066515259            3 
 1075000    0.8233609   -3.1470592    858.14765  0.066523074  0.066484508            2 
 1076000   0.82191094    -3.138981    859.85702  0.066593635  0.066453788            2 
 1077000    0.8104351    -3.159937    859.57638  0.066510088  0.066423588            3 
 1078000   0.82351265   -3.1772891     859.6619  0.066455002  0.066392955            5 
 1079000   0.82282233   -3.1648988    862.94946  0.066647317  0.066362008            3 
 1080000   0.81940715   -3.1384564    861.74315  0.066492527  0.066331309            3 
 1081000   0.81462214   -3.1546109    863.25181  0.066547318  0.066300254            3 
 1082000   0.80851691   -3.1578754    861.53501  0.066353589  0.066269652            6 
 1083000   0.82571159   -3.1583124    862.19685  0.066343248   0.06623891            3 
 1084000   0.81338757   -3.1640946    862.48664  0.066304324  0.066208516            3 
 1085000   0.82408228   -3.1844596    862.40031  0.066236583  0.066177943            2 
 1086000   0.81602542   -3.1251449    862.37151  0.066173382  0.066147266            3 
 1087000   0.82021134   -3.1699513    865.99395  0.066390214  0.066116905            3 
 1088000   0.83895711   -3.1786559    864.45743  0.066211507  0.066086538            3 
 1089000    0.8330296   -3.1388186    866.01069  0.066269566  0.066056263            4 
 1090000   0.82066137    -3.157001    865.98002  0.066206423  0.066025788            3 
 1091000   0.81180018   -3.1692884     867.7821  0.066283387  0.065995272            3 
 1092000   0.82219344   -3.1537528    866.17063  0.066099712  0.065964841            3 
 1093000   0.80254456   -3.1595338    868.65312  0.066228508  0.065934107            5 
 1094000   0.82391878   -3.1500856    868.14296  0.066129111  0.065903808            5 
 1095000   0.80583979    -3.177592    870.15957  0.066222189  0.065873499            2 
 1096000    0.8227938   -3.1793676    870.74612  0.066206366  0.065842608            2 
 1097000   0.80800295     -3.16655    868.29703  0.065959969  0.065812176            3 
 1098000    0.8179208   -3.1647118     868.9341  0.065948247   0.06578162            3 
 1099000   0.81005286   -3.1800167    867.66167  0.065791755  0.065751037            4 
 1100000    0.8202122     -3.13619    869.36479  0.065860969  0.065720471            4 
 1101000   0.82847391   -3.1620692    871.59159  0.065969693  0.065690014            6 
 1102000    0.8066406   -3.1521569    870.43971  0.065822724  0.065659412            5 
 1103000   0.80626744   -3.1862581    869.89377  0.065721802  0.065628935            5 
 1104000   0.81041113   -3.1879498    870.85815  0.065735065  0.065598343            3 
 1105000   0.82183011   -3.1670567     872.0983  0.065769103  0.065568005            3 
 1106000   0.81730082   -3.1664728    871.33876  0.065652408  0.065537482            3 
 1107000   0.81010812   -3.1680856     872.5942  0.065687609  0.065506712            7 
 1108000   0.82776272   -3.1776161    871.97695  0.065581901  0.065476079            3 
 1109000   0.80298887   -3.1777727    872.33153  0.065549409   0.06544492            6 
 1110000   0.81349255   -3.1535891    873.12852  0.065550189  0.065413899            5 
 1111000   0.79568201   -3.1933654    870.14065  0.065267076  0.065382868            5 
 1112000   0.80932684   -3.1868245    871.89917  0.065340166  0.065351394            6 
 1113000   0.81567448   -3.2036482    871.97514  0.065287148  0.065319704            4 
 1114000   0.82166476   -3.1561303    872.62163  0.065276902  0.065288259            2 
 1115000   0.80168041    -3.176951    873.95942  0.065318342  0.065256992            2 
 1116000   0.79429547   -3.2090789    870.81477  0.065024998   0.06522519            2 
 1117000   0.80629122   -3.1665259    873.50613  0.065167572  0.065193281            4 
 1118000   0.81444764   -3.1734172    875.14856  0.065231705  0.065161479            5 
 1119000   0.81559972   -3.1786954    874.84166  0.065150555  0.065129807            3 
 1120000   0.81447457   -3.1899608    872.73669  0.064935765  0.065098469            3 
 1121000   0.78047002   -3.1774677    873.91181  0.064965196  0.065066822            2 
 1122000   0.79310543   -3.1658003    878.58005  0.065254014  0.065035557            5 
 1123000   0.80556005   -3.1805045      874.719  0.064909394  0.065003813            4 
 1124000   0.80691416   -3.1760559      875.423   0.06490384  0.064972498            5 
 1125000    0.8103094   -3.1875399    876.72492  0.064942587  0.064940722            4 
 1126000   0.79855723   -3.1771487    877.15487  0.064916731  0.064909003            4 
 1127000   0.80190884   -3.1870143    876.13551  0.064783756  0.064876827            3 
 1128000    0.7984684   -3.1767206    875.17963  0.064655705  0.064844569            4 
 1129000    0.8199767   -3.1958168    878.50746   0.06484407   0.06481276            3 
 1130000   0.79130266   -3.1731527    879.70301  0.064874853  0.064780544            3 
 1131000    0.8103466   -3.1962115    879.60451  0.064810235  0.064748481            6 
 1132000   0.81965017   -3.1929614    878.84061  0.064696747  0.064716583            5 
 1133000   0.79709141    -3.176135    877.31575  0.064527489  0.064684853            4 
 1134000    0.8177654   -3.1552705    882.67537  0.064864445  0.064653214            4 
 1135000   0.80051772   -3.2008051    878.68171  0.064514076  0.064621367            3 
 1136000   0.82000102   -3.1854631    880.29004  0.064575267  0.064589627            5 
 1137000     0.801184   -3.1984547    879.69226   0.06447466  0.064557744            4 
 1138000   0.79860795   -3.1904551    878.59524  0.064337671  0.064525713            5 
 1139000   0.79510958   -3.2025536    882.44375  0.064562756    0.0644937            5 
 1140000   0.80462926   -3.1834932    878.51012  0.064218576  0.064462235            3 
 1141000    0.7881793   -3.2113259    879.41449  0.064228344  0.064430087           15 
 1142000   0.78325678   -3.1914867    882.69998  0.064411849   0.06439818            3 
 1143000   0.79035301   -3.2051601    879.88687  0.064150399  0.064366458            4 
 1144000   0.78606264   -3.1935595    882.73564  0.064301838  0.064334545            3 
 1145000   0.79525039   -3.1846103     879.8899  0.064038566  0.064302214            3 
 1146000    0.7889588     -3.20581    881.46851  0.064097478  0.064269849            3 
 1147000   0.80123251   -3.1955932    880.67154  0.063983692   0.06423759            3 
 1148000   0.79743051   -3.2011497    884.18996   0.06418336  0.064205407            4 
 1149000   0.79070222   -3.1947135    882.20992  0.063983893  0.064173352            6 
 1150000   0.79867327   -3.2124603    883.84761  0.064046928  0.064141347            3 
 1151000   0.79015679   -3.1920591    885.98872  0.064146302  0.064109471            3 
 1152000   0.80917945   -3.2099793    885.09822  0.064026202  0.064077263            5 
 1153000   0.80079169    -3.198322    882.69079  0.063796675  0.064045328            4 
 1154000   0.79941632    -3.190301    885.76869  0.063963655  0.064012979            2 
 1155000   0.78743276   -3.1797246    887.16362  0.064008919  0.063980703            6 
 1156000   0.78220763   -3.1957682    886.15248  0.063880657  0.063948716           10 
 1157000   0.79377943   -3.1984682    883.44405   0.06363037  0.063916214            5 
 1158000   0.78281462    -3.209389     885.7788  0.063743437  0.063884043            3 
 1159000   0.77463711   -3.1967928    888.08861  0.063854516   0.06385189            6 
 1160000   0.78575767   -3.2103059     888.0183  0.063794418  0.063820013            4 
 1161000   0.78416879   -3.2105591    885.71039  0.063573815  0.063787989            5 
 1162000   0.80577544   -3.2117008     888.5835   0.06372515  0.063755908            6 
 1163000   0.78610632   -3.2140419    886.09597  0.063492116  0.063723961            5 
 1164000   0.77751076   -3.1925447    890.23291  0.063733742  0.063692182            4 
 1165000   0.79199304   -3.1929601    889.48354  0.063625432  0.063660499            3 
 1166000   0.79554713   -3.1947251    888.60568  0.063508124  0.063628634            4 
 1167000   0.78290349   -3.2073146    888.68177  0.063459138  0.063596586            1 
 1168000   0.77540743   -3.1909903    890.95698  0.063567136  0.063564432            5 
 1169000   0.78608745   -3.2139797    889.28314  0.063393437  0.063532147            5 
 1170000   0.79205242   -3.2260403    889.69116  0.063368316  0.063500067            3 
 1171000   0.77212478   -3.2085388    892.23529  0.063495253  0.063468087            5 
 1172000   0.79384291   -3.1973988    894.01246  0.063567439  0.063436188            3 
 1173000   0.77798281   -3.1997614    893.50537  0.063477222  0.063404492            4 
 1174000   0.77753888   -3.2080962    895.86891  0.063590922  0.063372856           12 
 1175000   0.79412277   -3.1863482    893.95285  0.063400912  0.063341404            4 
 1176000   0.79079069   -3.2292327    894.57856  0.063391338  0.063309891            2 
 1177000   0.80130291   -3.1875406    892.88053  0.063217256  0.063278304            3 
 1178000    0.7762067   -3.2026839    892.52315   0.06313831  0.063246728            4 
 1179000   0.77663131   -3.2059351    890.05377  0.062910218  0.063214794            9 
 1180000   0.79297765   -3.1950878    894.33616  0.063159333  0.063182939            7 
 1181000   0.78467804   -3.2159294     896.1477  0.063233679  0.063151045            8 
 1182000   0.79423217    -3.203649    894.24908  0.063046326   0.06311935            5 
 1183000   0.76998731   -3.2182476     895.0903  0.063052289  0.063087665            4 
 1184000   0.76892836   -3.1841083    896.85679  0.063123367  0.063056052            5 
 1185000    0.7855535   -3.2110691    897.43727  0.063110919  0.063024271            3 
 1186000   0.78574556   -3.2173043    894.60515   0.06285871  0.062992293            3 
 1187000   0.78128089   -3.2308876    893.52565  0.062729967  0.062960335            3 
 1188000   0.79844841    -3.222332    893.96327  0.062707861  0.062927997            2 
 1189000   0.77539822   -3.2075844    898.39475   0.06296571  0.062895772            8 
 1190000   0.79112775   -3.2302255    895.30828  0.062696658  0.062863611            3 
 1191000   0.77734619   -3.2135354    894.14575  0.062562675  0.062831248            3 
 1192000   0.78795401   -3.2302024     894.2887  0.062520183  0.062798911            4 
 1193000   0.79076473   -3.2255634    895.58518  0.062558339  0.062766212            7 
 1194000   0.77610832   -3.2307927    896.96243  0.062602068  0.062733611            3 
 1195000   0.78618133   -3.2080823    895.38914  0.062439968  0.062700839            5 
 1196000   0.77061121   -3.2225655    895.80585  0.062416795  0.062668247            9 
 1197000   0.78263312   -3.2059315    897.13264   0.06245702  0.062635569            3 
 1198000   0.77465732   -3.2117849    895.60243  0.062298444  0.062603073            5 
 1199000   0.78651784   -3.2450541    893.02763  0.062067531  0.062570103            6 
 1200000    0.7813783   -3.2141203    897.46368  0.062323867   0.06253713            3 
 1201000   0.78126011   -3.2460071    894.83092  0.062089295  0.062504052            7 
 1202000   0.77323688   -3.2476426    896.41296  0.062147321    0.0624713            6 
 1203000   0.75739132   -3.2223518    899.22395  0.062290382  0.062438195            3 
 1204000   0.77101063   -3.2407034    897.72025  0.062134569  0.062405016            3 
 1205000   0.77355915   -3.2180855    900.20516  0.062254852  0.062372424            4 
 1206000   0.77681598   -3.2365663    896.60563  0.061954507  0.062339299            6 
 1207000   0.76808475   -3.2547255    897.95572   0.06199639  0.062306461            3 
 1208000   0.78282694   -3.2524783    899.89728  0.062079007  0.062273832            5 
 1209000   0.76622364    -3.222545    901.60073  0.062145074  0.062240905            3 
 1210000   0.76799367   -3.2368242     901.5088  0.062087383  0.062207889            4 
 1211000   0.78173024   -3.2180415    902.69734  0.062117901  0.062175241            4 
 1212000   0.76740787   -3.2424428    898.73741  0.061794376  0.062142695            3 
 1213000   0.77897881   -3.2494516    900.69049   0.06187761  0.062109816            2 
 1214000   0.76905725   -3.2549062    902.50199  0.061950988  0.062077138            5 
 1215000   0.77835187   -3.2206897    902.75702  0.061917491  0.062045124            5 
 1216000   0.76943521   -3.2375487     904.0702  0.061956565   0.06201344            2 
 1217000    0.7696944   -3.2410318    903.70196  0.061880441  0.061981195            3 
 1218000   0.77026938   -3.2373414     902.5809  0.061752935  0.061949027            4 
 1219000   0.76113925   -3.2412859    904.91012  0.061861507  0.061917251            2 
 1220000   0.78162627   -3.2194349    907.64028  0.061997287  0.061885592            6 
 1221000   0.76073335   -3.2328348    910.07538  0.062112706  0.061854074            3 
 1222000   0.78333145   -3.2463447    907.35306  0.061876231  0.061822616            6 
 1223000   0.76671013   -3.2351975    907.40148  0.061828937  0.061791011            3 
 1224000   0.75315786   -3.2187444    908.74453  0.061869861  0.061759795            4 
 1225000   0.78133378   -3.2562477    912.06271  0.062045082  0.061728426           10 
 1226000   0.76281079   -3.2458488    908.55876  0.061756305  0.061697074            3 
 1227000   0.73971384   -3.2355501     907.7598  0.061651712  0.061665925            8 
 1228000   0.76546185   -3.2365744    909.95928  0.061750766  0.061634693            3 
 1229000   0.77701567   -3.2466129    911.70368  0.061818801    0.0616033            5 
 1230000   0.77242091   -3.2548631    911.76677  0.061772817  0.061572381            2 
 1231000   0.75655926      -3.2234    910.12915  0.061611775  0.061541245            5 
 1232000   0.77075782   -3.2461314    909.40193  0.061512576  0.061510113            5 
 1233000    0.7582102   -3.2377947    911.37467  0.061596017  0.061478768            4 
 1234000    0.7674707   -3.2610492    908.79398  0.061371825  0.061447184           10 
 1235000    0.7764534   -3.2449688     910.2244  0.061418651  0.061415963            3 
 1236000   0.75653376   -3.2457158    912.65802  0.061533038  0.061384796           10 
 1237000   0.76465441     -3.24334    912.63953  0.061482049  0.061353491            3 
 1238000   0.76740541   -3.2723793    914.47534   0.06155596  0.061322253            6 
 1239000   0.75586503   -3.2449354    914.46713  0.061505726  0.061291579            9 
 1240000   0.74830041   -3.2296677     911.8418  0.061279691  0.061260669            2 
 1241000   0.76435006   -3.2558159    913.54479  0.061344667  0.061229797            4 
 1242000   0.75475878   -3.2368366    914.13908   0.06133515  0.061198861            6 
 1243000   0.76320941   -3.2407256    915.45297  0.061373892  0.061168172            6 
 1244000   0.75038531   -3.2486232    915.55604   0.06133146  0.061137434           10 
 1245000   0.73960224   -3.2722831    915.71748  0.061293004  0.061106574            6 
 1246000   0.75246056   -3.2598233    916.46843  0.061294036  0.061075651            5 
 1247000   0.74336393   -3.2639724    913.97041  0.061077948   0.06104501            5 
 1248000   0.76449405   -3.2585477    917.44287  0.061260876  0.061014255            3 
 1249000   0.74776529   -3.2536794    919.28979  0.061335054  0.060983472            6 
 1250000   0.75748154   -3.2537526    920.41291   0.06136086  0.060952918            3 
 1251000   0.75008313   -3.2440566    921.52736  0.061386048   0.06092282            3 
 1252000   0.75109064   -3.2537981    920.53703  0.061271101  0.060892549            3 
 1253000   0.73992673   -3.2301215    920.42024  0.061214435  0.060861851            6 
 1254000   0.76574866   -3.2664626     916.5397  0.060907742  0.060831267            4 
 1255000   0.76045717   -3.2433559    920.91547  0.061149766  0.060800646            6 
 1256000   0.73261605   -3.2636008    917.75681  0.060891508  0.060770104            4 
 1257000   0.74806777   -3.2538249     919.6688  0.060969822  0.060739465            7 
 1258000   0.74904438   -3.2738967    920.94418  0.061005841  0.060709035            2 
 1259000   0.73968621    -3.284275    922.18318  0.061039395  0.060678399            6 
 1260000   0.75311839   -3.2861972    919.44231  0.060809677  0.060647963            4 
 1261000   0.76230452   -3.2477872    923.34089  0.061019091  0.060617549            2 
 1262000   0.75106329   -3.2746235    921.86799  0.060873481  0.060587321            5 
 1263000   0.74935737   -3.2450944    923.38031  0.060925067  0.060556899            6 
 1264000   0.74795644   -3.2836122    923.73894  0.060900511   0.06052662           12 
 1265000   0.74899259   -3.2509366    925.86918    0.0609927  0.060496265            7 
 1266000    0.7588653   -3.2578198    921.87189  0.060681404   0.06046585            7 
 1267000   0.75501091   -3.2504226    927.64918  0.061013495  0.060435475            3 
 1268000    0.7512624   -3.2809972    924.60562  0.060765353  0.060405144            3 
 1269000    0.7441497   -3.2781853    924.83317  0.060732412  0.060374413            5 
 1270000   0.74979646   -3.2859105    922.18471  0.060510808  0.060343697            8 
 1271000   0.74307013   -3.2719209     927.2498  0.060795292  0.060313187            3 
 1272000   0.73836417    -3.266056    923.89993  0.060528035  0.060282745            7 
 1273000   0.74236046   -3.2859309     925.3374  0.060574588  0.060252348            3 
 1274000   0.76221277   -3.2858669    923.64858  0.060416574  0.060222407            5 
 1275000   0.74738209   -3.2334014    931.28008  0.060867979  0.060192449            7 
 1276000   0.73570346   -3.3042308    926.26165  0.060492532  0.060163094            3 
 1277000   0.73386226   -3.2717233    926.41568  0.060455213  0.060133692            8 
 1278000   0.74120619   -3.2868438    928.81036  0.060564056  0.060103937            3 
 1279000   0.74507726    -3.263144    929.59461  0.060567801  0.060074171            8 
 1280000   0.72618339   -3.2717276    929.02585  0.060483454    0.0600447            3 
 1281000   0.73618483   -3.2704758    931.23553  0.060579985  0.060015375            5 
 1282000   0.74372361   -3.2602939    931.78795  0.060568639  0.059985911            2 
 1283000   0.74515132   -3.2696912    930.80767   0.06045776  0.059956421            8 
 1284000   0.75049511    -3.285403    930.48342   0.06038963  0.059927034            3 
 1285000   0.73759359   -3.2600099    934.41866  0.060597838  0.059898067            4 
 1286000   0.74430592   -3.2818426    932.26951  0.060411451  0.059868809            5 
 1287000   0.76480086    -3.285658    934.79806  0.060528235  0.059839776            3 
 1288000   0.75047716   -3.2860991    933.14276  0.060374144  0.059810837            6 
 1289000   0.74542587   -3.2761567    931.06633  0.060193065  0.059781644            3 
 1290000   0.72408695   -3.2979325    931.79782  0.060193657  0.059752539            6 
 1291000   0.75496615   -3.2803379    932.96022  0.060222064  0.059722968            5 
 1292000   0.73969825   -3.2846657    939.02417  0.060566574  0.059693835            3 
 1293000   0.73584185   -3.2746733    933.88947  0.060188803  0.059664979            4 
 1294000   0.73607561    -3.285794    932.52349  0.060054321  0.059636004            7 
 1295000   0.73340948   -3.2898232    933.69426  0.060083286  0.059606985            5 
 1296000   0.75754803   -3.2630624    933.03043   0.05999424  0.059577612            7 
 1297000   0.71771096    -3.294459    931.45286  0.059846624  0.059548553            4 
 1298000   0.74250338   -3.2950643    936.37046  0.060116234  0.059519603            4 
 1299000   0.75016391   -3.2881182    937.95259  0.060171452   0.05949067            4 
 1300000   0.74249712    -3.306725    937.00387   0.06006435  0.059461825            6 
 1301000   0.73568443    -3.291583    939.41955  0.060172915  0.059432962            5 
 1302000   0.74976395   -3.2757019     940.8861  0.060220565  0.059404013           10 
 1303000   0.74858077   -3.3038055    936.75811  0.059910342  0.059375155           10 
 1304000    0.7281127   -3.2906859    940.08338  0.060076903  0.059346565            5 
 1305000   0.73039926   -3.2909991    938.96739  0.059959604  0.059317572            3 
 1306000    0.7408075   -3.2772029    938.84219  0.059905704    0.0592889           13 
 1307000   0.71691177    -3.308354    939.68448  0.059913573  0.059260135            2 
 1308000   0.72407746   -3.2847636    940.35448  0.059910454  0.059231489            5 
 1309000   0.72886152   -3.3007276    938.77115  0.059763888   0.05920291            3 
 1310000   0.75478324   -3.2633489    940.70974  0.059841587  0.059174258            7 
 1311000   0.73419753   -3.3153562    939.09589  0.059693357  0.059145632            7 
 1312000   0.73145334   -3.2841336    941.27192  0.059786072   0.05911679            4 
 1313000   0.71756203     -3.30444     940.1099  0.059666787  0.059088292           10 
 1314000   0.70928616   -3.3210191    938.85526   0.05954181   0.05905942            8 
 1315000   0.72559353   -3.2652919    941.24154  0.059647753  0.059030905            2 
 1316000   0.73849873   -3.2988741    944.42173  0.059803807  0.059002354            7 
 1317000   0.73275269   -3.3043865    939.73615  0.059461918  0.058973998           12 
 1318000   0.70851176   -3.3127462    939.60694  0.059408633  0.058945384            1 
 1319000   0.71880817   -3.3036701    942.83076  0.059567271  0.058916866            7 
 1320000   0.72698092   -3.2840185    941.27337  0.059423824   0.05888819            3 
 1321000    0.7199505   -3.2908719    945.04874  0.059617003  0.058859491            8 
 1322000   0.72841928   -3.3113142    943.98389  0.059504784  0.058831294            9 
 1323000   0.72354836   -3.3193208    944.82562  0.059512826  0.058802571            6 
 1324000   0.71890875   -3.3298782    941.36312  0.059249945   0.05877389            4 
 1325000    0.7324962   -3.2961649    944.28264  0.059388845  0.058745118            8 
 1326000   0.73028296   -3.3041625    943.55068  0.059298057  0.058716453            3 
 1327000   0.71197507   -3.3141115    944.82955  0.059333682  0.058687794            8 
 1328000    0.7453594   -3.3025475    948.00883  0.059488506  0.058659136            8 
 1329000   0.72387058   -3.3057727     945.4558   0.05928366  0.058630387            7 
 1330000     0.722079    -3.317865    947.44228  0.059363552  0.058601429            6 
 1331000   0.73733989   -3.3217016     945.2759  0.059183314  0.058572571           11 
 1332000   0.73571807   -3.2940235    946.47879  0.059214139  0.058544083            6 
 1333000   0.71769946   -3.3019448    941.67059  0.058869129  0.058515253            4 
 1334000   0.73233707   -3.3085657    943.88368  0.058963249  0.058486252            3 
 1335000   0.72004029   -3.2964193    947.50335  0.059145028  0.058457293            4 
 1336000   0.70928591   -3.3266111    947.12285  0.059077024  0.058428448            3 
 1337000   0.71696403   -3.3181909    945.52803  0.058933435  0.058399708            6 
 1338000   0.72318665   -3.3276221    947.67305  0.059022985  0.058370895            1 
 1339000   0.71054599   -3.3075055    948.48106  0.059029192  0.058342171            5 
 1340000   0.71182474   -3.3087804    947.40691   0.05891834  0.058313465            4 
 1341000   0.72033727    -3.309183    947.07386  0.058853707  0.058284557            6 
 1342000   0.72956487   -3.3148613    944.93432  0.058676995  0.058255713            6 
 1343000   0.71770014    -3.311167    948.27629  0.058840673  0.058226772            4 
 1344000   0.72576479    -3.314117    947.50411  0.058749015  0.058197899            7 
 1345000   0.72188946   -3.2963662    948.75858   0.05878306   0.05816903            3 
 1346000   0.72688176   -3.3229134     947.9496  0.058689302  0.058140482            6 
 1347000   0.71582509     -3.32217     948.7479  0.058695119  0.058111755            5 
 1348000   0.70775845   -3.3048824    949.49756  0.058697921  0.058082989            7 
 1349000   0.70353496    -3.326725    946.24156  0.058453272  0.058054013            5 
 1350000   0.71801135   -3.3257035     948.4856  0.058548494  0.058024891            7 
 1351000   0.73865123   -3.3290526     946.9192  0.058408537   0.05799576           10 
 1352000   0.70627779    -3.336745    945.76107  0.058293951  0.057966607            4 
 1353000   0.71226253   -3.3245247     949.5567  0.058484645  0.057937571            5 
 1354000   0.69708042   -3.3489561    946.01808  0.058223663  0.057908531            6 
 1355000   0.71937754   -3.3101828    950.90555  0.058481276  0.057879226            6 
 1356000   0.72634842   -3.3166242    949.95095  0.058379483   0.05784989            4 
 1357000   0.73292839   -3.3131758    952.18394   0.05847359  0.057820598            3 
 1358000   0.72157674   -3.2983629    953.37406  0.058503563  0.057791658            8 
 1359000   0.70886093   -3.3390508    948.92463  0.058187677  0.057762548            5 
 1360000   0.71586538    -3.318718    951.54172  0.058305253  0.057733491            4 
 1361000   0.70819957   -3.3205639     954.8557  0.058465326  0.057704592            6 
 1362000   0.69981945   -3.3027587    952.00643  0.058248068  0.057675306            3 
 1363000   0.71842767   -3.3423221     950.6794  0.058124199  0.057646223            5 
 1364000   0.70966253   -3.3116302    950.50509  0.058070937  0.057617207            8 
 1365000   0.71902782   -3.3211281    955.73144  0.058347463  0.057588492            6 
 1366000   0.71668201   -3.3392887    954.54575  0.058232415  0.057559998            3 
 1367000   0.71096103   -3.3272119    956.39251  0.058302396  0.057531247            3 
 1368000   0.72402859   -3.3175861    956.66816  0.058276569  0.057502504            4 
 1369000    0.7043525   -3.3208734    954.26108  0.058087477  0.057473787            4 
 1370000   0.69460782   -3.3231115    954.69673  0.058071577  0.057444923            4 
 1371000   0.71405478   -3.3199063    952.77334  0.057912311  0.057415979            9 
 1372000   0.69702185   -3.3297379    953.85835  0.057936003  0.057386919            5 
 1373000   0.71639156   -3.3128502    953.89798  0.057896211  0.057357667            4 
 1374000   0.69594833   -3.3349503     956.3533   0.05800299  0.057328515            2 
 1375000   0.70426962   -3.3375799     952.4797  0.057726042  0.057299382            4 
 1376000   0.71212878   -3.3380314    957.15024  0.057966948  0.057270376            5 
 1377000   0.69554217   -3.3339383    956.00019  0.057855252  0.057241635            8 
 1378000   0.69633252   -3.3368651    955.12191  0.057760154  0.057212532            7 
 1379000   0.69169668   -3.3274175    958.05872  0.057895741  0.057183561            7 
 1380000   0.69395433   -3.3375799    956.28171   0.05774648  0.057154472            9 
 1381000    0.7062563   -3.3477823    956.86789  0.057740037  0.057125507            3 
 1382000   0.70058545   -3.3536393    957.96596  0.057764469  0.057096535            3 
 1383000   0.70813279   -3.3187073    961.03069  0.057907368   0.05706762            6 
 1384000    0.6913927   -3.3113734    957.36353  0.057644721  0.057038943            3 
 1385000   0.70253131   -3.3306709     958.7324  0.057685463  0.057010133            7 
 1386000   0.69598441   -3.3392737    957.14264  0.057548259  0.056981222            7 
 1387000   0.69828069   -3.3361029    956.80458  0.057486456  0.056952335            9 
 1388000   0.71522419   -3.3446266    956.85677  0.057448173  0.056923234            7 
 1389000   0.68288584   -3.3422426    957.51937  0.057446567   0.05689432            5 
 1390000   0.69536317   -3.3266527    958.96134  0.057491687  0.056865637            7 
 1391000   0.70691349   -3.3445915    956.20862  0.057285444   0.05683666            3 
 1392000   0.70574814   -3.3409166    960.13956  0.057479619  0.056807703            5 
 1393000   0.71233108   -3.3412148    958.44138  0.057336766  0.056778746            5 
 1394000   0.69290906   -3.3440922    957.96655   0.05726725  0.056749873            4 
 1395000   0.68518488   -3.3371595    957.07379  0.057172867  0.056721305            4 
 1396000   0.69719642   -3.3528374    961.64029  0.057404506  0.056692712            5 
 1397000   0.70342929   -3.3637238    962.21192  0.057397514  0.056664067            5 
 1398000   0.69085362   -3.3373661     962.1542  0.057353016  0.056635533            7 
 1399000   0.67784956   -3.3323604    960.17357  0.057194042   0.05660731            2 
 1400000   0.69562763   -3.3579313    961.20165  0.057214384  0.056578841            3 
 1401000   0.70899702   -3.3197314    961.43571  0.057187468  0.056550346            4 
 1402000   0.68757757   -3.3342447      965.065  0.057362399  0.056521952            8 
 1403000    0.6930151   -3.3475934     961.4907  0.057109212  0.056493577            5 
 1404000   0.68503934   -3.3439309    963.64328  0.057196301  0.056464962            7 
 1405000    0.6910819   -3.3560681    962.62972  0.057095476  0.056436678            5 
 1406000   0.68619293   -3.3501008    965.80474   0.05724305  0.056408533            4 
 1407000   0.68312943   -3.3583622    965.28249  0.057171434   0.05638053            6 
 1408000   0.67658838   -3.3765623    964.39708  0.057078426   0.05635233            3 
 1409000   0.69271709   -3.3693475    964.85955  0.057065268  0.056324161            7 
 1410000   0.69507394    -3.346808     966.0936   0.05709773  0.056296106            4 
 1411000    0.7095063   -3.3483807    964.58597  0.056968224  0.056268148            5 
 1412000   0.67528362   -3.3479507    964.33971  0.056913345  0.056240111            6 
 1413000   0.68737889   -3.3561449    966.24555  0.056985465  0.056211973            4 
 1414000    0.6687113   -3.3582192    965.14923  0.056880553  0.056183781            5 
 1415000   0.68949952   -3.3594661    964.31911  0.056791467  0.056155486            3 
 1416000   0.68484519   -3.3657083    965.20128  0.056803277  0.056127392            4 
 1417000   0.70053924   -3.3551732    967.03893  0.056871262  0.056099365            3 
 1418000   0.67822071   -3.3553135    967.90368  0.056881975  0.056071313            4 
 1419000   0.68678413   -3.3637631    964.72511  0.056655222  0.056043254            4 
 1420000   0.69361383    -3.366778    966.70001  0.056731221   0.05601513            9 
 1421000   0.68180723     -3.35417    968.91576  0.056821238  0.055987119            9 
 1422000   0.69291461   -3.3902775    968.39745  0.056750906  0.055958962            6 
 1423000   0.70217064   -3.3743074    969.36068  0.056767433  0.055930633            8 
 1424000     0.687777   -3.3499514    968.93529  0.056702674  0.055902219            7 
 1425000   0.69335092   -3.3728049     967.2517  0.056564427  0.055874363            4 
 1426000   0.67868003   -3.3444179    971.74207  0.056787171  0.055846408            5 
 1427000    0.6921398   -3.3868769    968.24029  0.056542881  0.055818509            6 
 1428000   0.68688719   -3.3597775    969.82074  0.056595515  0.055790302            7 
 1429000   0.68521117   -3.3536245    970.78719  0.056612269  0.055762197            4 
 1430000   0.69835948    -3.355855     970.5178  0.056556981  0.055734019            2 
 1431000   0.69190014   -3.3760249    967.73167   0.05635521  0.055705732            8 
 1432000   0.67983465   -3.3698853    970.10998  0.056454259  0.055677558            3 
 1433000   0.68517721   -3.3371579    968.49703  0.056321065  0.055649484            5 
 1434000   0.68165476   -3.3515292    969.89523  0.056363042  0.055621327            6 
 1435000   0.68076125   -3.3519414    970.23659  0.056343589  0.055593305            6 
 1436000   0.68284461   -3.3669125    971.27457  0.056364587  0.055565455            5 
 1437000   0.68182598   -3.3755832    973.29722  0.056442659  0.055537593            5 
 1438000   0.67088539   -3.3541795    972.01374   0.05632903  0.055509669            8 
 1439000   0.67264521   -3.3689548    968.30132  0.056074897   0.05548169            3 
 1440000   0.68230246   -3.3566865     969.0635  0.056080063  0.055453614            8 
 1441000   0.69231626   -3.3761743    973.83189  0.056316903  0.055425505            9 
 1442000   0.68538719   -3.3738657    970.27038  0.056072029  0.055397328            7 
 1443000   0.67100015   -3.3602991    978.05547   0.05648276  0.055369411           18 
 1444000   0.67233641   -3.3728721    971.72114   0.05607809  0.055341564            5 
 1445000   0.69251296   -3.3743359     972.9566  0.056110531  0.055313295            6 
 1446000   0.67941367   -3.3866412    971.92442  0.056012242  0.055285273            8 
 1447000   0.67047251   -3.3815367    972.14227  0.055986079  0.055257127            9 
 1448000   0.66915467   -3.3736463    974.17106  0.056064172  0.055228928            6 
 1449000    0.6688908   -3.3836296    972.69732  0.055940725  0.055200803            8 
 1450000   0.68928389   -3.3687185    971.91244  0.055857037  0.055172719            4 
 1451000   0.67864364   -3.3921219    973.78043  0.055925823    0.0551446            5 
 1452000   0.68510219   -3.3791359    973.72085  0.055883887  0.055116507            4 
 1453000   0.67061535   -3.3814311    974.74205  0.055903995  0.055088633            7 
 1454000   0.67406249   -3.4070377    973.28679  0.055782141  0.055060449            6 
 1455000     0.684774   -3.3786722    973.69967   0.05576745  0.055032361            4 
 1456000   0.67066839   -3.3797873    971.14772  0.055583089  0.055004479            4 
 1457000   0.67418881   -3.3941985     973.7559  0.055694115  0.054976199            7 
 1458000    0.6679981   -3.3841434    972.66316  0.055593459  0.054947905            7 
 1459000   0.67957197   -3.3774679    974.72462  0.055673099  0.054919679            5 
 1460000    0.6642281   -3.4095772    971.42768  0.055446785   0.05489135            4 
 1461000   0.67301583   -3.3716521     974.7706   0.05559951  0.054863104            6 
 1462000   0.67283033   -3.3806017    975.23157  0.055587755  0.054835065            5 
 1463000   0.67745016   -3.4003735    977.70944    0.0556909  0.054806978            9 
 1464000   0.67974854   -3.3862801    977.14594  0.055620785  0.054778781            9 
 1465000   0.67608259   -3.4007299    976.01652  0.055518573  0.054750952           15 
 1466000   0.66000988   -3.4125394    978.14056  0.055601442   0.05472301            6 
 1467000   0.66428225   -3.3879452    979.57578  0.055645068  0.054695074           12 
 1468000   0.66091359    -3.381117    979.11267  0.055580874  0.054667514            4 
 1469000   0.67234472   -3.3899302    976.56912  0.055398748  0.054639793            5 
 1470000   0.67393928   -3.3944959    979.93704  0.055551986  0.054612186            7 
 1471000   0.65927088   -3.3759819    980.22528   0.05553055  0.054584546           14 
 1472000   0.66840907   -3.3733212    980.04178  0.055482438   0.05455705           15 
 1473000    0.6883701   -3.4073576    978.52485  0.055358953  0.054529633            3 
 1474000   0.66433529   -3.3792134       981.69  0.055500339  0.054502187            5 
 1475000   0.65762553    -3.399689    980.01275  0.055367952  0.054474754            9 
 1476000   0.66879201   -3.3903841    980.31268  0.055347374  0.054447345            3 
 1477000   0.65811857   -3.4014507    979.88877  0.055285984  0.054419664           21 
 1478000   0.67151267   -3.3889565    981.78112  0.055355273  0.054392051            5 
 1479000   0.67889643   -3.3836844    977.89995  0.055099163  0.054364509            5 
 1480000    0.6582858   -3.4093079    978.35064  0.055087311  0.054336798            8 
 1481000   0.64878884   -3.3927856    979.40802  0.055109612  0.054308855            6 
 1482000   0.66535686   -3.3912844    979.71756  0.055089832  0.054281154           10 
 1483000    0.6692378   -3.3790855    979.75425  0.055054745  0.054253235            4 
 1484000   0.66505869   -3.4002184    978.95208  0.054972601  0.054225411            5 
 1485000   0.65501872   -3.3774006    981.09322  0.055055736  0.054197826            9 
 1486000   0.65166473   -3.4127078    981.09927  0.055019026  0.054169772            8 
 1487000    0.6641548   -3.3835826    980.90237  0.054970992  0.054142135            3 
 1488000   0.67710191   -3.4183022    981.17016  0.054949045  0.054114314            5 
 1489000   0.66320077   -3.4066118    980.69147  0.054885352  0.054086722            4 
 1490000   0.65266948   -3.4024263    982.54434  0.054952144  0.054059172            4 
 1491000     0.658228   -3.4022044    983.05981  0.054944099  0.054031737            5 
 1492000   0.65722972   -3.3956527    981.31388  0.054809756  0.054003959           10 
 1493000   0.66891216    -3.384375     980.6564  0.054736348  0.053976223           13 
 1494000   0.65971102   -3.3863195    984.77357   0.05492936   0.05394865            7 
 1495000   0.66196639   -3.3883884    982.14089  0.054745869  0.053921211            6 
 1496000   0.66875914   -3.4235862    980.26426  0.054604738  0.053893683            9 
 1497000    0.6620589   -3.4199887    981.77145  0.054652163  0.053866135            5 
 1498000   0.64063844   -3.4187074    978.74426  0.054447278  0.053838376           13 
 1499000   0.65625149   -3.4110002    982.23281  0.054604893  0.053810648            6 
 1500000   0.65938536   -3.4317834    982.01111  0.054556173  0.053782973           10 
 1501000   0.65244719   -3.4336654    980.87036  0.054456493  0.053755194            6 
 1502000   0.64817369   -3.4072609     986.0663  0.054708516  0.053727459            7 
 1503000   0.64217365   -3.4133976    981.60335   0.05442467  0.053699671            4 
 1504000   0.65350463   -3.4137409    984.52313  0.054550262   0.05367191            5 
 1505000   0.66455405   -3.4345506    987.09033  0.054656164  0.053644202            5 
 1506000   0.66342856   -3.4275096    984.97364  0.054502747  0.053616852            9 
 1507000   0.64188534   -3.4173671    982.27194  0.054317183  0.053589359            6 
 1508000   0.64306425   -3.4203735    986.21288  0.054498943  0.053561921            3 
 1509000   0.65369341   -3.4245381    986.00536  0.054451368  0.053534314            4 
 1510000   0.65329885     -3.40693    984.79288  0.054348393  0.053506788            6 
 1511000   0.66100706   -3.4192689    985.75741  0.054365619  0.053479251            4 
 1512000   0.66083513   -3.3992074    984.26413  0.054247361  0.053451926            9 
 1513000   0.64732843   -3.4440319    989.54396  0.054502311  0.053424666           16 
 1514000   0.64323765   -3.4314591    984.69011  0.054199148  0.053397226            7 
 1515000   0.64927958   -3.4110824    987.48119  0.054316897  0.053370093            7 
 1516000   0.63405361   -3.4102968    985.43532  0.054168608  0.053342907            5 
 1517000   0.65509971   -3.4382379    985.98742  0.054163229  0.053315549           10 
 1518000   0.65360523    -3.420851    987.57833  0.054214884  0.053288024            6 
 1519000   0.65603686   -3.4263169    989.18706  0.054267449  0.053260629            4 
 1520000   0.64453102   -3.4093204     988.4143   0.05418938  0.053233446            3 
 1521000   0.64434142   -3.4303932    992.09484  0.054355405  0.053206211            7 
 1522000   0.64604529   -3.4532394    986.87255  0.054033758   0.05317899            6 
 1523000   0.65040806   -3.4537886    988.35311   0.05407929  0.053151735            8 
 1524000   0.63982358   -3.4303568    990.97421  0.054187129  0.053124689            6 
 1525000    0.6545504   -3.4320298    988.37806   0.05400973  0.053097649            6 
 1526000   0.65017256   -3.4285425    988.19182  0.053964166  0.053070679           10 
 1527000   0.63963124   -3.4264631    989.52304  0.054001476  0.053043693            6 
 1528000   0.64077695   -3.4234943    991.26099  0.054060918  0.053016641            5 
 1529000    0.6533013   -3.4291282    990.47793  0.053982883   0.05298965            4 
 1530000   0.64769386   -3.4204493    993.80533   0.05412883  0.052962814            9 
 1531000   0.63985545   -3.4268271    990.40882  0.053908601  0.052936165            9 
 1532000   0.64069277   -3.4060964    993.89487  0.054063037  0.052909794            6 
 1533000   0.63999081   -3.4288545    991.40445  0.053892392  0.052883194            6 
 1534000     0.654928   -3.4245504    996.20304   0.05411794  0.052856838            9 
 1535000   0.64250796   -3.4363043    990.63894  0.053780616  0.052830576            4 
 1536000   0.63948513   -3.4235808     994.6001  0.053960509  0.052803993            6 
 1537000   0.63954406   -3.4474361    995.57934  0.053978494  0.052777544           11 
 1538000   0.62342304   -3.4568061    996.18924  0.053976443  0.052750876           13 
 1539000   0.64811061   -3.4571564    994.12927  0.053829828  0.052724254            8 
 1540000   0.64153589   -3.4466301    994.21653  0.053799596  0.052697667           11 
 1541000   0.64140373   -3.4266067    992.03671  0.053646804  0.052671206            9 
 1542000   0.63706265   -3.4343881    995.26124  0.053786276  0.052644505            8 
 1543000   0.63628237   -3.4400258    995.65722  0.053772803  0.052617958            6 
 1544000    0.6369423   -3.4291157    994.29773  0.053664601  0.052591376            5 
 1545000   0.63523081   -3.4320341    997.33226  0.053793542  0.052564725            6 
 1546000   0.63298363   -3.4456381    994.52498  0.053607427  0.052538041            4 
 1547000   0.63938785    -3.449412     993.8402  0.053535887  0.052511378           11 
 1548000   0.64368577   -3.4410946    992.72444  0.053441238  0.052484821            4 
 1549000   0.62676429   -3.4567147    994.05069  0.053478088  0.052458143           11 
 1550000   0.63147499   -3.4383253     995.5394  0.053523624  0.052431484            9 
 1551000   0.63974197   -3.4489942    995.95905  0.053511662  0.052404757            7 
 1552000   0.63291127   -3.4571287     992.8119  0.053308199    0.0523781            6 
 1553000   0.62268299   -3.4395684      998.743  0.053592133  0.052351821            6 
 1554000   0.63405391   -3.4689456    994.20954   0.05331454  0.052325071            8 
 1555000   0.63746129   -3.4554394    995.00529  0.053322899  0.052298417            6 
 1556000   0.63699533    -3.431022    996.48028  0.053367624  0.052271715            9 
 1557000   0.62506924   -3.4434126    998.86269  0.053460859  0.052245279            8 
 1558000   0.63671325    -3.450814    998.54559  0.053409584  0.052218677            4 
 1559000   0.62564836    -3.451661    997.75371  0.053332997  0.052192098            8 
 1560000   0.63465626   -3.4510124    996.03433  0.053206962  0.052165466            8 
 1561000   0.62940048    -3.449509     996.5896   0.05320252  0.052138954            8 
 1562000   0.61837065   -3.4504244    998.38296  0.053264136  0.052112209            7 
 1563000   0.62954457   -3.4699736    997.86548  0.053202468  0.052085638           15 
 1564000   0.62951399   -3.4540612    997.71922  0.053160658  0.052058978            8 
 1565000    0.6296584   -3.4443461    999.31784  0.053211812  0.052032308           11 
 1566000   0.61808443   -3.4514254    995.62815  0.052981489   0.05200565           16 
 1567000   0.63662613   -3.4564651    996.59817  0.052999264  0.051979025            7 
 1568000   0.62251013   -3.4720988    996.64965    0.0529682  0.051952484           16 
 1569000   0.62117349   -3.4359052    997.77347   0.05299413  0.051925672            4 
 1570000   0.62432222   -3.4649272    997.73767  0.052958475  0.051899052           12 
 1571000   0.63303049   -3.4437576    997.19787  0.052896131  0.051872466            6 
 1572000   0.63585622   -3.4746231    996.49996  0.052825486  0.051845703            5 
 1573000   0.62271245   -3.4409291    998.55191   0.05290061   0.05181915            8 
 1574000   0.60885053   -3.4496873    999.72297  0.052929001  0.051792653            6 
 1575000   0.63741943   -3.4521373     996.7299  0.052737032  0.051766071            7 
 1576000   0.61639845   -3.4450886    1000.3975  0.052897499  0.051739535            6 
 1577000   0.61205107   -3.4481923    998.54893  0.052766272  0.051712843            5 
 1578000   0.63861368   -3.4606333    999.62821  0.052789829  0.051686358           10 
 1579000   0.61963376   -3.4636824    998.58833  0.052701516  0.051659727            9 
 1580000   0.63234502   -3.4442579    999.32832   0.05270719  0.051633232            5 
 1581000   0.62634819   -3.4775407    1000.3185  0.052726046  0.051606496            7 
 1582000   0.60899445   -3.4671193    996.92415  0.052513914  0.051579645            3 
 1583000   0.62902943   -3.4751407    997.49863  0.052510983  0.051552822            4 
 1584000   0.62257705   -3.4525889    998.65803  0.052538828  0.051526084            6 
 1585000   0.61870659   -3.4848368    998.17192  0.052480122  0.051499224            8 
 1586000   0.61694177    -3.494274    998.30365  0.052453954   0.05147237            8 
 1587000   0.61744727   -3.4738006    998.63158  0.052438121  0.051445706            7 
 1588000   0.62538279   -3.4703654    996.89169  0.052313795  0.051419057            6 
 1589000   0.62005445   -3.4542203      1001.12  0.052502625  0.051392376            6 
 1590000   0.62347534   -3.4559811    998.29521  0.052321552  0.051365869            4 
 1591000   0.60383686   -3.4780891    1000.4419  0.052401103  0.051339493            6 
 1592000   0.61337373   -3.4733207    998.73126  0.052278647  0.051312924            8 
 1593000   0.62340116     -3.48455    999.21103  0.052270926  0.051286412            8 
 1594000   0.62147939   -3.4631159    1001.1147  0.052337658  0.051259959           10 
 1595000    0.6148873   -3.4857191    1003.3488  0.052421568  0.051233494           11 
 1596000   0.60603466   -3.4929609    1000.2991  0.052229484  0.051207219            8 
 1597000   0.62416879   -3.4954072    1000.6274  0.052213911  0.051180828            4 
 1598000   0.62208531   -3.4805873    1000.1927  0.052158569  0.051154622            6 
 1599000   0.60559123   -3.4884377    1001.6376  0.052201251  0.051128065            7 
 1600000   0.61884792   -3.4832689    1002.1549   0.05219557  0.051101555            4 
 1601000   0.63186097   -3.4765086    1001.0847  0.052107261  0.051075096           23 
 1602000   0.60837122   -3.4774921    1002.6258  0.052154901  0.051048703            4 
 1603000   0.61524606   -3.4909564    1001.4715  0.052062359  0.051022419           10 
 1604000   0.62122829   -3.5098113    1001.0099  0.052005917  0.050995854            5 
 1605000   0.61132966   -3.4793976    1004.4923  0.052154327  0.050969472           13 
 1606000   0.61392114   -3.4919679    1004.2583  0.052109708  0.050942989           15 
 1607000   0.60707511   -3.4953783    1003.9372  0.052060632  0.050916493            7 
 1608000    0.6149297   -3.4779377    1004.4755  0.052056153  0.050890092            4 
 1609000   0.61399967   -3.4960891    1006.8554  0.052147061  0.050863861            6 
 1610000   0.60191602   -3.4788939    1003.3685  0.051934185  0.050837564            8 
 1611000   0.61934928   -3.4662857    1004.5889  0.051965079  0.050811241           12 
 1612000    0.6254614   -3.4811186    1004.1972  0.051912591  0.050785069           18 
 1613000   0.61328053   -3.4962305    1004.8762  0.051915491  0.050758751            9 
 1614000   0.61908767   -3.4789631    1005.8537  0.051933791  0.050732541            5 
 1615000   0.59845458   -3.5025666    1003.5263  0.051781541  0.050706065           11 
 1616000   0.59808536   -3.4775016     1004.588  0.051804249   0.05067986            7 
 1617000   0.61434907   -3.4941711    1001.9028  0.051633826   0.05065353            5 
 1618000   0.60503419   -3.4783453    1005.5777  0.051791186  0.050627172            3 
 1619000   0.60889705    -3.491807    1005.4803  0.051754182  0.050600993            6 
 1620000   0.61124083   -3.4752079    1006.3099  0.051764914  0.050574886            9 
 1621000    0.6053645   -3.5138927     1004.244  0.051626774  0.050548412            8 
 1622000   0.60905921   -3.5063636    1006.1867  0.051694754  0.050522082           12 
 1623000   0.59522629    -3.493276    1003.7148  0.051535982  0.050495763           19 
 1624000   0.59129347   -3.5011446    1003.6898  0.051502964  0.050469434            5 
 1625000   0.59707541   -3.5093444    1005.5158   0.05156491  0.050443004           11 
 1626000   0.60301934   -3.4997939    1003.4111  0.051425333  0.050416639           11 
 1627000   0.60199175    -3.510153     1004.331   0.05144084  0.050390157           10 
 1628000   0.60145011   -3.4990424    1004.4978  0.051417785  0.050363812            5 
 1629000     0.601944   -3.4918172    1003.9121  0.051356258  0.050337489           13 
 1630000   0.60222619   -3.5014723    1003.3172  0.051294337  0.050311002            5 
 1631000   0.60402552   -3.5058005    1005.1229  0.051355146  0.050284606           19 
 1632000   0.60672229   -3.4887137      1006.29  0.051383274  0.050258231           11 
 1633000   0.61075835   -3.4750683     1004.909  0.051281334  0.050231941           14 
 1634000    0.6146238   -3.4932838    1007.1208  0.051362747  0.050205832           13 
 1635000     0.586172   -3.4989484    1006.6605  0.051307875  0.050179688            4 
 1636000    0.5971756   -3.5116048    1004.3916  0.051160942  0.050153268            7 
 1637000   0.62046484    -3.495512    1006.5849  0.051241342  0.050127044           15 
 1638000   0.58948733   -3.5044205    1006.6601  0.051213885  0.050100656           12 
 1639000   0.59445648   -3.5059194    1005.7141   0.05113454  0.050074147            9 
 1640000   0.59471779    -3.510199    1004.8637  0.051060147  0.050047659            5 
 1641000   0.58721467   -3.5123689    1007.6681  0.051171443  0.050021083            6 
 1642000   0.59842232   -3.5097718     1002.292  0.050867436  0.049994666            4 
 1643000   0.58653163   -3.5119145     1005.556  0.051002031  0.049968116            8 
 1644000   0.58741433   -3.5179555    1008.3191  0.051111066  0.049941585            6 
 1645000   0.59017806   -3.5154557    1009.4618  0.051137881  0.049915269            6 
 1646000   0.59452274   -3.4955585     1007.418  0.051003342  0.049889016            8 
 1647000   0.59116617    -3.508569    1007.3432  0.050968591  0.049862659            4 
 1648000   0.60057647   -3.5116849    1004.9377  0.050816022  0.049836356           14 
 1649000   0.59925971   -3.5118114     1009.324  0.051006871    0.0498102            8 
 1650000   0.59380944   -3.5067187    1008.9345  0.050956286  0.049783957           12 
 1651000   0.59402391   -3.5139481    1005.6731  0.050760806  0.049757698            6 
 1652000    0.5982448   -3.5149589    1006.8334   0.05078861  0.049731362           11 
 1653000   0.58640214   -3.5121554    1009.8679  0.050910862  0.049705067            4 
 1654000    0.5944013   -3.5178114    1007.6782  0.050769762  0.049678789            7 
 1655000   0.59776055   -3.4924018    1010.1669  0.050864395  0.049652746            5 
 1656000    0.6017035   -3.5127536    1005.5876  0.050603243  0.049626597           24 
 1657000   0.58515698   -3.5369843    1009.2486   0.05075682  0.049600378           10 
 1658000   0.58338784   -3.5258122    1009.1937  0.050723445  0.049574051            7 
 1659000   0.58828308   -3.5158691    1007.5739  0.050611507  0.049547579            8 
 1660000   0.59105274   -3.5346041    1007.9531  0.050600053  0.049521265            6 
 1661000   0.58561387      -3.5177    1010.2745  0.050686058  0.049494999            9 
 1662000   0.60814014   -3.5237003     1007.991  0.050541067  0.049468829            3 
 1663000   0.58951319   -3.5152279    1008.6112  0.050541752  0.049442695            8 
 1664000    0.5846079     -3.51464    1008.0177  0.050481657  0.049416499            8 
 1665000   0.57748598   -3.5254074    1007.9746  0.050449177  0.049390386            4 
 1666000   0.59567938     -3.53655    1009.2235  0.050481368  0.049364198            5 
 1667000   0.59955664   -3.5165996    1012.1885  0.050599307  0.049338118           10 
 1668000   0.58497295   -3.5304499    1010.2676  0.050473001  0.049311913            4 
 1669000   0.58421941   -3.5322866    1009.7518  0.050417008   0.04928564            6 
 1670000   0.58705703   -3.5236908    1011.1469  0.050456435  0.049259325           10 
 1671000   0.58923479   -3.5427313     1009.118  0.050325056  0.049233098            7 
 1672000   0.58914136   -3.5363972    1008.1625  0.050247335  0.049206858            6 
 1673000   0.58638082    -3.525039    1009.9147  0.050304576  0.049180677            6 
 1674000   0.57130289   -3.5215292    1009.3827  0.050248043  0.049154439           12 
 1675000   0.58312095   -3.5231627    1009.6333  0.050230513  0.049128325            7 
 1676000   0.58787103   -3.5440846    1008.4597   0.05014219  0.049102053           11 
 1677000   0.56193974   -3.5359471      1009.46  0.050161996  0.049075803            5 
 1678000   0.60525149   -3.5407766    1010.8824  0.050202742  0.049049563            6 
 1679000    0.5783104   -3.5262539    1011.8246  0.050219604  0.049023449            7 
 1680000   0.58442452   -3.5444465     1009.577  0.050078222  0.048997256            8 
 1681000   0.58399576   -3.5311365     1010.833  0.050110696  0.048971006           11 
 1682000   0.58700807   -3.5388762    1006.8662  0.049884374  0.048944947            7 
 1683000   0.57511815   -3.5433545    1012.3592  0.050126719  0.048918758            9 
 1684000    0.5872591   -3.5430128    1011.9774   0.05007806  0.048892778            8 
 1685000   0.57140896   -3.5353905    1012.9008  0.050094005  0.048866633            5 
 1686000   0.58678534   -3.5306803    1012.2422  0.050031744  0.048840523            5 
 1687000   0.57274896   -3.5496552    1010.9748  0.049939481  0.048814557            9 
 1688000   0.57690873   -3.5322199    1012.3622  0.049978386  0.048788333           11 
 1689000    0.5944782   -3.5528325    1010.9387  0.049878565  0.048762045            5 
 1690000   0.56987913   -3.5590337    1010.6513  0.049834877   0.04873575            7 
 1691000   0.58550349   -3.5594769    1012.5173  0.049897361  0.048709634            8 
 1692000   0.57689557   -3.5340194    1009.4442  0.049716519  0.048683412            3 
 1693000    0.5911067   -3.5456378    1009.3114  0.049680617  0.048657064            8 
 1694000   0.59036584   -3.5349904    1012.1351  0.049790194  0.048630909            6 
 1695000   0.57900971   -3.5564286    1013.2988  0.049818035    0.0486047            4 
 1696000   0.57017789   -3.5242035    1013.3699  0.049792151  0.048578577            6 
 1697000   0.57702871   -3.5569383    1011.6184    0.0496768  0.048552452            6 
 1698000   0.56623521    -3.546887     1012.632  0.049697291  0.048526332            6 
 1699000    0.5791139   -3.5458326    1010.4325  0.049560157  0.048500222            8 
 1700000   0.58829814   -3.5511342    1011.9033  0.049603104  0.048473972           13 
 1701000   0.58026305   -3.5619103     1013.911  0.049672298   0.04844789            5 
 1702000   0.57788397   -3.5423921    1014.4598  0.049669988  0.048421983            9 
 1703000   0.56893141   -3.5475338    1010.2084  0.049432785  0.048395932           10 
 1704000   0.58266594   -3.5574852    1012.3353  0.049507788   0.04836979           10 
 1705000   0.58199616   -3.5266476    1014.6277  0.049590795  0.048343746           11 
 1706000   0.57067034   -3.5409647    1012.4966   0.04945763  0.048317682            9 
 1707000   0.57572027   -3.5571202    1012.1254  0.049410536  0.048291563            9 
 1708000   0.56799956   -3.5560667    1013.3634  0.049442009  0.048265493           32 
 1709000   0.57188052   -3.5546317    1015.4332  0.049514006  0.048239549            5 
 1710000   0.57031529   -3.5736941    1014.2025  0.049425072  0.048213487           10 
 1711000   0.57878629    -3.568541    1012.7366  0.049324791  0.048187337           15 
 1712000   0.57434434   -3.5773511    1009.9081  0.049158299  0.048161212           19 
 1713000   0.57042385   -3.5512192    1013.1425  0.049286949   0.04813521           13 
 1714000   0.58787171    -3.571116    1009.8951  0.049100308  0.048109193           12 
 1715000   0.56541742   -3.5474765    1011.9777   0.04917287  0.048083065            8 
 1716000   0.56649662    -3.567206    1012.0279  0.049146652  0.048057078            9 
 1717000   0.57066127     -3.56337     1012.157  0.049124296  0.048031159           11 
 1718000   0.56312256   -3.5583321    1014.1473  0.049192244  0.048005037            9 
 1719000   0.56416835   -3.5376859    1014.3728   0.04917456  0.047979176           12 
 1720000   0.56593191   -3.5658656    1012.9584  0.049077441  0.047953319           12 
 1721000   0.57494225   -3.5643226    1014.2244  0.049110225  0.047927269            7 
 1722000   0.56834448   -3.5759486    1010.5537  0.048904068  0.047901135           15 
 1723000   0.55898075   -3.5460582    1010.4835   0.04887229  0.047875172            6 
 1724000   0.57547317   -3.5600275    1014.3662  0.049031623  0.047849222            7 
 1725000   0.55655829   -3.5385059    1012.6473   0.04892016  0.047823223            7 
 1726000   0.55348764   -3.5815458    1014.4093  0.048976888   0.04779704            8 
 1727000   0.56488207   -3.5733689    1013.7557  0.048916988  0.047770848            6 
 1728000    0.5677683   -3.5650825    1013.1102   0.04885755  0.047744714            6 
 1729000   0.57435246    -3.562798    1014.9874  0.048919771   0.04771862            9 
 1730000   0.55543948   -3.5839266    1014.4066  0.048863516  0.047692556            5 
 1731000    0.5620024   -3.5750614    1012.2011  0.048729109  0.047666636           12 
 1732000   0.55583049   -3.5812923    1013.8695  0.048781252   0.04764056           19 
 1733000   0.54760895   -3.5584568    1012.4431  0.048684511  0.047614481           13 
 1734000   0.56432284   -3.5444403    1014.3191  0.048746591  0.047588494           16 
 1735000   0.57716692   -3.5848477    1014.0752  0.048706784   0.04756241            9 
 1736000   0.57243258   -3.5761171     1015.105  0.048728158  0.047536355           13 
 1737000   0.55752554   -3.5951272    1010.7999  0.048493566  0.047510193           10 
 1738000   0.55896881   -3.5923635    1010.5608  0.048454199  0.047483928           11 
 1739000   0.55924738   -3.5929791    1012.7779  0.048532579  0.047457805           10 
 1740000    0.5506172   -3.5717791    1011.6919  0.048452678  0.047431542           13 
 1741000   0.55527036   -3.5675453    1010.8951  0.048386706  0.047405481            6 
 1742000   0.55183658   -3.5942601    1012.5595  0.048438552  0.047379526           13 
 1743000   0.55881788   -3.5970203    1013.2239  0.048442526  0.047353452            8 
 1744000   0.56118401   -3.5739789    1016.0833   0.04855138  0.047327325            5 
 1745000   0.56303521   -3.5744883    1014.2221  0.048434673  0.047301158            9 
 1746000   0.55357301   -3.5978273    1013.3992   0.04836766  0.047275054            6 
 1747000   0.56154109   -3.5936811    1014.4096  0.048388168    0.0472488            7 
 1748000    0.5584519   -3.5755234    1014.2856  0.048354576  0.047222639           11 
 1749000   0.55793752   -3.5797379    1010.9313  0.048167108  0.047196534           16 
 1750000   0.54912148   -3.5931943    1012.4343  0.048211158  0.047170418           15 
 1751000   0.55069134   -3.5990771     1015.043  0.048307777  0.047144241            9 
 1752000    0.5491643   -3.5907018    1016.0702  0.048329061  0.047118184           12 
 1753000   0.54512986   -3.6063916    1015.6736  0.048282641  0.047092203           11 
 1754000   0.55136701   -3.5910793    1013.5362  0.048153564   0.04706623           16 
 1755000   0.55065776   -3.5910264    1013.2679  0.048113386  0.047040068           14 
 1756000    0.5514545   -3.5800888    1014.9333  0.048165022  0.047014043           11 
 1757000   0.55478154   -3.5830688    1016.6378  0.048218449  0.046988157            7 
 1758000   0.55333068   -3.5852566    1013.1299  0.048024742  0.046962324            8 
 1759000   0.55733593   -3.6004855    1016.5974  0.048161712  0.046936514           21 
 1760000   0.55020483    -3.595072    1013.6027  0.047992551  0.046910582            7 
 1761000   0.55013157   -3.5872332    1016.2066  0.048088521  0.046884694            8 
 1762000   0.55384095   -3.5813175    1014.9199  0.048000374  0.046858781           11 
 1763000   0.54775937    -3.566853    1014.3514  0.047946276  0.046832888            9 
 1764000   0.53708856   -3.6159311    1013.4292  0.047875527  0.046807071            9 
 1765000   0.54820482   -3.5846614    1012.7136  0.047814615  0.046781172           13 
 1766000   0.54753535   -3.5819067     1017.101  0.047994576  0.046755316            8 
 1767000   0.56065497   -3.5838322    1016.6659  0.047946894  0.046729665            6 
 1768000   0.54025432   -3.5945142    1015.8957  0.047883469  0.046703915           17 
 1769000   0.53957181   -3.6035374    1015.9511   0.04785901  0.046678104           11 
 1770000   0.54387849   -3.6044316    1014.1495  0.047747153  0.046652311           12 
 1771000   0.54948842   -3.5769921    1019.1515  0.047955557  0.046626493           12 
 1772000   0.55418997   -3.5991179    1017.6154  0.047856254  0.046600755            7 
 1773000   0.54170122   -3.5927406    1014.3189  0.047674322   0.04657498            7 
 1774000   0.54406036   -3.5987443    1015.0147  0.047680135  0.046549237           12 
 1775000   0.52082203   -3.5913488    1017.7498  0.047781683  0.046523369           16 
 1776000   0.54096836   -3.6153287    1015.5301  0.047650622  0.046497473           12 
 1777000   0.53443881    -3.594575    1014.7182  0.047585733  0.046471628            5 
 1778000   0.55052423   -3.5900114    1015.0518  0.047574605  0.046445694           26 
 1779000   0.53604946   -3.5927606    1014.8864  0.047540115  0.046419937            8 
 1780000   0.55466875   -3.5851808    1016.8591  0.047605762  0.046394199            7 
 1781000   0.54004847   -3.6224173    1019.5225  0.047703654  0.046368347           16 
 1782000   0.54432545   -3.6126658    1017.1347  0.047565223  0.046342586           12 
 1783000   0.55741619   -3.6094279    1019.0566   0.04762837  0.046316851           10 
 1784000   0.53317254   -3.6263466    1015.7606  0.047447712  0.046291065           10 
 1785000   0.53522382   -3.6149731    1017.1596  0.047486441  0.046265222            7 
 1786000   0.53424615    -3.590717    1019.0226  0.047546779  0.046239581            5 
 1787000    0.5367109   -3.5979616    1014.7724  0.047321973  0.046213804            8 
 1788000   0.53837028   -3.5906749    1015.6254  0.047335261  0.046187972           20 
 1789000   0.53052361   -3.6039423    1016.9408  0.047370076  0.046162149           16 
 1790000   0.54049622   -3.6173543      1016.19  0.047308659  0.046136259           12 
 1791000   0.53530613   -3.6222805    1015.5864   0.04725416  0.046110362           11 
 1792000   0.52639807   -3.6151427    1015.4792  0.047222805  0.046084523           12 
 1793000   0.52678812    -3.616869    1015.6204   0.04720303  0.046058747           13 
 1794000   0.53958876   -3.6097515     1014.686  0.047133314   0.04603282            7 
 1795000   0.54466983   -3.6178959    1015.5843   0.04714876  0.046006911            9 
 1796000   0.53528585   -3.6144256    1014.7861  0.047085473   0.04598097            8 
 1797000   0.53737592   -3.6201447    1016.3629   0.04713239  0.045955081           13 
 1798000   0.53612827   -3.6219914    1016.2553  0.047101193  0.045929197           10 
 1799000   0.54646202   -3.6165859    1016.4505  0.047084052  0.045903326           12 
 1800000   0.52785669   -3.6306032    1015.5456     0.047016  0.045877469           12 
 1801000   0.53463348   -3.6252857    1016.1752  0.047019027  0.045851566           16 
 1802000   0.53970327   -3.6020771    1019.6462  0.047153449  0.045825822            9 
 1803000   0.52701501   -3.6239181    1014.8756  0.046906802   0.04579995            9 
 1804000   0.53287517   -3.6104675    1015.0574  0.046889202  0.045774017           15 
 1805000   0.53262522   -3.6157257    1016.5256  0.046931006  0.045748155           13 
 1806000   0.53107592   -3.6249377    1016.3179  0.046895435  0.045722343            8 
 1807000   0.52509899     -3.63579    1017.1955  0.046909958  0.045696399            9 
 1808000   0.53688672   -3.6243162    1016.8262  0.046866989   0.04567056           20 
 1809000   0.52970777   -3.6119004    1017.2468  0.046860459  0.045644659           10 
 1810000   0.52778138   -3.6329074    1016.3469  0.046793135  0.045618767           15 
 1811000   0.53131946   -3.6292391    1017.2772  0.046810104  0.045592809           12 
 1812000    0.5239995   -3.6264447     1014.661  0.046663951  0.045566806           15 
 1813000   0.53672004   -3.6492324    1015.9154  0.046695871  0.045540878           27 
 1814000   0.52430483   -3.6178567    1015.7169  0.046661011  0.045514938            7 
 1815000   0.52792219   -3.6167511    1015.7718  0.046637826  0.045489154           21 
 1816000    0.5335186   -3.6285127    1015.5695  0.046602858  0.045463429           11 
 1817000   0.53970861   -3.6251423    1019.3007  0.046748337  0.045437758           19 
 1818000   0.53461949   -3.6468069     1016.097   0.04657577  0.045412083           11 
 1819000   0.52759115   -3.6181795    1019.6647  0.046713613  0.045386509            5 
 1820000   0.53585264   -3.6305311    1019.1474  0.046664258  0.045360895            8 
 1821000   0.52471314   -3.6243329    1016.8484  0.046533424    0.0453353           11 
 1822000   0.52446374   -3.6645272     1016.234  0.046479784  0.045309505           25 
 1823000   0.51820375   -3.6351732    1016.4833  0.046465686  0.045283861           11 
 1824000   0.52968678   -3.6512764     1017.247  0.046475099  0.045258103           13 
 1825000   0.52370991   -3.6355994    1015.5887  0.046373914  0.045232293           12 
 1826000    0.5165654    -3.634504    1016.5955  0.046394464  0.045206577           18 
 1827000    0.5275887   -3.6317095     1015.895  0.046337121   0.04518092            6 
 1828000   0.51911847   -3.6278648     1018.711  0.046440146  0.045155344            9 
 1829000   0.51528143   -3.6440262    1014.0558   0.04620265  0.045129605           13 
 1830000   0.53155456   -3.6379356    1018.6602  0.046387078  0.045103958           12 
 1831000   0.53200098   -3.6440193    1018.8271  0.046369339  0.045078395           20 
 1832000   0.52126129   -3.6504417    1017.9949   0.04630617   0.04505273           12 
 1833000   0.52250528    -3.647276    1015.5473  0.046169636  0.045027012            9 
 1834000   0.52163175   -3.6513978    1014.3474   0.04608994  0.045001216            7 
 1835000   0.52332296   -3.6473277    1016.2568  0.046151537  0.044975464           32 
 1836000   0.51170832    -3.623463     1016.562  0.046140252   0.04494975           16 
 1837000   0.52533926   -3.6711648    1013.4253   0.04597284  0.044923924           11 
 1838000    0.5216801   -3.6591002    1014.6444  0.046003099  0.044898021           35 
 1839000   0.51954205   -3.6490861    1012.5979  0.045885348  0.044872211           13 
 1840000    0.5140137   -3.6494343    1014.4172  0.045942808  0.044846422           10 
 1841000   0.51853529   -3.6497795      1016.34  0.046004887  0.044820643           12 
 1842000   0.52056791    -3.642163    1018.1207  0.046060471  0.044794867            9 
 1843000   0.50918411   -3.6623658    1013.7195  0.045836477  0.044769188           16 
 1844000   0.51398521   -3.6634672    1014.4644  0.045845284  0.044743339           11 
 1845000   0.50771451   -3.6435573    1014.9208   0.04584105  0.044717472           27 
 1846000   0.49649931   -3.6559124    1012.9388  0.045726741  0.044691612           15 
 1847000    0.5045118   -3.6446844     1015.222  0.045804997  0.044665773           16 
 1848000   0.51392881   -3.6475589    1016.0305  0.045816671  0.044639975            8 
 1849000   0.53018054   -3.6493026    1016.6588   0.04582021  0.044614346           10 
 1850000   0.50144637   -3.6608412    1015.8118   0.04575729  0.044588702           12 
 1851000   0.52609833   -3.6656454    1015.4497  0.045716267  0.044563064           12 
 1852000    0.5164867   -3.6669522    1017.3145  0.045775492  0.044537411           20 
 1853000   0.50738707   -3.6500262    1016.1565   0.04569871  0.044511816           11 
 1854000   0.50300938   -3.6604003    1016.9382  0.045709195  0.044486146           17 
 1855000   0.50445981   -3.6628885    1014.9479  0.045595143  0.044460452           23 
 1856000    0.5067163   -3.6754978    1017.1078  0.045667557  0.044434677           24 
 1857000   0.51254186   -3.6658112    1016.1213  0.045598693   0.04440904           22 
 1858000    0.5059495    -3.661658    1015.6915  0.045554874  0.044383351           10 
 1859000   0.50299074   -3.6613176    1014.4973  0.045476837  0.044357598            7 
 1860000   0.51669369   -3.6649995    1016.0838  0.045523467   0.04433199            9 
 1861000   0.50739272   -3.6600783    1017.6127  0.045567467  0.044306379           20 
 1862000   0.50883063   -3.6659736    1014.2627  0.045393069  0.044280733           13 
 1863000   0.50653399   -3.6737208    1014.4013  0.045374901  0.044254982           25 
 1864000   0.51850625   -3.6496946    1016.2671  0.045433972  0.044229287           20 
 1865000   0.51131054   -3.6832255     1018.191  0.045495578  0.044203696           18 
 1866000   0.49540983   -3.6694822    1016.2405  0.045384088   0.04417799            6 
 1867000   0.50635868   -3.6619675    1016.3557  0.045364921   0.04415234           10 
 1868000   0.51318883   -3.6667286    1015.7863  0.045315235  0.044126528           22 
 1869000   0.50657272   -3.6679743    1015.2153  0.045265531  0.044100815           12 
 1870000   0.50528422   -3.6669477    1014.5339  0.045210959  0.044075233            7 
 1871000   0.49743019   -3.6538489    1016.5407  0.045276175  0.044049759           18 
 1872000   0.50762682   -3.6770837    1017.3314  0.045287187  0.044024314           10 
 1873000   0.49993694   -3.6745362    1015.2762  0.045171568  0.043998729           18 
 1874000    0.5062083   -3.6618085    1015.1462  0.045141684  0.043973194           10 
 1875000   0.49815845   -3.6744175    1015.7546  0.045144649  0.043947732           26 
 1876000   0.49882749   -3.6675311    1016.5214  0.045154647  0.043922197            8 
 1877000   0.50047102   -3.6659672    1020.0543  0.045287438  0.043896681           10 
 1878000   0.49154372   -3.6600098    1018.9918   0.04521618  0.043871399            9 
 1879000   0.49412361   -3.6784652    1016.5838  0.045085318  0.043845999           19 
 1880000   0.49810291   -3.6558041    1015.6412  0.045019555  0.043820548           10 
 1881000   0.52182263   -3.7064633    1014.3254  0.044937329  0.043794933           27 
 1882000   0.50039467   -3.6811365    1017.1011  0.045036358  0.043769453           28 
 1883000   0.48880599   -3.6843828    1016.4072  0.044981729  0.043743978            9 
 1884000   0.49243298   -3.6933958    1016.2257  0.044949829  0.043718527           18 
 1885000   0.50379672   -3.7037869    1015.2271  0.044881837  0.043693029            9 
 1886000   0.49874432   -3.6820916    1016.4154  0.044910544  0.043667639           17 
 1887000   0.51331322   -3.6855125    1015.7516  0.044857428  0.043642278           18 
 1888000   0.50399989   -3.6971545    1017.9922  0.044932567  0.043616972            8 
 1889000   0.49066338   -3.6737363    1017.2251  0.044874939  0.043591762           11 
 1890000   0.49145828   -3.6778231     1017.608  0.044868076  0.043566439            8 
 1891000   0.50513112    -3.693606    1016.1037  0.044778057  0.043541024           13 
 1892000   0.50415923   -3.6737576    1016.9412  0.044791278  0.043515695            8 
 1893000   0.49919382   -3.6810551    1015.4347  0.044701297  0.043490415            9 
 1894000    0.4909288   -3.6907267    1016.7564  0.044735852  0.043464982           20 
 1895000   0.50266608   -3.6786784    1015.6326  0.044662822  0.043439673           12 
 1896000   0.49622209   -3.6933557    1015.0569  0.044613961  0.043414247           12 
 1897000   0.49926584   -3.7015078    1017.8242  0.044712012  0.043388867           14 
 1898000   0.50074441   -3.6914343    1014.2963  0.044533557  0.043363511           18 
 1899000   0.50440098   -3.6941366    1015.3828  0.044557784  0.043338032           13 
 1900000   0.48398685     -3.69318    1014.5946  0.044499765  0.043312574           13 
 1901000   0.49589557   -3.6946526    1016.1802  0.044545863  0.043287186           29 
 1902000   0.48483307   -3.6885682    1015.0395  0.044472464  0.043261813           10 
 1903000   0.49444077   -3.6901028     1016.721  0.044522727  0.043236462           22 
 1904000   0.49423761    -3.682436    1015.1295  0.044429686  0.043211096            9 
 1905000   0.49451175   -3.6821176    1014.6979  0.044387486  0.043185822           33 
 1906000   0.48618708    -3.680503    1017.3152  0.044478628  0.043160688            8 
 1907000   0.48171197   -3.6812236    1015.2694  0.044365907  0.043135465           17 
 1908000   0.49059712    -3.702324    1017.2059  0.044427232  0.043110264           26 
 1909000   0.49834943   -3.7003869    1017.0483  0.044397079  0.043085087           19 
 1910000   0.48640841   -3.6844133    1014.9845  0.044283792  0.043059888           10 
 1911000   0.48803636   -3.6935005    1017.3884  0.044365444   0.04303461           16 
 1912000   0.48886471   -3.7117165    1016.8084  0.044316963  0.043009375           14 
 1913000   0.48882604   -3.7068491    1017.0497   0.04430431  0.042984111           20 
 1914000   0.49604951   -3.6967236    1015.6751  0.044221313  0.042958918           13 
 1915000   0.48788984   -3.6965979    1018.2056  0.044308339  0.042933695            8 
 1916000   0.48659256   -3.7017545    1016.5787  0.044214452  0.042908459            9 
 1917000   0.49791592    -3.712094    1017.9814  0.044252363  0.042883237           30 
 1918000   0.48400677   -3.6972757    1017.8875  0.044225213   0.04285816           20 
 1919000   0.48827049   -3.7081192    1017.2304   0.04417363  0.042832993           11 
 1920000   0.47996672   -3.7102136    1015.9816  0.044096426  0.042807893           17 
 1921000   0.48652329   -3.6992064    1016.4655  0.044094462   0.04278264            9 
 1922000   0.49006571    -3.715049    1015.9977  0.044051235    0.0427575           15 
 1923000   0.47986125   -3.7048221    1018.2198  0.044124622  0.042732245            9 
 1924000   0.48584012   -3.7325607    1014.2593  0.043930151  0.042706879           21 
 1925000   0.48505411   -3.7115591    1015.5352  0.043962564  0.042681573           15 
 1926000   0.46912762   -3.7010941    1015.6229   0.04394353  0.042656332           22 
 1927000   0.48325516   -3.6951292    1015.1117  0.043898621  0.042631137            8 
 1928000   0.48810237   -3.7195325    1013.6727  0.043813653  0.042605866           12 
 1929000   0.49159024   -3.7106774    1014.8393  0.043841336  0.042580562           18 
 1930000   0.47589477   -3.7026408    1014.1075  0.043787023  0.042555321           11 
 1931000   0.48999546   -3.7051482    1017.2486  0.043899903  0.042530108           14 
 1932000   0.49081295   -3.7156714    1014.1631  0.043744094  0.042504896           19 
 1933000   0.48223279   -3.7151521    1014.1876  0.043722523  0.042479681           13 
 1934000   0.47830767   -3.7136575    1017.0849  0.043824753  0.042454526           15 
 1935000   0.46927524   -3.7291138    1016.7075  0.043785851  0.042429384           15 
 1936000   0.48068504   -3.7270107    1015.5129  0.043711814  0.042404342           18 
 1937000   0.47960002   -3.7231424    1015.2512   0.04367799  0.042379184           17 
 1938000   0.47720406   -3.7123575    1017.0475  0.043732691  0.042354039           21 
 1939000   0.47096683   -3.7204763    1018.6516  0.043779076  0.042328908           31 
 1940000   0.48021927    -3.721708    1015.1177  0.043604713  0.042303789           17 
 1941000   0.47278091   -3.7206864    1015.3801  0.043593511  0.042278724           20 
 1942000   0.47743012   -3.7278923    1014.7265   0.04354302  0.042253577           33 
 1943000   0.46784582   -3.7189827    1014.2381  0.043499662  0.042228499           22 
 1944000    0.4795979   -3.7343069    1015.5944  0.043535426  0.042203393           27 
 1945000   0.47851341   -3.7195377    1013.4048  0.043419231  0.042178282           40 
 1946000   0.47476724   -3.7447968    1016.1983  0.043516544  0.042153253           21 
 1947000   0.47534335   -3.7076402    1015.5971  0.043468461  0.042128239           24 
 1948000   0.47814252   -3.7356033    1014.6708  0.043406518  0.042103218           13 
 1949000   0.48004225   -3.7239701    1014.4593  0.043375207  0.042078155           16 
 1950000   0.47505476   -3.7181311    1013.3827  0.043306953  0.042053117           34 
 1951000   0.47875441   -3.7409027    1015.4931  0.043374897  0.042028033           18 
 1952000   0.47113722    -3.716801    1013.5484  0.043269656  0.042002932           11 
 1953000   0.46636794    -3.747479    1013.9366  0.043264065  0.041977864           31 
 1954000   0.46624344   -3.7385819    1012.7483  0.043191245  0.041952765           51 
 1955000   0.46962543   -3.7315667     1014.146  0.043228728  0.041927629           43 
 1956000   0.46481641   -3.7192951    1016.1489  0.043291963   0.04190263           42 
 1957000   0.47864484   -3.7223622     1014.105  0.043182807  0.041877654           41 
 1958000   0.48849129   -3.7450045    1014.7474  0.043188093  0.041852683           14 
 1959000   0.48425476    -3.728014    1014.6362  0.043161315  0.041827637           27 
 1960000   0.46878836   -3.7507672    1014.0585  0.043114731  0.041802564           39 
 1961000   0.47232469   -3.7438673    1015.0126  0.043133291  0.041777474           26 
 1962000   0.47585379    -3.740669    1011.2106  0.042949822  0.041752435           27 
 1963000   0.47091284   -3.7302554    1013.3371  0.043018215   0.04172736           21 
 1964000   0.45847938   -3.7307506    1013.2212  0.042991395   0.04170236           43 
 1965000    0.4677053   -3.7487259    1014.2292  0.043012266  0.041677334           62 
 1966000   0.45663513   -3.7289239    1015.0819  0.043026529  0.041652352           23 
 1967000   0.47861473   -3.7456405    1013.8327  0.042951735  0.041627404           56 
 1968000    0.4750075   -3.7547163    1013.7136  0.042924865  0.041602504           18 
 1969000   0.45753205   -3.7553199    1015.1575  0.042964174  0.041577525           39 
 1970000   0.46747803   -3.7394539    1016.2428  0.042988275  0.041552573           42 
 1971000   0.46683695    -3.740277    1013.2914  0.042841678  0.041527663           49 
 1972000   0.46317575    -3.729548    1014.0939  0.042853866  0.041502805           42 
 1973000   0.45909178   -3.7250766    1014.5578   0.04285174  0.041478041           16 
 1974000   0.46246376   -3.7625762    1015.5969  0.042873897  0.041453263           24 
 1975000   0.46336977   -3.7420938    1015.6749  0.042855483  0.041428343           30 
 1976000   0.47340411   -3.7369456     1012.784  0.042711876  0.041403535           13 
 1977000   0.46161389   -3.7284473    1015.3309  0.042797627  0.041378882           16 
 1978000   0.45395154   -3.7434657    1013.8002  0.042711502  0.041354162           19 
 1979000   0.45992556   -3.7527379    1014.9113  0.042736708  0.041329351           29 
 1980000   0.45996098   -3.7685514    1014.4779  0.042696881   0.04130455           22 
 1981000   0.45536492   -3.7596602     1016.191  0.042747392  0.041279773           20 
 1982000   0.46427683   -3.7556804    1015.2804  0.042687538  0.041255063           15 
 1983000   0.46808478   -3.7510859    1014.8294  0.042647056  0.041230394           23 
 1984000   0.45482028   -3.7606625    1011.3574  0.042479728  0.041205653           74 
 1985000   0.47255243   -3.7559203     1014.193  0.042577371  0.041180932           48 
 1986000   0.45569543   -3.7471265    1015.2181  0.042598949  0.041156318           17 
 1987000   0.45819063   -3.7523424    1015.8926  0.042605796  0.041131633           29 
 1988000   0.46145629   -3.7659859    1015.2379  0.042556919  0.041106963           44 
 1989000   0.46376815    -3.763712    1015.4646  0.042545024  0.041082388           56 
 1990000   0.46102989   -3.7374733    1014.2727   0.04247373  0.041057781           60 
 1991000   0.46141025   -3.7793624    1014.5053  0.042462134  0.041033033           94 
 1992000   0.45881048   -3.7592608    1012.7915  0.042369124  0.041008304           93 
 1993000   0.45796598   -3.7622404    1013.6262  0.042382766  0.040983613           77 
 1994000   0.45522521   -3.7653088    1014.8356  0.042412054  0.040959071           57 
 1995000   0.46758975   -3.7498659    1017.6023  0.042506363  0.040934538           77 
 1996000   0.45584823   -3.7465258    1014.0726  0.042337701  0.040909949           60 
 1997000   0.44811653   -3.7648056    1013.9625  0.042311903  0.040885444           59 
 1998000   0.45174001   -3.7495242    1014.7742  0.042324584  0.040861014           33 
 1999000   0.45918631   -3.7472875     1016.056  0.042356845  0.040836585           15 
 2000000   0.45265861   -3.7729621    1016.2996  0.042345816  0.040812198           35 
 2001000   0.44813126   -3.7660313    1016.0301   0.04231343  0.040787784           19 
 2002000   0.45169443   -3.7574934    1015.2589  0.042260196  0.040763451           14 
 2003000    0.4520027   -3.7597444    1015.3327  0.042242166  0.040739006           26 
 2004000   0.43445744   -3.7770751    1014.1671  0.042172616  0.040714488           38 
 2005000   0.44168342   -3.7726557    1016.0661  0.042230512  0.040690032           17 
 2006000   0.45299707   -3.7750466    1014.9681  0.042163846  0.040665541           26 
 2007000   0.45281678    -3.785521    1014.5576  0.042125793  0.040641155           43 
 2008000   0.45854959    -3.777318    1017.4781  0.042226017  0.040616689           31 
 2009000   0.44998181   -3.7682115    1015.8957  0.042139358  0.040592271           12 
 2010000   0.44420852   -3.7718509    1016.8532  0.042158093  0.040567911            9 
 2011000   0.44884709   -3.7670161    1016.2211  0.042110936  0.040543601            9 
 2012000   0.44719467   -3.7678431    1014.1679  0.042004967  0.040519241           14 
Loop time of 4854.74 on 48 procs for 2000000 steps with 4000 atoms

Performance: 71188.227 tau/day, 411.969 timesteps/s
99.4% CPU use with 48 MPI tasks x no OpenMP threads

MPI task timing breakdown:
Section |  min time  |  avg time  |  max time  |%varavg| %total
---------------------------------------------------------------
Pair    | 309.3      | 338.03     | 361.38     |  58.0 |  6.96
Neigh   | 32.595     | 34.018     | 35.605     |  13.5 |  0.70
Comm    | 310.34     | 334.73     | 365.91     |  67.2 |  6.89
Output  | 4.2539     | 4.2559     | 4.292      |   0.3 |  0.09
Modify  | 4088.2     | 4099.2     | 4106.6     |   6.3 | 84.44
Other   |            | 44.54      |            |       |  0.92

Nlocal:        83.3333 ave          91 max          75 min
Histogram: 2 3 0 8 5 12 9 5 3 1
Nghost:        2194.94 ave        2224 max        2177 min
Histogram: 4 11 5 8 6 3 7 1 2 1
Neighs:        14557.5 ave       16334 max       12201 min
Histogram: 1 0 2 7 6 11 9 5 5 2
FullNghs:      29115.4 ave       32062 max       26191 min
Histogram: 4 1 5 4 7 11 7 7 1 1

Total # of neighbors = 1397538
Ave neighs/atom = 349.38450
Neighbor list builds = 108545
Dangerous builds = 0

#clear
#
#next RN
#
#jump SELF
Total wall time: 1:20:58
