
units lj                  # Use reduced LJ style units
atom_style atomic         # Uncharged point particles
atom_modify map hash      # Needed for indexing of clusters etc
                          # Used to be able to find where atoms are in relation to each other.

lattice fcc 1.0 spacing 1 1 1
Lattice spacing in x,y,z = 1.5874011 1.5874011 1.5874011
region box block 0 10 0 10 0 10 units lattice
create_box 2 box
Created orthogonal box = (0.0000000 0.0000000 0.0000000) to (15.874011 15.874011 15.874011)
  3 by 4 by 4 MPI processor grid
create_atoms 1 box
Created 4000 atoms
  using lattice units in orthogonal box = (0.0000000 0.0000000 0.0000000) to (15.874011 15.874011 15.874011)
  create_atoms CPU = 0.016 seconds
set type 1 type/fraction 2 0.8 78393
Setting atom values ...
  3188 settings made for type/fraction
mass 1 1.0
mass 2 1.0
pair_style lj/cut  3.5
pair_modify tail  yes
pair_coeff 1  1  1.0  1.0   # Intearaction between 1 and 1 set with epsilon = 1 and sigma = 1
pair_coeff 1  2  1.5  0.8
pair_coeff 2  2  0.5  0.88

write_data data.0
System init for write_data ...
Neighbor list info ...
  update every 1 steps, delay 10 steps, check yes
  max neighbors/atom: 2000, page size: 100000
  master list distance cutoff = 3.8
  ghost atom cutoff = 3.8
  binsize = 1.9, bins = 9 9 9
  1 neighbor lists, perpetual/occasional/extra = 1 0 0
  (1) pair lj/cut, perpetual
      attributes: half, newton on
      pair build: half/bin/atomonly/newton
      stencil: half/bin/3d
      bin: standard
WARNING: Not all mixed pair coeffs generated from mixing. Use write_data with 'pair ij' option to store all pair coeffs. (../write_data.cpp:312)


#############################
#   M E L T   S Y S T E M   #
#############################

velocity all create 2.4 8172548 mom yes dist gaussian # Assign velocities
                                                    # Temperature 2.4, random number seed, zero linear momentum
                                                                                # Gaussian distribution

timestep 0.002   # simulation timestep
thermo 1000       # output thermodynamic data every 1000 steps bf 100

# Define a fix  in this case with index 1 applied to all
# particles in the simulation. This fix is for simulations
# in the anisotropic NPT ensemble. Note that we use the MTK
# correction.
fix 1 all npt temp 2.4 2.4 0.1 iso 5.68 5.68 0.5 mtk yes tchain 5 pchain 5 # Use NPT ensemble
                                                                         # Set temperature and pressure and damping
                                                                         # Numbers of thermostats in chain and in barostat
run 10000          # run for 10000 steps
Per MPI rank memory allocation (min/avg/max) = 3.642 | 3.644 | 3.648 Mbytes
Step Temp E_pair E_mol TotEng Press Volume 
       0          2.4   -3.6981828            0 -0.099082777   -3.2752093         4000 
    1000    2.4124705   -3.0794429            0   0.53835817     5.880996    3756.5873 
    2000     2.375236   -3.0711574            0   0.49080599    5.5740604    3786.4841 
    3000    2.3862278   -3.0700236            0   0.50842336    5.6141478    3788.8292 
    4000    2.3678809   -3.0619187            0   0.48901469    5.7655755    3779.2987 
    5000    2.3745709   -3.0629962            0   0.49796968    5.6423637    3791.1399 
    6000    2.3439142   -3.0707008            0   0.44429161    5.5157817    3780.4822 
    7000    2.4201968   -3.0892229            0   0.54016468    5.7942715    3762.7323 
    8000    2.4417929   -3.0666081            0   0.59516565    5.8395651      3768.09 
    9000    2.3857851   -3.0356045            0   0.54217845    5.7058955    3801.0444 
   10000     2.393925   -3.0259738            0   0.56401601    5.7966401    3810.7089 
Loop time of 2.59038 on 48 procs for 10000 steps with 4000 atoms

Performance: 667083.473 tau/day, 3860.437 timesteps/s
99.6% CPU use with 48 MPI tasks x no OpenMP threads

MPI task timing breakdown:
Section |  min time  |  avg time  |  max time  |%varavg| %total
---------------------------------------------------------------
Pair    | 1.1522     | 1.2159     | 1.2758     |   2.4 | 46.94
Neigh   | 0.21082    | 0.21873    | 0.22989    |   0.8 |  8.44
Comm    | 0.79452    | 0.864      | 0.92215    |   3.3 | 33.35
Output  | 0.00024798 | 0.00025193 | 0.00031519 |   0.0 |  0.01
Modify  | 0.23789    | 0.27606    | 0.2949     |   2.3 | 10.66
Other   |            | 0.01548    |            |       |  0.60

Nlocal:        83.3333 ave          92 max          74 min
Histogram: 2 1 7 3 6 11 7 6 3 2
Nghost:        1690.04 ave        1725 max        1668 min
Histogram: 6 3 12 8 5 5 1 6 1 1
Neighs:        10020.2 ave       11700 max        8669 min
Histogram: 4 2 7 6 10 9 6 1 0 3

Total # of neighbors = 480969
Ave neighs/atom = 120.24225
Neighbor list builds = 904
Dangerous builds = 163

# Equilibrate just above the melting temperature to avoid step fn in T

fix 1 all npt temp 1.25 1.25 0.1 iso 5.68 5.68 0.5 mtk yes tchain 5 pchain 5
run 2000
Per MPI rank memory allocation (min/avg/max) = 3.644 | 3.645 | 3.649 Mbytes
Step Temp E_pair E_mol TotEng Press Volume 
   10000     2.393925   -3.0259738            0   0.56401601    5.7966401    3810.7089 
   11000    1.2493163   -4.5385178            0   -2.6650118    5.6669252     2911.219 
   12000    1.2569475   -4.5531073            0   -2.6681575    5.6129467    2897.7112 
Loop time of 0.672376 on 48 procs for 2000 steps with 4000 atoms

Performance: 513998.383 tau/day, 2974.528 timesteps/s
99.5% CPU use with 48 MPI tasks x no OpenMP threads

MPI task timing breakdown:
Section |  min time  |  avg time  |  max time  |%varavg| %total
---------------------------------------------------------------
Pair    | 0.28388    | 0.31069    | 0.34771    |   2.5 | 46.21
Neigh   | 0.040256   | 0.042785   | 0.045261   |   0.7 |  6.36
Comm    | 0.19314    | 0.24243    | 0.26938    |   3.7 | 36.06
Output  | 5.4328e-05 | 5.7975e-05 | 0.00016217 |   0.0 |  0.01
Modify  | 0.042916   | 0.071561   | 0.084795   |   5.9 | 10.64
Other   |            | 0.004851   |            |       |  0.72

Nlocal:        83.3333 ave          90 max          74 min
Histogram: 1 1 1 5 5 12 11 4 4 4
Nghost:        2045.85 ave        2060 max        2028 min
Histogram: 1 1 2 4 11 10 10 3 3 3
Neighs:        13185.4 ave       14884 max       11287 min
Histogram: 1 3 4 4 8 10 9 3 5 1

Total # of neighbors = 632897
Ave neighs/atom = 158.22425
Neighbor list builds = 143
Dangerous builds = 19

#############################
# L I N E A R  Q U E N C H  #
#############################

# Define solid atoms. This closely follows ten Wolde  Ruiz-Montero and Frenkel  Faraday Discuss  1996  104  93-110
# Compute components of the per-atom q6 vector
compute q6 all orientorder/atom degrees 1 6 components 6 nnn NULL cutoff 1.3 # compute the Q6 parameter.
                                                                             # Use all neighbours within 1.3 unit cell.

# get number of connections
compute coord_number all coord/atom orientorder q6 0.5

# An atom is solid if it has 8 or more connections (of a possible 14)
variable is_solid atom c_coord_number>=8
group solid dynamic all var is_solid    # Must be dynamic to update
dynamic group solid defined

# do clustering
compute cluster solid cluster/atom 1.3 # Create a cluster where all atoms within are solid and max 1.3 units from another member

# define chunks one chunk per cluster
compute clus_chunks solid chunk/atom c_cluster nchunk every compress yes  # Says which atoms are in which chunk

# count the size of each chunk
compute size_chunks solid property/chunk clus_chunks count


# Find the maximum entry in the vector of chunk sizes
variable max_n equal max(c_size_chunks)


# Thermo style which includes this variable
# thermo_style custom step temp pe vol v_max_n

thermo ${N}  # Print the thermo information every 100 steps
thermo 1000  

# Reset the npt fix at a lower temperature (below freezing)
fix 1  all npt temp  ${temp} ${temp}  0.1  iso  5.68  5.68  0.5  mtk yes tchain  5  pchain  5
fix 1  all npt temp  0.45 ${temp}  0.1  iso  5.68  5.68  0.5  mtk yes tchain  5  pchain  5
fix 1  all npt temp  0.45 0.45  0.1  iso  5.68  5.68  0.5  mtk yes tchain  5  pchain  5

dump dmp2 all dcd ${N} traj.dcd
dump dmp2 all dcd 1000 traj.dcd


compute msd all msd com yes
variable twopoint equal c_msd[4]/6/(step*dt+1.0e-6)
fix 9 all vector 10 c_msd[4]
variable fit equal slope(f_9)/6/(10*dt)
thermo_style custom step temp pe c_msd[4] v_twopoint v_fit v_max_n

fix 1 all npt temp 1.25 ${temp} 0.1 iso 5.68 5.68 0.5 mtk yes tchain 5 pchain 5
fix 1 all npt temp 1.25 0.45 0.1 iso 5.68 5.68 0.5 mtk yes tchain 5 pchain 5
run 500000 # 5000000  # Run for this many steps
Neighbor list info ...
  update every 1 steps, delay 10 steps, check yes
  max neighbors/atom: 2000, page size: 100000
  master list distance cutoff = 3.8
  ghost atom cutoff = 3.8
  binsize = 1.9, bins = 8 8 8
  4 neighbor lists, perpetual/occasional/extra = 1 3 0
  (1) pair lj/cut, perpetual
      attributes: half, newton on
      pair build: half/bin/atomonly/newton
      stencil: half/bin/3d
      bin: standard
  (2) compute orientorder/atom, occasional
      attributes: full, newton on
      pair build: full/bin/atomonly
      stencil: full/bin/3d
      bin: standard
  (3) compute coord/atom, occasional
      attributes: full, newton on
      pair build: full/bin/atomonly
      stencil: full/bin/3d
      bin: standard
  (4) compute cluster/atom, occasional
      attributes: full, newton on
      pair build: full/bin/atomonly
      stencil: full/bin/3d
      bin: standard
Per MPI rank memory allocation (min/avg/max) = 9.837 | 9.842 | 9.848 Mbytes
Step Temp PotEng c_msd[4] v_twopoint v_fit v_max_n 
   12000    1.2569475   -4.5531073 1.867431e-30 1.296827e-32 8.3333333e+20            1 
   13000    1.2469124   -4.5503636     0.795182 0.0050973203   0.06734361            2 
   14000    1.2488174   -4.5779214    1.5733611 0.0093652442   0.06618784            4 
   15000    1.2444002   -4.5842444    2.3662596  0.013145886  0.065812863            2 
   16000    1.2389077   -4.5118568    3.2355873  0.016852017  0.066988034            2 
   17000    1.2146092   -4.5320253     4.032804  0.019768647  0.067053257            2 
   18000    1.2248628   -4.5340741    4.8244575  0.022335451  0.067379011            2 
   19000    1.2548766   -4.5593539    5.6095518  0.024603297  0.067089021            2 
   20000    1.2245576    -4.523738    6.4220142  0.026758392  0.067077771            5 
   21000    1.2180654    -4.544793     7.101541  0.028180718  0.066837442            1 
   22000    1.2369426    -4.554488    7.8409407  0.029700532   0.06629273            2 
   23000    1.2187784   -4.5565037    8.6797652  0.031448424  0.065915165            2 
   24000    1.2212464   -4.5417267    9.5422429  0.033132787  0.065923821            1 
   25000    1.2214561   -4.5644125    10.222152  0.034073838  0.065679857            3 
   26000    1.1995589   -4.5492319    11.091377  0.035549285  0.065620984            1 
   27000    1.2322158   -4.6091136    11.691765  0.036085695  0.065437107            2 
   28000    1.2162089   -4.5589898    12.519903  0.037261615  0.065321475            1 
   29000     1.241947   -4.5683278    13.332806   0.03831266  0.065180736            3 
   30000    1.2185875    -4.601413    14.055727  0.039043685  0.065046518            2 
   31000      1.21313   -4.5913501    14.762979  0.039685426  0.064891895            3 
   32000    1.2011452   -4.6313451    15.702254  0.040891286  0.064835801            1 
   33000    1.2248752   -4.6157836    16.391917   0.04139373  0.064859154            3 
   34000    1.2274836   -4.5983896    17.224794  0.042217631  0.064872814            4 
   35000    1.2231405   -4.5709169    17.952015  0.042742892  0.064864138            1 
   36000    1.2014039    -4.618622    18.510291  0.042847895  0.064794961            2 
   37000    1.2126596   -4.6392535    19.144186  0.043117535  0.064650109            2 
   38000     1.219844   -4.6361125    20.138502  0.044163382  0.064479307            2 
   39000    1.2053414   -4.6015875    20.782337  0.044406703  0.064397892            3 
   40000     1.199599   -4.6375965    21.503422  0.044798795  0.064262124            1 
   41000    1.1795164   -4.6071186    22.305377  0.045336131  0.064139045            3 
   42000    1.2335931   -4.6052711    23.079797  0.045793248  0.064032093            3 
   43000    1.2172924   -4.6218349    23.661832  0.045856264  0.063948134            2 
   44000    1.2049278    -4.639866     24.51631  0.046432405   0.06383452            2 
   45000    1.2042396   -4.6503943    25.414106   0.04706316  0.063763158            3 
   46000    1.1770253   -4.6466807     26.06697  0.047222772   0.06372847            2 
   47000    1.1796363   -4.6129364    27.037247   0.04793838  0.063699573            2 
   48000    1.1922378   -4.6117367    27.691665  0.048075806  0.063688313            3 
   49000     1.176208   -4.6475921    28.433085  0.048355587  0.063676284            3 
   50000    1.1898673   -4.6713923    29.187474   0.04864579   0.06366622            3 
   51000    1.1682829   -4.6163092    29.856944  0.048785856  0.063611463            1 
   52000    1.1636877   -4.6701173    30.451405  0.048800329  0.063552588            2 
   53000    1.1842958   -4.6576059    31.178015  0.049022036  0.063440082            3 
   54000    1.2004403   -4.6105372    32.247967  0.049765381  0.063393895            5 
   55000    1.1530707   -4.6559723    32.865995  0.049796962  0.063382472            2 
   56000    1.1632678    -4.649677    33.677459  0.050115265  0.063371712            2 
   57000    1.1906788   -4.6606146    34.124651   0.04988984  0.063329553            1 
   58000    1.1584174    -4.641165    34.946249  0.050210128  0.063256573            2 
   59000    1.1608443   -4.6907105    35.365446  0.049951194  0.063155613            2 
   60000    1.1658759   -4.6524116    36.295205  0.050410007  0.063038314            1 
   61000    1.1814033   -4.6547661    37.270822  0.050916423  0.062969787            1 
   62000    1.1986523   -4.6511065    37.813723  0.050824896  0.062910366            2 
   63000     1.166871   -4.6622326    38.429926  0.050833235  0.062833828            2 
   64000    1.1699001    -4.667777     39.11493  0.050930898  0.062761933            1 
   65000    1.1813771   -4.7044337    39.623094  0.050798839  0.062664232            1 
   66000    1.1515006   -4.7042486    40.205594  0.050764639  0.062549514            3 
   67000    1.1791267   -4.6822881    40.785595  0.050728352  0.062451541            2 
   68000      1.16877   -4.7019663    41.871585  0.051313217  0.062332685            1 
   69000    1.1514608   -4.6994476    42.332778  0.051126543  0.062236942            2 
   70000    1.1954715   -4.6736199    43.233713  0.051468705  0.062143827            3 
   71000    1.1461815   -4.6957351    43.964994  0.051602105  0.062054734            3 
   72000    1.1292511   -4.6958472    44.418858  0.051410715   0.06196233            4 
   73000    1.1539483   -4.7318232    45.321699  0.051737099  0.061890098            3 
   74000    1.1391706    -4.679131    46.223725  0.052053744  0.061830298            2 
   75000    1.1484599   -4.6849118    46.832648  0.052036275  0.061777179            1 
   76000    1.1541427   -4.6968618    48.086878   0.05272684  0.061742946            3 
   77000    1.1571453   -4.6934894    48.730762   0.05273892  0.061711426            2 
   78000    1.1327916   -4.6764738    49.359611  0.052734626  0.061679908            1 
   79000    1.1299884   -4.7681674    49.355547  0.052062813  0.061622628            2 
   80000    1.1562371   -4.7602753    50.148824  0.052238359  0.061558982            4 
   81000    1.1180447    -4.729278     50.83816  0.052302633  0.061473623            1 
   82000    1.1282683   -4.7355315    51.577227  0.052415881  0.061387916            3 
   83000    1.1236377    -4.728117    51.852493  0.052060735  0.061294007            4 
   84000    1.1169614   -4.7229342    52.436483   0.05202032  0.061180265            2 
   85000    1.1233466   -4.7134091     53.20025  0.052157107  0.061072624            2 
   86000    1.1286435   -4.7450028     53.54113  0.051880939  0.060967878            3 
   87000    1.1244247   -4.7779028    54.362555  0.052071413  0.060855855            2 
   88000    1.1200018   -4.7552463    54.957978   0.05204354  0.060745858            4 
   89000    1.1138886   -4.7563027    55.265636   0.05174685  0.060617225            2 
   90000    1.1262735   -4.7293635     56.20534  0.052041982  0.060483558            3 
   91000    1.1242295    -4.781905    56.343852  0.051596934  0.060339222            2 
   92000    1.1197379    -4.764954    56.962202  0.051596197  0.060179914            3 
   93000    1.1149619   -4.7539228    57.524823   0.05154554  0.060026552            2 
   94000    1.1092875   -4.7357228    57.994423  0.051413495  0.059866477            2 
   95000    1.1082924   -4.7815626    58.568549   0.05137592   0.05971327            1 
   96000     1.127541   -4.7910827    59.123162  0.051322189  0.059558571            2 
   97000    1.1150252   -4.7937027    59.598355  0.051201336  0.059409565            2 
   98000    1.1303872   -4.7888608    60.142653  0.051141711  0.059258515            2 
   99000    1.1154056   -4.8146469    60.555461   0.05097261  0.059100863            1 
  100000    1.1094652   -4.7836891    61.438086  0.051198405  0.058943865            3 
  101000    1.1102193    -4.779927    62.160702  0.051287708   0.05881049            2 
  102000    1.0973966   -4.7794914    62.599724  0.051143565  0.058670811            2 
  103000    1.0994054   -4.7743031    63.261343  0.051182316  0.058527601            3 
  104000    1.0864622   -4.7611443    63.888836  0.051192977  0.058396513            7 
  105000    1.1115776   -4.8328085    64.220878   0.05096895  0.058257554            5 
  106000    1.0854902   -4.7844488     65.14561  0.051215102  0.058123801            3 
  107000    1.1154407   -4.8055521    65.824879  0.051265482  0.058002056            2 
  108000    1.1058199   -4.8116062    66.059597  0.050971911  0.057873533            2 
  109000    1.0865579   -4.8053439    66.708768  0.051000587  0.057748316            4 
  110000    1.0916477   -4.8591834    67.073478   0.05081324  0.057622554            3 
  111000    1.0976467   -4.8052413    67.801969  0.050902379  0.057492742            2 
  112000    1.0954816    -4.801685    68.585673  0.051031006  0.057367118            3 
  113000    1.0780808   -4.8117502    69.268047   0.05108263  0.057261946            4 
  114000    1.0975551   -4.8083212    70.115967  0.051254362  0.057162216            3 
  115000     1.078658     -4.86508    70.369399  0.050992318  0.057058057            2 
  116000    1.0727753   -4.8392151    70.554113  0.050685426  0.056949193            3 
  117000    1.0757083   -4.8481177    71.140076   0.05066957  0.056833622            2 
  118000    1.0870828    -4.812048    71.794603  0.050702403  0.056717277            2 
  119000    1.0708158   -4.8783819    72.118069  0.050502849  0.056597099            3 
  120000    1.0560609    -4.834195    73.171913  0.050813828  0.056482204            2 
  121000    1.0723467   -4.8285859    73.519165  0.050633033  0.056363269            3 
  122000    1.0721581   -4.8571896    73.932095  0.050500064  0.056246531            4 
  123000    1.0863658   -4.8700042    74.010508  0.050142621  0.056117693            3 
  124000    1.0730874   -4.8441296    74.543453  0.050096406  0.055981473            4 
  125000     1.041171   -4.8454681    74.844118  0.049896079  0.055841321            4 
  126000    1.0648123   -4.8620179    75.396661  0.049865516  0.055702513            4 
  127000    1.0464587   -4.8217526    76.299489  0.050065281  0.055566601            1 
  128000    1.0556462   -4.8779298    76.345238  0.049703931  0.055431077            2 
  129000    1.0451333   -4.8733163    77.052864  0.049775751  0.055296992            2 
  130000    1.0683169   -4.8945784    77.296374  0.049548958  0.055161291            2 
  131000    1.0424666   -4.8858405    77.412164  0.049244379  0.055018632            2 
  132000    1.0696848   -4.8687295    77.828604  0.049134219   0.05486777            4 
  133000    1.0387101   -4.8672606    78.551856  0.049217954  0.054722156            9 
  134000    1.0503337   -4.8812611    78.671651  0.048925156  0.054577985            2 
  135000    1.0471981    -4.882986    79.488363   0.04906689  0.054435791            2 
  136000    1.0376286   -4.9262745    79.615529  0.048784025  0.054292884            3 
  137000    1.0575449   -4.9053988    80.111261  0.048729477  0.054148637            4 
  138000    1.0731298   -4.9040257    80.689176  0.048725348  0.054001435            2 
  139000    1.0767088   -4.9151836    81.091427  0.048615963  0.053859237            4 
  140000     1.058919   -4.9083413    81.377524  0.048439002   0.05371738            1 
  141000    1.0392272   -4.8786389    82.133724   0.04854239  0.053575687            5 
  142000    1.0400669   -4.9072992    82.712163  0.048540001  0.053443816            3 
  143000    1.0291386   -4.9195581    83.000503  0.048368591  0.053307225            2 
  144000    1.0468047   -4.9019894    83.418295  0.048274476  0.053170764            4 
  145000    1.0252609   -4.9582289    83.694741  0.048100426  0.053034211            5 
  146000    1.0159246    -4.904397    84.270081  0.048099361  0.052898119            2 
  147000    1.0383361   -4.9250582    84.712163  0.048022768  0.052761023            3 
  148000    1.0215938   -4.9239971    85.091038  0.047911621  0.052625548            3 
  149000    1.0218767   -4.9114315    85.631241  0.047892193  0.052484324            2 
  150000    1.0425771   -4.9054069    85.873709  0.047707616  0.052345647            4 
  151000    1.0413158   -4.9175631    86.858715  0.047935273  0.052210233            2 
  152000    1.0362215   -4.9747537     86.81045  0.047593448  0.052082018            3 
  153000    1.0453898   -4.9285856    87.505748  0.047661082  0.051952374            6 
  154000    1.0172966   -4.9442365     88.13692  0.047693138  0.051822061            3 
  155000    1.0033526   -4.9733372    87.721376   0.04716203   0.05169111            4 
  156000    1.0174288    -4.943828    88.499482  0.047275364  0.051561368            3 
  157000    1.0080587   -4.9396035     88.74419  0.047104135  0.051430889            4 
  158000    1.0223726   -4.9470333    89.254179  0.047074989  0.051298228            5 
  159000    1.0131517   -4.9445843    89.445389  0.046879135  0.051167157           11 
  160000    1.0089195   -5.0049185    89.923658  0.046835238  0.051037298            2 
  161000    1.0319341   -4.9427681      90.6389  0.046914544  0.050908099            3 
  162000     1.017795   -4.9933501    90.777944  0.046696473  0.050774055            2 
  163000   0.99084642   -4.9755137    91.199707  0.046625617  0.050639025            5 
  164000   0.99030552   -4.9618772    92.058141  0.046777511  0.050511654            2 
  165000   0.99537192   -4.9533778     92.08529  0.046507722  0.050387523            2 
  166000    1.0018708   -4.9537221    92.963369  0.046668358  0.050268465            2 
  167000   0.99933548   -4.9985719    93.381479  0.046597544  0.050149433            5 
  168000    1.0135524   -4.9740246     93.92123  0.046587911   0.05003168            3 
  169000   0.99768095   -5.0327757    93.916438  0.046309881  0.049911927            4 
  170000   0.99186996   -4.9931316    94.497693  0.046322398  0.049794364            6 
  171000   0.98260664   -5.0284686    95.009562  0.046300956  0.049678125            4 
  172000   0.99288801   -5.0251007    95.424583   0.04623284  0.049560756            2 
  173000   0.99187299   -5.0342062    95.772932  0.046133397  0.049441907            5 
  174000    1.0065977   -5.0275236    95.698434  0.045832583  0.049323086            5 
  175000   0.98236498   -4.9740897    96.828532  0.046108825  0.049210291            2 
  176000   0.99817953    -5.013199    96.635633  0.045755508  0.049096299            4 
  177000   0.98587013   -5.0219848    97.096157  0.045713821  0.048978928            4 
  178000   0.97155311   -5.0395573    97.488287  0.045640584  0.048862278            6 
  179000   0.98533131   -5.0377247    97.810706  0.045535711   0.04874852            3 
  180000   0.97854606   -5.0308434    97.818717  0.045286443  0.048628571            2 
  181000   0.97075812   -4.9914428    98.850967  0.045511495  0.048513299            3 
  182000   0.98834024   -5.0351368    99.211506  0.045426513  0.048400418            3 
  183000   0.97667984   -5.0360615    99.338205  0.045235977  0.048288985            4 
  184000   0.95415746   -5.0592979    99.797454  0.045198122  0.048179097            4 
  185000   0.96768171   -5.0361978    100.47957  0.045261066   0.04806761            4 
  186000   0.97528639   -5.0636233    100.73313  0.045131329  0.047953495            5 
  187000   0.96410859   -5.0602643    100.89231  0.044960921   0.04784349            1 
  188000    0.9464129   -5.0244126     101.2988  0.044901951  0.047734039            2 
  189000   0.97079478   -5.0599894    101.46482  0.044737575  0.047623655            5 
  190000    0.9675033   -5.0673788    101.97189  0.044724512  0.047511566            2 
  191000   0.96168181   -5.0554078    102.45082  0.044699311  0.047399341            4 
  192000   0.94647907   -5.0532138    102.76579  0.044603207  0.047289511            3 
  193000   0.94239028    -5.027741    103.39707  0.044644675  0.047182824            2 
  194000   0.92077682   -5.0783323      103.728  0.044556702  0.047075754            4 
  195000    0.9581834   -5.0688164    103.91938   0.04440999  0.046967611            8 
  196000   0.95544296   -5.0719472    104.32626  0.044356405  0.046862995            3 
  197000    0.9356822   -5.0900721    104.64726  0.044267031   0.04675582            3 
  198000   0.95185615   -5.0651524    104.69043  0.044061629  0.046646613            3 
  199000   0.95747126   -5.0955398    105.40737  0.044140442   0.04653933            6 
  200000   0.95333066   -5.0710784     105.8759  0.044114956  0.046431215            5 
  201000   0.95617947   -5.1086106    105.79109   0.04386032  0.046324094            6 
  202000   0.93154263   -5.0922654    106.16746  0.043798457  0.046219203            6 
  203000   0.93268787   -5.0897484    106.85414  0.043864588  0.046118577            3 
  204000   0.97614473   -5.0702263    107.77196  0.044024492   0.04602077            3 
  205000   0.96393368   -5.1229431    107.73533  0.043794848  0.045923762            8 
  206000   0.92656954     -5.13477    107.99036  0.043685419  0.045823576            4 
  207000   0.93255527   -5.1351376    108.18619  0.043553216  0.045722924            2 
  208000     0.962805   -5.1135389    108.85314  0.043611032   0.04562578            3 
  209000   0.95971873    -5.131291     109.1249  0.043510727  0.045528021            4 
  210000   0.92502418   -5.1081666    109.76529  0.043557656  0.045430054            4 
  211000   0.92675288   -5.1351403    109.72881  0.043336812  0.045333034            4 
  212000   0.94908242   -5.1328213    110.33044  0.043368882  0.045234861            3 
  213000   0.93518431   -5.1092005     110.4451  0.043210132  0.045139345            3 
  214000   0.93578426   -5.1447754    110.41915  0.042998112    0.0450422            2 
  215000   0.93244068    -5.117754     111.4558  0.043199923  0.044945264            5 
  216000   0.90642146   -5.1383404    111.69644  0.043092761  0.044849588            5 
  217000   0.92973615   -5.1515208    112.04723  0.043028888  0.044756339            3 
  218000   0.91115458   -5.1204211    112.65664  0.043064465     0.044664            4 
  219000   0.92854066   -5.1399865    112.39232  0.042767245  0.044570997            4 
  220000   0.92730851   -5.1387137    112.45423  0.042596299  0.044475083            9 
  221000    0.9147475   -5.1699708    112.76606  0.042521137  0.044378224            4 
  222000   0.91294348   -5.1853925     112.4302  0.042203528  0.044277382            2 
  223000   0.89967259   -5.1566057    113.02589  0.042236879  0.044176181            6 
  224000     0.921273   -5.1820663    112.91398   0.04200669  0.044074197            4 
  225000   0.92633225   -5.1792621    113.72015  0.042118574  0.043975632            3 
  226000    0.9072463   -5.1523978    113.92395  0.042007356  0.043879451            6 
  227000   0.90622982   -5.1898388    114.30137  0.041960856  0.043783423            2 
  228000    0.8852405   -5.1579079    115.17472  0.042096023  0.043689411            3 
  229000   0.88873037   -5.1827336     115.3991  0.041993849  0.043596365            6 
  230000   0.88185515   -5.1863487    115.70012  0.041920334  0.043503723            4 
  231000   0.88524904   -5.1947996    115.71005  0.041742441  0.043409767            4 
  232000   0.91015791   -5.1985257    115.91078  0.041634619  0.043315038            6 
  233000   0.88477178   -5.1899122    116.13325  0.041535498  0.043220395            3 
  234000   0.88841593   -5.1864728    116.50221  0.041489392  0.043125832            5 
  235000   0.90222042   -5.2335999    116.71715  0.041389061  0.043031157            6 
  236000   0.90016304   -5.2419907     116.9272  0.041287852  0.042936157           11 
  237000   0.89823968   -5.2276329    117.04531  0.041155172  0.042838931            7 
  238000    0.9031849   -5.2442199    117.40631  0.041108653  0.042741479            5 
  239000   0.88690573     -5.21311    117.55219  0.040987515  0.042643334            6 
  240000    0.8872927   -5.2425582    117.91781  0.040943685  0.042547006            3 
  241000   0.87301009   -5.2111349    117.98228  0.040796086  0.042449547            3 
  242000   0.86696458   -5.2429438    118.35088  0.040754436  0.042351024            8 
  243000   0.88616473   -5.2319334    118.58019   0.04066536  0.042252748            4 
  244000   0.87949882   -5.2245626    118.70486  0.040541276   0.04215498            7 
  245000   0.87874949   -5.2478517    118.89284  0.040439742  0.042054342            3 
  246000   0.86727549   -5.2039494    119.09405  0.040343513  0.041955796            4 
  247000   0.87404247   -5.2459453     119.2924  0.040247097   0.04185626           10 
  248000   0.88318921   -5.2751692    119.32897  0.040097099  0.041755417            7 
  249000   0.85470445   -5.2471981    119.87174  0.040117717  0.041657356            4 
  250000   0.87896509    -5.258111    120.19555  0.040065185  0.041560013            9 
  251000   0.85160957   -5.2389964    120.45795   0.03999268  0.041463078            3 
  252000   0.86707239   -5.2828941     120.7414  0.039927712   0.04136695            2 
  253000   0.85312978   -5.2705623    120.95423  0.039839996  0.041271742            3 
  254000   0.88002671   -5.2746202    121.34271    0.0398106  0.041176607            4 
  255000   0.84724156   -5.2673328    121.57254  0.039729587  0.041081307            6 
  256000   0.86711827   -5.2717219    121.75829  0.039634861  0.040987117            7 
  257000   0.85039617   -5.2778454    122.35138   0.03967295  0.040893781            3 
  258000   0.86992101   -5.2720622    122.61154  0.039603211  0.040801152            7 
  259000   0.84369673   -5.2750974    122.94106  0.039556326  0.040709445            6 
  260000   0.86724196   -5.2794096    123.18313  0.039481771  0.040618134            3 
  261000   0.86069274    -5.278702    122.76797  0.039197946  0.040526018            6 
  262000   0.86278764   -5.2860854    123.33816  0.039229694  0.040432394            9 
  263000   0.83982344   -5.2962841    123.74098   0.03920817  0.040340566            5 
  264000   0.85480532   -5.2712238     124.2084  0.039207195  0.040249295            4 
  265000   0.86051308   -5.2910001    124.38623  0.039115166  0.040158469            5 
  266000   0.84129287   -5.3356515    124.36279  0.038960775  0.040067066            4 
  267000   0.85759966   -5.3050533    124.59189  0.038886358  0.039975674            5 
  268000    0.8188041   -5.3160308    124.91147  0.038840631  0.039886305            4 
  269000   0.82658999   -5.3172366    124.75902  0.038649014  0.039795942            4 
  270000   0.83204196    -5.299543    125.70621  0.038798213  0.039706669            6 
  271000   0.81469727   -5.2994257    125.75335  0.038669541  0.039617594            8 
  272000   0.83381514   -5.3147419    126.06568  0.038623064  0.039527553            5 
  273000   0.82317038   -5.3173868     126.1149  0.038496613  0.039436854            7 
  274000   0.83242672   -5.3384749    125.63175  0.038209171  0.039346673            6 
  275000   0.83452256   -5.3473685     126.0879  0.038208454  0.039255769            6 
  276000   0.80469513    -5.336077    125.81521  0.037987684  0.039163319            4 
  277000   0.83872727   -5.3547999    126.63223  0.038096338  0.039071823            7 
  278000   0.81169367   -5.3368056    126.98358  0.038064624  0.038981888            6 
  279000   0.81324367   -5.3481531    126.99946  0.037932934  0.038891694            9 
  280000   0.80543056   -5.3405129    127.27146   0.03787841  0.038801328            5 
  281000   0.82278401   -5.3307024    127.40427  0.037782999  0.038711466            6 
  282000   0.82484177   -5.3877204    126.76377  0.037459742  0.038619502            5 
  283000   0.80975637   -5.3757019    127.23921  0.037467375  0.038526605            5 
  284000   0.81786873   -5.3797097    127.53434  0.037422047  0.038434649            5 
  285000   0.81828687   -5.3711633    127.85657  0.037384962  0.038342752            6 
  286000   0.80816403   -5.3749709    127.88687  0.037263073  0.038250594            7 
  287000    0.8143309   -5.3795283    127.93368   0.03714683  0.038157764            6 
  288000   0.79824331   -5.4220443    128.00914   0.03703968  0.038065305            4 
  289000   0.79193083   -5.3997374    127.79822  0.036850697  0.037971693            6 
  290000   0.80418704   -5.4151122    128.17421   0.03683167  0.037878181            4 
  291000   0.78208449   -5.3991172    128.15466  0.036699502  0.037785297           11 
  292000   0.80831132   -5.4172408    128.75316  0.036744622   0.03769274            3 
  293000   0.80300983   -5.3739789    129.03683  0.036699894  0.037600181            4 
  294000   0.79010727   -5.4099606    128.83992  0.036519251  0.037508571            6 
  295000   0.78968536   -5.4309574    128.84885  0.036397979  0.037415771            7 
  296000   0.79168626   -5.4372876    128.88253  0.036284496  0.037322426           14 
  297000   0.79667354   -5.4151656     129.2672  0.036270259  0.037229595            5 
  298000    0.7852555   -5.4393814    129.31693  0.036162453  0.037137541            6 
  299000   0.79222155   -5.3742477    130.09843  0.036259318  0.037045818            4 
  300000   0.78811661   -5.4416606    129.31649  0.035921248  0.036953746            5 
  301000   0.77490049   -5.3997798    130.35389  0.036089117   0.03686278            3 
  302000   0.79212901   -5.4519987    129.93164  0.035853103   0.03677209           16 
  303000   0.78147304   -5.4175518    130.80334  0.035974516  0.036681011            4 
  304000   0.79857001    -5.423853    130.22099  0.035696542  0.036590215            5 
  305000   0.78749213   -5.4146867    130.63756  0.035693321  0.036500052            3 
  306000   0.77379173   -5.4354926    131.06002  0.035691726  0.036409858           16 
  307000   0.76178374   -5.4354369    131.23477  0.035622903  0.036319581            8 
  308000   0.77382968    -5.431291    131.12699  0.035478082   0.03622908            8 
  309000   0.76182639   -5.4289053    131.24039  0.035393849  0.036140436            7 
  310000   0.78067386   -5.4551857    131.48222  0.035344682  0.036052203            5 
  311000   0.77927366   -5.4644522    132.04964  0.035383075  0.035964866            8 
  312000   0.75481628   -5.4554065    132.20256  0.035310512  0.035877406            3 
  313000   0.77417809   -5.4661363     131.9427  0.035128513  0.035789595            7 
  314000   0.76242431   -5.4648675    132.35418  0.035125843  0.035701786            6 
  315000   0.76302151   -5.4852303    132.33462  0.035009157  0.035613874            5 
  316000   0.76718081    -5.504493    132.41643  0.034919946  0.035526435            8 
  317000   0.74907882   -5.5014745    132.75478  0.034898733  0.035438312            4 
  318000   0.75773232   -5.5016745    132.44057  0.034706648  0.035350944           13 
  319000   0.76059836   -5.5096948    132.66113  0.034655468  0.035263615            6 
  320000   0.75244726   -5.4978845    132.70495  0.034558581  0.035176225            6 
  321000   0.75384182    -5.499005    132.55204  0.034411225  0.035089298            5 
  322000   0.76293013    -5.499815    133.39346  0.034522117  0.035002405            4 
  323000   0.75600399   -5.5391513    133.27624  0.034384996  0.034917073           11 
  324000   0.75070701   -5.5046737    133.94626  0.034451198  0.034832472            4 
  325000   0.74197042   -5.5134868     134.2152  0.034414153  0.034748038            3 
  326000   0.75158971   -5.5117277    134.40751  0.034357749  0.034664139            5 
  327000   0.71047284   -5.5012469    134.41239  0.034253923  0.034580812           12 
  328000   0.74673717   -5.5400118    134.51172  0.034174725  0.034497067           15 
  329000   0.74650981   -5.4990391    134.86212  0.034159604  0.034413942            5 
  330000   0.72809715   -5.5261437    134.67472  0.034008768  0.034331627            5 
  331000    0.7589672   -5.5246555     135.0436  0.033998893   0.03424927            9 
  332000   0.73844788   -5.5122562    135.28891  0.033958059  0.034167255            6 
  333000   0.73435162   -5.5101603    135.27361  0.033852256  0.034085145            7 
  334000   0.73966284   -5.5427299    135.37071  0.033775126  0.034003089            8 
  335000   0.74503513   -5.5326448    135.06803  0.033599012  0.033919847           13 
  336000   0.72236821   -5.5423874    135.82326  0.033686326  0.033837554           18 
  337000   0.72957792   -5.5862214    135.21992   0.03343717  0.033755213            9 
  338000   0.73389947   -5.5378422    135.78996  0.033478787  0.033673464           12 
  339000   0.72139031   -5.5675735    135.86411  0.033398257  0.033591586            7 
  340000   0.71176923   -5.5875808     135.9517  0.033321496  0.033509621            6 
  341000   0.72084454   -5.5838843    136.04975  0.033247739  0.033428555            7 
  342000   0.71954376   -5.5934209    136.41611  0.033239793  0.033347897            6 
  343000   0.72952804   -5.6081554    135.81102  0.032995874  0.033267005           18 
  344000   0.71795489   -5.6080107    135.74741  0.032884546  0.033184725            7 
  345000   0.73671793   -5.5467656    136.32409  0.032928524  0.033102755            7 
  346000   0.71448528   -5.5664754    136.65293  0.032912555  0.033021073            6 
  347000   0.71599787   -5.6187775    136.06789  0.032677208  0.032939336           14 
  348000   0.71489313   -5.6074356    136.35924  0.032653076   0.03285716           13 
  349000    0.7087007   -5.6038784    136.88548  0.032685167  0.032776112            4 
  350000   0.71854706   -5.6048293    136.22544  0.032434629   0.03269427           19 
  351000   0.70636885   -5.6228482    136.80579  0.032480007  0.032612391            8 
  352000   0.71759518     -5.62295     136.9704  0.032426705  0.032531807           10 
  353000   0.70753271    -5.623547    137.00113  0.032342098  0.032450931            8 
  354000   0.70928043   -5.6288066     137.0442  0.032260877  0.032370405            6 
  355000   0.70371605   -5.6437924    137.19803  0.032206109  0.032289433            6 
  356000   0.68918915   -5.6125378    137.26619    0.0321316  0.032208908            6 
  357000   0.69382359   -5.6190154     137.2212  0.032031093  0.032129301            5 
  358000   0.69809804   -5.6454681    137.27011  0.031953005  0.032049521           11 
  359000    0.7056394   -5.6457843    137.49511  0.031916229  0.031969197           17 
  360000   0.69436992   -5.6354956    137.34126  0.031791959  0.031889314           31 
  361000   0.67818678   -5.6323228    137.97531  0.031850256  0.031809317           15 
  362000   0.68596531   -5.6575395    137.61887  0.031680218  0.031729504            6 
  363000   0.70202513   -5.6559174    138.03661  0.031688846  0.031650116            8 
  364000   0.67755122   -5.6754898    138.08315  0.031612443  0.031571066            8 
  365000   0.68399161   -5.6229765    138.53101  0.031628085  0.031492574           10 
  366000   0.66461643   -5.6784693    137.89379  0.031396582  0.031414241            9 
  367000   0.69160657    -5.678244    138.26058  0.031394319   0.03133612           10 
  368000   0.68057082   -5.6565849    138.32993  0.031324712  0.031258364            6 
  369000   0.68096185   -5.6912229     138.4187  0.031259868  0.031180717            8 
  370000   0.65236018   -5.6843739    138.48296  0.031189855  0.031102761            5 
  371000   0.67466135   -5.6711602    138.61495  0.031135433  0.031025309           17 
  372000   0.66719474   -5.7011437     138.5026  0.031026568  0.030948228           11 
  373000   0.67334039   -5.6792127     138.8563  0.031022407  0.030871528            8 
  374000   0.65706953   -5.6617675    139.05102  0.030982847  0.030794836            6 
  375000   0.65532609   -5.6966327    138.92968  0.030873262  0.030718465            6 
  376000    0.6633943   -5.6865966     138.9797  0.030802238  0.030642259           18 
  377000   0.65278689   -5.6756501    139.23599  0.030777185  0.030566022           17 
  378000    0.6614984   -5.6885159    139.01394  0.030646812  0.030489398           17 
  379000   0.67012601   -5.7158583     139.2566  0.030619304  0.030412682           17 
  380000   0.65619571    -5.746599    139.15753  0.030517003  0.030336109            7 
  381000   0.66213987   -5.6979421    139.15062  0.030435393  0.030259795           22 
  382000   0.66773877   -5.7030874     139.4539  0.030421881  0.030183809           11 
  383000   0.66249086   -5.7186483    139.48945  0.030350186  0.030107589           17 
  384000   0.65840671    -5.726714    139.38286  0.030248016  0.030031364           19 
  385000   0.66216412    -5.723923    139.75745  0.030250529  0.029955178           14 
  386000   0.65182017   -5.7237057    139.44206  0.030104071   0.02987942            7 
  387000    0.6459442   -5.7513103    139.41197  0.030019805  0.029804023           12 
  388000   0.64729413   -5.7317183    139.48941  0.029959066  0.029727913            7 
  389000   0.63932671   -5.7439987    139.85285  0.029959909  0.029651888           10 
  390000   0.64662311   -5.7318643    139.74017   0.02985901  0.029575964            9 
  391000   0.63635047   -5.7358754    139.68422  0.029770721  0.029500396           10 
  392000   0.64020953   -5.7782467    139.52291  0.029660482  0.029424353            7 
  393000   0.63735004   -5.7816157     139.5081   0.02958187  0.029348405           24 
  394000   0.64289385   -5.7716261    139.71539  0.029550632  0.029272618           23 
  395000   0.63641681   -5.7823103    139.29251  0.029386605  0.029196392           11 
  396000   0.64723387    -5.790732    139.48824  0.029353586  0.029119583           17 
  397000   0.62053181   -5.7777639    139.63916  0.029311326  0.029043171           19 
  398000   0.63561096    -5.793408    139.73027  0.029256757  0.028966984           15 
  399000   0.63922254   -5.8049128    139.48825  0.029132885  0.028890918           14 
  400000   0.62761242   -5.7988091    139.59586   0.02908247  0.028814803           16 
  401000   0.62563862    -5.827028    139.18485  0.028924533  0.028738973           11 
  402000   0.62151136   -5.7917404    139.67659  0.028954518  0.028663475           21 
  403000   0.63615154   -5.7966075    139.47775  0.028841554  0.028588062           39 
  404000   0.61672764   -5.7828982    140.06031  0.028890329  0.028513337           15 
  405000   0.62223351   -5.8015116    139.78717  0.028762793  0.028438971            7 
  406000   0.62085205   -5.8138731    139.79924  0.028694426  0.028364027           30 
  407000   0.62220153   -5.8140315    139.97578  0.028660069  0.028288965           27 
  408000   0.63404607   -5.8249433    139.88782  0.028571859  0.028213802           42 
  409000   0.60107958   -5.8020133    140.10308   0.02854586  0.028138681           54 
  410000   0.61369244   -5.8254211    139.63538  0.028381175  0.028063778           39 
  411000    0.6158968   -5.8574553    139.52776    0.0282903  0.027989048           23 
  412000   0.61141135   -5.8406799    139.88817  0.028294533  0.027914057           55 
  413000   0.62230727   -5.8479229    139.88333  0.028225046  0.027838759           23 
  414000   0.60626049   -5.8678641    139.47763  0.028075207  0.027763551           37 
  415000   0.61313584   -5.8657379    139.38153   0.02798826  0.027688489           24 
  416000   0.59349078   -5.8762994    139.91178  0.028027199  0.027613587           93 
  417000   0.59060739   -5.8883045     139.5469   0.02788707  0.027539113           13 
  418000   0.59244311   -5.8650798    140.09042  0.027928712  0.027464841           23 
  419000   0.59453133    -5.873648    139.81356  0.027806993  0.027390604           20 
  420000   0.59688913   -5.8968208    139.78329   0.02773478  0.027316619           18 
  421000   0.58867336    -5.854799    139.68801  0.027650041  0.027242849           31 
  422000   0.59759738   -5.8792265    139.68689  0.027584299  0.027168972           25 
  423000   0.60081566    -5.865865    139.90073  0.027561216  0.027095735           73 
  424000    0.5751046   -5.9162718    139.81051  0.027478481  0.027022674           48 
  425000   0.60165252   -5.9036525    139.94778  0.027440741  0.026949595           17 
  426000   0.59403556   -5.9024286    139.83014  0.027353314  0.026876736           28 
  427000   0.58628298   -5.9049663    140.03791  0.027329803  0.026803817           19 
  428000   0.58014456   -5.9344425     139.5642  0.027173714  0.026730765           22 
  429000   0.57782306   -5.9107688    139.78884   0.02715401  0.026658135           14 
  430000   0.59731727   -5.9101739    139.95149  0.027122382  0.026585695           15 
  431000   0.58352144   -5.9412379    139.86603   0.02704293  0.026513236            8 
  432000   0.58525856   -5.9317585    139.80927  0.026969381  0.026440792           27 
  433000   0.58500654   -5.9164613    139.68942   0.02688403   0.02636874           27 
  434000   0.57495619   -5.9082958    140.14515  0.026909591  0.026297145           23 
  435000   0.57219688   -5.9380832    140.28973  0.026875427  0.026225986           14 
  436000   0.56619128    -5.916073    140.38801  0.026832571   0.02615535           16 
  437000   0.56224263   -5.9404301    140.06219  0.026709036  0.026084623           38 
  438000   0.57465398    -5.939515    140.22009  0.026678098  0.026013914           21 
  439000   0.56909976   -5.9482966    139.82467  0.026542268  0.025943284           21 
  440000   0.56262896   -5.9642825    140.24491  0.026561537  0.025873011           17 
  441000   0.55828837   -5.9549305    140.44379  0.026538888  0.025802915           19 
  442000   0.56382918   -5.9210534    140.36092  0.026463219  0.025733046           30 
  443000   0.56753055   -5.9400313    140.37774  0.026406649  0.025663481           25 
  444000   0.55810463   -5.9533292     140.4847  0.026367248  0.025594404           30 
  445000    0.5484728   -5.9614972    140.27681  0.026269066  0.025525195           23 
  446000    0.5497412   -5.9702539    140.30788  0.026215972  0.025455851           41 
  447000   0.54259623   -5.9616702    140.40321  0.026175095  0.025386474           52 
  448000   0.55803174    -5.967337    140.31033  0.026099392  0.025317537           50 
  449000   0.54253215   -5.9864957    140.57782  0.026090909  0.025248963           44 
  450000   0.55431624   -5.9745864    140.16581  0.025956631  0.025180244           31 
  451000   0.54819666   -5.9783669    140.43684  0.025949158   0.02511132           10 
  452000   0.55940125   -5.9883167    140.09566  0.025828845  0.025042696           36 
  453000   0.54434982   -6.0052519    140.37156  0.025822583  0.024973886           22 
  454000   0.53148726     -5.99163    140.23172  0.025740037  0.024905416           61 
  455000   0.53790333   -5.9916993    140.43357  0.025720434  0.024837469           21 
  456000   0.53169819   -5.9861464    140.29018  0.025637825  0.024769624           22 
  457000   0.53695348   -6.0031678    140.28004  0.025579877  0.024701955           26 
  458000   0.53813114   -6.0150112    140.10865   0.02549284  0.024634136           27 
  459000   0.53629248   -5.9968686    140.21433  0.025456486  0.024566505           58 
  460000   0.53774588   -6.0135065    140.07291  0.025375528   0.02449906           24 
  461000   0.54557224   -6.0255658    140.00557   0.02530831  0.024431516           64 
  462000   0.54010436   -5.9950986     140.1869  0.025286237  0.024364279           26 
  463000   0.53039018    -6.015963    140.15547  0.025225966  0.024297096           25 
  464000   0.52901443   -6.0171843    140.05539  0.025153626  0.024230154           12 
  465000   0.53728693   -6.0036674    139.95909  0.025082274  0.024162976           32 
  466000   0.52533834   -6.0240208     139.6219  0.024968152  0.024096029           48 
  467000   0.51435567   -6.0467727    139.65044  0.024919778  0.024028867           18 
  468000   0.52096031   -6.0320614    139.99641  0.024928136  0.023961997           16 
  469000   0.52020562   -6.0329209     139.6585  0.024814943  0.023895271           23 
  470000   0.51650473   -6.0557277    139.87863  0.024801176  0.023828795           25 
  471000   0.50803714    -6.053065    139.66009  0.024709853  0.023762461           24 
  472000   0.50862055   -6.0690696    139.74782  0.024672991  0.023695859           29 
  473000   0.50726338   -6.0489167    139.78491  0.024627363  0.023629512           50 
  474000   0.51297736   -6.0540421     139.8063  0.024579166  0.023563551           46 
  475000   0.51358619   -6.0711662    139.52817  0.024478626  0.023497595           21 
  476000   0.49820802   -6.0705474    139.75397  0.024466731  0.023431743           73 
  477000   0.51143885   -6.0979591    139.51977  0.024374523  0.023365873           20 
  478000   0.50286736   -6.0912417    139.42649  0.024307268  0.023300129           66 
  479000    0.4936903   -6.0910281    139.49614   0.02426864  0.023234641           29 
  480000   0.49849394   -6.0915218    139.71474  0.024256032  0.023169237           89 
  481000   0.49754084   -6.0983179    139.54327  0.024175896  0.023103974           38 
  482000   0.49247234   -6.0838986    139.33382  0.024089526  0.023038956           43 
  483000   0.49504472   -6.0919293    139.53044  0.024073575  0.022974053           26 
  484000    0.4938906   -6.1119667    139.29349  0.023983039  0.022909293           34 
  485000   0.49326116   -6.0972494    139.25268  0.023926578  0.022844814           36 
  486000   0.50077087   -6.1121976    139.44605  0.023910502  0.022780566           34 
  487000   0.48787954   -6.0912802    139.26914  0.023831133  0.022716383           32 
  488000   0.48616136    -6.111132    139.30829  0.023788983  0.022652296           26 
  489000   0.48157954   -6.1086159    139.20747  0.023723154   0.02258825           45 
  490000   0.47694164   -6.1193631    139.15326   0.02366552  0.022524293           31 
  491000   0.48181196   -6.1266646    138.88742  0.023572204  0.022460388           32 
  492000   0.46906521   -6.1190494    139.10005  0.023560306  0.022396648           28 
  493000   0.48190226   -6.1385132    139.12648  0.023516985   0.02233321           22 
  494000   0.48115236   -6.1557883      139.136  0.023470985  0.022269868           42 
  495000   0.46914237   -6.1490229    139.09285  0.023416304  0.022206713           97 
  496000   0.48141037   -6.1484264    139.19645    0.0233865  0.022143733           42 
  497000   0.47173836   -6.1417803    138.87728  0.023285929  0.022080945           44 
  498000   0.47754503   -6.1574823    138.99154  0.023258289    0.0220184           51 
  499000   0.47960572   -6.1576374    138.89879   0.02319619  0.021956033           31 
  500000   0.46486208   -6.1565819    139.06084  0.023176806  0.021893722           25 
  501000   0.46081271   -6.1617304    138.70992  0.023072175  0.021831417           40 
  502000   0.46470802   -6.1710618    138.94158  0.023064671  0.021769342           82 
  503000   0.46214592    -6.157961    138.83429  0.023001042  0.021707496           81 
  504000   0.46080235   -6.1671065    138.88636  0.022964014  0.021645824           86 
  505000   0.45519041    -6.175144    139.13544  0.022959643  0.021584328          121 
  506000   0.45559064   -6.1878188    138.82187  0.022862627  0.021522973          128 
  507000   0.45312312   -6.1900974    138.83674  0.022819976  0.021461864           76 
  508000   0.45401946   -6.1942417    138.93448   0.02279109  0.021400936           81 
  509000   0.45659454   -6.1884522    138.64864  0.022699516  0.021340179           67 
  510000   0.44638599   -6.1679357    138.61766  0.022649945  0.021279727           72 
  511000   0.44717237   -6.1913277    138.80673  0.022636453  0.021219364          124 
  512000    0.4510852   -6.2137305    138.74859  0.022582778  0.021159042          115 
Loop time of 1266.22 on 48 procs for 500000 steps with 4000 atoms

Performance: 68234.444 tau/day, 394.875 timesteps/s
99.4% CPU use with 48 MPI tasks x no OpenMP threads

MPI task timing breakdown:
Section |  min time  |  avg time  |  max time  |%varavg| %total
---------------------------------------------------------------
Pair    | 89.885     | 95.135     | 102.33     |  30.0 |  7.51
Neigh   | 8.6288     | 8.957      | 9.3232     |   6.9 |  0.71
Comm    | 80.636     | 86.975     | 92.568     |  31.4 |  6.87
Output  | 0.88996    | 0.89109    | 0.93041    |   0.6 |  0.07
Modify  | 1059.4     | 1062.7     | 1066.9     |   4.7 | 83.93
Other   |            | 11.57      |            |       |  0.91

Nlocal:        83.3333 ave          91 max          75 min
Histogram: 1 2 4 9 4 9 11 2 5 1
Nghost:        2348.38 ave        2377 max        2331 min
Histogram: 4 4 11 10 5 8 3 1 1 1
Neighs:        16107.7 ave       17981 max       14057 min
Histogram: 1 3 6 8 7 3 7 6 4 3
FullNghs:      32216.5 ave       35433 max       28745 min
Histogram: 1 1 5 10 3 11 8 5 3 1

Total # of neighbors = 1546390
Ave neighs/atom = 386.59750
Neighbor list builds = 26879
Dangerous builds = 0

#clear
#
#next RN
#
#jump SELF
Total wall time: 0:21:09
