
units lj                  # Use reduced LJ style units
atom_style atomic         # Uncharged point particles
atom_modify map hash      # Needed for indexing of clusters etc
                          # Used to be able to find where atoms are in relation to each other.

lattice fcc 1.0 spacing 1 1 1
Lattice spacing in x,y,z = 1.5874011 1.5874011 1.5874011
region box block 0 10 0 10 0 10 units lattice
create_box 2 box
Created orthogonal box = (0.0000000 0.0000000 0.0000000) to (15.874011 15.874011 15.874011)
  3 by 4 by 4 MPI processor grid
create_atoms 1 box
Created 4000 atoms
  using lattice units in orthogonal box = (0.0000000 0.0000000 0.0000000) to (15.874011 15.874011 15.874011)
  create_atoms CPU = 0.003 seconds
set type 1 type/fraction 2 0.24 78393
Setting atom values ...
  997 settings made for type/fraction
mass 1 1.0
mass 2 1.0
pair_style lj/cut  3.5
pair_modify tail  yes
pair_coeff 1  1  1.0  1.0   # Intearaction between 1 and 1 set with epsilon = 1 and sigma = 1
pair_coeff 1  2  1.5  0.8
pair_coeff 2  2  0.5  0.88

write_data data.0
System init for write_data ...
Neighbor list info ...
  update every 1 steps, delay 10 steps, check yes
  max neighbors/atom: 2000, page size: 100000
  master list distance cutoff = 3.8
  ghost atom cutoff = 3.8
  binsize = 1.9, bins = 9 9 9
  1 neighbor lists, perpetual/occasional/extra = 1 0 0
  (1) pair lj/cut, perpetual
      attributes: half, newton on
      pair build: half/bin/atomonly/newton
      stencil: half/bin/3d
      bin: standard
WARNING: Not all mixed pair coeffs generated from mixing. Use write_data with 'pair ij' option to store all pair coeffs. (../write_data.cpp:312)


#############################
#   M E L T   S Y S T E M   #
#############################

velocity all create 2.4 2750902 mom yes dist gaussian # Assign velocities
                                                    # Temperature 2.4, random number seed, zero linear momentum
                                                                                # Gaussian distribution

timestep 0.002   # simulation timestep
thermo 1000       # output thermodynamic data every 1000 steps bf 100

# Define a fix  in this case with index 1 applied to all
# particles in the simulation. This fix is for simulations
# in the anisotropic NPT ensemble. Note that we use the MTK
# correction.
fix 1 all npt temp 2.4 2.4 0.1 iso 5.68 5.68 0.5 mtk yes tchain 5 pchain 5 # Use NPT ensemble
                                                                         # Set temperature and pressure and damping
                                                                         # Numbers of thermostats in chain and in barostat
run 10000          # run for 10000 steps
Per MPI rank memory allocation (min/avg/max) = 3.642 | 3.644 | 3.648 Mbytes
Step Temp E_pair E_mol TotEng Press Volume 
       0          2.4   -6.7864136            0   -3.1873136   -3.7949501         4000 
    1000    2.4005348   -4.9480129            0   -1.3481109    5.7362042    4306.6564 
    2000    2.3290757   -4.9102158            0   -1.4174757    5.4109686     4357.718 
    3000    2.3748641   -4.9166201            0   -1.3552145    5.6711035     4320.053 
    4000    2.4460554   -4.8907786            0   -1.2226127    5.9761924    4317.7029 
    5000    2.3754432   -4.9549384            0   -1.3926644    5.5713341    4324.1529 
    6000    2.3796256   -4.8457488            0   -1.2772027    5.6691125    4368.2558 
    7000    2.4086146     -4.86037            0   -1.2483513     5.990659    4330.8983 
    8000    2.3981456   -4.8574506            0   -1.2611315    5.6643741    4358.5236 
    9000    2.4018624   -4.8990657            0   -1.2971728    5.6661338    4344.9341 
   10000    2.4299977   -4.8774053            0     -1.23332    5.3070539    4394.2398 
Loop time of 2.33556 on 48 procs for 10000 steps with 4000 atoms

Performance: 739866.724 tau/day, 4281.636 timesteps/s
99.6% CPU use with 48 MPI tasks x no OpenMP threads

MPI task timing breakdown:
Section |  min time  |  avg time  |  max time  |%varavg| %total
---------------------------------------------------------------
Pair    | 0.98737    | 1.0665     | 1.2298     |   4.4 | 45.66
Neigh   | 0.19752    | 0.2068     | 0.23232    |   1.4 |  8.85
Comm    | 0.61596    | 0.81097    | 0.92352    |   5.9 | 34.72
Output  | 0.00023859 | 0.00024299 | 0.00031314 |   0.0 |  0.01
Modify  | 0.20778    | 0.23622    | 0.2691     |   3.0 | 10.11
Other   |            | 0.0148     |            |       |  0.63

Nlocal:        83.3333 ave          91 max          73 min
Histogram: 1 2 5 4 5 8 7 6 5 5
Nghost:        1544.58 ave        1572 max        1523 min
Histogram: 3 7 5 6 7 8 6 4 1 1
Neighs:        8687.35 ave        9891 max        7444 min
Histogram: 2 2 8 5 5 6 9 4 5 2

Total # of neighbors = 416993
Ave neighs/atom = 104.24825
Neighbor list builds = 904
Dangerous builds = 205

# Equilibrate just above the melting temperature to avoid step fn in T

fix 1 all npt temp 1.25 1.25 0.1 iso 5.68 5.68 0.5 mtk yes tchain 5 pchain 5
run 2000
Per MPI rank memory allocation (min/avg/max) = 3.643 | 3.645 | 3.649 Mbytes
Step Temp E_pair E_mol TotEng Press Volume 
   10000    2.4299977   -4.8774053            0     -1.23332    5.3070539    4394.2398 
   11000    1.2589582   -6.6593191            0   -4.7713538    5.4707007    3538.7047 
   12000    1.2401573   -6.7086925            0   -4.8489216    5.6147637    3511.1666 
Loop time of 0.542134 on 48 procs for 2000 steps with 4000 atoms

Performance: 637481.297 tau/day, 3689.128 timesteps/s
99.6% CPU use with 48 MPI tasks x no OpenMP threads

MPI task timing breakdown:
Section |  min time  |  avg time  |  max time  |%varavg| %total
---------------------------------------------------------------
Pair    | 0.23117    | 0.25215    | 0.30701    |   2.9 | 46.51
Neigh   | 0.032585   | 0.035284   | 0.042138   |   0.8 |  6.51
Comm    | 0.14364    | 0.18901    | 0.22555    |   5.0 | 34.86
Output  | 5.0949e-05 | 5.2328e-05 | 6.815e-05  |   0.0 |  0.01
Modify  | 0.040415   | 0.061158   | 0.08128    |   6.2 | 11.28
Other   |            | 0.004474   |            |       |  0.83

Nlocal:        83.3333 ave          93 max          74 min
Histogram: 1 0 5 14 6 10 5 4 2 1
Nghost:        1792.29 ave        1819 max        1759 min
Histogram: 2 0 4 4 4 14 8 5 5 2
Neighs:        10874.2 ave       12118 max        9885 min
Histogram: 3 3 11 5 8 6 4 2 2 4

Total # of neighbors = 521964
Ave neighs/atom = 130.49100
Neighbor list builds = 143
Dangerous builds = 14

#############################
# L I N E A R  Q U E N C H  #
#############################

# Define solid atoms. This closely follows ten Wolde  Ruiz-Montero and Frenkel  Faraday Discuss  1996  104  93-110
# Compute components of the per-atom q6 vector
compute q6 all orientorder/atom degrees 1 6 components 6 nnn NULL cutoff 1.3 # compute the Q6 parameter.
                                                                             # Use all neighbours within 1.3 unit cell.

# get number of connections
compute coord_number all coord/atom orientorder q6 0.5

# An atom is solid if it has 8 or more connections (of a possible 14)
variable is_solid atom c_coord_number>=8
group solid dynamic all var is_solid    # Must be dynamic to update
dynamic group solid defined

# do clustering
compute cluster solid cluster/atom 1.3 # Create a cluster where all atoms within are solid and max 1.3 units from another member

# define chunks one chunk per cluster
compute clus_chunks solid chunk/atom c_cluster nchunk every compress yes  # Says which atoms are in which chunk

# count the size of each chunk
compute size_chunks solid property/chunk clus_chunks count


# Find the maximum entry in the vector of chunk sizes
variable max_n equal max(c_size_chunks)


# Thermo style which includes this variable
# thermo_style custom step temp pe vol v_max_n

thermo ${N}  # Print the thermo information every 100 steps
thermo 1000  

# Reset the npt fix at a lower temperature (below freezing)
fix 1  all npt temp  ${temp} ${temp}  0.1  iso  5.68  5.68  0.5  mtk yes tchain  5  pchain  5
fix 1  all npt temp  0.45 ${temp}  0.1  iso  5.68  5.68  0.5  mtk yes tchain  5  pchain  5
fix 1  all npt temp  0.45 0.45  0.1  iso  5.68  5.68  0.5  mtk yes tchain  5  pchain  5

dump dmp2 all dcd ${N} traj.dcd
dump dmp2 all dcd 1000 traj.dcd


compute msd all msd com yes
variable twopoint equal c_msd[4]/6/(step*dt+1.0e-6)
fix 9 all vector 10 c_msd[4]
variable fit equal slope(f_9)/6/(10*dt)
thermo_style custom step temp pe c_msd[4] v_twopoint v_fit v_max_n

fix 1 all npt temp 1.25 ${temp} 0.1 iso 5.68 5.68 0.5 mtk yes tchain 5 pchain 5
fix 1 all npt temp 1.25 0.45 0.1 iso 5.68 5.68 0.5 mtk yes tchain 5 pchain 5
run 500000 # 5000000  # Run for this many steps
Neighbor list info ...
  update every 1 steps, delay 10 steps, check yes
  max neighbors/atom: 2000, page size: 100000
  master list distance cutoff = 3.8
  ghost atom cutoff = 3.8
  binsize = 1.9, bins = 8 8 8
  4 neighbor lists, perpetual/occasional/extra = 1 3 0
  (1) pair lj/cut, perpetual
      attributes: half, newton on
      pair build: half/bin/atomonly/newton
      stencil: half/bin/3d
      bin: standard
  (2) compute orientorder/atom, occasional
      attributes: full, newton on
      pair build: full/bin/atomonly
      stencil: full/bin/3d
      bin: standard
  (3) compute coord/atom, occasional
      attributes: full, newton on
      pair build: full/bin/atomonly
      stencil: full/bin/3d
      bin: standard
  (4) compute cluster/atom, occasional
      attributes: full, newton on
      pair build: full/bin/atomonly
      stencil: full/bin/3d
      bin: standard
Per MPI rank memory allocation (min/avg/max) = 9.801 | 9.806 | 9.811 Mbytes
Step Temp PotEng c_msd[4] v_twopoint v_fit v_max_n 
   12000    1.2401573   -6.7086925 1.8625006e-30 1.2934031e-32 8.3333333e+20            1 
   13000    1.2232601   -6.7098971     0.524259 0.0033606345    0.0431268            1 
   14000    1.2384386    -6.701224    1.0672519 0.0063526896  0.043953387            2 
   15000    1.2866917   -6.7286186    1.5834692 0.0087970506   0.04419596            1 
   16000    1.2570827   -6.7153939    2.0130478  0.010484624  0.042876694            2 
   17000    1.2746173   -6.6770473    2.4961978  0.012236263  0.041436969            1 
   18000    1.2289718   -6.7527314    2.9340259  0.013583453  0.040590057            3 
   19000    1.2438708   -6.7214802    3.3626966  0.014748669  0.039724639            1 
   20000    1.2124898   -6.6946229    3.8696709  0.016123628  0.039340269            1 
   21000     1.269146    -6.698688     4.298277  0.017056655  0.039116359            1 
   22000    1.2550267   -6.7125938     4.759881  0.018029852  0.038972385            1 
   23000    1.1911855    -6.685832    5.2400366   0.01898564  0.038983818            1 
   24000    1.2422416   -6.7300694    5.7046373  0.019807768  0.038937688            1 
   25000    1.2383617   -6.7629624    6.1373282   0.02045776  0.038859861            2 
   26000    1.2197611   -6.7651426    6.6276424  0.021242443  0.038784989            4 
   27000    1.2171928   -6.7358765    7.1105792  0.021946232  0.038762891            1 
   28000    1.2317754   -6.7727216    7.6076744  0.022641888  0.038801548            5 
   29000    1.2433449   -6.7534993    8.0205476   0.02304755  0.038765875            1 
   30000    1.1985038   -6.7712117    8.5787331  0.023829814  0.038884716            1 
   31000    1.2413624   -6.7644618    8.9774157  0.024132838  0.038951684            2 
   32000     1.230358   -6.7748743    9.4147527  0.024517585  0.038938767            2 
   33000    1.2169638   -6.7701996    9.8348719  0.024835535  0.038872708            2 
   34000    1.2195706   -6.7508862    10.296999  0.025237742  0.038764044            2 
   35000    1.2187239    -6.778684    10.722672  0.025530172  0.038682864            2 
   36000    1.1824449   -6.7620961    11.151359   0.02581333  0.038570164            1 
   37000    1.2161981   -6.7427185    11.684669  0.026316821  0.038539784            2 
   38000    1.2017794    -6.777133    12.198315   0.02675069  0.038522558            1 
   39000    1.2181731   -6.8279744    12.575812  0.026871392  0.038519314            1 
   40000    1.2238699   -6.8057437    13.141546   0.02737822  0.038524138            2 
   41000    1.1844713   -6.8421061    13.644837  0.027733409  0.038557635            2 
   42000    1.1903266   -6.7658638    14.094461    0.0279652  0.038624112            5 
   43000    1.2155939   -6.8345843    14.497649  0.028096218  0.038652837            2 
   44000    1.1951031   -6.7936136    15.090072  0.028579682  0.038693002            3 
   45000    1.2163337    -6.784773     15.66368  0.029006815  0.038754734            1 
   46000     1.191003   -6.8513468    15.970643  0.028932324  0.038812463            2 
   47000    1.2177886   -6.8366442    16.408722  0.029093478  0.038806753            3 
   48000    1.2002481   -6.8691202      16.7761  0.029125174  0.038791817            3 
   49000    1.1787362    -6.843764    17.283083  0.029392998  0.038762091            1 
   50000    1.2012835   -6.8258412    17.771661  0.029619435  0.038755214            1 
   51000    1.1959933   -6.8269235    18.094885  0.029566805  0.038739013            2 
   52000    1.1960664   -6.8242994    18.546347  0.029721709  0.038695323            2 
   53000    1.1920176   -6.8202666    18.999996  0.029874208  0.038638761            2 
   54000    1.1986736   -6.8066885    19.372136  0.029895271  0.038581319            2 
   55000    1.1805711   -6.8231427     19.76982  0.029954272  0.038509769            2 
   56000    1.2090759   -6.8513414    20.243467  0.030124207  0.038445931            2 
   57000     1.177626   -6.8592943    20.708865  0.030276118  0.038382527            1 
   58000    1.1636719   -6.8506621    21.121591  0.030347113  0.038329118            3 
   59000    1.1628333   -6.8257335    21.552951  0.030442022  0.038278411            2 
   60000    1.1588169   -6.8293817    21.877092  0.030384849  0.038209983            1 
   61000    1.1553752   -6.8433234    22.359641  0.030545958  0.038133526            1 
   62000    1.1692775   -6.8709781    22.737281  0.030560861  0.038065809            1 
   63000    1.1739636   -6.8608187    23.023825  0.030454795  0.037996642            2 
   64000    1.2005966   -6.8664405    23.362438  0.030419841  0.037903854            1 
   65000    1.1621447   -6.8638009     23.73541  0.030430013  0.037800188            2 
   66000    1.1629178   -6.8911665    24.133416  0.030471484   0.03769566            2 
   67000    1.1689864   -6.8645373    24.651817  0.030661464  0.037605584            1 
   68000    1.1601747   -6.8982997    24.986621  0.030620859  0.037518237            2 
   69000    1.1666448   -6.8470599    25.403527  0.030680587  0.037430231            2 
   70000    1.1537942   -6.9003818    25.612587  0.030491175  0.037331075            1 
   71000    1.1573679   -6.9301219    25.912863  0.030414158  0.037210844            2 
   72000    1.1257145   -6.8886854    26.318936  0.030461731  0.037078355            2 
   73000    1.1482132   -6.9048378    26.683788  0.030460945  0.036950346            2 
   74000    1.1335874   -6.9171361    27.008949  0.030415483  0.036825979            1 
   75000    1.1626166   -6.9294422     27.36794  0.030408822  0.036707764            2 
   76000    1.1319388   -6.9101696     27.77882  0.030459232  0.036586214            2 
   77000    1.1231569   -6.9070979    28.058887  0.030366761  0.036464546            4 
   78000    1.1391036   -6.9435878     28.48925  0.030437232  0.036348375            1 
   79000    1.1443222   -6.9039995    28.684299  0.030257699   0.03623463            3 
   80000    1.1302522   -6.9192323    28.851464  0.030053608  0.036100994            3 
   81000    1.1516453   -6.9560854    29.427849  0.030275565  0.035976212            3 
   82000     1.150997   -6.9017778    29.796971  0.030281474  0.035859225            3 
   83000    1.1206841   -6.9166723    30.261664  0.030383197  0.035750445            1 
   84000    1.1296712   -6.9309467     30.61606  0.030373076  0.035651163            3 
   85000    1.1214423   -6.9600571    30.847952   0.03024309  0.035545456            1 
   86000    1.1323954    -6.918635    31.076076  0.030112477  0.035436943            2 
   87000    1.1508896   -6.9590767    31.531259  0.030202355  0.035332491            1 
   88000    1.1261454   -6.9439553    31.996123  0.030299359  0.035238053            2 
   89000    1.1402287   -6.9460769    32.547165  0.030474873   0.03515186            4 
   90000    1.1383808    -6.930946    32.863588  0.030429248  0.035068675            2 
   91000    1.1507348   -6.9125049    33.204329  0.030406894  0.034986934            1 
   92000    1.1216233   -6.9868399    33.368789  0.030225352  0.034900598            1 
   93000    1.1224987   -6.9639518    33.642972  0.030146032   0.03480782            2 
   94000    1.1094607   -6.9850346    33.836847  0.029997205  0.034715675            1 
   95000    1.1177464   -6.9598928    34.394712    0.0301708  0.034613784            4 
   96000    1.1094629   -7.0215713    34.455112  0.029908951  0.034511132            2 
   97000    1.1191358   -6.9646182    34.749293  0.029853344  0.034403951            2 
   98000    1.1238868   -6.9805932    35.021512  0.029780197  0.034294909            2 
   99000     1.104618    -6.986383    35.288515  0.029704137  0.034183417            2 
  100000    1.1193125   -6.9658946    35.650021  0.029708351  0.034070938            6 
  101000    1.0982065   -6.9878916    35.889174   0.02961153  0.033961915            1 
  102000    1.1041843   -7.0153524    36.350597    0.0296982  0.033860785            2 
  103000     1.108325   -7.0097074    36.603069  0.029614134  0.033759195            2 
  104000    1.1047044   -6.9998179    36.882843   0.02955356  0.033656408            2 
  105000    1.1074627   -6.9893072    37.348589  0.029641737  0.033560679            3 
  106000    1.1033835    -6.996443     37.59313  0.029554347  0.033464587            2 
  107000    1.1256619   -6.9840189    37.925964  0.029537355   0.03336631            1 
  108000    1.0873451    -7.022871    38.107243  0.029403737  0.033266748            2 
  109000    1.1027236   -7.0192949    38.392676  0.029352198  0.033167744            1 
  110000    1.0968901   -6.9803291    38.901996  0.029471209   0.03307033            2 
  111000    1.0822033   -7.0038633    39.107887  0.029360275  0.032975456            1 
  112000    1.1017996   -7.0081165    39.348137  0.029276887  0.032880279            2 
  113000    1.0867361   -7.0312406    39.620486  0.029218647  0.032786655            2 
  114000    1.0967929   -7.0340019    39.784011  0.029081879  0.032691028            3 
  115000    1.0695679   -7.0509147    40.231264   0.02915309  0.032595545            3 
  116000    1.0930317   -7.0564122    40.553657  0.029133374  0.032504754            1 
  117000    1.0767515   -7.0386577    40.791443  0.029053734  0.032415339            1 
  118000    1.0839182   -7.0445611    41.186595  0.029086578  0.032323736            2 
  119000    1.0525195   -7.0341918    41.573511  0.029113103   0.03223654            2 
  120000    1.0711143   -7.0776813     41.89955  0.029096909  0.032155445            1 
  121000    1.0685185   -7.0537769    42.071885  0.028975127  0.032074707            1 
  122000    1.0868957   -7.0340668     42.65382  0.029135123   0.03199779            3 
  123000     1.053154   -7.0608816    42.877076  0.029049509  0.031923335            1 
  124000    1.0646623    -7.056126     43.26521  0.029076082  0.031851467            3 
  125000    1.0595833   -7.0929647    43.427665  0.028951776  0.031780578            3 
  126000    1.0608593   -7.0728307    43.681813  0.028890088  0.031706399            4 
  127000      1.08015   -7.0705232    43.983897  0.028860825  0.031628383            4 
  128000    1.0445846   -7.0581494    44.107428  0.028715773  0.031546975            4 
  129000    1.0624796   -7.1067674    44.325873  0.028634285  0.031465318            1 
  130000    1.0505108   -7.0875997    44.613946  0.028598684  0.031383233            3 
  131000    1.0612499   -7.1050025    44.654292  0.028406038  0.031296597            1 
  132000    1.0262532   -7.0939353    44.958414  0.028382837  0.031207985            2 
  133000    1.0681524    -7.073444    45.200451  0.028321085  0.031120225            2 
  134000    1.0467889   -7.1120388    45.413436  0.028242187  0.031032358            2 
  135000    1.0539523   -7.0758906    45.739739  0.028234407  0.030943453            1 
  136000    1.0595648   -7.0568253    45.960765  0.028162233  0.030853633            3 
  137000    1.0475503   -7.0945788    46.465663  0.028263785  0.030769047            2 
  138000     1.023536   -7.1105904    46.432419    0.0280389  0.030687562            1 
  139000    1.0228387   -7.1058701    46.858841   0.02809283  0.030607424            1 
  140000    1.0486682   -7.1017771    47.312201  0.028162024  0.030530968            1 
  141000    1.0405063   -7.1042845     47.62669  0.028148162  0.030456163            1 
  142000    1.0538343   -7.1104262    47.760857  0.028028672  0.030379349            4 
  143000    1.0358777   -7.1352464    47.862221  0.027891737  0.030303288            3 
  144000    1.0539953   -7.1390766    48.180136  0.027882023  0.030228624            3 
  145000    1.0237879   -7.1682958    48.374873  0.027801651  0.030150921            5 
  146000    1.0350719    -7.145773    48.540194   0.02770559  0.030072655            1 
  147000    1.0281942   -7.1382547    48.810119  0.027670135  0.029994158            2 
  148000    1.0219632   -7.1408576    49.260129  0.027736559   0.02991816            3 
  149000    1.0458573   -7.1495626    49.326148  0.027587331  0.029841342            3 
  150000    1.0249959   -7.1689379    49.586076   0.02754782  0.029765104            2 
  151000    1.0339259   -7.1388561    50.069484  0.027632166  0.029692687            2 
  152000    1.0453045   -7.1453312    50.299241  0.027576338  0.029621385            1 
  153000    1.0232311   -7.1681591      50.4263  0.027465305  0.029552262            2 
  154000    1.0374237   -7.1932341    50.827769  0.027504204  0.029479625            6 
  155000    1.0146762   -7.1639367    50.985063  0.027411324  0.029405528            1 
  156000    1.0254172   -7.1930866    50.918343   0.02719997  0.029332001            4 
  157000    1.0120317   -7.2046884    51.553611  0.027363912   0.02925981            2 
  158000    1.0320137   -7.1725751    51.716963  0.027276879  0.029187538            1 
  159000   0.99796678     -7.18421    51.928168  0.027216021  0.029115377            2 
  160000    1.0031068   -7.2142152    52.236723  0.027206626  0.029042102            4 
  161000   0.99448757    -7.180169    52.180572  0.027008577  0.028969378            1 
  162000   0.99107883   -7.2189946    52.234757  0.026869731  0.028893191            3 
  163000    1.0234253   -7.2029643     52.72495  0.026955496  0.028817219            2 
  164000   0.97283191   -7.2190937    52.688019  0.026772367  0.028742725            3 
  165000    1.0273297   -7.2350923    52.923241  0.026728909  0.028665827            2 
  166000    1.0111249   -7.2414531    53.328481  0.026771326  0.028590159            1 
  167000    1.0054094   -7.2647714    53.473787  0.026683526  0.028517157            2 
  168000   0.99662119   -7.1955519     53.76357  0.026668438  0.028443001            2 
  169000    1.0048512   -7.1547697    53.971528  0.026613179  0.028370688            2 
  170000   0.98276418   -7.2308314    54.118113  0.026528487  0.028298296            2 
  171000     1.017489   -7.2235857     54.42146  0.026521179  0.028225334            4 
  172000     1.010084   -7.2206548    54.646386  0.026475962  0.028154556            2 
  173000    1.0027637   -7.2127509    55.009027  0.026497604  0.028083881            2 
  174000   0.99021265   -7.2344455    55.066482  0.026372836  0.028014069            2 
  175000   0.97868252   -7.2596638    55.200328  0.026285871  0.027943403            3 
  176000   0.97140874   -7.2379505    55.266959  0.026168068  0.027871955            2 
  177000   0.96381536   -7.2247488    55.420241  0.026092392  0.027799023            2 
  178000   0.98475584   -7.2569892    55.602777  0.026031263   0.02772331            3 
  179000   0.99325787   -7.2662649    55.780326  0.025968494  0.027646922            2 
  180000   0.99080769   -7.2731199    56.077953  0.025962015  0.027572292            3 
  181000   0.97086005    -7.214504    56.192658  0.025871389   0.02749735            2 
  182000   0.99865879   -7.2680332     56.34284  0.025798003  0.027421403            2 
  183000   0.98033325   -7.2678005    56.395888  0.025681188  0.027343525            2 
  184000   0.99250979   -7.2763319    56.510202  0.025593388  0.027266652            2 
  185000   0.96509777   -7.2571523    56.891415  0.025626763  0.027189983            1 
  186000   0.95863997   -7.2412211    56.912443  0.025498407  0.027115453            2 
  187000   0.98488654   -7.2876023    57.166507   0.02547527   0.02704053            4 
  188000    0.9589286   -7.3078662    57.335896  0.025414848  0.026965142            3 
  189000   0.96992721   -7.2769534    57.596808  0.025395418  0.026889661            2 
  190000   0.95395495   -7.2849302    57.778844  0.025341598  0.026816048            2 
  191000   0.94343042   -7.2629629    58.073138   0.02533732  0.026743126            2 
  192000   0.95894024   -7.2892774    58.280062  0.025295166  0.026670215            3 
  193000   0.96379616   -7.2950013    58.302468  0.025173777  0.026596645            3 
  194000   0.94638924   -7.2871513    58.491945  0.025125406  0.026523911            1 
  195000   0.96411411   -7.2929653    58.526683  0.025011403  0.026450226            2 
  196000   0.96873321   -7.3031923    58.701347  0.024958056  0.026376858            2 
  197000   0.96223727   -7.3024982     59.18962   0.02503791  0.026303726            2 
  198000   0.93101715   -7.3116903    59.138086  0.024889767  0.026233439            3 
  199000   0.93831735   -7.3207841     59.55322  0.024938534  0.026162646            2 
  200000   0.94977378   -7.3213276    59.613853  0.024839105  0.026093438            2 
  201000   0.94892605   -7.2816963    59.815638  0.024799187  0.026024203            2 
  202000   0.95311438   -7.3235103    59.907099   0.02471415   0.02595585            2 
  203000   0.92265386    -7.351972    60.154588  0.024694002  0.025886804            2 
  204000   0.92721125   -7.3571402    60.452158  0.024694509  0.025818396            1 
  205000   0.94186554   -7.3235742    60.505983  0.024595928   0.02575003            2 
  206000   0.94616036   -7.3268807    60.636504   0.02452933  0.025680885            2 
  207000   0.96069152   -7.3902905    60.706129   0.02443886  0.025611904            4 
  208000   0.94132174   -7.3443099    61.122475  0.024488171  0.025544882            3 
  209000   0.92246555   -7.3313817    61.191963  0.024398709  0.025478197            2 
  210000   0.93887454   -7.3560123    61.138187  0.024261185  0.025409946            3 
  211000   0.94487677   -7.3156125    61.497023  0.024287924  0.025342582            3 
  212000    0.9325276   -7.3784442    61.544538  0.024192035  0.025275503            1 
  213000   0.93624522   -7.3580403    61.818003  0.024185447  0.025208856            2 
  214000   0.93534776   -7.3964923    61.650492  0.024007201  0.025141924            2 
  215000   0.90330153   -7.3718624    62.013369  0.024036189  0.025074419            2 
  216000   0.91355184   -7.3508698     61.91591  0.023887311  0.025006342            5 
  217000   0.92531306   -7.3928911    62.052527  0.023829695  0.024937187            2 
  218000   0.90670639   -7.4126295    62.026814  0.023710556  0.024867424            2 
  219000   0.91028947   -7.4053435    62.241106   0.02368383   0.02479749            4 
  220000   0.92933119   -7.4157966    62.395272  0.023634573  0.024729296            3 
  221000   0.89472917   -7.4462933    62.855328  0.023701104  0.024662059            2 
  222000   0.92324083   -7.4192265      62.9859  0.023643356  0.024596701            2 
  223000   0.92359319    -7.384967    63.336354  0.023668294  0.024531189            3 
  224000   0.90557856   -7.4148899    63.330275   0.02356037  0.024465934            3 
  225000   0.91289125   -7.4031081    63.359167  0.023466358  0.024400239            2 
  226000   0.92962481   -7.4407088    63.525337  0.023423797  0.024334105            3 
  227000   0.92882357   -7.4042788    63.747204  0.023402057  0.024269067            9 
  228000    0.8934941   -7.4033934    64.150814  0.023446935  0.024204464            2 
  229000    0.9141162   -7.4563293    64.167911  0.023350768   0.02414149            5 
  230000   0.90692169   -7.4679114    64.286345  0.023292154  0.024078145            2 
  231000   0.90519026   -7.4623822    64.270144  0.023185477  0.024014158            2 
  232000   0.90222081   -7.4061086    64.622023  0.023211933  0.023951142            4 
  233000   0.88795059   -7.4359554    64.604652  0.023106099  0.023888372            6 
  234000   0.89846087   -7.4498455    64.693028  0.023038828  0.023824318            5 
  235000   0.88504185   -7.4590401    64.727181  0.022952901  0.023760402            3 
  236000    0.9097419   -7.4309928    64.842529  0.022896373  0.023696756            3 
  237000   0.89999692   -7.4943885    64.961484  0.022841591  0.023632494            4 
  238000   0.88820602   -7.4833141    65.280439  0.022857296  0.023567809            1 
  239000   0.87457769     -7.46041    65.268399  0.022757461  0.023503837            2 
  240000   0.87652453   -7.4442311    65.417118  0.022714277  0.023439552            6 
  241000   0.88244969   -7.5065104    65.539356  0.022662295  0.023375497            3 
  242000   0.89327495   -7.4746113     65.72605  0.022632937   0.02331168            3 
  243000   0.89760186   -7.5213823    65.358229  0.022413659  0.023247005            9 
  244000   0.87258279   -7.4762958    65.847517  0.022488906  0.023182605            4 
  245000   0.85919209   -7.4863812    66.022043  0.022456477  0.023119576            2 
  246000   0.85986894   -7.5129396    65.807061  0.022292365  0.023055952            2 
  247000   0.87909813   -7.5136533    65.794784   0.02219797  0.022991416            2 
  248000   0.86967846   -7.4983876    66.141957   0.02222512  0.022926198            3 
  249000   0.85181975   -7.4996702    66.353288  0.022206589  0.022862724            4 
  250000    0.8660311   -7.4949693    66.201332  0.022067111  0.022799675            4 
  251000   0.87122024   -7.5131006    66.507067  0.022080699  0.022736661            3 
  252000   0.86777654   -7.5043929    66.439288  0.021970664   0.02267285            2 
  253000   0.87165213   -7.5091968    66.597988  0.021936096  0.022608893            1 
  254000   0.86477154   -7.5062161    66.789555  0.021912584  0.022545313            2 
  255000   0.86125188   -7.5089084    66.757866  0.021816296  0.022482046            2 
  256000   0.85966771   -7.5113519     66.98364   0.02180457  0.022419276            2 
  257000   0.87126709   -7.5386533    67.061529  0.021744984  0.022355685            1 
  258000   0.84467742   -7.5549229    67.109966  0.021676345  0.022291559            5 
  259000     0.852248   -7.5513047    67.239686   0.02163439  0.022227717            5 
  260000   0.85808291   -7.5333186    67.323582  0.021578071  0.022164556            2 
  261000   0.87623913   -7.5565938    67.694113  0.021613701   0.02210269            2 
  262000   0.84912473   -7.5573097    67.518696  0.021475412  0.022040426            6 
  263000   0.85344376   -7.5258635    67.589177  0.021416089  0.021977481            4 
  264000   0.83545065   -7.5416138    67.489603  0.021303536  0.021915287            4 
  265000    0.8328028   -7.5471115    67.675424   0.02128158  0.021853206            4 
  266000   0.83001706    -7.594307    68.017878  0.021308859    0.0217918            4 
  267000   0.85362926   -7.5109758    68.008057  0.021225985  0.021730721            2 
  268000   0.84055308   -7.5459887    68.230803  0.021216046  0.021669531            2 
  269000   0.83495856   -7.5601502    68.100119  0.021096691  0.021608499            5 
  270000   0.85975957   -7.5951618    68.568781  0.021163204  0.021547641            1 
  271000   0.83257094   -7.5762506    68.249751  0.020987008  0.021486503            1 
  272000   0.81753677   -7.5764894    68.345627  0.020939224  0.021425508            5 
  273000   0.85521932   -7.5647304    68.574938  0.020932521  0.021364628            4 
  274000    0.8091446   -7.5885235     68.49592  0.020832092  0.021303434            4 
  275000    0.8245294     -7.59494    68.642016  0.020800611  0.021242543            2 
  276000   0.83687829   -7.5914825    68.622211  0.020719267  0.021182221            2 
  277000   0.82997792   -7.6272039     68.87525  0.020720593  0.021122676            4 
  278000   0.82222429   -7.5936625    68.879904  0.020647453  0.021062831            2 
  279000   0.83024258   -7.6355301    68.799292   0.02054937  0.021003187            2 
  280000   0.82403279   -7.5496762    69.220011  0.020601194  0.020943615            1 
  281000   0.82244963   -7.6058791    69.286257  0.020547526  0.020884315            2 
  282000    0.8150503   -7.6113199    69.307155  0.020480838  0.020824942            4 
  283000   0.81732223    -7.623776     69.31794  0.020411643  0.020765425            7 
  284000   0.80586624   -7.6223492    69.271071  0.020326018  0.020705514            3 
  285000    0.8220858   -7.6076226    69.462564  0.020310691  0.020645639            5 
  286000   0.81265355   -7.6223458     69.50945  0.020253336  0.020585773            2 
  287000   0.81819006   -7.6504694    69.373567  0.020143312   0.02052557            4 
  288000   0.81933831   -7.6807225     69.53933  0.020121334  0.020465507            2 
  289000   0.82122671   -7.6455431    69.712947  0.020101772   0.02040598            3 
  290000   0.82263988   -7.6266275    69.826647  0.020065128  0.020347098            2 
  291000   0.78378842   -7.6543151    69.899844  0.020017137   0.02028892            3 
  292000   0.80661846   -7.6526442    69.703436  0.019892533  0.020230322            2 
  293000   0.81121178   -7.6424873    70.067489  0.019928182  0.020172165            2 
  294000   0.78674389   -7.6757738    70.119192  0.019875054  0.020114585            4 
  295000   0.79755251    -7.692435    70.073952  0.019794902  0.020056037            2 
  296000   0.79395458   -7.6766091    70.042478  0.019719166  0.019997557            2 
  297000    0.7817762   -7.6666126      70.2726   0.01971734  0.019939364            1 
  298000   0.78086458   -7.6730882    70.309213  0.019661413  0.019881027            2 
  299000   0.79316404   -7.6809415    70.316195  0.019597602  0.019822593            2 
  300000    0.7941576   -7.6811714     70.35125  0.019542014  0.019764872            3 
  301000   0.78970934   -7.6970795    70.372835  0.019483066  0.019707054            4 
  302000   0.78612892   -7.6972161    70.378787  0.019420195   0.01964907            3 
  303000   0.78222725   -7.7072647    70.542847  0.019401223  0.019591027            2 
  304000   0.79214856   -7.7329402    70.535738  0.019335455  0.019533269            3 
  305000   0.76391147   -7.6942963    70.669867  0.019308707   0.01947598            3 
  306000   0.76663373   -7.7150262    70.813411  0.019284698  0.019418787            3 
  307000   0.77732946   -7.7134404    70.724457  0.019197735  0.019362024            3 
  308000   0.77943181   -7.7097438     70.90132  0.019183258  0.019305652            2 
  309000   0.78905172   -7.7401175    71.043904  0.019159629  0.019249741            3 
  310000   0.78523586   -7.7329785    71.056343  0.019101167  0.019193874            8 
  311000   0.76210846   -7.7529778     71.23399   0.01908735  0.019138358            4 
  312000   0.77133599   -7.7771444    71.026306  0.018970701  0.019082973            4 
  313000   0.76710898   -7.7480284    71.270734  0.018975169  0.019027633            4 
  314000   0.75697431   -7.7508483    71.378455  0.018943327  0.018972791            5 
  315000   0.77774259   -7.7362755    71.277629  0.018856515  0.018917725            2 
  316000   0.75865546   -7.7414867    71.351937  0.018816439  0.018862495            1 
  317000   0.76963325   -7.7365988    71.413349  0.018773225  0.018807595            2 
  318000   0.76340755   -7.7438324    71.453832  0.018724799  0.018753052            3 
  319000   0.75393258   -7.7435055    71.483298  0.018673798  0.018698391            4 
  320000   0.76131882   -7.7495847     71.52659  0.018626716  0.018643286            5 
  321000   0.75097417   -7.7950434    71.488386  0.018558771  0.018587942            5 
  322000   0.74651963   -7.7582259      71.3491  0.018465088  0.018532439            3 
  323000   0.73076599   -7.7824961    71.365368  0.018412117  0.018477012            2 
  324000   0.76156805   -7.7604441    71.491793  0.018387807  0.018421657            4 
  325000   0.73661364   -7.7814508    71.552308  0.018346746  0.018366353            2 
  326000   0.74033785   -7.7965297    71.550723  0.018290062  0.018311039            3 
  327000   0.76142385   -7.7713243    71.536356  0.018230468  0.018255824            4 
  328000   0.73386281   -7.7912543    71.606931  0.018192818   0.01820098            3 
  329000   0.73893386   -7.8087078    71.434696  0.018093895  0.018146075            2 
  330000   0.72831366   -7.8204415    71.703993  0.018107069  0.018091317            3 
  331000   0.72029691   -7.8299728    71.806054   0.01807806  0.018036831            4 
  332000    0.7523848    -7.833042     71.81403   0.01802561  0.017982378            3 
  333000   0.74605638   -7.7979417      71.9862  0.018014565  0.017928472            2 
  334000   0.74978823   -7.8473007    71.940708  0.017949278  0.017874518            5 
  335000   0.73888579   -7.8483747    71.842415  0.017871248  0.017820712            9 
  336000   0.73153952   -7.8642348    71.880706  0.017827556  0.017766646            3 
  337000   0.72985071    -7.871152    71.836935  0.017763832   0.01771268            4 
  338000   0.72895631   -7.8587319    71.905472  0.017728174  0.017658957            4 
  339000   0.71485384   -7.8630518     71.89455  0.017673193  0.017604955            3 
  340000   0.72511445   -7.8437709    71.988751  0.017644302  0.017551271            3 
  341000   0.72662852   -7.8733834    71.995172  0.017594128  0.017497915            2 
  342000   0.72203878   -7.8756519     72.00177  0.017544291  0.017444358            5 
  343000   0.72944477   -7.8671007    72.043567  0.017503296  0.017391142            3 
  344000   0.72434149   -7.8498393    72.107999  0.017468023   0.01733837            3 
  345000   0.69941298   -7.8524212     72.16914  0.017432159  0.017285832            4 
  346000   0.71653393   -7.8794478    71.989756  0.017338573  0.017233476            3 
  347000   0.72660988   -7.8465695    72.181282  0.017334602  0.017180867            3 
  348000   0.72519944   -7.8884471     72.16243  0.017280275  0.017128593            3 
  349000   0.71973419   -7.8690626    72.200787   0.01723992  0.017076378            3 
  350000   0.70661734   -7.8701327    72.197644  0.017189915  0.017023971            2 
  351000   0.70459062   -7.9088189    72.046851   0.01710514  0.016971892            6 
  352000   0.70121993   -7.8708393     72.38488  0.017136572  0.016919788            8 
  353000   0.72453211   -7.9122917    72.244202  0.017054816  0.016868172            3 
  354000   0.71020225   -7.8670259    72.406189  0.017044771  0.016816627            3 
  355000   0.69928911   -7.8989692    72.284297  0.016968145  0.016765144            9 
  356000    0.6822534   -7.8969648    72.299859  0.016924124  0.016713616            5 
  357000   0.70107013   -7.9030026    72.457171  0.016913439  0.016662415            4 
  358000   0.70793625   -7.9090899    72.411461  0.016855554  0.016611429            4 
  359000   0.71557943    -7.902617    72.519801  0.016833751  0.016560585            8 
  360000   0.68652773   -7.9233101    72.176173  0.016707447  0.016509795            3 
  361000    0.6752116   -7.9247084    72.516954  0.016739833  0.016458928            3 
  362000   0.69674425   -7.9307486    72.386363  0.016663527  0.016408343            3 
  363000   0.69297744   -7.9299421    72.544057  0.016653824  0.016357768            3 
  364000   0.69584042   -7.9151194    72.405931  0.016576449  0.016307265            5 
  365000   0.67515186   -7.9384526    72.460723  0.016543544  0.016256978            4 
  366000   0.68910323   -7.9254679    72.546466  0.016517866  0.016207009            3 
  367000   0.67355307   -7.9461394    72.485491  0.016459013  0.016156912            3 
  368000   0.68988162   -7.9376568    72.467502  0.016410213  0.016106918            2 
  369000   0.69069718    -7.942016    72.558819  0.016386364  0.016056914            4 
  370000   0.68998531   -7.9662183     72.46572  0.016321108  0.016006849            2 
  371000   0.67747327   -7.9745508    72.432459  0.016269645   0.01595688           11 
  372000   0.67952371   -7.9756938    72.458551  0.016231754  0.015907163            8 
  373000   0.65230227    -7.977247    72.467265  0.016190184   0.01585746            3 
  374000   0.66365491   -7.9817231    72.403056  0.016132588    0.0158077            6 
  375000   0.67042327   -7.9809686    72.499847  0.016111077  0.015758064            3 
  376000   0.67091502   -7.9599484     72.37193  0.016039878  0.015708592            7 
  377000   0.68370548   -8.0052255     72.54489  0.016035564  0.015659028           20 
  378000   0.65935266   -8.0251941    72.230295  0.015923786   0.01560953            8 
  379000   0.66822755   -8.0220644    72.409172  0.015921102  0.015560192            4 
  380000   0.66664903   -7.9997039    72.452858  0.015888785  0.015510891            4 
  381000    0.6702278   -8.0163555    72.204886  0.015792845  0.015461611            2 
  382000   0.67486981   -8.0178713    72.376575  0.015788956  0.015412577            2 
  383000   0.65847974   -8.0202285    72.378864   0.01574823  0.015363669            5 
  384000   0.66966345   -8.0171906    72.409672  0.015713904  0.015314922            6 
  385000   0.65600479   -8.0403982    72.264606   0.01564169  0.015266121            7 
  386000   0.64848047   -8.0306522    72.346291  0.015618802  0.015217356            4 
  387000   0.64354968   -8.0321179     72.21971  0.015551186  0.015168808            3 
  388000   0.63740547   -8.0251566     72.34774  0.015538604  0.015120364            7 
  389000   0.64219283   -8.0346072    72.250837    0.0154779  0.015072201            3 
  390000   0.64441068   -8.0383693    72.484311  0.015488101  0.015024048            2 
  391000   0.63854006   -8.0419827    72.346802  0.015419182  0.014975988            2 
  392000     0.651546   -8.0476317     72.29106  0.015367997  0.014928117            3 
  393000   0.63424086   -8.0357203    72.404834  0.015353018  0.014880402            3 
  394000   0.63378988   -8.0575236    72.509665  0.015336224  0.014832671            3 
  395000   0.64064718   -8.0671536    72.273493  0.015247572  0.014785164            6 
  396000   0.64594052   -8.0477457    72.326226  0.015220165  0.014737886            5 
  397000   0.63171555   -8.0715186     72.30882  0.015178174  0.014690601            2 
  398000   0.63726503   -8.0571677    72.320827  0.015142552  0.014643495            2 
  399000     0.632586   -8.0699374    72.372636  0.015115421  0.014596365            4 
  400000   0.62129691   -8.0527302    72.254935  0.015053111  0.014549519            3 
  401000   0.64175954   -8.0921112    72.415306    0.0150489  0.014502767            4 
  402000   0.63120327   -8.0977593    72.368571  0.015001777  0.014456193            3 
  403000   0.60861581   -8.0966464    72.452781  0.014981965  0.014409797            2 
  404000   0.61089851   -8.0843517    72.383262  0.014930541  0.014363508            5 
  405000   0.61204553   -8.0779691    72.439522  0.014905251   0.01431733            5 
  406000   0.61345142   -8.0952367    72.277184  0.014835218  0.014271298            3 
  407000   0.61599605   -8.1148632    72.118224  0.014766221  0.014225356            3 
  408000   0.61660181   -8.0897465    72.151849  0.014736897  0.014179494            5 
  409000   0.62492692   -8.1184164    72.160533  0.014702635  0.014133728            4 
  410000   0.61897396   -8.1064843    72.298145  0.014694745  0.014088137            3 
  411000    0.6173815   -8.1166362     72.35058  0.014669623  0.014042863            3 
  412000   0.61358149   -8.1116276    72.228843  0.014609394   0.01399761            4 
  413000   0.60765614   -8.1313632    72.244305   0.01457714  0.013952581            6 
  414000   0.61188807   -8.1138024    72.227101  0.014538466  0.013907774            3 
  415000   0.61033505   -8.1342305    72.284323  0.014514924  0.013863072            3 
  416000   0.60186043   -8.1338443    72.216703  0.014466487  0.013818405            3 
  417000   0.60519663    -8.122305    72.248636  0.014438177  0.013773857            3 
  418000   0.60025685   -8.1306882    72.107623  0.014375523  0.013729295            3 
  419000   0.60871572   -8.1367106     72.29233  0.014377949  0.013684901            2 
  420000   0.58867888    -8.126702    72.192648  0.014323938  0.013640647            3 
  421000   0.59800426   -8.1542694    72.214218  0.014294184  0.013596539            2 
  422000   0.59659793   -8.1427038    72.125148  0.014242723  0.013552444            2 
  423000   0.59966498   -8.1556108    72.085028  0.014201148  0.013508534            6 
  424000   0.59050281   -8.1360232    72.344362  0.014218625  0.013464776            2 
  425000   0.58329117   -8.1450279    72.054455  0.014128325  0.013421209            4 
  426000   0.59094745   -8.1558693    72.171153  0.014117988  0.013377822            7 
  427000   0.57871304   -8.1334969    72.279686  0.014106106  0.013334601            5 
  428000   0.59600687   -8.1476227    72.220809  0.014061684  0.013291575            5 
  429000   0.57114143   -8.1623824    72.363601  0.014056643  0.013248548            4 
  430000   0.57633027   -8.1636122    72.122094   0.01397715  0.013205737            4 
  431000    0.5685568   -8.1605209    72.221622  0.013963964  0.013162935            4 
  432000   0.56489804   -8.1766168    72.064001  0.013901235  0.013120434            5 
  433000   0.57513891   -8.1600314    72.105397  0.013877097  0.013078104            5 
  434000   0.57485757   -8.1751611    72.054293   0.01383531  0.013035891            7 
  435000   0.56346224   -8.1926383    72.119825  0.013816058  0.012993791            4 
  436000   0.56626168    -8.172896    72.228097  0.013805064  0.012951935            3 
  437000    0.5679849   -8.1988604    72.010584  0.013731995  0.012910167            2 
  438000   0.57180653   -8.1684504    72.000394  0.013698705  0.012868563            5 
  439000   0.56539408   -8.2038376    72.134869  0.013693028  0.012827038            7 
  440000    0.5763556   -8.2134092    72.073862  0.013650353  0.012785526            5 
  441000   0.55736042    -8.179676     72.08245  0.013621022  0.012744187            3 
  442000   0.56454985   -8.1874908    72.081959  0.013590113  0.012703027            2 
  443000   0.56383263   -8.2196901    71.991253  0.013542373  0.012661997            3 
  444000   0.55245698   -8.2019943    72.004492  0.013514357  0.012621018            4 
  445000   0.56063041   -8.1942975    71.855762  0.013456135  0.012580226            3 
  446000   0.56398995   -8.2042903     71.88952  0.013432272  0.012539532            3 
  447000   0.56894672   -8.2142476    72.049613  0.013432068  0.012499027            3 
  448000   0.54973551   -8.2272992    72.016165  0.013395864  0.012458675            3 
  449000   0.55303726   -8.2298787    71.907796  0.013345916  0.012418462            4 
  450000   0.55890105   -8.2086498     71.95325  0.013324676  0.012378336            3 
  451000   0.53489563   -8.2274737    71.978587  0.013299813  0.012338382            4 
  452000    0.5472149   -8.2285298    71.981141  0.013270859  0.012298526            7 
  453000   0.54856845   -8.2264946    71.955979  0.013236935  0.012258879            5 
  454000   0.53917302    -8.225045    71.926962  0.013202453  0.012219303            5 
  455000   0.55073417   -8.2319917    71.892199  0.013167069  0.012179775            3 
  456000   0.55354916   -8.2410188    71.821132  0.013125207  0.012140433            4 
  457000   0.53531322   -8.2350332    71.872159  0.013105791  0.012101294            3 
  458000   0.54728604   -8.2301209    71.903245  0.013082832  0.012062329            4 
  459000   0.54238922   -8.2418421    71.733158  0.013023449  0.012023382            3 
  460000   0.53098629   -8.2625341    71.884752    0.0130226  0.011984618            3 
  461000   0.53731655   -8.2543038    71.755048  0.012970905  0.011946004            3 
  462000   0.52722208   -8.2458386    71.814105  0.012953482  0.011907545            3 
  463000   0.52347814   -8.2737462    71.799961  0.012922959  0.011869222            4 
  464000   0.52871871   -8.2661104    71.794022  0.012894041  0.011831022            4 
  465000   0.52456777   -8.2651955    71.951671  0.012894565   0.01179303            3 
  466000   0.52356026   -8.2787129    71.731686  0.012827555  0.011755166            4 
  467000   0.51696008   -8.2675516    71.739915  0.012801555   0.01171736            4 
  468000   0.52553886   -8.2677636    71.797749  0.012784499  0.011679816            6 
  469000   0.52284197   -8.2852719    71.757555  0.012750099  0.011642375            3 
  470000   0.50623425   -8.2729951    71.795916  0.012729772  0.011605088            5 
  471000   0.51166607   -8.2820706    71.839394  0.012710438  0.011567994            3 
  472000   0.51516413   -8.2679999    71.815192  0.012679236  0.011531026            3 
  473000   0.51388441   -8.2944713    71.713325  0.012634483  0.011494183            4 
  474000   0.51260151   -8.3038468    71.898592  0.012640399  0.011457423            4 
  475000   0.51725855   -8.2929663    71.870268  0.012608819  0.011420802            4 
  476000   0.51660417   -8.3030411    71.639685  0.012541962  0.011384281            3 
  477000   0.50197807    -8.283991    71.655201  0.012518379    0.0113479            4 
  478000    0.5104196   -8.2995033    71.751998  0.012509065  0.011311632            4 
  479000   0.49215389   -8.3045548    71.690622  0.012472272  0.011275556            5 
  480000   0.50742903   -8.3093733    71.617973  0.012433676  0.011239601            3 
  481000   0.48673075   -8.3050047    71.733856  0.012427903  0.011203751            4 
  482000    0.4967367   -8.3066487    71.638876  0.012385698  0.011168072            6 
  483000   0.49342447   -8.3091101     71.61918  0.012356656  0.011132487            8 
  484000   0.49806904   -8.3232666    71.698908  0.012344853  0.011097054            4 
  485000   0.50018182   -8.3148468    71.627602  0.012307148  0.011061756            5 
  486000   0.48825556    -8.322046     71.71579  0.012296946  0.011026562            5 
  487000   0.48569114    -8.333304    71.713985  0.012271387   0.01099151            4 
  488000   0.49594357   -8.3302609    71.641369   0.01223384  0.010956589            5 
  489000    0.4844421   -8.3091558    71.647734  0.012209907  0.010921778            3 
  490000   0.49248944   -8.3179754    71.619506  0.012180188  0.010887139            3 
  491000   0.48964137   -8.3313448    71.469823  0.012129977  0.010852619            3 
  492000   0.49020862   -8.3172864    71.619196  0.012130623  0.010818299            4 
  493000   0.48230821   -8.3163145    71.747645  0.012127729  0.010784143            3 
  494000   0.47782175   -8.3411667    71.612552   0.01208039   0.01075009            6 
  495000   0.47423251   -8.3409606    71.614926  0.012056385  0.010716137            3 
  496000   0.46769435   -8.3371406    71.782498  0.012060232   0.01068231            4 
  497000   0.47106917   -8.3413755    71.567006  0.011999833  0.010648619            3 
  498000   0.47925926   -8.3435742    71.532421   0.01196995  0.010615022            3 
  499000   0.46765264   -8.3456811    71.596662   0.01195669  0.010581541            2 
  500000   0.46421253   -8.3585775    71.661428  0.011943571  0.010548246            5 
  501000   0.46010201   -8.3498935    71.467731  0.011887514  0.010515031            3 
  502000   0.47040122   -8.3636833    71.459863  0.011862527  0.010481916            6 
  503000   0.46568913   -8.3590934    71.665662  0.011873039   0.01044904            3 
  504000   0.46491614   -8.3667063    71.551975  0.011830684  0.010416209            4 
  505000   0.46386598   -8.3504936     71.48729  0.011796583  0.010383507            4 
  506000   0.46149865   -8.3592418    71.537982  0.011781618   0.01035096            5 
  507000   0.45065653   -8.3822867    71.546705  0.011759813  0.010318553            7 
  508000   0.45844331   -8.3706038    71.628228  0.011750037  0.010286211            3 
  509000   0.45020692   -8.3707936    71.440235  0.011696175  0.010254038            5 
  510000   0.44342936   -8.3860916    71.505671  0.011683933   0.01022202            6 
  511000   0.43862191   -8.3816339    71.439813  0.011650328  0.010190088            4 
  512000   0.45819444   -8.3827387     71.46554  0.011631761  0.010158301            3 
Loop time of 1173.11 on 48 procs for 500000 steps with 4000 atoms

Performance: 73650.282 tau/day, 426.217 timesteps/s
99.4% CPU use with 48 MPI tasks x no OpenMP threads

MPI task timing breakdown:
Section |  min time  |  avg time  |  max time  |%varavg| %total
---------------------------------------------------------------
Pair    | 70.238     | 76.419     | 80.367     |  26.8 |  6.51
Neigh   | 7.624      | 7.9791     | 8.4666     |   5.9 |  0.68
Comm    | 73.995     | 79.093     | 84.665     |  29.3 |  6.74
Output  | 0.86593    | 0.8665     | 0.87702    |   0.2 |  0.07
Modify  | 993.33     | 997.41     | 1001.9     |   5.5 | 85.02
Other   |            | 11.35      |            |       |  0.97

Nlocal:        83.3333 ave          91 max          77 min
Histogram: 3 2 12 6 5 7 2 6 2 3
Nghost:        1983.44 ave        2013 max        1966 min
Histogram: 4 6 9 8 8 8 3 1 0 1
Neighs:        12642.6 ave       14201 max       11391 min
Histogram: 2 6 8 9 5 3 5 6 3 1
FullNghs:      25285.2 ave       27935 max       23221 min
Histogram: 1 7 9 9 3 6 2 6 3 2

Total # of neighbors = 1213689
Ave neighs/atom = 303.42225
Neighbor list builds = 26850
Dangerous builds = 1

#clear
#
#next RN
#
#jump SELF
Total wall time: 0:19:36
