
units lj                  # Use reduced LJ style units
atom_style atomic         # Uncharged point particles
atom_modify map hash      # Needed for indexing of clusters etc
                          # Used to be able to find where atoms are in relation to each other.

lattice fcc 1.0 spacing 1 1 1
Lattice spacing in x,y,z = 1.5874011 1.5874011 1.5874011
region box block 0 10 0 10 0 10 units lattice
create_box 2 box
Created orthogonal box = (0.0000000 0.0000000 0.0000000) to (15.874011 15.874011 15.874011)
  3 by 4 by 4 MPI processor grid
create_atoms 1 box
Created 4000 atoms
  using lattice units in orthogonal box = (0.0000000 0.0000000 0.0000000) to (15.874011 15.874011 15.874011)
  create_atoms CPU = 0.002 seconds
set type 1 type/fraction 2 0.82 78393
Setting atom values ...
  3266 settings made for type/fraction
mass 1 1.0
mass 2 1.0
pair_style lj/cut  3.5
pair_modify tail  yes
pair_coeff 1  1  1.0  1.0   # Intearaction between 1 and 1 set with epsilon = 1 and sigma = 1
pair_coeff 1  2  1.5  0.8
pair_coeff 2  2  0.5  0.88

write_data data.0
System init for write_data ...
Neighbor list info ...
  update every 1 steps, delay 10 steps, check yes
  max neighbors/atom: 2000, page size: 100000
  master list distance cutoff = 3.8
  ghost atom cutoff = 3.8
  binsize = 1.9, bins = 9 9 9
  1 neighbor lists, perpetual/occasional/extra = 1 0 0
  (1) pair lj/cut, perpetual
      attributes: half, newton on
      pair build: half/bin/atomonly/newton
      stencil: half/bin/3d
      bin: standard
WARNING: Not all mixed pair coeffs generated from mixing. Use write_data with 'pair ij' option to store all pair coeffs. (../write_data.cpp:312)


#############################
#   M E L T   S Y S T E M   #
#############################

velocity all create 2.4 5833274 mom yes dist gaussian # Assign velocities
                                                    # Temperature 2.4, random number seed, zero linear momentum
                                                                                # Gaussian distribution

timestep 0.002   # simulation timestep
thermo 1000       # output thermodynamic data every 1000 steps bf 100

# Define a fix  in this case with index 1 applied to all
# particles in the simulation. This fix is for simulations
# in the anisotropic NPT ensemble. Note that we use the MTK
# correction.
fix 1 all npt temp 2.4 2.4 0.1 iso 5.68 5.68 0.5 mtk yes tchain 5 pchain 5 # Use NPT ensemble
                                                                         # Set temperature and pressure and damping
                                                                         # Numbers of thermostats in chain and in barostat
run 10000          # run for 10000 steps
Per MPI rank memory allocation (min/avg/max) = 3.642 | 3.644 | 3.648 Mbytes
Step Temp E_pair E_mol TotEng Press Volume 
       0          2.4    -3.598932            0 0.00016796869   -3.1561227         4000 
    1000    2.3955828   -2.8741852            0   0.71829066     5.737667    3849.3326 
    2000    2.4179918   -2.9214901            0   0.70459086    5.7485969    3803.9604 
    3000    2.3874591   -2.9495233            0   0.63077004    5.7335669    3780.1432 
    4000    2.3768768    -2.894864            0   0.66955985    5.8409352    3812.9146 
    5000    2.3518927   -2.9073055            0   0.61965166    5.7951159    3793.2633 
    6000    2.3685361   -2.8906206            0   0.66129528    5.8122614    3826.4292 
    7000    2.3303955   -2.9014805            0   0.59323887    5.4010886    3853.8273 
    8000    2.4129536   -2.8798462            0   0.73867932    5.5892824    3847.3141 
    9000    2.4028146   -2.9285076            0   0.67481326    5.6762016    3814.2458 
   10000     2.373507   -2.9124358            0   0.64693463    5.6646103    3819.9106 
Loop time of 2.52853 on 48 procs for 10000 steps with 4000 atoms

Performance: 683401.739 tau/day, 3954.871 timesteps/s
99.6% CPU use with 48 MPI tasks x no OpenMP threads

MPI task timing breakdown:
Section |  min time  |  avg time  |  max time  |%varavg| %total
---------------------------------------------------------------
Pair    | 1.1385     | 1.2025     | 1.2512     |   2.4 | 47.56
Neigh   | 0.21326    | 0.22       | 0.23103    |   0.7 |  8.70
Comm    | 0.79276    | 0.85616    | 0.92294    |   3.3 | 33.86
Output  | 0.00024508 | 0.00025021 | 0.00032456 |   0.0 |  0.01
Modify  | 0.21831    | 0.23475    | 0.25536    |   2.0 |  9.28
Other   |            | 0.01489    |            |       |  0.59

Nlocal:        83.3333 ave          95 max          75 min
Histogram: 2 5 5 9 12 5 5 2 1 2
Nghost:        1697.27 ave        1717 max        1670 min
Histogram: 1 1 4 6 5 10 5 4 7 5
Neighs:        9990.94 ave       11506 max        8929 min
Histogram: 4 6 3 13 7 6 3 2 1 3

Total # of neighbors = 479565
Ave neighs/atom = 119.89125
Neighbor list builds = 914
Dangerous builds = 242

# Equilibrate just above the melting temperature to avoid step fn in T

fix 1 all npt temp 1.25 1.25 0.1 iso 5.68 5.68 0.5 mtk yes tchain 5 pchain 5
run 2000
Per MPI rank memory allocation (min/avg/max) = 3.643 | 3.645 | 3.649 Mbytes
Step Temp E_pair E_mol TotEng Press Volume 
   10000     2.373507   -2.9124358            0   0.64693463    5.6646103    3819.9106 
   11000    1.2354648   -4.3037559            0    -2.451022    5.7615698    2935.7145 
   12000    1.2251682    -4.268092            0   -2.4307991    6.0414923    2926.3826 
Loop time of 0.624255 on 48 procs for 2000 steps with 4000 atoms

Performance: 553619.681 tau/day, 3203.818 timesteps/s
99.6% CPU use with 48 MPI tasks x no OpenMP threads

MPI task timing breakdown:
Section |  min time  |  avg time  |  max time  |%varavg| %total
---------------------------------------------------------------
Pair    | 0.2833     | 0.30713    | 0.32844    |   2.0 | 49.20
Neigh   | 0.040327   | 0.042062   | 0.044047   |   0.5 |  6.74
Comm    | 0.20334    | 0.22638    | 0.25248    |   2.6 | 36.26
Output  | 5.1837e-05 | 5.3086e-05 | 6.7498e-05 |   0.0 |  0.01
Modify  | 0.04076    | 0.043689   | 0.046273   |   0.7 |  7.00
Other   |            | 0.004946   |            |       |  0.79

Nlocal:        83.3333 ave          91 max          77 min
Histogram: 3 5 5 6 7 9 4 7 1 1
Nghost:        2029.96 ave        2054 max        2004 min
Histogram: 4 2 2 4 6 9 10 8 1 2
Neighs:        13041.1 ave       14348 max       11215 min
Histogram: 2 2 5 4 2 6 8 9 7 3

Total # of neighbors = 625975
Ave neighs/atom = 156.49375
Neighbor list builds = 142
Dangerous builds = 12

#############################
# L I N E A R  Q U E N C H  #
#############################

# Define solid atoms. This closely follows ten Wolde  Ruiz-Montero and Frenkel  Faraday Discuss  1996  104  93-110
# Compute components of the per-atom q6 vector
compute q6 all orientorder/atom degrees 1 6 components 6 nnn NULL cutoff 1.3 # compute the Q6 parameter.
                                                                             # Use all neighbours within 1.3 unit cell.

# get number of connections
compute coord_number all coord/atom orientorder q6 0.5

# An atom is solid if it has 8 or more connections (of a possible 14)
variable is_solid atom c_coord_number>=8
group solid dynamic all var is_solid    # Must be dynamic to update
dynamic group solid defined

# do clustering
compute cluster solid cluster/atom 1.3 # Create a cluster where all atoms within are solid and max 1.3 units from another member

# define chunks one chunk per cluster
compute clus_chunks solid chunk/atom c_cluster nchunk every compress yes  # Says which atoms are in which chunk

# count the size of each chunk
compute size_chunks solid property/chunk clus_chunks count


# Find the maximum entry in the vector of chunk sizes
variable max_n equal max(c_size_chunks)


# Thermo style which includes this variable
# thermo_style custom step temp pe vol v_max_n

thermo ${N}  # Print the thermo information every 100 steps
thermo 1000  

# Reset the npt fix at a lower temperature (below freezing)
fix 1  all npt temp  ${temp} ${temp}  0.1  iso  5.68  5.68  0.5  mtk yes tchain  5  pchain  5
fix 1  all npt temp  0.45 ${temp}  0.1  iso  5.68  5.68  0.5  mtk yes tchain  5  pchain  5
fix 1  all npt temp  0.45 0.45  0.1  iso  5.68  5.68  0.5  mtk yes tchain  5  pchain  5

dump dmp2 all dcd ${N} traj.dcd
dump dmp2 all dcd 1000 traj.dcd


compute msd all msd com yes
variable twopoint equal c_msd[4]/6/(step*dt+1.0e-6)
fix 9 all vector 10 c_msd[4]
variable fit equal slope(f_9)/6/(10*dt)
thermo_style custom step temp pe c_msd[4] v_twopoint v_fit v_max_n

fix 1 all npt temp 1.25 ${temp} 0.1 iso 5.68 5.68 0.5 mtk yes tchain 5 pchain 5
fix 1 all npt temp 1.25 0.45 0.1 iso 5.68 5.68 0.5 mtk yes tchain 5 pchain 5
run 5000000 # 5000000  # Run for this many steps
Neighbor list info ...
  update every 1 steps, delay 10 steps, check yes
  max neighbors/atom: 2000, page size: 100000
  master list distance cutoff = 3.8
  ghost atom cutoff = 3.8
  binsize = 1.9, bins = 8 8 8
  4 neighbor lists, perpetual/occasional/extra = 1 3 0
  (1) pair lj/cut, perpetual
      attributes: half, newton on
      pair build: half/bin/atomonly/newton
      stencil: half/bin/3d
      bin: standard
  (2) compute orientorder/atom, occasional
      attributes: full, newton on
      pair build: full/bin/atomonly
      stencil: full/bin/3d
      bin: standard
  (3) compute coord/atom, occasional
      attributes: full, newton on
      pair build: full/bin/atomonly
      stencil: full/bin/3d
      bin: standard
  (4) compute cluster/atom, occasional
      attributes: full, newton on
      pair build: full/bin/atomonly
      stencil: full/bin/3d
      bin: standard
Per MPI rank memory allocation (min/avg/max) = 9.832 | 9.840 | 9.845 Mbytes
Step Temp PotEng c_msd[4] v_twopoint v_fit v_max_n 
   12000    1.2251682    -4.268092 1.1832914e-33 8.2173008e-36 8.3333333e+20            6 
   13000    1.2356795   -4.2895189   0.82781022 0.0053064756  0.069929815            1 
   14000    1.2457269   -4.3318236    1.7426395  0.010372854  0.072333971            1 
   15000    1.2421632   -4.3087519    2.6122947  0.014512748  0.073943167            1 
   16000    1.2213316   -4.3126763     3.433771  0.017884223  0.072853957            1 
   17000    1.2437499   -4.3059223    4.2903434  0.021031094  0.072430465            6 
   18000    1.2438238   -4.3150671    5.1023036  0.023621775  0.072010609            2 
   19000    1.2317394   -4.2776326    5.9310491  0.026013373  0.071196509            1 
   20000    1.2610926   -4.2944179    6.6484429  0.027701845  0.070106004            1 
   21000    1.2418092   -4.3093457    7.4746065  0.029661136  0.069292876            3 
   22000    1.2688308   -4.3196151     8.325128  0.031534575  0.068891007            1 
   23000    1.2416709   -4.3218714    9.2640431  0.033565373  0.069002172            1 
   24000    1.2477008   -4.2718897    10.133518  0.035185826  0.069304962            2 
   25000    1.2285075   -4.3566629    10.888591  0.036295301  0.069451363            3 
   26000    1.2329602   -4.2895442    11.743742  0.037640197  0.069518112            1 
   27000    1.2576337   -4.2884697    12.562139  0.038772035  0.069627458            1 
   28000    1.2468319   -4.3512204    13.424316  0.039953321  0.069644177            1 
   29000    1.2290761   -4.2803729    14.124957  0.040588955    0.0695773            1 
   30000    1.2482665   -4.3246026    14.960526  0.041557017  0.069426529            2 
   31000    1.2544024   -4.2692946    15.912501  0.042775539   0.06940905            4 
   32000    1.2422408    -4.286129    16.714558  0.043527494  0.069421183            2 
   33000    1.2872952   -4.2712789    17.596115  0.044434633  0.069492739            1 
   34000    1.2514083   -4.3073733    18.588681  0.045560493  0.069663447            2 
   35000    1.2741994   -4.3064897    19.579785  0.046618535   0.06992719            3 
   36000    1.2400137   -4.3249226    20.434991  0.047303219  0.070157898            3 
   37000    1.2406407   -4.3174296    21.363264  0.048115458  0.070384114            2 
   38000    1.2279523   -4.3179655    22.177111  0.048634015  0.070587998            3 
   39000    1.2438606   -4.3139693    23.112839  0.049386408  0.070746933            3 
   40000    1.2534272   -4.3252078    23.943556  0.049882407  0.070852563            6 
   41000    1.2492983   -4.2782424    24.773536  0.050352715  0.070936326            2 
   42000     1.234086   -4.3045123    25.759338  0.051109796  0.071090975            2 
   43000    1.2199786   -4.3204818    26.615147  0.051579742  0.071241809            4 
   44000    1.2350416   -4.3120279     27.54262  0.052164053  0.071364475            2 
   45000    1.2456018   -4.2929756     28.43028  0.052648666  0.071441406            1 
   46000    1.2136568   -4.2974018    29.190925   0.05288211  0.071564555            2 
   47000    1.2507007   -4.2863061    29.948854  0.053100805  0.071601325            2 
   48000    1.2575022   -4.3111905    30.911082  0.053665072  0.071611862            3 
   49000    1.2278399   -4.3004856    31.867269  0.054196034  0.071656938            5 
   50000    1.2451186   -4.3127126    32.659587  0.054432644  0.071705398            2 
   51000    1.2461939   -4.2938938    33.625464  0.054943567  0.071746456            1 
   52000    1.2060151    -4.321481    34.519463  0.055319652  0.071797577            3 
   53000    1.2261709    -4.293597    35.662277  0.056072762  0.071933705            3 
   54000    1.2708889   -4.2841599    36.894442  0.056935867  0.072117761            1 
   55000    1.2419834   -4.2960602    37.598078  0.056966785  0.072299895            2 
   56000    1.2590003   -4.2860658    38.577738  0.057407348  0.072484584            2 
   57000    1.2330837    -4.286192    39.298066  0.057453312   0.07261861            4 
   58000    1.2389915   -4.3490036    40.330338  0.057945888  0.072715967            2 
   59000    1.2477287   -4.3404151    41.051433   0.05798225  0.072819954            2 
   60000    1.2390578   -4.3194234    42.090101  0.058458473  0.072916844            3 
   61000    1.2420547   -4.2882535    43.060235  0.058825458  0.073050076            4 
   62000    1.2391938     -4.29552    43.791572   0.05885964  0.073140521            2 
   63000    1.2511687   -4.3370343    44.469099  0.058821559  0.073194024            1 
   64000    1.2524703   -4.3012825    45.457747  0.059189774  0.073233702            2 
   65000      1.25552   -4.3207067    46.395146  0.059480956   0.07327262            3 
   66000    1.2430797   -4.2813853    46.941918  0.059270098  0.073282948            4 
   67000    1.2184143   -4.3027807     47.99054  0.059689725   0.07326764            3 
   68000    1.2382944   -4.3226429    49.001972  0.060051436  0.073267672            2 
   69000    1.2414313   -4.3122303    50.088369  0.060493199  0.073319223            2 
   70000    1.2479785   -4.3631274    50.785338  0.060458735  0.073377166            1 
   71000    1.2193245   -4.2918909    51.787013  0.060782879  0.073424707            1 
   72000    1.2292612   -4.2575227    52.378086  0.060622784  0.073441912            1 
   73000    1.2226715   -4.2891834    53.078783  0.060592217  0.073439619            4 
   74000    1.2301161   -4.3129006    54.076793  0.060897288  0.073411932            2 
   75000    1.2288262   -4.2916442    54.864955  0.060961061  0.073398375            2 
   76000    1.2670248   -4.3014598    55.424447  0.060772419  0.073355297            3 
   77000    1.2279071   -4.3265569    56.436072  0.061077999  0.073318249            4 
   78000    1.2584997   -4.3132911    57.694798  0.061639741  0.073299094            5 
   79000    1.2575589   -4.2993971    58.404882  0.061608525  0.073296667            1 
   80000    1.2363651    -4.324745    59.321355  0.061793078  0.073304883            2 
   81000    1.2423164   -4.3046029    60.033872  0.061763243   0.07328871            3 
   82000    1.2410776   -4.3085904    60.748235  0.061736011  0.073255103            1 
   83000    1.2155637   -4.3207508    61.855321  0.062103735   0.07322369            2 
   84000    1.2439637   -4.2890565    62.463929  0.061968184  0.073184223            5 
   85000    1.2743444   -4.3178108    63.223658  0.061983978   0.07314714            2 
   86000    1.2325426       -4.294    63.892674  0.061911505  0.073113434            1 
   87000    1.2405202   -4.3020024    65.122693  0.062378058  0.073083192            1 
   88000    1.2154621   -4.3196266    65.922496  0.062426606  0.073055739            3 
   89000    1.2348905   -4.3070979    67.005897  0.062739604  0.073040911            3 
   90000    1.2209986    -4.310586    67.806618  0.062783905  0.073026522            2 
   91000    1.2400119   -4.3423516    68.657518  0.062873185  0.073028983            2 
   92000    1.2422279   -4.3479406    69.955062  0.063365092  0.073030823            2 
   93000    1.2153305   -4.3322677    70.615096  0.063275175   0.07303604            4 
   94000    1.2370471   -4.3195625    71.548095  0.063429162  0.073040102            2 
   95000    1.2231108   -4.3474219    72.415645  0.063522496  0.073037731            2 
   96000     1.254226   -4.3588391     73.26472  0.063597847  0.073048137            2 
   97000    1.2484366   -4.3262167    74.267632  0.063803808  0.073072518            1 
   98000    1.2498625   -4.2820015    75.744891   0.06440892  0.073102312            2 
   99000    1.2336107   -4.3234044    76.330151  0.064250968  0.073129912            1 
  100000    1.2233045   -4.3149196    77.062733  0.064218944  0.073142772            4 
  101000     1.233255   -4.3354257    77.773804  0.064169805  0.073165569            1 
  102000    1.2403713   -4.3277483    78.541633  0.064168001   0.07316885            2 
  103000    1.2184014   -4.3414882     79.49127  0.064313325  0.073156243            4 
  104000    1.2507737   -4.3300822    80.205712  0.064267397  0.073138687            3 
  105000    1.2390458   -4.3274704    81.027241  0.064307334  0.073131575            2 
  106000    1.2531123   -4.2918608    82.258794  0.064668863  0.073137486            3 
  107000    1.2463208   -4.3459465    82.989091  0.064633248  0.073148659            2 
  108000    1.1884492   -4.3335385    83.822542  0.064677887  0.073151884            1 
  109000    1.2521469   -4.3427153    84.489242  0.064594222  0.073144281            1 
  110000    1.2422427   -4.3071667    85.177525  0.064528428  0.073127976            1 
  111000    1.2260737   -4.3588974    85.767198  0.064389788  0.073102201            3 
  112000    1.2542181   -4.3421844    86.702498  0.064510787  0.073077674            2 
  113000     1.221949   -4.3224497      87.5232  0.064545132  0.073048696            3 
  114000    1.2354584   -4.3144572    88.017004  0.064339915  0.073014997            3 
  115000    1.2228466   -4.3542435    89.124863  0.064583234    0.0729809            2 
  116000    1.2155983   -4.3388268    89.682677   0.06442721   0.07295298            2 
  117000    1.2316593   -4.3257732    90.779996  0.064658116  0.072924929            1 
  118000    1.2396897    -4.311763    92.032938  0.064995012  0.072903981            1 
  119000    1.2279166   -4.3097434    93.039937  0.065154018  0.072880949            3 
  120000    1.2221105   -4.3114574    93.820799  0.065153332  0.072872172            2 
  121000    1.2292168   -4.3340837    94.542275  0.065111759    0.0728637            1 
  122000    1.2387084   -4.3675374    95.099869  0.064958927  0.072850229            5 
  123000     1.227121   -4.3567925    96.152324  0.065143851  0.072834139            3 
  124000    1.2306785   -4.3092399    97.461365  0.065498229  0.072817192            1 
  125000    1.2382441   -4.3150501    98.102955  0.065401969  0.072800766            4 
  126000    1.2435556   -4.3026766    98.852835  0.065378859  0.072777704            1 
  127000    1.2072845   -4.3134469    99.992558  0.065611914  0.072758093            1 
  128000    1.2234244    -4.281819    100.60187  0.065496011  0.072746004            2 
  129000    1.2218192   -4.3336416    101.18209  0.065363105  0.072735808            1 
  130000    1.2221918   -4.3131303     101.9827  0.065373527  0.072718518            2 
  131000    1.2363251   -4.3666937    102.32085  0.065089597  0.072696012            1 
  132000    1.2201804   -4.3401946    103.81075  0.065537091  0.072675591            3 
  133000     1.224843   -4.3482372    104.58645  0.065530356  0.072659283            3 
  134000    1.2369042   -4.3589192     105.3536  0.065518405  0.072638108            1 
  135000    1.2365143   -4.3302404    106.10314  0.065495768  0.072618452            4 
  136000    1.2555323   -4.2942179    107.38055  0.065796906   0.07259047            2 
  137000     1.217998   -4.3239007    107.04999  0.065115565   0.07254335            1 
  138000    1.2102464   -4.3458797     107.6533  0.065008031  0.072486975            3 
  139000    1.2439653   -4.3282305    108.23745  0.064890558  0.072416672            2 
  140000     1.244981   -4.3163937     109.0789  0.064927914  0.072358068            2 
  141000    1.2357309   -4.3767339     109.3924  0.064652719  0.072301328            1 
  142000    1.2594869   -4.3337079    110.48828  0.064840539  0.072248631            1 
  143000    1.2234671   -4.3253021    111.76132  0.065128972  0.072192288            3 
  144000    1.2116577   -4.3373728    112.15255  0.064903093  0.072135228            2 
  145000    1.2570925   -4.3526184    113.08244   0.06498991   0.07208484            4 
  146000    1.2297889   -4.3263143    113.91819  0.065021799  0.072032745            2 
  147000    1.2001239    -4.293675    115.60385  0.065535061  0.071983631            1 
  148000    1.2325236   -4.3413701    115.53276  0.065052229  0.071942173            3 
  149000    1.2280982   -4.3694178     116.7413  0.065291555  0.071898605            3 
  150000    1.2065384   -4.3191966    117.72462  0.065402569   0.07185372            3 
  151000    1.2223693   -4.3078712     118.6097  0.065457892  0.071802104            2 
  152000    1.2283235   -4.3425398    118.75052  0.065104453  0.071751638            2 
  153000    1.2195324   -4.3433057    120.00404  0.065361675  0.071712516            2 
  154000    1.2201487   -4.3419895    120.96097  0.065455068  0.071674367            2 
  155000    1.2276514    -4.340628    122.10329  0.065646932  0.071640907            3 
  156000    1.2210081   -4.3764464     122.4765  0.065425478  0.071607203            4 
  157000    1.2330688   -4.3300785    123.34201  0.065468158  0.071578258            2 
  158000    1.2186792   -4.3093777    124.90673  0.065879076   0.07155044            2 
  159000    1.2431277   -4.3293801    126.42977  0.066262981  0.071531625            8 
  160000    1.2636368   -4.3386483    126.49418  0.065882384  0.071508953            2 
  161000     1.196079   -4.3203818    127.22558   0.06585175  0.071483374            2 
  162000    1.2134305   -4.3074428    128.51991  0.066111062  0.071467428            2 
  163000    1.2055959    -4.357039    128.64319  0.065768502   0.07144511            2 
  164000    1.2322231   -4.3571918    129.27909  0.065690596  0.071417754            2 
  165000    1.2352723   -4.3435511    130.53208  0.065925292  0.071394316            2 
  166000    1.1848386   -4.3333167     131.5576  0.066042972   0.07136582            2 
  167000     1.256159   -4.3315921    131.72458  0.065730829  0.071341415            2 
  168000    1.2463505   -4.3193732    133.10277    0.0660232  0.071315515            3 
  169000    1.1792001   -4.3362422    133.97494  0.066062596  0.071290204            1 
  170000    1.1973953   -4.3171957    134.79183  0.066074426  0.071265723            2 
  171000    1.2321796   -4.2998568    135.43305  0.066000513  0.071244482            1 
  172000    1.2195916   -4.2792763    136.45162   0.06611028  0.071224879            2 
  173000    1.2080892   -4.3550308    136.37824  0.065692795  0.071208738            2 
  174000    1.2141932   -4.3373909    137.16617  0.065692609  0.071188029            2 
  175000    1.2246161   -4.3506409    138.53794  0.065970448   0.07116374            2 
  176000    1.2538551   -4.3607727    140.03351  0.066303745  0.071146027            8 
  177000    1.2296281    -4.337388    141.16983  0.066464141  0.071136196            2 
  178000    1.2423494   -4.2975252    142.71563  0.066814432  0.071128388            1 
  179000    1.2119844   -4.3475975     142.5691  0.066372951   0.07112286            2 
  180000    1.2001245   -4.3233127    143.19654  0.066294694   0.07111004            3 
  181000    1.2235993   -4.3391538    144.31212  0.066442042  0.071101217            1 
  182000    1.1977492   -4.3675814    144.41981  0.066126288  0.071088805            4 
  183000    1.2339127   -4.3114915    146.09932  0.066529746  0.071077241            4 
  184000    1.2236843   -4.3275177    146.92969  0.066544243  0.071069956            2 
  185000    1.2298301    -4.372048    147.87931  0.066612303  0.071061671            3 
  186000    1.2385247   -4.3552688    148.46124  0.066514894  0.071054083            3 
  187000    1.2313633   -4.3239834    150.18567  0.066927658  0.071051025            2 
  188000    1.2094028   -4.3385163     150.6051  0.066757581   0.07105028            2 
  189000    1.2420023   -4.3445898    152.17542  0.067096744  0.071052733            2 
  190000    1.2048128   -4.3437647    151.99589  0.066664865   0.07105546            1 
  191000    1.2115677   -4.3561702    153.43359  0.066943101  0.071056198            2 
  192000    1.2191605   -4.3435908    154.39981  0.067013808  0.071051807            1 
  193000    1.2029707   -4.3135962    155.19546   0.06701013  0.071056685            4 
  194000     1.230967   -4.3603176    155.45774  0.066777378  0.071059417            3 
  195000    1.2311981   -4.3811704    156.13138   0.06672281  0.071059967            2 
  196000    1.2414889    -4.336867    157.31186  0.066884296  0.071061427            3 
  197000    1.2266984   -4.3344013    158.92333   0.06722645  0.071066261            1 
  198000    1.2247152   -4.3703879    158.59278  0.066747804  0.071071131            4 
  199000     1.222907   -4.3173307    161.13246  0.067475904  0.071072337            2 
  200000    1.2189984   -4.3421992    161.36633  0.067235973  0.071078767            2 
  201000    1.2064843   -4.3338732    162.90685  0.067540153  0.071086545            1 
  202000    1.2144274   -4.3972421    163.08802  0.067280535  0.071093773            1 
  203000    1.2085161    -4.370838    163.94909   0.06730258  0.071101556            5 
  204000    1.2297895    -4.373179    164.58717  0.067233321   0.07110641            2 
  205000    1.2009398   -4.3419651    165.78108  0.067390681   0.07111013            3 
  206000    1.2167634   -4.3715282    166.42487  0.067323975  0.071112079            5 
  207000    1.2273802   -4.3344898    167.37649  0.067381838  0.071114752            3 
  208000    1.1876292   -4.3704097    167.84375  0.067245092  0.071118557            3 
  209000    1.1981219   -4.3525967    169.63157  0.067636193  0.071127568            2 
  210000    1.2000587   -4.3358935    170.49617  0.067657211  0.071137734            3 
  211000    1.2330465    -4.320368    172.39627  0.068086993   0.07114837            2 
  212000    1.2199885   -4.3169425    173.59536  0.068237169  0.071164604            2 
  213000    1.1857327   -4.3300571    173.55285  0.067900174   0.07118045            3 
  214000    1.1959477   -4.3347919    174.06416  0.067781994  0.071192988            2 
  215000    1.2241789   -4.3393616    175.09498  0.067866272  0.071206214            3 
  216000    1.2200704   -4.3486182    176.46947  0.068082358  0.071223464            5 
  217000    1.2256459   -4.3520361    177.28025  0.068079973  0.071239526            2 
  218000    1.1975303   -4.3261566    178.64099  0.068287841  0.071255305            1 
  219000    1.2125824   -4.3295771    179.22547  0.068198428  0.071275987            1 
  220000    1.2197583   -4.3608845     180.6309  0.068420795  0.071298375            2 
  221000    1.2305744    -4.393004    180.79665  0.068173699   0.07132187            3 
  222000    1.2452151   -4.3795356     182.0841  0.068349889  0.071343095            2 
  223000    1.2141824   -4.3082021    183.41367  0.068540234  0.071362442            3 
  224000    1.1935251   -4.3620248    183.57858  0.068295604  0.071380492            2 
  225000    1.2370184   -4.3786583    184.72167  0.068415435  0.071401303            1 
  226000     1.224383   -4.3582032    185.64655  0.068453743  0.071419386            2 
  227000    1.2083659   -4.3256701    186.68786  0.068534455   0.07143839            3 
  228000    1.2197591    -4.323761    187.18064  0.068413977  0.071455182            1 
  229000    1.2163321   -4.3663249    188.09399  0.068447596   0.07146903            2 
  230000    1.2157048   -4.3707145    188.51908  0.068304014  0.071478806            2 
  231000    1.1943725   -4.3588728    188.88697  0.068141042  0.071489696            2 
  232000    1.2194248   -4.3692521    189.43601  0.068044544  0.071497723            1 
  233000    1.2299407   -4.3429903    190.64573  0.068185167  0.071505922            4 
  234000    1.2271987   -4.3340255    191.06363  0.068042601   0.07151089            4 
  235000    1.2175594   -4.3362695    192.16007  0.068141869  0.071515125            1 
  236000    1.2254136   -4.3438046    193.18539   0.06821518  0.071521895            2 
  237000    1.2111468   -4.3509187    193.82766  0.068153185  0.071527717            2 
  238000    1.1782194   -4.3584814    194.72876  0.068182337  0.071530902            2 
  239000    1.2256095   -4.3328293    195.84262  0.068285432  0.071532786            2 
  240000    1.2184043   -4.3596762    196.12877  0.068100266  0.071534805            1 
  241000    1.2330502   -4.3843381    196.31109  0.067880738  0.071539294            2 
  242000    1.1978247   -4.3562007    197.83771  0.068125932  0.071538181            1 
  243000    1.2153212   -4.3651381     197.9756  0.067892867  0.071536284            1 
  244000    1.2297878   -4.3565063    199.61134  0.068173272  0.071538063            2 
  245000    1.1974793   -4.3449645    201.96961  0.068697146  0.071543642            1 
  246000    1.2241527   -4.3633203    202.31299   0.06853421  0.071553179            2 
  247000    1.2133816   -4.3844673     202.9043  0.068456242  0.071560235            2 
  248000    1.2235502   -4.3738191    203.75897  0.068467394  0.071571436            2 
  249000    1.2383047   -4.3374874    205.11234  0.068645361    0.0715863            2 
  250000    1.2201184   -4.3628331    207.14099  0.069046997  0.071600626            3 
  251000    1.2126358    -4.340449    207.19414  0.068789555  0.071616363            8 
  252000    1.1951293   -4.3606087    208.31074  0.068885826  0.071633479            5 
  253000    1.1920323   -4.3495612    209.25122  0.068923327  0.071649699            2 
  254000     1.211116   -4.3699527    210.07628  0.068922665  0.071668072            4 
  255000    1.2271352   -4.3930753    211.31917  0.069058551  0.071685426            5 
  256000    1.2403952   -4.3460655    211.57227  0.068871182  0.071701477            2 
  257000    1.2108395   -4.3634847    213.55302  0.069245465  0.071717152            2 
  258000     1.198979   -4.3973367     213.9232  0.069096641  0.071736551            4 
  259000    1.2427401   -4.3474202    214.91992  0.069150554  0.071761197            5 
  260000    1.1980038   -4.3767061    215.11977  0.068948643  0.071783673            2 
  261000    1.1831757   -4.3756562    216.61435  0.069161669  0.071801402            3 
  262000    1.1772527   -4.3716595    217.01045  0.069023681  0.071819749            3 
  263000     1.211873   -4.3721947     217.2704  0.068843599  0.071834641            1 
  264000    1.2360789   -4.3606834    220.36692  0.069560264  0.071849074            1 
  265000    1.1966716   -4.3865386    219.92635  0.069159231  0.071866294            4 
  266000    1.2286679   -4.3709756    220.45511  0.069064885  0.071880829            2 
  267000    1.2039461   -4.3784027    222.31858  0.069387822  0.071892535            1 
  268000    1.1904128   -4.3498605    223.01982   0.06934696  0.071905126            1 
  269000    1.2008679   -4.3540474    222.99129  0.069080324  0.071919636            5 
  270000     1.225926   -4.3427993    224.73739  0.069363393  0.071931566            4 
  271000    1.2169605   -4.3569005    225.51978  0.069348025  0.071946949            2 
  272000     1.201898   -4.3893421    223.81402   0.06857047   0.07195854            1 
  273000    1.2217631   -4.3559927    226.50656  0.069141198  0.071966166            1 
  274000    1.1954436    -4.347592    228.07561  0.069366061  0.071974923            2 
  275000    1.2016432   -4.3510892    228.88983  0.069360553  0.071985212            2 
  276000    1.1830552   -4.3740716    228.24273  0.068913868   0.07199358            3 
  277000    1.1918984   -4.3756144    230.05539  0.069210406  0.072002549            2 
  278000    1.2054097   -4.3742501    230.96863  0.069235202  0.072010962            2 
  279000    1.2147587   -4.3580334    233.09518  0.069622215  0.072019508            2 
  280000    1.2150314   -4.3635765    232.16381  0.069096372  0.072029766            2 
  281000    1.1978299   -4.3532939    234.11639  0.069429534  0.072037281            2 
  282000    1.2029993    -4.368878    234.39214  0.069264816  0.072045665            1 
  283000    1.1914909   -4.3919989    234.60639  0.069083152  0.072052031            2 
  284000     1.211772     -4.37633    234.99775  0.068954737  0.072057255       -1e+20 
  285000    1.1857681   -4.3818126    236.92166  0.069275338  0.072064191            2 
  286000    1.2250958   -4.3961378    237.65788  0.069247633  0.072066842            2 
  287000     1.188196   -4.3993613     237.9285  0.069084931  0.072070202            1 
  288000    1.2125776   -4.3669193    238.75476  0.069084131  0.072072228            1 
  289000    1.1971117   -4.3316576    238.69977   0.06882923  0.072070353            3 
  290000    1.2034926    -4.337465    240.75852  0.069183483  0.072070753            2 
  291000    1.2086187    -4.338152    241.37784  0.069123092  0.072070081            2 
  292000    1.2026485   -4.4036006     241.4926   0.06891912  0.072067911            3 
  293000    1.1666889   -4.3693794    242.83036   0.06906438  0.072066038            3 
  294000    1.2264283   -4.3424998    243.35375  0.068977821   0.07206447            3 
  295000    1.2243606   -4.3663269    244.56187  0.069085274  0.072060486            1 
  296000     1.196684   -4.3908699    244.45017  0.068820429  0.072054843            1 
  297000    1.1950885   -4.3700461    245.02759  0.068750728  0.072050889            1 
  298000    1.1854349    -4.359238    245.53105  0.068660808   0.07204653            3 
  299000    1.1892028   -4.3247682    247.36121   0.06894125   0.07204127            1 
  300000    1.2211924   -4.3742846    247.81137   0.06883649  0.072034193            6 
  301000    1.2117047   -4.3969423     249.2222  0.068998394  0.072026828            2 
  302000    1.2143015   -4.3935719    249.40202  0.068819542  0.072020596            5 
  303000    1.1796274   -4.3677481    251.59444   0.06919539  0.072015617            1 
  304000    1.1902585   -4.3798172    251.69557  0.068995496  0.072014144            3 
  305000    1.1882102   -4.3369356    253.55103  0.069276237  0.072013692            2 
  306000    1.2138808   -4.3794764    253.15684  0.068942495  0.072013447            2 
  307000    1.2203703   -4.3425501    254.22789  0.069008657  0.072009125            2 
  308000    1.1751026   -4.4005229      254.489  0.068855248   0.07200521            2 
  309000    1.2173652    -4.356994    256.05481  0.069054695  0.072003507            1 
  310000    1.2256482    -4.378435    256.71359  0.069009029  0.071999714            4 
  311000     1.198158    -4.362457    257.41676  0.068975551  0.071997121            2 
  312000    1.2130618   -4.3831198    259.09996  0.069204048  0.071995211            3 
  313000    1.2089987   -4.3575146    259.41426   0.06906663  0.071990195            1 
  314000    1.2003761   -4.4102768    260.55782  0.069150166  0.071988058            4 
  315000    1.2099882   -4.3962442    260.65016  0.068955068  0.071983534            2 
  316000     1.216362   -4.3576882    261.96988  0.069084885  0.071978272            2 
  317000    1.2009896   -4.3916011    262.24295  0.068938736    0.0719757            2 
  318000    1.1684986   -4.3487153    263.79638  0.069129029  0.071972005            1 
  319000    1.1919318   -4.3910252    264.16409  0.069008382  0.071965933            3 
  320000     1.215675      -4.3615    265.49994   0.06914061   0.07196512            2 
  321000    1.1838297   -4.3863481    265.78016  0.068997965  0.071962635            2 
  322000    1.2062318   -4.3669653    268.08527  0.069380246  0.071959708            1 
  323000    1.1927329   -4.3897191     267.4778  0.069008719  0.071957206            3 
  324000    1.1775448   -4.3505464    268.57965  0.069079128  0.071953984            2 
  325000    1.2243159     -4.38251    270.04186  0.069241502  0.071949919            1 
  326000    1.2168173   -4.3718894    270.59027  0.069169292  0.071947395            3 
  327000    1.2002229   -4.4168322    269.52002  0.068685019  0.071943091            2 
  328000    1.1889519   -4.3695392    271.38099  0.068948422  0.071936926            2 
  329000    1.2002913   -4.3795024    271.40222  0.068744231  0.071930426            4 
  330000    1.2011654    -4.403636    272.65233  0.068851598  0.071922381            2 
  331000    1.2054406   -4.3568745    274.14575  0.069019574  0.071916296            4 
  332000    1.1724733   -4.3764503    274.94257  0.069011688  0.071911481            1 
  333000    1.2079696   -4.4152831    274.27331  0.068636966  0.071901617            1 
  334000    1.2028336   -4.3560628    275.68004  0.068782444  0.071890677            2 
  335000    1.1900225   -4.3880645     275.9918  0.068654676  0.071879958            4 
  336000    1.1787975   -4.3715533    277.66728  0.068865894  0.071869915            1 
  337000    1.2037345   -4.3965389    278.26732  0.068809922  0.071858458            3 
  338000    1.2028845   -4.3814481    278.70506  0.068714265   0.07184673            1 
  339000     1.190531   -4.4040245    279.62036  0.068736569  0.071833957            1 
  340000    1.2099857   -4.3937004    281.29726  0.068945407  0.071823659            2 
  341000    1.2115183   -4.4145444    280.56352   0.06856391  0.071811693            2 
  342000    1.2162693   -4.3959442    281.33017  0.068550237  0.071798262            2 
  343000    1.2108073   -4.3795051    282.83463  0.068715897  0.071784755            2 
  344000    1.2010484   -4.3663066    283.39474  0.068651826  0.071771185            2 
  345000    1.1728931   -4.3728583    283.37393   0.06844781    0.0717561            1 
  346000    1.1986105   -4.3828943    282.97879  0.068154814  0.071740651            1 
  347000    1.1757845   -4.3921702    283.83796  0.068164736  0.071722896            1 
  348000    1.1769204   -4.4047404    284.57195  0.068144624  0.071701711            3 
  349000    1.2126347   -4.3578761    286.52065  0.068414673  0.071682621            2 
  350000    1.2020921   -4.3793755    286.55423  0.068227198  0.071663814            2 
  351000    1.2104136   -4.3674619    287.80108  0.068328842  0.071645376            4 
  352000    1.2078078   -4.4221493    288.60848  0.068325871   0.07162768            3 
  353000    1.1927465   -4.3711139    289.22373  0.068277557  0.071611702            3 
  354000    1.1869632   -4.3424817    290.28626  0.068334807  0.071598004            2 
  355000    1.1847215    -4.368815    290.62359  0.068221501  0.071580119            2 
  356000    1.1907057   -4.3553889    291.58635  0.068255232  0.071562755            1 
  357000    1.1936572   -4.3890408     292.5672  0.068292998  0.071543118            1 
  358000    1.1596935   -4.3954882    292.65729  0.068123204   0.07152589            3 
  359000    1.1787614   -4.3401991    296.28347  0.068775179  0.071510271            2 
  360000    1.2023708   -4.4098956    293.50942  0.067941996  0.071492053            2 
  361000    1.2095627   -4.3866382    295.91279  0.068308585  0.071474178            2 
  362000    1.1850483   -4.3767629    297.69401  0.068529929   0.07145538            4 
  363000    1.1791994   -4.3903429    298.32399  0.068485766  0.071440204            5 
  364000    1.1923842    -4.383788     298.3307  0.068299152  0.071426202            1 
  365000    1.2071096   -4.3888913    300.08794  0.068513228   0.07141192            1 
  366000    1.2164107   -4.4101886    300.46546   0.06841199  0.071398055            1 
  367000    1.1940829   -4.3923663     301.6267   0.06848926  0.071384332            1 
  368000    1.1736601   -4.3841421    301.57443  0.068291311  0.071370196            4 
  369000    1.1789064   -4.3857461    303.16492  0.068465428  0.071357268            2 
  370000    1.1740531   -4.3854701    305.28878  0.068758734  0.071345323            2 
  371000    1.1853668   -4.4004337    304.07495  0.068300752  0.071335466            2 
  372000    1.1883002   -4.4231604     305.2758  0.068386155  0.071326738            6 
  373000    1.2019349   -4.4027363    306.74501  0.068531057  0.071314608            3 
  374000    1.1854093   -4.4117733       306.73  0.068344475  0.071301824            2 
  375000    1.2041815   -4.3658414    309.36887  0.068748637  0.071289349            2 
  376000    1.1825226   -4.3824365    307.55785  0.068164418  0.071277881            4 
  377000    1.2004907   -4.4081736    309.52044  0.068417428   0.07126412            2 
  378000    1.1903511   -4.4108368    309.35852  0.068200731  0.071248857            2 
  379000     1.202175   -4.3699907    309.98662  0.068158888  0.071233897            1 
  380000     1.204676   -4.3869802    311.77951  0.068372698  0.071218924            2 
  381000    1.1788437   -4.3754649    312.19328  0.068283744  0.071202838            3 
  382000    1.1687051   -4.4006457    312.63709  0.068201809   0.07118803            3 
  383000     1.186945   -4.4315614    312.63157  0.068022536  0.071170604            2 
  384000    1.2216201   -4.4002872    314.82463  0.068321318  0.071155651            3 
  385000    1.1895801   -4.4158056    315.79396   0.06835367  0.071140775            3 
  386000    1.1755091   -4.3490734    317.78082  0.068605532  0.071125756            1 
  387000    1.1945257   -4.3902102    316.62318   0.06817898  0.071109601            3 
  388000    1.1972519   -4.4016679    317.47784   0.06818682  0.071094536            2 
  389000    1.1778509   -4.3560365    319.35547  0.068413767  0.071078058            1 
  390000    1.1822801   -4.4272053    318.17327  0.067985742  0.071062285            3 
  391000    1.2032341   -4.4089192    318.59294  0.067901308  0.071046332            2 
  392000    1.1835887   -4.3670145    321.10221  0.068261525  0.071031353            1 
  393000    1.1882018   -4.3516275    322.32308   0.06834671  0.071016793            3 
  394000    1.1949339   -4.3709107    322.52793  0.068216566  0.071000142            1 
  395000    1.1834714   -4.3821146    322.09409   0.06795234  0.070985819            2 
  396000    1.1876262   -4.3821679    322.99486  0.067970299  0.070968275            2 
  397000    1.1993904   -4.3998729    324.27761  0.068068347  0.070952016            1 
  398000     1.205446   -4.4110504    326.03025  0.068264291  0.070935678            2 
  399000    1.1541954   -4.4084575    326.94351   0.06828394  0.070919339            3 
  400000    1.2045764   -4.4118944    325.61957  0.067837411  0.070901689            2 
  401000    1.1679605    -4.417845    327.34661  0.068027142  0.070885588            2 
  402000    1.1880821   -4.3860569    328.59518  0.068116746  0.070870549            2 
  403000    1.1837211   -4.4290465    327.71707  0.067766144  0.070854125            6 
  404000    1.1920066   -4.4262746    329.70792  0.068009058  0.070837287            2 
  405000    1.1862922   -4.3850362    330.12565  0.067927088  0.070818986            1 
  406000     1.199228   -4.4173631    330.16589  0.067768039  0.070797555            4 
  407000    1.1534546   -4.4018629    330.51604  0.067673228  0.070777242            2 
  408000    1.1765268    -4.402222    330.94612  0.067595204  0.070757739            2 
  409000    1.1713022   -4.4173562    333.42205  0.067934404   0.07073899            2 
  410000    1.1925733   -4.4023283    333.90836  0.067867553  0.070719811            1 
  411000    1.1847073   -4.3879169    335.57336  0.068040016  0.070699982            1 
  412000    1.1711489   -4.4224761     334.0975  0.067576355  0.070680681            3 
  413000    1.1718543   -4.3992125    335.49365  0.067694441  0.070660315            3 
  414000    1.2010628   -4.3562553     336.5587  0.067745309  0.070639596            2 
  415000    1.2180506   -4.4142833    336.67431  0.067605284  0.070617942            5 
  416000    1.2005887   -4.4475493    336.50311  0.067408475  0.070597297            2 
  417000    1.1815259   -4.4280451    338.30731  0.067607376   0.07057716            2 
  418000    1.1654547   -4.3924552    340.06332  0.067795718  0.070557118            2 
  419000    1.1936257   -4.3503732    340.53063  0.067726855  0.070536054            2 
  420000    1.1571335   -4.4315911    340.98777  0.067656303  0.070515846            1 
  421000    1.1936857   -4.3980907    340.25475  0.067350505  0.070496592            2 
  422000    1.1700408   -4.3857275    342.49053   0.06763241  0.070477495            7 
  423000    1.1916911   -4.4087107    343.56972   0.06768513  0.070459045            1 
  424000    1.1948002   -4.4230633     342.2624  0.067268553  0.070437644            2 
  425000    1.1531556   -4.4093516    343.25415  0.067304734  0.070415683            2 
  426000    1.2059426   -4.4033478    343.69303  0.067232596  0.070391947            2 
  427000    1.1672122    -4.383945    344.92595  0.067315759  0.070369592            3 
  428000    1.1605379   -4.3977146    345.32203  0.067235599  0.070344856            1 
  429000    1.1486769   -4.4530585    344.71285  0.066960538  0.070320421            2 
  430000    1.1788289   -4.4104845    347.04653  0.067257079   0.07029716            2 
  431000    1.1949246   -4.4116865    347.60682  0.067209362  0.070274792            1 
  432000    1.1808485   -4.3994159    347.95077  0.067120134   0.07025136            1 
  433000    1.1839656   -4.4583708    346.85649  0.066754521  0.070228718            1 
  434000    1.1778234   -4.4241152    349.99843     0.067204  0.070206831            2 
  435000    1.1861545   -4.3982964    351.29254  0.067297422  0.070186478            3 
  436000    1.1604335   -4.4312561    350.44305  0.066980705  0.070164135            2 
  437000    1.2106262     -4.42777    353.36899  0.067385392   0.07014389            2 
  438000    1.1637188   -4.3633053    353.20063   0.06719951  0.070122294            1 
  439000    1.1822786   -4.3905484    353.38327  0.067081107   0.07009902            2 
  440000    1.1672421   -4.4335765    356.23145  0.067468077  0.070076424            3 
  441000    1.1757198   -4.4094571    354.83027  0.067050315  0.070051677            3 
  442000    1.1817443   -4.4068312    356.22539   0.06716165  0.070029414            7 
  443000    1.1903977   -4.3871432    358.67269  0.067470409  0.070007934            1 
  444000    1.1666695   -4.4253072     358.1827  0.067226482  0.069987984            2 
  445000    1.1704134   -4.4012739    357.49165  0.066946003  0.069966084            3 
  446000    1.2235337   -4.4131978    358.12591  0.066914408   0.06994302            3 
  447000    1.1831431   -4.4081024    360.96143  0.067293331  0.069920249            2 
  448000    1.1883631   -4.4297023    359.78645  0.066924563  0.069899279            4 
  449000    1.1563827   -4.4072783    360.87351  0.066977267  0.069877507            3 
  450000    1.1652947   -4.4174687    361.90272  0.067019023  0.069857589            1 
  451000    1.1668807   -4.3811128     363.7213  0.067206448   0.06983795            2 
  452000    1.1616377   -4.3730907    363.73442   0.06706018  0.069817379            2 
  453000    1.1627009   -4.3892446    364.98033  0.067141341  0.069797763            3 
  454000     1.184703   -4.4585623    364.37152  0.066881703  0.069778331            2 
  455000    1.2117841   -4.4004576    367.53066  0.067313308  0.069759673            1 
  456000    1.1856421   -4.4042407    368.59947  0.067361013  0.069741782            4 
  457000    1.1766963   -4.3931881     369.5547  0.067387802  0.069726135            1 
  458000    1.1763554   -4.3923519    369.64094  0.067256357  0.069710042            1 
  459000    1.1797158   -4.4025314    372.13936  0.067563427  0.069692871            2 
  460000     1.191828   -4.3742999    370.14949  0.067056066  0.069676821            3 
  461000    1.2054745     -4.39703    372.88306  0.067404746  0.069660278            1 
  462000    1.1825212   -4.4147923     373.2477  0.067324621  0.069645373            6 
  463000    1.1718242   -4.4117381    373.92161  0.067300505   0.06962901            2 
  464000    1.1968543   -4.4404327    374.72263  0.067299323  0.069613689            4 
  465000    1.1948209   -4.3913462    375.59565  0.067311049  0.069598177            3 
  466000    1.1715147   -4.4370665    375.59511  0.067166507  0.069582861            2 
  467000    1.1495892   -4.4424442    376.56959  0.067196572  0.069568375            2 
  468000    1.1955521   -4.4230598    376.52741  0.067045479  0.069553918            2 
  469000    1.1767435   -4.4218921    377.77707  0.067124569  0.069540031            3 
  470000    1.1785506   -4.4428106    380.27018  0.067423791  0.069526736            1 
  471000      1.17831   -4.3869368    379.19855  0.067091038  0.069510502            2 
  472000    1.1746415   -4.3875382    381.32041  0.067323519  0.069496719            2 
  473000    1.1353868   -4.4091684    381.74145  0.067255364  0.069479248            1 
  474000    1.1760334   -4.4209973    383.44642  0.067413223   0.06946328            2 
  475000     1.163504   -4.4408135    382.01782   0.06702067  0.069446753            6 
  476000    1.1852647     -4.42482    382.79223  0.067015446  0.069429541            2 
  477000    1.1791416   -4.3909115    384.38426  0.067153086  0.069413156            2 
  478000     1.181374   -4.4253189    383.16734  0.066800443  0.069396756            1 
  479000    1.2162899   -4.3878295    387.23424  0.067368518  0.069379503            2 
  480000    1.1794766   -4.3866622    387.71983   0.06731247  0.069362844            2 
  481000    1.1809993   -4.4119211    386.31053  0.066928367  0.069346292            3 
  482000    1.1793415   -4.4071297    387.73592  0.067035947  0.069328543            2 
  483000    1.2012109   -4.4447596    388.76428  0.067074582   0.06931255            3 
  484000    1.1757823    -4.437144    389.78197  0.067111221   0.06929757            2 
  485000    1.1985523   -4.4272328    390.09459  0.067026562  0.069281489            2 
  486000     1.166357   -4.4568661     391.3866  0.067110185   0.06926671            3 
  487000    1.1366971   -4.4052716    390.32599  0.066790895  0.069250547            2 
  488000    1.1788883   -4.4405873    392.29784  0.066990751  0.069234627            1 
  489000    1.1679592   -4.4084758    392.40059  0.066871265  0.069218633            2 
  490000    1.1561689   -4.4348166    393.15849  0.066863688  0.069201244            9 
  491000    1.1762492   -4.4466987    392.60822  0.066634118  0.069183385            2 
  492000    1.1760032   -4.4313611    395.49922   0.06698835  0.069163388            1 
  493000    1.1618326   -4.4183675    395.30006  0.066818806  0.069144058            2 
  494000    1.1362574   -4.4394068    393.83491  0.066436389  0.069123548            1 
  495000     1.166368   -4.4459561    394.86377  0.066475382  0.069103432            2 
  496000    1.1641142   -4.4494119    394.84245  0.066337776  0.069081666            2 
  497000    1.1767674    -4.455848    397.32617  0.066620753  0.069061263            2 
  498000    1.1948128   -4.4534936    396.87359  0.066411243  0.069041428            5 
  499000    1.1511438   -4.4306186    399.32279  0.066687173  0.069021987            2 
  500000    1.1645659   -4.4349472    400.18304  0.066697173  0.069001825            2 
  501000    1.1570819   -4.4345795    400.27823  0.066579878  0.068983238            2 
  502000    1.1578876   -4.4232576    400.81944  0.066537092  0.068963558            4 
  503000    1.1538877   -4.3970021    402.30451  0.066650847  0.068945416            2 
  504000    1.1561235   -4.4481601    400.82358   0.06627374  0.068926044            1 
  505000    1.1559023   -4.4302768    402.95565  0.066494331   0.06890692            3 
  506000    1.1864678   -4.3919816    406.60367  0.066963714  0.068887861            4 
  507000    1.1761579   -4.4018749     404.8629  0.066545513  0.068867867            1 
  508000    1.1940082   -4.4400896    404.89783  0.066420248  0.068846085            1 
  509000    1.1435146   -4.4202337    406.32091  0.066522742   0.06882599            1 
  510000    1.1852248   -4.4246064    405.95924  0.066333208  0.068806772            3 
  511000    1.1775584    -4.422789    408.07454  0.066548359   0.06878684            3 
  512000    1.1790537   -4.4305393    407.63931  0.066347544  0.068766954            3 
  513000    1.1682353    -4.458872    407.34096  0.066169746  0.068747685            4 
  514000    1.1431443   -4.4629081    407.74466  0.066106463  0.068728334            3 
  515000    1.1707542   -4.4337224    408.68105   0.06612962  0.068707952            2 
  516000    1.1637056   -4.4116901    409.24877  0.066093147   0.06868738            1 
  517000    1.1766872   -4.4640442    410.38224  0.066148008  0.068666787            4 
  518000    1.1790723   -4.4160296    412.52982  0.066365801   0.06864502            3 
  519000    1.1960062     -4.42045    411.75422  0.066113394  0.068624234            1 
  520000    1.2181604   -4.4106256    413.84883  0.066321927  0.068603468            2 
  521000    1.1584663   -4.4238111     412.0718  0.065910396  0.068584239            1 
  522000    1.1496848   -4.4480615    414.46086  0.066165527  0.068564555            1 
  523000    1.1668747   -4.4211867    415.79728  0.066251957  0.068544596            2 
  524000     1.185939   -4.3896509     418.0644  0.066486069  0.068525809            1 
  525000    1.1784247   -4.4459191    417.45457  0.066262631   0.06850779            4 
  526000    1.1655751   -4.4458091    417.55532  0.066152617  0.068487994            2 
  527000    1.1649928   -4.4260369    418.19795  0.066128708  0.068468586            6 
  528000    1.1456309   -4.4276843    420.25984  0.066328889  0.068450264            3 
  529000    1.1681501   -4.4042964     421.4431  0.066389903  0.068431171            2 
  530000    1.1864232   -4.4562458    421.69392  0.066304075  0.068412525            3 
  531000    1.1583151   -4.4462632    421.98389  0.066224715   0.06839404            2 
  532000    1.1729885   -4.4249306    424.17031  0.066442717  0.068374841            4 
  533000    1.1763935   -4.4418815    422.95706  0.066128371  0.068356452            3 
  534000    1.1561443    -4.421312     424.4745  0.066241339  0.068337803            4 
  535000    1.1733178   -4.4514313    424.18368  0.066072225  0.068318351            4 
  536000     1.160875   -4.4515319    425.48225  0.066150847  0.068299696            1 
  537000     1.153674   -4.4357503    425.22096  0.065987113   0.06827985            3 
  538000    1.1927852   -4.4365429    427.35971  0.066195742  0.068261106            1 
  539000    1.1617152   -4.4224551    427.21726  0.066050906  0.068242312            1 
  540000    1.1620494   -4.4322668     427.7187  0.066005972  0.068222109            2 
  541000    1.1669776   -4.4370248    429.04925  0.066088917  0.068203314            3 
  542000    1.1699696   -4.4418348    432.27971   0.06646367  0.068186144            1 
  543000    1.1880966    -4.441135    431.52957  0.066226147  0.068170001            2 
  544000    1.1737202   -4.4273249    433.52514  0.066410102  0.068154652            3 
  545000    1.1770823   -4.4350694    433.10672   0.06622427  0.068137933            3 
  546000    1.1643181   -4.3941603    433.66886  0.066188776  0.068120747            2 
  547000    1.1798425   -4.4183797    433.81314  0.066089752  0.068104456            1 
  548000    1.1730231    -4.419824    435.72918   0.06626052  0.068087911            1 
  549000    1.1829968   -4.4817781     433.4406   0.06579244  0.068069997            3 
  550000     1.168063   -4.4217079    436.38776  0.066119357  0.068051854            2 
  551000    1.1384088   -4.4394658    435.86131  0.065919739   0.06803434            2 
  552000    1.1652768   -4.4205065    439.74263  0.066386267  0.068017999            2 
  553000    1.1683823   -4.4567467    437.38145  0.065910406  0.068000299            3 
  554000     1.185389   -4.4339877    439.08234  0.066047284  0.067983111            3 
  555000    1.1665599   -4.4459658    439.40811  0.065977194    0.0679661            3 
  556000    1.1715413   -4.4337662    441.36766  0.066152227    0.0679492            2 
  557000    1.1604505   -4.4222675    443.24049  0.066313658  0.067932979            3 
  558000    1.1568432   -4.4685615    442.66087  0.066108254  0.067918487            2 
  559000    1.1666837    -4.468108    442.39538  0.065950414  0.067903283            3 
  560000    1.1596626   -4.3991963    445.09907  0.066234981  0.067887139            2 
  561000    1.1494475   -4.4726619     442.3721  0.065711839  0.067870643            3 
  562000    1.1561352   -4.4635135    444.20996  0.065867432  0.067853159            4 
  563000    1.1593572   -4.4784032     444.2185  0.065751702  0.067835321            5 
  564000    1.1429094    -4.418732     446.2991  0.065942538  0.067818271            3 
  565000    1.1500414   -4.4676202    446.69969   0.06588491  0.067800544            2 
  566000    1.1565288   -4.4558642    446.60635  0.065754762   0.06778213            5 
  567000    1.1587493   -4.4709897    448.17722  0.065869668  0.067765273            2 
  568000     1.179637   -4.4674773    448.21814  0.065759704  0.067748712            3 
  569000    1.1660681   -4.4425497    451.51792  0.066127405  0.067732555            4 
  570000    1.1775895   -4.4285617    451.78548  0.066050509  0.067716841            2 
  571000     1.136051   -4.4145061    451.13039  0.065839228  0.067700773            2 
  572000    1.1706817    -4.440757    451.28224  0.065746247  0.067685037            3 
  573000    1.1596074   -4.5114324    453.62238  0.065971841  0.067668824            2 
  574000    1.1665095    -4.441622    454.77318  0.066023981  0.067655136            2 
  575000    1.1635982   -4.4632015    453.02869  0.065656332  0.067639755            3 
  576000    1.1694275   -4.4345567    455.47837  0.065896754  0.067624682            3 
  577000    1.1792171   -4.4191118    459.14102  0.066311528   0.06761002            4 
  578000    1.1760391   -4.4464646    457.06627  0.065897675  0.067595075            2 
  579000    1.1936642   -4.4261398    460.11475  0.066222618  0.067581425            5 
  580000    1.1749128   -4.4343027    459.17013   0.06597272  0.067568111            2 
  581000    1.1664103   -4.4272634    458.47059  0.065758833  0.067553842            2 
  582000    1.1422772   -4.4466469    462.08956  0.066164027  0.067540696            2 
  583000    1.1549898   -4.4779643    460.30884  0.065796004  0.067526538            3 
  584000    1.1465918   -4.4473603    461.41889  0.065841737  0.067511604            2 
  585000     1.142403   -4.4469117    461.60533  0.065755745  0.067496137            1 
  586000    1.1630648   -4.4442434    464.95957   0.06612053  0.067480688            2 
  587000    1.1592318   -4.4142994    463.83871  0.065848766  0.067465777            2 
  588000    1.1497186   -4.4818142    461.73574  0.065438738  0.067449199            5 
  589000    1.1525313   -4.4763159     464.1629  0.065671038  0.067432858            2 
  590000    1.1578678   -4.4549455    466.20375  0.065847988  0.067417177            2 
  591000     1.171708   -4.4563074    465.73732  0.065670801   0.06740154            3 
  592000    1.1725039   -4.4387799    466.16319  0.065619819  0.067386108            3 
  593000    1.1273008   -4.4819718    466.64864   0.06557738   0.06737072            2 
  594000    1.1609406   -4.4690388    468.23908  0.065690107  0.067356767            2 
  595000    1.1592716   -4.4390121    469.10663  0.065701208  0.067342438            2 
  596000    1.1232861   -4.4274313    471.48481  0.065923491  0.067328807            1 
  597000    1.1387343   -4.4460505    471.49204  0.065814076    0.0673137            3 
  598000    1.1405389   -4.4411834    472.37784  0.065827459  0.067299459            3 
  599000    1.1293163   -4.4488641    472.92588  0.065793806  0.067285569            2 
  600000     1.161503   -4.4746495     473.4264  0.065753667   0.06727271           11 
  601000    1.1478257   -4.4385743    475.97259  0.065997309  0.067259922            2 
  602000    1.1335414   -4.4315814    476.63207  0.065978969  0.067247165            1 
  603000    1.1586139   -4.4641097    477.53717  0.065994633  0.067233791            4 
  604000    1.1997189    -4.439732    478.58718  0.066030239  0.067221101            2 
  605000    1.1544766   -4.4630878    478.98475   0.06597586  0.067209717            3 
  606000    1.1386728   -4.4387389    480.56687  0.066084554  0.067197263            4 
  607000    1.1544681   -4.4534432    479.63438  0.065847664  0.067186076            2 
  608000    1.1468074   -4.4467247    480.70234  0.065885737  0.067174293            3 
  609000    1.1479803    -4.460802     482.7327  0.066055378  0.067163078            2 
  610000    1.1652806   -4.4709426    483.37375  0.066034665  0.067152045            2 
  611000    1.1559896   -4.4331967    484.37875  0.066063659  0.067141079            3 
  612000    1.1721654   -4.4337135    483.35039  0.065815685  0.067130517            3 
  613000    1.1382153   -4.4451862    486.68532   0.06616168  0.067120696            3 
  614000    1.1695176   -4.4366811    487.84218  0.066210936  0.067111103            3 
  615000    1.1533529   -4.4749977    487.37809  0.066040391  0.067101097            1 
  616000    1.1685197   -4.4587291    488.79716  0.066125157  0.067091425            2 
  617000    1.1464737   -4.4419406     488.7497  0.066011575  0.067082007            2 
  618000    1.1375405   -4.4458472    490.79785  0.066180939  0.067074998            3 
  619000    1.1636474   -4.4519439    493.12996  0.066387986  0.067067447            1 
  620000    1.1636023   -4.4819419    491.59081  0.066074033  0.067061511            3 
  621000    1.1588219   -4.4781113     493.7455  0.066256776   0.06705434            1 
  622000    1.1749056   -4.4869464    493.24717  0.066083489   0.06704722            3 
  623000    1.1479318   -4.4667087    493.26115  0.065979287  0.067039089            1 
  624000    1.1416185    -4.468421    495.06532  0.066114493  0.067029638            5 
  625000    1.1298306   -4.4765206    493.50023  0.065800031  0.067020408            4 
  626000     1.158724   -4.4667833    494.41583  0.065816804   0.06701223            3 
  627000    1.1587111   -4.4474301    498.39346  0.066240491   0.06700425            5 
  628000    1.1583659   -4.4662752    497.83353  0.066060713  0.066996603            2 
  629000    1.1496336   -4.4714569    497.46468  0.065906821   0.06698865            2 
  630000    1.1221445    -4.449962    498.38824   0.06592437  0.066981476            3 
  631000    1.1559159    -4.450561    501.28545  0.066202516  0.066973033            2 
  632000    1.1593511   -4.4663901    500.85165  0.066040566   0.06696468            2 
  633000    1.1709872   -4.4305693    502.42633   0.06614354  0.066955678            3 
  634000    1.1397817    -4.487815    500.14777  0.065739717  0.066946248            6 
  635000    1.1482181   -4.4866335    500.92165   0.06573775  0.066937035            2 
  636000    1.1312357   -4.4666411    502.44536  0.065834035  0.066927145            2 
  637000    1.1762444   -4.4968121    501.35344  0.065587839  0.066917496            2 
  638000    1.1512709    -4.472781    503.78668  0.065802858  0.066906864            1 
  639000    1.1540429   -4.4655418     504.7412  0.065824361  0.066896656            3 
  640000    1.1261157   -4.4541035    505.59866  0.065833158  0.066886513            4 
  641000    1.1862984   -4.4882604    504.97225  0.065649019  0.066875678            3 
  642000    1.1528852   -4.4605702    506.52077  0.065747763  0.066865345            1 
  643000    1.1563921   -4.4732152    508.55406  0.065909028  0.066854475            2 
  644000     1.174978   -4.4675196    506.91847  0.065595041  0.066844354            3 
  645000    1.1604101   -4.4858901    508.20749  0.065659882  0.066833361            4 
  646000    1.1680913   -4.4663936    510.13979  0.065807507   0.06682275            2 
  647000    1.1368945   -4.4849023    507.76239  0.065399587  0.066811701            2 
  648000    1.1522124   -4.4619461    510.00284  0.065586785  0.066801041            3 
  649000    1.1445434   -4.5122667    509.64538  0.065439828  0.066790614            1 
  650000    1.1378719   -4.4586127      512.996  0.065768718  0.066779945            2 
  651000    1.1434128    -4.481779    514.03046   0.06580011  0.066770028            3 
  652000    1.1483029   -4.4585686    513.52357  0.065634404  0.066760518            2 
  653000    1.1594213   -4.4757767    513.07442  0.065476572   0.06674995            2 
  654000    1.1440893   -4.4518425    514.74511  0.065589336  0.066740278            3 
  655000    1.1394753   -4.4538681    514.81786  0.065498455  0.066729597            1 
  656000    1.1315345   -4.4911505    514.21747  0.065322341   0.06671789            4 
  657000    1.1430625   -4.4653922    517.12958  0.065592286   0.06670761            2 
  658000    1.1593794   -4.4525081    518.54009  0.065671238  0.066696508            3 
  659000    1.1410509   -4.4776921      515.764  0.065220536  0.066685203            2 
  660000    1.1364278   -4.4930152    515.27225  0.065059627  0.066672511            4 
  661000    1.1340565   -4.4768134    521.05716  0.065690514    0.0666603            2 
  662000    1.1579077    -4.478301    520.42302  0.065511458  0.066647563            4 
  663000    1.1464728    -4.494493    518.31229  0.065147347  0.066634349            4 
  664000    1.1564794   -4.4645909    519.33761  0.065177912  0.066620611            3 
  665000    1.1614765   -4.4704545    519.65493  0.065119666  0.066605782            2 
  666000    1.1379918   -4.4648219    519.52942  0.065006184  0.066591018            2 
  667000    1.1678178   -4.4782663    521.20192  0.065117681  0.066576435            2 
  668000     1.133052   -4.5010146    520.17933  0.064892631  0.066561021            2 
  669000    1.1329564   -4.4597232    522.66396  0.065105127  0.066546826            3 
  670000    1.1499208   -4.4820952    524.74761  0.065267116  0.066533132            1 
  671000    1.1395223   -4.4623768    526.18829  0.065348769  0.066520815            3 
  672000    1.1309545   -4.4704752    525.47757  0.065163389  0.066507962            2 
  673000    1.1117276   -4.4305505    527.93051  0.065370296  0.066494595            1 
  674000    1.1251147   -4.4591829    528.10929  0.065295411  0.066480634            2 
  675000    1.1536832   -4.4868232    525.68474  0.064899351  0.066466269            3 
  676000    1.1371463    -4.484165     528.0723   0.06509767  0.066452523            2 
  677000    1.1030108   -4.4665077    527.05931  0.064876823  0.066438031            3 
  678000    1.1495456   -4.4762673    526.75612  0.064743869  0.066422898            3 
  679000    1.1312052   -4.5053985    528.89229  0.064910688  0.066408803            5 
  680000    1.1579263    -4.482941    531.43946  0.065127385  0.066394231            4 
  681000    1.1453482   -4.4422002    532.36515  0.065145026  0.066380193            2 
  682000    1.1443339   -4.4886874    532.31026  0.065042798   0.06636714            2 
  683000    1.1587781    -4.479959     534.1399  0.065170803  0.066352688            3 
  684000    1.1353847   -4.5140432    530.72327  0.064659267  0.066338915            2 
  685000    1.1512614   -4.4564659      535.894  0.065193918  0.066325368            3 
  686000    1.1426161   -4.4731652    535.59257  0.065062266   0.06631194            2 
  687000    1.1413174   -4.4800541    533.87275  0.064758946  0.066297099            2 
  688000    1.1412807   -4.4912165    535.73069  0.064889861  0.066282214            4 
  689000    1.1366428   -4.4736347    537.48843  0.065008277  0.066267554            7 
  690000    1.1275011    -4.464292    537.30287  0.064891651  0.066253431            1 
  691000    1.1405918   -4.4716177    537.21133  0.064786701  0.066239224            2 
  692000    1.1143377   -4.4881564     536.7551  0.064638139  0.066224503            4 
  693000    1.1332481   -4.4580243    540.29971  0.064971105  0.066211047            1 
  694000    1.1290627   -4.4944514    537.77547  0.064574384  0.066196631            2 
  695000    1.1256916    -4.475003    542.41213  0.065037426  0.066181842            2 
  696000    1.1424167   -4.4827447    542.73317  0.064982419  0.066167615            2 
  697000    1.1636261   -4.5137267    543.90397  0.065029169  0.066153837            1 
  698000    1.1410818   -4.4760335    541.66143   0.06466827  0.066140799            3 
  699000    1.1536285   -4.4641137    544.02774  0.064857861  0.066128233            4 
  700000    1.1469193   -4.4868713    545.39453   0.06492792  0.066116388            5 
  701000    1.1450556   -4.4669456    546.11937  0.064921466   0.06610414            6 
  702000    1.1300122   -4.5031989     545.1468  0.064713533  0.066090525            1 
  703000    1.1503035   -4.4996569    548.49379  0.065018231  0.066077393            4 
  704000    1.1368466   -4.4806543    546.44097   0.06468288  0.066063605            2 
  705000    1.1317142   -4.4757857    545.54055  0.064484698  0.066050198            6 
  706000    1.1560229   -4.5297014     546.9552   0.06456034  0.066036512            2 
  707000    1.1524657   -4.4815488    548.62527  0.064665873  0.066023195            1 
  708000    1.1834683   -4.4792452    552.34907  0.065012838  0.066011969            4 
  709000     1.111002   -4.4745717    554.19508  0.065138115   0.06599936            3 
  710000    1.1167293   -4.5524528     553.2189  0.064931795  0.065987021            2 
  711000    1.1043601   -4.5195468    552.75801  0.064786452  0.065974671            2 
  712000    1.1227148   -4.4985361    554.46085  0.064894762  0.065961756            3 
  713000    1.1540671   -4.4556961    554.65405  0.064826327  0.065948961            2 
  714000    1.1235646   -4.4689946    552.35982  0.064467766    0.0659363            2 
  715000    1.1416689   -4.4984226     555.4384   0.06473641  0.065923881            3 
  716000    1.1322122    -4.476228    556.60361  0.064781612   0.06591107            2 
  717000    1.1804268   -4.4502539    557.10689  0.064749755  0.065898732            3 
  718000    1.1396882   -4.5012898    557.15672  0.064665357  0.065885323            5 
  719000    1.1438007   -4.4882681    557.32997    0.0645955  0.065872293            1 
  720000    1.1209938   -4.4844023    558.72757  0.064667543  0.065859335            4 
  721000    1.1222745   -4.4738254     558.0467  0.064499156  0.065846429            2 
  722000     1.125052   -4.4870253     559.8739  0.064620718  0.065833904            5 
  723000    1.1628495   -4.4528348    560.05657  0.064552393  0.065821939            1 
  724000    1.1335789   -4.4681201    562.95919  0.064797329  0.065809231            2 
  725000    1.1375449   -4.4854248    562.15326  0.064615317  0.065796408            4 
  726000     1.116287   -4.5002503    559.35229  0.064204808  0.065781847            2 
  727000    1.1451147   -4.4800121    562.89119  0.064522144   0.06576786            1 
  728000    1.1185106   -4.5221903    561.09462  0.064227864  0.065753393            3 
  729000    1.1393863    -4.504856    561.15351  0.064146491  0.065738133            1 
  730000    1.1329768   -4.5189646    561.84711  0.064137798  0.065723014            6 
  731000    1.1547356   -4.5418436    562.91112  0.064171354  0.065708011            4 
  732000    1.1230665   -4.4646779    565.13156   0.06433647  0.065693027            2 
  733000    1.1418037   -4.4619919    565.70317  0.064313684  0.065677838            3 
  734000    1.1383699   -4.5070417    565.14671  0.064162887   0.06566264            1 
  735000     1.144264   -4.4967907    564.11664  0.063958802  0.065647057            2 
  736000     1.163307   -4.4611566    568.16097   0.06432982  0.065631433            4 
  737000    1.1310851   -4.4847248    566.83653  0.064092778  0.065615689            3 
  738000    1.1572963   -4.5223125    566.71362  0.063992053  0.065599622            3 
  739000    1.1455254   -4.4985432    568.15704  0.064068228  0.065583911            3 
  740000    1.1342878   -4.4637259    570.66316  0.064263869  0.065569417            2 
  741000    1.1492848   -4.5181474    570.70057  0.064181351  0.065555425            3 
  742000    1.1354821   -4.4903926    571.29764   0.06416191  0.065540772            2 
  743000    1.1543846   -4.5054853     571.6463  0.064114659  0.065526562            1 
  744000    1.1229993   -4.5339866    568.86626  0.063717099   0.06551103            3 
  745000     1.140292   -4.5165061    571.05059  0.063875905  0.065494925            3 
  746000    1.1112908   -4.4801007    575.35701  0.064271337  0.065479983            1 
  747000    1.1465882   -4.5061559      573.972   0.06403079  0.065465277            3 
  748000    1.1188891   -4.4795428    574.12198  0.063961896  0.065449943            2 
  749000    1.1312149   -4.4957681    576.57583  0.064149514  0.065435148            1 
  750000    1.1039569   -4.4692731    574.96924  0.063885471  0.065420342            2 
  751000    1.1346311   -4.4841989    575.62428  0.063873089  0.065405535            1 
  752000    1.1384175   -4.4728235    576.27665  0.063860444  0.065390631            3 
  753000    1.1252774   -4.4954532    579.02777  0.064080098  0.065376293            3 
  754000    1.1095118   -4.5020218    579.09225  0.064002238  0.065361485            2 
  755000    1.1192297   -4.4746152     579.3282   0.06394351  0.065346245            2 
  756000    1.1431888   -4.4923164    581.99027  0.064152366    0.0653321            3 
  757000    1.1270845   -4.4887466    581.37136  0.063999489   0.06531758            1 
  758000    1.1196974   -4.4860451    580.79708  0.063851922  0.065302866            3 
  759000    1.1284852    -4.528499    580.68474  0.063755461  0.065287681            2 
  760000    1.1448895   -4.5027401    583.20368  0.063947771  0.065272692            2 
  761000    1.1188469   -4.5040643    585.51884  0.064117263  0.065258216            4 
  762000    1.1188957     -4.48156    586.61493  0.064152989  0.065245196            1 
  763000     1.122665   -4.4808907    588.08087  0.064229016  0.065231102            4 
  764000    1.1332236   -4.5053946    588.07864  0.064144703  0.065217485            3 
  765000     1.122204   -4.5132516    586.37615  0.063875397  0.065204552            3 
  766000    1.1271698   -4.4918056    587.73787  0.063940151  0.065190648            3 
  767000    1.1351373   -4.4554898    591.40795  0.064255536  0.065176798            4 
  768000    1.1412704   -4.5192919    588.44759   0.06385065  0.065163278            6 
  769000    1.1274564   -4.5125939    588.60989  0.063785207   0.06514894            3 
  770000    1.1390366   -4.4676554    591.96548  0.064065528   0.06513488            2 
  771000    1.1401198   -4.4883853    590.90691  0.063868019  0.065120522            2 
  772000    1.1493803   -4.5254064    589.72333  0.063657527  0.065106188            2 
  773000     1.130152   -4.5125545    591.65601  0.063783528  0.065092136            2 
  774000    1.1135412   -4.4806869    593.98782  0.063952177  0.065078509            2 
  775000    1.1216207   -4.4907707    594.72261  0.063948668  0.065065081            2 
  776000    1.1191037   -4.5252062    595.14114  0.063911205  0.065052439            2 
  777000    1.1345457   -4.5004335    595.25142  0.063840779  0.065039758            2 
  778000     1.117951   -4.4848741    599.23571  0.064185488  0.065027886            2 
  779000    1.1120428   -4.5056721    598.77362   0.06405366  0.065016288            2 
  780000    1.1536967   -4.4982063    598.34672  0.063925931  0.065003465            3 
  781000     1.128605   -4.4935636    598.17428   0.06382568  0.064990491            2 
  782000    1.1304924   -4.4750947    600.22747  0.063962859  0.064977872            4 
  783000    1.1238333   -4.4847627    601.43621  0.064009814  0.064964988            4 
  784000    1.1313863   -4.4923458    600.81242  0.063861864  0.064951473            4 
  785000    1.1128113   -4.4734559     602.2873   0.06393708  0.064938261            4 
  786000    1.1352112   -4.5066613    603.35537  0.063968975  0.064924461            1 
  787000    1.0998334   -4.5108959     603.2251  0.063873898  0.064912113            2 
  788000    1.1068466   -4.4946945    606.09198  0.064096021  0.064900574            2 
  789000    1.1339299     -4.49886    606.21857  0.064028154  0.064888013            2 
  790000    1.1415924   -4.5193036    603.51199  0.063661602  0.064875975            2 
  791000    1.1033185   -4.5501122    604.70948  0.063707278  0.064863392            3 
  792000     1.134624   -4.4621005    609.64758  0.064146421  0.064851484            6 
  793000    1.1241364   -4.5041937    609.10324  0.064008327  0.064840156            4 
  794000     1.136214   -4.5171724    610.46018  0.064070128  0.064827722            3 
  795000    1.1232186   -4.5079204    608.95348  0.063831602  0.064815488            2 
  796000    1.1258263   -4.5075055    610.94963  0.063960388  0.064803391            1 
  797000    1.1550298   -4.4820941    613.82622   0.06418091  0.064792169            3 
  798000    1.1019608   -4.5133599    610.72517  0.063776646  0.064780646            2 
  799000    1.1258473   -4.4962811     613.6613  0.064003055  0.064769151            2 
  800000    1.0959519   -4.5232917    610.70188  0.063614779  0.064756887            2 
  801000    1.1068973   -4.5110238    616.75761  0.064165378    0.0647443            3 
  802000    1.1260153   -4.5320852    612.85461  0.063679823  0.064732663            4 
  803000    1.1123013   -4.5138619    615.67457  0.063893168   0.06472084            4 
  804000    1.0863649   -4.5290948    616.19635   0.06386778  0.064709203            1 
  805000    1.1318875   -4.4523316    616.86795  0.063857966  0.064697366            4 
  806000       1.1202   -4.4969324    615.57654  0.063645217  0.064684746            2 
  807000    1.1234879    -4.511328    616.37903  0.063649218  0.064672615            1 
  808000    1.1133793   -4.5474384    616.88367  0.063622491  0.064659919            1 
  809000    1.1412536   -4.5249807    615.90152  0.063442679  0.064646823            2 
  810000    1.1232601    -4.492028     617.2889  0.063507089  0.064633194            2 
  811000    1.1329571   -4.4933659    618.76289  0.063580239  0.064620056            2 
  812000    1.0919766   -4.4757903    618.35205  0.063459775  0.064606536            2 
  813000     1.133965   -4.5063837    619.29417  0.063478287  0.064592093            1 
  814000    1.1266812   -4.5198303    618.75758  0.063345371  0.064578043            4 
  815000     1.116501   -4.5235986    619.51639  0.063345234  0.064563939            3 
  816000    1.1483225   -4.5493567    619.77914  0.063294439  0.064549695            1 
  817000    1.1338036   -4.5216784    620.33273  0.063273432  0.064535195            2 
  818000    1.1133803   -4.5242104    620.25486  0.063188148  0.064520909            4 
  819000    1.1368187   -4.5300241    622.30026  0.063319115  0.064507506            3 
  820000    1.0887796   -4.4963195    622.90951  0.063303812  0.064493626            1 
  821000    1.1142724   -4.5354938    622.01729  0.063136144  0.064479618            2 
  822000     1.122696   -4.5312786    624.23584  0.063284249  0.064465625            2 
  823000    1.1349858   -4.5137492    625.26904  0.063311972  0.064451643            6 
  824000    1.1071684   -4.5318212    624.36379  0.063143587   0.06443804            3 
  825000    1.1309545   -4.5212559    627.61415  0.063395368  0.064424127            1 
  826000    1.1166972   -4.5595555    627.66572  0.063323821  0.064410955            2 
  827000    1.1333004   -4.5029265    628.08557  0.063289558  0.064397028            5 
  828000    1.1219995   -4.5197011    631.53833  0.063560621  0.064384392            2 
  829000    1.1396283   -4.5426184     630.6578  0.063395436  0.064371236            2 
  830000    1.1027662   -4.5323001    632.22653   0.06347656  0.064358812            1 
  831000    1.1073017   -4.5350009    629.79909  0.063156748  0.064346022            4 
  832000    1.1175628   -4.5387094     634.8131  0.063583043  0.064333497            2 
  833000    1.0931143   -4.4813758    633.68317  0.063393674  0.064321604            1 
  834000    1.1250131   -4.5201223    632.81899  0.063231314  0.064308238            7 
  835000    1.1042062   -4.5161244     633.0252  0.063176168  0.064294957            5 
  836000    1.1236922   -4.5029695    635.11309  0.063308721   0.06428215            2 
  837000    1.1182564   -4.5410073    631.81458  0.062904678   0.06426853            1 
  838000    1.1175048   -4.5427318     636.3425  0.063279883  0.064255294            4 
  839000    1.1335013   -4.5306388    634.98614   0.06306974  0.064240732            3 
  840000    1.1195432   -4.5221707    635.59115  0.063054678     0.064226            2 
  841000    1.1214084    -4.509945    634.82478  0.062903763  0.064211095            2 
  842000    1.1331081   -4.5066236    635.23627  0.062869782  0.064196217            2 
  843000    1.0903802   -4.5329524    637.50721  0.063019692  0.064182249            3 
  844000    1.1155935   -4.5079071    640.50788    0.0632413  0.064167882            1 
  845000    1.1179105   -4.5444708    636.94428  0.062815018  0.064153665            2 
  846000    1.1413961   -4.5157201    638.21417  0.062865856  0.064138119            1 
  847000    1.1149653   -4.5389024    636.68941  0.062641619  0.064122336            2 
  848000    1.1226137   -4.5448026     635.8234  0.062482645  0.064106598            2 
  849000    1.1283281    -4.529185    641.77769  0.062993492  0.064090939            3 
  850000    1.1200872   -4.4860252    641.65008   0.06290687  0.064075855            3 
  851000    1.1225051   -4.5477156    639.89421  0.062661008  0.064060926            2 
  852000    1.1255938   -4.5260168    645.00743  0.063087581  0.064046233            3 
  853000    1.0996692   -4.5660494    639.37703  0.062463563  0.064031463            6 
  854000    1.0755649   -4.5336675    643.11613  0.062755282  0.064016378            1 
  855000    1.1049187   -4.5470341    644.63828  0.062830242  0.064002108            4 
  856000    1.1208539    -4.490843    646.27062  0.062915754   0.06398717            4 
  857000    1.1117495   -4.5360809    644.65226  0.062684972  0.063972567            2 
  858000    1.1211502   -4.5299028    646.34746  0.062776559   0.06395789            6 
  859000    1.1384314   -4.5033005    647.08011  0.062774554   0.06394329            2 
  860000     1.096936    -4.503676    647.47949   0.06274026  0.063929099            1 
  861000    1.0965935   -4.5388639    646.31313  0.062554504  0.063914549            1 
  862000    1.1026621    -4.517657    650.69113  0.062905175   0.06389941            1 
  863000    1.1137765   -4.5386022    648.77228  0.062646995  0.063884406            3 
  864000    1.1311451   -4.5346652    649.66539  0.062660628  0.063869387            3 
  865000    1.1239188   -4.5378559    652.01194  0.062814252  0.063855088            3 
  866000    1.0972842   -4.5133628    653.89095  0.062922531   0.06384062            2 
  867000    1.1212265   -4.5704387    650.75108  0.062548162  0.063826146            2 
  868000    1.1099289   -4.4953941    654.75121  0.062860139   0.06381244            4 
  869000    1.0954261   -4.5018978    652.84067   0.06260459  0.063798303            2 
  870000    1.1375141   -4.5263127    653.94009  0.062637939  0.063783439            3 
  871000    1.1026958   -4.5352003    653.65074  0.062538341   0.06376912            2 
  872000    1.0949695   -4.5306843     655.1309  0.062608075  0.063754787            4 
  873000    1.1169663   -4.5233406    657.62844  0.062774765  0.063740488            1 
  874000    1.1001459   -4.5343532    657.77021  0.062716457  0.063726756            3 
  875000    1.1073688   -4.5083144    657.59338  0.062627941   0.06371242            3 
  876000     1.107329   -4.5311414    657.28998  0.062527585  0.063697928            2 
  877000    1.1437763   -4.5445807     657.3569  0.062462647  0.063683323            2 
  878000    1.1195776   -4.5368294    658.19276  0.062470839  0.063668611            3 
  879000     1.103257    -4.508773    660.45129  0.062613888  0.063654748            3 
  880000    1.0974915   -4.5278367    661.40405  0.062632959  0.063640516            2 
  881000    1.1204535   -4.5103078    661.30009  0.062552033  0.063626116            2 
  882000    1.0895776   -4.5001491      659.549  0.062315665  0.063611549            2 
  883000    1.1158596   -4.5392704    662.35892   0.06251028  0.063596968            1 
  884000    1.1407297   -4.5392625    662.35763  0.062439445  0.063583037            2 
  885000    1.0967607   -4.5280901    666.65638  0.062773671  0.063569401            4 
  886000    1.1042561   -4.5653546    662.94408  0.062353657  0.063556045            7 
  887000     1.118342   -4.5073506    667.47671  0.062709199  0.063542381            3 
  888000    1.1047829   -4.5599389    663.84654  0.062297911  0.063529251            3 
  889000    1.0797271   -4.5132542    668.78634  0.062690883  0.063516303            2 
  890000    1.0994767   -4.5257549    670.23702  0.062756275  0.063504025            4 
  891000    1.0989773   -4.5635047    666.34214  0.062321562  0.063490901            2 
  892000    1.0839196   -4.5417464    670.74566  0.062663085  0.063476958            3 
  893000    1.1035074   -4.5307317    670.32499  0.062553657   0.06346429            1 
  894000     1.101756   -4.5314427    669.83604  0.062438109  0.063451439            3 
  895000    1.0934318   -4.5698215    671.61278  0.062533778  0.063437959            2 
  896000    1.0935678   -4.5651295     671.7479  0.062476553  0.063424999            2 
  897000    1.1174584   -4.5358707    672.53199  0.062479746  0.063411162            3 
  898000    1.1004962   -4.5241201    676.18579  0.062749238  0.063398036            5 
  899000    1.0965112   -4.5249912    677.41713  0.062793579  0.063385893            7 
  900000     1.111503   -4.5150857    676.63057  0.062650978  0.063373448            2 
  901000    1.1019341   -4.5517402    677.73452  0.062683548  0.063361143            2 
  902000    1.1231736   -4.5477863    678.12847   0.06265045  0.063347971            3 
  903000     1.094011   -4.5073011    679.30191  0.062689361  0.063335776            2 
  904000    1.1290944   -4.5169552    676.87996  0.062396751  0.063322934            2 
  905000    1.0974214    -4.551106    677.76315   0.06240913   0.06331064            4 
  906000    1.0999786   -4.5351601    680.71959  0.062612177  0.063297874            3 
  907000    1.1342378   -4.5241095    682.10008  0.062669981  0.063284685            3 
  908000    1.0987977   -4.5338601    679.89579  0.062398659  0.063271528            2 
  909000    1.0985373   -4.5212342    682.46728  0.062565757  0.063258592            3 
  910000    1.1030411   -4.5783569    679.51096  0.062226278  0.063245946            4 
  911000    1.0954736   -4.5574903    680.27411  0.062227782  0.063233549            3 
  912000    1.1108893   -4.5608942    684.08721  0.062507968    0.0632211            3 
  913000     1.126792    -4.542654    683.34574  0.062371828  0.063208607            3 
  914000    1.0887602   -4.5240695    683.21503  0.062291669  0.063196607            2 
  915000     1.094914   -4.5002348     687.2737  0.062593233  0.063184914            1 
  916000     1.098335    -4.540563    688.06166  0.062596585  0.063173758            1 
  917000    1.1113006   -4.5815054    684.48757  0.062203523  0.063161063            4 
  918000    1.1152311   -4.5320131    687.88452  0.062444128  0.063149006            2 
  919000    1.1162203   -4.5782255    685.38646  0.062149661  0.063136643            3 
  920000    1.1064656   -4.5351665    689.79728  0.062481638  0.063124279            3 
  921000    1.1066773   -4.5649346    689.03328  0.062344668  0.063112381            3 
  922000    1.1255331   -4.5180852    689.42829  0.062312752  0.063100401            2 
  923000    1.0925237   -4.5514674    691.25773  0.062410412  0.063088845            1 
  924000    1.0950628   -4.5542203    695.26129   0.06270394  0.063077677            4 
  925000    1.0983191   -4.5515424    693.51346   0.06247869  0.063066361            4 
  926000    1.1334607   -4.5419345    693.34183  0.062395773  0.063054562            7 
  927000    1.0995285   -4.5526465    693.60684  0.062352287  0.063042405            5 
  928000    1.1044687   -4.5586831    692.94778  0.062225914  0.063030188            3 
  929000    1.1124536   -4.5430674    692.20869  0.062092634  0.063017961            5 
  930000     1.105366   -4.5491409    696.95083  0.062450791  0.063004975            2 
  931000    1.0994565   -4.5496366    695.65074  0.062267342  0.062992402            2 
  932000      1.10263   -4.5532336    692.30448   0.06190133  0.062979491            1 
  933000    1.1224489   -4.5344696    696.29139  0.062191085  0.062966753            2 
  934000    1.0818477   -4.5377402    697.05432   0.06219257  0.062954294            2 
  935000     1.096291   -4.5489726    695.83207  0.062017118  0.062941846            3 
  936000    1.1163957   -4.5555909    698.89536   0.06222359  0.062929057            8 
  937000    1.1103598   -4.5819189    695.28718  0.061836284  0.062915437            3 
  938000    1.0699784   -4.5876055    696.22959  0.061854086  0.062902218            5 
  939000     1.110635   -4.5641684     695.4701  0.061720811   0.06288875            2 
  940000    1.1036376   -4.5382426    700.07294  0.062063204  0.062875712            2 
  941000    1.0930473   -4.5225113    701.22876  0.062099607  0.062862705            2 
  942000    1.1030697   -4.5494738    700.65723  0.061983124  0.062850108            3 
  943000    1.1091605   -4.5796908    701.36645  0.061980068  0.062837096            1 
  944000     1.118121   -4.5290271    705.33244  0.062264516  0.062824494            2 
  945000    1.0947002   -4.5770779    701.55188  0.061865245  0.062812286            3 
  946000      1.11525     -4.55835    703.08107  0.061934555  0.062799734            2 
  947000    1.0910732   -4.5532729    702.71951  0.061837338  0.062786976            3 
  948000    1.1070982   -4.5411653    704.28405  0.061909639  0.062774374            2 
  949000    1.0857401   -4.5699019    704.68728  0.061879811  0.062761187            4 
  950000    1.1107702   -4.5540165    705.32319  0.061870455  0.062748118            2 
  951000    1.1025477   -4.5484005    705.69285  0.061837789  0.062735003            2 
  952000    1.1092891     -4.56266     707.4473  0.061926409  0.062721657            4 
  953000    1.0970601   -4.5622398    703.52579   0.06151852  0.062708414            2 
  954000    1.1101301   -4.5865228    704.10205  0.061504372   0.06269414            4 
  955000    1.0914175   -4.5486155    706.57475  0.061655737  0.062681124            2 
  956000    1.0811316   -4.5542408    707.64458    0.0616845  0.062667338            1 
  957000    1.0917161   -4.5749217     709.6479  0.061794488  0.062654025            3 
  958000    1.1109883    -4.568914    709.58828  0.061724798  0.062639978            4 
  959000    1.0949986   -4.5463237    710.73776   0.06176032  0.062626768            3 
  960000    1.1119563   -4.5596844    711.70129  0.061779626  0.062613458            2 
  961000    1.1137351   -4.5671579    710.28189  0.061592256  0.062599417            6 
  962000    1.0954452   -4.5814699    710.15152  0.061516937  0.062585814            1 
  963000     1.108317   -4.5539476    713.20362   0.06171717  0.062572323            2 
  964000    1.0912364   -4.5517645     713.6723  0.061693663  0.062559081            3 
  965000    1.1103912   -4.5680728    714.56981  0.061707237  0.062545538            4 
  966000    1.0853357   -4.5917719    715.07339    0.0616868  0.062531417            5 
  967000    1.1220951   -4.5705198    710.96498  0.061268957  0.062517427            4 
  968000    1.1197735   -4.5448883    715.03983  0.061556459  0.062504247            8 
  969000    1.0756011   -4.5682795    712.51981  0.061276213  0.062490184            4 
  970000    1.0793208   -4.5335681    717.91624  0.061676653  0.062476356            2 
  971000    1.1096259   -4.5474959    716.25277  0.061470372   0.06246267            2 
  972000    1.1043538   -4.5454014    715.60098   0.06135125  0.062448699            3 
  973000    1.0924547   -4.5536501    719.01048  0.061580206  0.062434657            4 
  974000    1.0874008   -4.5332732    717.08441  0.061352191  0.062420618            3 
  975000    1.0841641   -4.5841425    721.84432  0.061696096  0.062406056            2 
  976000    1.1017845   -4.5733279     717.5907  0.061269698  0.062391855            2 
  977000    1.0784854   -4.5650442     719.0919  0.061335031  0.062378086            4 
  978000     1.077195   -4.5580427    720.75548  0.061414066  0.062364506            2 
  979000    1.0894342   -4.5375675    721.97012  0.061454726  0.062350638            5 
  980000    1.0976294   -4.5702018    719.34959  0.061169183  0.062336429            2 
  981000    1.1022939   -4.5677417     721.8729  0.061321178  0.062322598            1 
  982000    1.1130583   -4.5248498    727.40009  0.061727774  0.062308586            2 
  983000    1.1010938   -4.5687378    724.39798  0.061410476  0.062294536            2 
  984000    1.0639276   -4.5302857     725.2866  0.061423323  0.062280692            3 
  985000    1.1002972   -4.5544355    724.00061  0.061252167  0.062266728            3 
  986000    1.1032482   -4.5561504    724.52286  0.061234184  0.062252747            2 
  987000    1.0826363   -4.5545188    727.42446  0.061417128   0.06223868            6 
  988000    1.0894324   -4.5660236    726.41189  0.061269559   0.06222458            3 
  989000    1.0857345   -4.5883976    723.81402   0.06098871  0.062209959            3 
  990000    1.0877359   -4.5643656    726.64756  0.061165619  0.062195197            2 
  991000    1.1101392   -4.5428128    727.79019  0.061199982  0.062181408            2 
  992000    1.0900569   -4.5427014    734.10954  0.061669148  0.062168137            3 
  993000    1.1119824   -4.5353199    730.56944  0.061309957  0.062155118            2 
  994000    1.1007414   -4.5772523    731.56967  0.061332132  0.062141975            5 
  995000    1.1123973   -4.5647736    732.88311  0.061380495  0.062128337            4 
  996000    1.0760187    -4.577178    734.52177  0.061455971  0.062114523            3 
  997000    1.0927542    -4.549795    733.75417  0.061330171  0.062101104            3 
  998000    1.0791502   -4.5722576    734.83959  0.061359351  0.062087864            4 
  999000    1.0976537   -4.5827881    734.53469  0.061272497  0.062074562            1 
 1000000    1.1248289   -4.5562049    734.37326  0.061197771  0.062061615            4 
 1001000    1.0907891   -4.5421604    735.22943  0.061207911  0.062048282            3 
 1002000    1.0952517   -4.5587608    738.31665  0.061403581  0.062035332            4 
 1003000    1.0910565   -4.5571484    738.70744  0.061374829  0.062022557            2 
 1004000    1.0976651   -4.5722904    738.45539  0.061292778  0.062009708            3 
 1005000    1.1147069   -4.5657154      742.171  0.061539884  0.061997665            1 
 1006000    1.1049747   -4.6066307    740.15931   0.06131207  0.061985335            3 
 1007000    1.1028487   -4.5624181    740.21521   0.06125581  0.061972575            4 
 1008000    1.0988059   -4.5498141    740.08633  0.061184386   0.06195949            3 
 1009000    1.0935493   -4.5634533    741.17859  0.061213957  0.061946431            2 
 1010000    1.0956259   -4.5701446    738.58981  0.060939753  0.061933242            2 
 1011000     1.096856   -4.5865704    742.03726  0.061163638  0.061920437            4 
 1012000    1.0924838   -4.5472816    742.70852  0.061158475  0.061907785            2 
 1013000    1.0970963   -4.5486277    741.09934  0.060965724  0.061895006            2 
 1014000    1.0751722   -4.5402426    745.94293   0.06130366   0.06188222            2 
 1015000    1.0833365   -4.5405068    744.34381  0.061111971  0.061869276            4 
 1016000    1.0969974   -4.5172113    745.41784  0.061139914  0.061856173            4 
 1017000    1.0951081   -4.5815426    746.01126  0.061128422  0.061843177            5 
 1018000    1.0600726   -4.5649996    746.46275  0.061105333  0.061830157            4 
 1019000    1.0747235   -4.5662477    746.66154  0.061061624  0.061817348            6 
 1020000    1.0722834   -4.5818964    745.77785  0.060929563   0.06180366            3 
 1021000    1.0759344   -4.5666219     747.4923  0.061009818  0.061790264           10 
 1022000    1.0681234   -4.5931102    748.09476  0.060999246  0.061776607            2 
 1023000    1.0991589   -4.5670284    748.96689  0.061010662  0.061762545            2 
 1024000    1.1017878   -4.5708364    748.12528  0.060882591  0.061748873            2 
 1025000    1.0850623   -4.6098754    749.91051  0.060968335  0.061735148            2 
 1026000    1.0845803   -4.5613182    752.08108  0.061085208  0.061721202            2 
 1027000    1.0928556   -4.5599365    749.93782  0.060851819  0.061707618            2 
 1028000    1.1144321    -4.599133    748.89769  0.060708308  0.061693485            4 
 1029000    1.0980502   -4.5880623    751.59557  0.060867798  0.061679991            5 
 1030000    1.0744958   -4.5631148    750.95455   0.06075684  0.061666218            3 
 1031000    1.0857389   -4.5346081    753.99661  0.060943793  0.061652481            4 
 1032000    1.0710386   -4.5676651    753.55058  0.060848722  0.061638535            4 
 1033000    1.1085475    -4.594939    752.69349  0.060720675  0.061624464            1 
 1034000    1.0897499   -4.6000987    750.77618  0.060507429  0.061610615            1 
 1035000     1.068291   -4.5685832    755.28456  0.060811962  0.061596965            3 
 1036000    1.0941871   -4.5473714    754.39636  0.060681818  0.061583181            3 
 1037000    1.0801557   -4.5570814     756.0441  0.060755714  0.061569099            4 
 1038000    1.0876375   -4.5871565    756.00472   0.06069402  0.061555751            4 
 1039000    1.1225118   -4.6069066    756.49065  0.060674579  0.061542202            7 
 1040000    1.0793758    -4.564784     756.7115  0.060633934   0.06152879            6 
 1041000    1.0935906   -4.5723461    754.54099  0.060401936    0.0615147            8 
 1042000    1.0863696   -4.5614791    759.42795  0.060734801  0.061500743            2 
 1043000    1.0963094   -4.5556319    756.84195  0.060469955  0.061487111            2 
 1044000    1.0899253   -4.5906469    758.54214  0.060547744  0.061473535            4 
 1045000    1.0630558   -4.5853749     760.5148  0.060647113  0.061460576            4 
 1046000    1.0908038   -4.6185752    760.76704  0.060609229  0.061447564           10 
 1047000    1.0927903   -4.5812531    761.05916  0.060574591  0.061434031            2 
 1048000    1.0873071   -4.5830031    764.41054  0.060783281  0.061420784            5 
 1049000    1.0981739    -4.577122    764.58253     0.060739  0.061407805            3 
 1050000    1.0945514   -4.5821246    763.44316  0.060590727   0.06139507            6 
 1051000    1.1110302   -4.6012061    765.05119  0.060660577   0.06138255            8 
 1052000    1.0814717   -4.5505242    766.34473  0.060705381  0.061370627            1 
 1053000    1.0994992   -4.5922618    764.38217  0.060492416  0.061357873            2 
 1054000    1.0920941   -4.5827104    770.52186   0.06092045  0.061345671            4 
 1055000    1.0588403   -4.5684659    771.32503  0.060926147  0.061333204            1 
 1056000    1.0903721    -4.561971     771.5019   0.06088241  0.061321216            2 
 1057000    1.0626385   -4.6034007    772.34177  0.060891026  0.061309404            2 
 1058000    1.0885271   -4.6006777     771.1991   0.06074347  0.061297397            5 
 1059000    1.0945377   -4.5842526    772.93246   0.06082251  0.061285675            5 
 1060000    1.0918391   -4.6069687    771.62871  0.060662635  0.061273612            3 
 1061000    1.0821688   -4.5328148    775.80091  0.060933154  0.061261644            5 
 1062000    1.0540017    -4.574987    774.87939  0.060803467  0.061249976            3 
 1063000    1.0971968   -4.5735527    775.31686  0.060780563  0.061238131            2 
 1064000    1.0773432   -4.5662783    774.86055    0.0606877  0.061226695            3 
 1065000    1.0878068   -4.6170528    772.97759   0.06048338  0.061214946            4 
 1066000    1.0892538   -4.5520998    776.33662  0.060689229  0.061203221            2 
 1067000    1.1043668   -4.5925912    774.76487  0.060509596  0.061191236            3 
 1068000    1.0511648   -4.5753968    775.59535   0.06051774  0.061179263            1 
 1069000    1.0705729   -4.5998221     777.8623  0.060637847  0.061167315            3 
 1070000    1.0789466   -4.5762654    781.98982  0.060902634  0.061156007            4 
 1071000    1.0876708   -4.6175774    778.85622  0.060601947   0.06114447            5 
 1072000    1.0839741   -4.5841757    781.87059  0.060779741  0.061133399           10 
 1073000    1.0948124    -4.576769    777.30587  0.060368582  0.061121881            1 
 1074000    1.0521136   -4.5831389    780.72996  0.060578054  0.061109997            3 
 1075000    1.0781567   -4.5818689    779.44433  0.060422041  0.061098487            5 
 1076000    1.0800049    -4.578999    783.75909  0.060700054  0.061086752            3 
 1077000    1.0780143   -4.5848643    781.61121    0.0604775  0.061074766            4 
 1078000    1.0756103   -4.5735136    783.93479  0.060601019  0.061062872            4 
 1079000    1.0851016   -4.5916112    784.47613  0.060586665  0.061050639            4 
 1080000    1.0972034   -4.5893652    784.43675  0.060527527  0.061039238            1 
 1081000    1.0886645   -4.5968023    785.92221  0.060586048  0.061027745            3 
 1082000    1.1040407     -4.58406    786.44371  0.060570218   0.06101627            4 
 1083000     1.048525   -4.6055603    783.59541  0.060295123  0.061004684            3 
 1084000    1.0674688    -4.594372    786.05773  0.060428792  0.060992915            6 
 1085000     1.092069   -4.6227007    785.03201  0.060294318  0.060981139            2 
 1086000    1.0877046   -4.5940421    788.89267  0.060535042  0.060969603            3 
 1087000    1.0837595   -4.5688057    790.65692  0.060614606  0.060957674            2 
 1088000    1.0643525   -4.5769521    789.72187  0.060487275  0.060946198            7 
 1089000    1.0776561   -4.5907999    787.44389  0.060257415  0.060934608            5 
 1090000    1.0871748   -4.5886292    791.15239  0.060485657  0.060922971            3 
 1091000    1.0654669   -4.5968769    788.42564   0.06022194   0.06091151            3 
 1092000    1.0669913     -4.58169    790.95813  0.060360053   0.06089955            2 
 1093000    1.0654893   -4.6041023     792.5725  0.060427912  0.060887783            4 
 1094000    1.0751176   -4.6048803    790.40843  0.060207833  0.060876026            4 
 1095000    1.0950636   -4.5900854    792.50539  0.060312435  0.060863901            2 
 1096000    1.0709112   -4.5913909    792.29097  0.060241102  0.060852456            4 
 1097000    1.0786906   -4.5717542    794.64891  0.060365307   0.06084064            4 
 1098000    1.0746854   -4.5972175    797.47914  0.060525132  0.060828919            3 
 1099000    1.0666186   -4.6137602    796.70564  0.060411408   0.06081756            5 
 1100000    1.0624429   -4.6003372    799.18914  0.060544632  0.060806276            2 
 1101000    1.0637667   -4.6160329    798.25744  0.060419122  0.060795016            2 
 1102000    1.1089809   -4.5769569    801.66288  0.060621815  0.060783898            3 
 1103000    1.0844087   -4.6158936    795.83589  0.060126616  0.060772564            2 
 1104000    1.0657122   -4.5801102    799.97331  0.060384459  0.060761428            2 
 1105000    1.0977499   -4.5875472     799.2315  0.060273869  0.060750402            3 
 1106000    1.0745556   -4.5933025    801.45782  0.060387118  0.060739187            8 
 1107000    1.0778268   -4.5871317    801.26828  0.060318299  0.060727784            4 
 1108000    1.0466963   -4.6072104    797.29991  0.059965396  0.060715818            3 
 1109000    1.1020904   -4.5550587    804.53509  0.060454996  0.060703971            3 
 1110000    1.0844626     -4.59402    803.40673  0.060315821   0.06069285            2 
 1111000    1.0589927   -4.6009813    804.80876  0.060366693  0.060681925            3 
 1112000    1.0480275   -4.6046306     804.1945  0.060266374  0.060670501            2 
 1113000    1.0967955   -4.6262128     804.5991   0.06024252  0.060659208            2 
 1114000     1.055715   -4.5944806    804.76347  0.060200738  0.060648031            2 
 1115000    1.0836628   -4.5792221    804.65074  0.060138321  0.060636612            3 
 1116000    1.0843684   -4.6345569    804.02791  0.060037926  0.060625277            3 
 1117000    1.0786879   -4.6389478    804.76179  0.060038928  0.060613322            4 
 1118000    1.0765285    -4.642035     805.8036   0.06006288  0.060601482            4 
 1119000    1.0640984    -4.605161     809.3819  0.060275685  0.060589818            3 
 1120000     1.068801   -4.5978946    808.31445  0.060142444  0.060578669            3 
 1121000    1.0645628   -4.5966243    809.58209  0.060183028  0.060567452            6 
 1122000    1.0700618   -4.5971467    807.56213  0.059979362  0.060555976            3 
 1123000    1.0823825   -4.6039912    810.55119  0.060147758  0.060544211            2 
 1124000    1.0750067    -4.558157    810.57551  0.060096049  0.060532152            2 
 1125000    1.0453602   -4.6124479    808.51698  0.059890147  0.060520167            3 
 1126000    1.0568691   -4.5895374    808.57211  0.059841038  0.060508129            4 
 1127000    1.0622339   -4.6131976    811.97281  0.060039397  0.060495655            4 
 1128000     1.061879   -4.6083975    812.26175  0.060007517  0.060483671            3 
 1129000    1.0564737   -4.5888021    811.77485  0.059918427  0.060471805            2 
 1130000      1.07158   -4.5855204    815.75233  0.060158726  0.060460194            2 
 1131000    1.0604116   -4.5920031    816.37951  0.060151747  0.060448615            5 
 1132000    1.0751399   -4.6190014    813.05884  0.059854155  0.060436239            3 
 1133000    1.0785398   -4.6175028    815.83692  0.060005657  0.060424573            4 
 1134000    1.0880775   -4.6188316    814.36403  0.059844505  0.060412842            2 
 1135000    1.0558197   -4.5684054    817.35381  0.060011293  0.060400991            5 
 1136000    1.0895148   -4.5890561    817.17065   0.05994503  0.060389001            5 
 1137000    1.0667643   -4.6016344    814.44535  0.059692564  0.060376746            5 
 1138000    1.0627232     -4.60927    815.52056  0.059718846  0.060364069            3 
 1139000    1.0746921   -4.6238229    813.40279  0.059511472  0.060351323            3 
 1140000    1.0848003   -4.6352268    813.87085  0.059493483  0.060338325            4 
 1141000    1.0491981   -4.6140411    818.31978  0.059766271  0.060325507            2 
 1142000    1.0462323   -4.5949775    816.66699   0.05959333  0.060312766            3 
 1143000    1.0582343   -4.6184071    819.04528  0.059714587  0.060300472            1 
 1144000    1.0938519   -4.5987128    819.31435  0.059681989  0.060288102            4 
 1145000    1.0549286   -4.5972567    821.45882   0.05978594  0.060275908            2 
 1146000    1.0805299   -4.6036706    826.09224  0.060070698  0.060263792            2 
 1147000    1.0347299   -4.6249643    820.91598  0.059642254  0.060251638            2 
 1148000    1.0467136   -4.6000534    821.60564  0.059640363  0.060239289            2 
 1149000    1.0887597   -4.5898292    824.40791  0.059791696  0.060227213            1 
 1150000    1.0488888   -4.5806255    823.75219  0.059692188  0.060215252            2 
 1151000    1.0606727   -4.5861136    825.97394  0.059801183  0.060203254            3 
 1152000    1.0682592   -4.6189178    822.02949  0.059463939  0.060191288            5 
 1153000    1.0619064    -4.585904    825.58588  0.059669404  0.060179574            3 
 1154000    1.0752548   -4.6290299     824.4131  0.059533008  0.060167823            3 
 1155000    1.0632864   -4.6245246    826.25408  0.059614292  0.060155399            3 
 1156000    1.0700342   -4.6212894    825.99409   0.05954398  0.060143381            4 
 1157000    1.0814755   -4.6148327    829.51434  0.059746063  0.060130822            3 
 1158000    1.0890142   -4.5970878    829.09285  0.059664137  0.060118642            3 
 1159000    1.0675938   -4.5895406    829.37572  0.059632997  0.060106734            4 
 1160000    1.0465909   -4.6437294    826.57612  0.059380468  0.060094545            3 
 1161000    1.0623648   -4.6391716    828.23698  0.059448534  0.060082171            3 
 1162000    1.0720415   -4.6019913    828.41341  0.059410027   0.06006974            3 
 1163000     1.074447   -4.6180693    829.89792  0.059465314   0.06005712            7 
 1164000    1.0569457   -4.6166876    831.58637  0.059535107  0.060044733            4 
 1165000    1.0617511   -4.6522283    827.76464  0.059210632  0.060032289            2 
 1166000     1.063099   -4.5959085    833.76221  0.059588494  0.060020274            2 
 1167000    1.0660153    -4.613747     836.1368  0.059706998  0.060008491            3 
 1168000    1.0693274   -4.6310222    833.77783  0.059487574  0.059996908            3 
 1169000    1.0740938   -4.6274538    834.05832  0.059456681  0.059984566            5 
 1170000    1.0405039   -4.5934313    834.71135  0.059452375  0.059972478            3 
 1171000    1.0813366   -4.6305086     832.9204  0.059274153  0.059960393            2 
 1172000    1.0697071   -4.6174331    838.50728  0.059620825  0.059948537            3 
 1173000    1.0698813    -4.620043    835.64804  0.059366868  0.059936493            6 
 1174000    1.0594207   -4.6338046    835.43389  0.059301099   0.05992408            1 
 1175000    1.0777079    -4.608965     837.7012  0.059411432  0.059912387            1 
 1176000    1.0698427   -4.6373641    837.53307  0.059348999  0.059900697            3 
 1177000    1.0654028   -4.6131123    838.61364  0.059375081  0.059888925            3 
 1178000    1.0708996   -4.6458811    840.56476  0.059462702    0.0598771            6 
 1179000    1.0711522   -4.5861159    839.41986  0.059331344  0.059865412            3 
 1180000    1.0679707   -4.6401208    841.53196  0.059430223  0.059853792            3 
 1181000    1.0554328   -4.6206349    844.22148  0.059569678  0.059842141            2 
 1182000    1.0479151   -4.6024396    844.05684  0.059507674  0.059831215            4 
 1183000    1.0466515   -4.5855763    846.65907  0.059640678  0.059820133            2 
 1184000      1.06562   -4.6486369    843.26271   0.05935126  0.059808982            3 
 1185000    1.0856599   -4.5919579    846.79882  0.059549847  0.059798158            2 
 1186000    1.0819114   -4.6108259    847.55026  0.059552436  0.059787052            3 
 1187000    1.0430219   -4.6398676    845.31319  0.059345211  0.059775633            5 
 1188000    1.0432163   -4.5961383     845.8966  0.059336181  0.059764533            3 
 1189000     1.079293   -4.6409974    845.96783  0.059291269  0.059753431            2 
 1190000    1.0725897   -4.6267204    848.96408  0.059451266  0.059742203            7 
 1191000     1.081153   -4.6374479    847.88841  0.059326085  0.059730815            3 
 1192000    1.0674334   -4.6075204    848.04102  0.059286984  0.059719609            5 
 1193000    1.0556864   -4.5954868     851.4892   0.05947815  0.059708481            2 
 1194000    1.0542507   -4.6059474    850.30859  0.059345938  0.059696923            2 
 1195000    1.0380151   -4.5756129     853.2064  0.059498354  0.059685234            2 
 1196000    1.0727099   -4.6255657    850.15251  0.059235822  0.059673693            2 
 1197000    1.0414647   -4.6225355    850.32332  0.059198226  0.059661739            3 
 1198000    1.0807007   -4.6013633    851.05541  0.059199736  0.059650396            4 
 1199000    1.0759675    -4.635533    852.60776  0.059258254  0.059639166            2 
 1200000     1.049206   -4.6515196    850.81288  0.059084228  0.059627687            2 
 1201000     1.068521   -4.5964642     852.7647  0.059170462  0.059615835            1 
 1202000    1.0575331   -4.5909615    854.90402  0.059269552   0.05960472            2 
 1203000    1.0590766   -4.6123236    853.82045  0.059145224  0.059592851            4 
 1204000    1.0749141    -4.588831    858.67643    0.0594322  0.059581422            4 
 1205000    1.0806527   -4.5964169    855.12195  0.059137064  0.059569902            5 
 1206000     1.054227   -4.6455941    854.87787  0.059071163  0.059558101            2 
 1207000    1.0473345    -4.631658    855.04421  0.059033707  0.059546332            8 
 1208000    1.0617088   -4.6082712    857.59596  0.059160869  0.059534435            5 
 1209000    1.0759421   -4.6420084    857.62696  0.059114072  0.059522681            4 
 1210000    1.0450514   -4.6248009    855.05936  0.058888386  0.059510662            2 
 1211000    1.0546076    -4.657132    860.49406   0.05921374  0.059498866            1 
 1212000    1.0354033   -4.6225271    859.68968  0.059109576  0.059487179            2 
 1213000     1.068527   -4.6059801     860.7875  0.059136267  0.059475474            3 
 1214000    1.0823478   -4.6567199    862.57132  0.059210003  0.059463862            3 
 1215000    1.0591773   -4.6124263    862.31543   0.05914372  0.059452623            3 
 1216000    1.0651601   -4.6154776    860.89054  0.058997433  0.059441272            3 
 1217000    1.0558318   -4.6332646    860.90821  0.058950165  0.059430313            4 
 1218000    1.0361152   -4.6016384    865.62084  0.059224196  0.059418596            3 
 1219000    1.0629279   -4.6015376    864.42255  0.059093693  0.059407324            3 
 1220000    1.0688608   -4.6350771    864.18276  0.059028877  0.059395863            3 
 1221000    1.0478514    -4.600196    864.43772  0.058997933  0.059384447            3 
 1222000    1.0606576    -4.651785    862.10789  0.058790773  0.059373345            2 
 1223000    1.0763441   -4.6109417    866.10761  0.059015237  0.059361591            3 
 1224000    1.0431853   -4.6046782    868.09016  0.059101999  0.059350451            7 
 1225000    1.0256513   -4.6287935    866.28636  0.058931045  0.059338705            3 
 1226000    1.0512139   -4.6332182    869.54711  0.059104616  0.059327312            4 
 1227000    1.0531384   -4.6161062    869.51105  0.059053997  0.059316023            4 
 1228000    1.0797653   -4.6641214    868.49346  0.058936852  0.059305046            3 
 1229000    1.0620574   -4.6305713    870.49013  0.059024283  0.059293722            3 
 1230000    1.0481803   -4.6315867     864.7138  0.058584946  0.059281978            5 
 1231000    1.0462274    -4.680656    865.84404  0.058613867  0.059269723            4 
 1232000    1.0450966    -4.674097    867.27353  0.058662982   0.05925761            2 
 1233000    1.0321496    -4.616091    869.19846  0.058745503  0.059245497            2 
 1234000    1.0602077   -4.6225415    872.45747  0.058917982  0.059233856            3 
 1235000    1.0273515   -4.6501356    870.83905   0.05876107  0.059221996            6 
 1236000    1.0567948   -4.6290331    873.93127  0.058922011  0.059210196            2 
 1237000    1.0516562   -4.6465665    875.07827  0.058951649  0.059198383            4 
 1238000    1.0589927   -4.6371051    871.77438  0.058681636  0.059186718            2 
 1239000     1.063782   -4.6125516    872.68172    0.0586953  0.059174482            2 
 1240000    1.0341788   -4.6207379    874.05038  0.058739945  0.059162429            3 
 1241000    1.0476396   -4.6152542    874.86939  0.058747609  0.059150374            2 
 1242000    1.0804458   -4.6029844    876.19614  0.058789328  0.059138387            4 
 1243000    1.0750044   -4.6545526    872.69643  0.058507404  0.059126276            3 
 1244000    1.0481299   -4.6453259    876.66607  0.058726291  0.059114042            2 
 1245000    1.0561996   -4.6347112     877.9951  0.058768079  0.059102166            3 
 1246000    1.0432861   -4.6525694    873.11166  0.058394306  0.059090326            3 
 1247000    1.0639359   -4.6263219    875.68707  0.058519585  0.059078193            3 
 1248000    1.0427571   -4.6614026     874.2505   0.05837677  0.059066297            8 
 1249000    1.0693848   -4.6726101     875.3747  0.058405038  0.059054201            2 
 1250000    1.0395518   -4.6264828    880.30456  0.058686971  0.059042314            3 
 1251000    1.0356541   -4.6303924    881.23119  0.058701785  0.059030444            2 
 1252000    1.0464126   -4.6224084    879.10004  0.058513049  0.059018526            5 
 1253000    1.0501003   -4.6334822    881.21132  0.058606765  0.059006324            8 
 1254000    1.0595631   -4.6497285    877.97831  0.058345183  0.058993607            4 
 1255000    1.0663271   -4.6002453    882.78548  0.058617893  0.058981504            3 
 1256000    1.0557923   -4.6339087     883.4168   0.05861311   0.05896942            3 
 1257000    1.0516627   -4.6477536    880.53788  0.058375622   0.05895702            2 
 1258000     1.050721   -4.6412752    881.91427  0.058420394   0.05894464            4 
 1259000    1.0513117   -4.6419822    881.80378  0.058366678  0.058932239            2 
 1260000    1.0492902   -4.6378368    884.00599  0.058466005  0.058920404            3 
 1261000    1.0603023   -4.6514904    883.32312  0.058374512  0.058908021            3 
 1262000     1.039329   -4.6062831    881.91191  0.058235071  0.058895833            7 
 1263000    1.0562551   -4.6378791    883.37835  0.058285719  0.058883324            4 
 1264000     1.059443    -4.677476      883.427  0.058242814  0.058870625            2 
 1265000    1.0733665   -4.6430149    883.44362  0.058197867  0.058858014            3 
 1266000    1.0474743   -4.6531931    886.07316  0.058324984  0.058845565            3 
 1267000    1.0609708   -4.5989713    883.82428  0.058131036   0.05883293            5 
 1268000    1.0542816   -4.6656596    885.60157  0.058201996  0.058820097            5 
 1269000    1.0783068    -4.633958    886.26077   0.05819942  0.058807264            2 
 1270000    1.0406008   -4.6220564    887.92097  0.058262531  0.058794562            3 
 1271000    1.0541915   -4.6369895    886.98752  0.058155489  0.058781705            3 
 1272000    1.0552425   -4.6465794    885.59064  0.058018255  0.058768474            5 
 1273000    1.0492856    -4.624705    886.76051  0.058049261  0.058755302            4 
 1274000     1.047264   -4.6391179    886.07229  0.057958679  0.058742211            2 
 1275000    1.0428633   -4.6444541     885.1939   0.05785581   0.05872885            4 
 1276000    1.0432578   -4.6429108    883.32939  0.057688701  0.058715196            5 
 1277000    1.0533612   -4.6209741    888.76562  0.057998279   0.05870169            4 
 1278000     1.044794   -4.6541256    883.43877  0.057605554  0.058687528            3 
 1279000    1.0558332   -4.6777092    889.19781  0.057935745  0.058673445            5 
 1280000     1.073726   -4.6424927    889.63961  0.057919246  0.058659631            5 
 1281000    1.0579624   -4.6434193    888.51252   0.05780071  0.058645835            2 
 1282000    1.0387135   -4.5972054    893.37418  0.058071645  0.058632132            3 
 1283000    1.0333848    -4.630041    892.15931  0.057947474   0.05861867            4 
 1284000    1.0415123   -4.6369705    893.23183  0.057971952   0.05860545            2 
 1285000    1.0328337   -4.6115483    893.45564  0.057941351  0.058592247            3 
 1286000    1.0556077   -4.6726155    888.45529  0.057572271  0.058579017            9 
 1287000    1.0323212   -4.6216578    891.07353  0.057697069  0.058565573            1 
 1288000    1.0236412   -4.6460436    891.40773  0.057673896  0.058552034            3 
 1289000    1.0359978   -4.6621848    890.08328  0.057543527  0.058538524            4 
 1290000    1.0339073   -4.6355054    895.81877   0.05786943  0.058524675            4 
 1291000     1.052574   -4.7216323    890.18669  0.057461057  0.058510832            2 
 1292000    1.0434799   -4.6391512    899.81084  0.058037335  0.058496933            3 
 1293000    1.0357417   -4.6555467     893.8579  0.057608784  0.058483586            2 
 1294000    1.0463605   -4.6152904    897.46065  0.057796281  0.058470519            2 
 1295000    1.0231296   -4.6327749    896.41787  0.057684548  0.058456967            3 
 1296000    1.0137195   -4.6260392    902.98709  0.058062442  0.058443724            2 
 1297000    1.0395594   -4.6575709    896.15778  0.057578886  0.058430271            4 
 1298000    1.0414931   -4.6617184    898.99429  0.057716634  0.058416791            3 
 1299000    1.0355339   -4.6781293     899.3553  0.057695362  0.058403534            3 
 1300000    1.0534891   -4.6738209    898.48455  0.057595164  0.058390014            3 
 1301000    1.0251759   -4.6286159    902.42886   0.05780354  0.058376884            8 
 1302000    1.0373863   -4.6494118     901.8714  0.057723464  0.058363598            4 
 1303000    1.0509036   -4.6282897    902.82918  0.057740418  0.058350267            2 
 1304000    1.0523404   -4.6673895     899.4388  0.057479474  0.058336847            4 
 1305000     1.024656   -4.6280241    904.74989  0.057774578  0.058323788            2 
 1306000    1.0285183   -4.6307176    904.17103  0.057693404  0.058311016            1 
 1307000    1.0680758   -4.6344844    905.44854  0.057730715  0.058298115            3 
 1308000    1.0323223    -4.681862     902.0315  0.057468878  0.058285128            2 
 1309000    1.0683412    -4.645001    906.72039  0.057723478   0.05827235            2 
 1310000    1.0372878   -4.6259982    906.81671  0.057685541  0.058259657            3 
 1311000    1.0304856   -4.6578159    906.87801  0.057645437  0.058246976            5 
 1312000    1.0387696   -4.6279381    907.53829  0.057643438  0.058234057            3 
 1313000    1.0503322   -4.6717404    905.77615  0.057487697  0.058221208            4 
 1314000    1.0417354   -4.6498155    906.18993  0.057470188  0.058208128            3 
 1315000    1.0302645   -4.6360167    911.47077  0.057761139  0.058194664            2 
 1316000    1.0474409   -4.6427238    905.06179   0.05731141  0.058181486            3 
 1317000    1.0345532    -4.682537    906.69557  0.057371271  0.058167891            4 
 1318000    1.0398372   -4.6397451    910.09853  0.057542901  0.058154532            2 
 1319000    1.0629797   -4.6994025    909.37105  0.057453313  0.058141167            3 
 1320000    1.0378576   -4.6736014    907.33143  0.057281024  0.058128044            3 
 1321000      1.03544   -4.6313412    914.53626  0.057692169  0.058115389            2 
 1322000    1.0254912   -4.6576987    912.94728  0.057548366  0.058102401            3 
 1323000    1.0470293   -4.6651382    909.42288  0.057282872  0.058089773            3 
 1324000    1.0224705   -4.6630148    913.71462  0.057509732  0.058077165            6 
 1325000    1.0490162   -4.6730813    915.22338  0.057561219  0.058064434            5 
 1326000    1.0546018   -4.6420442    915.97696  0.057565169  0.058051927            2 
 1327000    1.0160292   -4.6602374    912.93658  0.057330858  0.058039322            4 
 1328000    1.0378953   -4.6431176    917.99972  0.057605404   0.05802673            3 
 1329000    1.0160667   -4.6728512       914.42  0.057337597  0.058014262            3 
 1330000    1.0649784   -4.6665655    919.71387  0.057626183  0.058001893            4 
 1331000    1.0289723    -4.671952    915.25575  0.057303766  0.057989525            2 
 1332000    1.0055478   -4.6680325    916.68182  0.057349964  0.057977142            6 
 1333000     1.032399   -4.6952456    914.66224  0.057180685  0.057964835            3 
 1334000     1.060633   -4.6816602    917.28837  0.057301872  0.057952297            3 
 1335000    1.0526272   -4.6382494    919.45035  0.057393904  0.057939883            4 
 1336000    1.0373587   -4.6494803    921.46814  0.057476805  0.057927648            2 
 1337000    1.0399346   -4.6362522    923.17581  0.057540253  0.057915774            1 
 1338000     1.031625   -4.6414602    924.60908  0.057586515  0.057904051            7 
 1339000    1.0307382   -4.6214904    924.56643  0.057540853  0.057892153            3 
 1340000    1.0448037   -4.6528942    923.06172  0.057404336  0.057879821            3 
 1341000    1.0444391   -4.6621781     924.7766  0.057468096  0.057867683            3 
 1342000    1.0271342   -4.6377736    925.74143  0.057485186   0.05785594            1 
 1343000    1.0258891   -4.6750203    926.43769  0.057485585  0.057843824            3 
 1344000    1.0491152   -4.6768022     927.5127  0.057509468  0.057831943            2 
 1345000    1.0112164   -4.6533303    927.22847    0.0574491  0.057820203            3 
 1346000    1.0673125   -4.6918501     924.8619  0.057259899   0.05780835            2 
 1347000    1.0496642    -4.675752    925.87314  0.057279951  0.057795978            5 
 1348000    1.0481364   -4.6641268    930.03089  0.057494491  0.057783576            3 
 1349000    1.0304309   -4.6973757    927.20903  0.057277553  0.057771467            2 
 1350000    1.0456557   -4.6750944    930.87834  0.057461626  0.057759551            2 
 1351000    1.0628348   -4.6700388    932.85367  0.057540937  0.057747737            3 
 1352000    1.0347886   -4.6550684    932.14884  0.057454933  0.057735934            2 
 1353000    1.0500123   -4.6334019    935.45772  0.057616267  0.057724447            3 
 1354000    1.0186557   -4.6770245    932.35764  0.057382917  0.057712904            3 
 1355000    1.0410368   -4.6494528    933.62417  0.057418461  0.057701606            4 
 1356000    1.0419488   -4.6529912    935.17997  0.057471728  0.057690272            3 
 1357000    1.0329454    -4.667316    934.23578  0.057371394  0.057679129            4 
 1358000    1.0275647   -4.6896409    934.71053   0.05735828  0.057667285            5 
 1359000    1.0304546   -4.6639925    936.20255  0.057407564   0.05765569            1 
 1360000    1.0187964   -4.6642229    936.91442  0.057408972   0.05764418            4 
 1361000    1.0385172   -4.6776672    937.41911  0.057397693  0.057632686            2 
 1362000    1.0234542   -4.6380645     941.1578    0.0575843  0.057621622            4 
 1363000    1.0314145   -4.6937967    937.19981  0.057300062  0.057610479            6 
 1364000    1.0124615   -4.6730787     937.9716  0.057305205  0.057599489            5 
 1365000    1.0377845   -4.6654654    945.00769  0.057692777  0.057588643            3 
 1366000    1.0164477   -4.6521865    938.42069    0.0572487  0.057577646            2 
 1367000    1.0413678   -4.6251559    949.62349  0.057889752  0.057566627            4 
 1368000    1.0183383    -4.701735    938.22912  0.057153333  0.057555432            8 
 1369000    1.0257335   -4.6820408    940.48741  0.057249051  0.057543875            3 
 1370000    1.0331291   -4.6647391    942.02145  0.057300575  0.057532631            1 
 1371000     1.026272   -4.6347751    946.01368  0.057501439   0.05752162            3 
 1372000    1.0577291   -4.7160374    940.73935  0.057139173  0.057510367            7 
 1373000    1.0565872   -4.6567406    947.50011  0.057507897  0.057499066            2 
 1374000    1.0231018   -4.6521308    945.82094    0.0573642  0.057487891            4 
 1375000      1.04399   -4.6469212    946.06109  0.057337036  0.057476688            3 
 1376000    1.0520937   -4.7033156     943.3543  0.057131438  0.057465441            4 
 1377000    1.0460308   -4.6538012    947.00585  0.057310933  0.057454301            7 
 1378000    1.0611361   -4.6444482    947.13681  0.057277262  0.057443268            2 
 1379000    1.0329901   -4.6674017     946.1566  0.057176493  0.057432247            2 
 1380000    1.0537703   -4.6918526    944.89309  0.057058762  0.057421149            3 
 1381000    1.0127967   -4.6896661    949.04297  0.057267859   0.05741018            2 
 1382000    1.0332825   -4.6788197     949.7475  0.057268904  0.057398929            2 
 1383000    1.0328615     -4.69212    948.06746  0.057126263  0.057387891            4 
 1384000   0.98827847   -4.6762231    949.44392  0.057167866  0.057376871            4 
 1385000    1.0424866   -4.6579026    948.34096  0.057060226  0.057366012            3 
 1386000    1.0430012   -4.6864583    950.56586  0.057152829  0.057355086           18 
 1387000    1.0221405   -4.6871462    950.70939  0.057120247  0.057344021           10 
 1388000     1.040939   -4.6851825    955.09294  0.057342276  0.057333146            4 
 1389000    1.0374401    -4.661733    952.66277  0.057155194  0.057322177            2 
 1390000    1.0341674   -4.7079398    952.54484  0.057107005  0.057310903            4 
 1391000    1.0139034    -4.699849    956.06468   0.05727682   0.05729981            3 
 1392000    1.0381732   -4.6717141    954.19764  0.057123901  0.057288572            2 
 1393000    1.0045997   -4.6577071    953.61367  0.057047958  0.057277369            1 
 1394000    1.0359833   -4.6566682    954.44226  0.057056567  0.057266465            3 
 1395000     1.041638   -4.7019828    951.32296  0.056829329  0.057255023            4 
 1396000    1.0387688   -4.6910578    955.72768  0.057051557  0.057243659            6 
 1397000     1.047158   -4.6590165     956.8131  0.057075465   0.05723235            4 
 1398000    1.0318335   -4.6749552    955.61949  0.056963489  0.057221179            3 
 1399000     1.024844   -4.6845382     955.8155  0.056934447  0.057210119            4 
 1400000    1.0185833   -4.6928577    954.73891  0.056829697  0.057198717            3 
 1401000    1.0238721   -4.6497779    960.11473  0.057108894  0.057187524            2 
 1402000    1.0243195   -4.6785657     956.2936  0.056841037  0.057176618            4 
 1403000    1.0340183   -4.6680752    959.15968  0.056970758   0.05716555            4 
 1404000    1.0424409   -4.6967984    959.89781  0.056973991  0.057154581            3 
 1405000    1.0267787   -4.6651198    961.09151  0.057004241  0.057143792            4 
 1406000    1.0521104   -4.6790747    960.39146  0.056922206  0.057133275            3 
 1407000    1.0468537   -4.6863479    963.50435  0.057066119  0.057122451            5 
 1408000    1.0132086    -4.684678    964.19729  0.057066601  0.057111335            3 
 1409000    1.0306373   -4.7277596    960.20662  0.056790077  0.057100644            2 
 1410000    1.0120695   -4.6838243    963.98906  0.056973349  0.057089913            5 
 1411000    1.0284573   -4.6562923    963.82543  0.056923307  0.057079209            3 
 1412000    1.0026053   -4.6628717    966.07395  0.057015696  0.057068331            4 
 1413000    1.0295084   -4.6868439    967.05926  0.057033455  0.057057626            3 
 1414000    0.9980889   -4.6829638    968.22321  0.057061717  0.057047107            8 
 1415000    1.0196194   -4.6706035    968.38879  0.057031142  0.057036835            3 
 1416000    1.0296123   -4.6667258    971.77965  0.057190422  0.057026669            5 
 1417000    1.0220061    -4.673108     973.9344  0.057276782  0.057016846            3 
 1418000      1.01873   -4.6567438    972.42928  0.057147936  0.057007256            1 
 1419000    1.0335691   -4.6831712    973.46043  0.057168219  0.056997454            4 
 1420000    1.0156885   -4.6828479     971.7241  0.057026062  0.056987537            4 
 1421000    1.0315176   -4.7277502    969.09497  0.056831748  0.056977014            4 
 1422000    1.0524483   -4.6947646     972.6882  0.057002356  0.056966523            2 
 1423000    1.0298803   -4.6877799    972.64782  0.056959933  0.056956133            5 
 1424000    1.0419996   -4.7017084    972.42784   0.05690706  0.056945868            3 
 1425000   0.99581804   -4.6787888    974.56656  0.056992197  0.056935145            5 
 1426000    1.0187349   -4.6937361    974.59894  0.056954122  0.056924799            2 
 1427000    1.0064188   -4.6930812    974.48289  0.056907433    0.0569144            2 
 1428000    1.0182195   -4.6542467    972.83986    0.0567717  0.056904073            2 
 1429000    1.0294485   -4.6976282    975.19665   0.05686941   0.05689351            2 
 1430000    1.0450187   -4.7066206    973.73129  0.056744248   0.05688309            2 
 1431000    1.0566245   -4.6746222    980.45661  0.057096239   0.05687273            6 
 1432000    1.0392215   -4.6891703    977.69864   0.05689587  0.056862534            4 
 1433000    1.0364637   -4.6556264    976.14503   0.05676582  0.056852305            3 
 1434000    1.0146011   -4.6842728    975.90126  0.056712067  0.056842048            3 
 1435000    1.0008028   -4.7017991     978.6154  0.056830163   0.05683176            3 
 1436000    1.0308132   -4.6904632    976.15139  0.056647597  0.056821254            2 
 1437000    1.0235723   -4.7048084    978.07868  0.056719942  0.056810501            3 
 1438000    1.0480893   -4.6854903    981.23716  0.056863535   0.05680034            4 
 1439000    1.0080784   -4.6931237    979.92751  0.056748177  0.056790037            3 
 1440000    1.0360518   -4.7126278    977.67608  0.056578477  0.056779504            2 
 1441000    1.0072604   -4.6474406    981.28513  0.056747926  0.056769179            3 
 1442000     1.037093   -4.6784023    981.70695  0.056732949  0.056758936            4 
 1443000    1.0311709   -4.7060273    979.13458  0.056545079  0.056748582            6 
 1444000     1.034053    -4.733105    977.76695  0.056426994  0.056737857            1 
 1445000    1.0051627   -4.6930674    982.54866  0.056663706  0.056727415            3 
 1446000    1.0422724   -4.6933192    980.73437  0.056519961  0.056717014            4 
 1447000    1.0236309   -4.6884973    986.86793  0.056834136   0.05670687            4 
 1448000   0.99983955    -4.693618    985.81428  0.056734247  0.056696604            2 
 1449000     1.041274   -4.6912817    985.60202  0.056682886  0.056686576            4 
 1450000    1.0537958   -4.6949409    985.26003   0.05662414  0.056676309            4 
 1451000    1.0391119   -4.7043388    984.05469  0.056515891  0.056665579            5 
 1452000    1.0130059   -4.7181977    982.66964  0.056397477  0.056654921            8 
 1453000     1.018744   -4.7292375    980.73648  0.056247791  0.056644142            3 
 1454000     1.018952    -4.694249    984.34153  0.056415722  0.056633317            5 
 1455000    1.0217211   -4.6837078    988.80766  0.056632741  0.056622606            2 
 1456000    1.0170148   -4.6664131     988.6423  0.056584381  0.056611821            1 
 1457000    1.0140617   -4.6868245    988.36393  0.056529623  0.056600686            5 
 1458000     1.004565   -4.7033264    988.66922    0.0565083  0.056589796            2 
 1459000    1.0241944   -4.6589765     991.4986  0.056631174  0.056579147            3 
 1460000    1.0254018   -4.6907868    993.55676   0.05670986  0.056568689            5 
 1461000   0.98789832   -4.6740745    989.53064  0.056441401  0.056557481            5 
 1462000    1.0255829   -4.6918973    990.41868  0.056453413    0.0565463            3 
 1463000    1.0124174   -4.7215656    986.88271  0.056213415  0.056534968            6 
 1464000    1.0040929   -4.7198424    991.88804   0.05645993  0.056523832            2 
 1465000    1.0220966   -4.6499942    989.41946   0.05628097  0.056512428            3 
 1466000    1.0355085    -4.723949    989.61366  0.056253619  0.056501062            5 
 1467000    1.0175414   -4.7194861      990.458  0.056263236  0.056489869            5 
 1468000   0.99197814   -4.7219907    988.97859  0.056140928  0.056478297           10 
 1469000    1.0124722   -4.6559726    995.49048  0.056472117  0.056466963            4 
 1470000    1.0114244   -4.6458596    993.77597  0.056336506  0.056455856            4 
 1471000    1.0095996   -4.6915883    991.52203  0.056170521  0.056444704            3 
 1472000    1.0052736   -4.7274168    991.91836  0.056154798  0.056433503            6 
 1473000    1.0296199   -4.6987002    996.70073  0.056387233  0.056422491            5 
 1474000    1.0178521   -4.7092114    993.43699  0.056164461  0.056411399            4 
 1475000    1.0086752   -4.7172341    994.03381  0.056160102  0.056400253            2 
 1476000    1.0321455   -4.6783472    996.11455   0.05623953  0.056388976            7 
 1477000    1.0014746   -4.7261562    996.92083  0.056246944  0.056377908            6 
 1478000    1.0515044   -4.6839969    996.19643  0.056168044  0.056367028            3 
 1479000   0.99870679   -4.7198787    991.31749  0.055855166  0.056355236            4 
 1480000    1.0092385   -4.7082263    994.70468  0.056008146  0.056343644            2 
 1481000    1.0097829   -4.6719364    996.36429  0.056063712  0.056331948            3 
 1482000   0.99445221   -4.7146975    994.40113  0.055915493  0.056320165            5 
 1483000    1.0222458    -4.716282    993.30783  0.055816354  0.056308073            1 
 1484000      1.01587   -4.7089007    996.87881  0.055979268   0.05629637            2 
 1485000    1.0022653   -4.7050688    996.12185  0.055899093  0.056284864            3 
 1486000    1.0195979   -4.7046868    996.30094   0.05587152  0.056272863            3 
 1487000    1.0129156   -4.7228845    998.98364  0.055984288  0.056261106            3 
 1488000    1.0304893   -4.7209209    993.70674  0.055651139  0.056249302            3 
 1489000    1.0278674   -4.6897152     997.9558  0.055851567  0.056237129            3 
 1490000    1.0048741   -4.7168861    999.85536  0.055920322  0.056225337            3 
 1491000    1.0160708   -4.7363377    999.50297  0.055863121   0.05621358            7 
 1492000    1.0044664   -4.6910501    997.55598  0.055716934   0.05620178            2 
 1493000    1.0010447   -4.7034253    1001.6137  0.055906103  0.056190047            2 
 1494000     1.007571   -4.6520332    1001.0382  0.055836582   0.05617806            2 
 1495000    1.0300447   -4.7396737    998.40524  0.055652466  0.056166069            5 
 1496000    1.0075376   -4.6942762    1001.9683  0.055813742   0.05615417            3 
 1497000   0.98883178   -4.7008247    1000.8217  0.055712632  0.056142146            6 
 1498000    1.0228485   -4.7244793    999.23474  0.055587157  0.056130103            2 
 1499000    1.0258819    -4.710465    1003.1336  0.055766824  0.056117742            4 
 1500000    1.0077347   -4.7089903    1004.7408  0.055818935  0.056105749            2 
 1501000    1.0148771   -4.7222383    1006.4085  0.055874336   0.05609352            5 
 1502000    1.0372835   -4.6903201    1006.5056  0.055842522  0.056081473            4 
 1503000   0.99871653   -4.7065266    1005.1119  0.055728092  0.056069221            1 
 1504000    1.0255789   -4.6758515    1002.6393  0.055554039  0.056057275            1 
 1505000    1.0258182   -4.7288003    1004.6124  0.055626381  0.056045542            4 
 1506000    1.0184176   -4.7425296     1002.763  0.055487108  0.056033693            3 
 1507000    1.0149805   -4.6792667    1007.3717  0.055705139  0.056021878            3 
 1508000   0.99311179   -4.7283803    1008.6796  0.055740473  0.056009806            5 
 1509000    1.0037224   -4.7124177    1005.6763  0.055537679  0.055998013            4 
 1510000    1.0245659   -4.6823329    1010.0957  0.055744794  0.055986384            2 
 1511000   0.99904712    -4.732446    1004.7883  0.055415196  0.055974491            7 
 1512000     1.023015   -4.6944759     1009.079  0.055615026  0.055962713            2 
 1513000    1.0321765   -4.7153898    1009.0829  0.055578481  0.055951055            3 
 1514000    1.0149732    -4.715821    1012.7949  0.055746085  0.055939506            2 
 1515000   0.98595572   -4.7273053    1008.6293  0.055480157  0.055927618            4 
 1516000    1.0240168   -4.6699157    1013.4434  0.055708193  0.055916049            5 
 1517000    1.0065348   -4.7085239    1010.3867  0.055503552  0.055904732            2 
 1518000    1.0104708   -4.7133345    1015.5212  0.055748856  0.055893131            3 
 1519000   0.99545673   -4.7197974    1010.7523  0.055450534  0.055881279            7 
 1520000    1.0048807   -4.7302792    1010.7622  0.055414597  0.055869458            5 
 1521000   0.98947086   -4.6910301    1016.1176  0.055671578  0.055857737            3 
 1522000   0.98964393   -4.7071974    1014.7737  0.055561417  0.055846127            5 
 1523000   0.99915448    -4.738612    1012.2383  0.055386204  0.055834506            3 
 1524000    1.0085789   -4.6985739    1017.2712  0.055625063  0.055822904            4 
 1525000   0.99162686    -4.705492    1014.6252     0.055444  0.055811386            2 
 1526000   0.99107415   -4.7435187    1014.0367   0.05537553  0.055799676            2 
 1527000    1.0267881   -4.7384897    1018.3394  0.055574077  0.055787949            6 
 1528000   0.98651374   -4.6906475    1017.6314  0.055499093  0.055776013            3 
 1529000    1.0340046   -4.6994086    1021.2803  0.055661668  0.055764157            2 
 1530000   0.98631672   -4.7071875    1019.2493  0.055514667  0.055752426            4 
 1531000   0.99342974   -4.7227044      1017.44  0.055379924  0.055740712            2 
 1532000    1.0087152   -4.7367842    1014.9437  0.055207991  0.055728752            1 
 1533000   0.98817103   -4.7495156     1016.411  0.055251741  0.055717182            2 
 1534000    1.0116563   -4.7032732    1018.5753  0.055333296  0.055705339            4 
 1535000    1.0049795   -4.7110169    1021.5376  0.055458067  0.055693531            2 
 1536000    1.0218568   -4.7239363    1018.6016  0.055262675  0.055681753            5 
 1537000    1.0087605   -4.6827517    1017.8931  0.055188306  0.055669872            2 
 1538000   0.99650012   -4.7068437    1023.0115  0.055429755  0.055658091            3 
 1539000   0.98790819   -4.7492445     1021.847  0.055330681  0.055646471            5 
 1540000    1.0051822   -4.7171512    1021.3407  0.055267353  0.055634709            2 
 1541000   0.99378096   -4.7138946    1023.1486  0.055329258   0.05562321            3 
 1542000   0.99844102   -4.7385206    1020.1928  0.055133634  0.055611467            3 
 1543000    1.0278811    -4.724722    1022.5674  0.055226149  0.055599472            2 
 1544000   0.99627824   -4.7320067    1027.0409  0.055431828  0.055587454            5 
 1545000    1.0248329    -4.711803    1026.1042  0.055345428  0.055575762            2 
 1546000    1.0034641   -4.7270592    1020.5462  0.055010035  0.055563891            3 
 1547000    1.0009445   -4.7207377    1026.7948  0.055311074  0.055551945            6 
 1548000   0.99994919   -4.7451944    1026.1068  0.055238308  0.055540146            2 
 1549000   0.99255096    -4.725525    1027.3474  0.055269386  0.055528669            2 
 1550000    1.0134358   -4.7348962    1025.9449  0.055158328   0.05551697            3 
 1551000    1.0057433   -4.7207156    1029.1905  0.055297146   0.05550531            3 
 1552000       1.0067   -4.7334579    1026.7797   0.05513207  0.055493722            3 
 1553000   0.99109057   -4.7058292    1032.2305  0.055389058  0.055482147            3 
 1554000   0.98665456    -4.739159    1029.9383  0.055230497  0.055470562            4 
 1555000   0.99450418   -4.7253509    1030.5245  0.055226391  0.055459049            3 
 1556000    1.0045282   -4.7640412    1031.6165  0.055249382  0.055447553            1 
 1557000   0.99934357   -4.7363186    1030.7407  0.055167026  0.055436303            3 
 1558000   0.98713156   -4.7075226    1032.9119  0.055247749  0.055425243            3 
 1559000   0.99203744    -4.722065    1031.9637  0.055161624  0.055413854            1 
 1560000    1.0113945   -4.7296959    1030.6008  0.055053463  0.055402194            7 
 1561000   0.99528143   -4.7236152    1038.6817  0.055449592  0.055390516            2 
 1562000   0.98374962   -4.7439837    1030.2888  0.054966327  0.055378981            4 
 1563000    1.0343131   -4.7212489    1034.2366  0.055141637  0.055367366            5 
 1564000    1.0018852   -4.7293834    1032.5435  0.055016174  0.055355832            1 
 1565000    1.0278415     -4.69661    1034.3233  0.055075786  0.055344155            1 
 1566000   0.98929959   -4.7596687    1032.2997  0.054932935  0.055332631            4 
 1567000    1.0112025   -4.7334077     1032.592  0.054913422  0.055321128            2 
 1568000    1.0075569   -4.7609363    1030.3658  0.054760087  0.055309273            4 
 1569000     1.003851   -4.7645467    1031.6223   0.05479192  0.055297254            4 
 1570000    1.0017149   -4.7220879    1033.3091  0.054846555  0.055285188            4 
 1571000   0.99966771    -4.711367     1037.688   0.05504392  0.055273107            4 
 1572000    1.0006835   -4.7380257    1036.6638  0.054954609  0.055261148            2 
 1573000   0.99697892    -4.728934     1038.472  0.055015471  0.055249309            3 
 1574000     1.025949    -4.745367    1035.6259  0.054829834  0.055237587            2 
 1575000   0.99970405   -4.7277087    1037.2514  0.054881026   0.05522575            1 
 1576000     1.025997   -4.6984881    1038.9142  0.054934124  0.055213725            4 
 1577000   0.99248517   -4.7191705    1040.0419  0.054958881  0.055202039            3 
 1578000    1.0111215   -4.7312856    1035.9813  0.054709616  0.055190156            3 
 1579000    1.0061757   -4.7287712    1038.1965  0.054791878  0.055178391            6 
 1580000    0.9881601    -4.734318    1040.0445  0.054854665  0.055166673            3 
 1581000    1.0015481   -4.7355668    1041.6495  0.054904572  0.055154921            2 
 1582000   0.98904324   -4.7411574    1039.4333  0.054753123  0.055143039            3 
 1583000   0.99522369   -4.7341598    1040.7015  0.054785297  0.055131134            1 
 1584000   0.98774708   -4.7505785    1039.7693  0.054701669  0.055119003            2 
 1585000    1.0038212   -4.7369425    1040.7786   0.05472022  0.055107058            5 
 1586000   0.98854228   -4.7244295     1043.986  0.054854243  0.055094978            8 
 1587000   0.99917688   -4.7016919    1042.3474   0.05473364  0.055082984            3 
 1588000   0.98606938   -4.7215014     1043.783  0.054774504  0.055071218            3 
 1589000    1.0107125   -4.7965462    1038.7117  0.054474075  0.055059316            3 
 1590000   0.99194806   -4.7412124    1041.7279  0.054597896   0.05504686            2 
 1591000    1.0172641   -4.7474189    1041.6951  0.054561864   0.05503453            5 
 1592000    1.0123037   -4.7319714    1043.1759  0.054605106  0.055022118            2 
 1593000    1.0157977   -4.7731093     1039.935  0.054401284  0.055009959            2 
 1594000    1.0099361   -4.7259238    1044.9396  0.054628793  0.054997687            3 
 1595000    1.0004777   -4.7385672    1046.4872  0.054675403  0.054985709            1 
 1596000    1.0030599    -4.728726    1046.0291  0.054617226  0.054973807            2 
 1597000     1.024906   -4.7677421    1046.7322  0.054619712    0.0549621            2 
 1598000    1.0175838   -4.7601783    1046.7396  0.054585921  0.054950295            4 
 1599000    1.0034897   -4.7489511    1043.8526  0.054401322  0.054938172            4 
 1600000   0.98657107   -4.7228213    1048.1236  0.054589769  0.054926122            2 
 1601000    1.0068713   -4.7066828    1051.1602  0.054713732  0.054914267            5 
 1602000   0.98601598   -4.7478598    1049.6353  0.054600254   0.05490208            4 
 1603000   0.99415929   -4.7261534    1050.0146   0.05458591   0.05489005            3 
 1604000   0.98773512   -4.7321872     1051.883  0.054648952  0.054877861            3 
 1605000   0.99447337   -4.7623597    1046.8923  0.054355781  0.054865823            5 
 1606000   0.99821099    -4.738274    1052.7022  0.054623399  0.054853921            4 
 1607000    1.0025142   -4.7134106    1052.3776  0.054572576  0.054841908            2 
 1608000    1.0010662   -4.7226084    1050.3079   0.05443138  0.054830013            2 
 1609000   0.98215436   -4.7197405    1050.8195  0.054424047  0.054817794            6 
 1610000   0.98518775   -4.7417828     1049.063  0.054299328  0.054805697            3 
 1611000   0.97766183   -4.7451658    1049.7549  0.054301412  0.054793534            5 
 1612000    1.0027999   -4.7484661    1052.2627  0.054397369  0.054781628            6 
 1613000    1.0030297   -4.7660669    1050.7032  0.054283073   0.05476957            2 
 1614000   0.97877015   -4.7589821    1052.8658  0.054361102  0.054757634            3 
 1615000   0.98910791   -4.7611488    1055.0145  0.054438311  0.054745544            6 
 1616000   0.99248333   -4.7449708    1056.7971  0.054496548  0.054733604            8 
 1617000   0.99814848   -4.7474738    1055.6467   0.05440356   0.05472167            4 
 1618000   0.98939848   -4.7754121    1057.5404  0.054467469  0.054709814            3 
 1619000    1.0116471   -4.7519108    1053.9822  0.054250679  0.054697728            5 
 1620000   0.99884311   -4.7578973    1055.2517  0.054282493   0.05468573            2 
 1621000    1.0022575   -4.7738958    1053.9829  0.054183783  0.054673646            3 
 1622000    1.0011255   -4.7669163     1055.264  0.054216192   0.05466145            2 
 1623000   0.98345011   -4.7388074    1060.7031  0.054462059  0.054649458            7 
 1624000    1.0152891   -4.7331759    1060.3245  0.054409096  0.054637392            2 
 1625000   0.99545956   -4.7649937    1056.9166  0.054200853  0.054625457            3 
 1626000    1.0015967   -4.7721445    1059.1315   0.05428103  0.054613536            4 
 1627000     0.981404   -4.7457086    1056.6508  0.054120613  0.054601568            3 
 1628000    1.0176705   -4.7222694    1062.2387  0.054373395  0.054589666            5 
 1629000   0.99571179   -4.7437569    1063.2964  0.054394127  0.054578011            2 
 1630000   0.99223614   -4.7396451    1058.1251  0.054096377   0.05456616            3 
 1631000   0.99410123   -4.7520776    1057.4992  0.054031229  0.054553953            2 
 1632000   0.99358826     -4.74788    1061.7892  0.054217178  0.054542244            2 
 1633000    1.0042606    -4.725301     1065.865  0.054391969  0.054530365            3 
 1634000   0.98645065   -4.7554353    1062.1791  0.054170701  0.054518653            3 
 1635000    1.0021086   -4.7215855     1063.441  0.054201886   0.05450683            3 
 1636000   0.99200124   -4.7458585    1065.4586  0.054271525  0.054495015            4 
 1637000   0.97798654   -4.7097896    1063.1179  0.054119216  0.054483475            2 
 1638000   0.98485885   -4.7474914    1065.2726  0.054195799   0.05447167            5 
 1639000   0.98739623   -4.7333724    1065.2346  0.054160799  0.054459936            3 
 1640000     1.011036    -4.773143      1066.79  0.054206808  0.054448347            3 
 1641000   0.99703355    -4.721099    1067.6923  0.054219597  0.054436497            4 
 1642000    0.9847854   -4.7463419    1067.3659  0.054170011   0.05442482            2 
 1643000    1.0066172   -4.7357674    1067.6023  0.054149031  0.054413045            2 
 1644000    1.0054437   -4.6949017    1067.5945    0.0541157  0.054401283            6 
 1645000    1.0174422   -4.7815782    1063.4732  0.053874024  0.054389312            3 
 1646000   0.97677893   -4.7651569    1066.2844  0.053983618  0.054377108            3 
 1647000   0.98557053   -4.7697263    1066.5335  0.053963443  0.054365211            2 
 1648000   0.97478627   -4.7576842    1066.7419  0.053941235  0.054353351            5 
 1649000     1.002775   -4.7538648    1070.7009  0.054108594  0.054341584            3 
 1650000   0.99451256   -4.7406748    1076.3108  0.054359133   0.05433021            1 
 1651000   0.98196626   -4.7482639    1076.7649  0.054349129  0.054318658            3 
 1652000    1.0048781   -4.7418566     1073.083  0.054130498  0.054307145            5 
 1653000   0.96834478    -4.749222      1072.69   0.05407794  0.054295378            7 
 1654000    0.9833365   -4.7597806    1072.4117   0.05403122  0.054283604            3 
 1655000   0.99648726   -4.7616099    1070.7411  0.053914458  0.054271993            4 
 1656000   0.98858705   -4.7272715     1072.785  0.053984753  0.054260398            5 
 1657000    1.0014237   -4.7480331    1074.2003  0.054023352  0.054248701            2 
 1658000    0.9501882   -4.7308384    1069.3262  0.053745787  0.054236992            5 
 1659000   0.99240203   -4.7598399    1071.9821  0.053846801  0.054225084            5 
 1660000   0.96603293   -4.7290032    1073.6743  0.053899312  0.054212997            4 
 1661000   0.96871287   -4.7594642    1076.1828  0.053992718  0.054201202            1 
 1662000   0.99675146   -4.7690472    1073.6305  0.053832257  0.054189352            5 
 1663000   0.99788054   -4.7517711    1076.7115  0.053954275  0.054177465            4 
 1664000   0.99602735   -4.7758825    1075.2524   0.05384878  0.054165735            7 
 1665000   0.98001483   -4.7348092    1083.1511  0.054211767  0.054154179            2 
 1666000   0.98714928   -4.7415638    1077.5504   0.05389908  0.054142527            2 
 1667000   0.96419525   -4.7463707    1079.9724   0.05398782  0.054131084            8 
 1668000   0.97507969   -4.7588763    1079.3392  0.053923819  0.054119513            2 
 1669000    1.0010074   -4.7560031    1076.1527  0.053732408  0.054107766            3 
 1670000   0.99351933   -4.7205705    1084.0874  0.054096179  0.054096183            2 
 1671000   0.99324133   -4.7617644    1077.2134  0.053720995   0.05408439            5 
 1672000   0.97845922    -4.761008    1080.7617  0.053865714  0.054072586            2 
 1673000    0.9772002   -4.7603438    1079.2606  0.053758747  0.054060901            2 
 1674000   0.98161494   -4.7692719    1079.9413  0.053760519  0.054049208            2 
 1675000   0.98343636   -4.7364784    1084.2384  0.053942209  0.054037435            4 
 1676000   0.99511889   -4.7693708    1082.3035  0.053813817  0.054025649            2 
 1677000   0.99403636   -4.7442836    1083.5573  0.053844033  0.054013892            3 
 1678000   0.98880744   -4.7935201    1080.2101  0.053645715  0.054002305            5 
 1679000    1.0052857   -4.7914921    1081.7636  0.053690867  0.053990643            2 
 1680000   0.98401502   -4.7837034    1080.9548   0.05361879   0.05397896            3 
 1681000   0.97733784   -4.7699883    1083.7187  0.053723907  0.053967224            2 
 1682000   0.98309556   -4.7625423    1086.3151  0.053820607  0.053955685            2 
 1683000   0.98006247   -4.7766782     1087.118  0.053828381   0.05394385            8 
 1684000   0.98000631   -4.7409287    1089.4136  0.053910014  0.053932044            2 
 1685000   0.95561915   -4.7888799    1084.3551   0.05362785  0.053920336            2 
 1686000   0.97377233   -4.7568924     1085.039  0.053629842  0.053908441            5 
 1687000    0.9997926   -4.7834952     1085.324  0.053612133  0.053896495            3 
 1688000   0.97486804   -4.7946189    1084.7589  0.053552473  0.053884657            2 
 1689000   0.97270339   -4.7600401    1085.9693  0.053580486  0.053872845            3 
 1690000   0.97293935   -4.7259615    1087.6862  0.053633443  0.053861023            7 
 1691000   0.94877828   -4.7716597     1084.564   0.05344786  0.053849345            2 
 1692000   0.97497234   -4.7712849    1086.9189  0.053532254  0.053837534            3 
 1693000   0.97631117   -4.7707359    1089.3784  0.053621696  0.053826009            3 
 1694000   0.98903978   -4.7667594     1088.765  0.053559871  0.053814296            4 
 1695000   0.99202868   -4.7519273    1087.3553  0.053458962  0.053802258            2 
 1696000   0.99287402   -4.7524251    1085.2823  0.053325586  0.053790467            3 
 1697000   0.98758411   -4.7765093    1087.1884  0.053387761  0.053778385            2 
 1698000   0.96807157   -4.7632027    1089.9967  0.053494145  0.053766856            3 
 1699000   0.97550577   -4.7784238    1088.9449   0.05341107  0.053754809            4 
 1700000   0.95727233    -4.771767    1091.2064  0.053490512  0.053742953            1 
 1701000   0.97314381   -4.7865011    1087.0394  0.053254921  0.053731216            5 
 1702000   0.98983554   -4.7680279    1092.9101  0.053511072  0.053719318            5 
 1703000   0.98287509   -4.7699138    1091.7262  0.053421715  0.053707729            2 
 1704000   0.94778135     -4.75206     1093.995  0.053501318  0.053695898            3 
 1705000   0.98116565   -4.7615022    1093.5349  0.053447451  0.053684053            3 
 1706000   0.99273964   -4.7837716    1089.8724   0.05323722  0.053672134            8 
 1707000   0.97508346   -4.7961734    1092.0477   0.05331223  0.053660271            3 
 1708000   0.99674028   -4.7721509     1096.811   0.05351342  0.053648438            4 
 1709000    0.9604645    -4.766825    1097.4466  0.053513098  0.053636726            2 
 1710000   0.99370838   -4.7470704    1097.3247  0.053475862  0.053625059            2 
 1711000    0.9779394   -4.8062363     1093.024  0.053235143   0.05361322            5 
 1712000   0.97227311   -4.7782279    1095.4035  0.053319874  0.053601563            4 
 1713000   0.97154117   -4.7758727    1096.7487  0.053354189  0.053589934            6 
 1714000   0.97534973   -4.7610769    1097.8393  0.053376085  0.053578368            6 
 1715000    1.0012312   -4.8195119    1096.0104  0.053256095  0.053566486            7 
 1716000   0.98897711   -4.7835981    1094.1232  0.053133412  0.053554976            5 
 1717000   0.96529711   -4.7844541    1098.5286  0.053316277  0.053543399            2 
 1718000   0.95629632   -4.7471837    1100.6202  0.053386701  0.053531784            6 
 1719000   0.98330944    -4.775087    1098.1823  0.053237459  0.053520197            7 
 1720000   0.97559588   -4.7819998    1095.7007  0.053086272   0.05350854            4 
 1721000   0.96928781   -4.7832355    1098.7391  0.053202553  0.053496447            2 
 1722000   0.96851544   -4.7790788    1100.3196   0.05324814  0.053484723            3 
 1723000   0.96313768   -4.7317316    1106.1211  0.053497827  0.053473375            3 
 1724000    0.9758868   -4.7570927    1105.1125  0.053418044  0.053461859            6 
 1725000   0.96486276   -4.7726056    1096.9039  0.052990529  0.053450234            5 
 1726000   0.98280392   -4.7642323    1102.2404  0.053217477  0.053438709            6 
 1727000   0.95955605   -4.7707825    1102.6669  0.053207242  0.053427147            4 
 1728000    0.9608459   -4.7811139    1101.4674  0.053118607  0.053415355            4 
 1729000   0.96114626   -4.7785686    1102.9367  0.053158699  0.053403827            5 
 1730000    0.9766406   -4.7686465    1106.9839  0.053322924  0.053392046            5 
 1731000   0.95803189   -4.7779295    1108.3475  0.053357764  0.053380138            4 
 1732000   0.96941562   -4.7660401       1102.7  0.053055234  0.053368571            6 
 1733000   0.98360522   -4.7382553    1107.1878  0.053240421  0.053356952            2 
 1734000   0.97002819   -4.7883388    1104.9774   0.05310349  0.053345458            5 
 1735000   0.98371808   -4.7728711    1103.2154  0.052988253  0.053333548            5 
 1736000   0.96469893   -4.7618813     1100.861   0.05284471  0.053321682            8 
 1737000   0.96330425    -4.797103    1104.1366  0.052971436  0.053309847            7 
 1738000   0.96804895   -4.7678363    1108.4103   0.05314587  0.053298007            4 
 1739000   0.98405852    -4.791864    1109.5833  0.053171523  0.053286289            2 
 1740000   0.96113473   -4.7458713    1107.2563  0.053029517  0.053274468            3 
 1741000   0.99200114   -4.7626474    1107.7543  0.053022896   0.05326268            8 
 1742000   0.99347432   -4.7762857    1107.3733  0.052974229  0.053250711            4 
 1743000   0.97411784   -4.7869361    1108.1756  0.052982196  0.053239113            5 
 1744000   0.96811155   -4.7744033    1107.1194  0.052901349  0.053227388            2 
 1745000    1.0021556   -4.7288785    1114.7772  0.053236732  0.053215905            4 
 1746000   0.96830317   -4.7713655    1110.2213  0.052988801  0.053204525            4 
 1747000   0.96950607   -4.7721418    1109.7963  0.052938196  0.053192905            4 
 1748000   0.98716785   -4.7483735     1111.673  0.052997379  0.053181564            7 
 1749000   0.96247953   -4.7866794    1109.1403  0.052846402   0.05317014            3 
 1750000    1.0030505   -4.7966206    1112.9543  0.052997825  0.053158454            2 
 1751000   0.98755077   -4.7848821    1111.4859  0.052897673  0.053146803            4 
 1752000   0.95758466   -4.7718674     1112.991   0.05293907  0.053135113            5 
 1753000   0.97087278   -4.7751997     1111.942  0.052859006  0.053123383            4 
 1754000   0.96729042   -4.7470427    1120.3649  0.053229043  0.053111763            4 
 1755000   0.95434871   -4.7991838    1108.9118   0.05265488  0.053100105            2 
 1756000   0.97448088   -4.7928064    1114.0211  0.052867363   0.05308829            4 
 1757000   0.98267725   -4.7902281    1114.6164  0.052865511  0.053076566            3 
 1758000   0.98524778    -4.763241    1116.9176  0.052944521  0.053064996            4 
 1759000   0.98660031    -4.797511    1116.7988  0.052908793  0.053053278            4 
 1760000   0.97781567   -4.8003742    1116.5338  0.052866184  0.053041642            4 
 1761000   0.96894389    -4.786344    1114.8821  0.052758004  0.053029757            3 
 1762000   0.96830987   -4.7881761     1116.687  0.052813421  0.053017915            3 
 1763000   0.95442513   -4.8194596    1110.7129  0.052501082  0.053005988            3 
 1764000   0.96427611   -4.7828355     1117.192  0.052777401  0.052994302            5 
 1765000   0.96501396   -4.7982547    1115.7061  0.052677341  0.052982879            3 
 1766000   0.99172881   -4.7719219    1117.9127  0.052751637  0.052971408            3 
 1767000   0.96377635   -4.8156026    1118.0655   0.05272899  0.052959937            5 
 1768000   0.97893115   -4.8198059    1119.1761  0.052751514  0.052948287            4 
 1769000   0.98109275   -4.7772551    1120.2259  0.052771145  0.052936816            3 
 1770000   0.96369504   -4.8112519    1117.0188  0.052590338   0.05292562            3 
 1771000   0.99676982   -4.8054599    1117.9299  0.052603516  0.052913841            6 
 1772000   0.97507803   -4.8232011    1115.4579  0.052457575  0.052902236            2 
 1773000   0.96420608    -4.788122    1122.7678  0.052771563  0.052890637            3 
 1774000   0.96089111   -4.7792692    1125.2296  0.052857459  0.052879162            3 
 1775000   0.96305546    -4.793704    1124.6001  0.052798125  0.052867808            4 
 1776000   0.96208236   -4.7857411    1122.7966  0.052683775  0.052856111            5 
 1777000   0.96378219   -4.7923997    1122.6596  0.052647702  0.052844638            7 
 1778000   0.97952265   -4.7615343    1124.8067  0.052718722  0.052833018            3 
 1779000   0.96293795   -4.7950914    1122.4659  0.052579442  0.052821453            2 
 1780000   0.94902333   -4.8053158    1118.7007  0.052373629  0.052809779            7 
 1781000   0.96753338   -4.8036285    1122.5564  0.052524631  0.052797968            2 
 1782000   0.94446069    -4.775362    1126.5402  0.052681452  0.052786595            3 
 1783000   0.94998111   -4.7932297    1126.9312  0.052670179  0.052774973            3 
 1784000     0.972619   -4.7764721    1124.4083  0.052522807  0.052763216            3 
 1785000   0.96770441   -4.8020938    1125.1348  0.052527302  0.052751536            2 
 1786000    0.9836188   -4.8231556    1125.0315  0.052493071  0.052739918            4 
 1787000   0.96827423   -4.7845593     1122.588  0.052349747  0.052728225            4 
 1788000   0.96478827   -4.8044143    1125.0235  0.052433982   0.05271651            5 
 1789000   0.95834322   -4.7896179    1129.3445  0.052605948  0.052704814            3 
 1790000   0.96018501   -4.7894104     1125.279  0.052387289  0.052693108            3 
 1791000   0.95846197   -4.8017638    1127.0379  0.052439878  0.052681344            2 
 1792000   0.94477465   -4.8045581    1130.3176  0.052563135   0.05266949            9 
 1793000   0.98160277   -4.7974583    1125.4785  0.052308908  0.052657628            5 
 1794000   0.99312276   -4.7673554    1127.7578  0.052385626  0.052645719            3 
 1795000   0.95752715   -4.7800586    1128.4522  0.052388683  0.052633973            1 
 1796000   0.96215423   -4.8150103    1125.2495  0.052210907  0.052622052            3 
 1797000   0.97692779   -4.7829074    1131.6677  0.052479491  0.052610391            2 
 1798000   0.99226569   -4.7865533    1128.5633  0.052306417  0.052598679            4 
 1799000   0.98197692   -4.8022384    1132.2458  0.052447926  0.052586943            5 
 1800000   0.96866528   -4.8076877    1125.7904  0.052119925  0.052575074            2 
 1801000   0.99468979   -4.8029089    1129.5251  0.052263795  0.052562889            7 
 1802000   0.94704671   -4.7933009    1128.2995  0.052178112   0.05255078           11 
 1803000   0.97838956    -4.796144     1130.341  0.052243528  0.052538985            2 
 1804000   0.95467872   -4.8116358    1129.5596  0.052178475  0.052527234            2 
 1805000   0.94512434   -4.8360331    1132.3999  0.052280695  0.052515351            8 
 1806000   0.94992872   -4.8158811    1127.4836  0.052024897  0.052503605            3 
 1807000    0.9454865   -4.7872195    1134.8291  0.052334859   0.05249172            4 
 1808000   0.95473559   -4.7985714    1133.0977  0.052226109  0.052479849            2 
 1809000   0.94382149   -4.8528469    1130.9799  0.052099681  0.052467834            6 
 1810000   0.98128341   -4.8123677    1132.9645   0.05216227  0.052456186            2 
 1811000   0.95220753   -4.7961917    1132.2634  0.052101206  0.052444588            3 
 1812000   0.95461935   -4.8122783    1138.4683  0.052357812  0.052432806            3 
 1813000   0.95205582   -4.7974598    1139.1497  0.052360256  0.052420873            2 
 1814000   0.97051996   -4.8077877     1135.155  0.052147876  0.052408965            6 
 1815000   0.95946169   -4.8043286     1135.783  0.052147982  0.052396987            5 
 1816000   0.97150531   -4.7974383    1135.0724  0.052086655  0.052385241            5 
 1817000   0.96978182   -4.8164782    1136.8187  0.052138078  0.052373545            4 
 1818000   0.99702727   -4.8061813    1138.3121  0.052177858  0.052361871            4 
 1819000   0.95715773   -4.7866275     1136.905  0.052084706  0.052350192            4 
 1820000   0.96401195   -4.8074357    1137.9712   0.05210491  0.052338451            3 
 1821000   0.97720225   -4.7733076    1139.7731  0.052158753  0.052326877            3 
 1822000   0.92159479   -4.8051091    1135.7245  0.051944955  0.052315409            2 
 1823000   0.98257799   -4.7883185    1140.8011  0.052148523  0.052303787            3 
 1824000   0.96660229   -4.7973345    1139.8836  0.052078015  0.052292022            2 
 1825000   0.95622997   -4.8001259    1140.7081  0.052087127  0.052280325            6 
 1826000   0.96704719   -4.8059164     1140.727  0.052059467  0.052268715            4 
 1827000   0.95106648   -4.7959351     1141.928   0.05208575  0.052256768            1 
 1828000   0.96199598   -4.8094364    1140.0949  0.051973692  0.052244706            4 
 1829000   0.96909307   -4.7988037     1142.383  0.052049525  0.052232816            3 
 1830000   0.96436486   -4.8333742     1140.209  0.051922086  0.052220891            2 
 1831000   0.97129233   -4.7917846     1137.778  0.051783086  0.052208879            3 
 1832000   0.97565603   -4.7713493     1144.849  0.052076465  0.052197031            4 
 1833000   0.94251578   -4.7768701    1146.2023  0.052109579  0.052185298            5 
 1834000   0.94326764   -4.8061615    1146.0925  0.052076179  0.052173578            4 
 1835000    0.9758781   -4.8022145    1145.5201  0.052021803  0.052161842            5 
 1836000   0.95055385   -4.8209397    1144.1501  0.051931288  0.052150216            3 
 1837000   0.95602754   -4.8312588    1139.6514   0.05169894  0.052138614            4 
 1838000   0.96920098   -4.7991217    1146.6809  0.051989521  0.052126971            2 
 1839000    0.9482217   -4.8005893    1145.5319  0.051909185  0.052115702            3 
 1840000   0.99230589   -4.7688228    1147.5284  0.051971396  0.052104339            8 
 1841000   0.93220453   -4.8013816    1146.8927  0.051914389  0.052093046            4 
 1842000   0.95609461   -4.8079059    1147.0054  0.051891305  0.052081616            7 
 1843000   0.94969575   -4.8030679    1148.6442  0.051937249  0.052069958            3 
 1844000   0.94417031   -4.8078906      1148.55  0.051904826  0.052058144            4 
 1845000   0.95152995   -4.7958761    1147.0314  0.051808102  0.052046563            7 
 1846000   0.95037125   -4.8000268    1152.3932  0.052022084  0.052035021            6 
 1847000   0.96080549   -4.8070733    1149.2108  0.051850334  0.052023661            4 
 1848000   0.97339546    -4.821376     1148.397  0.051785578  0.052012148            2 
 1849000   0.97971445   -4.8199287    1153.2606  0.051976772   0.05200069            3 
 1850000   0.96213219    -4.818429    1148.6097  0.051739178  0.051989299            2 
 1851000   0.95694399   -4.7818811    1154.9445  0.051996422   0.05197801            3 
 1852000   0.96138035   -4.8465795    1148.4424  0.051675775  0.051966583            5 
 1853000   0.95702018   -4.8009932    1154.5203  0.051921222  0.051955345            2 
 1854000   0.96401041   -4.8150085    1155.0285  0.051916062  0.051944085            2 
 1855000   0.96565751   -4.8285392    1153.8674  0.051835911  0.051933059            4 
 1856000   0.95838167   -4.8018687    1155.6001  0.051885781  0.051921836            8 
 1857000   0.94564442   -4.8249619    1154.1172  0.051791295   0.05191051            6 
 1858000   0.97401404   -4.8443752    1151.1521  0.051630432  0.051899175            7 
 1859000   0.95716568   -4.7971064    1160.5852  0.052025518  0.051888022            5 
 1860000   0.94956042   -4.8208737    1153.6028  0.051684712  0.051876673            3 
 1861000    0.9412995   -4.8415179    1156.3679  0.051780759  0.051865442            3 
 1862000    0.9449232   -4.8502559    1153.4701  0.051623257  0.051854132            5 
 1863000   0.96304729   -4.8207427    1158.1695  0.051805757  0.051842998            5 
 1864000   0.97267498   -4.7938322    1161.1794  0.051912525  0.051832018            7 
 1865000    0.9429659   -4.8215038    1162.1203  0.051926736  0.051821029            7 
 1866000   0.95120801   -4.8301493    1160.4822   0.05182575  0.051809762            7 
 1867000   0.93752074   -4.8147388    1160.1995  0.051785375  0.051798498            4 
 1868000   0.93678008   -4.8641451    1158.7235  0.051691804  0.051787338            4 
 1869000   0.95391964   -4.8238853    1161.0672  0.051768646  0.051776281            3 
 1870000   0.95129527   -4.8125973    1161.4741  0.051759096  0.051765428            3 
 1871000   0.95329051   -4.8233089    1159.3332  0.051636079  0.051754539            4 
 1872000   0.94777082   -4.8065342    1164.9558  0.051858789  0.051743775            4 
 1873000   0.95256937    -4.852732    1162.4821  0.051721041  0.051732871            2 
 1874000   0.94737796   -4.7872524    1169.1144  0.051988366  0.051721927            3 
 1875000   0.95632812   -4.8306403    1164.5052  0.051755788  0.051711132            4 
 1876000   0.91837449   -4.7871695    1170.1361  0.051978326  0.051700638            2 
 1877000   0.95543148   -4.8311678    1162.5714  0.051614783  0.051690137            3 
 1878000   0.96988037   -4.8017669    1165.8977  0.051734902  0.051679468            2 
 1879000   0.96918815   -4.8303196    1164.0635  0.051626021  0.051668679            3 
 1880000   0.94704901    -4.816985    1171.2713  0.051918052  0.051658035            4 
 1881000    0.9581409   -4.7956437    1171.6059  0.051905278  0.051647314            7 
 1882000    0.9640229   -4.8827882    1163.1929  0.051505178  0.051636532            3 
 1883000   0.95024224   -4.7980779    1170.0471  0.051781162  0.051625656            7 
 1884000   0.93459468   -4.8361387    1171.5412  0.051819761  0.051614928            3 
 1885000   0.94444058   -4.8254572    1169.7224  0.051711864  0.051604401            3 
 1886000   0.94954231    -4.823418     1167.486  0.051585632  0.051593547            2 
 1887000   0.95393614   -4.8216767     1170.881  0.051708224  0.051582883            4 
 1888000   0.96154942   -4.8402486    1169.6181  0.051625094  0.051572164            2 
 1889000   0.96096411   -4.8289872    1167.2864    0.0514949  0.051561523            5 
 1890000   0.94715955   -4.8537577     1170.337  0.051602159  0.051550898            5 
 1891000   0.94479174   -4.8585799    1169.6277  0.051543613  0.051540095            3 
 1892000   0.94193988   -4.8727678    1168.0795  0.051448182  0.051529226            3 
 1893000   0.94898603   -4.8600707    1175.4699  0.051746343  0.051518337            5 
 1894000    0.9516657   -4.8326899    1173.1081  0.051615104  0.051507471            2 
 1895000   0.94136313   -4.8339199    1174.4757  0.051648007  0.051496758            4 
 1896000    0.9562094   -4.8373503     1177.852  0.051769164  0.051486047            9 
 1897000   0.94967383   -4.8205817    1178.8425  0.051785386  0.051475619            4 
 1898000   0.93257881   -4.8104029    1179.3499  0.051780377  0.051465163            5 
 1899000   0.95634943   -4.8206682    1176.9896  0.051649533  0.051454718            3 
 1900000   0.93241727   -4.8498571    1173.4124  0.051465454  0.051444025            7 
 1901000   0.95284346    -4.845994    1171.0289  0.051333899  0.051433472            5 
 1902000   0.95464077   -4.8247238    1178.4898  0.051633796   0.05142298            3 
 1903000   0.94726697   -4.8374511    1172.6627  0.051351492   0.05141244            4 
 1904000   0.95209106   -4.8347267    1177.7021  0.051545087  0.051401807            6 
 1905000   0.94492263   -4.8408751    1175.3221  0.051413915  0.051391292            3 
 1906000   0.95600001   -4.8453904    1177.5487  0.051484291  0.051380993            3 
 1907000   0.96608541   -4.8335941    1178.1141  0.051482001  0.051370258            8 
 1908000   0.96787171   -4.8237246    1181.9144  0.051620998   0.05135981            5 
 1909000     0.952697   -4.8442531     1177.949  0.051420856  0.051349407            2 
 1910000   0.95775492   -4.8245068    1178.4701   0.05141667   0.05133892            3 
 1911000   0.93399179   -4.8032395    1179.2482  0.051423694  0.051328347            6 
 1912000   0.95304891   -4.8290539    1181.5383  0.051496615  0.051317618            7 
 1913000   0.94081829   -4.8463007    1179.8459  0.051395973  0.051306992            3 
 1914000   0.98235512   -4.8237221    1179.0942   0.05133639  0.051296282            5 
 1915000    0.9545062   -4.8347562    1180.9553  0.051390571  0.051285703           10 
 1916000   0.92885681   -4.8266997    1181.8504  0.051402678  0.051275233            2 
 1917000    0.9593637   -4.8245335    1179.1618  0.051258988   0.05126468            5 
 1918000   0.93523872   -4.8313581    1179.7443  0.051257575  0.051254098            6 
 1919000    0.9392903   -4.8254545    1185.6451  0.051487105  0.051243411            3 
 1920000   0.94484291   -4.8303507    1180.3046  0.051228499  0.051232656            7 
 1921000   0.95212934   -4.8233667    1180.5492  0.051212439  0.051222031            3 
 1922000   0.92730825   -4.8480912    1184.7814  0.051369296  0.051211208            3 
 1923000   0.95183785   -4.8213857    1186.5544  0.051419415  0.051200692            2 
 1924000   0.93789349    -4.815592     1184.628  0.051309251  0.051190087            2 
 1925000   0.93645172   -4.8362927    1184.5492  0.051279185  0.051179515            7 
 1926000   0.95575401   -4.8116046    1189.7853  0.051479113  0.051169016            4 
 1927000   0.93283728   -4.8405461    1185.0114   0.05124595  0.051158696            4 
 1928000   0.92877192   -4.8195484    1185.8717  0.051256555  0.051148375            3 
 1929000   0.93359095   -4.8429764    1187.7426   0.05131081  0.051138275            5 
 1930000   0.94488094   -4.8502057    1185.2014  0.051174499  0.051127684            4 
 1931000   0.93909869   -4.8302756    1193.5905  0.051510033  0.051117481            1 
 1932000    0.9493284   -4.8360415    1188.0221  0.051243189  0.051106973            3 
 1933000   0.94221033   -4.8604425    1191.3004   0.05135801  0.051096328            4 
 1934000   0.92159784   -4.8570655    1189.8946  0.051270879  0.051085801            4 
 1935000   0.95757239   -4.8518475    1184.6073  0.051016679  0.051075191            6 
 1936000   0.92559142   -4.8543583    1189.0701  0.051182426  0.051064784            3 
 1937000   0.93891681   -4.8362061    1188.6902  0.051139657   0.05105432            4 
 1938000   0.93549483   -4.8449805    1191.0897  0.051216445  0.051043875            3 
 1939000   0.95807614   -4.8361846      1194.58  0.051340038  0.051033517            4 
 1940000   0.96383315   -4.8140632    1196.6724  0.051403455  0.051023223            2 
 1941000    0.9465828   -4.8368078    1194.5665  0.051286559  0.051012885            3 
 1942000   0.92853543   -4.8451439    1194.8381  0.051271803  0.051002418            5 
 1943000   0.94385567   -4.8337902    1192.9129  0.051162845   0.05099214            4 
 1944000   0.94651306   -4.8405665    1192.0472  0.051099419  0.050981951            6 
 1945000   0.93071615   -4.8260204    1194.3788  0.051173042  0.050971719            5 
 1946000   0.96894743   -4.8230238     1194.667  0.051159088  0.050961344            4 
 1947000    0.9416294   -4.8455697    1193.8764  0.051098971  0.050950821            2 
 1948000   0.94648584   -4.8088907    1196.5299  0.051186257  0.050940422            3 
 1949000   0.92900831   -4.8394576    1194.3965  0.051068773  0.050929852            7 
 1950000   0.95161667   -4.8283169    1193.1347  0.050988661  0.050919524            2 
 1951000   0.94564259   -4.8264563    1196.5337  0.051107712  0.050909121            4 
 1952000   0.95363171   -4.8251989    1197.9131  0.051140418    0.0508987            3 
 1953000   0.94852012   -4.8195293    1200.2982  0.051216002  0.050888158            6 
 1954000   0.96665198   -4.8380301      1196.87  0.051043586  0.050877934            2 
 1955000   0.94168477   -4.8569028    1196.9007  0.051018786  0.050867496            5 
 1956000   0.94474088   -4.8428744    1201.2781  0.051179197  0.050857151            3 
 1957000   0.94901743   -4.8629703    1198.7939   0.05104726   0.05084701            4 
 1958000    0.9466055   -4.8220295    1203.3042  0.051213151  0.050836656            2 
 1959000   0.91470606    -4.836016    1197.7545  0.050950931  0.050826484            4 
 1960000   0.94454409   -4.8598188    1198.3766  0.050951388  0.050815992           11 
 1961000    0.9221743   -4.8611388    1200.6858  0.051023534  0.050805482            4 
 1962000   0.93436231   -4.7977397    1202.2118  0.051062341   0.05079516            5 
 1963000   0.92170632    -4.854737    1200.1453  0.050948602  0.050784718            5 
 1964000    0.9342435   -4.8308822    1199.6236  0.050900526    0.0507744            3 
 1965000   0.91984891   -4.8590193     1199.258  0.050859117  0.050764125            4 
 1966000   0.93901355   -4.8684139    1196.9069  0.050733592    0.0507536            2 
 1967000   0.93621585   -4.8692212    1202.7612  0.050955821  0.050743084            2 
 1968000   0.95699422   -4.8363947    1203.2183  0.050949283  0.050732673            3 
 1969000   0.92255156   -4.8319472    1205.1977  0.051007184  0.050722142            4 
 1970000   0.94173291   -4.8662553    1202.9731  0.050887187  0.050711746            3 
 1971000   0.94220187    -4.853847    1205.8834  0.050984417  0.050701296            3 
 1972000   0.94518486    -4.874316    1200.5526  0.050733293  0.050690861            4 
 1973000   0.89965835   -4.8650609    1206.0254  0.050938732  0.050680216            5 
 1974000   0.92941084   -4.8540165    1204.7139   0.05085756   0.05066988            2 
 1975000    0.9314002   -4.8527097    1204.6665   0.05082981  0.050659491            5 
 1976000   0.93946265   -4.8522927    1207.5042   0.05092376  0.050649165            2 
 1977000   0.93856937   -4.8641066    1206.9613  0.050875119  0.050638948            5 
 1978000   0.92667675   -4.8582057    1211.2671  0.051030799  0.050628755            5 
 1979000   0.95104837    -4.858864    1207.3212  0.050838857  0.050618654            4 
 1980000   0.94248741   -4.8410378    1210.3486  0.050940598  0.050608349            7 
 1981000    0.9440291   -4.8395036    1212.4819  0.051004621  0.050597971            4 
 1982000   0.92377794   -4.8551444    1207.7028  0.050777951  0.050587583            3 
 1983000   0.94319849   -4.8712059    1208.2782  0.050776527  0.050577246            3 
 1984000   0.92762409   -4.8420984    1207.6539   0.05072471  0.050566813            4 
 1985000    0.9476125   -4.8760235    1205.8033  0.050621463  0.050556516            4 
 1986000   0.92824622    -4.855985     1210.981  0.050813233  0.050546203            3 
 1987000   0.94415353   -4.8349692    1209.1164   0.05070946   0.05053588            4 
 1988000   0.93365302   -4.8544143    1212.6393  0.050831626  0.050525584            4 
 1989000   0.94008751   -4.8382249    1213.4056  0.050838175  0.050515233            4 
 1990000   0.93122954   -4.8694425    1211.4868  0.050732278  0.050504941            5 
 1991000    0.9390075   -4.8594646    1209.0675  0.050605537  0.050494691            7 
 1992000   0.91981849   -4.8639105    1210.7054  0.050648652  0.050484485            4 
 1993000   0.94324372   -4.8889351    1211.0912  0.050639372  0.050474015            2 
 1994000   0.93746721    -4.853236    1210.3973  0.050584975  0.050463577            7 
 1995000   0.93654456   -4.9092878     1214.479  0.050730116  0.050453252            4 
 1996000   0.92288942   -4.8314438    1215.0687  0.050729321  0.050442896            2 
 1997000   0.92811285   -4.8633281    1210.0304  0.050493673  0.050432469            6 
 1998000   0.90011128   -4.8578119    1215.1074  0.050680155  0.050422201            3 
 1999000   0.91434831   -4.8391541    1218.2965   0.05078775  0.050412051            5 
 2000000   0.94532039   -4.8673778    1214.8842  0.050620177  0.050401704            4 
 2001000   0.93506898   -4.8478562    1214.5309  0.050580163    0.0503914            3 
 2002000   0.95832958   -4.8690096    1215.4235  0.050592055  0.050381153            8 
 2003000   0.94042891   -4.8410283    1216.9626  0.050630831  0.050370917            2 
 2004000   0.94631462   -4.8559029    1210.5998  0.050340977  0.050360645            4 
 2005000   0.93154841   -4.8747791    1214.1499  0.050463422  0.050350056            6 
 2006000   0.93791963   -4.8631185    1217.5327  0.050578792  0.050339764            4 
 2007000   0.93354485   -4.8610679    1214.9926  0.050448125  0.050329417            3 
 2008000   0.93013578   -4.8777803    1221.7118  0.050701852  0.050319051            4 
 2009000    0.9375294   -4.8271495    1217.3295  0.050494838  0.050308785            7 
 2010000    0.9281957   -4.9107458    1217.9524   0.05049554  0.050298393            3 
 2011000   0.90992953   -4.8382108    1221.6921  0.050625398   0.05028821            2 
 2012000   0.91176727   -4.8708621    1216.7932  0.050397332  0.050277968            3 
 2013000   0.93904458   -4.8610972    1221.0742   0.05054952  0.050267653            2 
 2014000   0.92911987   -4.8548063    1215.9356  0.050311801  0.050257335            5 
 2015000    0.9169511   -4.8832231    1221.5583  0.050519368  0.050247063            3 
 2016000   0.94445856    -4.888904    1216.4495   0.05028313  0.050236684            2 
 2017000   0.93235664   -4.8777118    1219.2668  0.050374601   0.05022643            5 
 2018000   0.92807996    -4.851895    1224.2359  0.050554835  0.050216194            3 
 2019000   0.91940159   -4.8984646    1221.4224  0.050413669  0.050206095            8 
 2020000   0.93928027   -4.8803055    1217.3237  0.050219627  0.050195687            3 
 2021000   0.91411975   -4.8685951     1223.554  0.050451672  0.050185216            2 
 2022000   0.93415654   -4.8386626    1221.2702  0.050332601  0.050174955            2 
 2023000   0.89460413   -4.8737853    1220.7057  0.050284465  0.050164647            3 
 2024000   0.93438969     -4.89415    1218.9021  0.050185364  0.050154185            4 
 2025000   0.91334347   -4.8907628    1220.1413  0.050211575  0.050143641            4 
 2026000   0.93292696   -4.8763803      1218.97  0.050138616  0.050133292            3 
 2027000   0.92763771   -4.8726798    1223.5384  0.050301695  0.050123033            2 
 2028000   0.95072436   -4.8909304    1223.1194  0.050259671  0.050112756            3 
 2029000   0.90859114   -4.8742961    1225.4007  0.050328599  0.050102398            4 
 2030000   0.93943388   -4.8951214    1222.8902  0.050200748  0.050092193            6 
 2031000    0.9211689   -4.8721686    1228.2541  0.050396116  0.050082032            6 
 2032000   0.93521639   -4.8487725    1230.2022  0.050451206  0.050072111            2 
 2033000   0.92870143   -4.8412798    1234.0477  0.050584016  0.050061919            5 
 2034000   0.92518923   -4.8578987    1230.7596  0.050424433  0.050051912            4 
 2035000   0.91343517   -4.8501512    1232.2112  0.050459098  0.050041842            5 
 2036000   0.91733624   -4.8746391    1229.3265  0.050316244  0.050031788            4 
 2037000   0.91447797   -4.8297326    1230.5555  0.050341821  0.050021856            5 
 2038000   0.91562761   -4.8674637    1231.7524  0.050366061  0.050011752            5 
 2039000   0.92115177   -4.8705424    1229.4571  0.050247552  0.050001673            6 
 2040000   0.95093318    -4.879096    1232.7481  0.050357355  0.049991588            4 
 2041000   0.90252125   -4.8665606    1229.5766  0.050203193  0.049981508            3 
 2042000   0.93796987   -4.8542073    1233.7168  0.050347568  0.049971432            6 
 2043000   0.92099767    -4.856924    1231.8128  0.050245261  0.049961514            3 
 2044000    0.9364569   -4.8552471    1234.5144   0.05033082  0.049951556            5 
 2045000   0.90675311   -4.8567304     1235.601  0.050350488  0.049941423            3 
 2046000   0.93925831   -4.8670003    1233.2467  0.050229991  0.049931231            6 
 2047000    0.9226614   -4.8690476    1234.1848  0.050243642  0.049921203            8 
 2048000   0.92884773   -4.8679715    1234.2945  0.050223573   0.04991129            4 
 2049000   0.90744408   -4.8543326    1237.6924  0.050337255  0.049901189            5 
 2050000   0.92816093    -4.872867    1235.6771  0.050230777  0.049891043            3 
 2051000   0.93307755   -4.8563431    1234.0913  0.050141855  0.049881022            5 
 2052000   0.93076801   -4.8811438    1235.9961  0.050194774  0.049870833            5 
 2053000   0.92419092   -4.9041089    1235.2871  0.050141546  0.049860791            4 
 2054000   0.91528809   -4.8768999    1234.7238  0.050094279  0.049850679            3 
 2055000   0.90460176    -4.856584    1238.4998  0.050223025  0.049840629            3 
 2056000   0.93002035   -4.8856294    1237.1903  0.050145521  0.049830455            3 
 2057000   0.91540206   -4.8930085    1235.6993  0.050060738  0.049820116            4 
 2058000   0.94168919    -4.876756       1232.4   0.04990282  0.049810022            6 
 2059000   0.89710692   -4.8807625    1236.9006  0.050060734  0.049799941            3 
 2060000   0.92144123   -4.8838269    1235.5583  0.049982131  0.049789819            5 
 2061000   0.92256318   -4.8711352    1236.3649  0.049990493  0.049779748            3 
 2062000   0.91002858   -4.8735354    1233.3024  0.049842485   0.04976969            5 
 2063000   0.92396657   -4.8671604     1238.706  0.050036595   0.04975952            2 
 2064000   0.91261203   -4.8799432    1237.8368  0.049977261  0.049749475            5 
 2065000   0.90869061   -4.8621826    1238.0268  0.049960728  0.049739288            6 
 2066000   0.92337387   -4.8579201    1245.4337  0.050235304  0.049729133            7 
 2067000   0.91848787   -4.8933085    1238.8083  0.049943891  0.049718971            5 
 2068000   0.92188743   -4.8773184    1239.2254  0.049936549  0.049708808            3 
 2069000   0.92380276   -4.8848987    1244.6025  0.050128987  0.049698667            3 
 2070000   0.92902661   -4.8987338     1243.959  0.050078863  0.049688411            2 
 2071000   0.90219549   -4.8942645    1240.4884  0.049915035  0.049678224            3 
 2072000   0.92660502   -4.8873115    1244.4843  0.050051653  0.049667955            3 
 2073000   0.90718546   -4.8767114    1244.8163  0.050040856  0.049657885           10 
 2074000    0.9138253   -4.8480192    1246.2014   0.05007238  0.049647929            5 
 2075000    0.9294595   -4.8772387    1242.0825   0.04988283  0.049637899            2 
 2076000   0.93019384   -4.8952535    1244.3188  0.049948573  0.049627721            3 
 2077000   0.91779697   -4.8834904    1243.5845  0.049895059  0.049617647            2 
 2078000   0.91055972   -4.8494295    1242.8486  0.049841538   0.04960768            2 
 2079000   0.91994122   -4.8744584    1245.8859  0.049939311  0.049597524            5 
 2080000   0.91627641   -4.8750454    1246.1064  0.049924135  0.049587405            4 
 2081000   0.91359972   -4.8956233    1242.0013  0.049735756  0.049577105            7 
 2082000   0.93107123   -4.9169879    1234.9697  0.049430423   0.04956673            4 
 2083000   0.93116119   -4.9101993     1238.155  0.049534124  0.049556252            4 
 2084000   0.90957497   -4.8905587    1241.5952  0.049647919  0.049545734           10 
 2085000   0.91341334   -4.8778942    1246.8137  0.049832683  0.049535225            6 
 2086000   0.92220855   -4.8850432    1242.0811  0.049619729  0.049524776            8 
 2087000   0.92508332   -4.8566569    1248.3615  0.049846729  0.049514409            5 
 2088000   0.93422018   -4.8859497    1244.5185   0.04966948  0.049504001            5 
 2089000   0.90226111   -4.9159949    1241.5613  0.049527737  0.049493385            4 
 2090000   0.90613153   -4.9105039    1245.3706  0.049655926  0.049482585            5 
 2091000   0.90860033   -4.9031159     1243.885  0.049572973  0.049471987            4 
 2092000    0.9088905   -4.8953224    1245.2304  0.049602868   0.04946148            5 
 2093000   0.90972781   -4.8702886    1248.8431  0.049723007  0.049451087            3 
 2094000   0.91544947   -4.8963806    1246.0386  0.049587655  0.049440627            4 
 2095000   0.91538155   -4.8601602    1246.5219   0.04958321  0.049430325            3 
 2096000   0.91254211    -4.896123    1245.0858  0.049502458   0.04941989            8 
 2097000   0.89506893   -4.8772311    1251.8728  0.049748562  0.049409241            5 
 2098000    0.9036868   -4.8826349    1246.7208  0.049520211  0.049398583            4 
 2099000   0.89516878   -4.8667678     1248.263  0.049557845  0.049388015            6 
 2100000   0.90887139   -4.9212076    1247.0522  0.049486199  0.049377418            4 
 2101000   0.90603847    -4.902826    1245.1224  0.049386102  0.049366698            6 
 2102000   0.93948603   -4.8700037    1247.2596  0.049447337  0.049356151            3 
 2103000   0.92105725    -4.896022    1247.8315  0.049446487   0.04934551            4 
 2104000   0.92596238   -4.8659083    1251.5828  0.049571561  0.049334944            3 
 2105000   0.92814888   -4.8423156    1249.0027  0.049445872  0.049324341            5 
 2106000   0.91091302   -4.9076497    1241.4448  0.049123331   0.04931367            5 
 2107000   0.91118056    -4.892735    1247.1042  0.049323849  0.049302959            7 
 2108000     0.900332   -4.9392874    1245.8072  0.049249178  0.049292033            5 
 2109000    0.9128369   -4.8625286     1250.301  0.049403389  0.049281089            5 
 2110000   0.91299786   -4.8941508    1245.5632  0.049192859  0.049270242            5 
 2111000   0.92399446   -4.9130812    1246.1121  0.049191226  0.049259268            3 
 2112000   0.92594199    -4.913587    1247.2497  0.049212819  0.049248426            8 
 2113000   0.90066747   -4.8837483    1250.0332  0.049299307  0.049237467            5 
 2114000   0.90508671   -4.9052808    1244.5491  0.049059803  0.049226498            4 
 2115000   0.91060566   -4.8762799    1250.4642  0.049269668  0.049215721            6 
 2116000   0.90452066   -4.9087602     1249.834  0.049221565  0.049205008            4 
 2117000   0.91461363   -4.8941561    1248.8913  0.049161208   0.04919415            5 
 2118000   0.91334753   -4.8952556    1252.2272  0.049269247  0.049183302            7 
 2119000   0.89113073   -4.9221428    1256.4988  0.049413985  0.049172642            4 
 2120000   0.90912417   -4.9164464    1251.8196  0.049206744  0.049162011            2 
 2121000   0.88767512   -4.8866912    1251.7954  0.049182595  0.049151249            7 
 2122000   0.90419073   -4.8985525    1250.8037   0.04912047  0.049140361            4 
 2123000   0.89822532   -4.9066376    1252.0392   0.04914583  0.049129595            5 
 2124000   0.90410909   -4.9065435    1250.3513  0.049056469  0.049118797            5 
 2125000    0.9160514   -4.8876757    1261.4958  0.049470422  0.049108072            4 
 2126000   0.90068032   -4.9245473    1249.1559  0.048963463  0.049097332            8 
 2127000    0.9257928   -4.8840985    1258.1287  0.049291988  0.049086638            5 
 2128000   0.90965879   -4.8745918    1255.7535  0.049175812  0.049076072            2 
 2129000   0.91312184    -4.894227    1256.9803  0.049200731  0.049065369            4 
 2130000   0.93034641   -4.8755866    1255.0836  0.049103426  0.049054623            3 
 2131000   0.91841059   -4.9220164    1253.6874  0.049025785  0.049044036            5 
 2132000   0.90349003   -4.9135298    1258.6571  0.049197042  0.049033252            4 
 2133000   0.89953879   -4.8972744    1254.5079  0.049011872  0.049022557            5 
 2134000   0.90924965   -4.8697229     1260.968  0.049241175  0.049011917            4 
 2135000   0.92417353   -4.9199177    1255.1188  0.048989806  0.049001136            7 
 2136000   0.91268654   -4.9182516    1258.1157  0.049083788  0.048990434            5 
 2137000   0.92096113   -4.9027639    1256.4642   0.04899642  0.048979718            4 
 2138000   0.90038276   -4.9146978    1258.7708  0.049063409   0.04896901            3 
 2139000   0.91282094   -4.8938643    1260.1271   0.04909331  0.048958272            2 
 2140000   0.89511939    -4.877863    1264.5967   0.04924442   0.04894762            4 
 2141000   0.91795532   -4.8956877    1262.0595  0.049122667  0.048936882            2 
 2142000   0.91042754   -4.9296304    1258.9918  0.048980383  0.048926058            3 
 2143000   0.90573939   -4.9160637    1262.3208  0.049086981  0.048915414            5 
 2144000   0.92907835   -4.8919239     1261.494  0.049031948  0.048904931            8 
 2145000   0.90676909   -4.9294323      1256.98   0.04883372  0.048894247            5 
 2146000   0.91326955   -4.9025828     1260.913   0.04896369  0.048883714            4 
 2147000   0.88427733   -4.9334735    1259.7178  0.048894495  0.048873059            3 
 2148000   0.92033207   -4.8907957    1262.3341  0.048973235  0.048862403            5 
 2149000   0.90025094   -4.8758411    1265.2234  0.049062485  0.048851732            3 
 2150000   0.92375583   -4.9074069    1263.6517  0.048978749  0.048841179            4 
 2151000   0.92292478   -4.9024145    1265.2468  0.049017774  0.048830603            4 
 2152000   0.93103636   -4.8835013     1262.218  0.048877709  0.048820052            3 
 2153000   0.92824435   -4.9085046    1267.0844  0.049043367  0.048809647            5 
 2154000   0.91903427   -4.9455422    1262.6349  0.048848457  0.048799082            3 
 2155000   0.89565796    -4.924813    1266.8571   0.04898906  0.048788595            3 
 2156000   0.92102896    -4.919228    1265.2517  0.048904287   0.04877812            3 
 2157000   0.90992849   -4.8902651    1265.3298  0.048884633  0.048767653            3 
 2158000   0.91576513   -4.8879685    1270.6516  0.049067485  0.048757303            7 
 2159000   0.91794028    -4.934684    1265.3353   0.04883956  0.048746882            6 
 2160000   0.89954872   -4.9245154      1268.79  0.048950233  0.048736207            7 
 2161000    0.9018235   -4.9039969    1266.4547  0.048837527  0.048725571            5 
 2162000      0.90175     -4.94763    1263.7428  0.048710405  0.048714928            8 
 2163000   0.91147494   -4.8834596    1268.8946  0.048886371  0.048704434           12 
 2164000    0.9188634   -4.9327493    1264.9489  0.048711833   0.04869385            4 
 2165000   0.91568435   -4.9386126    1264.3525  0.048666376  0.048683256            5 
 2166000   0.90500149   -4.8745063    1268.7846  0.048814429  0.048672709            4 
 2167000   0.92037106   -4.9357855    1265.8208  0.048677928  0.048662202            4 
 2168000   0.91313462   -4.9149169    1271.2745  0.048865103  0.048651649            3 
 2169000   0.90677601    -4.885774    1269.1296  0.048760168  0.048641188            3 
 2170000   0.91243847    -4.871259    1270.2035  0.048778935  0.048630645            2 
 2171000   0.91623955   -4.8962556    1270.4381  0.048765471   0.04862027            5 
 2172000   0.88949772   -4.9257211    1269.6224  0.048711727  0.048609757            3 
 2173000   0.91579325   -4.9078016    1267.8251  0.048620382  0.048599089            8 
 2174000   0.91877932    -4.904868       1271.3  0.048731216  0.048588491            3 
 2175000   0.89986264   -4.9052749    1269.5458  0.048641602  0.048577858            6 
 2176000   0.90075695   -4.8821819     1272.393  0.048728285  0.048567118            6 
 2177000   0.91041507   -4.8765348    1274.6126  0.048790868   0.04855647            3 
 2178000   0.91102324   -4.9184425     1268.239    0.0485246  0.048545587            5 
 2179000   0.90544436   -4.8955398    1273.6431  0.048709007  0.048534679            3 
 2180000   0.89051324   -4.9088761    1268.7173  0.048498367  0.048524077            3 
 2181000   0.90019582    -4.925714    1269.3631  0.048500805  0.048513406            3 
 2182000   0.92223259   -4.9050766    1271.7621  0.048570199  0.048502696            6 
 2183000    0.9173172   -4.9121739    1274.8295  0.048665044  0.048492156            5 
 2184000   0.89965817   -4.9211264    1275.0685   0.04865188  0.048481616            4 
 2185000   0.89661986    -4.910074     1273.638  0.048575059  0.048471025            5 
 2186000     0.916035   -4.9037049    1274.2987  0.048578022  0.048460393            2 
 2187000   0.90125704   -4.9356529    1273.1766  0.048513055  0.048449757            3 
 2188000   0.89424546   -4.9367241    1272.4956  0.048464944  0.048439103            5 
 2189000   0.89207972   -4.9226129    1272.5129  0.048443465  0.048428234            4 
 2190000   0.89452365   -4.8531348    1281.1569  0.048750263  0.048417606            4 
 2191000   0.90291219   -4.9098241    1275.1323   0.04849887  0.048407076            3 
 2192000   0.88473093   -4.8924485     1275.726  0.048499316  0.048396334            6 
 2193000   0.90343136   -4.9340765    1274.8204  0.048442789  0.048385531            4 
 2194000   0.88186342   -4.9167102    1280.0173  0.048618097  0.048374915            4 
 2195000   0.88782696    -4.936087    1273.8272  0.048360943  0.048364133            4 
 2196000   0.89353998   -4.9186906    1270.8299  0.048225177  0.048353275            7 
 2197000   0.89292715   -4.8825771    1277.1363  0.048442433  0.048342451            4 
 2198000   0.91338626   -4.8953882    1277.6245  0.048438902  0.048331713            3 
 2199000   0.90240709   -4.9165245    1275.5569  0.048338522  0.048320992            4 
 2200000   0.90011941    -4.927321    1275.5178  0.048315069  0.048310204            3 
 2201000   0.89719336    -4.919985     1275.507  0.048292709  0.048299401            8 
 2202000   0.89214258   -4.9211235     1277.967  0.048363873  0.048288522           16 
 2203000   0.91258649   -4.9305898    1271.2818  0.048089038  0.048277641            4 
 2204000   0.87025614   -4.8889274    1280.3643   0.04841063  0.048266842            5 
 2205000   0.89499797   -4.8796539    1279.2492  0.048346529  0.048256066            4 
 2206000   0.90443983   -4.9247346    1275.2736  0.048174435  0.048245375            8 
 2207000   0.91368861   -4.9237089    1278.0237  0.048256447  0.048234388            2 
 2208000   0.88877915   -4.9334797    1274.1933  0.048090027  0.048223325            4 
 2209000   0.90653169    -4.941353     1279.728  0.048277049  0.048212493            6 
 2210000   0.90240458   -4.9339573    1281.2463  0.048312453  0.048201556            4 
 2211000   0.90532616   -4.9601389    1276.4649  0.048110392  0.048190657            3 
 2212000   0.89914783   -4.9243338    1280.1521   0.04822755  0.048179744            3 
 2213000   0.88778568   -4.9068734    1286.5915  0.048448242  0.048168886            3 
 2214000   0.88198552   -4.9224262     1281.311  0.048227606  0.048158213            6 
 2215000   0.88892094   -4.9903684    1277.9672  0.048080032  0.048147253            4 
 2216000   0.89097047   -4.9085373    1284.2499  0.048294597  0.048136458            5 
 2217000   0.90715294   -4.9428028    1287.9505  0.048411912  0.048125804            5 
 2218000   0.88974271   -4.9546772    1280.0853  0.048094577  0.048115168            5 
 2219000   0.90639901   -4.9434653    1282.2739  0.048155095  0.048104594            8 
 2220000   0.90522581   -4.9332054     1286.775  0.048302363  0.048094076            4 
 2221000   0.89854372   -4.9502284    1285.2664  0.048224013  0.048083417            3 
 2222000   0.89888925   -4.9374672    1283.4343  0.048133598  0.048072869            3 
 2223000   0.91161437   -4.9285529    1290.3966  0.048372941  0.048062415            5 
 2224000   0.90029617   -4.9267412    1282.9698   0.04807291  0.048051818            4 
 2225000   0.88470385   -4.9496902    1282.0909  0.048018387  0.048041051            4 
 2226000   0.90294501   -4.9582207    1282.7887  0.048022937  0.048030293            4 
 2227000   0.91400926   -4.9326637    1286.0215  0.048122343  0.048019457            2 
 2228000   0.87826177   -4.9233653     1288.437  0.048191089  0.048008831            2 
 2229000   0.89540313   -4.9375479    1288.2823  0.048163685  0.047998335            3 
 2230000   0.91440973   -4.9208678    1289.9239  0.048203434  0.047987644            4 
 2231000   0.91574434   -4.9657392    1288.1067   0.04811395  0.047976952            3 
 2232000   0.90998485   -4.9126078    1286.0321  0.048014938  0.047966277            4 
 2233000   0.89051755   -4.9168747    1290.4821  0.048159506  0.047955674            7 
 2234000   0.89853274   -4.9261809      1286.25  0.047980082  0.047945043            3 
 2235000   0.90786848   -4.9382824    1290.1107  0.048102561  0.047934383            3 
 2236000   0.88482293   -4.9442449    1287.5799  0.047986727  0.047923742            4 
 2237000   0.87425028   -4.9142778    1293.8029    0.0481971  0.047913097            5 
 2238000   0.90775387   -4.9089574    1291.7572   0.04809939  0.047902292            4 
 2239000   0.87553514   -4.9380182    1287.0892   0.04790417  0.047891501            3 
 2240000   0.87895593    -4.913546     1286.381  0.047856434  0.047880814            7 
 2241000   0.89071231   -4.9184014    1288.8227  0.047925878  0.047869931            9 
 2242000   0.87251444   -4.9234696    1291.7168  0.048012073  0.047859161            4 
 2243000   0.88969929   -4.9399674    1289.4791   0.04790753  0.047848347            6 
 2244000   0.89480374   -4.9637728    1288.6011  0.047853577  0.047837479            4 
 2245000    0.9103697   -4.9339389     1288.764  0.047838306  0.047826652            5 
 2246000   0.90608261   -4.9370987    1289.6966  0.047851611  0.047815817            3 
 2247000   0.90413571   -4.9275994    1289.2741  0.047814646  0.047804867            5 
 2248000   0.87384221   -4.9752858    1284.5591   0.04761859  0.047793846            7 
 2249000   0.88431807    -4.944091    1287.4435  0.047704295  0.047782829            6 
 2250000   0.89540594   -4.9190497    1292.3575  0.047865093  0.047771918            7 
 2251000   0.89132256   -4.9393031     1291.967  0.047829371  0.047761058            6 
 2252000   0.89777235   -4.9249674    1290.8179  0.047765614  0.047750131            7 
 2253000   0.88427675   -4.9232371     1291.591  0.047773006  0.047739306            6 
 2254000   0.87312863   -4.9547759    1290.5889  0.047714761  0.047728272            4 
 2255000   0.89453238   -4.9696489    1288.8187  0.047628187  0.047717305            4 
 2256000    0.8915859   -4.9764972    1292.8018  0.047754205  0.047706431            4 
 2257000   0.89352889   -4.9337153    1296.9773  0.047887212  0.047695698            5 
 2258000   0.89907185   -4.9116697    1299.0605  0.047942888  0.047685068            5 
 2259000   0.89461943   -4.9346811    1293.0137  0.047698602  0.047674449            7 
 2260000   0.88234221   -4.9516511    1295.2527  0.047760054   0.04766373            3 
 2261000   0.86311745   -4.9300084    1297.2565  0.047812786  0.047653116            5 
 2262000    0.8914581   -4.9306662    1296.9369  0.047779872  0.047642371            4 
 2263000   0.88573471   -4.9471195    1298.5395  0.047817776  0.047631881            5 
 2264000   0.87613315   -4.9257037    1300.5992  0.047872467  0.047621525            5 
 2265000   0.87559843   -4.9441062    1292.2406  0.047543804  0.047610969            3 
 2266000   0.90619153   -4.9502036    1293.7133  0.047576982  0.047600389            6 
 2267000   0.88781778   -4.9564383    1299.2972  0.047761256   0.04758987            2 
 2268000   0.89272368   -4.9465628    1302.0106  0.047839897   0.04757945            9 
 2269000   0.87764593   -4.9564615    1299.6218  0.047731077  0.047568884            5 
 2270000    0.8895343   -4.9241917    1298.3489  0.047663322   0.04755846            4 
 2271000   0.87662158   -4.9395453     1300.729   0.04772967  0.047548052            8 
 2272000   0.87483422   -4.9526791    1295.0922  0.047501915  0.047537727            3 
 2273000   0.89055311     -4.94036    1304.2635  0.047817258  0.047527266            4 
 2274000   0.88096992   -4.9549196    1301.1681  0.047682794  0.047516767            4 
 2275000   0.89391944   -4.9789168    1301.7475  0.047683058  0.047506347            9 
 2276000   0.86905395   -4.9622696     1304.207   0.04775216  0.047495761            5 
 2277000   0.87364098   -4.9371322     1307.004  0.047833554  0.047485345            6 
 2278000   0.85948387   -4.9568994    1304.9782  0.047738448   0.04747496           10 
 2279000   0.91013704   -4.9384688    1297.1587  0.047431574  0.047464375            4 
 2280000   0.87104308   -4.9634245    1300.8448  0.047545495  0.047453873            3 
 2281000    0.8890058   -4.9473605    1306.1725  0.047719295  0.047443297            5 
 2282000   0.88219537   -4.9534472    1309.2719  0.047811566    0.0474329            8 
 2283000   0.87825452    -4.916994    1308.7346  0.047771009  0.047422639            6 
 2284000   0.88020197   -4.9476443    1308.0311  0.047724429  0.047412457            2 
 2285000   0.88381082   -4.9515328    1306.9993  0.047665912  0.047401897            6 
 2286000   0.87947299   -4.9264571    1308.9782    0.0477172  0.047391719            3 
 2287000   0.87574433   -4.9375847    1305.9629  0.047586463  0.047381276            6 
 2288000   0.88045369   -4.9456158    1303.0603  0.047459947  0.047370871            6 
 2289000   0.89353901   -4.9604418      1303.22  0.047445025   0.04736029            4 
 2290000   0.88660451    -4.958571    1309.5085  0.047653146   0.04734997            4 
 2291000   0.88778337   -4.9519559    1311.3242  0.047698391  0.047339638            3 
 2292000   0.88995527   -4.9557958     1305.339  0.047459971  0.047329273            4 
 2293000   0.90072001   -4.9767801     1302.894  0.047350415  0.047318921            4 
 2294000   0.89868693   -4.9729184    1306.9321  0.047476465  0.047308525            2 
 2295000   0.90091311   -4.9569419    1306.5251     0.047441  0.047298166            8 
 2296000   0.88527202    -4.945009    1310.4033  0.047561096  0.047287766            4 
 2297000   0.90096476   -4.9641198    1307.8447  0.047447567   0.04727737            4 
 2298000   0.87192276   -4.9593459    1311.6519  0.047564979  0.047267006            6 
 2299000   0.86682318   -4.9509105    1311.2058  0.047528121  0.047256787            6 
 2300000   0.89526912   -4.9766009    1306.6651  0.047342939  0.047246477            5 
 2301000   0.89414417   -4.9903049    1303.9756  0.047224959  0.047235929            4 
 2302000   0.89549243   -4.9634565    1307.6991  0.047339237  0.047225505            4 
 2303000   0.89243108   -4.9469524    1309.3998  0.047380223  0.047215053            3 
 2304000   0.87057298   -4.9559518    1312.5502  0.047473605  0.047204771           11 
 2305000    0.8792107   -4.9591687    1311.3327  0.047408991  0.047194632            2 
 2306000   0.89757473   -4.9439508    1312.7532  0.047439767  0.047184079            7 
 2307000   0.88317296   -4.9444192    1312.9277  0.047425505  0.047173729            6 
 2308000   0.88005921   -4.9529256     1308.943  0.047261085  0.047163347            4 
 2309000   0.87280755   -4.9575401    1311.7439  0.047341704  0.047152882            4 
 2310000   0.88260764   -4.9797723    1308.5244  0.047205066  0.047142458            4 
 2311000   0.87330051   -4.9458367    1313.7587  0.047373385  0.047132102            4 
 2312000   0.89019413   -4.9296266     1315.295  0.047408269    0.0471218            6 
 2313000   0.86592715   -4.9561165    1314.7339  0.047367558  0.047111376            4 
 2314000   0.88709443   -4.9534957     1314.465  0.047337402  0.047101153            4 
 2315000   0.89033272   -4.9541132    1310.6705  0.047180363  0.047091029            3 
 2316000   0.87564753   -4.9781672    1310.6592  0.047159584  0.047080563            6 
 2317000   0.87724251   -4.9498105    1314.6129   0.04728143  0.047070277            6 
 2318000   0.90037586   -4.9773566    1316.7516  0.047337922  0.047059953            6 
 2319000   0.89788847   -4.9339068    1320.6779    0.0474586   0.04704984            2 
 2320000   0.88546945   -4.9746327    1320.2476  0.047422685  0.047039744           14 
 2321000   0.87278211     -4.94986    1316.8349  0.047279724  0.047029641            5 
 2322000   0.86985317   -4.9312394    1321.2692  0.047418506  0.047019501            5 
 2323000   0.88466003   -4.9723129      1316.22  0.047216962  0.047009393            5 
 2324000   0.86418657   -4.9718303    1315.4744  0.047169908   0.04699938            2 
 2325000   0.88238501   -4.9453103    1318.9013  0.047272446  0.046989089            3 
 2326000   0.86609655   -4.9561292    1317.3368  0.047196074  0.046978971            8 
 2327000   0.87287616   -4.9286502    1329.9435  0.047627257  0.046968993            8 
 2328000   0.87402909   -4.9506835    1322.0185  0.047323115  0.046959029            4 
 2329000   0.87036018    -4.969465    1319.4956  0.047212522  0.046948921            5 
 2330000   0.88638026   -4.9906461    1321.3689  0.047259261  0.046938835            2 
 2331000   0.88094369   -4.9642785     1325.716  0.047394394  0.046928721            7 
 2332000   0.86165152    -4.973049    1319.8714  0.047165214  0.046918702            5 
 2333000   0.89415064   -4.9753856    1318.7597  0.047105291  0.046908639            4 
 2334000    0.8593435    -4.953248    1326.8102  0.047372545  0.046898586            6 
 2335000   0.88305564   -4.9474624    1320.0229  0.047110025  0.046888545            4 
 2336000   0.85923887   -4.9565686    1321.8838  0.047156244  0.046878503            3 
 2337000   0.88705555   -4.9522472    1326.5581  0.047302741  0.046868617            3 
 2338000   0.87434047    -4.972887    1322.0379  0.047121397  0.046858628            4 
 2339000   0.88459824   -4.9861173    1320.8565  0.047059161  0.046848525            4 
 2340000   0.87047315   -4.9660406    1329.8684  0.047359986  0.046838403            4 
 2341000   0.87317424   -4.9753872    1322.3772  0.047073089  0.046828412            5 
 2342000   0.87121541   -4.9979209    1322.2199  0.047047392   0.04681823            6 
 2343000     0.875828   -4.9968681    1324.4274  0.047105826  0.046808062            4 
 2344000   0.87905848   -4.9648155    1319.2541  0.046901809  0.046797757            4 
 2345000   0.88218883   -4.9575223    1326.4551  0.047137707  0.046787499            7 
 2346000   0.87451472   -4.9684926    1327.2696  0.047146546  0.046777282            3 
 2347000   0.87731271    -4.959182    1326.6075  0.047102951  0.046767107            3 
 2348000   0.87108218   -4.9890339    1318.9331  0.046810517  0.046756857            4 
 2349000   0.89114779   -4.9924977    1324.6679  0.046994036  0.046746667            4 
 2350000   0.85389997   -4.9872199    1326.5673  0.047041394  0.046736401            2 
 2351000   0.88184571   -4.9832807    1326.7858  0.047029129  0.046726284            3 
 2352000   0.86937866   -4.9495008    1325.8438  0.046975757  0.046716253            4 
 2353000   0.87141875   -4.9486264    1330.9725  0.047137429  0.046706307           14 
 2354000   0.88724696   -4.9582698    1329.6416  0.047070292  0.046696301            8 
 2355000   0.86863128   -4.9879272    1326.0837  0.046924405   0.04668633            4 
 2356000   0.87586994    -4.983718    1327.2967  0.046947391  0.046676176            4 
 2357000   0.86574974   -4.9477789    1331.2761  0.047068168  0.046666094            9 
 2358000   0.85504011   -4.9893839    1329.5196  0.046986133  0.046656188            8 
 2359000   0.88614436   -4.9819175    1330.6145  0.047004894  0.046646331            4 
 2360000   0.87705923   -4.9902451     1330.528   0.04698192  0.046636306            3 
 2361000   0.87084632   -4.9677841    1331.3554  0.046991225  0.046626349           10 
 2362000   0.85940991   -4.9857024     1329.872  0.046918996  0.046616292            7 
 2363000     0.874385   -4.9875084    1329.6876  0.046892636  0.046606248            2 
 2364000   0.88933072   -4.9739399    1329.1583  0.046854143  0.046596155            8 
 2365000    0.8739658   -4.9852126    1326.5181    0.0467413  0.046586078            4 
 2366000   0.86000428   -4.9915484    1330.8835  0.046875299  0.046576121            9 
 2367000   0.85940911   -4.9708182    1335.1793  0.047006734   0.04656607            5 
 2368000   0.87216683   -4.9774073    1328.6195  0.046756034  0.046556104            4 
 2369000   0.88622508   -4.9664017    1330.9247  0.046817389  0.046546094            3 
 2370000   0.85579734   -4.9749964    1331.7453  0.046826487  0.046536224            4 
 2371000   0.88345663   -4.9896106    1332.2597  0.046824818  0.046526343            4 
 2372000   0.88427668   -4.9360513    1330.2232  0.046733529  0.046516458            4 
 2373000   0.87871935   -5.0152651    1331.9305  0.046773791   0.04650645            5 
 2374000   0.86417846   -4.9982026    1332.5109  0.046774465  0.046496477            7 
 2375000   0.86119928   -4.9877598    1332.4634  0.046753102  0.046486267            4 
 2376000   0.86529944   -4.9683359    1334.9627  0.046821083    0.0464763            2 
 2377000   0.85080911   -4.9314998      1339.93  0.046975529  0.046466266            3 
 2378000   0.86622254   -4.9461917    1341.0756   0.04699592  0.046456445           10 
 2379000   0.87980372   -4.9639216    1336.6068   0.04681963  0.046446606            4 
 2380000   0.88041188   -4.9928491    1335.3815  0.046757055  0.046436608            4 
 2381000   0.87608166   -4.9704258    1334.0577  0.046691086  0.046426633            4 
 2382000   0.87812158    -5.000487    1331.5397  0.046583392   0.04641652            7 
 2383000    0.8773478   -4.9873274    1335.6422  0.046707308  0.046406438            8 
 2384000   0.90468415   -4.9948624    1336.7533  0.046726556  0.046396375            5 
 2385000   0.87204982   -4.9874395    1335.5176  0.046663788  0.046386249            5 
 2386000   0.86700646   -4.9791713    1334.6596  0.046614264  0.046376143            5 
 2387000   0.86189528   -4.9812677    1336.4767  0.046658171  0.046366075            5 
 2388000   0.86984266    -4.978433    1337.6735  0.046680398  0.046355905            4 
 2389000   0.87289883   -4.9763033     1332.197  0.046469826  0.046345528            5 
 2390000   0.87929221    -4.978258    1338.6452  0.046675215  0.046335376            3 
 2391000   0.86225104   -5.0171763     1335.328  0.046540082  0.046325059            8 
 2392000   0.86873149   -4.9745225    1331.9976  0.046404599   0.04631474            8 
 2393000   0.86918566    -4.973449    1336.6928  0.046548712  0.046304382            4 
 2394000   0.87471983    -4.971953    1333.9112  0.046432441  0.046294105            4 
 2395000   0.89757619   -4.9736138    1336.3325  0.046497302   0.04628381            4 
 2396000   0.86709514   -4.9644038    1335.3351  0.046443208  0.046273367            6 
 2397000   0.86751945   -4.9710541    1338.3459  0.046528505  0.046263097            1 
 2398000   0.87299029   -4.9805236    1333.9334  0.046355763  0.046252729            6 
 2399000   0.86663919   -4.9768589    1335.6972  0.046397708  0.046242235            3 
 2400000    0.8531585   -5.0057686    1337.9851  0.046457816  0.046231861            4 
 2401000    0.8564845   -4.9866695    1335.8793   0.04636538  0.046221423            7 
 2402000   0.87109349   -4.9970563    1335.3078  0.046326248  0.046211066            5 
 2403000   0.87174177   -4.9856731    1332.8256  0.046220891  0.046200623            3 
 2404000   0.86882247   -4.9884656     1337.206  0.046353507   0.04619019            3 
 2405000   0.87639694   -4.9760582    1334.5519  0.046242269  0.046179763            4 
 2406000   0.85577402   -4.9895578    1339.0503  0.046378855  0.046169424            5 
 2407000   0.86143985   -4.9891928    1340.4619  0.046408458  0.046159044            6 
 2408000   0.86413061   -4.9959549     1339.774   0.04636538  0.046148469            7 
 2409000    0.8589041   -4.9792954    1341.3818  0.046401752  0.046138082           10 
 2410000    0.8737376   -4.9961413     1336.621  0.046217877  0.046127691            4 
 2411000   0.87962005   -4.9922021    1336.5412  0.046195949  0.046117311            4 
 2412000   0.85207714   -5.0024978    1335.1019   0.04612707   0.04610672            3 
 2413000   0.85776318   -4.9961264    1337.0186  0.046174146  0.046096228            5 
 2414000   0.86238064    -4.967164    1342.7379  0.046352454  0.046085722            4 
 2415000   0.87651673   -5.0039731    1338.8913  0.046200528  0.046075147            3 
 2416000   0.87434641   -4.9751975    1339.8349  0.046213951  0.046064569            3 
 2417000   0.87777627   -5.0001274    1338.8075   0.04615941  0.046054248            8 
 2418000   0.86134706    -4.989853    1343.3738   0.04629769   0.04604376            7 
 2419000   0.88086625   -4.9878014    1343.9574  0.046298657  0.046033316            4 
 2420000   0.87053827   -5.0273958    1338.8453  0.046103487  0.046022817            3 
 2421000   0.87303886   -4.9782938    1341.6328  0.046180392  0.046012274            5 
 2422000   0.87102545    -4.994181    1338.1074  0.046040028  0.046001718            6 
 2423000   0.84809555   -5.0072137    1341.8742  0.046150579  0.045991131            4 
 2424000   0.85205995   -4.9733479    1344.4961  0.046221677  0.045980516            4 
 2425000   0.86699944   -5.0023836    1338.2466  0.045987855   0.04596995            2 
 2426000   0.86689594   -4.9811749    1345.0254  0.046201752  0.045959341            8 
 2427000   0.87347224   -4.9974246    1339.9373  0.046008009   0.04594875            3 
 2428000   0.87145082   -4.9818996    1348.3691  0.046278456    0.0459383            3 
 2429000   0.86389458   -5.0054665    1343.1723  0.046081114  0.045927735            6 
 2430000   0.87581341   -4.9786205    1343.0217  0.046056986  0.045917257            4 
 2431000   0.85461497   -4.9934082    1344.2555  0.046080334  0.045906802            3 
 2432000   0.85552267     -4.98883    1342.5714  0.046003681  0.045896243            5 
 2433000   0.86641057   -5.0073279    1344.2143  0.046041043  0.045885716            6 
 2434000   0.88299721   -4.9860781    1344.4434   0.04602997  0.045875195            5 
 2435000   0.86470612     -4.98334    1341.9841  0.045926904  0.045864761            2 
 2436000   0.85711562   -5.0092871    1342.7433   0.04593402   0.04585438            6 
 2437000   0.86356268   -5.0050915    1343.0427  0.045925409  0.045843907            8 
 2438000   0.86280155   -4.9785013    1342.5264  0.045888925  0.045833371            6 
 2439000    0.8531804   -4.9813657    1344.3535  0.045932537  0.045822869            4 
 2440000   0.84913957     -5.00897    1342.1456  0.045838306  0.045812292            7 
 2441000   0.86799045    -5.031841    1340.6102  0.045767111  0.045801637            5 
 2442000   0.86766125   -4.9902026    1349.9488  0.046067048  0.045791047            5 
 2443000   0.84653383   -4.9899855    1346.2723  0.045922782  0.045780506            3 
 2444000    0.8566434   -4.9965413    1346.3304  0.045905973  0.045769915            7 
 2445000   0.84405137   -5.0106708     1351.164  0.046051943  0.045759468            4 
 2446000    0.8557422   -5.0025508    1344.1188  0.045793091  0.045748931            4 
 2447000   0.84093909   -4.9890308    1350.1993  0.045981451  0.045738603            5 
 2448000     0.875426   -4.9938846    1349.3967  0.045935345  0.045728134            3 
 2449000   0.85591878   -5.0150155    1343.1656  0.045704559  0.045717696            5 
 2450000   0.84939947   -5.0253897    1344.7678  0.045740401  0.045707156            5 
 2451000   0.85420734   -5.0195437    1348.3267   0.04584274  0.045696582            5 
 2452000   0.86503624   -5.0126356    1348.9247  0.045844368  0.045686105            8 
 2453000   0.84964558   -5.0353849    1343.6821  0.045647577  0.045675379            5 
 2454000   0.85347309   -5.0178244     1346.097  0.045710981   0.04566473            7 
 2455000   0.87196393   -5.0164405    1346.2492   0.04569753  0.045654049            5 
 2456000   0.85687309   -5.0074537    1344.8544  0.045631597  0.045643365            9 
 2457000   0.85911258   -5.0061479    1345.7976  0.045645013  0.045632813            7 
 2458000   0.85473679    -5.000013    1347.5222  0.045684914  0.045622249            3 
 2459000   0.88350403   -4.9984143    1344.3984  0.045560472  0.045611593            5 
 2460000   0.85502684   -4.9881922    1349.3384  0.045709297  0.045601041            6 
 2461000   0.85986334   -5.0278536      1344.43  0.045524515  0.045590241            3 
 2462000   0.87060239   -5.0129953    1347.9983  0.045626804  0.045579497            6 
 2463000   0.86066732   -5.0141565    1348.0829  0.045611141  0.045568789            4 
 2464000    0.8529864   -5.0049266    1348.6754   0.04561267  0.045558118            5 
 2465000    0.8510707    -4.986653      1355.61  0.045828601  0.045547504            7 
 2466000   0.87338139   -4.9948614    1351.0755  0.045656781   0.04553693            4 
 2467000   0.86456517   -5.0281367    1349.4049  0.045581843  0.045526386            2 
 2468000   0.86654753   -4.9922482    1352.1039  0.045654507  0.045515786            6 
 2469000    0.8616139   -5.0014762    1351.9157  0.045629665  0.045505185            4 
 2470000   0.86361707   -4.9834796    1351.6071  0.045600781  0.045494654            5 
 2471000    0.8674732   -5.0092809      1357.46  0.045779711  0.045484029            2 
 2472000   0.86305294   -5.0384141    1353.7979  0.045637739   0.04547349            4 
 2473000   0.86347479   -5.0324463     1349.887  0.045487497  0.045462781            5 
 2474000    0.8506481   -4.9996938    1353.1151  0.045577848  0.045452103            8 
 2475000   0.82921992   -5.0006395    1353.9895  0.045588873  0.045441367            9 
 2476000   0.84908324   -5.0027625    1351.0571  0.045471766  0.045430751            6 
 2477000   0.86708272   -4.9943225    1358.4454   0.04570197    0.0454202            3 
 2478000   0.85504781   -4.9729628    1356.9555  0.045633423  0.045409708            4 
 2479000   0.87064809   -4.9857599    1356.7578  0.045608369  0.045399314            6 
 2480000   0.84803201   -5.0084657    1356.2217  0.045571964  0.045388891            3 
 2481000   0.86276266   -5.0446645    1350.7114  0.045368512  0.045378406            5 
 2482000   0.83562869   -5.0059678    1357.7033  0.045584989  0.045367909            7 
 2483000   0.86252924    -5.005359    1356.8962  0.045539543  0.045357411            3 
 2484000   0.85514144   -4.9989821     1357.662  0.045546899  0.045347032            3 
 2485000    0.8352622   -5.0517762    1354.1311  0.045410165  0.045336526            4 
 2486000   0.82521201   -5.0292025    1357.1127  0.045491844  0.045326028            4 
 2487000   0.85983996   -5.0264307    1354.6264  0.045390243  0.045315548            5 
 2488000   0.86528511   -5.0004104    1357.2574  0.045460122  0.045305083            3 
 2489000   0.84636992   -5.0031653    1359.8282   0.04552793  0.045294694            4 
 2490000   0.86873176   -4.9917561    1362.5631  0.045601173  0.045284327            4 
 2491000   0.84263119   -4.9948981    1361.6096  0.045550971  0.045273921            4 
 2492000   0.84840356   -5.0253147    1359.0893   0.04544841  0.045263573            6 
 2493000   0.86187363   -5.0226801    1358.8797  0.045423174  0.045253124            5 
 2494000   0.85348481   -5.0238944    1358.0716  0.045377961  0.045242681            4 
 2495000   0.86054364   -4.9816695    1361.5999  0.045477617  0.045232245            6 
 2496000   0.84624678   -4.9940908    1362.4269   0.04548701  0.045221806            7 
 2497000   0.85327153   -5.0275673    1361.3951  0.045434358  0.045211304           11 
 2498000   0.84331459   -5.0295987    1356.3141  0.045246666  0.045200739            4 
 2499000   0.84808524   -5.0074409    1357.9104  0.045281792  0.045190137            6 
 2500000   0.82927318   -5.0083186    1357.1645  0.045238816  0.045179558            4 
 2501000   0.86231723   -5.0141056    1358.9567  0.045280445  0.045168851            4 
 2502000   0.83260161   -5.0216105    1362.4254  0.045377876  0.045158239            4 
 2503000   0.83991406   -5.0297681     1358.169  0.045218038  0.045147621            6 
 2504000   0.85731192   -5.0032227    1362.6783   0.04535005  0.045136982            4 
 2505000   0.85893932   -5.0309243    1358.4554  0.045191465  0.045126317            5 
 2506000   0.84820048   -5.0271916    1361.0339  0.045259173  0.045115748            3 
 2507000   0.84386403   -5.0344247    1360.2128  0.045213828  0.045105306            5 
 2508000    0.8428782   -5.0083799    1361.4838  0.045238031  0.045094789            4 
 2509000   0.85969983     -4.97279    1365.1247  0.045340928  0.045084275            4 
 2510000   0.85850026   -5.0221256    1361.1168    0.0451898  0.045073841            4 
 2511000   0.86202943    -5.022866    1362.7246  0.045225161  0.045063284            5 
 2512000   0.84305065   -5.0135357    1361.1471  0.045154828  0.045052665            2 
 2513000   0.85889489   -5.0459447    1360.4078  0.045112341  0.045042018            7 
 2514000   0.83948782   -5.0124918    1359.3484  0.045059283  0.045031363            7 
 2515000   0.83762252   -5.0343777    1361.5204  0.045113332  0.045020817            8 
 2516000   0.84686393   -5.0140247      1362.09  0.045114268   0.04501011            2 
 2517000   0.84376476   -5.0473025    1361.3432   0.04507162   0.04499938            5 
 2518000   0.85296228   -5.0337473    1362.9024  0.045105322  0.044988725            6 
 2519000   0.85393352   -5.0204353    1365.5961  0.045176528   0.04497816            4 
 2520000   0.86187218   -5.0393071    1358.2015  0.044914072  0.044967567            6 
 2521000   0.84489552   -5.0132566    1363.0989  0.045058141  0.044956943            5 
 2522000    0.8389597   -4.9957173    1364.1535  0.045075122  0.044946388            9 
 2523000   0.84866199   -5.0638028    1358.7381  0.044878389  0.044935828            3 
 2524000   0.84642299    -5.014416    1367.0052  0.045133556  0.044925127            7 
 2525000   0.84921079   -5.0402521    1362.9499  0.044981844  0.044914456            6 
 2526000   0.85690897   -5.0316889    1361.1134   0.04490345  0.044903777            3 
 2527000   0.85825347   -5.0319023    1362.7214  0.044938707  0.044893078            3 
 2528000   0.84836796   -5.0093604     1367.693  0.045084816  0.044882442            7 
 2529000   0.85092111   -5.0045672    1363.2288  0.044919889  0.044871855            7 
 2530000   0.82628535   -4.9749835    1369.1033   0.04509563  0.044861172            7 
 2531000   0.84055785   -5.0068704    1367.1646  0.045013981   0.04485064            5 
 2532000   0.84998336    -5.028964    1361.9142    0.0448234  0.044839973            9 
 2533000   0.84376275   -5.0276806    1358.4648  0.044692224  0.044829256            5 
 2534000   0.83519547   -5.0203184    1366.1616  0.044927704  0.044818549            4 
 2535000   0.81993495   -5.0208169    1364.9574  0.044870394  0.044807781            5 
 2536000   0.84600556   -5.0373436    1367.4234  0.044933735   0.04479702            4 
 2537000   0.84951796   -5.0683636    1359.5706  0.044658082  0.044786268            4 
 2538000   0.83893168   -5.0300426    1364.6435  0.044807048  0.044775616            4 
 2539000   0.85226285   -5.0304792    1362.9986  0.044735415  0.044764919            7 
 2540000    0.8287792   -5.0261838    1364.9563   0.04478203  0.044754175            4 
 2541000   0.84551034   -5.0407871    1364.8715  0.044761625  0.044743458            4 
 2542000   0.86306423   -5.0069625    1366.5367  0.044798605  0.044732688           11 
 2543000   0.83387371   -5.0352156    1365.8036  0.044756968  0.044721888            5 
 2544000    0.8308712   -5.0126466    1367.4105  0.044792011  0.044711134            5 
 2545000   0.86467655     -5.02498    1369.4562  0.044841395  0.044700504            3 
 2546000   0.83977538   -5.0251317    1369.4059  0.044822135  0.044689849            4 
 2547000   0.84448567   -5.0265154    1368.6574  0.044780049  0.044679087            4 
 2548000   0.84665001   -5.0841702    1364.1407  0.044614754  0.044668339            4 
 2549000   0.85036395   -5.0048765    1371.9088   0.04485121  0.044657575            4 
 2550000   0.85719277   -5.0132249    1367.6012  0.044692851  0.044646917            8 
 2551000   0.85517195   -5.0220193     1367.758  0.044680453  0.044636294            8 
 2552000   0.84478008   -5.0431084    1369.7438   0.04472779  0.044625549            9 
 2553000   0.83088273   -5.0268357    1371.7143   0.04477459  0.044614927            4 
 2554000   0.82286784   -5.0522919    1371.4642  0.044748896  0.044604342            5 
 2555000   0.85244764   -5.0475395    1368.2049  0.044625079  0.044593745            9 
 2556000   0.86405764   -5.0382133      1374.04  0.044797861  0.044583184            5 
 2557000   0.83824551     -5.03226    1371.2661  0.044689939  0.044572625            3 
 2558000   0.83868662   -5.0138566    1372.3539  0.044707905  0.044562008            6 
 2559000   0.84913767   -5.0149406    1372.6757  0.044700916  0.044551401            4 
 2560000   0.85325092   -5.0688958    1369.1404  0.044568372  0.044540879            7 
 2561000   0.84926373   -5.0334159    1367.1677  0.044486779  0.044530289            5 
 2562000   0.84566158    -5.057036     1372.075  0.044629035  0.044519725            2 
 2563000   0.82672263   -5.0435815    1367.5205  0.044463537  0.044509225            6 
 2564000   0.85083198    -5.032252    1373.2205  0.044631452    0.0444986            3 
 2565000   0.84256428   -5.0428867     1372.457  0.044589246  0.044488122            5 
 2566000   0.84221107   -5.0260072    1372.8242  0.044583793  0.044477619            9 
 2567000   0.84585218   -5.0109394    1374.5252  0.044621647  0.044467156            6 
 2568000   0.84115814   -5.0329055    1372.3944  0.044535126  0.044456594           10 
 2569000   0.83610467   -5.0416625    1374.2042  0.044576496  0.044446033            8 
 2570000   0.85366484   -5.0672842    1370.2128  0.044429727  0.044435481            2 
 2571000   0.84118435   -5.0453712    1375.7979  0.044593474  0.044424949            4 
 2572000   0.83587314   -5.0566762    1376.1613  0.044587911  0.044414515            5 
 2573000   0.83452139   -5.0564752    1374.4825  0.044516209  0.044404037            5 
 2574000   0.83117306   -5.0432801    1376.0034  0.044548156  0.044393614            5 
 2575000   0.84611082   -5.0471917    1377.2364  0.044570757   0.04438315           10 
 2576000   0.85972165   -5.0424212     1377.093  0.044548816  0.044372596            9 
 2577000   0.83953921   -5.0567693    1374.0517  0.044433181  0.044362162            5 
 2578000   0.83097501   -5.0761611    1373.9028  0.044411133  0.044351672            4 
 2579000   0.85725424   -5.0950393     1375.106  0.044432791  0.044341113            5 
 2580000   0.84004995   -5.0554941     1372.549  0.044332977   0.04433058            9 
 2581000   0.82983758   -5.0276959    1376.3992  0.044440115  0.044320182            4 
 2582000   0.85858356   -5.0320858    1375.4429  0.044392039  0.044309699            3 
 2583000   0.85056824   -5.0561253    1374.2868  0.044337553  0.044299202            9 
 2584000   0.87381206   -5.0612246     1375.062  0.044345395  0.044288778            7 
 2585000   0.83555406   -5.0646879    1376.2272  0.044365804  0.044278354            7 
 2586000   0.84003652   -5.0310308    1380.1794  0.044476005  0.044267884            6 
 2587000   0.83643193   -5.0351955    1379.2797  0.044429832  0.044257484            6 
 2588000   0.82779853   -5.0466661    1376.6427  0.044327753  0.044247098            8 
 2589000   0.82442468   -5.0594168     1377.691  0.044344375  0.044236599           15 
 2590000   0.82643435   -5.0330949      1381.64  0.044454312  0.044226177           12 
 2591000   0.83485662   -5.0544067    1380.6468   0.04440521  0.044215657            6 
 2592000   0.83272092   -5.0511829    1380.2085  0.044373988  0.044205178            4 
 2593000   0.85349965    -5.046506    1379.6118  0.044337698    0.0441946            2 
 2594000   0.84805377    -5.088359    1375.2393  0.044180136  0.044184146            4 
 2595000    0.8456801   -5.0470428    1383.8733  0.044440377  0.044173621            5 
 2596000    0.8394113   -5.0353888    1382.2461  0.044371021  0.044163198            8 
 2597000   0.83882439   -5.0501243     1382.863  0.044373734  0.044152755            7 
 2598000   0.84432696   -5.0599557    1383.5131  0.044377506  0.044142456            3 
 2599000   0.83250761   -5.0661452    1379.6046  0.044235111  0.044132118           24 
 2600000   0.84171471   -5.0527208    1380.2578  0.044239032  0.044121773            6 
 2601000   0.82542135   -5.0320106    1382.8356  0.044304615  0.044111518            6 
 2602000   0.82355175   -5.0273289    1386.8712  0.044416834  0.044101346            4 
 2603000    0.8313639   -5.0423853    1389.0367  0.044469095  0.044091136            4 
 2604000   0.82146719   -5.0488703    1383.4284  0.044272541  0.044080875            8 
 2605000   0.83518552   -5.0877517    1382.6635  0.044231077  0.044070485            4 
 2606000   0.83052851   -5.0654185    1384.2942  0.044266251  0.044060015            4 
 2607000   0.85466532   -5.0320547     1390.578  0.044450136  0.044049612            5 
 2608000   0.83037278    -5.011275    1390.2972   0.04442412  0.044039417            3 
 2609000   0.82558664   -5.0612549    1386.3776  0.044281895  0.044029175            5 
 2610000   0.83038838   -5.0418796     1386.541  0.044270147  0.044018969            5 
 2611000   0.82632404   -5.0379072    1386.5931  0.044254856  0.044008761            6 
 2612000   0.83723554   -5.0457481    1382.8934  0.044119877  0.043998404            4 
 2613000   0.84323827   -5.0495906    1385.6927  0.044192268  0.043988093            3 
 2614000   0.82769204   -5.0859642    1382.1155  0.044061319  0.043977729            5 
 2615000   0.83488665   -5.0533447    1388.0121  0.044232382  0.043967389            8 
 2616000   0.82139915   -5.0602055    1383.7861  0.044080852  0.043957057            3 
 2617000   0.84176261   -5.0724026    1386.1063  0.044137891  0.043946797            6 
 2618000   0.83086566   -5.0794567     1389.556  0.044230839  0.043936444            7 
 2619000   0.82465809   -5.0544097    1389.4261  0.044209815  0.043926063            3 
 2620000   0.83124769    -5.048298    1389.1622  0.044184549  0.043915601            4 
 2621000   0.83141197   -5.0749761    1384.4422  0.044017621  0.043905113            9 
 2622000   0.83339551   -5.0896955    1386.2165  0.044057225  0.043894714            4 
 2623000   0.84179946   -5.0530802    1388.3138   0.04410706  0.043884407            6 
 2624000   0.84984012   -5.0519317    1390.7028  0.044166121   0.04387416            9 
 2625000   0.81564551   -5.0840667    1391.8934  0.044187093  0.043863879            6 
 2626000   0.82431276   -5.0615455    1389.2258  0.044085611  0.043853565            4 
 2627000   0.81694373   -5.0426251    1393.3367  0.044199234    0.0438432            5 
 2628000   0.83401975   -5.0563403    1383.5002  0.043870505   0.04383288            3 
 2629000   0.83849758   -5.0720832     1387.995  0.043996293  0.043822538            6 
 2630000   0.84191584   -5.0657531    1383.5351  0.043838248  0.043812197            6 
 2631000   0.81711959   -5.0831908    1384.4182  0.043849558  0.043801739            7 
 2632000   0.82420384   -5.0649234    1390.7172  0.044032334  0.043791373            5 
 2633000   0.84603465   -5.0742494    1389.5721  0.043979368  0.043781005            9 
 2634000   0.83535507   -5.0328603    1392.5966  0.044058358   0.04377068            4 
 2635000   0.82812171   -5.1081029    1387.3589  0.043875991  0.043760357            6 
 2636000   0.83251487   -5.0782709    1391.1596  0.043979501  0.043749797            4 
 2637000   0.82961492   -5.0692473    1390.7922  0.043951213  0.043739477            6 
 2638000   0.83384538   -5.0605284    1397.6769  0.044152037  0.043729392            4 
 2639000   0.84255004   -5.0247976    1393.4438  0.044001635  0.043719321           12 
 2640000   0.84762085   -5.0527378    1392.6726  0.043960624  0.043709213            7 
 2641000   0.81162651   -5.0583854      1393.44  0.043968195  0.043698947           10 
 2642000    0.8242045   -5.0526823     1392.054  0.043907836  0.043688692            4 
 2643000   0.81208321   -5.0236098    1392.0577  0.043891337  0.043678385            6 
 2644000   0.82662834   -5.0550263    1391.5325  0.043858186  0.043668111            4 
 2645000   0.82238886   -5.1000874    1390.6948  0.043815211  0.043657872            4 
 2646000    0.8250085   -5.0847382    1392.6836  0.043861287  0.043647537            5 
 2647000   0.81386261    -5.073158    1388.1001  0.043700417  0.043637263            4 
 2648000   0.84644764   -5.0640663    1393.4158  0.043851201  0.043626997            4 
 2649000   0.82619618   -5.0463515    1392.9609  0.043820339  0.043616852            3 
 2650000   0.84200567   -5.0650716    1394.9788  0.043867259  0.043606667            4 
 2651000   0.82680408   -5.0759643    1395.1089  0.043854801  0.043596552            8 
 2652000   0.82529679   -5.0941268    1394.9217  0.043832382  0.043586292            4 
 2653000   0.80984278   -5.0778125    1394.4467   0.04380094  0.043576067            4 
 2654000   0.82420314   -5.0548106    1397.4943  0.043880127  0.043565908            3 
 2655000   0.82034862   -5.0763749    1390.3392   0.04363902  0.043555766            9 
 2656000    0.8203439   -5.0768869    1398.1604  0.043867985  0.043545491            5 
 2657000   0.82812274   -5.0921875    1393.7028  0.043711668  0.043535205           10 
 2658000   0.84087034   -5.0797692    1397.1214  0.043802402  0.043524975            5 
 2659000   0.82241893   -5.0607735    1400.5999  0.043894946  0.043514696            8 
 2660000   0.82843252   -5.0711475    1396.5112  0.043750351  0.043504455            6 
 2661000   0.82763403   -5.0978543    1394.8386  0.043681528  0.043494064            5 
 2662000    0.8129613   -5.0571238    1398.8598  0.043791004  0.043483702            5 
 2663000   0.82938862   -5.0798773      1395.88  0.043681311  0.043473456            6 
 2664000   0.82031386    -5.077399    1395.8344  0.043663489  0.043463194            9 
 2665000   0.81302419   -5.0537278    1401.8898  0.043836452  0.043452922            5 
 2666000   0.81328114   -5.1033608    1395.0786  0.043607107  0.043442669            6 
 2667000   0.82524349   -5.0563633    1400.1491  0.043749191  0.043432484            7 
 2668000   0.82464828   -5.0888041    1400.9009  0.043756275  0.043422246            5 
 2669000   0.82634909   -5.0833474    1396.9688  0.043617112  0.043412078           12 
 2670000   0.84902818   -5.0916765    1399.1104  0.043667616  0.043401839            9 
 2671000   0.82411953   -5.0939679    1397.1203  0.043589178  0.043391566           12 
 2672000    0.8247871   -5.0720436    1395.0552  0.043508458   0.04338129            4 
 2673000   0.82069847   -5.0898637    1400.1657  0.043651507  0.043371116           10 
 2674000   0.81039836   -5.0780185    1406.5811  0.043835113  0.043360868            5 
 2675000    0.8082885   -5.0726333    1400.3431  0.043624396  0.043350756            4 
 2676000   0.84007998   -5.0528176    1402.0243  0.043660449  0.043340672            9 
 2677000   0.84384109   -5.0868071    1404.8466  0.043731996  0.043330751            7 
 2678000   0.82837932    -5.063531    1404.4962  0.043704762  0.043320658            3 
 2679000    0.8300442   -5.0736136    1397.7495  0.043478584  0.043310508            6 
 2680000   0.81718876   -5.0868385    1395.5155  0.043392896   0.04330042            3 
 2681000   0.81739173    -5.081596    1404.0248  0.043641204  0.043290192            7 
 2682000   0.82162617   -5.0665889    1405.9973  0.043686219  0.043280003            3 
 2683000   0.81944089   -5.0655026    1402.1609  0.043550781   0.04326985            6 
 2684000   0.82508159   -5.0768722    1402.0812  0.043532081  0.043259716            6 
 2685000   0.80556669   -5.1070252    1404.9729  0.043605613  0.043249654            5 
 2686000   0.82866813   -5.0962168    1405.6298  0.043609759  0.043239629            7 
 2687000   0.82078432   -5.0535725    1406.6182  0.043624183  0.043229598            2 
 2688000    0.8231809   -5.0584708    1400.8311  0.043428543  0.043219603            3 
 2689000    0.8267336    -5.084129    1399.1577  0.043360534  0.043209607            3 
 2690000   0.81788589    -5.085957    1407.8332  0.043613172  0.043199642            6 
 2691000   0.80785719   -5.0384456    1405.3157  0.043519006  0.043189593            4 
 2692000   0.82505744   -5.0735368    1406.1639  0.043529094  0.043179503           11 
 2693000   0.84286167   -5.0946835    1405.9784   0.04350719  0.043169395            5 
 2694000   0.82608114   -5.0818098    1404.9031  0.043457778  0.043159336            4 
 2695000     0.833547   -5.0731065    1402.5645  0.043369342  0.043149189            4 
 2696000   0.82510444   -5.1036818      1406.18   0.04346501  0.043139059           12 
 2697000   0.81809176   -5.1250991    1405.6029  0.043431062  0.043128862            4 
 2698000   0.81263639    -5.087779    1402.7634   0.04332726  0.043118682           11 
 2699000   0.81568664   -5.0612931    1406.1276  0.043415079  0.043108558            6 
 2700000   0.83118889   -5.0698477     1406.821  0.043420403  0.043098584            6 
 2701000   0.82894401   -5.0938422    1406.1485  0.043383577  0.043088514           10 
 2702000   0.82962208   -5.0704242     1408.053  0.043426259  0.043078424            4 
 2703000   0.82969954   -5.0931167    1398.9658  0.043130034  0.043068193            4 
 2704000   0.81163585    -5.083018    1407.3535   0.04337258  0.043058023           16 
 2705000   0.82691257   -5.0845672    1410.8406  0.043463974  0.043047844            4 
 2706000   0.81851245   -5.0832478    1408.5656  0.043377853  0.043037702            7 
 2707000    0.8342028   -5.0968756    1404.5813  0.043239173  0.043027453            3 
 2708000   0.83460372   -5.0861082    1405.2139  0.043242673  0.043017333            3 
 2709000   0.82337199   -5.1208745    1407.2789  0.043290232  0.043007231            4 
 2710000   0.82199932   -5.0938608    1406.0318  0.043235909  0.042997196            5 
 2711000   0.82157359   -5.0763675    1407.4591  0.043263836  0.042987187            7 
 2712000   0.82856265   -5.0978244    1412.6409  0.043407107  0.042977049            6 
 2713000   0.82286427   -5.0984315    1413.6856  0.043423196  0.042967115            9 
 2714000   0.81442235   -5.0892646    1410.3271  0.043304074   0.04295718            9 
 2715000    0.8308007   -5.0803872    1408.9878  0.043247015  0.042947252            6 
 2716000   0.81343726     -5.09658    1409.2973  0.043240591  0.042937261            6 
 2717000   0.82224874   -5.0946054    1411.0538  0.043278547  0.042927399            4 
 2718000   0.81643809    -5.081392    1412.2729  0.043300002  0.042917351            7 
 2719000   0.80455891   -5.0914785    1409.1549  0.043188515  0.042907401            5 
 2720000   0.83375672   -5.0945325    1411.8966  0.043256636  0.042897465            5 
 2721000   0.81085222   -5.0915941    1418.2305  0.043434721  0.042887607            4 
 2722000   0.84622439   -5.1090481    1412.2169   0.04323466  0.042877676           15 
 2723000   0.81533968   -5.0859245    1411.6681  0.043201985  0.042867728            4 
 2724000   0.82678171   -5.1050279    1410.9101  0.043162938  0.042857787            6 
 2725000   0.82113702   -5.0784844    1413.0662  0.043213033  0.042847866            7 
 2726000   0.81667637   -5.0809716    1417.4916  0.043332465  0.042837862            3 
 2727000    0.8184048   -5.0793218     1415.791  0.043264608  0.042828044            6 
 2728000   0.80992291   -5.0640493     1419.653  0.043366723  0.042818245           17 
 2729000    0.8151552   -5.0789429    1418.5314   0.04331658  0.042808486            3 
 2730000   0.80632251   -5.0892874    1419.4652  0.043329218  0.042798642           14 
 2731000   0.81711062   -5.0976102    1414.6251  0.043165661   0.04278882            5 
 2732000   0.81208667   -5.1158311    1413.8504  0.043126234   0.04277873            4 
 2733000   0.83496448   -5.1019828    1413.6255  0.043103594  0.042768733            4 
 2734000   0.80379751   -5.0885222    1412.6198  0.043057174   0.04275864            3 
 2735000   0.82151528   -5.0512472    1419.6277  0.043254958  0.042748698            7 
 2736000   0.79620335   -5.0797024    1416.9772  0.043158419  0.042738846            5 
 2737000   0.80121728   -5.0997517    1410.1045  0.042933398  0.042728804            5 
 2738000   0.79980187   -5.1212016    1413.2793  0.043014345  0.042718763            5 
 2739000   0.81685703   -5.1026791    1415.9089  0.043078644  0.042708809           12 
 2740000   0.79766854   -5.0991971    1415.6235  0.043054242  0.042698951           10 
 2741000   0.80827596   -5.0893081    1415.3079  0.043028941  0.042688974            2 
 2742000   0.82317181   -5.0790472    1415.4601  0.043017874  0.042678937            4 
 2743000   0.81827157   -5.1033642    1412.9693  0.042926519  0.042668881            6 
 2744000   0.80618671   -5.1080882    1411.6486  0.042870766  0.042658769            4 
 2745000   0.81626469   -5.0922969    1414.6188  0.042945319    0.0426488            4 
 2746000   0.82117197   -5.1152522    1414.6777  0.042931468  0.042638812            8 
 2747000   0.79953164   -5.0921002     1416.653  0.042975761  0.042628922            8 
 2748000   0.82448792   -5.1019663     1415.759  0.042933011  0.042618971            4 
 2749000   0.81102357   -5.0911632    1418.7936  0.043009384  0.042608977            7 
 2750000   0.80998707   -5.0912708    1419.4161  0.043012608  0.042598976            6 
 2751000   0.81149107   -5.1192802    1416.0493  0.042894987    0.0425889            5 
 2752000   0.81009018   -5.1052634    1419.2129  0.042975197   0.04257892            7 
 2753000   0.80156117   -5.1057424    1421.8183  0.043038452  0.042568921            9 
 2754000   0.82875902   -5.0782431    1421.7732  0.043021461  0.042559018            4 
 2755000   0.81530062   -5.1121605    1419.1983  0.042927957  0.042549096            4 
 2756000   0.79946516   -5.0872098    1424.1416  0.043061852  0.042539214            6 
 2757000   0.81690936   -5.1215896    1421.2897  0.042960033  0.042529282            6 
 2758000   0.81963518   -5.1381895    1415.1958  0.042760327  0.042519315            5 
 2759000   0.81672546   -5.1131797    1417.9006  0.042826527  0.042509201            8 
 2760000   0.81184912   -5.1129997    1414.7292  0.042715253  0.042499122            9 
 2761000    0.8127439   -5.1303323    1420.3723  0.042870104  0.042489092            7 
 2762000    0.8033369   -5.0715685    1421.3146  0.042883015  0.042479191            4 
 2763000   0.81584832   -5.0854979    1421.2157  0.042864509  0.042469196            7 
 2764000   0.82091883   -5.1023251    1424.0285  0.042933807  0.042459359            7 
 2765000   0.80028324   -5.1243736    1417.4839  0.042721033  0.042449412            4 
 2766000   0.80127522   -5.0892006    1419.8796  0.042777765  0.042439359            9 
 2767000   0.82205927   -5.0887427    1419.7804  0.042759318  0.042429356            4 
 2768000   0.80385604   -5.1201075     1415.827   0.04262485   0.04241936            4 
 2769000   0.80551979   -5.1300859    1415.9287  0.042612516  0.042409259           15 
 2770000   0.80729022   -5.1319992    1417.3944  0.042641229  0.042399082            4 
 2771000   0.82433187   -5.1067647    1420.0293  0.042705081  0.042388946            8 
 2772000   0.80217974   -5.1474544    1415.8976  0.042565463  0.042378932           12 
 2773000   0.79744253   -5.1022461    1422.1998  0.042739505  0.042368812            8 
 2774000   0.80922469   -5.1158656      1418.95  0.042626471   0.04235878           11 
 2775000   0.81752696   -5.0723183    1421.9343  0.042700729  0.042348594            5 
 2776000   0.80031544   -5.1144649    1421.4673  0.042671329  0.042338491            7 
 2777000   0.81319259   -5.1108391    1419.4918  0.042596681  0.042328392           11 
 2778000   0.80303552   -5.1024064    1419.8855  0.042593159   0.04231833           10 
 2779000   0.80521042   -5.1112891    1421.4172  0.042623762  0.042308247            6 
 2780000   0.81189554   -5.1035009    1420.5472  0.042582352  0.042298219            4 
 2781000   0.80382469   -5.1484739    1416.9831   0.04246024  0.042288107           10 
 2782000   0.82490601   -5.0849805    1426.5175  0.042730574  0.042277962           14 
 2783000   0.80408052   -5.1019682    1419.9253  0.042517825  0.042267939            6 
 2784000   0.79263992    -5.146824    1422.6402  0.042583819  0.042257796           11 
 2785000   0.81904896   -5.1078213    1423.5812  0.042596684  0.042247592           10 
 2786000   0.80501004   -5.1258612    1418.5262  0.042430191  0.042237454            7 
 2787000   0.81728296   -5.1297605    1417.9791  0.042398609  0.042227352           12 
 2788000   0.81902794   -5.1333798     1422.828  0.042528337  0.042217254            4 
 2789000   0.82025546   -5.1106207    1423.6273   0.04253697  0.042207128            5 
 2790000   0.81456522   -5.1156773    1424.4669    0.0425468  0.042197122            6 
 2791000   0.81421611   -5.0742075    1425.5216  0.042563047  0.042187131            2 
 2792000   0.79464887    -5.138513    1420.8049  0.042407022   0.04217696            5 
 2793000   0.81387855   -5.1202134    1421.4867  0.042412183  0.042166854            6 
 2794000    0.8177005   -5.1377743    1423.2476  0.042449523  0.042156758            7 
 2795000   0.78634778   -5.0962313    1422.4626  0.042410931  0.042146644            6 
 2796000   0.79317122   -5.1205385    1423.9072  0.042438819  0.042136594           13 
 2797000   0.81335512   -5.1063706    1424.2266  0.042433161  0.042126488            8 
 2798000   0.80539946   -5.1196347    1424.4764  0.042425435    0.0421164           10 
 2799000   0.81466765   -5.1493277    1418.1231  0.042221123  0.042106198           13 
 2800000    0.8141572   -5.1318939    1419.5313  0.042247956  0.042095998            5 
 2801000   0.79857441   -5.0952842     1425.439  0.042408635  0.042085857            4 
 2802000   0.80432473    -5.081176    1423.9928  0.042350488   0.04207583            7 
 2803000   0.81114058   -5.1267559    1426.4292  0.042407812  0.042065809            6 
 2804000   0.80387212   -5.1082817    1423.9277  0.042318346  0.042055728            3 
 2805000   0.79360352   -5.1466297    1421.6033  0.042234205  0.042045574            7 
 2806000   0.79811812   -5.1033153    1427.9698  0.042408226  0.042035369           11 
 2807000    0.7886233   -5.1137926    1426.5735  0.042351666  0.042025299            8 
 2808000   0.80063363   -5.0965188    1431.8727  0.042493847  0.042015213            5 
 2809000   0.78951788    -5.133628    1427.2415  0.042341328  0.042005252            6 
 2810000   0.82307777   -5.1384833    1425.2907  0.042268407  0.041995239            8 
 2811000    0.8204012   -5.1115149     1429.001  0.042363364  0.041985257            9 
 2812000   0.80490789    -5.102834    1429.8484  0.042373411  0.041975328            6 
 2813000   0.81488931   -5.1101735    1428.1452  0.042307892  0.041965388            5 
 2814000   0.79323157   -5.1233902    1422.6118  0.042128993  0.041955381            3 
 2815000   0.80013282   -5.1139609    1432.8396  0.042416804  0.041945408            9 
 2816000   0.80348994    -5.103018    1426.0788  0.042201668  0.041935511            5 
 2817000   0.78030418   -5.1156591    1431.0762  0.042334524  0.041925512            9 
 2818000   0.80733796   -5.1215099    1424.8316  0.042134835  0.041915443            4 
 2819000   0.79184099   -5.1478105    1429.8109  0.042267084  0.041905344            8 
 2820000   0.80110684   -5.1193359    1429.9599  0.042256497  0.041895311            5 
 2821000   0.79990181   -5.1195713    1428.5827  0.042200836  0.041885237            4 
 2822000   0.77784235   -5.1063648    1428.7253  0.042190094  0.041875135            8 
 2823000   0.79645245   -5.1580448     1423.016  0.042006613  0.041865029            7 
 2824000   0.79177514   -5.1102814    1430.3914  0.042209378  0.041854958            6 
 2825000    0.8146933   -5.1084772    1430.5132  0.042198029  0.041844784            3 
 2826000   0.79958804   -5.1480414    1430.2892  0.042176492  0.041834717            6 
 2827000   0.81035628   -5.1615685    1425.9105  0.042032498  0.041824495            5 
 2828000   0.79089945   -5.1310734    1428.2421  0.042086343  0.041814356           12 
 2829000   0.78637262   -5.1171656    1427.0955  0.042037691  0.041804311            9 
 2830000   0.80629667   -5.1268884    1432.9692  0.042195796  0.041794092            3 
 2831000    0.7999362   -5.1272698    1430.6541  0.042112743  0.041784095            8 
 2832000   0.79092594   -5.1085129    1434.0097  0.042196614  0.041774002            4 
 2833000   0.79214743   -5.1265378    1432.5158  0.042137776  0.041764063            4 
 2834000   0.79266998   -5.1264281    1427.9629   0.04198903  0.041753963            4 
 2835000   0.79153636   -5.1133064    1431.8183  0.042087545  0.041743726            7 
 2836000   0.79915082    -5.147328    1425.6821  0.041892398  0.041733591            9 
 2837000    0.7967294   -5.1504453    1426.2161  0.041893317  0.041723399            4 
 2838000   0.80502534   -5.1509593    1427.6432  0.041920461    0.0417132            2 
 2839000   0.79711874   -5.1042944    1435.1468  0.042125948  0.041703093            4 
 2840000    0.8090485   -5.1357394    1432.2475  0.042026043  0.041693045            4 
 2841000   0.78551598   -5.1430692    1432.9053  0.042030545  0.041682928            4 
 2842000   0.78327594   -5.1123295    1430.8273  0.041954824  0.041672869            5 
 2843000   0.79307303   -5.1342588    1433.4303  0.042016364  0.041662793            6 
 2844000   0.79488722   -5.1438192    1426.8147  0.041807744  0.041652669           11 
 2845000   0.78939764   -5.1449719    1436.1722  0.042067141  0.041642552            7 
 2846000   0.80831523    -5.128054    1432.3124  0.041939341  0.041632566            7 
 2847000    0.8068756   -5.1278387    1434.9776  0.042002623  0.041622438            4 
 2848000   0.79648052   -5.1342224    1432.7815  0.041923616  0.041612299            7 
 2849000   0.79449845   -5.1277606    1430.9246  0.041854585  0.041602226            6 
 2850000   0.81196376   -5.1258099    1435.6743   0.04197878  0.041592149           14 
 2851000   0.79768924   -5.1159708      1438.05  0.042033497  0.041582143            9 
 2852000   0.79166373   -5.1427138    1436.1182  0.041962314  0.041572076            5 
 2853000   0.79972805    -5.125557    1430.0568  0.041770557  0.041561963            5 
 2854000    0.7924259   -5.1260422     1439.785  0.042039975  0.041551923            6 
 2855000   0.77764302   -5.1589839    1431.0099  0.041769116  0.041541936            8 
 2856000   0.80786708   -5.1346591    1435.8213  0.041894879  0.041531988            8 
 2857000    0.7861323   -5.1499824    1432.5504   0.04178481  0.041521969            4 
 2858000   0.79186148   -5.1491969    1433.0928  0.041786003  0.041511911            2 
 2859000    0.7723493   -5.1279033    1432.6582  0.041758721  0.041501839            7 
 2860000   0.79796703   -5.1394814    1438.6017  0.041917298  0.041491737            4 
 2861000   0.78966127   -5.1345599    1431.8646  0.041706413  0.041481603            3 
 2862000   0.79373355    -5.130234    1437.7463  0.041863099   0.04147155            4 
 2863000   0.77573939    -5.149919    1434.0758  0.041741641  0.041461476            6 
 2864000   0.78376031   -5.1438353    1434.9884   0.04175362  0.041451406            6 
 2865000   0.80516964   -5.1480504    1435.6662  0.041758761  0.041441391           10 
 2866000   0.79321802   -5.1368382    1435.7346  0.041746179  0.041431322           10 
 2867000   0.79839744   -5.1326526    1433.4214  0.041664382  0.041421274            6 
 2868000   0.78452835     -5.13856    1434.5929  0.041683894  0.041411218            5 
 2869000   0.79761183   -5.1480737    1435.3847  0.041692365  0.041401023            7 
 2870000   0.79141906    -5.138656    1435.7225  0.041687645  0.041390847            2 
 2871000   0.79636625   -5.1121864    1436.6869  0.041701118  0.041380675            3 
 2872000   0.79292672   -5.1353368     1434.656  0.041627669  0.041370628            3 
 2873000     0.790762   -5.1518858    1434.6071  0.041611762  0.041360517            4 
 2874000   0.80134794   -5.1407985    1436.7341  0.041658957  0.041350351            3 
 2875000   0.80004109   -5.1575107    1433.2434  0.041543286  0.041340121            6 
 2876000   0.79055106   -5.1176209    1440.7439  0.041746172  0.041329974            4 
 2877000   0.78839148   -5.1516107    1433.4845   0.04152139  0.041319901            8 
 2878000   0.78104096   -5.1540952    1436.6441  0.041598452  0.041309729            9 
 2879000   0.78778477   -5.1571893    1438.2041  0.041629156  0.041299633            6 
 2880000   0.79201383   -5.1365255    1435.1852   0.04152735  0.041289469            3 
 2881000   0.78570931   -5.1511999    1439.4575  0.041636513  0.041279244            3 
 2882000    0.7830193   -5.1416381    1435.1126  0.041496432  0.041269069            8 
 2883000   0.78639115   -5.1310275    1435.1813  0.041484024  0.041258913            3 
 2884000   0.80675107   -5.1490652    1442.3531  0.041676868  0.041248753           13 
 2885000   0.78223743   -5.1387282    1438.2118  0.041542803  0.041238614            4 
 2886000   0.79184397   -5.1570152    1436.2992  0.041473181  0.041228382            4 
 2887000   0.79180048   -5.1690914    1432.3333   0.04134434   0.04121816            9 
 2888000   0.78714778   -5.1333717    1436.6101  0.041453431  0.041207961            4 
 2889000    0.7854262   -5.1493908     1436.723  0.041442338  0.041197726            3 
 2890000   0.78391141   -5.1519089    1433.5838  0.041337479  0.041187494            5 
 2891000   0.79627433   -5.1239784     1434.753  0.041356882  0.041177223            4 
 2892000   0.81457679    -5.169451    1435.3335  0.041359311  0.041166953            7 
 2893000   0.80479213   -5.1828793    1432.4496  0.041261942   0.04115661            4 
 2894000   0.79044249   -5.1535557    1438.3513  0.041417625  0.041146465            4 
 2895000   0.77646601   -5.1733824    1434.6658  0.041297231  0.041136228            8 
 2896000    0.7857678   -5.1242009    1439.0166  0.041408168  0.041126033            7 
 2897000   0.78867693   -5.1672436    1437.9754  0.041363924  0.041115775           10 
 2898000   0.78376834   -5.1327263    1438.9712  0.041378284  0.041105541            4 
 2899000   0.78395677   -5.1474175    1441.6171   0.04144007  0.041095413            5 
 2900000   0.79754387   -5.1652171    1431.2229  0.041127093  0.041085203            7 
 2901000   0.77782336   -5.1478482    1437.3608  0.041289234  0.041074816            5 
 2902000   0.77155573   -5.1618013    1436.7495  0.041257451  0.041064522           16 
 2903000   0.78768204    -5.169758    1434.9022  0.041190212  0.041054236            9 
 2904000   0.78793833   -5.1098557    1440.4556  0.041335388  0.041043946            4 
 2905000   0.77298594   -5.1386368    1435.3123  0.041173617  0.041033685            7 
 2906000   0.79608234   -5.1718359    1436.6565  0.041197994  0.041023367            8 
 2907000   0.79498537    -5.167404    1431.5967  0.041038778  0.041012925           13 
 2908000   0.80034292   -5.1562995     1437.466   0.04119286  0.041002548            4 
 2909000   0.78721993   -5.1638979    1440.5454  0.041266912  0.040992261            6 
 2910000   0.78508344    -5.153458    1439.5255  0.041223524  0.040981997            9 
 2911000   0.78563353   -5.1396015     1437.441   0.04114969  0.040971677            6 
 2912000   0.79100401   -5.1518818    1436.6196  0.041112053   0.04096147            4 
 2913000   0.78742799   -5.1577547    1444.0499    0.0413105  0.040951247           13 
 2914000   0.79823442   -5.1515788    1438.1468  0.041127512   0.04094097            6 
 2915000    0.7727775   -5.1404496    1437.1003  0.041083486  0.040930686            5 
 2916000   0.77795622   -5.1531739    1440.6614  0.041171165  0.040920397            4 
 2917000   0.78035652    -5.152122    1442.1937  0.041200827  0.040910061            6 
 2918000   0.78098204   -5.1710989    1435.1411  0.040985294  0.040899801            6 
 2919000   0.79041084    -5.170457    1440.0218  0.041110591  0.040889511            4 
 2920000   0.78417029   -5.1782129    1438.9121  0.041064843    0.0408792            7 
 2921000   0.79668782   -5.1408441    1443.3114  0.041176291   0.04086897            5 
 2922000    0.7854647   -5.1344695    1444.1777  0.041186907  0.040858781            6 
 2923000   0.80339596   -5.1433085    1440.7116  0.041073999  0.040848603           10 
 2924000   0.77555063   -5.1610344     1442.344  0.041106476  0.040838359            5 
 2925000   0.79274389   -5.1877423    1440.0666   0.04102754  0.040827994            6 
 2926000   0.77861953   -5.1813919     1441.479  0.041053742  0.040817706            7 
 2927000   0.77750627   -5.1846686     1439.182  0.040974321  0.040807443            8 
 2928000   0.76603863   -5.1489993    1439.1754  0.040960137  0.040797146            8 
 2929000   0.79620808   -5.1646308    1440.9313   0.04099611  0.040786852            6 
 2930000   0.79410934    -5.134222    1441.5405  0.040999446  0.040776651            3 
 2931000   0.77910864   -5.1310157    1446.4039  0.041123732  0.040766478            5 
 2932000   0.79300475   -5.1644773    1441.6622  0.040974938  0.040756245            5 
 2933000   0.80456631   -5.1794371    1439.0074  0.040885538  0.040745982           10 
 2934000   0.77398082   -5.1560398    1442.0007   0.04095662  0.040735715            3 
 2935000     0.779413   -5.1586632    1441.7548  0.040935686  0.040725543            6 
 2936000   0.79020489   -5.1768404    1441.9551  0.040927426   0.04071541           17 
 2937000    0.7918461   -5.1512316    1442.7477  0.040935981  0.040705303            7 
 2938000   0.77224459   -5.1646803    1449.6968  0.041119152  0.040695177            4 
 2939000   0.77533605   -5.1873575    1441.0784  0.040860793  0.040685005            8 
 2940000   0.77669261   -5.1682041    1442.3858  0.040883953  0.040674863            4 
 2941000   0.78174339   -5.1772422    1444.4635  0.040928922  0.040664709            3 
 2942000   0.77313638   -5.1626011    1443.7396  0.040894506  0.040654535            8 
 2943000   0.78854518    -5.152712    1447.0157  0.040973374  0.040644402            6 
 2944000   0.77998422    -5.143854    1447.8291  0.040982482  0.040634388            5 
 2945000   0.77110414   -5.1730055    1445.4384  0.040900917  0.040624307            4 
 2946000     0.770579   -5.1720173    1446.9426  0.040929583  0.040614261            4 
 2947000   0.78411926   -5.1693196    1449.5208    0.0409886  0.040604221            4 
 2948000   0.76714759    -5.165311    1447.8673  0.040927954  0.040594205            7 
 2949000   0.78180778   -5.1620447    1444.8271  0.040828166  0.040584111            3 
 2950000    0.7898912   -5.1781916    1445.6588   0.04083782  0.040574064            6 
 2951000   0.79279994   -5.1895198    1444.8827  0.040802063  0.040563897            5 
 2952000   0.76325017   -5.1749855    1442.8194  0.040729995  0.040553707            5 
 2953000   0.76728841   -5.1658494    1446.4873  0.040819711  0.040543588            4 
 2954000   0.77560561   -5.1965432    1443.5844     0.040724   0.04053348            6 
 2955000    0.7994404   -5.1745965    1447.3562  0.040816588  0.040523361            6 
 2956000   0.76754472   -5.1673781    1452.2656  0.040941182  0.040513358            7 
 2957000   0.76822868   -5.2017531    1450.6145  0.040880805  0.040503311            6 
 2958000   0.77122441   -5.1808597    1447.8492  0.040789081  0.040493258            7 
 2959000   0.76952724   -5.1731849    1447.7933  0.040773721   0.04048327            4 
 2960000   0.76749708   -5.1767618    1444.7632  0.040674639  0.040473334            5 
 2961000   0.76340926   -5.1635958    1449.2984  0.040788539  0.040463239            6 
 2962000   0.79253441    -5.148856    1449.8947  0.040791545   0.04045321            6 
 2963000   0.77538405   -5.1621533    1448.6034  0.040741463  0.040443155            5 
 2964000   0.78570641   -5.1655881    1448.4548  0.040723538  0.040433128            8 
 2965000    0.7950065   -5.1753288    1450.1497  0.040757439   0.04042306           12 
 2966000   0.78007685   -5.1748079    1448.0117  0.040683627  0.040413054            6 
 2967000   0.78591897   -5.1888957    1449.0512  0.040699111  0.040403029           13 
 2968000   0.77606562   -5.1674975    1450.6855  0.040731287   0.04039299            5 
 2969000   0.77657457   -5.1722788    1447.4114  0.040625671  0.040382985            4 
 2970000   0.76042932   -5.1915658    1453.1569    0.0407732  0.040373021            6 
 2971000   0.77395998   -5.1764693    1448.3877  0.040625708  0.040363014            6 
 2972000   0.77609656   -5.1866004    1447.9994  0.040601149  0.040353027            8 
 2973000   0.78099739   -5.2096322    1448.7386  0.040608213  0.040342988            4 
 2974000   0.78505479   -5.1831614    1451.5753  0.040674045  0.040332906            8 
 2975000   0.77237486   -5.1646907    1449.3264  0.040597379  0.040322898            5 
 2976000   0.78798379   -5.1983792    1453.5725  0.040702634  0.040312861            3 
 2977000   0.78452034   -5.1741739    1455.3538  0.040738825  0.040302856            4 
 2978000   0.78917642     -5.17574    1450.8036  0.040597817  0.040292896            6 
 2979000   0.77930589   -5.1973496    1452.4754  0.040630955  0.040282974            7 
 2980000   0.76879974   -5.1851707    1452.2015  0.040609662     0.040273            6 
 2981000   0.78816172   -5.1751765    1454.6476  0.040664418  0.040263003            7 
 2982000   0.76262493   -5.1727075     1451.318  0.040557735  0.040252956            4 
 2983000   0.76050865   -5.1755597    1453.2585   0.04059835  0.040242833            4 
 2984000   0.74853754   -5.1876511    1452.1261  0.040553119  0.040232745            5 
 2985000   0.76755022   -5.1932588    1453.2016  0.040569558  0.040222652           12 
 2986000   0.77425354   -5.1512469    1453.2658  0.040557763  0.040212686            5 
 2987000   0.78172714   -5.1608713    1453.6733  0.040555555  0.040202722            7 
 2988000   0.77582991   -5.1790818    1455.8047  0.040601426  0.040192788           10 
 2989000   0.76989311   -5.1801303    1454.3698  0.040547838  0.040182749           11 
 2990000   0.77780397   -5.1866629    1456.4711  0.040592841   0.04017269            4 
 2991000   0.76647138   -5.1651398    1453.3005  0.040490932  0.040162733            7 
 2992000   0.76533808   -5.1891948    1448.9824  0.040357131  0.040152716            5 
 2993000   0.78274234   -5.1838857    1455.7716  0.040532675  0.040142698            9 
 2994000   0.75235961   -5.1460067    1454.8476  0.040493421  0.040132712            7 
 2995000   0.77611189   -5.1811403    1453.1503  0.040432674  0.040122758            4 
 2996000   0.78569861    -5.176958    1452.4895  0.040400799  0.040112777           18 
 2997000   0.77183495    -5.196984      1452.75   0.04039456  0.040102793            6 
 2998000   0.79575873    -5.192659    1456.2489  0.040478345  0.040092746           10 
 2999000   0.75428942   -5.1906929    1451.6663   0.04033751  0.040082694            6 
 3000000   0.76720947   -5.1645137    1459.1615  0.040532263  0.040072734            7 
 3001000   0.76746942   -5.1975787    1454.2499  0.040382369  0.040062754            3 
 3002000   0.75903582   -5.1860653    1455.7812  0.040411425  0.040052771            5 
 3003000   0.77391843   -5.1751764    1454.4664  0.040361483  0.040042872            4 
 3004000   0.77160177   -5.1715335    1460.3134  0.040510248  0.040032923           11 
 3005000   0.75996567   -5.1867465    1450.6441  0.040228621  0.040022906            9 
 3006000   0.75101022   -5.1705677    1458.6877  0.040438226   0.04001288            5 
 3007000   0.76531214   -5.1931283    1453.3149  0.040275881  0.040002944            7 
 3008000   0.77136252    -5.182316    1459.7841  0.040441714  0.039992917            3 
 3009000    0.7813801   -5.1814382    1451.2446  0.040191775  0.039982935            7 
 3010000   0.76131875   -5.1643639    1459.4473  0.040405518   0.03997287           13 
 3011000   0.76718425   -5.1699935    1457.4682  0.040337325  0.039962886            6 
 3012000    0.7707565   -5.1863783    1459.5483  0.040381484  0.039952913            5 
 3013000    0.7697265   -5.1803623    1458.1337  0.040328955  0.039942977           12 
 3014000   0.76569739   -5.1761769    1459.1722  0.040344287  0.039933047            9 
 3015000   0.76944582    -5.221895    1458.0805  0.040300733  0.039923114           11 
 3016000   0.77625426   -5.2147115    1455.6899  0.040221317  0.039913099            4 
 3017000   0.74955406   -5.1885333    1456.2755  0.040224161  0.039903169            7 
 3018000   0.77505301   -5.2024903     1458.494  0.040272089  0.039893257            5 
 3019000   0.78721197   -5.2113831    1456.3401  0.040199295  0.039883306            5 
 3020000   0.77307506   -5.2082976    1457.2001  0.040209715  0.039873382            5 
 3021000   0.77014721    -5.193742    1459.3872  0.040256737  0.039863438            9 
 3022000   0.78341497   -5.2030519    1461.6892  0.040306893  0.039853499            7 
 3023000   0.76354407    -5.187135    1459.9926  0.040246791  0.039843619            6 
 3024000   0.77154553   -5.1769593    1457.0432  0.040152204  0.039833661            4 
 3025000    0.7633618   -5.1971077    1457.9381  0.040163585  0.039823687            5 
 3026000   0.78003214   -5.2125929     1458.782  0.040173551  0.039813748           11 
 3027000   0.75558483   -5.2150005    1460.4939  0.040207408   0.03980377            6 
 3028000   0.75295881    -5.192149    1459.4806  0.040166243  0.039793871            6 
 3029000   0.77056663   -5.2058591    1460.8589  0.040190901  0.039784015            6 
 3030000   0.77539209   -5.1985224     1459.508  0.040140483  0.039774119            4 
 3031000   0.77457927   -5.1929302     1461.015  0.040168675  0.039764251            6 
 3032000   0.76164033   -5.2048078    1453.4075  0.039946336  0.039754337            8 
 3033000   0.75786766   -5.2372581    1458.5806  0.040075299  0.039744321           16 
 3034000   0.76645171   -5.1885877    1462.8425  0.040179151   0.03973441           11 
 3035000   0.75973743   -5.1937435    1461.2648  0.040122593  0.039724609           11 
 3036000    0.7640325    -5.183434    1467.0538  0.040268274  0.039714806           12 
 3037000   0.77297942    -5.148957    1463.2153  0.040149689  0.039704987            7 
 3038000   0.76037161   -5.2260727    1457.7151  0.039985602  0.039695204            4 
 3039000   0.78001708   -5.2030122    1460.9553  0.040061295   0.03968539            4 
 3040000   0.76939076   -5.2195955    1461.8315  0.040072134  0.039675568           12 
 3041000   0.76247975   -5.2180238    1460.3236  0.040017638  0.039665669            7 
 3042000   0.77347187    -5.195087    1465.6252  0.040149715  0.039655833           10 
 3043000   0.76118068   -5.2105799    1460.9727   0.04000911  0.039645997            5 
 3044000   0.75747682   -5.2310801     1461.611  0.040013442  0.039636198           11 
 3045000   0.79681416    -5.193631    1459.7397  0.039949088  0.039626445            6 
 3046000   0.74769664   -5.2020381    1463.8175  0.040047534   0.03961665            3 
 3047000   0.77174295   -5.2180229    1461.3849  0.039967861  0.039606866            8 
 3048000   0.76343076    -5.200533    1463.5964  0.040015212  0.039596999            6 
 3049000   0.75781229   -5.1937453    1465.2255  0.040046614    0.0395872           10 
 3050000   0.76522204   -5.1866339    1467.4611  0.040094565  0.039577462            5 
 3051000   0.76798352   -5.1908614    1473.8874  0.040256949  0.039567821            6 
 3052000   0.76911299   -5.1985135    1464.4095  0.039984968  0.039558151           11 
 3053000    0.7410932   -5.2151888    1466.8397  0.040038207  0.039548409            6 
 3054000   0.75596769    -5.197535    1465.7156  0.039994422  0.039538721            4 
 3055000    0.7740343   -5.2053587    1468.2955  0.040051704  0.039529076           15 
 3056000   0.77254819   -5.2240503    1467.2377  0.040009753  0.039519402            7 
 3057000   0.75623765   -5.2037189    1473.5172  0.040167844  0.039509776            5 
 3058000    0.7808719   -5.2023766    1466.4033   0.03996085  0.039500176           15 
 3059000   0.76380425   -5.1867577    1468.6558  0.040009148  0.039490586            6 
 3060000   0.77664522   -5.2181057    1466.9188  0.039948769  0.039480966            9 
 3061000   0.77053879   -5.2208343    1470.0957  0.040022206  0.039471387            9 
 3062000   0.75589482   -5.2019068    1467.5907  0.039940963  0.039461785            7 
 3063000   0.78126042   -5.2254323    1465.9472  0.039883209  0.039452207            8 
 3064000   0.76288894   -5.2324309    1471.6859  0.040026271  0.039442574            8 
 3065000   0.75291468   -5.2258353    1467.9053  0.039910422  0.039432981            6 
 3066000   0.74927428   -5.2271628    1470.5122   0.03996826  0.039423256            4 
 3067000   0.75921108   -5.2270345    1464.1938  0.039783551  0.039413483            6 
 3068000   0.76966348   -5.2089655    1470.8911  0.039952495  0.039403775           10 
 3069000   0.76337413   -5.1927809    1468.5436  0.039875737  0.039394107           12 
 3070000   0.76154381   -5.1959329    1470.5133  0.039916214  0.039384433            8 
 3071000   0.75037583   -5.2115744    1469.0983  0.039864818  0.039374858            5 
 3072000   0.76437377   -5.2013254     1468.459    0.0398345  0.039365234            5 
 3073000   0.74065438   -5.1976522    1476.0332  0.040026933  0.039355634            6 
 3074000   0.77314572   -5.2206414    1466.2276  0.039748091  0.039345981            5 
 3075000    0.7708482   -5.2229986     1471.183  0.039869459  0.039336419            7 
 3076000   0.74007737   -5.1754428    1474.6913   0.03995154  0.039326825            5 
 3077000   0.76492166   -5.1967797    1469.3695  0.039794429  0.039317162            5 
 3078000   0.75848012   -5.2274103    1468.4287   0.03975603  0.039307492           18 
 3079000   0.76710761   -5.2248872    1468.4801   0.03974451  0.039297834           13 
 3080000   0.75884627   -5.1875985    1471.9677  0.039825966  0.039288247           12 
 3081000   0.75095339   -5.2322547    1469.8471  0.039755683  0.039278705           15 
 3082000   0.75022006   -5.2112449    1470.4928  0.039760241  0.039269126            6 
 3083000   0.76324344   -5.2146566     1473.211  0.039820818  0.039259541           11 
 3084000   0.77085689   -5.2005635    1474.7124  0.039848476  0.039250052            5 
 3085000   0.74318387   -5.2388562    1470.2613  0.039715325   0.03924045           11 
 3086000   0.77145274   -5.2086815    1470.2214  0.039701377  0.039230842            9 
 3087000   0.74332983   -5.2148081     1471.658  0.039727296  0.039221271            7 
 3088000   0.76504825   -5.2296737    1467.3359  0.039597795  0.039211624            9 
 3089000   0.75944508   -5.2214137    1471.4383  0.039695647  0.039201977            7 
 3090000   0.75534589    -5.204988    1469.1845   0.03962202  0.039192369            8 
 3091000   0.74741933   -5.1976972    1476.4144  0.039804118  0.039182734            4 
 3092000   0.75765378   -5.2207437     1472.895  0.039696393  0.039173041            9 
 3093000   0.75912522   -5.2276262    1469.4464  0.039590646  0.039163449            9 
 3094000   0.75223203   -5.1974863    1471.7446  0.039639749  0.039153897           10 
 3095000   0.76109738   -5.2289823    1473.9245  0.039685635  0.039144352           21 
 3096000   0.76729913   -5.2022399    1476.5307  0.039742968  0.039134805           13 
 3097000    0.7543252   -5.2061706    1471.0374  0.039582321  0.039125232            8 
 3098000   0.75602478   -5.2267819    1474.0535  0.039650675  0.039115643            8 
 3099000   0.76747182   -5.2016128    1476.0704  0.039692116  0.039105989            6 
 3100000   0.76756782   -5.2189383    1473.2376   0.03960316  0.039096418           14 
 3101000   0.74913833   -5.2260274    1477.6099  0.039707887  0.039086947            5 
 3102000   0.75930508   -5.2096782    1471.7646  0.039538055  0.039077334            4 
 3103000   0.76373915   -5.2002105     1474.909   0.03960976  0.039067702            6 
 3104000    0.7579918   -5.2092952    1471.8825  0.039515746  0.039058019            5 
 3105000   0.74291759   -5.2289743    1473.7672  0.039553602  0.039048363           10 
 3106000   0.74935468   -5.2151436    1473.8285   0.03954251  0.039038711            6 
 3107000   0.75475267    -5.226587    1472.2222  0.039486702  0.039029075            5 
 3108000   0.76922509   -5.2521145    1472.0485  0.039469341  0.039019446           12 
 3109000   0.74215856   -5.2201866    1478.1299  0.039619651  0.039009805           11 
 3110000   0.74603445   -5.2215302    1472.0412  0.039443763  0.039000186            8 
 3111000   0.73526214   -5.2171553    1476.3933   0.03954766  0.038990524            5 
 3112000   0.77736682   -5.2389764    1471.6318  0.039407449  0.038980888            4 
 3113000   0.75274388   -5.2515294    1472.0921  0.039407112  0.038971219            4 
 3114000   0.75994068   -5.1966984    1477.2399  0.039532218  0.038961565           12 
 3115000   0.74844879   -5.2119474    1474.4722  0.039445486  0.038951974            9 
 3116000   0.74897912   -5.2357515     1476.298  0.039481654  0.038942357            4 
 3117000   0.74953584   -5.2147811    1476.3587  0.039470611  0.038932668            8 
 3118000   0.76354485   -5.2526207    1470.5977   0.03930398  0.038922987           10 
 3119000   0.73388903   -5.2550308    1475.3241  0.039417657  0.038913337           13 
 3120000   0.75341914   -5.2095724    1475.9585  0.039421969  0.038903704            6 
 3121000   0.75793287   -5.2369538    1473.8509  0.039353063  0.038894095            5 
 3122000   0.73850909    -5.241266    1473.5052  0.039331229  0.038884477           18 
 3123000   0.75577793   -5.2314022    1473.5259  0.039319189  0.038874884            3 
 3124000   0.75586504   -5.2302344    1475.8258  0.039367952  0.038865258            9 
 3125000   0.73989491   -5.2536838    1475.9124  0.039357663  0.038855624           10 
 3126000   0.75814102   -5.2406841    1478.0033  0.039400814  0.038845992            6 
 3127000   0.76709266   -5.2323986    1477.4437    0.0393733  0.038836456            4 
 3128000   0.75729515   -5.2408679    1478.5012  0.039388885  0.038826883            6 
 3129000   0.74745592   -5.2334318    1477.8511  0.039358984  0.038817256           28 
 3130000   0.75237976     -5.21822    1477.4907  0.039336813   0.03880764            4 
 3131000   0.76157601   -5.2310469     1477.449  0.039323138  0.038798038            6 
 3132000   0.75141315   -5.2392738    1478.4056  0.039336036  0.038788551            6 
 3133000   0.75242311   -5.2410444    1474.4832  0.039219152   0.03877903            7 
 3134000   0.73291467   -5.2372613    1475.6677  0.039238132  0.038769467            9 
 3135000   0.75189565    -5.201986    1481.4319  0.039378837   0.03875996            5 
 3136000    0.7544693   -5.2276886    1477.9366  0.039273402  0.038750441            9 
 3137000   0.74839755   -5.2053097    1481.3509  0.039351581  0.038741007            8 
 3138000   0.73892253    -5.246288     1475.556   0.03918515  0.038731507           10 
 3139000   0.74585857   -5.2193337    1481.9012  0.039341116  0.038721939            9 
 3140000   0.75369054   -5.2586493    1477.4238  0.039209761  0.038712388            7 
 3141000   0.76855383   -5.2587243    1477.9657  0.039211656  0.038702766            8 
 3142000   0.74852908   -5.2189113    1484.1736  0.039363823  0.038693224            6 
 3143000    0.7547297   -5.2156403    1477.3206    0.0391696  0.038683662            7 
 3144000    0.7425712   -5.2413759    1477.3036   0.03915669  0.038674119            6 
 3145000   0.73407073   -5.2297076    1477.0885  0.039138539  0.038664502            6 
 3146000   0.75685401   -5.2411306     1477.726  0.039142985  0.038654892            5 
 3147000   0.74395695   -5.2159486    1480.9035  0.039214689  0.038645325            4 
 3148000   0.73977049   -5.2527827    1480.1638  0.039182652  0.038635745           11 
 3149000   0.74694736    -5.269561    1476.6513  0.039077255  0.038626099            8 
 3150000   0.73797632   -5.2598479    1478.3588   0.03911002  0.038616395            8 
 3151000   0.73925925   -5.2419806     1478.328  0.039096796  0.038606782            5 
 3152000   0.73860562   -5.2530511    1479.4699  0.039114582  0.038597138           16 
 3153000   0.75395104   -5.2292577    1477.5272  0.039050829  0.038587525           11 
 3154000   0.73798146   -5.2290809    1483.8954  0.039206706  0.038577927           19 
 3155000   0.73511952   -5.2337439    1480.0519   0.03909276  0.038568315            6 
 3156000   0.75050255   -5.2460279    1479.7799  0.039073192  0.038558672            5 
 3157000   0.74523959   -5.2467569    1479.0778  0.039042283  0.038549033           10 
 3158000   0.74431202   -5.2314747    1477.7654  0.038995288   0.03853947            8 
 3159000    0.7450404   -5.2644828    1479.2868  0.039023077  0.038529808            8 
 3160000   0.75527393   -5.2282748     1482.103  0.039084993  0.038520188            4 
 3161000   0.75370059   -5.2274643    1484.5969  0.039138376   0.03851059            3 
 3162000   0.73290689   -5.2604614    1480.0115  0.039005153  0.038500984           17 
 3163000   0.75455674   -5.2300351    1480.8446  0.039014769  0.038491343           14 
 3164000   0.73416628   -5.2415494    1481.7106  0.039025249  0.038481732            6 
 3165000   0.75838621   -5.2408667    1479.2891   0.03894916  0.038472112            5 
 3166000   0.73643408   -5.2284027    1484.2149  0.039066511   0.03846256            3 
 3167000   0.74263612   -5.2631245    1479.1513  0.038920938  0.038452855            7 
 3168000   0.73336308   -5.2268534    1478.1459  0.038882206   0.03844314            7 
 3169000   0.75305112   -5.2330627    1482.0832  0.038973472  0.038433502            4 
 3170000   0.74129879   -5.2562984    1476.3368  0.038810116  0.038423851            5 
 3171000   0.75039141   -5.2577693    1482.8515  0.038969082  0.038414186           10 
 3172000   0.73908467   -5.2310139    1481.7584  0.038928079  0.038404508            8 
 3173000   0.76243363   -5.2265441      1479.14  0.038847043  0.038394914            7 
 3174000   0.73746486   -5.2389729    1484.1395  0.038966065  0.038385429            8 
 3175000    0.7406925   -5.2307883    1481.8224  0.038892975  0.038375857            8 
 3176000   0.74028691   -5.2390861    1483.2127  0.038917209   0.03836615            9 
 3177000   0.73857825   -5.2148277    1484.4727   0.03893801  0.038356539            4 
 3178000   0.74798107   -5.2653572    1480.5444  0.038822751  0.038346887            5 
 3179000   0.74616325   -5.2507407    1481.3287  0.038831098  0.038337142            4 
 3180000   0.75404818   -5.2365691    1480.1142   0.03878706  0.038327373            7 
 3181000   0.76180452   -5.2719216    1482.1796  0.038828974    0.0383177            8 
 3182000   0.73336684   -5.2467226    1482.1288  0.038815441  0.038308048           12 
 3183000   0.73843829   -5.2421576    1483.4354  0.038837453  0.038298411            7 
 3184000   0.73209903   -5.2414195    1482.9194  0.038811752  0.038288824            9 
 3185000   0.70711803   -5.2324412    1484.7133  0.038846501  0.038279163            5 
 3186000   0.73232308    -5.269906    1481.7099  0.038755753  0.038269563            7 
 3187000   0.74073049   -5.2434701    1482.3517  0.038760374  0.038259922           12 
 3188000    0.7600548    -5.218592    1484.6479  0.038808238  0.038250343           11 
 3189000    0.7400995   -5.2303318    1486.2596  0.038838184  0.038240823            7 
 3190000   0.73120853   -5.2457949     1481.516   0.03870209  0.038231235            6 
 3191000   0.72998548   -5.2603755    1482.8355  0.038724421  0.038221651            6 
 3192000   0.74301461   -5.2414994    1481.8438  0.038686397  0.038211944           10 
 3193000   0.74299329   -5.2417877    1480.9735  0.038651569  0.038202279           22 
 3194000   0.73892414   -5.2687876     1483.512  0.038705697  0.038192667           13 
 3195000    0.7418659    -5.258792    1484.8272  0.038727887  0.038182996           11 
 3196000   0.73216592   -5.2415117    1484.9225  0.038718254  0.038173315           13 
 3197000   0.72759913   -5.2487509    1480.8017  0.038598731  0.038163656            6 
 3198000    0.7302198   -5.2540785    1484.3719  0.038679693  0.038153986           12 
 3199000     0.741905   -5.2503877    1484.2604  0.038664697  0.038144354            9 
 3200000    0.7340394   -5.2409277    1486.3147  0.038706112  0.038134727            5 
 3201000   0.74091949   -5.2719809    1486.1984  0.038690993  0.038125057            6 
 3202000   0.75123872   -5.2618047    1479.9961  0.038517492  0.038115369            4 
 3203000   0.75157781   -5.2589288    1482.3958  0.038567901  0.038105719           10 
 3204000   0.75287134   -5.2470516    1484.5655  0.038612294  0.038096081            7 
 3205000   0.73700127   -5.2772222    1484.0409  0.038586608  0.038086492            7 
 3206000   0.72823894    -5.261491    1487.5968     0.038667  0.038076832            6 
 3207000   0.74873007   -5.2704401    1481.3804   0.03849341   0.03806716           13 
 3208000   0.73744394   -5.2380663    1486.9469  0.038626011  0.038057619           10 
 3209000   0.73255065   -5.2541827    1486.4838  0.038601947  0.038048096           12 
 3210000   0.72943876   -5.2551131    1485.6052  0.038567114  0.038038487            5 
 3211000   0.73071264   -5.2700246    1485.5175  0.038552826  0.038028991            5 
 3212000   0.74409522   -5.2607202    1485.7056  0.038545703  0.038019441            9 
 3213000   0.73883407   -5.2555987    1482.5169  0.038451004  0.038009882            8 
 3214000   0.74701119   -5.2718378    1483.9259  0.038475572  0.038000311            7 
 3215000   0.73049625   -5.2738123    1486.8365  0.038539049  0.037990694            7 
 3216000   0.73505623   -5.2581875    1492.4458  0.038672413  0.037981094            7 
 3217000   0.74209418   -5.2862969    1484.5342   0.03845545  0.037971533            6 
 3218000   0.72607834   -5.2501967    1491.2197  0.038616628  0.037961962            7 
 3219000   0.74115544   -5.2882855     1486.312   0.03847758  0.037952445           12 
 3220000   0.72736014   -5.2492007    1488.0019  0.038509366  0.037942979            5 
 3221000   0.74153169   -5.2493249    1488.1482  0.038501196  0.037933476            7 
 3222000   0.73575768   -5.2768477    1482.8047  0.038351041  0.037923925            5 
 3223000    0.7511401   -5.2511549    1489.4854  0.038511878   0.03791439            6 
 3224000   0.74181561   -5.2934323    1486.4632  0.038421816  0.037904913            9 
 3225000   0.74450787   -5.2665202    1489.4524  0.038487142  0.037895388            6 
 3226000   0.73817626   -5.2417637     1488.615   0.03845358   0.03788591            4 
 3227000     0.718951   -5.2807199    1483.5068   0.03830975  0.037876381            9 
 3228000   0.74675397    -5.268904    1486.1098  0.038365081  0.037866871           11 
 3229000   0.73327031   -5.2586578    1489.5259  0.038441361   0.03785736            4 
 3230000   0.74035744   -5.2698043    1487.4265  0.038375297  0.037847892           11 
 3231000   0.73043163   -5.2742122    1489.5336  0.038417764  0.037838325            6 
 3232000   0.72481385   -5.2801328    1486.9777  0.038339979   0.03782881           24 
 3233000   0.75222716   -5.2698472    1486.8214  0.038324091  0.037819296            7 
 3234000   0.74379085   -5.2612115    1487.9546   0.03834144  0.037809794            9 
 3235000   0.73897299   -5.2477573    1489.9747  0.038381626  0.037800193           11 
 3236000   0.72363595   -5.2738426    1487.0668   0.03829488  0.037790678            7 
 3237000   0.74979545   -5.2671182    1488.5283  0.038320674  0.037781102            8 
 3238000   0.75135739   -5.2538365    1489.2204  0.038326653   0.03777154            5 
 3239000   0.73511422   -5.2672105    1489.8395  0.038330746  0.037762042            9 
 3240000   0.72940615   -5.2435998    1489.3617  0.038306627  0.037752501           10 
 3241000    0.7269734   -5.2550644    1493.6404  0.038404824  0.037742934            7 
 3242000   0.74579351   -5.2761564    1489.1045  0.038276385  0.037733333            5 
 3243000   0.76235376   -5.2730885    1486.2298  0.038190712  0.037723688            8 
 3244000    0.7330923   -5.2672865    1487.3486  0.038207681   0.03771402            4 
 3245000   0.73443121   -5.2799815    1487.7857  0.038207131  0.037704366            6 
 3246000    0.7562796   -5.2455251    1490.1389  0.038255774  0.037694749            4 
 3247000   0.72595707   -5.2557203     1486.928  0.038161585   0.03768514            5 
 3248000   0.73373345   -5.2662235    1485.1989  0.038105473  0.037675484            7 
 3249000   0.73343654   -5.2539877    1492.1984  0.038273275  0.037665894            7 
 3250000   0.73274098   -5.2709833    1486.9105   0.03812591  0.037656255            5 
 3251000   0.74203597   -5.2780695    1486.4952  0.038103538  0.037646604           10 
 3252000   0.73205294   -5.2657571    1487.6833  0.038122266   0.03763703           10 
 3253000   0.71952926   -5.3057945    1487.0651  0.038094709  0.037627388           11 
 3254000   0.73573389   -5.2856032    1487.5872  0.038096374  0.037617732            4 
 3255000   0.72916661    -5.294832    1487.3378  0.038078284  0.037608123            7 
 3256000    0.7378825   -5.2787584    1489.6871  0.038126717  0.037598491            7 
 3257000   0.73867097   -5.2775774    1489.5996  0.038112771  0.037588906            5 
 3258000   0.73052686   -5.2673992    1488.2438  0.038066395  0.037579288            7 
 3259000   0.71908532   -5.2981115    1486.3193  0.038005504  0.037569639           28 
 3260000   0.72109934   -5.2608512    1490.9691  0.038112707  0.037560021            3 
 3261000   0.70246291   -5.2995891     1484.236  0.037928959   0.03755041            8 
 3262000   0.72829503   -5.2495116    1492.1383  0.038119209  0.037540783           10 
 3263000   0.73118469   -5.2609296    1491.7814  0.038098411   0.03753124            8 
 3264000   0.74168376   -5.2629269    1493.0201  0.038118365  0.037521755           11 
 3265000   0.72938835   -5.2686629    1490.6159  0.038045328   0.03751224            5 
 3266000   0.73821758   -5.2623642    1491.6275  0.038059489  0.037502716            9 
 3267000   0.71400587   -5.2501601    1493.9512  0.038107111  0.037493257            9 
 3268000   0.72420678   -5.2659885     1488.574  0.037958333  0.037483753            6 
 3269000   0.71444834   -5.2874391    1485.9763  0.037880502  0.037474136            6 
 3270000   0.72285065   -5.2566826    1491.3933  0.038006965  0.037464498            4 
 3271000    0.7192604   -5.2636397    1489.6427  0.037950748  0.037454953            7 
 3272000   0.73554094   -5.2843964    1489.3745  0.037932317  0.037445297            4 
 3273000   0.72890134   -5.2854657    1484.2409  0.037790021  0.037435629           12 
 3274000   0.72322034   -5.3056992    1489.8102  0.037920235  0.037425966           13 
 3275000   0.74137119   -5.2695338    1491.0301  0.037939697  0.037416381           12 
 3276000   0.74455694   -5.2696019    1488.5126  0.037864078  0.037406717           12 
 3277000   0.72806003   -5.2639361    1490.9171  0.037913669  0.037397122            4 
 3278000   0.72894968   -5.2817505    1490.6949  0.037896453  0.037387579            5 
 3279000   0.71251012   -5.2927285    1489.6502  0.037858347  0.037377972           13 
 3280000   0.71879265   -5.2814505    1489.7188  0.037848548  0.037368355            7 
 3281000   0.73070614   -5.2914736    1490.9205  0.037867533  0.037358792           10 
 3282000   0.73959064   -5.2751097    1493.1096  0.037911578  0.037349262           10 
 3283000   0.72516553   -5.2893457    1491.8495  0.037868045  0.037339775           10 
 3284000   0.72789624   -5.2889314    1486.9821  0.037733002  0.037330188            8 
 3285000   0.73244586   -5.2922949    1491.4487  0.037834822  0.037320571            8 
 3286000     0.708618   -5.3038192    1489.7969  0.037781419  0.037310931            7 
 3287000    0.7282735   -5.2885643    1491.4288  0.037811297  0.037301286           10 
 3288000   0.73673681   -5.2951417    1490.7528  0.037782665  0.037291642           16 
 3289000   0.71909707   -5.3056579    1490.5285  0.037765494  0.037282012            5 
 3290000   0.72584386   -5.2998425    1490.6949   0.03775823  0.037272374            7 
 3291000   0.72535034   -5.2992421    1494.1581   0.03783445  0.037262753            8 
 3292000   0.71872699   -5.2572518    1490.8417  0.037739007  0.037253221            5 
 3293000   0.71316341   -5.2767002    1497.6919  0.037900899  0.037243672            7 
 3294000   0.71437096   -5.2869413    1486.9614  0.037617927  0.037234182            5 
 3295000   0.73765425   -5.2891055    1491.7434   0.03772745  0.037224519            7 
 3296000   0.72876395   -5.3259897    1487.3128  0.037603985  0.037214896           12 
 3297000   0.71550632   -5.2441184    1495.1314  0.037790198  0.037205321            5 
 3298000   0.70911311   -5.2990943    1489.6252  0.037639609  0.037195743            9 
 3299000   0.73190931   -5.2917539    1489.8754  0.037634521  0.037186131            8 
 3300000   0.71531574   -5.3060156    1490.9578  0.037650448   0.03717651            4 
 3301000   0.73700673   -5.2918415    1487.5052  0.037551884  0.037166893           10 
 3302000   0.71580873   -5.2929773    1493.4234   0.03768987  0.037157279            7 
 3303000   0.72301291   -5.2942017    1494.5443  0.037706739   0.03714763           11 
 3304000   0.71926564   -5.3057615    1489.7346  0.037574017  0.037137913           11 
 3305000   0.71756527   -5.2913103    1492.6526  0.037636222  0.037128216            6 
 3306000    0.7216148   -5.2894862    1491.1437  0.037586803  0.037118592            8 
 3307000   0.71329527   -5.2851075    1492.5798  0.037611626  0.037108951           10 
 3308000    0.7203261   -5.3006769    1492.9844   0.03761045  0.037099373           12 
 3309000    0.7283596   -5.3019978    1492.3651  0.037583487  0.037089808            5 
 3310000   0.71245602   -5.2850653    1495.0816  0.037640523  0.037080199           10 
 3311000    0.7178525   -5.2813856    1493.8926   0.03759923  0.037070631            7 
 3312000   0.70220798   -5.2889293    1495.4612  0.037627344   0.03706101           16 
 3313000   0.73978133   -5.2711747    1495.7931  0.037624335  0.037051401           13 
 3314000   0.72912901   -5.2890853    1499.4663  0.037705348  0.037041861           14 
 3315000   0.73001369   -5.2677103    1493.6682  0.037548219  0.037032246            6 
 3316000   0.71621928    -5.324701    1491.9861  0.037494624  0.037022677            8 
 3317000    0.7327297   -5.3180671    1486.4846  0.037345106  0.037012936           18 
 3318000   0.71882092   -5.2815437    1492.5757  0.037486832  0.037003272            6 
 3319000   0.72650562   -5.2824732    1495.2667  0.037543102   0.03699371            6 
 3320000   0.72211754    -5.318722    1491.1863  0.037429374  0.036984137            5 
 3321000   0.70708463   -5.3013817    1492.4378  0.037449507  0.036974514            9 
 3322000   0.72120022   -5.2705974    1493.3255  0.037460504  0.036964961            3 
 3323000   0.71679882   -5.3008909    1496.9961  0.037541282  0.036955421            4 
 3324000    0.7179873   -5.2824199    1500.9851  0.037629992  0.036945828           14 
 3325000   0.72102408   -5.2824722    1495.9743   0.03749309  0.036936305            3 
 3326000   0.72268483   -5.2772937    1496.2766  0.037489393  0.036926801            5 
 3327000   0.72074319   -5.2774268    1495.8494  0.037467423  0.036917234            7 
 3328000   0.70445338   -5.3176051    1492.9196  0.037382803  0.036907645            9 
 3329000   0.72393511   -5.2867717    1494.2527  0.037404944  0.036898065           10 
 3330000   0.69700472   -5.3042038    1495.1223  0.037415474   0.03688855           12 
 3331000   0.73378202   -5.3160249     1492.688   0.03734334  0.036878931            9 
 3332000   0.71880531   -5.2945147    1493.8663  0.037361603  0.036869424           10 
 3333000   0.72074374   -5.3048674    1493.2994  0.037336219  0.036859907            8 
 3334000   0.72961732   -5.2853566    1492.7723  0.037311846   0.03685038           12 
 3335000   0.70873472    -5.287405    1496.2773  0.037388237  0.036840928            9 
 3336000   0.70993409   -5.2804038    1496.0848  0.037372222   0.03683151            6 
 3337000    0.7301532   -5.2647657    1499.5009  0.037446332  0.036822199            6 
 3338000   0.70849045    -5.303026    1497.9079  0.037395344   0.03681283            7 
 3339000   0.72690084     -5.30922    1495.2743  0.037318416  0.036803386            6 
 3340000    0.7251288   -5.3069024    1499.4552  0.037411558  0.036793971           12 
 3341000   0.72355114   -5.2836646    1504.1616  0.037517748  0.036784562            4 
 3342000   0.70521471   -5.2801261    1494.8657  0.037274728  0.036775165            7 
 3343000   0.72781374   -5.2952357    1498.4751  0.037353552  0.036765772            4 
 3344000   0.72036448   -5.2966779    1498.6815  0.037347525  0.036756287           14 
 3345000   0.71914334   -5.3020789    1496.7919  0.037289284  0.036746846            8 
 3346000   0.72467193   -5.3022603    1501.7664  0.037402033  0.036737399            7 
 3347000   0.71267899   -5.2715446    1500.1588   0.03735083  0.036727963           12 
 3348000   0.71301473   -5.2990123    1499.9614  0.037334762  0.036718535            8 
 3349000   0.71209091   -5.3076797     1497.893  0.037272146  0.036709096            7 
 3350000   0.71086055   -5.3047888    1498.8677  0.037285265  0.036699618           12 
 3351000   0.73094933   -5.2962618    1494.9789  0.037177433  0.036690166           17 
 3352000   0.70578322   -5.3088948    1499.8992  0.037288664  0.036680722            5 
 3353000   0.70688376   -5.3182162    1496.1456  0.037184253  0.036671309            4 
 3354000   0.72020957     -5.31695    1495.9024  0.037167123  0.036661832           21 
 3355000   0.71552716   -5.3165863    1499.3151  0.037240812  0.036652339           12 
 3356000   0.70503408   -5.3126216    1498.2771  0.037203941  0.036642953           14 
 3357000   0.71731233   -5.3092533    1500.9609  0.037259479  0.036633565           10 
 3358000   0.71852612   -5.3016482    1497.9426   0.03717348  0.036624092           10 
 3359000   0.71330606    -5.328708    1497.2612  0.037145509  0.036614668           10 
 3360000   0.71924565   -5.3235955    1502.9019  0.037274353  0.036605238            8 
 3361000   0.71325928   -5.3023757    1499.5451  0.037180034  0.036595806           13 
 3362000    0.6986962   -5.2951462    1504.1685  0.037283573  0.036586417           14 
 3363000   0.71934307   -5.3033787    1501.3168  0.037201823   0.03657703            8 
 3364000    0.7071576   -5.3199599    1500.0507    0.0371594  0.036567627           16 
 3365000   0.71879625   -5.3392801    1497.1354  0.037076161  0.036558266           13 
 3366000   0.72022045    -5.296122    1503.1957  0.037215184   0.03654905            6 
 3367000   0.70991581   -5.3066656    1503.2451  0.037205353  0.036539749            5 
 3368000   0.72050469   -5.2975133    1504.9095  0.037235488  0.036530451           14 
 3369000   0.71473432   -5.3272765     1505.789   0.03724619  0.036521162            7 
 3370000   0.73120758   -5.3265798    1504.1654  0.037194991  0.036511841            6 
 3371000   0.72264198   -5.2942103    1502.7378  0.037148666  0.036502604            6 
 3372000   0.71920447   -5.2810589    1506.4095  0.037228387  0.036493353           15 
 3373000   0.72166159   -5.3152661     1500.995  0.037083581  0.036484092            9 
 3374000     0.708478   -5.2944657     1502.578  0.037111688  0.036474761            4 
 3375000   0.69109479   -5.2960235    1502.5528  0.037100069  0.036465439            9 
 3376000   0.69575558   -5.3170295    1497.6889  0.036969018  0.036456152           10 
 3377000   0.72416828    -5.337239    1504.3444  0.037122307  0.036446794           17 
 3378000    0.6833532   -5.3225314    1502.5642  0.037067401  0.036437427            9 
 3379000   0.69712328   -5.3262304    1504.1813  0.037096313   0.03642812            8 
 3380000   0.71256115   -5.2895362    1505.7797  0.037124746  0.036418842           10 
 3381000   0.72489248   -5.3405378    1502.7722  0.037039637  0.036409556           12 
 3382000   0.70501419   -5.3138217    1502.9716  0.037033598  0.036400225            6 
 3383000   0.72027868   -5.2992111    1501.0439  0.036975168   0.03639089            4 
 3384000    0.7154915   -5.3165988    1505.3872  0.037071199  0.036381558            5 
 3385000   0.70327408   -5.3108061    1502.5244  0.036989769  0.036372226            7 
 3386000   0.71594913   -5.3140724    1501.4393   0.03695214  0.036362902            6 
 3387000   0.71389769    -5.332073    1503.4403  0.036990461  0.036353627            6 
 3388000    0.7119679   -5.3224402    1500.8258  0.036915235  0.036344324            5 
 3389000   0.70020093   -5.2935274    1504.8143  0.037002417   0.03633502            7 
 3390000   0.70002172   -5.3216994    1505.0407  0.036997068   0.03632579           10 
 3391000   0.69983326   -5.3339885    1504.0453  0.036961696  0.036316545           11 
 3392000   0.70088518   -5.3034944    1504.7384  0.036967826  0.036307321            6 
 3393000   0.72763205   -5.2970228    1506.7855  0.037007208  0.036298132           12 
 3394000   0.70015424   -5.3167245    1507.8574  0.037022624  0.036288946            6 
 3395000   0.70261235   -5.3205589     1505.228  0.036947176  0.036279756           11 
 3396000   0.71635181   -5.3380944    1504.9859  0.036930358  0.036270553            7 
 3397000   0.70160919   -5.3060513    1509.0078  0.037018149  0.036261315            9 
 3398000   0.71160529   -5.3469945    1503.6513   0.03687589  0.036252068           10 
 3399000   0.70490512   -5.3263061    1503.6521   0.03686506  0.036242822            6 
 3400000   0.68674227   -5.3351811    1505.1129  0.036890021   0.03623354            8 
 3401000   0.69555842   -5.3073191    1506.6396  0.036916584  0.036224228            6 
 3402000   0.70856603   -5.3426968    1500.5161  0.036755735  0.036214914            7 
 3403000   0.72078272   -5.3416261    1502.9198  0.036803797  0.036205659            8 
 3404000   0.69441021   -5.3127817    1505.8733  0.036865289  0.036196332            6 
 3405000   0.71758863   -5.3159533    1506.3314  0.036865674  0.036187058            9 
 3406000   0.71128836   -5.3334269    1507.8618  0.036892292  0.036177767            5 
 3407000   0.68681852   -5.3387428    1504.8277  0.036807251  0.036168432            9 
 3408000    0.7295528   -5.3312123    1505.9742  0.036824486  0.036159119           11 
 3409000   0.71003919    -5.318998    1505.4355  0.036800515  0.036149819            9 
 3410000   0.70647134   -5.3558107    1501.7985  0.036700844  0.036140469            5 
 3411000    0.7205328   -5.3411362    1498.2705  0.036603892  0.036131107            6 
 3412000   0.70182142   -5.3444989    1504.4791    0.0367448   0.03612175            6 
 3413000    0.6980064   -5.3215706    1505.2432  0.036752691  0.036112385           18 
 3414000   0.69722212    -5.337605    1502.1928  0.036667467  0.036102925            6 
 3415000   0.70782571   -5.3150576    1505.9477  0.036748358  0.036093596            8 
 3416000   0.70519883   -5.3240007    1506.5335  0.036751891  0.036084322            9 
 3417000   0.70668476   -5.3374128    1507.2017   0.03675743  0.036075034           16 
 3418000   0.69538511   -5.3163349    1503.5476  0.036657587  0.036065742            6 
 3419000    0.7149777   -5.3389878    1505.7717  0.036701075   0.03605646            8 
 3420000   0.69875005   -5.3180631    1506.7141  0.036713305  0.036047172            7 
 3421000   0.71803101   -5.3338722    1508.5376  0.036746993  0.036037848           13 
 3422000   0.71360568   -5.3289506     1507.952  0.036721996  0.036028524           10 
 3423000   0.71110145   -5.3377374    1508.2739  0.036719104  0.036019222           12 
 3424000   0.71212243   -5.3215481    1507.6866  0.036694087  0.036009968            8 
 3425000   0.70123669    -5.328007     1505.764  0.036636593  0.036000746            5 
 3426000   0.70193239   -5.3534413    1505.7354  0.036625204  0.035991412           10 
 3427000   0.70779384   -5.3277544    1504.7104  0.036589593  0.035982061            4 
 3428000   0.71036197   -5.3505651    1507.6141  0.036649508    0.0359727            9 
 3429000   0.70607158   -5.3324236    1504.8837  0.036572463  0.035963357            6 
 3430000   0.69859076   -5.3331243    1507.4019  0.036622982  0.035954008            8 
 3431000     0.712182   -5.3422613    1508.0306  0.036627577  0.035944701           10 
 3432000   0.70351957   -5.3378335    1503.2628  0.036501137  0.035935375           10 
 3433000   0.70557434   -5.3325574    1507.6696  0.036597475  0.035926021            5 
 3434000   0.69409397   -5.3264064    1506.9463  0.036569266  0.035916742            7 
 3435000   0.69962256   -5.3324713     1503.404  0.036472684  0.035907414           13 
 3436000   0.69524703   -5.3557314    1505.9805  0.036524556  0.035898038            7 
 3437000   0.70645163   -5.3506602    1506.5417  0.036527537  0.035888704            6 
 3438000   0.71210379   -5.3247813    1505.7582  0.036497919  0.035879371            8 
 3439000   0.69009378   -5.3261428    1512.3356  0.036646689  0.035870076            6 
 3440000   0.70321634   -5.3314477    1504.7777  0.036452949  0.035860833            6 
 3441000   0.69895964   -5.3329727    1509.0227   0.03654516   0.03585154            9 
 3442000   0.71301045   -5.3440222    1509.3434  0.036542307  0.035842263            8 
 3443000   0.70057548   -5.3303499    1509.7312  0.036541079  0.035833009           11 
 3444000   0.71562224   -5.3180283    1510.1446   0.03654047  0.035823747           12 
 3445000   0.70276488   -5.3141137    1511.3607  0.036559282  0.035814523            8 
 3446000   0.70920489   -5.3186727    1510.0407  0.036516751  0.035805323            8 
 3447000   0.69541254   -5.3621437    1503.8314  0.036356045  0.035796067           12 
 3448000   0.70052657   -5.3341635    1508.9881  0.036470129  0.035786758           16 
 3449000   0.70698398   -5.3337087    1507.4945  0.036423467   0.03577752           12 
 3450000   0.69825037   -5.3260349    1507.6906  0.036417648  0.035768241            7 
 3451000   0.70976651   -5.3261017    1510.3417  0.036471112  0.035758989            8 
 3452000   0.69527355    -5.326063     1507.936  0.036402473  0.035749795            9 
 3453000   0.70684363   -5.3337489    1511.4769  0.036477385  0.035740542            3 
 3454000     0.708761   -5.3373784    1506.3406  0.036342902  0.035731313           11 
 3455000   0.70464941   -5.3385669    1509.2734  0.036403121  0.035722119            9 
 3456000   0.69390591   -5.3651681     1509.633  0.036401258  0.035712914            7 
 3457000     0.710771   -5.3235127    1506.7978  0.036322385  0.035703713            8 
 3458000   0.69667649   -5.3206046    1511.0629  0.036414664   0.03569456            9 
 3459000   0.68881397   -5.3410457    1511.2666  0.036409043  0.035685375            6 
 3460000   0.68470913   -5.3352088    1512.9708  0.036439568   0.03567616            6 
 3461000   0.69239553   -5.3305786    1506.7487  0.036279223  0.035666977            6 
 3462000   0.72660393   -5.3297516    1511.2598  0.036377331   0.03565778            7 
 3463000   0.68927704   -5.3602771    1511.0478  0.036361723  0.035648626            9 
 3464000   0.69908716   -5.3323604    1510.6838  0.036342471  0.035639407           11 
 3465000   0.69243497   -5.3501398     1511.503  0.036351684  0.035630185            5 
 3466000   0.70462662   -5.3377337    1512.5376   0.03636607  0.035620946            6 
 3467000   0.69796496   -5.3443157    1506.7703  0.036216958  0.035611775           13 
 3468000   0.69247015   -5.3103673    1514.5155  0.036392625  0.035602598            9 
 3469000   0.69984869   -5.3453577    1514.3751  0.036378761  0.035593458            8 
 3470000   0.71069967   -5.3591795    1510.0556  0.036264544  0.035584285           10 
 3471000   0.68739757   -5.3479184     1508.188  0.036209257  0.035575091            7 
 3472000   0.69416625   -5.3655088    1513.6062  0.036328873  0.035565913            8 
 3473000   0.70482518   -5.3470535    1512.3027  0.036287136  0.035556775           19 
 3474000   0.69324761    -5.338335    1511.5091  0.036257655  0.035547586            9 
 3475000   0.69235583   -5.3560334    1512.7663   0.03627737  0.035538407            6 
 3476000   0.69205118   -5.3353604    1511.5725  0.036238313  0.035529256            5 
 3477000   0.69601357   -5.3130763    1516.7436  0.036351827  0.035520173            8 
 3478000   0.69158919   -5.3456674    1512.9557  0.036250616  0.035511056            8 
 3479000   0.69928732   -5.3510415    1506.6413  0.036088946  0.035501876           11 
 3480000   0.70226184   -5.3560681    1509.4426  0.036145656  0.035492696            3 
 3481000   0.69786991   -5.3513749    1518.0707  0.036341825  0.035483528            8 
 3482000   0.69523634   -5.3367734    1513.6205  0.036224883  0.035474353            9 
 3483000   0.67924907   -5.3439581    1514.4346   0.03623396  0.035465212            4 
 3484000   0.68259765   -5.3583285    1512.1764  0.036169546  0.035456075           10 
 3485000   0.70326266   -5.3568076    1512.1302  0.036158064  0.035446948           14 
 3486000   0.70613511   -5.3659974    1512.0155  0.036144948   0.03543781            4 
 3487000   0.69725719   -5.3591008    1518.6703  0.036293621    0.0354287           18 
 3488000   0.69872984   -5.3650507    1510.9527  0.036098832  0.035419584            7 
 3489000   0.68023195   -5.3735218    1507.1068  0.035996628  0.035410347            6 
 3490000   0.69235603   -5.3664239    1508.4054  0.036017322  0.035401151           12 
 3491000   0.68378415   -5.3329524     1510.308  0.036052421  0.035391941           12 
 3492000   0.70031777    -5.367059    1516.1381  0.036181227  0.035382783            4 
 3493000   0.69653036   -5.3620825    1510.2548  0.036030509  0.035373618            7 
 3494000   0.69918154   -5.3442024    1513.2042  0.036090541  0.035364503            8 
 3495000   0.69101609   -5.3415003    1511.4121  0.036037485  0.035355346            6 
 3496000   0.69420081   -5.3368739    1510.7875  0.036012289  0.035346215            5 
 3497000   0.69796805   -5.3310653     1511.185  0.036011461  0.035337045           13 
 3498000   0.69526022   -5.3569446    1516.6856   0.03613221  0.035327875            4 
 3499000   0.69774037   -5.3314654    1514.4811   0.03606938  0.035318667            7 
 3500000   0.68866746   -5.3691675    1510.4614  0.035963367  0.035309443            9 
 3501000   0.71440194   -5.3535038    1510.4077  0.035951817  0.035300188            7 
 3502000   0.69007815   -5.3482069    1509.6217  0.035922847  0.035290968            8 
 3503000   0.68590247   -5.3468612    1514.2604  0.036022943  0.035281773            7 
 3504000   0.70000839   -5.3453604    1509.3609   0.03589614  0.035272574            8 
 3505000   0.69869223   -5.3585353    1513.3119  0.035979837  0.035263372           12 
 3506000   0.68602398    -5.347681    1510.2621  0.035897083  0.035254151           12 
 3507000    0.6890631   -5.3604817    1514.6506  0.035991127  0.035244931           10 
 3508000   0.69693711   -5.3711413    1510.3541  0.035878804  0.035235732           18 
 3509000   0.69739501   -5.3387082    1513.1959  0.035936067   0.03522653           15 
 3510000    0.6907859    -5.393664    1514.0142  0.035945256  0.035217294            9 
 3511000    0.6886655   -5.3738183    1513.4475  0.035921567  0.035208048            7 
 3512000   0.69022773   -5.3435455    1513.2379  0.035906366  0.035198824            5 
 3513000   0.68651171   -5.3463543    1513.9427  0.035912863  0.035189634            7 
 3514000   0.69977205   -5.3514531    1511.1357  0.035836078    0.0351805            6 
 3515000   0.69116743   -5.3571121    1513.2137  0.035875146  0.035171278            8 
 3516000   0.68458559   -5.3981978    1510.5118  0.035800905  0.035162104           10 
 3517000   0.70366877   -5.3832107    1509.2281  0.035760309  0.035152876            8 
 3518000    0.6919423   -5.3814223     1509.334  0.035752653  0.035143672            7 
 3519000   0.70498786   -5.3805174    1512.2621  0.035811833  0.035134473            6 
 3520000    0.6944828   -5.3469549    1514.9139   0.03586444  0.035125277           11 
 3521000   0.70221697   -5.3714841    1511.6982  0.035778145  0.035116067           12 
 3522000   0.68315582   -5.3556206    1516.1244  0.035872714  0.035106886           10 
 3523000   0.70537398   -5.3829537    1512.7632  0.035783025  0.035097759           12 
 3524000   0.68776972   -5.3730308    1515.5164  0.035837977  0.035088573            6 
 3525000   0.68500016   -5.3692546    1509.5259  0.035686192  0.035079318           10 
 3526000    0.6886614   -5.3598892     1512.823  0.035753993  0.035070077           16 
 3527000   0.68448278   -5.3669593    1517.9188  0.035864257  0.035060936            6 
 3528000   0.69925141   -5.3727798     1511.645  0.035705901  0.035051715            7 
 3529000   0.69160047   -5.3642331    1515.8242   0.03579447  0.035042439           20 
 3530000   0.68540208   -5.4080698    1510.6266  0.035661628  0.035033153            7 
 3531000   0.69347165   -5.3691242    1515.9254  0.035776584    0.0350239            9 
 3532000   0.67485266   -5.3577373    1515.9616  0.035767308  0.035014732            5 
 3533000   0.68505008   -5.3723192    1510.5576   0.03562972  0.035005504           11 
 3534000   0.69230975   -5.3594522    1513.0773  0.035679055  0.034996245           13 
 3535000   0.70299741   -5.3581875    1516.8184  0.035757153  0.034986997            6 
 3536000   0.68873515   -5.3548223    1515.6367  0.035719192  0.034977782           12 
 3537000   0.68804275   -5.3613708    1514.8671   0.03569096   0.03496861            7 
 3538000   0.69698781   -5.3689395    1512.7822  0.035631764  0.034959426           13 
 3539000   0.69988137   -5.3778423    1513.7471  0.035644418  0.034950245            5 
 3540000   0.70183105   -5.3825915     1515.451  0.035674458  0.034941046           14 
 3541000   0.68737595   -5.4127988    1509.3544  0.035520907  0.034931786            6 
 3542000   0.66579932   -5.3596516    1516.3047  0.035674401  0.034922563            5 
 3543000    0.6937222    -5.379053    1512.3477  0.035571261  0.034913339            5 
 3544000   0.67688275   -5.3667596    1512.7532  0.035570758  0.034904124            8 
 3545000   0.68132866    -5.363675    1513.2191  0.035571677  0.034894896            4 
 3546000   0.68753839   -5.3796577    1511.2244  0.035514769  0.034885666           15 
 3547000   0.69397196   -5.3819168    1512.1349  0.035526147  0.034876454           10 
 3548000   0.70583558   -5.3920702    1511.7361  0.035506767  0.034867289            8 
 3549000   0.68839089   -5.3891635    1512.5561  0.035516017  0.034858079           12 
 3550000   0.68729429   -5.3657511    1512.1477  0.035496426  0.034848872            4 
 3551000    0.6891501   -5.3778498    1514.9353  0.035551847   0.03483966            9 
 3552000   0.67734514   -5.3869584    1509.8717  0.035423041  0.034830446            8 
 3553000   0.68901555   -5.3817483    1512.6677  0.035478649  0.034821222            8 
 3554000   0.68805391   -5.3865907    1514.5473   0.03551274  0.034811966           11 
 3555000   0.67876612   -5.3674116    1515.6376  0.035528307  0.034802781           10 
 3556000   0.66685769   -5.3844559    1514.8848  0.035500674  0.034793571            8 
 3557000   0.68521867   -5.4014128    1509.8204  0.035372046   0.03478431            7 
 3558000   0.67419909   -5.3797903    1516.0147  0.035507184  0.034775083            6 
 3559000   0.69676644     -5.40265    1512.6625  0.035418715  0.034765883            5 
 3560000   0.68398331    -5.362921    1518.7534  0.035551344   0.03475675           13 
 3561000   0.66944938    -5.392215    1513.5025  0.035418479  0.034747622            8 
 3562000   0.70058157   -5.4047088    1512.8136  0.035392421   0.03473842            5 
 3563000   0.69977945   -5.3673136    1518.6225  0.035518348  0.034729224            8 
 3564000   0.69485079   -5.3644102    1513.1039  0.035379346  0.034720136            7 
 3565000   0.67156247   -5.3553002    1517.1894  0.035464923  0.034710952            6 
 3566000    0.6883797   -5.3881164    1511.6378  0.035325243  0.034701743            7 
 3567000    0.6810136   -5.3780749    1515.3177  0.035401311  0.034692585            4 
 3568000   0.67414823   -5.3971053    1515.9968  0.035407249  0.034683427            8 
 3569000   0.66990671   -5.3755825    1514.1697  0.035354668  0.034674196           14 
 3570000   0.67897834    -5.400994    1513.6808  0.035333352  0.034664988            6 
 3571000   0.67035069   -5.3771752     1514.662  0.035346354  0.034655781           16 
 3572000   0.67493418   -5.3912785    1512.7977  0.035292965  0.034646615            5 
 3573000   0.68522244   -5.3928572    1516.8106  0.035376681  0.034637407           19 
 3574000   0.67983016   -5.3949033    1515.7851  0.035342872  0.034628191           14 
 3575000   0.67291269   -5.4110884     1514.918  0.035312775  0.034618974           12 
 3576000   0.68606685   -5.3727903    1515.7394   0.03532204  0.034609839            8 
 3577000   0.66802978   -5.3798672    1518.8397  0.035384394  0.034600673           17 
 3578000   0.68366438    -5.391102    1515.9327  0.035306798  0.034591473            5 
 3579000   0.65607293   -5.3961495    1514.1863  0.035256272  0.034582254           16 
 3580000   0.67551088   -5.4135867    1514.4608  0.035252811  0.034572999            8 
 3581000   0.68231575   -5.3984004    1515.7761  0.035273576  0.034563778            6 
 3582000   0.67439977   -5.3977008    1513.5387  0.035211676  0.034554572            7 
 3583000   0.66463623   -5.4277977    1511.2567  0.035148774  0.034545327           10 
 3584000   0.68102314   -5.3988874    1511.9967  0.035156174  0.034536028            9 
 3585000   0.66755392   -5.3996354    1515.0492  0.035217322  0.034526772           13 
 3586000   0.66999975   -5.4287671    1510.0656  0.035091691  0.034517563            5 
 3587000     0.680326   -5.4143716    1513.4134  0.035159684  0.034508283           12 
 3588000   0.66332153    -5.406348    1510.9041  0.035091603   0.03449906           10 
 3589000    0.6964596   -5.4024204    1514.2423  0.035159337  0.034489862           15 
 3590000   0.66964706   -5.3937428    1515.0977  0.035169399  0.034480693           12 
 3591000    0.6694718   -5.4126264    1512.3413   0.03509564  0.034471415            9 
 3592000    0.6833473   -5.3889745    1512.1272  0.035080903  0.034462168            7 
 3593000   0.68714782   -5.3973256    1515.9712  0.035160294  0.034452914           12 
 3594000    0.6752631   -5.3919657    1515.1852  0.035132285  0.034443682            9 
 3595000   0.68042095   -5.3944617    1513.9478   0.03509383  0.034434456           12 
 3596000   0.68208738   -5.3887637    1510.5354  0.035004993   0.03442529           10 
 3597000   0.67112471   -5.4074763    1513.4821  0.035063528  0.034416041            7 
 3598000   0.67882598   -5.3923697    1512.8634  0.035039452  0.034406744           15 
 3599000   0.66911377   -5.4078125    1516.1096   0.03510488  0.034397461           10 
 3600000   0.66300341   -5.3838794    1517.1191  0.035118497  0.034388273           35 
 3601000   0.66016928   -5.4155573    1514.4701  0.035047443  0.034379061           11 
 3602000   0.67172209   -5.3991976    1510.5413   0.03494682   0.03436984            9 
 3603000   0.67985684   -5.3952512    1518.5931  0.035123349  0.034360603           12 
 3604000    0.6763274    -5.396725    1514.2497  0.035013173  0.034351385            9 
 3605000   0.67926818   -5.4144833    1510.7078  0.034921585  0.034342148            5 
 3606000   0.68782534   -5.4150479    1515.5923  0.035024781  0.034332964           11 
 3607000   0.68245329   -5.3921582    1517.2513  0.035053399  0.034323826           12 
 3608000   0.67898896   -5.4137979    1515.6383  0.035006427  0.034314691            8 
 3609000   0.68018932   -5.3871632    1513.7343  0.034952765   0.03430553           10 
 3610000   0.65831733   -5.3964408    1514.8657  0.034969198  0.034296384           10 
 3611000   0.66970781    -5.389897    1520.8918  0.035098583  0.034287189           11 
 3612000   0.67249137    -5.381718    1516.3068  0.034983085  0.034278075            7 
 3613000   0.65572572   -5.4077377    1512.8187   0.03489295  0.034268882           16 
 3614000   0.69044674   -5.4139738    1518.2438   0.03500839  0.034259709           16 
 3615000   0.66887803   -5.4021885    1513.5063  0.034889496  0.034250574            9 
 3616000   0.67384779   -5.4012227    1517.5027  0.034971947  0.034241391            9 
 3617000   0.65965195    -5.405247    1519.2264  0.035001991  0.034232244           12 
 3618000   0.67573656   -5.3941042    1516.8631  0.034937883  0.034223116           14 
 3619000   0.66050897   -5.3671987    1514.6634  0.034877576   0.03421402           11 
 3620000    0.6668707   -5.4085199    1517.2538  0.034927573  0.034204926            8 
 3621000   0.66619821   -5.4133451    1515.7751  0.034883897  0.034195795           15 
 3622000   0.66076373   -5.3889904    1517.4207  0.034912127  0.034186647            9 
 3623000   0.67217553   -5.4058824    1516.0462  0.034870875  0.034177533           14 
 3624000   0.67228761   -5.3944087    1517.8355  0.034902398  0.034168396           13 
 3625000    0.6836328   -5.4037004    1515.6546  0.034842635  0.034159271           15 
 3626000   0.67756579   -5.3921046     1517.162  0.034867669  0.034150148           18 
 3627000   0.68025092   -5.3945963     1517.325  0.034861801  0.034141055           14 
 3628000   0.67148412    -5.396628    1517.0187  0.034845155  0.034131918           10 
 3629000   0.65768946   -5.4058936    1519.7418  0.034898085  0.034122794            8 
 3630000   0.67654613   -5.4096339    1520.4166  0.034903961  0.034113665           15 
 3631000   0.67995654   -5.4005898    1515.4733  0.034780898  0.034104508            9 
 3632000   0.67078417   -5.3838146    1516.9305  0.034804757  0.034095424           28 
 3633000   0.66548628   -5.4170133    1514.6304  0.034742417  0.034086268           12 
 3634000   0.67958107   -5.4115749    1515.8162  0.034760048  0.034077148            3 
 3635000   0.65725017    -5.403108    1516.6313  0.034769171  0.034067952            7 
 3636000   0.65801921   -5.4157488      1515.65  0.034737119  0.034058775            6 
 3637000   0.66869186   -5.4175759    1515.4011  0.034721865  0.034049574            5 
 3638000   0.67553224   -5.4236239    1517.5568    0.0347617  0.034040353           12 
 3639000   0.67510051   -5.4103235    1515.7956  0.034711816  0.034031158            9 
 3640000   0.66510102    -5.408885    1514.5665  0.034674142  0.034021985            6 
 3641000   0.66698385   -5.4230036    1512.3496   0.03461388  0.034012746           10 
 3642000   0.67144017   -5.4115371    1515.9012  0.034685639  0.034003579            7 
 3643000   0.69286818   -5.4111707     1516.239  0.034683845  0.033994446           22 
 3644000   0.67425211   -5.4050725    1519.3972  0.034746552  0.033985335           12 
 3645000   0.66998507   -5.4176591     1512.058  0.034569228  0.033976241            9 
 3646000   0.65736441   -5.4026141     1518.263  0.034701569  0.033967137           16 
 3647000   0.67325498   -5.4149873    1517.4283   0.03467298  0.033958016           18 
 3648000   0.67191899   -5.4050219     1518.856  0.034696089  0.033948855           12 
 3649000    0.6803121   -5.4048266    1516.7081  0.034637528  0.033939735            7 
 3650000   0.66598022   -5.4243057    1517.8907  0.034655038  0.033930634            8 
 3651000   0.67722024   -5.4092053     1514.497  0.034568086  0.033921469           25 
 3652000   0.67775958   -5.4049702    1519.8396  0.034680532  0.033912361            7 
 3653000   0.65315964   -5.4089325    1517.7503  0.034623376  0.033903235           15 
 3654000   0.65448798   -5.4257579    1515.5058  0.034562712  0.033894041           19 
 3655000   0.66762443   -5.4037525    1517.7622    0.0346047  0.033884902           20 
 3656000   0.67294058   -5.3952382    1515.7864  0.034550201  0.033875784           10 
 3657000   0.66663971   -5.4018778    1519.4045    0.0346232  0.033866654           17 
 3658000   0.67255379   -5.4163614    1513.8131  0.034486356  0.033857517            9 
 3659000   0.66600098   -5.4550916    1514.2679   0.03448729  0.033848327            6 
 3660000   0.66444639   -5.4047969    1519.8579  0.034605143  0.033839148            9 
 3661000   0.66351172   -5.4418445    1510.6054  0.034385082  0.033829994            9 
 3662000    0.6563142   -5.4098567    1517.9182  0.034542104  0.033820852           13 
 3663000   0.66015639   -5.4230085    1519.1071  0.034559722  0.033811769           10 
 3664000   0.66400372   -5.4076339    1520.4619  0.034581102  0.033802644           21 
 3665000   0.65665358   -5.4267048    1516.7822  0.034487999    0.0337935           11 
 3666000   0.66393579   -5.4267254    1517.4405  0.034493556   0.03378436           11 
 3667000   0.66713397   -5.4332815    1517.5196  0.034485947  0.033775211            6 
 3668000   0.65882085   -5.3920803    1519.8158  0.034528713  0.033766109            8 
 3669000   0.66993436   -5.4075554    1516.6095  0.034446478  0.033757074            6 
 3670000   0.64713711    -5.413286    1517.5105  0.034457551   0.03374796           11 
 3671000   0.66973872   -5.4325241    1515.7483  0.034408161  0.033738781            5 
 3672000   0.65797448   -5.4421345    1518.5658  0.034462732  0.033729611           14 
 3673000   0.66203845   -5.4362061    1512.6057  0.034318126  0.033720419           18 
 3674000   0.66781052   -5.4352427    1520.5633  0.034489278  0.033711245           10 
 3675000   0.65185663   -5.4193967    1516.5081  0.034387938  0.033702098           22 
 3676000   0.65641894   -5.4014648    1515.6179  0.034358403  0.033693022           11 
 3677000   0.66361416   -5.4204513    1515.5955  0.034348552  0.033683948           17 
 3678000   0.68072662   -5.3926873     1519.601  0.034429967  0.033674865           11 
 3679000   0.65721434   -5.4268586    1515.9947  0.034338921  0.033665753            8 
 3680000   0.66838612   -5.4103497    1519.7675  0.034415025  0.033656654            7 
 3681000   0.65959772   -5.4275886    1521.6409  0.034448088  0.033647554            8 
 3682000   0.66822707   -5.4250667    1521.4335  0.034434038  0.033638463           11 
 3683000   0.65934353   -5.4268275     1518.164   0.03435071  0.033629324           12 
 3684000   0.65437977   -5.4291811    1517.4722  0.034325737  0.033620242           11 
 3685000    0.6645647   -5.3835545     1518.448  0.034338489  0.033611193           13 
 3686000   0.67406853   -5.4035466    1522.4151  0.034418861  0.033602122            8 
 3687000   0.67334983   -5.4216263    1515.3947  0.034250852  0.033593008           31 
 3688000   0.66860448   -5.4102305    1520.6792  0.034360973  0.033583871            5 
 3689000   0.66958582   -5.4275899    1518.5345  0.034303211  0.033574747           55 
 3690000   0.66739582   -5.4275245    1520.6622  0.034341965  0.033565628           14 
 3691000   0.66917819   -5.4324079     1518.117  0.034275196  0.033556524           30 
 3692000   0.66470202   -5.4011868    1518.2393  0.034268672  0.033547441            6 
 3693000   0.66661448   -5.4218042    1519.2791  0.034282857  0.033538359            5 
 3694000   0.66732942   -5.4381199    1515.9541  0.034198568  0.033529303            9 
 3695000   0.67329021   -5.4278423    1519.2038  0.034262602  0.033520256            7 
 3696000   0.66400477   -5.4472266    1515.9507  0.034179986  0.033511191           15 
 3697000   0.66598369   -5.4230785    1521.7283  0.034300972  0.033502091           22 
 3698000    0.6583386   -5.4447001    1517.8098  0.034203393  0.033492998            9 
 3699000   0.64467729   -5.4447892    1517.1194  0.034178594  0.033483875            9 
 3700000   0.66279273   -5.4269222    1516.9734  0.034166067  0.033474783           10 
 3701000    0.6624032   -5.4379281    1519.8994   0.03422272  0.033465694            8 
 3702000    0.6579917   -5.4289993    1520.7787  0.034233267  0.033456626           13 
 3703000   0.65840708    -5.429184    1518.1503  0.034164874  0.033447578            6 
 3704000   0.65717801   -5.4126736    1519.5135  0.034186318  0.033438514           20 
 3705000   0.65957319   -5.4093913    1517.2792  0.034126838  0.033429463           15 
 3706000   0.66229062   -5.4556572    1513.1429  0.034024619  0.033420364           17 
 3707000   0.65877825   -5.4061199    1520.5102  0.034181058  0.033411273           26 
 3708000   0.66624404   -5.4427856    1521.4238  0.034192373   0.03340224           14 
 3709000    0.6581259   -5.4482128    1517.7208  0.034099955  0.033393173           12 
 3710000   0.65745401   -5.4077853    1518.5359  0.034109073  0.033384165           14 
 3711000   0.66133598   -5.4074697    1519.8811  0.034130089  0.033375134           12 
 3712000   0.64017151   -5.4246169    1518.1137  0.034081216  0.033366073            7 
 3713000   0.65624976    -5.432981    1518.2256  0.034074548  0.033356963           11 
 3714000   0.66022358   -5.4407955    1516.4517  0.034025573  0.033347883           10 
 3715000   0.66776414   -5.4568756    1515.0908  0.033985886  0.033338736           29 
 3716000   0.65823835   -5.4706002    1515.7901  0.033992422   0.03332959            9 
 3717000   0.66565124   -5.4469499    1520.2962  0.034084303   0.03332047           21 
 3718000   0.65051609   -5.4248662    1523.1506  0.034139112  0.033311453           11 
 3719000   0.65946383   -5.4142338    1519.6185  0.034050786  0.033302432            8 
 3720000   0.68110014   -5.4557244    1517.9386  0.034004002  0.033293342           14 
 3721000   0.64307027   -5.4530977    1518.3917   0.03400501  0.033284227           26 
 3722000   0.66463451   -5.4430445    1517.9419  0.033985802  0.033275145            9 
 3723000   0.66336667   -5.4300759    1521.9616  0.034066649   0.03326607           12 
 3724000   0.65925534   -5.4462446    1515.1629  0.033905365  0.033256973           21 
 3725000   0.66088561   -5.4588493    1516.6919  0.033930467  0.033247852           20 
 3726000   0.64933107   -5.4424627    1518.2639  0.033956519  0.033238746           11 
 3727000   0.65136657    -5.465117    1517.3442  0.033926845  0.033229644           27 
 3728000   0.65983802   -5.4435953    1515.1421   0.03386852  0.033220479           19 
 3729000   0.64587813   -5.4411471    1517.5628  0.033913533   0.03321138           20 
 3730000   0.66127706   -5.4446997     1516.517  0.033881077  0.033202321            8 
 3731000    0.6497992   -5.4360484    1520.2775  0.033955987   0.03319322            8 
 3732000   0.64881211   -5.4481234    1517.6914  0.033889144  0.033184111            9 
 3733000     0.660935   -5.4579729     1515.212  0.033824717  0.033174981            5 
 3734000   0.64755616   -5.4482624     1518.778  0.033895241  0.033165846           13 
 3735000   0.65933776   -5.4643602    1515.8106  0.033819959   0.03315677            9 
 3736000   0.65245712   -5.4336904    1518.6016  0.033873162  0.033147669           17 
 3737000   0.65999645   -5.4434841    1520.4092  0.033904407  0.033138595           27 
 3738000    0.6425714   -5.4447305    1521.5932  0.033921732  0.033129534            6 
 3739000   0.63919067   -5.4518635     1518.157  0.033836074  0.033120451           10 
 3740000   0.66847336   -5.4495147    1516.6818  0.033794158  0.033111345           18 
 3741000   0.65615458   -5.4643096    1518.7193  0.033830511  0.033102234           18 
 3742000   0.66262862   -5.4688393    1518.6347  0.033819587  0.033093112           21 
 3743000   0.66157961   -5.4271023    1520.7144  0.033856853  0.033084058           16 
 3744000   0.64574687   -5.4171028    1522.0772  0.033878144  0.033075015            9 
 3745000   0.63697487    -5.455106    1517.1264  0.033758932   0.03306597            7 
 3746000   0.65200678   -5.4326609    1521.5508  0.033848345  0.033056918           12 
 3747000    0.6670241   -5.4470995    1518.1646  0.033764002  0.033047886           12 
 3748000   0.64340539   -5.4471009    1513.8764   0.03365965  0.033038851           10 
 3749000    0.6621389    -5.469509    1519.1742  0.033768431   0.03302979           14 
 3750000   0.64596795   -5.4363223    1521.6438  0.033814306   0.03302074           17 
 3751000   0.65962515    -5.431811      1524.92  0.033878076  0.033011694           20 
 3752000    0.6487748   -5.4396908    1522.1614  0.033807778  0.033002673            8 
 3753000   0.66613173   -5.4305071    1520.3019   0.03375748  0.032993655            6 
 3754000   0.66233402   -5.4524271    1517.3016  0.033681886   0.03298465            9 
 3755000   0.65158806   -5.4527352    1518.5441   0.03370049   0.03297565           12 
 3756000   0.64338859   -5.4461828    1520.3526  0.033731642  0.032966587            7 
 3757000   0.65045455   -5.4313537    1521.9795   0.03375875  0.032957561           19 
 3758000   0.67075968   -5.4478972    1517.1452  0.033642568  0.032948554           13 
 3759000   0.66223828   -5.4224985    1522.0674  0.033742738  0.032939581           11 
 3760000   0.66386474   -5.4682428    1523.4889  0.033765269  0.032930576           10 
 3761000   0.64966244   -5.4515271    1516.7059  0.033605999  0.032921518           15 
 3762000   0.64352936   -5.4569272    1519.1913   0.03365212  0.032912497            9 
 3763000   0.63934464   -5.4291229    1522.2152  0.033710143  0.032903491            8 
 3764000   0.64862342   -5.4408504    1520.1995  0.033656559  0.032894462            9 
 3765000   0.65407151   -5.4620639    1517.2505  0.033582348  0.032885462           27 
 3766000   0.67059522   -5.4497492    1526.2233   0.03377198  0.032876453           17 
 3767000    0.6663802   -5.4487515    1520.0296  0.033625998  0.032867489           11 
 3768000   0.65422626   -5.4457981    1520.9856  0.033638218  0.032858519           10 
 3769000    0.6312759   -5.4457751     1522.653  0.033666157  0.032849556            7 
 3770000   0.64201512   -5.4544069    1521.8616  0.033639735  0.032840542           13 
 3771000   0.65149787   -5.4306839    1525.5319  0.033711921  0.032831521            7 
 3772000   0.64327038   -5.4723001    1517.9575  0.033535646  0.032822534           15 
 3773000   0.66189099   -5.4761262    1520.1203  0.033574528  0.032813514           10 
 3774000   0.63367206   -5.4564602    1519.6784  0.033555874  0.032804492           15 
 3775000   0.64590713   -5.4822576    1518.9444  0.033530781   0.03279548            6 
 3776000   0.65920752    -5.469356    1516.8736  0.033476201  0.032786485           13 
 3777000   0.64767042   -5.4438587    1526.6506  0.033683052  0.032777525           11 
 3778000   0.65476543   -5.4510286    1520.4734  0.033537881  0.032768536            8 
 3779000   0.65116204   -5.4688016    1519.9678  0.033517857  0.032759565            4 
 3780000   0.64924357   -5.4635098     1518.496  0.033476543  0.032750601           21 
 3781000   0.63548937   -5.4696461    1522.4426  0.033554672  0.032741626            6 
 3782000   0.65400533   -5.4629135    1523.3298  0.033565349  0.032732683            8 
 3783000   0.64652162     -5.47333    1517.9627  0.033438249  0.032723646           14 
 3784000   0.65017231   -5.4749948     1519.518  0.033463663  0.032714585           11 
 3785000   0.64334878   -5.4526134    1522.0646  0.033510889  0.032705573           14 
 3786000   0.63329351   -5.4485331    1523.9843  0.033544293  0.032696643            7 
 3787000   0.63732337   -5.4698248    1522.8005  0.033509385  0.032687683           15 
 3788000   0.64429892   -5.4396035    1521.2012  0.033465355  0.032678762            9 
 3789000   0.67001987   -5.4576603    1522.3901  0.033482671  0.032669794           21 
 3790000   0.64629977   -5.4863149    1517.6687  0.033370025  0.032660825           20 
 3791000   0.66055327   -5.4369635     1519.521  0.033401938  0.032651822           33 
 3792000   0.64278838   -5.4630639    1518.6537  0.033374071  0.032642837            9 
 3793000   0.64999765    -5.468991    1519.2316  0.033377968   0.03263385            6 
 3794000   0.64928058   -5.4455209    1524.0497  0.033474998   0.03262486           10 
 3795000   0.64025696   -5.4644477    1521.5329  0.033410911  0.032615916            7 
 3796000   0.64043834   -5.4480426    1522.2817  0.033418549   0.03260696            8 
 3797000   0.63528024   -5.4497419     1522.525  0.033415086   0.03259797           11 
 3798000   0.64368159   -5.4763255    1525.5861  0.033473453  0.032589005           14 
 3799000   0.65743663   -5.4685365    1523.2021  0.033412347  0.032580051           13 
 3800000   0.64358575   -5.4725102    1523.3083  0.033405884  0.032571125            7 
 3801000   0.65331942   -5.4641531    1521.6721  0.033361223  0.032562198            8 
 3802000   0.64201392   -5.4796215     1520.189  0.033319942  0.032553245           14 
 3803000   0.65545549   -5.4596155    1520.4533   0.03331697  0.032544312           12 
 3804000   0.62656531   -5.4557039    1523.9539  0.033384899  0.032535432           11 
 3805000   0.64633344   -5.4587197    1516.8885  0.033221387  0.032526511            9 
 3806000   0.64161313   -5.4427259    1524.5287  0.033379942  0.032517581           13 
 3807000   0.65564362   -5.4307889    1524.4188  0.033368769  0.032508677           12 
 3808000    0.6494576    -5.473719    1522.8264  0.033325157  0.032499766            7 
 3809000   0.65259131   -5.4581316    1521.9385  0.033296982  0.032490853           15 
 3810000   0.63666549   -5.4749375    1518.7009  0.033217429   0.03248195           19 
 3811000   0.64622403   -5.4877355    1525.5054  0.033357505  0.032473021           18 
 3812000   0.65202681   -5.4902165    1522.6665  0.033286693  0.032464129           11 
 3813000   0.65280951    -5.493269    1522.1584  0.033266859  0.032455193           10 
 3814000   0.63778899    -5.495891    1521.8602  0.033251622  0.032446245           33 
 3815000    0.6307991   -5.4686367    1524.5868  0.033302463  0.032437272            8 
 3816000    0.6491765   -5.4813697    1519.6629   0.03318621  0.032428316           13 
 3817000   0.64207388   -5.4760402    1520.7553  0.033201364  0.032419371            7 
 3818000   0.65408206   -5.4776752    1520.6823  0.033191074  0.032410396            8 
 3819000   0.64668064    -5.462122    1523.3845  0.033241348  0.032401503            6 
 3820000   0.64813855   -5.4447845    1526.6696  0.033304312  0.032392574           20 
 3821000   0.64133316   -5.4771759    1520.1887   0.03315425  0.032383658           11 
 3822000   0.63913388    -5.484776    1520.9927  0.033163107  0.032374765            7 
 3823000   0.63978903   -5.4790476    1524.6237  0.033233579  0.032365839           16 
 3824000   0.64596603   -5.4686664    1523.9282  0.033209733  0.032356934            8 
 3825000   0.64092769   -5.4655397     1523.381  0.033189129   0.03234805            9 
 3826000    0.6558503   -5.4875224    1521.6877  0.033143573  0.032339125           13 
 3827000   0.64681044   -5.4862312    1521.7014   0.03313521  0.032330164           15 
 3828000   0.64361521   -5.4880238    1520.5058  0.033100527   0.03232123           18 
 3829000   0.63715105    -5.492096    1523.9646  0.033167159  0.032312306            7 
 3830000   0.63920715   -5.4852079    1523.4062  0.033146348  0.032303405           10 
 3831000   0.64841096   -5.4868087    1523.7444  0.033145054  0.032294443           26 
 3832000   0.64446316   -5.4884676    1521.1967  0.033081001  0.032285501           21 
 3833000   0.63917469   -5.4722671    1523.1782  0.033115448  0.032276587           17 
 3834000   0.63228332   -5.4644552    1521.0785  0.033061175  0.032267658           22 
 3835000   0.63763454   -5.4702078    1528.0177  0.033203341  0.032258732            8 
 3836000   0.63981636   -5.4861985    1521.9663  0.033063224   0.03224989            9 
 3837000   0.62902891   -5.4826036    1522.4968  0.033066128  0.032240973           11 
 3838000   0.63734189   -5.4819133    1522.9191  0.033066682   0.03223209           32 
 3839000   0.64516335   -5.4813755    1524.9523  0.033102204  0.032223211           22 
 3840000   0.63279672   -5.4863779    1519.8431  0.032982705  0.032214319            7 
 3841000   0.64105332   -5.4991427    1519.6615  0.032970179  0.032205446           20 
 3842000   0.62240475   -5.4824589    1522.5333  0.033023888  0.032196495           11 
 3843000   0.62709169   -5.4816637    1522.5811   0.03301633  0.032187564           29 
 3844000   0.64714824   -5.4985196     1521.875  0.032992433  0.032178645           18 
 3845000   0.65865144   -5.4868455    1526.5983  0.033086223  0.032169794           10 
 3846000   0.62504094   -5.4788762    1526.3319  0.033071847  0.032160929            7 
 3847000   0.62296594   -5.4747545    1521.9664  0.032968686  0.032152106            8 
 3848000   0.63359534   -5.4823795    1521.9505  0.032959772  0.032143249           38 
 3849000   0.63893061   -5.4772794    1520.3462  0.032916477  0.032134395           10 
 3850000   0.64381574   -5.4767862    1524.4153  0.032996002  0.032125559            9 
 3851000   0.62820562   -5.4860449    1525.3764  0.033008231  0.032116762           35 
 3852000   0.63002708   -5.4832787     1522.832  0.032944617  0.032107945            6 
 3853000   0.63931858   -5.4738611    1525.2613  0.032988608  0.032099144            8 
 3854000   0.64176131   -5.4835117    1521.5243  0.032899245  0.032090341           14 
 3855000   0.64160364   -5.4951753    1523.1074  0.032924933  0.032081571           13 
 3856000   0.62068296   -5.4747898    1525.9788   0.03297845  0.032072787            8 
 3857000   0.64452414   -5.4631665    1529.8014  0.033052488  0.032064064            8 
 3858000   0.63534193   -5.4946884    1526.6043  0.032974864  0.032055367           12 
 3859000   0.63307658    -5.467408    1528.1241  0.032999139   0.03204663            8 
 3860000   0.62783581   -5.4889271    1524.7703  0.032918184  0.032037874           13 
 3861000   0.62415029    -5.514202    1524.7286  0.032908759  0.032029068           11 
 3862000    0.6336094   -5.4897021     1526.291  0.032933951  0.032020283           12 
 3863000   0.62748085   -5.4821999    1525.1436  0.032900673  0.032011526            6 
 3864000   0.62597196   -5.4866127    1527.8004  0.032949456  0.032002764           11 
 3865000   0.63056091   -5.4902903    1525.6735  0.032895072   0.03199398            9 
 3866000   0.62931451   -5.4671271    1527.4828  0.032925565  0.031985208           12 
 3867000   0.63517765   -5.4800696    1525.4487  0.032873217  0.031976447           27 
 3868000   0.62835235      -5.5004    1525.2443  0.032860314  0.031967689            9 
 3869000   0.63131648   -5.4906737    1525.0937  0.032848577  0.031958945            9 
 3870000   0.62817373   -5.4772663    1527.9528  0.032901653  0.031950188           10 
 3871000   0.63325249   -5.5155848    1525.4611  0.032839513  0.031941477           10 
 3872000   0.61786757   -5.4763189     1526.254  0.032848098  0.031932768           14 
 3873000   0.62380913   -5.4790264    1527.4197  0.032864699  0.031924067           14 
 3874000   0.63298601   -5.4741723     1527.848  0.032865428  0.031915339           11 
 3875000    0.6313246    -5.487894    1522.2634  0.032736847  0.031906614           14 
 3876000   0.63159994   -5.5021552    1529.7093  0.032888487  0.031897874           11 
 3877000   0.63823395   -5.4880487     1526.822  0.032817943  0.031889141           10 
 3878000   0.63397107    -5.481227    1528.0442  0.032835745  0.031880457            9 
 3879000   0.62889129   -5.4713462    1532.7912  0.032929259  0.031871807           10 
 3880000   0.63504371   -5.4866384     1530.656  0.032874914  0.031863146            5 
 3881000   0.63882773   -5.5049125    1521.5757  0.032671471  0.031854451            8 
 3882000   0.61690679   -5.4947231    1525.8714  0.032755268  0.031845752           17 
 3883000   0.63952054    -5.516931    1529.0122  0.032814236  0.031837051           16 
 3884000   0.64047576   -5.4974007    1525.1473  0.032722866  0.031828343           18 
 3885000    0.6301907   -5.5137289    1521.5966  0.032638279  0.031819627           12 
 3886000   0.62831608   -5.5307223    1525.6099  0.032715945  0.031810862           16 
 3887000   0.62842846    -5.511756    1527.9111  0.032756864  0.031802134           22 
 3888000   0.63538919   -5.5049882     1524.582  0.032677083   0.03179341            9 
 3889000   0.61713102   -5.5181533       1527.2  0.032724779  0.031784712           10 
 3890000   0.62343107   -5.4982795    1524.3396  0.032655091  0.031776018            8 
 3891000   0.63074799    -5.493095     1527.025   0.03270421  0.031767304           11 
 3892000   0.63675358   -5.5305369    1526.9046  0.032693231  0.031758581            8 
 3893000   0.63556519    -5.488952    1529.0794  0.032731385  0.031749903           16 
 3894000    0.6267104   -5.5056158    1527.5333  0.032689893  0.031741217            6 
 3895000   0.63102539   -5.4947959    1530.1116  0.032736662  0.031732571            8 
 3896000   0.62632347   -5.4957689    1530.0188  0.032726275  0.031723916           11 
 3897000   0.64589348   -5.4781152     1530.083  0.032719249  0.031715301           19 
 3898000   0.63204563   -5.4916082    1531.0066  0.032730602  0.031706701           26 
 3899000   0.62349098   -5.4999221    1530.0705    0.0327022  0.031698068            4 
 3900000   0.62778697   -5.5286874    1526.3958  0.032615295  0.031689432            6 
 3901000   0.62164207   -5.4872687    1527.0214  0.032620298  0.031680773           14 
 3902000   0.63432838   -5.5052336    1529.2735  0.032660036  0.031672141           11 
 3903000   0.63190467   -5.4951466    1528.4055  0.032633134  0.031663546            9 
 3904000    0.6317664   -5.4929555    1528.7155  0.032631393  0.031654968           11 
 3905000   0.61184246   -5.5000354    1528.8044  0.032624934  0.031646362           10 
 3906000   0.63117128   -5.5099185    1528.1492  0.032602602  0.031637721           11 
 3907000   0.62925998   -5.4907946    1527.1347   0.03257262  0.031629096           16 
 3908000   0.62143591   -5.5119716    1529.0637  0.032605418  0.031620476            8 
 3909000   0.62459691     -5.50863    1530.7358  0.032632725   0.03161185           12 
 3910000   0.62644958   -5.4897963    1528.0227  0.032566554  0.031603265           24 
 3911000   0.63151576   -5.5075883    1524.2553  0.032477952  0.031594662            8 
 3912000   0.62009466    -5.517389    1527.1299  0.032530885   0.03158603           11 
 3913000   0.63302294   -5.5059053    1528.8338  0.032558859  0.031577408           17 
 3914000    0.6361759   -5.5056592    1529.8264  0.032571675  0.031568781           16 
 3915000   0.61051617   -5.5200955    1527.8924  0.032522188  0.031560193            6 
 3916000   0.61012814   -5.4972457    1532.0946  0.032603307  0.031551615           13 
 3917000   0.62977038    -5.504074    1527.8388  0.032504442   0.03154302           11 
 3918000   0.62867142   -5.4803818    1530.1655  0.032545633  0.031534463           15 
 3919000   0.63920661   -5.5302129    1530.3488  0.032541227  0.031525899           18 
 3920000   0.63573436   -5.5185381    1527.2279  0.032466579   0.03151727           37 
 3921000   0.64226651   -5.5006172    1530.8708  0.032535723  0.031508636           20 
 3922000   0.62083927   -5.4939253    1527.9946  0.032466315   0.03150003            8 
 3923000   0.61745768   -5.5233661      1525.03  0.032395062  0.031491416           10 
 3924000   0.61702923   -5.5185326    1530.7079  0.032507389  0.031482808           15 
 3925000   0.61750978   -5.5197036    1527.2708  0.032426132  0.031474169           17 
 3926000   0.62907634   -5.4950683    1532.6928  0.032532959  0.031465573           12 
 3927000   0.62370551   -5.5352611    1525.4955  0.032371944  0.031456939            9 
 3928000   0.61809245   -5.5197589    1527.1866  0.032399579  0.031448341           11 
 3929000   0.63029921   -5.5302767    1528.3108  0.032415178  0.031439801            8 
 3930000   0.61820274   -5.5150182    1529.0117  0.032421792  0.031431213           12 
 3931000    0.6325436   -5.5342005    1527.9406  0.032390838  0.031422641           18 
 3932000   0.63459716   -5.5201377    1532.6209  0.032481792  0.031414074           11 
 3933000   0.63726486   -5.5285678     1532.455  0.032470018  0.031405525            9 
 3934000   0.63285121    -5.510913    1530.4867  0.032420071  0.031396992           24 
 3935000   0.61300352   -5.5238936    1532.0614  0.032445181  0.031388438           17 
 3936000   0.61887306   -5.5233793    1527.8139  0.032347009  0.031379838           10 
 3937000   0.63463703   -5.5202994    1529.2353   0.03236888  0.031371274            7 
 3938000   0.63081081   -5.5232253    1533.2492  0.032445599  0.031362732           26 
 3939000    0.6270499   -5.5211268    1527.2166  0.032309737  0.031354201            9 
 3940000   0.63918919    -5.520669     1531.588  0.032393993  0.031345704            8 
 3941000   0.63513206   -5.5291125    1528.2268    0.0323147  0.031337162            7 
 3942000    0.6246688   -5.5553248    1527.5195  0.032291549  0.031328606            6 
 3943000   0.62555085   -5.5309359    1531.1965  0.032361072  0.031320002           10 
 3944000   0.60395581   -5.5091817    1529.0151  0.032306776  0.031311421           25 
 3945000   0.63176555   -5.5223231    1529.3329    0.0323053  0.031302858           11 
 3946000   0.63125068     -5.52895    1528.2033  0.032273259  0.031294314           40 
 3947000   0.61759138   -5.5130812    1532.5014  0.032355827  0.031285771           19 
 3948000   0.63757397   -5.5230951    1531.9729  0.032336475  0.031277248           12 
 3949000   0.61900943    -5.506601     1529.886  0.032284248  0.031268685           15 
 3950000   0.62873225   -5.5184611    1534.3461  0.032370172  0.031260135           11 
 3951000   0.61718297   -5.5399526    1530.6833  0.032284723  0.031251611           12 
 3952000   0.62018505   -5.5110364    1531.9891  0.032304089  0.031243053           15 
 3953000   0.62189911   -5.5049295    1530.8778  0.032272488  0.031234529           10 
 3954000   0.62699462    -5.556074    1532.7708  0.032304223  0.031225989           15 
 3955000   0.62757687   -5.5248645    1534.9259  0.032341465  0.031217471           11 
 3956000   0.61281871   -5.5271491    1529.5213  0.032219441  0.031208911           13 
 3957000   0.62788025   -5.5218155    1529.6301  0.032213589  0.031200412           21 
 3958000   0.60821389   -5.5275404    1529.4571  0.032201809  0.031191897           10 
 3959000   0.61358666   -5.5173836    1531.9634   0.03224643  0.031183388            8 
 3960000   0.61793066    -5.527851    1528.5693  0.032166863  0.031174849           26 
 3961000   0.62294362   -5.5638919     1524.617  0.032075591  0.031166285           14 
 3962000   0.62443724   -5.5249808    1529.0893  0.032161561   0.03115771           15 
 3963000   0.60791079   -5.5202201    1528.1509  0.032133713  0.031149178           11 
 3964000   0.63608398   -5.5340149    1530.0823  0.032166211  0.031140652            9 
 3965000   0.60682709   -5.5388259    1530.6823  0.032170708  0.031132131           23 
 3966000   0.62269111   -5.5288648    1530.1539  0.032151494  0.031123593           13 
 3967000    0.6242638   -5.5324101    1531.0858  0.032162966  0.031115089            9 
 3968000   0.62509435   -5.5298798    1533.4608  0.032204739  0.031106568           18 
 3969000   0.61294852   -5.5237343    1532.9608  0.032186126  0.031098033           14 
 3970000   0.59895922   -5.5281206    1528.4919  0.032084212  0.031089499           12 
 3971000   0.61414221   -5.5205886    1531.9701  0.032149125  0.031080979            8 
 3972000   0.62023045   -5.5171575    1535.5879  0.032216933  0.031072475           10 
 3973000   0.63238914   -5.5489712    1530.6571  0.032105401  0.031063941           21 
 3974000   0.61775725   -5.5296427     1528.337  0.032048671  0.031055419           10 
 3975000   0.61324254   -5.5282027    1532.9571  0.032137466  0.031046893           23 
 3976000   0.61680858   -5.5377962    1527.1804  0.032008308   0.03103836            9 
 3977000    0.6270225   -5.5091138    1532.9415  0.032120976  0.031029848            5 
 3978000    0.6202038   -5.5370319    1533.4068  0.032122649   0.03102135           12 
 3979000    0.6070678   -5.5256393    1532.1738  0.032088754  0.031012862           16 
 3980000   0.61225249   -5.5268909    1530.8459  0.032052887  0.031004379           14 
 3981000   0.61400039   -5.5410906    1530.6045  0.032039782  0.030995913            7 
 3982000   0.60282432   -5.5281564     1533.442  0.032091119  0.030987447           11 
 3983000   0.61666971   -5.5105846    1530.8838  0.032029538  0.030978995           19 
 3984000   0.63610582   -5.5440373    1532.6584  0.032058617  0.030970571           16 
 3985000   0.61080805   -5.5150627    1530.8395  0.032012537  0.030962111            9 
 3986000    0.6173743   -5.5098898    1529.3888  0.031974177  0.030953705           15 
 3987000   0.61601944   -5.5175028    1533.4288  0.032050598   0.03094529           14 
 3988000   0.62763296   -5.5465972    1532.4565  0.032022243  0.030936856           11 
 3989000   0.62447947   -5.5387576    1531.7022  0.031998458  0.030928415           14 
 3990000   0.60815083   -5.5106941    1532.8533   0.03201448  0.030919968           12 
 3991000   0.61209255   -5.5292795    1533.8622  0.032027524  0.030911551           25 
 3992000   0.61523029   -5.5180691     1533.625   0.03201455  0.030903114           15 
 3993000    0.6108473   -5.5412011    1529.5187  0.031920834  0.030894663            9 
 3994000   0.60906234   -5.5268497    1533.0767  0.031987079  0.030886223            9 
 3995000   0.61708637   -5.5461366    1532.5652  0.031968403  0.030877769           10 
 3996000   0.62657116   -5.5376545    1528.5042  0.031875714  0.030869285           21 
 3997000   0.60249702   -5.5525861    1531.4598  0.031929359  0.030860821            8 
 3998000   0.61286518   -5.5420093     1531.157  0.031915063  0.030852354            8 
 3999000   0.61197347   -5.5205009    1532.0593  0.031925883  0.030843915           10 
 4000000    0.6148523   -5.5327454    1533.7011  0.031952107  0.030835454           18 
 4001000   0.60414843   -5.5474763    1528.1935  0.031829407  0.030826984           15 
 4002000   0.60894566   -5.5585322    1532.3743   0.03190851  0.030818508           41 
 4003000   0.60254898   -5.5209016    1529.1531   0.03183348  0.030810038           19 
 4004000    0.6084138   -5.5581387    1531.3977  0.031872246  0.030801592           10 
 4005000   0.61349518   -5.5384759    1534.7476  0.031933992  0.030793178            7 
 4006000   0.61090958   -5.5576388    1532.3385  0.031875905  0.030784753           18 
 4007000   0.59684545   -5.5447028    1534.2698  0.031908115   0.03077632           15 
 4008000   0.60832695   -5.5376763    1531.3872  0.031840221  0.030767883            9 
 4009000   0.62083322   -5.5185355    1535.5943  0.031919729  0.030759504            8 
 4010000   0.60411766   -5.5193547    1537.4007  0.031949307  0.030751159           13 
 4011000   0.62823422   -5.5501229    1533.4161  0.031858557  0.030742791           12 
 4012000   0.61374667   -5.5692865     1531.436  0.031809489  0.030734381           17 
 4013000   0.59631833   -5.5285811    1532.4837  0.031823317  0.030726015           19 
 4014000   0.61021732    -5.553274    1527.9992  0.031722288  0.030717601           22 
 4015000   0.60525606   -5.5475879    1531.3028  0.031782956  0.030709156           15 
 4016000   0.60575349   -5.5429677    1532.6397  0.031802783  0.030700734           12 
 4017000   0.60929569   -5.5656986    1533.3473  0.031809545  0.030692298           20 
 4018000    0.6026008   -5.5655026    1530.2836  0.031738088  0.030683872            9 
 4019000   0.61273483   -5.5508727    1528.6371  0.031696049  0.030675445           18 
 4020000   0.60841613   -5.5580586    1532.0196  0.031758284  0.030667031           13 
 4021000   0.60052681   -5.5650031     1530.234   0.03171338  0.030658643           19 
 4022000   0.60660221   -5.5512492    1528.6829  0.031673357   0.03065023           15 
 4023000   0.60041113   -5.5651086    1531.1997  0.031717618  0.030641799           10 
 4024000   0.60256673   -5.5610536    1534.9056   0.03178648  0.030633365           13 
 4025000   0.60323781   -5.5571046     1534.371  0.031767516  0.030624953           14 
 4026000   0.61471363   -5.5376232    1534.8789  0.031770137  0.030616561           15 
 4027000   0.59746035   -5.5603791    1532.1084  0.031704917  0.030608187            9 
 4028000   0.60628017   -5.5416009      1530.65  0.031666873  0.030599764            9 
 4029000   0.60346334   -5.5610919    1534.1506  0.031731419  0.030591347           11 
 4030000   0.60354926   -5.5728563    1532.1208  0.031681571  0.030582969            8 
 4031000    0.6105354    -5.562104    1531.5153  0.031661194  0.030574529           17 
 4032000   0.60103219   -5.5514216    1533.0866  0.031685817  0.030566121           13 
 4033000   0.60030711   -5.5705205      1530.68  0.031628233  0.030557693           29 
 4034000   0.61686362   -5.5633744     1532.731  0.031662763  0.030549307           13 
 4035000   0.61331686   -5.5597522    1535.7991  0.031718279   0.03054093           24 
 4036000   0.60646407    -5.551177    1530.1321  0.031593411  0.030532534           24 
 4037000   0.61352787   -5.5642014    1532.6558  0.031637681   0.03052411           14 
 4038000   0.60660427   -5.5642668     1530.386  0.031583003  0.030515717           17 
 4039000   0.61375061   -5.5579086    1534.1039  0.031651891  0.030507313           43 
 4040000     0.600155   -5.5687272    1530.4184  0.031568037  0.030498883            8 
 4041000   0.61673389   -5.5472303    1530.4284  0.031560431  0.030490477           33 
 4042000   0.60733921    -5.567113    1527.2817  0.031487747   0.03048211           15 
 4043000    0.6206699    -5.561388    1532.3808  0.031585061   0.03047372           35 
 4044000   0.60471136   -5.5698198    1531.5216  0.031559546  0.030465327           15 
 4045000   0.59354599   -5.5682928    1530.8633  0.031538181  0.030456927           30 
 4046000    0.6056295   -5.5860204    1529.6964  0.031506352  0.030448508           19 
 4047000   0.60665924   -5.5726803    1535.0458  0.031608718   0.03044011           12 
 4048000   0.60961995   -5.5471312    1534.0545  0.031580503  0.030431772           20 
 4049000   0.60289532   -5.5353907    1535.0765  0.031593738  0.030423404           33 
 4050000   0.60333618    -5.553063     1534.742  0.031579053  0.030415048           16 
 4051000   0.59271312   -5.5507862    1536.7717  0.031613011   0.03040672           17 
 4052000   0.61565963   -5.5602729     1532.295  0.031513142  0.030398378           21 
 4053000   0.59936651   -5.5705301    1528.9948   0.03143751  0.030389997           19 
 4054000    0.6079691   -5.5603027     1534.643  0.031545861  0.030381629           18 
 4055000   0.60281503   -5.5387551    1535.7131  0.031560071  0.030373266           16 
 4056000   0.60123843   -5.5596966    1535.2278  0.031542321  0.030364944           10 
 4057000   0.60926028   -5.5657596    1530.9776  0.031447243  0.030356618           10 
 4058000    0.5857684   -5.5593853    1533.5183  0.031491669  0.030348264            9 
 4059000   0.59890425   -5.5355161    1535.2269  0.031518989  0.030339924           11 
 4060000   0.60852361   -5.5650738    1531.9654  0.031444281  0.030331655           15 
 4061000    0.5911024   -5.5762815    1535.5564  0.031510227  0.030323341           23 
 4062000   0.60911182   -5.5635324    1528.8111  0.031364089  0.030314983           13 
 4063000   0.59146287   -5.5710722    1530.4991  0.031390991  0.030306615           16 
 4064000   0.59781162   -5.5628984    1534.1488  0.031458103  0.030298277           14 
 4065000   0.60643722   -5.5829531    1531.3574  0.031393141  0.030289944           35 
 4066000    0.6022915   -5.5686591    1529.4176  0.031345663  0.030281622           17 
 4067000   0.59778401   -5.5722135    1531.8796  0.031388402  0.030273288           14 
 4068000   0.60924865   -5.5449325    1536.2181  0.031469562  0.030264998           15 
 4069000   0.59312968   -5.5361413     1536.924  0.031476283  0.030256688            9 
 4070000   0.60841267   -5.5534758    1534.7604   0.03142425  0.030248406           12 
 4071000   0.60670276   -5.5593882    1532.3641   0.03136748  0.030240141           13 
 4072000   0.59895333    -5.555949    1537.3443  0.031461696  0.030231862           10 
 4073000   0.60529629   -5.5435565    1536.9442  0.031445785  0.030223565           23 
 4074000   0.59873602   -5.5622969    1532.9211  0.031355774  0.030215271           16 
 4075000   0.59984868   -5.5533863    1531.7902  0.031324953  0.030206983           12 
 4076000    0.6014943   -5.5563636    1535.0355  0.031383618  0.030198699            9 
 4077000   0.59639813   -5.5688861    1534.9065  0.031373283  0.030190405           17 
 4078000   0.59770966   -5.5746182    1535.3183  0.031374004  0.030182097            9 
 4079000   0.60433924   -5.5743423    1527.9407  0.031215589  0.030173742            9 
 4080000     0.605579   -5.5696572    1532.1402  0.031293714  0.030165407           12 
 4081000   0.59701523   -5.5541745    1533.3182  0.031310099  0.030157109           10 
 4082000   0.59606904   -5.5491715     1535.607  0.031349156  0.030148809           19 
 4083000   0.60262986   -5.5629773    1533.9898  0.031308471  0.030140492           28 
 4084000   0.59071241   -5.5898889    1533.2403  0.031285511   0.03013215           39 
 4085000   0.58627696   -5.5627824    1532.8221  0.031269322  0.030123827            8 
 4086000   0.59935855    -5.565223    1534.4619  0.031295112  0.030115484           13 
 4087000   0.58778653   -5.5738702    1533.7206  0.031272338  0.030107173           16 
 4088000   0.61326217   -5.5589544    1534.6807  0.031284261  0.030098905           21 
 4089000   0.59224207   -5.5575207    1536.0932  0.031305397  0.030090648           12 
 4090000   0.60446031   -5.5445584    1533.3889  0.031242642  0.030082363           10 
 4091000   0.60048079   -5.5749288    1532.6392  0.031219734  0.030074055            8 
 4092000   0.59129375   -5.5730725    1534.5423  0.031250861  0.030065756           18 
 4093000   0.60167136   -5.5540217    1534.0541  0.031233287  0.030057517           17 
 4094000   0.60336733    -5.578955    1535.3873  0.031252795  0.030049241           13 
 4095000   0.60491666   -5.5821952      1533.55  0.031207773  0.030040935           15 
 4096000   0.59867464   -5.5817747    1536.1634  0.031253323  0.030032614           19 
 4097000    0.5954228   -5.5670494    1533.1658  0.031184724  0.030024326           23 
 4098000   0.58934576   -5.5625216    1533.0028  0.031173801  0.030016054            8 
 4099000   0.58497246   -5.5762294    1534.1117   0.03118874  0.030007779           10 
 4100000   0.61029838   -5.5764345    1531.5619  0.031129307  0.029999516            5 
 4101000   0.59423541    -5.559082    1538.9175  0.031271184  0.029991266           24 
 4102000   0.59342709   -5.5568711    1540.1748  0.031289103  0.029983061           10 
 4103000   0.58716915   -5.5608857    1537.5223  0.031227604  0.029974876           23 
 4104000   0.59945044   -5.5762743    1532.8228  0.031124569  0.029966637           27 
 4105000   0.59887813   -5.5735593    1534.8017  0.031157161  0.029958385           12 
 4106000   0.58817765    -5.578335    1530.7442  0.031067223  0.029950109            9 
 4107000   0.59824908   -5.5917426     1534.795   0.03114185  0.029941835           15 
 4108000   0.59685924   -5.5609746     1532.949  0.031096822  0.029933589           22 
 4109000   0.60222618   -5.5737583     1535.702  0.031145088  0.029925378           13 
 4110000   0.59338066   -5.5693968    1531.2136  0.031046503  0.029917131           12 
 4111000   0.58445401   -5.5848595    1531.7318  0.031049457   0.02990888           23 
 4112000   0.60804829   -5.6090987    1531.4788  0.031036779  0.029900612           28 
 4113000   0.60036486   -5.5643118    1535.0731  0.031102057  0.029892348           10 
 4114000   0.59074961   -5.5874429    1533.4444  0.031061506  0.029884102           15 
 4115000   0.60699793   -5.5707402    1533.8852  0.031062884  0.029875857           25 
 4116000   0.59998413   -5.5692883    1531.7769  0.031012651  0.029867591           15 
 4117000   0.60565402   -5.5801033    1531.7016  0.031003595  0.029859321           11 
 4118000    0.6064331   -5.5854284    1533.7473  0.031037464  0.029851038            7 
 4119000   0.59329361   -5.5921609    1530.6486  0.030967238  0.029842754            7 
 4120000    0.6106294   -5.5857316    1532.1783  0.030990662  0.029834491           10 
 4121000   0.58275933   -5.5699385    1534.5909  0.031031927  0.029826237            9 
 4122000   0.58495382   -5.5880404    1534.2932  0.031018381   0.02981796           19 
 4123000   0.58640535   -5.5755483    1534.2408  0.031009798  0.029809705           11 
 4124000   0.59194513   -5.5930987    1531.0037  0.030936868  0.029801448            7 
 4125000   0.58881245   -5.5729996    1536.7487  0.031045429  0.029793222           30 
 4126000    0.5878109   -5.5998793    1529.2439  0.030886329  0.029784957           21 
 4127000   0.58316459   -5.5842454    1534.3607  0.030982165   0.02977665           18 
 4128000   0.58598471   -5.5756431    1533.3563  0.030954382  0.029768384           21 
 4129000   0.58874025   -5.6022352     1533.619  0.030952187  0.029760143           42 
 4130000   0.58530098   -5.5756536    1535.6434   0.03098554  0.029751901           11 
 4131000   0.60390622   -5.5899915    1533.3995  0.030932774  0.029743663            8 
 4132000   0.58473055   -5.5672013    1532.0886  0.030898851  0.029735421           17 
 4133000   0.57597849   -5.5924169    1529.1734  0.030832596  0.029727158           33 
 4134000   0.59211374   -5.5933467    1533.4476  0.030911298  0.029718905           16 
 4135000   0.58113794    -5.604012    1531.3709   0.03086197  0.029710628           17 
 4136000   0.59439761   -5.5844407    1536.7019  0.030961919  0.029702366           20 
 4137000   0.58728518   -5.5956848    1532.7764  0.030875361  0.029694104           23 
 4138000    0.5866952   -5.5820207    1529.8443  0.030808852   0.02968587           17 
 4139000    0.5855576   -5.5947686    1533.0856  0.030866667  0.029677618           14 
 4140000   0.59283796   -5.5965148     1529.247  0.030781945  0.029669401           13 
 4141000   0.58912487   -5.6030121    1530.8054  0.030805872  0.029661143           36 
 4142000   0.59225134   -5.5928941    1533.4863  0.030852372  0.029652871            8 
 4143000   0.58960521   -5.5816843      1530.46  0.030784054  0.029644585           12 
 4144000   0.57252565   -5.5755838    1534.7169  0.030862229  0.029636358           19 
 4145000   0.59491754   -5.5843615    1533.8615  0.030837585  0.029628156            8 
 4146000   0.58895636   -5.5949403    1531.9925  0.030792582  0.029619948           16 
 4147000   0.58775295   -5.5922297    1534.5001  0.030835546  0.029611738           10 
 4148000   0.58454274   -5.5818603    1531.5801   0.03076945  0.029603488           19 
 4149000   0.59486801   -5.5950336    1530.8536  0.030747441  0.029595205           17 
 4150000   0.57465849   -5.5882187    1533.2629  0.030788413   0.02958696           17 
 4151000   0.57415478   -5.5856889    1533.1041  0.030777806  0.029578681           14 
 4152000   0.58204299   -5.6019022    1534.5184  0.030798779  0.029570445           10 
 4153000   0.58510906   -5.5892917    1529.1177  0.030682994  0.029562207           14 
 4154000   0.59443776   -5.5834228     1534.244  0.030778446  0.029553955           41 
 4155000   0.59125866   -5.5948433    1534.3566  0.030773296  0.029545744           12 
 4156000   0.57667324   -5.5935121    1533.9826  0.030758394  0.029537528           21 
 4157000    0.6017538   -5.6199275    1531.8491  0.030708226  0.029529319           16 
 4158000   0.58601976   -5.6165055    1530.3946  0.030671689  0.029521075           20 
 4159000   0.58470533   -5.6034384    1533.3973  0.030724479  0.029512855           38 
 4160000   0.58720835   -5.6027848    1533.0768  0.030710673  0.029504629           10 
 4161000   0.59295109   -5.6089575    1528.1403  0.030604429  0.029496398           12 
 4162000   0.59366073   -5.5970904    1530.1672  0.030637658   0.02948814            6 
 4163000   0.57873461   -5.6131037    1535.5024  0.030737097  0.029479916           17 
 4164000   0.57732108   -5.6056185    1530.4255  0.030628113  0.029471693            9 
 4165000   0.56894277   -5.6168868    1529.1433  0.030595104  0.029463442           13 
 4166000   0.58376138   -5.5998059     1530.524  0.030615379  0.029455239           12 
 4167000   0.57524024   -5.6029216    1536.7594   0.03073273  0.029447045            7 
 4168000   0.59637209   -5.5891677    1535.2531   0.03069524  0.029438854           19 
 4169000   0.57843165   -5.5910114    1530.3739  0.030590348  0.029430682           26 
 4170000   0.58454601   -5.6150479    1530.4443  0.030584419    0.0294225           11 
 4171000   0.59597017   -5.6076805    1532.6606  0.030621366  0.029414291           38 
 4172000   0.57372298   -5.6034396    1531.5734  0.030592311  0.029406094           13 
 4173000   0.58480167   -5.6247261    1532.1083   0.03059566  0.029397885           22 
 4174000   0.58619436   -5.6004869    1532.6322  0.030598789  0.029389648           19 
 4175000    0.5824724   -5.6309259    1532.5926  0.030590671  0.029381422           11 
 4176000   0.58828754   -5.6036334    1528.9112  0.030509881  0.029373217           23 
 4177000   0.58945248   -5.6009245    1529.1742  0.030507824  0.029365015           21 
 4178000   0.58572067   -5.6275707    1532.3015  0.030562899  0.029356804            9 
 4179000   0.58836435   -5.6127376    1530.3239   0.03051615  0.029348605           11 
 4180000   0.58202552   -5.5960646    1532.0253   0.03054277  0.029340391           10 
 4181000   0.58017095   -5.6212096    1532.7626   0.03055016  0.029332173            9 
 4182000   0.56987189   -5.6214192    1529.9786  0.030487378  0.029323944           13 
 4183000    0.5726012   -5.6129105    1531.1336    0.0305031  0.029315707           12 
 4184000   0.59382722    -5.614003    1529.9968  0.030473168  0.029307518           10 
 4185000   0.58168551    -5.628483    1531.9784  0.030505344  0.029299338           16 
 4186000    0.5848501   -5.6119429     1533.778  0.030533883  0.029291174           11 
 4187000   0.58502711   -5.6017318    1535.0958  0.030552818  0.029283029           16 
 4188000   0.57688429   -5.5948402    1531.9554  0.030483035  0.029274892           17 
 4189000   0.57550086   -5.6013518    1529.0371  0.030417703  0.029266754           13 
 4190000   0.56805338   -5.5990888    1530.3182  0.030435922  0.029258595           29 
 4191000   0.57577258   -5.6274108    1530.6784  0.030435824  0.029250454           28 
 4192000   0.58018822   -5.6129358    1531.2285  0.030439497  0.029242317           28 
 4193000    0.5787806   -5.6008253    1535.6312  0.030519738  0.029234167           24 
 4194000   0.57625072   -5.6237565    1536.9207  0.030538084  0.029226022           34 
 4195000   0.57182993   -5.5994449    1532.3496      0.03044  0.029217882           32 
 4196000   0.58481817   -5.5965544     1532.463  0.030434998  0.029209762           19 
 4197000    0.5782429    -5.620651    1534.1412  0.030461068  0.029201666           30 
 4198000   0.56996407   -5.6174853    1535.5621  0.030482017  0.029193535           21 
 4199000   0.58121553   -5.6265972    1535.6768  0.030477035  0.029185419           17 
 4200000   0.56855629   -5.6117234    1531.6897  0.030390669  0.029177338           32 
 4201000   0.57885724   -5.6239208    1535.5649  0.030460306  0.029169228           48 
 4202000   0.57722432   -5.6117894    1533.9604  0.030421236  0.029161149           33 
 4203000   0.57133399   -5.6303738    1535.0434  0.030435471  0.029153069           16 
 4204000   0.58160684   -5.6082795    1539.4703  0.030515982   0.02914495           13 
 4205000   0.58460618   -5.6063459    1532.3295  0.030367212  0.029136878           49 
 4206000   0.58913935   -5.5993842    1533.4395  0.030381985  0.029128782           37 
 4207000   0.58369611   -5.6318731    1536.0746  0.030426958  0.029120696           30 
 4208000   0.58749237   -5.6241167    1534.6805   0.03039212  0.029112605           30 
 4209000   0.58530257   -5.6096959    1536.2931  0.030416826  0.029104517           19 
 4210000   0.57756264   -5.6215147    1532.3605  0.030331759  0.029096425           19 
 4211000   0.57450149   -5.6205449    1534.4956  0.030366809  0.029088308           61 
 4212000   0.58406419   -5.6289175    1529.7509  0.030265727  0.029080182           17 
 4213000   0.57449152   -5.6114569    1537.1335  0.030404572  0.029072081           52 
 4214000   0.56466069   -5.6272918    1534.9673  0.030354518  0.029064003           30 
 4215000   0.59490906   -5.6065922    1537.0065  0.030387634   0.02905596           31 
 4216000   0.57749067   -5.6071965    1539.9259   0.03043813  0.029047926           23 
 4217000   0.58450604   -5.6205545    1535.6634   0.03034668  0.029039908           40 
 4218000   0.57144719   -5.6235633    1536.8603  0.030363132  0.029031877           38 
 4219000    0.5655896   -5.6117699    1536.4401  0.030347635  0.029023812           32 
 4220000   0.57005931   -5.6336782    1529.3176  0.030199794  0.029015747           38 
 4221000   0.57372034   -5.6329146    1533.1792  0.030268878  0.029007667           34 
 4222000    0.5675297   -5.6110087     1535.754  0.030312529  0.028999601           28 
 4223000    0.5844481    -5.621335    1534.1828  0.030274347  0.028991548           24 
 4224000   0.57723446   -5.6158393    1536.7777  0.030318372  0.028983482           15 
 4225000   0.56774854   -5.6303751    1536.8192  0.030312015  0.028975401           10 
 4226000   0.57011217   -5.6318985    1532.8523  0.030226619  0.028967351           25 
 4227000   0.57269567   -5.6330351    1535.6291  0.030274211  0.028959293           20 
 4228000   0.58020389   -5.6110595    1534.1479  0.030237857  0.028951212           18 
 4229000   0.57776102   -5.6389102    1532.4011  0.030196285   0.02894317           13 
 4230000   0.58914036   -5.6261901     1534.973  0.030239814  0.028935153           24 
 4231000   0.56663119   -5.6164562    1534.8656  0.030230552  0.028927168           24 
 4232000   0.56972873   -5.6188659    1535.3724  0.030233389   0.02891917           20 
 4233000   0.58842244   -5.6254958    1536.7898  0.030254149  0.028911199            8 
 4234000   0.57414423   -5.6084427    1536.9008  0.030249189  0.028903206           14 
 4235000   0.56830615   -5.6229438    1533.6173  0.030177436  0.028895187           13 
 4236000   0.58081014   -5.6114219    1534.2219  0.030182206  0.028887193           12 
 4237000    0.5758026   -5.6080884    1534.5496  0.030181528  0.028879231           23 
 4238000    0.5682601   -5.6292582    1532.7013  0.030138062  0.028871209           12 
 4239000   0.57869277   -5.6289662    1533.9144  0.030154801  0.028863191           27 
 4240000   0.56683669   -5.6236046    1535.1566  0.030172102  0.028855177           16 
 4241000   0.56812418   -5.6087419    1534.2887  0.030147935  0.028847182           21 
 4242000   0.57100719   -5.6258486    1535.1479  0.030157706  0.028839155           65 
 4243000   0.56641618   -5.6299895    1532.4891  0.030098379  0.028831163           18 
 4244000   0.57474946   -5.6430898     1535.947  0.030159185  0.028823143           37 
 4245000   0.55857021   -5.6398164    1536.6192  0.030165278  0.028815141           23 
 4246000   0.57446732   -5.6443703    1535.5323  0.030136841  0.028807151           15 
 4247000    0.5729336   -5.6183174    1535.6283  0.030131628  0.028799164           11 
 4248000   0.56746719   -5.6007825    1537.8823  0.030168753  0.028791213            8 
 4249000   0.56563767   -5.6290901    1538.6653  0.030177008  0.028783259           14 
 4250000   0.56467092    -5.618344     1536.192  0.030121412  0.028775301           13 
 4251000   0.55828475   -5.6440847     1535.789  0.030106425  0.028767337           16 
 4252000    0.5796886   -5.6405434    1535.3005  0.030089772  0.028759358           36 
 4253000   0.56955928   -5.6491545    1535.2908  0.030082506   0.02875136           44 
 4254000   0.57680979   -5.6328353    1534.7205  0.030064264  0.028743389           24 
 4255000   0.57165534   -5.6415955    1535.4997  0.030072459  0.028735387           29 
 4256000   0.57137617   -5.6305885    1532.1958  0.030000701  0.028727393           60 
 4257000   0.56653563   -5.6348401    1536.2549  0.030073114  0.028719397           27 
 4258000   0.58156182   -5.6500783    1532.3057   0.02998876  0.028711441           14 
 4259000   0.58662496   -5.6234743    1535.3091  0.030040485  0.028703457           19 
 4260000   0.59458418   -5.6286752    1539.3934  0.030113329  0.028695499           33 
 4261000   0.57631268   -5.6364743    1535.9012  0.030037965  0.028687548           22 
 4262000   0.56727646   -5.6357419    1536.5135  0.030042889  0.028679581           24 
 4263000   0.57335958   -5.6388079    1534.5053  0.029996584  0.028671603           15 
 4264000   0.57188431   -5.6373103    1535.3799  0.030006644  0.028663628           16 
 4265000    0.5676582    -5.621266    1531.6303  0.029926345  0.028655659           24 
 4266000   0.57637736   -5.6405733    1533.8057  0.029961825  0.028647693           18 
 4267000   0.57183755   -5.6399393    1533.4228  0.029947324  0.028639725           27 
 4268000    0.5728489   -5.6319147    1535.9611  0.029989869   0.02863178           39 
 4269000    0.5719617   -5.6526596     1535.335  0.029970622  0.028623795           49 
 4270000   0.56561459   -5.6423534     1533.974  0.029937041  0.028615834           12 
 4271000   0.57252406   -5.6320069    1536.5859  0.029980994  0.028607853           19 
 4272000   0.57218933   -5.6468323    1533.9454  0.029922468  0.028599899           22 
 4273000   0.58104529   -5.6371016    1536.1542  0.029958542  0.028591926           10 
 4274000   0.56792921   -5.6510375    1535.6313  0.029941337  0.028583992           44 
 4275000   0.56740141   -5.6388723     1534.668  0.029915555  0.028576038           60 
 4276000    0.5646924   -5.6132849    1535.7269  0.029929196  0.028568109           24 
 4277000   0.56280099   -5.6471977    1537.6204  0.029959091  0.028560184           18 
 4278000   0.56814379   -5.6519716    1534.2138  0.029885729  0.028552213           13 
 4279000   0.56867628   -5.6404058    1534.9433  0.029892951  0.028544264           22 
 4280000    0.5783942   -5.6358707    1533.7059  0.029861875  0.028536304           29 
 4281000   0.56230454   -5.6494834    1537.8098  0.029934785  0.028528337            9 
 4282000   0.56714173   -5.6240601    1537.9054  0.029929656  0.028520406           16 
 4283000   0.56137494   -5.6415548    1534.5967  0.029858291  0.028512475           11 
 4284000   0.56127536   -5.6311595    1534.7326  0.029853964  0.028504554           30 
 4285000     0.567682   -5.6458523    1533.3348  0.029819813   0.02849661           13 
 4286000   0.56006545   -5.6514242    1537.7062  0.029897849  0.028488652           26 
 4287000   0.57090337   -5.6435216    1534.7743  0.029833884  0.028480718           49 
 4288000   0.56496841   -5.6325195    1536.3293  0.029857145  0.028472803           26 
 4289000   0.56279765   -5.6431769    1537.3849  0.029870694  0.028464891           22 
 4290000   0.56582219   -5.6415072    1536.7933   0.02985224  0.028456965           41 
 4291000   0.57223973   -5.6381362    1531.5236  0.029742943  0.028449017           45 
 4292000   0.56301936   -5.6518742    1534.1029  0.029786093  0.028441079           52 
 4293000   0.56393934   -5.6618348    1537.4624  0.029844367  0.028433133           22 
 4294000   0.57674853   -5.6701221    1534.1861  0.029773835  0.028425181           39 
 4295000   0.55857881   -5.6449862    1534.0662  0.029764574  0.028417248           59 
 4296000    0.5538548    -5.652627    1529.8452  0.029675768  0.028409296           18 
 4297000     0.573769   -5.6586354    1535.9459  0.029787175  0.028401341           25 
 4298000   0.56025236   -5.6384184    1533.4562  0.029731971  0.028393397           25 
 4299000   0.55793096   -5.6678282    1535.1892   0.02975865   0.02838545           24 
 4300000   0.55771669   -5.6589353    1536.2917  0.029773094  0.028377496           21 
 4301000   0.56731259   -5.6755648    1533.9564  0.029720926  0.028369542           26 
 4302000   0.55928518   -5.6852035    1535.4663  0.029743265  0.028361584           23 
 4303000    0.5591928   -5.6428114    1536.3781   0.02975401   0.02835363           31 
 4304000     0.572664   -5.6404379    1532.4777  0.029671578  0.028345705           25 
 4305000   0.56123339    -5.659963    1531.2761  0.029641427  0.028337783           19 
 4306000   0.57338468   -5.6551247    1537.4007  0.029753071  0.028329876           22 
 4307000   0.55589465   -5.6627159    1532.6243  0.029653747  0.028321944           32 
 4308000   0.56781559   -5.6543264    1533.6008  0.029665753   0.02831406           31 
 4309000   0.57535205   -5.6628737     1536.396  0.029712926  0.028306151           47 
 4310000   0.55613849     -5.66004     1534.854  0.029676218  0.028298246           18 
 4311000   0.55991362    -5.638417    1535.8805  0.029689176  0.028290373           23 
 4312000   0.55998651   -5.6546854    1534.7117  0.029659704   0.02828248           13 
 4313000   0.58180807   -5.6407559    1533.6872  0.029633031  0.028274597           16 
 4314000   0.56551085   -5.6525045    1536.6297  0.029683003  0.028266727           11 
 4315000   0.56599341   -5.6417234    1535.5338   0.02965496  0.028258882           21 
 4316000   0.56371996   -5.6620653    1533.7292  0.029613245     0.028251           15 
 4317000   0.54267127   -5.6438839    1535.9587  0.029649423  0.028243114           20 
 4318000   0.55620702   -5.6520131    1533.7615  0.029600152  0.028235235           36 
 4319000   0.55553705   -5.6476939    1536.7409  0.029650786   0.02822736           12 
 4320000    0.5635916   -5.6583455    1534.8822  0.029608067  0.028219497           16 
 4321000   0.56357813    -5.663899    1534.9505  0.029602532  0.028211622           21 
 4322000   0.55375583   -5.6434817    1537.8566  0.029651716  0.028203774           11 
 4323000   0.56648142   -5.6374488    1534.7244  0.029584479  0.028195939           22 
 4324000   0.57663357   -5.6470581    1534.7795  0.029578699  0.028188105           30 
 4325000   0.54496956   -5.6436798    1536.3032  0.029601218  0.028180266           18 
 4326000   0.56046623   -5.6586179    1537.4015  0.029615531  0.028172404           56 
 4327000   0.55645353   -5.6507342    1534.2511  0.029548015  0.028164607           14 
 4328000   0.55752772   -5.6477181    1537.4488  0.029602757  0.028156804           27 
 4329000   0.55628274   -5.6617206    1533.9947  0.029529427  0.028148959           35 
 4330000   0.57037264     -5.64483    1536.1914  0.029564885  0.028141084           10 
 4331000   0.56099321   -5.6668074    1532.4904  0.029486847  0.028133242           14 
 4332000   0.55911042   -5.6582305    1534.6524  0.029521629  0.028125368           10 
 4333000   0.55475466   -5.6658101    1534.8493  0.029518604  0.028117501            8 
 4334000    0.5619516   -5.6442076    1536.2167  0.029538084  0.028109648           24 
 4335000   0.56099517   -5.6672377    1532.3917   0.02945774  0.028101796           30 
 4336000   0.55059911   -5.6813417    1535.3154  0.029507138  0.028093912           19 
 4337000   0.57431432   -5.6937373    1535.2645  0.029499357  0.028086061           14 
 4338000   0.56270505   -5.6669624    1534.0062  0.029468385  0.028078182           13 
 4339000    0.5599045   -5.6817149    1534.2833  0.029466914    0.0280703           30 
 4340000   0.55784415   -5.6662109    1530.7842  0.029392938  0.028062424           27 
 4341000   0.56157825   -5.6741996    1533.1306  0.029431211  0.028054549           20 
 4342000   0.54382869   -5.6853823    1531.0147  0.029383822  0.028046688           24 
 4343000   0.56580251   -5.6762201    1534.1015  0.029436286  0.028038842           12 
 4344000   0.56625717   -5.6852853    1533.7981   0.02942369  0.028030981           19 
 4345000   0.57011018   -5.6859998    1532.8972   0.02939964  0.028023113           21 
 4346000   0.56443959   -5.6802193    1532.2431  0.029380332  0.028015274           24 
 4347000   0.54689322    -5.670604     1534.929  0.029425063  0.028007434           36 
 4348000   0.55245595   -5.6665223    1534.4212  0.029408563  0.027999583           41 
 4349000   0.55840563   -5.6850503    1532.9616  0.029373834  0.027991707           35 
 4350000   0.54549125   -5.6739719     1529.122  0.029293526  0.027983875           14 
 4351000   0.55571329   -5.6522521    1535.6532  0.029411882  0.027976061           16 
 4352000   0.57947171   -5.6715526    1532.3229  0.029341355  0.027968259           24 
 4353000   0.56221871   -5.6648875    1540.0788  0.029483092  0.027960455           22 
 4354000   0.54418358   -5.6701495    1535.7129  0.029392759  0.027952652           17 
 4355000   0.55342009   -5.6699413    1533.3197  0.029340216  0.027944856           72 
 4356000   0.54833057   -5.6723667     1536.015  0.029385043   0.02793704           57 
 4357000   0.55732398   -5.6545049    1535.4301  0.029367112  0.027929218           43 
 4358000   0.55743497   -5.6501167    1537.1471  0.029393205  0.027921443           28 
 4359000   0.55865884    -5.673102     1536.087  0.029366197   0.02791365           56 
 4360000   0.55729517   -5.6687483    1538.9812  0.029414779  0.027905872           94 
 4361000   0.55280381   -5.6725194    1533.3612  0.029300643  0.027898092           56 
 4362000    0.5574557   -5.6667458    1536.4474  0.029352884  0.027890329           50 
 4363000   0.55163088   -5.6729455    1534.3451  0.029306003  0.027882563           37 
 4364000   0.55301942   -5.6579952     1536.339  0.029337362  0.027874799           48 
 4365000   0.55275554   -5.6758438    1534.9356  0.029303849  0.027867044           45 
 4366000   0.54841745   -5.6801846    1534.9385  0.029297193  0.027859252           22 
 4367000   0.55058878   -5.6789428    1535.0955  0.029293479  0.027851466           35 
 4368000    0.5453602   -5.6754538    1539.1727  0.029364558  0.027843699           10 
 4369000   0.55926076   -5.6897882     1534.729   0.02927308  0.027835946           20 
 4370000   0.54348801   -5.6752157    1536.9252  0.029308261  0.027828167           18 
 4371000   0.56078489   -5.6698609    1534.2521  0.029250593  0.027820398           17 
 4372000   0.53690129   -5.6898658    1533.4081  0.029227816  0.027812619           21 
 4373000   0.55283267   -5.6894116    1532.8629  0.029210743  0.027804817           16 
 4374000   0.54479047   -5.6983589    1533.7922  0.029221769  0.027797013           33 
 4375000    0.5395964   -5.6840089    1534.2038   0.02922293  0.027789198           63 
 4376000   0.55403318    -5.677668    1532.1116   0.02917641  0.027781393           18 
 4377000   0.54764435    -5.699198      1534.09  0.029207411  0.027773564           20 
 4378000   0.55311307   -5.6863887    1531.8691  0.029158465  0.027765755           38 
 4379000   0.55579738   -5.6984016    1532.9461  0.029172302  0.027757939           29 
 4380000   0.55142151   -5.7116548    1532.6349   0.02915972  0.027750147           28 
 4381000   0.56523159   -5.6866512    1532.3149  0.029146978  0.027742357           20 
 4382000   0.53967252   -5.6926658     1536.884  0.029227217  0.027734591           17 
 4383000   0.55360317    -5.707879    1533.0343  0.029147355  0.027726821           25 
 4384000   0.54680124   -5.6826666    1533.3316  0.029146359  0.027719032           10 
 4385000   0.54831122   -5.6945958    1534.0198   0.02915279  0.027711282           28 
 4386000   0.55178064   -5.6919753    1533.0991  0.029128649  0.027703542           37 
 4387000   0.55971903   -5.6960315     1535.525   0.02916809   0.02769579           54 
 4388000     0.551863   -5.6821839    1534.2786  0.029137774  0.027688037           37 
 4389000   0.54429935   -5.6846235    1535.8454  0.029160883  0.027680293           14 
 4390000   0.55789463   -5.6861384    1532.7848  0.029096142  0.027672529           26 
 4391000   0.54182916   -5.6863788    1531.4523  0.029064228  0.027664778           13 
 4392000   0.54625299   -5.7023092    1533.2088  0.029090938  0.027657021           18 
 4393000   0.53730304   -5.6961575    1531.5855  0.029053523  0.027649278           18 
 4394000   0.55167683   -5.7162161    1532.6109  0.029066358   0.02764152           48 
 4395000   0.54199659   -5.7150445    1529.6983  0.029004518  0.027633747          109 
 4396000   0.54868424    -5.703461     1531.157  0.029025572  0.027625975           31 
 4397000   0.55568297   -5.7019004    1532.0994  0.029036831  0.027618188           31 
 4398000    0.5606805   -5.6918169    1530.0346  0.028991107  0.027610387           75 
 4399000   0.53620807   -5.7026083    1533.6641  0.029053272   0.02760259           58 
 4400000   0.54048362   -5.7211434    1529.8779   0.02897496  0.027594772           47 
 4401000   0.54675155   -5.7057991    1531.0855  0.028991242  0.027586975           19 
 4402000   0.54738251   -5.7216226    1529.2185  0.028949313   0.02757917           38 
 4403000   0.54991371   -5.7135718    1530.8302  0.028973242  0.027571363           41 
 4404000   0.54450026   -5.7157397    1530.2359  0.028955418   0.02756356           31 
 4405000   0.54798212   -5.7190237    1531.7047   0.02897663  0.027555762           45 
 4406000     0.544455   -5.7300198    1531.0213  0.028957129  0.027547947           43 
 4407000   0.55639994   -5.7202325    1529.2162  0.028916425  0.027540153           45 
 4408000   0.55556729   -5.7132197    1531.6362  0.028955614  0.027532408           18 
 4409000   0.54370533   -5.7278486     1534.039  0.028994462  0.027524652           31 
 4410000   0.54656806   -5.6958527    1533.8512  0.028984338  0.027516906           36 
 4411000    0.5454377   -5.7004952     1534.361  0.028987398  0.027509195           40 
 4412000   0.54661905   -5.6809054    1534.9645  0.028992227   0.02750151           38 
 4413000   0.54240536   -5.6933308    1533.0803  0.028950077  0.027493818           22 
 4414000   0.55144756   -5.6792793    1536.6885  0.029011639  0.027486122           13 
 4415000   0.53249688   -5.6921474    1535.4819  0.028982293  0.027478418           13 
 4416000   0.54209534   -5.6932348    1536.8762  0.029002042  0.027470734           33 
 4417000   0.55466106   -5.6880772    1534.5367  0.028951338  0.027463059           29 
 4418000   0.53659992   -5.6769986    1535.6182  0.028965185  0.027455375           23 
 4419000   0.54154817   -5.6954103    1534.3361  0.028934451  0.027447697           30 
 4420000   0.54713791   -5.6778967    1534.6535  0.028933889  0.027440005           28 
 4421000   0.55063711   -5.7106176    1536.5478  0.028963052  0.027432317           35 
 4422000   0.54530571   -5.6959046    1531.9695  0.028870223  0.027424626           78 
 4423000   0.54954903    -5.700249    1531.1184  0.028847659  0.027416945           41 
 4424000   0.54556788   -5.7008454    1539.3009   0.02899527  0.027409245           17 
 4425000   0.53989522   -5.7147374    1529.8119  0.028810017  0.027401545           26 
 4426000   0.54071354   -5.6919268    1530.5064  0.028816584  0.027393838           32 
 4427000   0.55313251   -5.6892437    1536.5179  0.028923235  0.027386153           32 
 4428000   0.54182424   -5.6963745    1534.5327  0.028879342  0.027378462           41 
 4429000   0.53603267   -5.6957872    1534.2914  0.028868281  0.027370767           41 
 4430000    0.5519618   -5.6817436    1537.0865  0.028914343  0.027363073           41 
 4431000   0.55056884    -5.705696     1533.541  0.028841138  0.027355373           35 
 4432000   0.53944762   -5.6950384    1532.8753  0.028822113  0.027347687           69 
 4433000   0.55190182   -5.6942904    1535.5949  0.028866737  0.027339997           36 
 4434000   0.53819864   -5.6888416    1530.9465  0.028772864   0.02733229           56 
 4435000   0.54916459   -5.7060774    1534.0866  0.028825377  0.027324582           25 
 4436000   0.53540445   -5.7114117    1535.1629  0.028839099  0.027316858           43 
 4437000   0.54676246   -5.7202595    1532.4367  0.028781397  0.027309133           51 
 4438000   0.53653219   -5.6916255    1533.6972   0.02879858   0.02730146          102 
 4439000   0.54203569   -5.6864031    1538.2042  0.028876702  0.027293774           44 
 4440000   0.53898442   -5.7075298    1532.2692  0.028758807  0.027286097           85 
 4441000   0.55033573   -5.6982008    1531.0093   0.02872869  0.027278424          114 
 4442000   0.54111867   -5.6909415    1536.0898  0.028817534  0.027270771           96 
 4443000   0.53821029      -5.7083    1530.1032  0.028698762   0.02726309           87 
 4444000   0.54748108   -5.7114549    1530.1588  0.028693346  0.027255397           35 
 4445000   0.54639879   -5.7061077    1534.6909  0.028771859  0.027247719           28 
 4446000   0.53563733   -5.6958996    1534.5263  0.028762302  0.027240056           36 
 4447000   0.55811202   -5.7052587    1532.8227  0.028723909  0.027232373           60 
 4448000   0.54788723   -5.6856545     1535.865  0.028774449  0.027224709           50 
 4449000   0.53358617   -5.7084796    1537.5535  0.028799608  0.027217064          125 
 4450000   0.55348408   -5.6952407    1535.6802  0.028758056  0.027209413           26 
 4451000   0.53843139   -5.7027594    1534.0129  0.028720379  0.027201754           31 
 4452000   0.53533188   -5.7216951    1528.2494  0.028606047  0.027194091           41 
 4453000   0.54379256   -5.7182059    1533.0429  0.028689328  0.027186414           36 
 4454000   0.53865381   -5.7230944    1531.7266  0.028658259  0.027178737           20 
 4455000    0.5395768   -5.7076403    1530.4893   0.02862868  0.027171067           20 
 4456000    0.5329897   -5.7094478    1531.0102  0.028631997  0.027163406           21 
 4457000   0.53742676   -5.7221029    1529.1658  0.028591089  0.027155745           37 
 4458000   0.53352504   -5.7020853    1533.5953  0.028667476  0.027148094           16 
 4459000   0.53261513   -5.7237214    1530.0841  0.028595428  0.027140453           16 
 4460000   0.52705649   -5.7077942    1532.1979   0.02862851  0.027132808           16 
 4461000   0.53471204   -5.7225003    1534.4301  0.028663791  0.027125149           33 
 4462000   0.55243636   -5.7239888    1533.6711  0.028643193  0.027117526           80 
 4463000   0.52704674   -5.7203393    1536.5863  0.028691208   0.02710991           38 
 4464000   0.54362303   -5.7036312    1534.9913  0.028655005  0.027102298           61 
 4465000    0.5321765   -5.7116525    1530.1235  0.028557736  0.027094683           23 
 4466000   0.54883317   -5.7351322    1535.8694  0.028658557  0.027087051           31 
 4467000   0.52815768   -5.7073829    1530.9717  0.028560773  0.027079422           26 
 4468000   0.52597341   -5.7248371      1533.37  0.028599113  0.027071809           21 
 4469000   0.53224827   -5.7283781    1534.9478  0.028622134  0.027064195           35 
 4470000   0.53714337   -5.7138349    1535.6863  0.028629499  0.027056579           34 
 4471000   0.53726321    -5.709297    1535.0208  0.028610692  0.027048965           29 
 4472000   0.53743454   -5.7174292    1531.8453   0.02854512  0.027041337           61 
 4473000   0.54169958   -5.7119991    1534.6097  0.028590239   0.02703372           42 
 4474000   0.52560646   -5.7333416    1531.2018  0.028520373  0.027026077           25 
 4475000   0.52378555   -5.7340553    1532.8104  0.028543955  0.027018439           12 
 4476000   0.54260284    -5.717711    1532.7842   0.02853709  0.027010809           19 
 4477000   0.53910185   -5.7260557    1531.1563  0.028500414  0.027003189           47 
 4478000   0.53969233   -5.7110035    1532.0801  0.028511243  0.026995584           37 
 4479000    0.5308451   -5.7022646     1532.707   0.02851654  0.026988003           49 
 4480000    0.5335629   -5.7200539    1536.3636  0.028578192  0.026980415          110 
 4481000   0.53382298   -5.7123732    1534.7735  0.028542242  0.026972831           41 
 4482000   0.53167232   -5.7179227     1534.514  0.028531049  0.026965224           25 
 4483000   0.54189835   -5.7221584    1533.9547  0.028514288  0.026957623           38 
 4484000   0.53145654   -5.7230664    1533.5827  0.028501017  0.026950012           24 
 4485000   0.51993261   -5.7381456       1528.4  0.028398365  0.026942392           27 
 4486000   0.53205706   -5.7319869    1529.3794  0.028410229  0.026934777           38 
 4487000   0.52779325   -5.7179284    1533.2543  0.028475862  0.026927181           46 
 4488000   0.53201059   -5.7261207    1532.9661  0.028464165  0.026919576          128 
 4489000   0.52476456   -5.7529803    1533.1805  0.028461806  0.026911982           66 
 4490000   0.54425744   -5.7294823    1530.5085  0.028405874  0.026904377           56 
 4491000   0.53920064   -5.7290862     1530.427  0.028398036  0.026896765           50 
 4492000   0.53306315   -5.7304289     1528.112  0.028348767  0.026889136          150 
 4493000   0.53818242   -5.7235728    1533.4795  0.028442012  0.026881533           92 
 4494000   0.52912042   -5.7179872    1534.3551   0.02845192  0.026873933          193 
 4495000   0.53456493   -5.7311279    1530.6414   0.02837674  0.026866319          139 
 4496000   0.52976101   -5.7454525    1532.5256  0.028405352   0.02685871          116 
 4497000   0.52876343    -5.740144    1530.6198  0.028363719  0.026851089          112 
 4498000   0.52924565    -5.755058    1532.7819  0.028397471  0.026843463          107 
 4499000   0.54407122   -5.7409368    1531.2662  0.028363085  0.026835827          152 
 4500000   0.55205384   -5.7355907    1529.3727  0.028321717  0.026828191          191 
 4501000   0.52828228   -5.7466052    1533.6238  0.028394131   0.02682059           65 
 4502000   0.53678388    -5.714557    1532.6591  0.028369967  0.026812983           69 
 4503000   0.53725019    -5.744397    1532.2413  0.028355936  0.026805381           84 
 4504000   0.52050123   -5.7363993    1531.3314  0.028332803  0.026797818          177 
 4505000    0.5268606   -5.7225464    1533.4794  0.028366248  0.026790244          141 
 4506000   0.54055743   -5.7214256    1532.6382  0.028344397  0.026782674           70 
 4507000   0.53035737   -5.7335142    1532.7281   0.02833977    0.0267751          127 
 4508000   0.53635988   -5.7128068    1534.8856  0.028373366  0.026767543          122 
 4509000   0.52454608    -5.743888    1530.0349  0.028277424  0.026759989          110 
 4510000   0.52922531   -5.7195562    1529.4752  0.028260812  0.026752411           50 
 4511000   0.52821533   -5.7384677    1532.5225  0.028310843   0.02674484           46 
 4512000   0.53210258   -5.7273943     1532.333  0.028301068  0.026737292          107 
 4513000   0.54092219   -5.7303222    1532.9874   0.02830688  0.026729732           84 
 4514000   0.52337077    -5.749464    1530.6793  0.028257998  0.026722172          113 
 4515000   0.52716211    -5.739572    1530.7393  0.028252849  0.026714599          118 
 4516000   0.52524663   -5.7319148    1533.4126  0.028295922  0.026707032           75 
 4517000    0.5130741   -5.7326272    1532.2661  0.028268506   0.02669948          201 
 4518000   0.52329573   -5.7449121     1532.719  0.028270604  0.026691923          184 
 4519000   0.52778482   -5.7440084    1533.1562   0.02827241  0.026684358          254 
 4520000   0.54234196   -5.7559756     1528.267  0.028176013  0.026676775          109 
 4521000   0.51739992    -5.743145    1530.7004  0.028214635  0.026669205          138 
 4522000   0.51442631   -5.7307388    1528.1499  0.028161394  0.026661635          132 
 4523000   0.53604307   -5.7446749    1531.1298  0.028210071  0.026654074          121 
 4524000   0.52166483   -5.7471565    1529.4144  0.028172238  0.026646501          160 
 4525000   0.52953681   -5.7422203    1528.8486  0.028155592  0.026638915          142 
 4526000   0.51324351   -5.7663677    1529.3477  0.028158561  0.026631336          117 
 4527000   0.53184071   -5.7399901    1530.0852  0.028165916  0.026623729          194 
 4528000   0.51651649   -5.7715813     1528.366  0.028128054  0.026616134          183 
 4529000   0.51253689   -5.7543086    1529.7593  0.028147481  0.026608543          178 
 4530000    0.5188337   -5.7504002    1530.9509  0.028163189  0.026600963          134 
 4531000   0.53013275    -5.766418    1527.9484  0.028101751  0.026593402          257 
 4532000   0.51426656   -5.7574038     1530.007  0.028133403  0.026585861          251 
 4533000   0.53397034   -5.7534044    1530.2389  0.028131461  0.026578297          303 
 4534000   0.52482481   -5.7422291    1531.1725  0.028142414  0.026570736          227 
 4535000   0.51746639   -5.7555239     1531.227   0.02813721  0.026563178          188 
 4536000   0.52565494   -5.7597593    1531.6007  0.028137873  0.026555623          220 
 4537000   0.51788589   -5.7399408    1530.1428  0.028104893  0.026548105          155 
 4538000   0.52855018   -5.7403787    1529.1441   0.02808036  0.026540591          170 
 4539000   0.51671887   -5.7405694     1528.589  0.028063982  0.026533056          133 
 4540000   0.53585059    -5.752529    1530.0515  0.028084645   0.02652551          236 
 4541000   0.52074111   -5.7444589    1530.6086  0.028088685  0.026517948          122 
 4542000   0.53161465   -5.7480888    1533.5282  0.028136067  0.026510419          189 
 4543000   0.52459542   -5.7614595    1531.4576  0.028091893  0.026502901          191 
 4544000   0.52102831   -5.7435112    1531.0304  0.028077876  0.026495373          237 
 4545000   0.52220528   -5.7348272    1532.8452  0.028104972  0.026487856          255 
 4546000   0.52565841   -5.7495593    1530.0086  0.028046793  0.026480349          176 
 4547000   0.52067652   -5.7429406    1531.9818  0.028076788  0.026472841          222 
 4548000   0.51726648   -5.7513384    1530.3663  0.028041012  0.026465329          193 
 4549000   0.51175334   -5.7563143    1529.3994  0.028017135  0.026457798          244 
 4550000   0.52742724   -5.7487239    1527.1761  0.027970258  0.026450275          226 
 4551000   0.52678172   -5.7583406      1526.55  0.027952648  0.026442766          194 
 4552000   0.52786721   -5.7400422    1531.7754  0.028042169  0.026435246          201 
 4553000     0.520007   -5.7744285    1529.3925  0.027992396  0.026427717          188 
 4554000   0.54225815   -5.7596464    1529.5778  0.027989639  0.026420192          171 
 4555000   0.52135278    -5.766329    1530.0511  0.027992153  0.026412645          192 
 4556000   0.52380205   -5.7482902    1531.7393  0.028016888  0.026405119          152 
 4557000   0.52848178   -5.7575121    1531.2657  0.028002079  0.026397595          161 
 4558000   0.51772898   -5.7516366    1528.7771  0.027950436  0.026390092          165 
 4559000   0.53844744   -5.7506961    1531.4528  0.027993215  0.026382599          122 
 4560000   0.51974168   -5.7432282    1534.9303  0.028050626  0.026375114          122 
 4561000   0.53188192   -5.7555496    1529.0261  0.027936603  0.026367644           92 
 4562000   0.53007001   -5.7537102      1530.82  0.027963247  0.026360184          145 
 4563000   0.51605883   -5.7372794    1531.4521  0.027968663  0.026352718           97 
 4564000   0.53921214   -5.7506404    1529.2263  0.027921894  0.026345244          110 
 4565000    0.5150279   -5.7788974    1528.6679  0.027905585  0.026337755          117 
 4566000   0.52069988   -5.7491574    1531.6563  0.027954014  0.026330263           92 
 4567000   0.51827394   -5.7573113    1528.7839  0.027895479  0.026322767           89 
 4568000   0.50414734   -5.7504725    1528.1567  0.027877931  0.026315284           92 
 4569000   0.53973313   -5.7713407     1527.397  0.027857974  0.026307803          116 
 4570000   0.51181741   -5.7572582    1534.8905   0.02798852  0.026300316          113 
 4571000   0.52829163   -5.7559987    1531.5433  0.027921377  0.026292841           85 
 4572000   0.52402867   -5.7618218    1531.9094  0.027921942  0.026285366          101 
 4573000   0.52159612   -5.7509268    1531.7573  0.027913065  0.026277893           82 
 4574000   0.52152612   -5.7601832    1531.6646  0.027905273  0.026270432          107 
 4575000   0.52781703   -5.7807445    1532.6831  0.027917726  0.026262969          128 
 4576000   0.51696024   -5.7541255    1532.2401  0.027903557    0.0262555           99 
 4577000   0.51715375     -5.74667    1530.5526  0.027866736  0.026248037          116 
 4578000   0.51429489   -5.7598667    1529.2395  0.027836747  0.026240598          129 
 4579000   0.51758083   -5.7485436    1535.1379  0.027938012  0.026233158          111 
 4580000   0.52297998   -5.7719332    1528.1463    0.0278047  0.026225723          121 
 4581000   0.52431339    -5.773507    1530.3529  0.027838771  0.026218268          123 
 4582000   0.51228847   -5.7741355    1530.0756  0.027827651  0.026210813          105 
 4583000   0.51419015   -5.7685167    1527.7768   0.02777978  0.026203336          153 
 4584000   0.51987529   -5.7565144    1532.1738  0.027853654  0.026195858          128 
 4585000   0.52524491   -5.7897184    1529.6888  0.027802414  0.026188405          212 
 4586000   0.51491105   -5.7972176    1530.1402  0.027804554   0.02618094          174 
 4587000   0.50653042   -5.7780307    1532.7147  0.027845264  0.026173469          175 
 4588000   0.52632937   -5.7936837    1530.6051  0.027800878  0.026166018          149 
 4589000   0.51881632   -5.7762439    1528.5756  0.027757964  0.026158555          220 
 4590000   0.50877944   -5.7681259    1528.3288  0.027747436  0.026151095          202 
 4591000   0.52973241    -5.763417    1527.5461  0.027727185  0.026143644          156 
 4592000   0.51365333    -5.772024    1528.7706  0.027743369  0.026136198          208 
 4593000   0.52014328   -5.7925276    1528.9234  0.027740101   0.02612875          221 
 4594000   0.51323245   -5.7716659    1534.7897  0.027840475  0.026121322          129 
 4595000   0.51742797   -5.7797294    1529.1839  0.027732752  0.026113908          117 
 4596000   0.51916682   -5.7429497    1529.1958  0.027726934  0.026106491          105 
 4597000   0.51381554   -5.7615901    1531.5529   0.02776363  0.026099069           70 
 4598000   0.51069788   -5.7793645    1528.9513  0.027710441  0.026091637          120 
 4599000   0.51484392   -5.7674661    1530.7907  0.027737746  0.026084194          100 
 4600000   0.51956337   -5.7621955    1530.0914  0.027719047  0.026076769           48 
 4601000   0.51502484   -5.7837225    1533.8135  0.027780437  0.026069343          107 
 4602000    0.5155414   -5.7797155    1531.6158  0.027734605  0.026061929           86 
 4603000   0.51078022   -5.7781097    1531.9902  0.027735357  0.026054513          145 
 4604000   0.51915651   -5.7844991    1529.6363  0.027686728    0.0260471          150 
 4605000   0.51276716   -5.7669214    1529.5989  0.027680037  0.026039691          141 
 4606000   0.50998939   -5.7670813    1531.9075  0.027715797  0.026032285          118 
 4607000   0.50522403   -5.7827192    1531.3232  0.027699211  0.026024878          171 
 4608000   0.51700525   -5.7710231    1531.3176  0.027693098  0.026017482          139 
 4609000   0.51536272   -5.7724173    1530.1325  0.027665664  0.026010091          112 
 4610000   0.50257109   -5.7882156     1529.633  0.027650632  0.026002689          139 
 4611000   0.50883747   -5.7879329    1524.6866  0.027555242  0.025995261          168 
 4612000   0.51156041   -5.7781671    1527.5796   0.02760154  0.025987865          163 
 4613000   0.51788337   -5.7686249    1531.1016  0.027659181  0.025980459          103 
 4614000   0.51624373   -5.7643232    1532.3741  0.027676169  0.025973078          123 
 4615000   0.51756216   -5.7682714    1531.6102  0.027656378  0.025965695          176 
 4616000   0.50389136   -5.7716967    1531.6669  0.027651411  0.025958321           90 
 4617000     0.511909   -5.7631755    1530.8197  0.027630129  0.025950957          123 
 4618000   0.50934399   -5.7802461    1533.1818  0.027666772  0.025943612           89 
 4619000   0.49968835   -5.7729652    1530.0265  0.027603855  0.025936241          103 
 4620000   0.51464534   -5.7558667    1531.4231  0.027623071   0.02592889          122 
 4621000   0.50120075   -5.7739331    1532.3027  0.027632957  0.025921548          131 
 4622000   0.50996206   -5.7871786    1528.3262  0.027555283  0.025914193          215 
 4623000   0.50859498   -5.7751356     1531.968  0.027614969   0.02590684          170 
 4624000   0.50394709   -5.7826658    1530.3012  0.027578958  0.025899494          156 
 4625000   0.51225525   -5.7749735    1530.0458  0.027568393  0.025892141          151 
 4626000   0.51430955   -5.7674502    1532.6754  0.027609804  0.025884813          150 
 4627000   0.50505624   -5.7782792     1527.372  0.027508321  0.025877481          127 
 4628000   0.50918653   -5.7737036    1532.4991  0.027594698  0.025870151           98 
 4629000    0.5110571    -5.784045    1528.2004  0.027511348  0.025862805          108 
 4630000    0.5081116   -5.7870593    1530.8614  0.027553302  0.025855461          115 
 4631000   0.50626517   -5.7641805    1532.0863  0.027569392  0.025848121          175 
 4632000   0.52291232   -5.7672349    1531.5218  0.027553285  0.025840793          105 
 4633000   0.50725568   -5.7827207    1529.9379  0.027518849  0.025833466           99 
 4634000   0.50907901   -5.7738724    1528.8825   0.02749393  0.025826159           75 
 4635000   0.50730055   -5.7875498    1532.6406  0.027555566  0.025818825          100 
 4636000   0.51134095    -5.773168    1527.6082  0.027459164  0.025811499          140 
 4637000   0.51447944   -5.7875247    1529.4075  0.027485578  0.025804187          102 
 4638000   0.50880731   -5.7789355    1530.3009  0.027495703  0.025796873          116 
 4639000   0.50903825   -5.7689665    1532.4442  0.027528279  0.025789572          130 
 4640000   0.50683162    -5.786552    1528.6021  0.027453342   0.02578226          102 
 4641000   0.51209774   -5.7745922      1532.99  0.027526216  0.025774931          143 
 4642000   0.50681623   -5.7745058    1528.7285  0.027443783  0.025767614          186 
 4643000    0.5082274   -5.7717292    1530.3607  0.027467168  0.025760273          141 
 4644000   0.50559272   -5.7814058    1531.3375   0.02747878  0.025752964          164 
 4645000   0.49891374   -5.7910838    1526.5733  0.027387393  0.025745646          251 
 4646000   0.50556645   -5.7839034    1530.9634  0.027460243  0.025738327          259 
 4647000   0.50342612   -5.7821172    1530.3392   0.02744314  0.025731025          240 
 4648000   0.50992244   -5.7826839     1528.574  0.027405587  0.025723712          256 
 4649000   0.49585391   -5.7744179    1531.1342  0.027445584  0.025716407          159 
 4650000   0.51754673   -5.7766975    1531.6063  0.027448141  0.025709098          239 
 4651000   0.51459438   -5.7859524    1530.2434   0.02741782  0.025701795          231 
 4652000   0.50005763   -5.7809019    1534.1688  0.027482244  0.025694486          241 
 4653000   0.50612205   -5.7903182    1528.4391  0.027373721  0.025687191          167 
 4654000    0.4998667   -5.7901717    1527.8843  0.027357905  0.025679887          253 
 4655000   0.50939112   -5.7888108    1530.1934  0.027393366  0.025672588          273 
 4656000   0.51694045   -5.7815606    1528.4149  0.027355651  0.025665279          252 
 4657000   0.49697601   -5.7878859    1526.2794  0.027311563  0.025657981          296 
 4658000   0.50273198   -5.7976425    1529.5182  0.027363644  0.025650671          420 
 4659000   0.50103436   -5.7875615    1528.9307  0.027347262  0.025643354          401 
 4660000   0.51737951   -5.7780605    1527.4923  0.027315671  0.025636046          356 
 4661000   0.49910432   -5.7936183    1525.9836  0.027282836   0.02562874          309 
 4662000   0.50389534   -5.7851076    1530.1245  0.027351003  0.025621429          299 
 4663000   0.51302798   -5.8079527    1525.6087  0.027264435  0.025614123          292 
 4664000   0.51185511    -5.812069    1526.3879   0.02727251  0.025606801          328 
 4665000   0.50712147   -5.8057872    1530.6182  0.027342234    0.0255995          307 
 4666000   0.51025338   -5.8003068    1528.0957  0.027291321   0.02559219          389 
 4667000    0.5045309   -5.8129122    1527.7108  0.027278601  0.025584865          362 
 4668000   0.50697287   -5.7945028    1528.0357  0.027278558  0.025577551          305 
 4669000   0.51577715   -5.8092124     1530.282  0.027312808  0.025570245          417 
 4670000   0.50590348   -5.7903604    1529.5227  0.027293411  0.025562927          389 
 4671000   0.50904271   -5.8174525    1527.3518  0.027248837  0.025555628          452 
 4672000   0.50809764   -5.7931786    1528.7607  0.027268135  0.025548329          397 
 4673000   0.50348351   -5.8038031    1528.6293  0.027259956  0.025541039          396 
 4674000   0.50461061   -5.7817879    1530.3474  0.027284757  0.025533757          366 
 4675000   0.50858911    -5.790491    1528.1044  0.027238938  0.025526469          434 
 4676000   0.50435179   -5.8054905    1526.0457  0.027196422  0.025519163          416 
 4677000     0.504707   -5.8049633     1528.278  0.027230383  0.025511853          373 
 4678000   0.50260518   -5.8188383    1525.0548  0.027167144  0.025504537          449 
 4679000   0.49901017   -5.8204233     1525.491  0.027169106  0.025497216          380 
 4680000   0.50799979   -5.8072058    1524.0673  0.027137951  0.025489906          454 
 4681000   0.50693437    -5.799974    1529.9484  0.027236851  0.025482618          516 
 4682000   0.49597641   -5.7862173    1526.6269  0.027171915   0.02547533          416 
 4683000   0.51217619   -5.8225034    1526.0116  0.027155163  0.025468049          440 
 4684000   0.50301572   -5.8097313    1527.4114   0.02717427  0.025460779          390 
 4685000   0.50090083   -5.8116038    1526.7237  0.027156238   0.02545351          414 
 4686000   0.50914988    -5.801302    1527.1145  0.027157392  0.025446237          229 
 4687000   0.49002634   -5.8016665    1528.4546  0.027175425  0.025438968          221 
 4688000   0.51389883   -5.7946896    1526.7146  0.027138698  0.025431703          212 
 4689000   0.50659418   -5.8228077    1526.1862  0.027123519   0.02542444          200 
 4690000   0.49701221   -5.8091073    1528.6609  0.027161707  0.025417171          253 
 4691000   0.49996832   -5.8124277    1529.8233  0.027176567  0.025409912          258 
 4692000   0.49885751   -5.8108777    1527.0616  0.027121726  0.025402635          343 
 4693000   0.49269234    -5.807951    1524.9802  0.027078986  0.025395358          355 
 4694000   0.49524423   -5.8011144    1527.7645  0.027122648  0.025388096          351 
 4695000   0.49803647   -5.8121678    1524.5394  0.027059627  0.025380833          380 
 4696000   0.49539632   -5.8116279    1523.9997  0.027044288  0.025373569          394 
 4697000   0.50537969   -5.8255343    1525.3578  0.027062625  0.025366305          369 
 4698000   0.49660278   -5.8123403     1528.229  0.027107794  0.025359044          297 
 4699000   0.48701451   -5.8128025    1526.5458  0.027072176  0.025351775          450 
 4700000   0.50417975   -5.8163193    1527.0845  0.027075965  0.025344516          360 
 4701000   0.49306001   -5.8127008    1528.2606  0.027091055  0.025337261          258 
 4702000   0.50409443   -5.8032864     1528.248   0.02708507  0.025330021          334 
 4703000    0.4845178   -5.8285638    1526.9028  0.027055475  0.025322769          379 
 4704000   0.50259981   -5.8346088    1525.3892   0.02702291  0.025315502          396 
 4705000   0.50315193    -5.841382    1526.3861  0.027034824  0.025308235          426 
 4706000   0.50292108   -5.8150255    1527.4305  0.027047573  0.025300985          409 
 4707000   0.50182449   -5.8363995    1523.5617  0.026973331  0.025293721          302 
 4708000   0.50106454   -5.8189069    1526.0741  0.027012073  0.025286464          290 
 4709000   0.48647801   -5.8175995    1527.1362  0.027025133  0.025279201          408 
 4710000    0.4999836   -5.8203217    1525.1216  0.026983751  0.025271939          361 
 4711000   0.49602333   -5.8159972    1526.6527  0.027005106  0.025264698          365 
 4712000   0.48741211   -5.8230756    1526.8204  0.027002342  0.025257472          378 
 4713000    0.4942241   -5.8205287    1527.8769  0.027015292  0.025250226          318 
 4714000   0.48695872   -5.8176277    1526.1908  0.026979756  0.025242998          462 
 4715000   0.49837808   -5.8211047    1525.6684    0.0269648  0.025235765          410 
 4716000   0.48545841    -5.826189    1529.8855    0.0270336  0.025228548          385 
 4717000   0.49326266    -5.826142    1525.6378  0.026952826  0.025221332          402 
 4718000   0.49840241   -5.8375484    1528.3177  0.026994449  0.025214111          384 
 4719000   0.49154783     -5.83449    1527.0409  0.026966181  0.025206894          346 
 4720000   0.50910797   -5.8370341    1525.6486  0.026935886  0.025199661          544 
 4721000    0.4971157    -5.837415    1527.0725  0.026955316  0.025192427          380 
 4722000   0.49243876   -5.8506297    1528.7097  0.026978499  0.025185197          418 
 4723000   0.49912703   -5.8230589    1524.8481  0.026904652  0.025177961          447 
 4724000    0.4926749   -5.8159756    1525.2803  0.026906582  0.025170744          514 
 4725000   0.49958779   -5.8390102    1524.8338  0.026893013  0.025163517          567 
 4726000   0.50232267   -5.8459099    1525.9379   0.02690679  0.025156303          378 
 4727000   0.49251002   -5.8363323    1525.0185  0.026884889  0.025149092          450 
 4728000   0.50378912   -5.8483079    1527.7983  0.026928198   0.02514187          448 
 4729000   0.48518259   -5.8658118    1526.8576  0.026905927  0.025134636          440 
 4730000   0.48963926    -5.850334    1523.6735  0.026844142  0.025127398          489 
 4731000   0.50574109   -5.8356236    1526.5099   0.02688843  0.025120171          301 
 4732000   0.48776243   -5.8355772    1524.2152  0.026842335  0.025112964          449 
 4733000    0.4942704   -5.8362658    1525.1648  0.026853384  0.025105754          620 
 4734000   0.51224859   -5.8376594    1527.6901  0.026892164  0.025098543          532 
 4735000   0.49432137   -5.8424324    1523.4634  0.026812098  0.025091328          599 
 4736000   0.48816406   -5.8401572    1525.8929  0.026849185  0.025084114          596 
 4737000   0.49811392   -5.8305647    1528.1124  0.026882563  0.025076922          499 
 4738000   0.48958953   -5.8345638    1525.7289  0.026834967  0.025069726          501 
 4739000   0.49548924   -5.8172309    1527.6463  0.026863022  0.025062525          484 
 4740000   0.49559156   -5.8208189    1528.3492  0.026869712  0.025055324          510 
 4741000   0.48963547   -5.8399093    1526.1374  0.026825167  0.025048123          563 
 4742000   0.49405598   -5.8361436    1525.7202  0.026812178  0.025040928          491 
 4743000   0.49715932   -5.8448499    1524.8376  0.026791018  0.025033712          562 
 4744000   0.48658102    -5.857565    1523.5073  0.026762004  0.025026495          572 
 4745000   0.49143222   -5.8380633    1525.0994  0.026784324  0.025019279          606 
 4746000   0.49498902   -5.8518208    1524.3031  0.026764698   0.02501206          643 
 4747000   0.48429171    -5.841184    1526.6068  0.026799502  0.025004854          664 
 4748000   0.49042332   -5.8553334    1521.9288  0.026711752  0.024997637          628 
 4749000   0.49472136   -5.8551827     1522.436  0.026715028  0.024990431          618 
 4750000   0.48231224   -5.8437362    1527.7121  0.026801968  0.024983216          659 
 4751000   0.48964901   -5.8585524     1523.607   0.02672432  0.024975991          674 
 4752000   0.48982521   -5.8375584    1524.4504  0.026733488  0.024968781          632 
 4753000   0.48940257   -5.8577964    1522.0027  0.026684947  0.024961566          770 
 4754000   0.49338933   -5.8592433    1524.4102  0.026721536  0.024954343          737 
 4755000   0.49236669   -5.8473249    1521.9268  0.026672394  0.024947132          808 
 4756000   0.49207115   -5.8572769    1523.5169  0.026694648  0.024939928          720 
 4757000   0.49176263   -5.8365771    1526.9774  0.026749657  0.024932727          714 
 4758000   0.49302631   -5.8442197    1522.8678  0.026672058  0.024925531          698 
 4759000   0.48690534   -5.8503836    1522.3304  0.026657043   0.02491832          702 
 4760000   0.48763076   -5.8484553    1522.5524  0.026655329  0.024911138          825 
 4761000   0.49100691   -5.8537353    1522.6475  0.026651394  0.024903948          791 
 4762000   0.49440012   -5.8546755     1523.047   0.02665279  0.024896755          653 
 4763000   0.48616841   -5.8416748    1525.0975  0.026683069  0.024889563          702 
 4764000    0.4867392   -5.8474126     1522.298  0.026628498  0.024882376          741 
 4765000   0.49151602   -5.8535366    1522.9328  0.026634011  0.024875201          774 
 4766000   0.47758371   -5.8487142    1521.5937   0.02660501  0.024868033          774 
 4767000   0.49083665    -5.853022    1522.9183  0.026622585  0.024860867          830 
 4768000   0.48747324   -5.8525719    1522.4854  0.026609434  0.024853705          837 
 4769000   0.48520415   -5.8579415    1526.6054  0.026675847   0.02484653          816 
 4770000   0.48041799   -5.8715803    1522.6916   0.02660188   0.02483936          847 
 4771000   0.49020087   -5.8695953    1522.1112  0.026586166  0.024832187          908 
 4772000    0.4799703   -5.8688344    1525.0391  0.026631726  0.024825038          881 
 4773000   0.48062665   -5.8513333    1525.1937  0.026628845  0.024817875          848 
 4774000   0.49566815    -5.862466    1521.6026  0.026560581   0.02481072          840 
 4775000   0.49522679   -5.8568332     1524.628  0.026607818  0.024803567          873 
 4776000   0.48705504   -5.8567832    1524.3468  0.026597341  0.024796401          953 
 4777000   0.47616981   -5.8738381    1522.2916   0.02655592  0.024789239          895 
 4778000   0.48646949   -5.8462649    1527.0237  0.026632895  0.024782087          943 
 4779000   0.48949587   -5.8625367    1522.8674  0.026554848  0.024774935          837 
 4780000   0.48292367   -5.8565518    1523.1274  0.026553825  0.024767775          930 
 4781000   0.48679783   -5.8619461    1524.3664  0.026569868  0.024760631          931 
 4782000   0.48429789   -5.8630539    1525.7904  0.026589127   0.02475347          891 
 4783000   0.48588044   -5.8723199    1522.1352  0.026519883  0.024746323          875 
 4784000   0.48969633   -5.8560387    1522.6764  0.026523767  0.024739175          897 
 4785000   0.48998488   -5.8695359    1523.0133  0.026524091  0.024732037          916 
 4786000   0.48032898   -5.8584688    1522.9998  0.026518315  0.024724903          901 
 4787000   0.48843265    -5.859132    1521.1722   0.02648096  0.024717783          878 
 4788000    0.4852742   -5.8678069    1525.6547  0.026553445  0.024710655          868 
 4789000   0.49523939   -5.8634025    1525.1246  0.026538675  0.024703525          817 
 4790000   0.47149403    -5.869577    1524.3673  0.026519961  0.024696394          934 
 4791000    0.4762375   -5.8640669     1522.298  0.026478432  0.024689257          743 
 4792000   0.49017555   -5.8584903    1523.9259  0.026501216  0.024682129          863 
 4793000   0.49064239   -5.8619653    1523.8718  0.026494746  0.024675016          870 
 4794000   0.48642694   -5.8794347    1522.8644  0.026471708  0.024667906          911 
 4795000   0.48271424   -5.8733987    1520.6696  0.026428042   0.02466077          923 
 4796000   0.48270488   -5.8587224    1521.2734  0.026433024  0.024653642          866 
 4797000   0.48314833    -5.865813    1522.6145  0.026450812  0.024646517          967 
 4798000   0.48645949   -5.8892066    1520.0639  0.026400999  0.024639393          899 
 4799000    0.4792037   -5.8767231    1521.6133  0.026422403   0.02463226         1003 
 4800000   0.48553918   -5.8815307    1520.2407  0.026393067  0.024625127          913 
 4801000   0.49332941   -5.8802577    1521.4227  0.026408086  0.024618001          949 
 4802000   0.48028153   -5.8746839    1521.3867  0.026401963  0.024610878          945 
 4803000   0.48853248   -5.8753736    1519.6537  0.026366398  0.024603758         1004 
 4804000   0.47095169   -5.8699573    1519.5206    0.0263586  0.024596635          955 
 4805000   0.48683318   -5.8740037    1522.8454  0.026410778  0.024589495          920 
 4806000   0.47339357   -5.8760894    1519.4949  0.026347185  0.024582367          901 
 4807000   0.47624699   -5.8889416    1522.1815  0.026388279   0.02457524          981 
 4808000   0.48240301   -5.8850437    1520.4949  0.026353558   0.02456812          897 
 4809000   0.48158724   -5.8841325    1517.5474  0.026297002     0.024561         1010 
 4810000    0.4817706   -5.8809679    1520.0866  0.026335527  0.024553866         1026 
 4811000   0.47753985   -5.8785668    1519.2836  0.026316143  0.024546732         1008 
 4812000   0.48331278   -5.8880372    1520.3233  0.026328681  0.024539616         1012 
 4813000   0.47111796   -5.8857187    1519.6255  0.026311128  0.024532494          963 
 4814000   0.48402208   -5.8922111    1520.1306  0.026314406  0.024525375          954 
 4815000   0.48486389   -5.8705998    1521.7534  0.026337027  0.024518269         1010 
 4816000   0.48239287   -5.8844428    1520.8476  0.026315884   0.02451117          997 
 4817000   0.48107725   -5.8959146    1520.1396  0.026298174  0.024504074         1080 
 4818000   0.48424655   -5.8828546    1518.9738   0.02627255  0.024496968         1006 
 4819000    0.4887527   -5.8837516    1518.8133  0.026264323  0.024489859         1094 
 4820000   0.48387787   -5.8882617    1518.4038  0.026251794  0.024482753         1190 
 4821000   0.47957022   -5.8859918    1520.4706  0.026282074  0.024475648         1133 
 4822000   0.47686727   -5.8678923     1520.748  0.026281419   0.02446854         1048 
 4823000   0.48878169   -5.8863121    1518.9951  0.026245682  0.024461434         1113 
 4824000   0.48437159   -5.8908779    1519.3377  0.026246159  0.024454326         1077 
 4825000   0.47321959   -5.8932049    1521.4806  0.026277731  0.024447222         1052 
 4826000   0.46660402   -5.8903122    1517.2459  0.026199162  0.024440117         1196 
 4827000   0.48320432   -5.8759998    1520.7042  0.026253439  0.024433011         1156 
 4828000    0.4869889   -5.8917848    1520.1571  0.026238559  0.024425897         1214 
 4829000   0.46282444   -5.9038101    1518.4728  0.026204059  0.024418796         1140 
 4830000   0.47998978   -5.8851236    1521.5529  0.026251775  0.024411692         1126 
 4831000   0.48735517   -5.8839532    1520.1116   0.02622148  0.024404611         1104 
 4832000   0.47116208   -5.8965073    1519.4832  0.026205216  0.024397532         1095 
 4833000   0.47184377   -5.8931068    1522.1616  0.026245975  0.024390445         1083 
 4834000   0.46560239   -5.9021194    1518.4848  0.026177162   0.02438336         1113 
 4835000   0.47591472   -5.8882872    1522.0746   0.02623362  0.024376284         1142 
 4836000   0.46855291   -5.9012621    1518.8127  0.026171986  0.024369204         1215 
 4837000   0.47530092   -5.8919672    1518.0734  0.026153838  0.024362119         1192 
 4838000   0.48226635   -5.8878687    1520.0561  0.026182584  0.024355049         1203 
 4839000   0.48280987   -5.8881751    1519.4409   0.02616658  0.024347976         1278 
 4840000   0.48422588   -5.8920861    1517.7239   0.02613161  0.024340892         1250 
 4841000   0.47262037   -5.8958947    1518.2482  0.026135238  0.024333815         1203 
 4842000    0.4751618   -5.8936298    1520.5967  0.026170259  0.024326746         1175 
 4843000   0.48749294   -5.8807868    1522.3231  0.026194561   0.02431967         1102 
 4844000   0.47941661   -5.8976169    1522.4455  0.026191258  0.024312587         1199 
 4845000   0.47012684   -5.9142999    1520.2945  0.026148857   0.02430551         1178 
 4846000   0.48251781   -5.8981789    1519.9416  0.026137391  0.024298431         1103 
 4847000   0.47618884    -5.888068    1517.2572  0.026085847  0.024291363         1232 
 4848000   0.48309522   -5.8966546    1514.9541  0.026040877  0.024284278         1258 
 4849000   0.46459854   -5.9124808    1515.7099  0.026048496  0.024277181         1354 
 4850000   0.47433464   -5.8983369    1518.9943  0.026099559  0.024270091         1215 
 4851000   0.47506493   -5.9001065    1518.5737  0.026086953  0.024263011         1174 
 4852000   0.48069919   -5.8974526    1518.0544  0.026072657  0.024255919         1270 
 4853000   0.47230729   -5.9060954    1519.9976  0.026100653  0.024248834         1297 
 4854000   0.47296372   -5.8865138    1517.0212  0.026044177  0.024241763         1196 
 4855000   0.47467687   -5.9155198    1519.9913  0.026089792  0.024234703         1243 
 4856000   0.48717035   -5.8952421    1519.0638  0.026068503  0.024227633         1172 
 4857000   0.46200056   -5.9055265    1519.6353   0.02607294  0.024220573         1211 
 4858000   0.48323093   -5.9168036    1519.7786  0.026070032  0.024213514         1213 
 4859000   0.48621215   -5.9110328    1518.8085  0.026048029  0.024206464         1243 
 4860000    0.4710123   -5.9213476    1521.9989  0.026097374   0.02419942         1169 
 4861000   0.47078083   -5.9082999    1518.2284  0.026027367  0.024192359         1273 
 4862000   0.46540358   -5.8955252     1518.299  0.026023225   0.02418531         1143 
 4863000   0.48089283   -5.8930143    1516.6745  0.025990035  0.024178266         1163 
 4864000   0.46002153   -5.8851219    1517.3376  0.025996053  0.024171218         1251 
 4865000   0.47117901   -5.9075995    1519.7126   0.02603139  0.024164175         1186 
 4866000   0.47429266   -5.9114952    1515.8914    0.0259606  0.024157126         1242 
 4867000    0.4712836   -5.8852298    1516.7184  0.025969428  0.024150092         1199 
 4868000   0.47519544   -5.9033635    1518.6171  0.025996595  0.024143056         1129 
 4869000   0.48240059   -5.9093198    1519.2356  0.026001842  0.024136018         1161 
 4870000   0.47891445   -5.8988516    1520.7999   0.02602327  0.024128986         1217 
 4871000   0.47214101    -5.912099    1519.0625  0.025988203  0.024121952         1228 
 4872000   0.47996454   -5.9072442    1515.3225  0.025918899  0.024114922         1246 
 4873000   0.46893287   -5.9041605    1519.0832  0.025977892  0.024107898         1124 
 4874000   0.48119266   -5.9132848    1517.8601  0.025951649  0.024100877         1347 
 4875000   0.46637564   -5.9123804    1516.6956   0.02592642  0.024093832         1221 
 4876000    0.4872047   -5.9150599    1520.1031   0.02597934  0.024086806         1257 
 4877000   0.46662215   -5.8969918    1517.7191  0.025933276  0.024079779         1259 
 4878000   0.47005588   -5.9103669    1517.3304   0.02592132   0.02407275         1344 
 4879000   0.47310257   -5.9054951    1517.8189   0.02592435  0.024065732         1312 
 4880000   0.47483486   -5.9157375    1518.5141  0.025930909   0.02405871         1302 
 4881000   0.46433994   -5.8963414    1518.8225  0.025930863  0.024051697         1268 
 4882000   0.46866094   -5.9169124    1514.0739  0.025844495  0.024044676         1336 
 4883000    0.4710828   -5.9060897    1515.7438  0.025867702  0.024037654         1369 
 4884000   0.46533271   -5.9102949    1515.3963  0.025856476  0.024030631         1253 
 4885000   0.46549363   -5.8929128    1517.8535  0.025893099  0.024023624         1217 
 4886000   0.47533233   -5.9123863    1514.7004  0.025834022  0.024016622         1256 
 4887000   0.46611668   -5.9154832    1515.7623  0.025846844  0.024009599         1349 
 4888000   0.46469306   -5.9163307    1514.9641  0.025827948  0.024002577         1347 
 4889000   0.47457131   -5.9179066    1516.4356  0.025847747   0.02399556         1308 
 4890000   0.45852179   -5.9189009    1518.0047    0.0258692  0.023988541         1339 
 4891000   0.46491953   -5.9083238    1515.1063  0.025814528  0.023981533         1317 
 4892000    0.4683428   -5.9251991    1513.8352  0.025787599  0.023974522         1398 
 4893000   0.46888035   -5.9095243    1514.7879  0.025798554  0.023967509         1322 
 4894000   0.47141027   -5.9159625    1514.7483  0.025792608   0.02396049         1422 
 4895000   0.46820667   -5.9133721    1515.5893  0.025801656  0.023953479         1409 
 4896000   0.47746121   -5.9261325    1514.4055  0.025776238  0.023946472         1431 
 4897000   0.46998212   -5.9266977    1515.8852  0.025796154  0.023939478         1324 
 4898000   0.47279009   -5.9164079    1515.9812  0.025792521  0.023932483         1328 
 4899000   0.46918551   -5.9203548    1517.7792  0.025817841  0.023925481         1362 
 4900000   0.46505583    -5.925634    1519.8365   0.02584756  0.023918482         1226 
 4901000    0.4676273   -5.9136924     1515.058  0.025761036  0.023911499         1302 
 4902000   0.47354683   -5.9175148    1518.7406  0.025818384  0.023904512         1275 
 4903000   0.46931986   -5.9218405    1515.9481  0.025765655  0.023897535         1296 
 4904000   0.46586605   -5.9235415    1516.9916  0.025778134  0.023890564         1371 
 4905000   0.46998277   -5.9308544    1517.9048  0.025788394  0.023883593         1233 
 4906000   0.46371961   -5.9237452    1516.5157  0.025759542  0.023876606         1269 
 4907000    0.4722013   -5.9288058    1514.0157  0.025711835  0.023869618         1385 
 4908000   0.46052943   -5.9186602    1517.9505  0.025773406  0.023862631         1316 
 4909000    0.4580561   -5.9402438    1516.3845  0.025741571  0.023855661         1331 
 4910000   0.46891151   -5.9453321    1515.7159  0.025724982  0.023848677         1379 
 4911000   0.46763952   -5.9348733    1516.5504  0.025733903  0.023841696         1243 
 4912000   0.46740751    -5.920538    1516.4591  0.025727115  0.023834713         1285 
 4913000   0.46622315   -5.9089547    1515.1201  0.025699166  0.023827734         1298 
 4914000    0.4678889   -5.9262036    1513.5826  0.025667865  0.023820769         1342 
 4915000   0.47174958    -5.909564    1514.5087  0.025678344  0.023813792         1355 
 4916000   0.46497898   -5.9309774    1516.0994  0.025700085  0.023806819         1340 
 4917000   0.46686463    -5.919494    1516.2128   0.02569678  0.023799848         1356 
 4918000   0.46281022   -5.9221135    1512.7981  0.025633695  0.023792882         1332 
 4919000   0.46333159   -5.9329334    1515.6226  0.025676333    0.0237859         1365 
 4920000   0.47550603   -5.9367122     1516.569  0.025687144  0.023778935         1370 
 4921000   0.46023259   -5.9311329    1515.2971  0.025660385  0.023771974         1441 
 4922000   0.47198523   -5.9329341    1513.1138  0.025618208  0.023765011         1361 
 4923000   0.47420737     -5.93665    1513.9025  0.025626354   0.02375805         1455 
 4924000   0.46396802   -5.9312538     1517.508  0.025682168  0.023751077         1477 
 4925000   0.47442802   -5.9432347    1515.7206   0.02564671  0.023744113         1458 
 4926000   0.46224258   -5.9348603    1511.3816  0.025568101  0.023737141         1435 
 4927000   0.45571987   -5.9466935    1510.5994  0.025549683   0.02373018         1453 
 4928000   0.46642838   -5.9534146    1514.7192  0.025614164  0.023723214         1452 
 4929000   0.45496465   -5.9487402      1516.02   0.02563096  0.023716248         1504 
 4930000   0.46499282   -5.9260722    1515.8186  0.025622356  0.023709284         1440 
 4931000   0.46965477   -5.9337906    1512.4964  0.025561016  0.023702319         1505 
 4932000   0.46426072   -5.9297993    1513.9558  0.025580491  0.023695363         1612 
 4933000    0.4656143   -5.9436574    1513.8042  0.025572745  0.023688412         1430 
 4934000   0.45978002    -5.931308    1511.8369  0.025534335  0.023681469         1461 
 4935000   0.46196519   -5.9491041    1514.1459  0.025568151  0.023674529         1510 
 4936000   0.46605156   -5.9523131    1517.0289  0.025611645  0.023667586         1485 
 4937000   0.46711961   -5.9250283    1512.4538  0.025529232   0.02366064         1530 
 4938000   0.46298871   -5.9469962    1511.1248  0.025501634  0.023653697         1504 
 4939000   0.45925218   -5.9227864    1511.6129  0.025504705  0.023646757         1532 
 4940000   0.45907643   -5.9365471    1516.1897  0.025576749  0.023639819         1565 
 4941000   0.46193797   -5.9530066    1514.6269  0.025545215  0.023632887         1530 
 4942000   0.46268428   -5.9464801    1514.2259  0.025533284   0.02362596         1591 
 4943000   0.46398601   -5.9393577    1512.5508  0.025499879  0.023619031         1577 
 4944000   0.46041927   -5.9314188    1516.2078  0.025556362  0.023612108         1436 
 4945000   0.45520344   -5.9535295    1514.5831  0.025523813  0.023605187         1483 
 4946000   0.46091381   -5.9420731    1513.5771  0.025501703  0.023598275         1504 
 4947000   0.46351968   -5.9427219    1512.2372  0.025473978  0.023591357         1577 
 4948000   0.46411853   -5.9377827    1517.7026  0.025560877  0.023584441         1587 
 4949000   0.46899996   -5.9478003    1514.6253  0.025503894  0.023577527         1551 
 4950000   0.45623087   -5.9372481    1512.0136  0.025454774  0.023570622         1501 
 4951000   0.46326121   -5.9428992    1512.8465  0.025463652  0.023563718         1514 
 4952000   0.44983791   -5.9356013    1514.6198  0.025488351  0.023556821         1416 
 4953000   0.46536642    -5.948472    1510.3797  0.025411867  0.023549928         1429 
 4954000   0.46647484   -5.9361172    1512.9648  0.025450222  0.023543028         1471 
 4955000   0.45833414   -5.9289282    1512.0608  0.025429882   0.02353614         1422 
 4956000     0.464257   -5.9245742    1513.6127  0.025450846  0.023529248         1573 
 4957000   0.46744289   -5.9366398    1513.4915  0.025443674  0.023522354         1559 
 4958000    0.4606344   -5.9295553    1516.6684  0.025491939  0.023515469         1456 
 4959000   0.45146461   -5.9403819    1511.9117  0.025406864  0.023508586         1522 
 4960000   0.46013679    -5.953403    1513.3107  0.025425247  0.023501692         1488 
 4961000   0.45456203   -5.9302199    1513.1855  0.025418019  0.023494816         1496 
 4962000   0.46204611   -5.9539719    1513.8209  0.025423567  0.023487936         1430 
 4963000   0.44992768   -5.9409256    1513.0282  0.025405135  0.023481057         1530 
 4964000   0.44974951   -5.9373509    1513.3993  0.025406246  0.023474163         1563 
 4965000   0.44941015   -5.9426368    1513.2965  0.025399404  0.023467276         1503 
 4966000    0.4562841   -5.9492985    1511.9926  0.025372409  0.023460386         1585 
 4967000   0.46267695   -5.9422618    1515.8366  0.025431793   0.02345351         1585 
 4968000   0.44408393   -5.9425009    1515.1608  0.025415338  0.023446629         1414 
 4969000   0.45791493   -5.9605359     1514.835  0.025404759  0.023439754         1517 
 4970000   0.44979962   -5.9218408    1514.5845  0.025395447  0.023432878         1476 
 4971000   0.46472318   -5.9507174    1511.9593   0.02534633  0.023426008         1546 
 4972000   0.45529471   -5.9535826     1515.738  0.025404566  0.023419136         1475 
 4973000   0.45368436     -5.93885    1515.1011  0.025388785  0.023412276         1504 
 4974000   0.44949387   -5.9439861    1512.7456  0.025344216  0.023405408         1614 
 4975000   0.45977117   -5.9551588    1514.0772  0.025361427   0.02339855         1510 
 4976000   0.44808245   -5.9516355    1513.0879  0.025339763  0.023391694         1604 
 4977000   0.45769451   -5.9375398    1514.9747  0.025366263  0.023384833         1553 
 4978000   0.45166799   -5.9470096    1513.5762  0.025337756  0.023377976         1555 
 4979000   0.44888325   -5.9433859    1512.0736  0.025307518  0.023371128         1511 
 4980000    0.4421865   -5.9615146    1511.0767  0.025285755  0.023364276         1563 
 4981000   0.44723431   -5.9539307    1510.6158  0.025272967  0.023357419         1584 
 4982000   0.45832129   -5.9222259    1512.7355  0.025303351  0.023350575         1489 
 4983000   0.45267623   -5.9479386    1513.9185  0.025318057  0.023343735         1600 
 4984000   0.46282629   -5.9388514    1514.0018  0.025314369  0.023336896         1607 
 4985000   0.47103187    -5.936459    1513.0014  0.025292568  0.023330061         1599 
 4986000   0.44907509   -5.9501825    1513.2783  0.025292123  0.023323226         1636 
 4987000   0.44528505   -5.9510568    1513.3718  0.025288613  0.023316388         1645 
 4988000   0.45721444   -5.9421873    1513.1218  0.025279367  0.023309556         1548 
 4989000   0.44410521   -5.9488762    1511.7585  0.025251529  0.023302733         1541 
 4990000   0.44756889    -5.955556    1510.8034  0.025230518  0.023295914         1662 
 4991000   0.46021352   -5.9559499    1510.1057  0.025213813  0.023289085         1486 
 4992000   0.45594183   -5.9569996    1511.9184  0.025239023  0.023282256         1596 
 4993000   0.46072464   -5.9532134    1511.5261   0.02522742  0.023275418         1712 
 4994000   0.44863245   -5.9469317    1511.5509  0.025222782  0.023268581         1657 
 4995000   0.45556928   -5.9487006    1512.9947   0.02524182  0.023261754         1741 
 4996000   0.45506992   -5.9639441    1512.6242  0.025230587  0.023254927         1660 
 4997000   0.45452994   -5.9587619    1508.9866  0.025164875  0.023248099         1737 
 4998000   0.45473466   -5.9421654    1509.8106   0.02517358  0.023241278         1654 
 4999000   0.45681807   -5.9555161    1514.1147  0.025240294  0.023234457         1717 
 5000000   0.46336526   -5.9647237    1511.8594  0.025197656  0.023227638         1659 
 5001000   0.44561214   -5.9619344    1511.2554  0.025182554   0.02322082         1654 
 5002000   0.45455417   -5.9542851    1512.5211  0.025198606  0.023214001         1722 
 5003000   0.45458714   -5.9420426    1513.7344  0.025213778  0.023207186         1619 
 5004000   0.45231419     -5.95887    1510.6315  0.025157065  0.023200376         1586 
 5005000   0.45956538   -5.9511158    1511.7285  0.025170304  0.023193564         1614 
 5006000     0.443162   -5.9652244    1510.8691   0.02515097  0.023186753         1705 
 5007000   0.45158835   -5.9724004    1511.2716  0.025152647  0.023179947         1616 
 5008000   0.45321433   -5.9589577    1511.4166  0.025150036  0.023173135         1611 
 5009000   0.45306438   -5.9670484    1510.8119  0.025134956   0.02316632         1763 
 5010000   0.45723994   -5.9572452    1510.3371  0.025122041  0.023159517         1748 
 5011000   0.44967826   -5.9634322    1510.7518  0.025123925  0.023152705         1805 
 5012000   0.44990323   -5.9564159    1512.7431   0.02515202  0.023145912         1777 
Loop time of 12671.2 on 48 procs for 5000000 steps with 4000 atoms

Performance: 68186.033 tau/day, 394.595 timesteps/s
99.4% CPU use with 48 MPI tasks x no OpenMP threads

MPI task timing breakdown:
Section |  min time  |  avg time  |  max time  |%varavg| %total
---------------------------------------------------------------
Pair    | 905.51     | 970.93     | 1043       | 109.2 |  7.66
Neigh   | 85.475     | 88.91      | 92.343     |  17.6 |  0.70
Comm    | 816.1      | 880.93     | 951.62     | 113.9 |  6.95
Output  | 14.697     | 14.701     | 14.782     |   0.3 |  0.12
Modify  | 10574      | 10600      | 10625      |  11.8 | 83.66
Other   |            | 115.4      |            |       |  0.91

Nlocal:        83.3333 ave          90 max          78 min
Histogram: 5 5 2 5 9 11 4 4 1 2
Nghost:        2351.10 ave        2375 max        2332 min
Histogram: 1 5 6 12 4 6 10 3 0 1
Neighs:        16069.6 ave       17893 max       14413 min
Histogram: 3 4 5 4 8 12 4 4 2 2
FullNghs:      32140.0 ave       35234 max       29519 min
Histogram: 4 3 6 6 10 4 7 6 0 2

Total # of neighbors = 1542718
Ave neighs/atom = 385.67950
Neighbor list builds = 269014
Dangerous builds = 0

#clear
#
#next RN
#
#jump SELF
Total wall time: 3:31:14
