
units lj                  # Use reduced LJ style units
atom_style atomic         # Uncharged point particles
atom_modify map hash      # Needed for indexing of clusters etc
                          # Used to be able to find where atoms are in relation to each other.

lattice fcc 1.0 spacing 1 1 1
Lattice spacing in x,y,z = 1.5874011 1.5874011 1.5874011
region box block 0 10 0 10 0 10 units lattice
create_box 2 box
Created orthogonal box = (0.0000000 0.0000000 0.0000000) to (15.874011 15.874011 15.874011)
  3 by 4 by 4 MPI processor grid
create_atoms 1 box
Created 4000 atoms
  using lattice units in orthogonal box = (0.0000000 0.0000000 0.0000000) to (15.874011 15.874011 15.874011)
  create_atoms CPU = 0.002 seconds
set type 1 type/fraction 2 0.56 78393
Setting atom values ...
  2252 settings made for type/fraction
mass 1 1.0
mass 2 1.0
pair_style lj/cut  3.5
pair_modify tail  yes
pair_coeff 1  1  1.0  1.0   # Intearaction between 1 and 1 set with epsilon = 1 and sigma = 1
pair_coeff 1  2  1.5  0.8
pair_coeff 2  2  0.5  0.88

write_data data.0
System init for write_data ...
Neighbor list info ...
  update every 1 steps, delay 10 steps, check yes
  max neighbors/atom: 2000, page size: 100000
  master list distance cutoff = 3.8
  ghost atom cutoff = 3.8
  binsize = 1.9, bins = 9 9 9
  1 neighbor lists, perpetual/occasional/extra = 1 0 0
  (1) pair lj/cut, perpetual
      attributes: half, newton on
      pair build: half/bin/atomonly/newton
      stencil: half/bin/3d
      bin: standard
WARNING: Not all mixed pair coeffs generated from mixing. Use write_data with 'pair ij' option to store all pair coeffs. (../write_data.cpp:312)


#############################
#   M E L T   S Y S T E M   #
#############################

velocity all create 2.4 5300450 mom yes dist gaussian # Assign velocities
                                                    # Temperature 2.4, random number seed, zero linear momentum
                                                                                # Gaussian distribution

timestep 0.002   # simulation timestep
thermo 1000       # output thermodynamic data every 1000 steps bf 100

# Define a fix  in this case with index 1 applied to all
# particles in the simulation. This fix is for simulations
# in the anisotropic NPT ensemble. Note that we use the MTK
# correction.
fix 1 all npt temp 2.4 2.4 0.1 iso 5.68 5.68 0.5 mtk yes tchain 5 pchain 5 # Use NPT ensemble
                                                                         # Set temperature and pressure and damping
                                                                         # Numbers of thermostats in chain and in barostat
run 10000          # run for 10000 steps
Per MPI rank memory allocation (min/avg/max) = 3.642 | 3.644 | 3.648 Mbytes
Step Temp E_pair E_mol TotEng Press Volume 
       0          2.4   -4.9459583            0   -1.3468583   -4.1435722         4000 
    1000    2.3850169   -4.6848302            0   -1.1081992    5.6956788    3618.5969 
    2000    2.3581135   -4.6944922            0   -1.1582063    5.5215046    3628.6371 
    3000    2.4409104   -4.6496747            0  -0.98922452    5.7124577    3646.3882 
    4000    2.3747595   -4.6951127            0    -1.133864    5.3078449    3645.4092 
    5000    2.4435187   -4.6800052            0   -1.0156434    5.7257327    3634.0576 
    6000    2.4342458   -4.6828162            0   -1.0323604    5.9845664    3603.7839 
    7000    2.3732843   -4.6301263            0   -1.0710897    5.5283399    3664.5183 
    8000    2.4952856   -4.6460851            0  -0.90409237     5.718743    3656.6277 
    9000    2.3807927   -4.6746079            0   -1.1043117    5.5418366    3636.1476 
   10000    2.4046437   -4.6501345            0   -1.0440707    5.4889217    3658.2561 
Loop time of 2.6638 on 48 procs for 10000 steps with 4000 atoms

Performance: 648696.381 tau/day, 3754.030 timesteps/s
99.6% CPU use with 48 MPI tasks x no OpenMP threads

MPI task timing breakdown:
Section |  min time  |  avg time  |  max time  |%varavg| %total
---------------------------------------------------------------
Pair    | 1.2052     | 1.2771     | 1.4076     |   3.2 | 47.94
Neigh   | 0.21651    | 0.22568    | 0.24898    |   1.1 |  8.47
Comm    | 0.75361    | 0.90134    | 0.9845     |   4.7 | 33.84
Output  | 0.00025026 | 0.00025622 | 0.00033981 |   0.0 |  0.01
Modify  | 0.2139     | 0.24364    | 0.27644    |   3.7 |  9.15
Other   |            | 0.01583    |            |       |  0.59

Nlocal:        83.3333 ave          92 max          72 min
Histogram: 2 1 2 5 1 10 17 3 3 4
Nghost:        1742.88 ave        1781 max        1722 min
Histogram: 6 5 6 16 4 6 1 2 1 1
Neighs:        10436.1 ave       11940 max        8864 min
Histogram: 2 2 4 5 7 14 7 3 0 4

Total # of neighbors = 500933
Ave neighs/atom = 125.23325
Neighbor list builds = 904
Dangerous builds = 194

# Equilibrate just above the melting temperature to avoid step fn in T

fix 1 all npt temp 1.25 1.25 0.1 iso 5.68 5.68 0.5 mtk yes tchain 5 pchain 5
run 2000
Per MPI rank memory allocation (min/avg/max) = 3.644 | 3.646 | 3.649 Mbytes
Step Temp E_pair E_mol TotEng Press Volume 
   10000    2.4046437   -4.6501345            0   -1.0440707    5.4889217    3658.2561 
   11000    1.2526134   -6.7762637            0   -4.8978133    5.6620749    2799.9148 
   12000    1.2611242   -6.9289208            0   -5.0377075    5.4378912    2769.1457 
Loop time of 0.66373 on 48 procs for 2000 steps with 4000 atoms

Performance: 520693.477 tau/day, 3013.272 timesteps/s
99.6% CPU use with 48 MPI tasks x no OpenMP threads

MPI task timing breakdown:
Section |  min time  |  avg time  |  max time  |%varavg| %total
---------------------------------------------------------------
Pair    | 0.30147    | 0.32601    | 0.3587     |   2.4 | 49.12
Neigh   | 0.041685   | 0.044531   | 0.048487   |   0.7 |  6.71
Comm    | 0.20487    | 0.24298    | 0.27051    |   3.1 | 36.61
Output  | 5.2944e-05 | 5.4213e-05 | 6.9332e-05 |   0.0 |  0.01
Modify  | 0.041716   | 0.045204   | 0.048179   |   0.9 |  6.81
Other   |            | 0.00495    |            |       |  0.75

Nlocal:        83.3333 ave          89 max          75 min
Histogram: 1 3 2 3 2 16 3 9 2 7
Nghost:        2110.10 ave        2145 max        2087 min
Histogram: 6 5 6 9 9 3 4 2 3 1
Neighs:        13777.0 ave       15335 max       12048 min
Histogram: 2 1 3 8 8 7 9 5 3 2

Total # of neighbors = 661294
Ave neighs/atom = 165.32350
Neighbor list builds = 144
Dangerous builds = 15

#############################
# L I N E A R  Q U E N C H  #
#############################

# Define solid atoms. This closely follows ten Wolde  Ruiz-Montero and Frenkel  Faraday Discuss  1996  104  93-110
# Compute components of the per-atom q6 vector
compute q6 all orientorder/atom degrees 1 6 components 6 nnn NULL cutoff 1.3 # compute the Q6 parameter.
                                                                             # Use all neighbours within 1.3 unit cell.

# get number of connections
compute coord_number all coord/atom orientorder q6 0.5

# An atom is solid if it has 8 or more connections (of a possible 14)
variable is_solid atom c_coord_number>=8
group solid dynamic all var is_solid    # Must be dynamic to update
dynamic group solid defined

# do clustering
compute cluster solid cluster/atom 1.3 # Create a cluster where all atoms within are solid and max 1.3 units from another member

# define chunks one chunk per cluster
compute clus_chunks solid chunk/atom c_cluster nchunk every compress yes  # Says which atoms are in which chunk

# count the size of each chunk
compute size_chunks solid property/chunk clus_chunks count


# Find the maximum entry in the vector of chunk sizes
variable max_n equal max(c_size_chunks)


# Thermo style which includes this variable
# thermo_style custom step temp pe vol v_max_n

thermo ${N}  # Print the thermo information every 100 steps
thermo 1000  

# Reset the npt fix at a lower temperature (below freezing)
fix 1  all npt temp  ${temp} ${temp}  0.1  iso  5.68  5.68  0.5  mtk yes tchain  5  pchain  5
fix 1  all npt temp  0.45 ${temp}  0.1  iso  5.68  5.68  0.5  mtk yes tchain  5  pchain  5
fix 1  all npt temp  0.45 0.45  0.1  iso  5.68  5.68  0.5  mtk yes tchain  5  pchain  5

dump dmp2 all dcd ${N} traj.dcd
dump dmp2 all dcd 1000 traj.dcd


compute msd all msd com yes
variable twopoint equal c_msd[4]/6/(step*dt+1.0e-6)
fix 9 all vector 10 c_msd[4]
variable fit equal slope(f_9)/6/(10*dt)
thermo_style custom step temp pe c_msd[4] v_twopoint v_fit v_max_n

fix 1 all npt temp 1.25 ${temp} 0.1 iso 5.68 5.68 0.5 mtk yes tchain 5 pchain 5
fix 1 all npt temp 1.25 0.45 0.1 iso 5.68 5.68 0.5 mtk yes tchain 5 pchain 5
run 2000000 # 5000000  # Run for this many steps
Neighbor list info ...
  update every 1 steps, delay 10 steps, check yes
  max neighbors/atom: 2000, page size: 100000
  master list distance cutoff = 3.8
  ghost atom cutoff = 3.8
  binsize = 1.9, bins = 8 8 8
  4 neighbor lists, perpetual/occasional/extra = 1 3 0
  (1) pair lj/cut, perpetual
      attributes: half, newton on
      pair build: half/bin/atomonly/newton
      stencil: half/bin/3d
      bin: standard
  (2) compute orientorder/atom, occasional
      attributes: full, newton on
      pair build: full/bin/atomonly
      stencil: full/bin/3d
      bin: standard
  (3) compute coord/atom, occasional
      attributes: full, newton on
      pair build: full/bin/atomonly
      stencil: full/bin/3d
      bin: standard
  (4) compute cluster/atom, occasional
      attributes: full, newton on
      pair build: full/bin/atomonly
      stencil: full/bin/3d
      bin: standard
Per MPI rank memory allocation (min/avg/max) = 9.847 | 9.852 | 9.855 Mbytes
Step Temp PotEng c_msd[4] v_twopoint v_fit v_max_n 
   12000    1.2611242   -6.9289208 4.2010788e-30 2.9174157e-32 8.3333333e+20            9 
   13000    1.2502491   -6.8984538   0.43113776 0.0027637035  0.034422678            2 
   14000    1.2567142   -6.9586985   0.86132614 0.0051269411  0.033874717            2 
   15000    1.2643765   -6.9272151    1.2444407 0.0069135595  0.034332521            1 
   16000    1.2171214   -6.9011438     1.667695  0.008685911  0.033706944            3 
   17000    1.2427643    -6.872875    2.0643419  0.010119323   0.03392997            1 
   18000    1.2438682   -6.8990615     2.426852  0.011235425  0.033488021            3 
   19000    1.2335858   -6.9079476    2.8882707  0.012667853  0.033440175            2 
   20000    1.2502314   -6.8915884    3.3021962  0.013759151  0.033653126            2 
   21000     1.216212   -6.8759703    3.7486361   0.01487554   0.03392624            5 
   22000    1.2489364   -6.9341087    4.0853893  0.015474959  0.033955834            2 
   23000    1.2604061   -6.9489433    4.4896533  0.016266859  0.033879044            2 
   24000    1.2414819   -6.9057211    4.9208451  0.017086267  0.033917994            4 
   25000    1.2616975   -6.8694447    5.3345529  0.017781843  0.033945766            3 
   26000    1.2806406   -6.8872687    5.7483446  0.018424181  0.033945847            3 
   27000    1.2773573   -6.9183145     6.199017  0.019132768  0.034013836            2 
   28000    1.2760068   -6.9272422    6.5939603  0.019624881  0.034154181            2 
   29000    1.2254338   -6.9208977    7.0659138   0.02030435  0.034285971            4 
   30000    1.2371043   -6.9293945    7.4263974  0.020628881  0.034304733            1 
   31000    1.2536685   -6.8981031    7.7666205  0.020878012  0.034286873            1 
   32000    1.2346131   -6.8960996    8.2227033   0.02141329  0.034258606            1 
   33000    1.2337629   -6.9055857    8.6774452   0.02191274  0.034308746            1 
   34000    1.2065847   -6.9270288    8.9989079  0.022056146  0.034317034            2 
   35000    1.2322218   -6.9268797    9.3830099    0.0223405  0.034244217            3 
   36000    1.2473119   -6.9663642    9.6888241  0.022427833  0.034165574            1 
   37000    1.2419433   -6.8812995    10.051386  0.022638257  0.034029204            2 
   38000    1.2627128   -6.9427545    10.539301  0.023112501  0.033928211            2 
   39000    1.2323234   -6.9120563    10.980509  0.023462627  0.033905093            2 
   40000    1.2172942    -6.920703    11.386167   0.02372118  0.033855827            3 
   41000    1.2219639   -6.9347305    11.729209  0.023839856  0.033804725            1 
   42000     1.211084   -6.9407912    12.092855  0.023993759  0.033747595            2 
   43000    1.2310372   -6.9184417    12.568301  0.024357172  0.033721477            2 
   44000    1.2163675   -6.9142201    12.946432  0.024519757   0.03369365            2 
   45000    1.2323538   -6.9131412    13.339849  0.024703423  0.033655166            1 
   46000    1.2414174   -6.9333983     13.57203  0.024587011  0.033608784            3 
   47000    1.2402513   -6.9239098    14.010415  0.024841161  0.033531078            4 
   48000    1.2661113   -6.9076137     14.38986  0.024982395  0.033485888            3 
   49000    1.2270136   -6.9986102    14.711597  0.025019723  0.033417826            1 
   50000    1.2215804   -6.9261436     15.18223  0.025303717  0.033351685            2 
   51000    1.1981968   -6.9366631    15.534624  0.025383373  0.033303149            3 
   52000     1.228583   -6.9362242    15.960643  0.025577953   0.03324764            2 
   53000    1.2377851   -6.9059294    16.459013  0.025878951  0.033232095            1 
   54000    1.2688103   -6.9460807    16.729608  0.025817296  0.033212189            1 
   55000    1.2329904   -6.9096102    17.109744  0.025923854  0.033172967            2 
   56000    1.2214448   -6.9252868    17.505335  0.026049605  0.033136343            3 
   57000    1.2233417   -6.9173464    17.891803  0.026157606  0.033098739            3 
   58000    1.2298246   -6.9098351     18.35483  0.026371882  0.033070155            5 
   59000      1.22955   -6.8987273    18.612251   0.02628849  0.033040613            1 
   60000    1.2117392   -6.9151562    19.073237  0.026490606  0.033011696            3 
   61000    1.2063478   -6.9184077    19.469835  0.026598136  0.032991724            3 
   62000    1.2127444   -6.9000292    19.879913  0.026720313   0.03296716            1 
   63000    1.2150385   -6.9403732    20.205889  0.026727366  0.032945161            2 
   64000    1.2422059   -6.9659304     20.46177  0.026642929  0.032914473            1 
   65000    1.2131411   -6.9281876    21.090194   0.02703871  0.032887254            1 
   66000    1.2087772   -6.9303262    21.433331  0.027062286    0.0328721            5 
   67000    1.2290686    -6.945686    21.882753  0.027217354  0.032868213            2 
   68000    1.2245805    -6.972972    22.199203  0.027204905  0.032854823            3 
   69000    1.2239681   -6.9109009     22.73662  0.027459686  0.032848323            4 
   70000     1.231359   -6.9630331    23.098805  0.027498577  0.032859344            3 
   71000     1.206097   -6.9805586    23.443024  0.027515286  0.032859196            5 
   72000    1.2261529   -6.9582964    23.803273  0.027550085  0.032849448            4 
   73000    1.2400346   -6.9547665    24.025626  0.027426514  0.032822163            4 
   74000    1.2143589   -6.9385686     24.43293   0.02751456  0.032792532            4 
   75000    1.2192243   -6.9645397    24.765469  0.027517188  0.032762619            2 
   76000    1.2254453   -6.9722122    25.071516  0.027490697  0.032729972            2 
   77000    1.2253123   -6.9670283    25.504883  0.027602687  0.032702372            2 
   78000    1.1964061   -6.9158039    25.945802  0.027719873  0.032669835            2 
   79000    1.2346503     -6.97479    26.246256  0.027685923  0.032649926            4 
   80000    1.2132165   -6.9255767    26.831912  0.027949908  0.032630045            2 
   81000    1.2230571    -6.923477    27.237226  0.028021837  0.032616308            4 
   82000    1.2103241   -6.9435004    27.684069  0.028134216  0.032613675            2 
   83000    1.2133292   -7.0100575    27.851588  0.027963442  0.032610196            1 
   84000    1.2275136    -6.971586    28.305199  0.028080555  0.032602605            4 
   85000     1.213795   -6.9464166    28.966952  0.028398972  0.032599096            4 
   86000     1.243628   -6.8935787    29.567043  0.028650235  0.032614617            2 
   87000    1.2267341   -6.9527857    29.936254  0.028674573  0.032637039            2 
   88000    1.1923167   -6.9800462    30.237129  0.028633644  0.032662432            2 
   89000    1.2678277   -7.0234193    30.568426  0.028622121  0.032675837            2 
   90000    1.2369238   -6.9524751    31.228037  0.028914849  0.032702351            2 
   91000    1.2181718   -7.0075034    31.548683  0.028890735  0.032734722            2 
   92000    1.2469859   -6.9627417    31.798702  0.028803172  0.032753849            2 
   93000    1.2095981   -7.0007446    31.997719  0.028671791  0.032755527            2 
   94000    1.1900374   -6.9857598    32.527367  0.028836318  0.032754845            3 
   95000    1.2047588   -6.9437348    33.031115  0.028974662  0.032760614            3 
   96000    1.2245901   -6.9726066    33.371704  0.028968493  0.032769393            6 
   97000     1.236581   -6.9851937    33.677368  0.028932446  0.032774507            5 
   98000     1.195859   -7.0342061    33.986881  0.028900409  0.032775977            1 
   99000     1.236327   -6.9586047    34.395145  0.028952142  0.032776957            2 
  100000    1.2285759   -6.9829007    34.807865  0.029006554  0.032777369            2 
  101000    1.2071131   -7.0019187     34.98801  0.028867995  0.032771906            3 
  102000    1.2250844   -6.9662317    35.458725  0.028969547  0.032759553            6 
  103000    1.1874142   -6.9623198    35.876415  0.029026225  0.032748457            3 
  104000    1.2175617   -6.9473124    36.353374  0.029129306  0.032738721            2 
  105000    1.2361742   -6.9943495    36.531687  0.028993402  0.032733384            5 
  106000    1.1830327   -6.9710724    37.128604  0.029189154  0.032723448            3 
  107000     1.197603   -6.9722121    37.338425   0.02907977  0.032714385            1 
  108000    1.2062731   -6.9890163    37.589166  0.029003986  0.032702652            2 
  109000    1.2228897   -7.0125677    37.982411   0.02903854  0.032685549            2 
  110000    1.2120376   -7.0065614     38.31663   0.02902775  0.032669381            3 
  111000      1.20839   -6.9889187    38.738171  0.029082711  0.032650818            6 
  112000    1.1976487   -6.9765327    39.011065   0.02902609  0.032629999            2 
  113000    1.2021727   -6.9840196    39.229262  0.028930134  0.032606775            3 
  114000    1.1959763   -6.9664974    39.747264  0.029055017  0.032577044            3 
  115000    1.2036049   -7.0145957    39.845082  0.028873248   0.03254326            2 
  116000    1.2135545   -6.9793698    40.273515  0.028932123  0.032510859            3 
  117000    1.2067538    -6.959894    40.613986   0.02892734  0.032483524            1 
  118000    1.2332909   -6.9821589     40.95677  0.028924273  0.032452892            4 
  119000    1.2425289   -6.9893668    41.159192  0.028822963   0.03242332            2 
  120000    1.2036005   -6.9919345    41.531345  0.028841211  0.032389844            2 
  121000    1.1981353   -6.9881199    41.969908  0.028904895  0.032354198            3 
  122000    1.2046612   -7.0167812    42.269381  0.028872528  0.032320715            5 
  123000    1.1772853   -6.9880444    42.574588  0.028844572  0.032286228            2 
  124000    1.1938259   -7.0700615    42.718707  0.028708808  0.032250789            3 
  125000     1.180851   -6.9978082    43.186006  0.028790671   0.03221431            1 
  126000    1.2023113   -6.9700783    43.612885    0.0288445  0.032178265            2 
  127000     1.200646    -7.037182     43.88373  0.028795098  0.032142369            3 
  128000    1.2149182   -6.9977855    44.298913  0.028840438  0.032106698            1 
  129000    1.2290238   -7.0116748     44.55575  0.028782784  0.032072839            2 
  130000      1.21699   -6.9866163     44.93254   0.02880291  0.032037826            1 
  131000    1.2096453   -7.0100372    45.255315  0.028788368  0.032002649            9 
  132000    1.2081369   -6.9819589    45.776206   0.02889912    0.0319707            2 
  133000     1.205734   -7.0059971    45.898647   0.02875855  0.031941755            1 
  134000    1.2122364   -7.0068566    46.481817  0.028906603  0.031908296            4 
  135000    1.1608259    -7.031794    46.724276  0.028842145  0.031877781            3 
  136000    1.2089369   -7.0150475    47.029343  0.028816999  0.031845684            4 
  137000     1.191197   -7.0512015    47.122711  0.028663449  0.031811937            5 
  138000    1.2002339   -7.0296689     47.59075  0.028738376   0.03177918            1 
  139000    1.1850717   -6.9981764    48.087286  0.028829308  0.031749955            1 
  140000    1.2145038   -7.0329207    48.556617  0.028902748  0.031721783            3 
  141000    1.1926557   -7.0088686    48.775157  0.028826925    0.0316929            6 
  142000    1.2359193   -6.9870603    49.346593  0.028959268  0.031665279            2 
  143000    1.2017803   -6.9687136    49.649475  0.028933261  0.031641885            3 
  144000    1.1941182       -6.973    50.152871  0.029023652  0.031618601            2 
  145000    1.1817498   -7.0424521    50.599025  0.029079899  0.031597133            3 
  146000    1.1945995   -6.9760431    50.854142  0.029026337  0.031576041            3 
  147000    1.2100722   -7.0484305    50.862675  0.028833716  0.031552677            3 
  148000    1.2097344   -7.0358138    51.178594  0.028816776  0.031526172            2 
  149000    1.2268943   -6.9916675    51.771062  0.028954733  0.031502905            4 
  150000    1.1848035   -7.0546792    52.143292  0.028968496   0.03148188            3 
  151000    1.1830019    -7.072385     52.51024  0.028979161  0.031459335            3 
  152000    1.2047639   -7.0482242    52.910472  0.029007934  0.031439722            1 
  153000    1.1712855   -7.0378473    53.162649  0.028955691  0.031419031            2 
  154000     1.212927   -7.0407113    53.479289  0.028939009  0.031399585            2 
  155000    1.1720507   -7.0862396    53.492343  0.028759324  0.031374902            2 
  156000     1.225725   -7.0601981     53.89912  0.028792265  0.031346547            3 
  157000    1.2026725   -7.0305877    54.501163   0.02892843   0.03132029            4 
  158000    1.1780834   -7.0409974    54.959486   0.02898707  0.031300062            2 
  159000    1.1943368   -7.0215348    55.352334  0.029010657  0.031280023            2 
  160000    1.1950696   -7.0223555    55.598631   0.02895762  0.031262817            2 
  161000    1.2024773    -7.039275    56.327286   0.02915491  0.031246725            2 
  162000    1.2023189   -7.0372825     56.54922  0.029089105  0.031232169            2 
  163000    1.1902638   -7.0298875     56.79492  0.029036258  0.031218253            3 
  164000    1.1690374   -7.0527053    57.373929  0.029153419  0.031205166            4 
  165000    1.1743118   -7.0608032    57.533179  0.029057161  0.031192637            1 
  166000    1.1925017   -6.9857588    58.067503  0.029150353  0.031181308            1 
  167000    1.1678514   -6.9709056    58.416304  0.029149852  0.031168655            2 
  168000      1.17636    -7.095152     58.60581  0.029070342  0.031154086            4 
  169000    1.1844835   -7.0418918    58.920673  0.029053586  0.031138948            2 
  170000    1.1780063   -7.0883871    59.019779  0.028931264  0.031124799            1 
  171000    1.1855406   -7.0336851     59.89248  0.029187368  0.031112107            3 
  172000    1.1900492   -7.0730673    60.061485  0.029099556  0.031099898            4 
  173000    1.1944731   -7.0488091     60.59869   0.02919012  0.031086249            3 
  174000    1.2068244   -7.0646079    60.708806  0.029075099  0.031073688            2 
  175000    1.1768494   -7.0769382    60.952385  0.029024945  0.031059729            3 
  176000    1.2226587   -7.0429281    61.297445  0.029023412  0.031044003            7 
  177000    1.1688814   -7.0759275    61.554439  0.028980433  0.031027499            2 
  178000    1.1736815   -7.0650489    61.950924  0.029003241  0.031011963            1 
  179000    1.1717465   -7.0711658    62.076078  0.028899477  0.030995623            7 
  180000    1.1816153   -7.0858825    62.756895  0.029054118  0.030980556            3 
  181000    1.1878797    -7.056294    63.168851  0.029083265  0.030968487            3 
  182000    1.1954849   -7.0961923     63.18477  0.028930755  0.030953355            2 
  183000    1.2006682   -7.0416126    63.663638  0.028990728  0.030936906            1 
  184000    1.1999676   -7.0307771    63.944362  0.028960309   0.03092106            4 
  185000    1.1709477   -7.0578698    64.209531  0.028923212  0.030902262            2 
  186000    1.1816102   -7.0331985    64.924466  0.029088022  0.030884441            2 
  187000     1.187324   -7.0046313    65.533463  0.029203861  0.030870311            2 
  188000    1.1737738   -7.0491505    65.645153  0.029098029  0.030857432           14 
  189000    1.1652045   -7.0439184    65.764776  0.028996815   0.03084563            3 
  190000    1.1619519   -7.0347794    66.266137  0.029064095  0.030829977            2 
  191000    1.1668845   -7.0279877    66.445438  0.028990156   0.03081475            2 
  192000    1.2032029   -7.0087053    66.531416  0.028876483   0.03079683            1 
  193000    1.1787842   -7.0556456    67.066467  0.028957887  0.030780455            3 
  194000    1.1667249    -7.062461     67.29332  0.028906065  0.030763015            2 
  195000    1.1685579   -7.0279263    67.507249  0.028849252  0.030743375            2 
  196000    1.1713857   -7.0876011    67.807064  0.028829534   0.03072372            2 
  197000     1.168438   -7.0253151    68.180963  0.028841355  0.030703868            2 
  198000     1.187191   -7.1294105    68.225659  0.028714503  0.030684198            4 
  199000     1.192003   -7.1018638    68.709787  0.028772943  0.030665528            3 
  200000    1.1692244   -7.0814859    69.230625  0.028846094   0.03064591            1 
  201000    1.1606873   -7.0771392    69.455335  0.028795744  0.030627683            2 
  202000    1.1824573    -7.044612    69.980558  0.028869867  0.030609281            2 
  203000    1.1913717   -7.0500902    70.178636  0.028808964  0.030590979            2 
  204000    1.1948259   -7.0936038    70.193002  0.028673612  0.030571316            5 
  205000    1.1639064    -7.098621    70.789953  0.028776404  0.030550875            2 
  206000    1.1702769   -7.0978133    70.771389  0.028629203  0.030529917            3 
  207000    1.1908177   -7.0928651    71.321474  0.028712348  0.030510242            4 
  208000    1.1643975   -7.1100052    71.441991  0.028622592  0.030490772            1 
  209000    1.1729414   -7.0783076    71.889756  0.028664177  0.030469153            2 
  210000    1.1547228   -7.1030443    72.132826  0.028624137  0.030446784            2 
  211000    1.1628078   -7.0793101    72.542245  0.028650175  0.030424068            3 
  212000    1.1906282    -7.098243    72.857828  0.028639083  0.030403102            2 
  213000     1.190191   -7.0301103    73.062689  0.028584777  0.030381714            2 
  214000    1.1779282   -7.0719565    73.421167  0.028590797      0.03036            1 
  215000    1.1890416   -7.0939338    73.696846  0.028564669  0.030338686            3 
  216000    1.1759728   -7.0965899    74.278749  0.028656925  0.030316071            3 
  217000    1.1276789   -7.0778765    74.299913  0.028532993  0.030292788            2 
  218000    1.1544271   -7.0768539    74.633114  0.028529478  0.030269154            2 
  219000    1.1424106   -7.1012224    74.763738  0.028448911  0.030246865            3 
  220000     1.173114   -7.0669445    75.533391  0.028611133  0.030224123            2 
  221000    1.1724301   -7.1173235    75.869302  0.028608334  0.030203868           11 
  222000    1.1649913   -7.0796949    76.145017  0.028582964  0.030184588            2 
  223000    1.1762265   -7.0634418     76.46563    0.0285746  0.030164597            2 
  224000    1.1856994    -7.112826    76.520496  0.028467446  0.030144102            7 
  225000    1.1523708   -7.1031581    77.004704  0.028520261  0.030123553            4 
  226000    1.1632087   -7.0644758    77.450565  0.028558468  0.030103817            3 
  227000    1.1831996   -7.1382366    77.395661  0.028412504  0.030085734            3 
  228000    1.1743807    -7.131861    77.701403  0.028399636  0.030064524            5 
  229000    1.1322074   -7.0894702    78.122372  0.028428811  0.030043791            3 
  230000    1.1637243   -7.0698513    78.573216  0.028468556  0.030024693            1 
  231000    1.1551835   -7.1188325    79.109525   0.02853879   0.03000697            2 
  232000    1.1717338   -7.1385954    79.090419  0.028408915  0.029986429            2 
  233000    1.1606481   -7.0707244    79.646448  0.028485854   0.02996602            4 
  234000    1.1404365   -7.0308183    79.802804  0.028419802  0.029945611            2 
  235000    1.1728258   -7.0667731    80.163545  0.028426789  0.029925687            2 
  236000    1.1797438    -7.107265    80.112392  0.028288274  0.029903656            2 
  237000    1.1437394   -7.1349424    80.519338  0.028312003  0.029882356            2 
  238000    1.1800735    -7.080907    81.486456  0.028531672  0.029863228            5 
  239000    1.1348405   -7.1025604    81.368718   0.02837124  0.029845306            2 
  240000    1.1518524   -7.1126638    81.577149  0.028325399  0.029825039            4 
  241000    1.1669042   -7.1477731     81.48067  0.028174506  0.029803116            2 
  242000    1.1571683    -7.104698     82.07772  0.028263678  0.029782506            2 
  243000    1.1608716   -7.1175385    82.434819  0.028269828  0.029761315            4 
  244000    1.1582515   -7.1126598    83.000142  0.028347043  0.029742877            3 
  245000    1.1497008   -7.1007772     83.23718  0.028311966  0.029722997            7 
  246000    1.1474818   -7.1337293    83.449292   0.02826873  0.029703673            3 
  247000    1.1361828   -7.1445359    83.662181  0.028226107   0.02968369            2 
  248000    1.1427305   -7.1382902    84.071665  0.028249888  0.029663904            1 
  249000    1.1610164   -7.1219223    84.385107  0.028241334  0.029645399            1 
  250000    1.1592911    -7.107101    84.515124  0.028171708  0.029626296            1 
  251000    1.1454131   -7.1820462    84.693753  0.028118776  0.029606508            4 
  252000    1.1523118   -7.1955262    85.424405  0.028248811  0.029588341            3 
  253000    1.1613418   -7.1400131    85.704478  0.028229406  0.029569339            6 
  254000    1.1512309   -7.1977424    85.695864  0.028115441  0.029550155            2 
  255000    1.1651361    -7.140101    86.093213  0.028135037  0.029531395            2 
  256000     1.129303   -7.1317745    86.700175  0.028222713  0.029514304            1 
  257000    1.1545148    -7.117342    87.201325  0.028275397  0.029497271            5 
  258000    1.1480467   -7.1158918    87.139913  0.028145967  0.029478458            6 
  259000     1.143878   -7.1149643    87.443753  0.028135056  0.029459293            1 
  260000    1.1548525   -7.1349872    87.783633   0.02813578  0.029439945            2 
  261000    1.1576961    -7.176351    87.758224  0.028019867  0.029420869            6 
  262000    1.1623281   -7.1278925    88.179305  0.028046853  0.029401857            1 
  263000     1.153698    -7.173706    88.261965  0.027966402   0.02938236            3 
  264000    1.1523386   -7.1910762    88.525533  0.027943666  0.029361747            3 
  265000    1.1459453   -7.1635358    88.950712  0.027971922  0.029341969            3 
  266000    1.1793039   -7.1537666    89.214703  0.027949468  0.029321717            2 
  267000    1.1562361   -7.1645566    89.564371  0.027953924   0.02930061            1 
  268000    1.1471168   -7.1567154    90.093048  0.028014007  0.029280425            3 
  269000    1.1413884   -7.1325497    90.369579  0.027995533  0.029261572            4 
  270000    1.1587814    -7.179873    90.534919  0.027942876  0.029241816            2 
  271000    1.1353484    -7.184905     91.00695  0.027984917  0.029222836            2 
  272000    1.1477777   -7.1521509    91.394331  0.028000714  0.029204294            4 
  273000    1.1405774   -7.1493119    91.417845  0.027905325  0.029184721            4 
  274000    1.1491575   -7.1911549    91.577214  0.027851951  0.029165044            3 
  275000    1.1503966   -7.1193542    92.209556   0.02794229  0.029145489            3 
  276000    1.1580148   -7.1634763    92.564928  0.027948348  0.029126415            2 
  277000    1.1403167   -7.1283479    92.760011   0.02790614   0.02910885            4 
  278000     1.142641   -7.1551739    92.587089  0.027753924  0.029089107            2 
  279000    1.1623375   -7.2150928    92.828197  0.027726463  0.029068993           12 
  280000    1.1439369   -7.1770882    93.211592  0.027741545  0.029049101            2 
  281000    1.1359863   -7.1446477    93.705194  0.027789203  0.029030324            1 
  282000    1.1351222   -7.1639581     94.18761  0.027833218   0.02901249            9 
  283000    1.1528682   -7.1244414    94.420107  0.027803329  0.028993914            4 
  284000     1.130138   -7.1045371    94.716312  0.027792345  0.028974105            2 
  285000    1.1560545    -7.152343    94.960034  0.027766092  0.028953948            4 
  286000    1.1275654   -7.1692341    94.550674   0.02754973  0.028932179            2 
  287000    1.1646511   -7.2155165    94.815342  0.027530587  0.028909194            3 
  288000    1.1406162    -7.185563    95.441753  0.027616248  0.028886995            2 
  289000    1.1480487   -7.1316861    95.839566    0.0276354  0.028865398            3 
  290000    1.1607751   -7.1874986    95.738308  0.027511008  0.028843113            3 
  291000    1.1479093    -7.158856    96.171147   0.02754042  0.028821967            2 
  292000    1.1637039   -7.1625777    96.855243  0.027641336  0.028801367            6 
  293000    1.1360248   -7.1632393    97.083757   0.02761199  0.028780755            3 
  294000    1.1179293   -7.1787483    97.404109  0.027608874  0.028761093            2 
  295000     1.146181   -7.1882523    97.567081  0.027561322  0.028741807            3 
  296000    1.1163095   -7.1982353     97.53601  0.027459462  0.028722227            4 
  297000    1.1177653   -7.2250485     98.15636  0.027541066  0.028703216            3 
  298000     1.135563   -7.2010063    98.663004  0.027590325  0.028684259            2 
  299000    1.1492321    -7.121135    99.233741  0.027657118  0.028666333            2 
  300000    1.1433769    -7.182179     99.03737   0.02751038  0.028647654            2 
  301000    1.1112987   -7.1968412    99.458728  0.027535639  0.028628747            4 
  302000     1.153057   -7.2141654    99.871568   0.02755838  0.028610134            2 
  303000    1.1171174   -7.1947166    100.63175  0.027676498  0.028592117            3 
  304000    1.1333926   -7.1748959    100.51106  0.027552375  0.028574195            3 
  305000    1.1263424    -7.198064    100.59393  0.027484679  0.028555741            4 
  306000     1.132866   -7.1586892      100.918  0.027483116   0.02853701            3 
  307000    1.1193314   -7.1845896    101.19504  0.027468794  0.028518793            3 
  308000    1.1212114   -7.1730594     101.7061  0.027517885  0.028500578            8 
  309000    1.1256858     -7.20018    101.35721  0.027334738  0.028482033            2 
  310000     1.131604   -7.2084955    101.87201   0.02738495  0.028462984            3 
  311000    1.1192469     -7.18217    102.41985   0.02744369  0.028443889            2 
  312000    1.1385557   -7.2184244    102.56102  0.027393434  0.028423842            1 
  313000      1.12664    -7.160585    102.38359  0.027258678  0.028405344            2 
  314000    1.1321362   -7.1926609    102.85849    0.0272979   0.02838729            7 
  315000    1.1417311   -7.1912719    103.53518   0.02739026  0.028368811            5 
  316000    1.1464817    -7.180564    103.80099   0.02737368  0.028350909            2 
  317000    1.1508617   -7.1923337    104.36186   0.02743477  0.028333711            1 
  318000    1.1101676   -7.1852249    104.66096  0.027426877   0.02831755            4 
  319000    1.1178536   -7.2033301    104.72612  0.027357919  0.028300707            2 
  320000    1.0934221   -7.1888974    104.95398  0.027331767  0.028284042            4 
  321000    1.1210285    -7.184535    105.43342  0.027371084  0.028268074            4 
  322000    1.1248844   -7.1979696    105.72259   0.02736092  0.028251405            3 
  323000    1.1305995     -7.26168    105.78562  0.027292473  0.028234975            2 
  324000     1.123286   -7.2265555     105.9267  0.027244521  0.028217806            6 
  325000    1.1346974    -7.230911    106.34924  0.027269036  0.028200561            4 
  326000    1.1407693   -7.2237602    106.46667  0.027215406  0.028183821            1 
  327000    1.1253495   -7.1956037    106.95001  0.027255355  0.028167417            4 
  328000     1.145003   -7.2583772    106.92108  0.027164908  0.028150121            2 
  329000    1.1054921   -7.2194457    107.44435   0.02721488  0.028132545            1 
  330000    1.0928263   -7.2409325    107.39694   0.02712044  0.028114981            3 
  331000    1.1113008   -7.2298387    107.99654  0.027189461  0.028097444            3 
  332000    1.1286119   -7.2017524    108.45529  0.027222712   0.02808039            6 
  333000    1.1485062    -7.272803    108.65428   0.02719076  0.028063037            2 
  334000     1.162847    -7.299173     108.2289  0.027003219  0.028044975            5 
  335000    1.1252596   -7.2424211    108.72195   0.02704526  0.028027257            7 
  336000    1.0909143   -7.2575757    109.15899  0.027073163  0.028009434            4 
  337000    1.1174437   -7.2024845    109.76492  0.027142662  0.027992321            4 
  338000     1.126463   -7.2162623    110.03458  0.027128841  0.027975877            2 
  339000    1.1415443   -7.2007349    110.59066  0.027185512  0.027960016            4 
  340000    1.1067257   -7.2031918    110.43645  0.027067758  0.027944126            3 
  341000    1.1196716   -7.2485994    110.69195  0.027050819   0.02792685            4 
  342000    1.1202783   -7.2460217    111.04703  0.027058242  0.027909786            2 
  343000    1.1326452   -7.1991723    111.40028  0.027065181  0.027892717            4 
  344000    1.1088168   -7.2436892    111.68395   0.02705522  0.027876135            2 
  345000    1.1000263    -7.261679     111.8665  0.027020893  0.027859248            3 
  346000    1.1302103   -7.2880121    112.21837  0.027027546  0.027842674            1 
  347000    1.1258728   -7.2252724     112.4119  0.026996133  0.027826077            1 
  348000    1.1109162   -7.2456389    112.40116  0.026915986  0.027808757            4 
  349000    1.1293151    -7.265456    112.65753  0.026900078  0.027791212            4 
  350000    1.1172762   -7.2149385    113.21824  0.026956724  0.027772981            1 
  351000    1.1292625   -7.2500214    113.34715   0.02691053  0.027755819            1 
  352000    1.1025021   -7.2066673    113.85933  0.026955335  0.027738727            2 
  353000    1.1050503    -7.242374    113.87771  0.026883311  0.027722571            1 
  354000    1.1107757   -7.2197336    114.35125  0.026918844  0.027706466            5 
  355000    1.0882993   -7.2592735    114.34482  0.026841507  0.027689511            2 
  356000    1.1158067   -7.2726211    114.81988  0.026877313  0.027672452            5 
  357000    1.1022712   -7.2477862    114.86403  0.026812332  0.027655504            2 
  358000    1.1200875   -7.2884623    114.59629  0.026675115  0.027636953            1 
  359000    1.1002764   -7.2711004    115.23667  0.026749458  0.027618271            4 
  360000    1.1220009   -7.2205449    115.58213  0.026755123   0.02760073            2 
  361000     1.109588   -7.2422517    115.85045  0.026742948  0.027582866            3 
  362000     1.113882   -7.2585552    115.91081  0.026682967  0.027564679            4 
  363000    1.0942005   -7.2558162    116.17179  0.026669374   0.02754646            3 
  364000    1.1245766   -7.2078182    116.30152  0.026625805  0.027528035            5 
  365000    1.1010004   -7.2349853    116.85997  0.026680358   0.02750963            2 
  366000    1.1229441   -7.2986641    116.36664  0.026495136  0.027490216            4 
  367000    1.1045652   -7.3018179    116.84962   0.02653261  0.027470297            5 
  368000    1.0957384   -7.2878766    116.57863  0.026399146  0.027450419            1 
  369000    1.0898057   -7.2121912     118.1453  0.026681414  0.027431216            2 
  370000    1.1272195   -7.2846203    117.50348  0.026464748  0.027412148            5 
  371000    1.0951746   -7.2351585    118.07513  0.026521816  0.027392872            2 
  372000    1.0925449   -7.2285179    117.94163  0.026420617  0.027374101            2 
  373000    1.0952085   -7.2743742    117.83324  0.026325568  0.027354022            3 
  374000    1.1104267   -7.2128808    118.55399  0.026415774   0.02733347            2 
  375000    1.1155843   -7.2530538    118.67329  0.026371843   0.02731373            3 
  376000    1.1065817   -7.2006595    119.16972  0.026411729   0.02729367            3 
  377000    1.0915138   -7.2386037    119.33536  0.026378285  0.027274117            3 
  378000    1.1291612   -7.2538359    119.37676  0.026317627  0.027253818            2 
  379000    1.1017546   -7.2551981    119.12709  0.026193291  0.027233167            3 
  380000    1.1032271   -7.2504172    119.69007  0.026247822  0.027212264            3 
  381000    1.1096507   -7.2661493     120.0931  0.026267083  0.027191876            3 
  382000    1.1172078   -7.2903119    120.53905  0.026295604  0.027171514            3 
  383000    1.1107365   -7.2203452    120.70567    0.0262632   0.02715189            3 
  384000    1.0992474   -7.2775253    120.71552  0.026196943  0.027132336            6 
  385000    1.1229654   -7.3201453    120.58848  0.026101402  0.027113233            3 
  386000    1.0954058   -7.3063974    121.15576  0.026156252  0.027092674            7 
  387000    1.0981445   -7.2570257    121.57104  0.026178088  0.027072435            4 
  388000    1.0906035   -7.2969066    121.64299  0.026126071   0.02705199            5 
  389000    1.0856538   -7.2773235    121.88466  0.026110682  0.027031285            5 
  390000    1.0801376   -7.2596823    121.84148  0.026034504  0.027009538            5 
  391000    1.0701757   -7.2543931    122.15546  0.026034838  0.026987975            4 
  392000     1.089409   -7.2708849    122.11897  0.025960665  0.026965996            2 
  393000    1.0934095   -7.2993362    121.87257  0.025842359   0.02694314            2 
  394000    1.1028033   -7.2853558    122.35091  0.025877942  0.026920656            2 
  395000    1.0806419   -7.2771686    122.89593   0.02592741   0.02689799            6 
  396000    1.0803058   -7.2486703    123.61469  0.026013193  0.026875603            2 
  397000    1.0997729   -7.3152095    123.31617  0.025885006  0.026854148            5 
  398000    1.0809575   -7.3178546     123.3841  0.025834191  0.026832409            2 
  399000    1.0865359    -7.309594    124.21249  0.025942458  0.026810565            4 
  400000    1.0883939    -7.266496    124.03997  0.025841661  0.026789409            4 
  401000    1.1052074   -7.2806098    124.21617  0.025813835  0.026767673            2 
  402000       1.0603   -7.2891371    124.55267  0.025819377   0.02674532            4 
  403000      1.09275   -7.3086595    124.99959  0.025847722  0.026723206            5 
  404000    1.0948701   -7.2998097    124.68743  0.025719355  0.026701701            4 
  405000     1.119262   -7.3019791    125.28302  0.025778399  0.026680895            2 
  406000    1.1044931   -7.3151581    125.08603  0.025674473  0.026659556            2 
  407000    1.0854747   -7.2798165    126.19429  0.025838307  0.026638001            2 
  408000    1.0864776   -7.2846204    125.56972   0.02564741   0.02661627            2 
  409000    1.0892949   -7.3268427    126.04351  0.025681236  0.026594752            4 
  410000    1.0941205   -7.3217031    126.17977  0.025646295  0.026572781            2 
  411000     1.090851   -7.3007926    126.55246  0.025659461  0.026551471            2 
  412000    1.0781293   -7.3141066    126.50552  0.025587686  0.026529824            4 
  413000    1.1075371   -7.3376975    126.68952  0.025562858  0.026508007            2 
  414000    1.1063265   -7.3618876    126.75286   0.02551386  0.026485644            2 
  415000    1.0824154   -7.2918625    127.35714  0.025573724  0.026463779            1 
  416000    1.1033888   -7.3488739    127.14298  0.025469347  0.026442619            2 
  417000    1.0870666   -7.3379773     127.8498   0.02554952  0.026421022            3 
  418000      1.08806   -7.3032197    127.95355  0.025509082  0.026399619            2 
  419000    1.0789207   -7.3277945    128.47291  0.025551493  0.026377858            4 
  420000    1.0829483   -7.3684958     128.1433  0.025425258  0.026356313            4 
  421000    1.0800131   -7.2887974     128.9302  0.025520626  0.026334996            2 
  422000    1.0868853   -7.3255943    129.22776  0.025518909  0.026314195            3 
  423000    1.0673422   -7.2702189    129.48195  0.025508659  0.026293793            3 
  424000    1.0827757   -7.2905156    129.76652  0.025504427  0.026274013            7 
  425000    1.0683653   -7.2949547    130.01866  0.025493855  0.026254013            5 
  426000    1.0823225   -7.3076768     130.2405  0.025477406  0.026234309            9 
  427000    1.0902596   -7.3466836    130.67109  0.025501774  0.026214175            5 
  428000    1.0822117   -7.3144029    130.44026  0.025397247  0.026193839            4 
  429000    1.0787629    -7.317983     130.9138  0.025430032   0.02617364            6 
  430000    1.0939522   -7.2980736    130.83882   0.02535636  0.026153074            3 
  431000    1.0764546    -7.309587    131.27446  0.025381759  0.026132672            4 
  432000    1.0849817   -7.3327097    131.42023  0.025351125  0.026112129            4 
  433000    1.0731469   -7.3189151    131.60657  0.025328439  0.026091678            4 
  434000    1.0746389   -7.3328508    131.92093   0.02533044  0.026071308            2 
  435000    1.0613431   -7.3085599    132.11333  0.025309068  0.026051397            3 
  436000    1.0817937    -7.327378     131.9739  0.025224369  0.026031913            2 
  437000    1.0810474   -7.3654858    132.21535   0.02521269  0.026012505            3 
  438000    1.0543394   -7.3565284     132.1645  0.025145453  0.025992155            3 
  439000    1.0621181   -7.3676432    132.82636  0.025213812  0.025971552            4 
  440000    1.0692308   -7.3535896    132.59733   0.02511313  0.025950989            3 
  441000    1.0555681   -7.3435928    133.17397  0.025165149  0.025931143            5 
  442000      1.07697   -7.3493489    133.69871  0.025207147  0.025910666            2 
  443000    1.0717026   -7.3329864    133.53937  0.025120272  0.025890383            2 
  444000    1.0820646   -7.3456109    133.96553  0.025143681  0.025870237            2 
  445000    1.0705834   -7.3193372    134.71529  0.025227582  0.025850618            3 
  446000    1.0651837   -7.3605066    134.66253   0.02516116  0.025830697            3 
  447000    1.0825025   -7.3976283    134.44259  0.025063868   0.02581069            5 
  448000    1.0952833   -7.3299097    134.50527  0.025019581  0.025790925            4 
  449000    1.0929662   -7.3462444    135.21737  0.025096022  0.025771229            5 
  450000    1.0799273   -7.2886722    135.94704  0.025175377   0.02575297            2 
  451000    1.0576486   -7.3321217     135.5061  0.025038081  0.025734802            3 
  452000    1.0690559    -7.322295    136.62722  0.025189385  0.025716792            7 
  453000     1.075899   -7.3074493    136.39028  0.025090191  0.025698765            4 
  454000    1.0652116   -7.3357504    136.41723  0.025039873  0.025680378            4 
  455000    1.0787842   -7.3812615    136.34599  0.024971794  0.025662047            6 
  456000    1.0509682   -7.3979137    136.76668  0.024993912  0.025643237            4 
  457000    1.0807159   -7.3487677    137.35492  0.025046485  0.025624542            5 
  458000    1.0793038   -7.3482845    137.68838  0.025052472  0.025606411            5 
  459000     1.083512   -7.3721405    137.99287  0.025053172  0.025588596            5 
  460000    1.0727408   -7.3916752    138.06669  0.025012082  0.025570356            4 
  461000     1.060785   -7.3514111    137.89562  0.024926901  0.025551724            6 
  462000    1.0668582   -7.3238519    138.83157   0.02504177  0.025533336            3 
  463000    1.0677275   -7.3642514    138.36248  0.024903255   0.02551497            5 
  464000    1.0563734   -7.3391436    138.67446  0.024905614  0.025495672            3 
  465000    1.0568319   -7.3171843    138.78125  0.024871192   0.02547611            5 
  466000    1.0905297   -7.3700687    138.72873  0.024808429  0.025455895            5 
  467000    1.0604379   -7.3901519      138.246  0.024669164  0.025435691            5 
  468000    1.0698196    -7.348491    138.45702  0.024654027  0.025414553            5 
  469000    1.0608078    -7.372679    138.95317  0.024689618  0.025394077            2 
  470000    1.0641131   -7.3775127    138.24485  0.024511499  0.025372789            4 
  471000    1.0779786   -7.3527203    139.29653  0.024645528  0.025351411            4 
  472000    1.0776075   -7.3778926    138.95365  0.024532778  0.025330194            4 
  473000     1.069194   -7.3810355    139.37829  0.024555724  0.025308665            3 
  474000    1.0680969     -7.32904    139.48528  0.024522728  0.025287841            4 
  475000    1.0845032   -7.3994598    139.28646  0.024436221  0.025265886            3 
  476000    1.0561138   -7.3545053     139.8896  0.024490476  0.025244462           11 
  477000    1.0299919   -7.4164335    139.49728  0.024370594  0.025222347            9 
  478000    1.0748754    -7.399483    140.33654  0.024465923  0.025200508            6 
  479000    1.0693293   -7.3922802    140.35138  0.024417428  0.025178931            5 
  480000    1.0587838   -7.3478581     140.4624  0.024385833  0.025157879            3 
  481000    1.0724773    -7.356719    141.01995  0.024431731  0.025136819            3 
  482000    1.0611437    -7.381401    140.07742  0.024218087  0.025115857            4 
  483000    1.0700632   -7.4055041     140.9811  0.024323861  0.025094748            7 
  484000    1.0672164   -7.3706557    141.24936  0.024319793  0.025073492            3 
  485000    1.0507026   -7.4121143    141.29633  0.024277719  0.025052133            3 
  486000    1.0631817   -7.3708673     142.1403  0.024372479  0.025031214            9 
  487000    1.0610084   -7.4143155    142.11712  0.024318467  0.025010688            7 
  488000    1.0605518   -7.4116947    142.07345  0.024261176  0.024989979            5 
  489000    1.0494657   -7.3950255    142.60715  0.024302513  0.024969214            3 
  490000     1.073233    -7.416465    142.64416  0.024259211  0.024948468            3 
  491000    1.0417931   -7.4357108    142.27467  0.024147093   0.02492755            5 
  492000    1.0575255   -7.4151336    142.87374  0.024199482  0.024906268           12 
  493000     1.079194   -7.4551284    142.69251  0.024119762  0.024885558            4 
  494000    1.0347164   -7.3882502    143.37859  0.024186671  0.024864805            3 
  495000    1.0562416   -7.4186977    143.54844  0.024166404   0.02484444            5 
  496000    1.0687491    -7.437818    143.40095  0.024092902  0.024823561            3 
  497000    1.0497662   -7.4104463    143.82787  0.024116007   0.02480248            3 
  498000    1.0626143   -7.4324715    143.58244  0.024026512  0.024781057            6 
  499000    1.0443343    -7.417033    144.00561  0.024049033  0.024759727            3 
  500000    1.0748634   -7.4064453    144.28582  0.024047637  0.024739232            2 
  501000    1.0557291   -7.4091448    144.88757  0.024099729  0.024719179            6 
  502000    1.0650052   -7.3915618    144.93413   0.02405945  0.024699119            4 
  503000    1.0589589   -7.4060255    145.28061  0.024069022  0.024679083            5 
  504000    1.0479389   -7.4205749    145.19254  0.024006703  0.024658969            4 
  505000    1.0415241   -7.4258273    145.41015  0.023995075  0.024638383            3 
  506000    1.0827838   -7.4480191    145.11036  0.023898281  0.024618155            2 
  507000     1.046888   -7.4450407    146.17599  0.024026297  0.024597869            3 
  508000    1.0539046   -7.3716143    146.38461  0.024013224  0.024577475            2 
  509000    1.0385582   -7.4187963    146.21506  0.023938288  0.024557418            4 
  510000    1.0556144   -7.3558061    146.71605   0.02397321  0.024537072            5 
  511000    1.0767068   -7.3814982    147.25985  0.024014979  0.024517528            2 
  512000    1.0381454   -7.4477399    146.45887  0.023837706  0.024497524            5 
  513000    1.0640956   -7.4079688     146.8455  0.023854045  0.024477376            3 
  514000     1.039907   -7.4032557    147.05353  0.023841363  0.024457488            3 
  515000    1.0467189   -7.3803032    147.85172  0.023924226   0.02443805            3 
  516000    1.0159259   -7.4138885    147.95249  0.023894136  0.024418208            1 
  517000    1.0433588   -7.4202514    147.83267  0.023828606  0.024398476            2 
  518000    1.0751572    -7.397205    148.13851  0.023831806   0.02437874            4 
  519000    1.0418166   -7.4160308    148.27469  0.023807754  0.024358801            4 
  520000    1.0237259   -7.4045909    148.04216  0.023724705    0.0243392            5 
  521000    1.0421902   -7.4387754    148.75951  0.023793907  0.024319328            8 
  522000    1.0543594    -7.396814    149.23001  0.023823437  0.024299519            5 
  523000    1.0336948   -7.4214512     148.6681  0.023688353  0.024280131            3 
  524000     1.048555   -7.4651101    149.42095  0.023762874  0.024260523            7 
  525000    1.0171573   -7.3856086    149.42304  0.023717943  0.024241036            4 
  526000    1.0523197   -7.4669928    149.30442  0.023654059  0.024221463            4 
  527000    1.0409954   -7.3984872      149.817  0.023690227  0.024202142            3 
  528000    1.0581371   -7.4316932    149.99277  0.023673102  0.024182816            6 
  529000    1.0449952   -7.4463043    149.98391  0.023626955  0.024163446            4 
  530000    1.0476873    -7.446297    150.21721  0.023619059  0.024144351            4 
  531000    1.0235661     -7.48012    150.01522  0.023542878  0.024125275            2 
  532000    1.0292434   -7.4167356    150.97623  0.023649159  0.024106169            5 
  533000     1.041304     -7.45373    151.19093  0.023638357  0.024087318            3 
  534000    1.0443802   -7.4184976    151.91651   0.02370732  0.024068488            2 
  535000    1.0501935   -7.4976362    151.04375  0.023527064  0.024049701            2 
  536000    1.0196056    -7.451658    151.67917   0.02358196  0.024030723            4 
  537000    1.0338779   -7.4435128    151.89315  0.023571253  0.024011939            4 
  538000    1.0544003    -7.436663    152.48412  0.023618977  0.023993481            4 
  539000    1.0359393   -7.4349822    151.91009  0.023486409  0.023974963            8 
  540000    1.0450092   -7.4371656    152.29099  0.023501696  0.023956354            2 
  541000    1.0559331   -7.4426324    152.29698  0.023459178  0.023937736            3 
  542000    1.0309369   -7.4431544    152.98927  0.023522335  0.023919359            2 
  543000    1.0165515    -7.418976    153.04747  0.023487949  0.023900838            3 
  544000    1.0128215   -7.4947519    153.10314    0.0234533  0.023882672            4 
  545000    1.0421826   -7.4512689    153.69129  0.023500197  0.023864667            2 
  546000    1.0258518   -7.4723065    153.71032   0.02346006   0.02384715            4 
  547000    1.0210729   -7.5016586    153.41597  0.023372329  0.023829259            2 
  548000    1.0111612   -7.4806958    153.94383   0.02340995  0.023811086            3 
  549000    1.0434725   -7.4647748    154.79944  0.023497182  0.023793418            7 
  550000     1.029678   -7.4440779    154.88407  0.023467283  0.023775893            4 
  551000    1.0220255   -7.4673538    154.83722  0.023417607  0.023758238            5 
  552000    1.0381409   -7.4323231    155.43651  0.023465657  0.023740357            4 
  553000    1.0435686     -7.49038    155.31854  0.023405446  0.023722655            3 
  554000      1.02224   -7.4766671     155.6306  0.023410138  0.023705302            4 
  555000    1.0281197   -7.5040824    155.29449  0.023317491  0.023687472           12 
  556000     1.042891   -7.5406571    155.36684  0.023286396   0.02366944            3 
  557000    1.0193647   -7.4554467    155.50147  0.023264732  0.023651189            3 
  558000    1.0214471   -7.4742938      155.135  0.023168309  0.023632795            2 
  559000    1.0505925   -7.4885959    156.03789  0.023261462  0.023614442            4 
  560000    1.0480379   -7.4522701    156.09299  0.023228123  0.023596665            8 
  561000    1.0203129   -7.4240711    156.68811  0.023275121  0.023578739            4 
  562000    1.0456361   -7.4935941    156.10698  0.023147536  0.023560745            2 
  563000    1.0396253   -7.4629271    156.59923  0.023179283  0.023542927            7 
  564000    1.0228863   -7.4850341    156.81394  0.023169909  0.023525005            5 
  565000    1.0177076   -7.5039473    156.59013  0.023095889  0.023506897            3 
  566000    1.0338751   -7.4868066    157.00378  0.023115986  0.023488616            4 
  567000    1.0263075    -7.491952    156.87094  0.023055694  0.023470165            2 
  568000     1.022206   -7.5201334    156.87606  0.023015854  0.023451668            7 
  569000    1.0187187   -7.5370496    156.79729  0.022963868  0.023432935            3 
  570000     1.015933   -7.4828924    156.99368  0.022952292  0.023414612            6 
  571000    1.0293402   -7.4757252    157.79366  0.023028846  0.023396634            4 
  572000    1.0241678   -7.5081336    157.85238  0.022997142  0.023378587            4 
  573000    1.0291781   -7.4861718    158.05272  0.022986143  0.023360541            9 
  574000    1.0228403    -7.526387     158.2037  0.022968016  0.023342283            3 
  575000    1.0262622   -7.4834286    158.01625  0.022900906  0.023324335            3 
  576000    1.0225028    -7.499058    158.68549   0.02295797  0.023306184            2 
  577000    1.0422539   -7.4979042    159.12981  0.022982353  0.023288253            3 
  578000    1.0110943    -7.461534    159.28509  0.022964978  0.023270227            4 
  579000    1.0275572    -7.464903    159.92517  0.023017439  0.023252947            2 
  580000    1.0111143   -7.4892405    159.49549  0.022916019  0.023235534            4 
  581000    1.0005675   -7.5007433    159.69204  0.022904768  0.023217729            6 
  582000    1.0260714   -7.5048887    159.46743  0.022833252   0.02319987            4 
  583000    1.0239895   -7.5303607    159.56371  0.022807849  0.023182027            3 
  584000    1.0107031   -7.4532028    160.39459  0.022887355  0.023164148            4 
  585000    1.0133465   -7.5002944    160.73366  0.022896532  0.023146589            7 
  586000   0.98492532   -7.5091129    160.68326  0.022850293  0.023129294            2 
  587000    1.0212756   -7.5043676    161.15112  0.022877785  0.023112283            2 
  588000    1.0278001   -7.5011959    161.54895   0.02289526  0.023094954            2 
  589000    1.0179116   -7.5289997    161.51008  0.022850888   0.02307776            5 
  590000   0.99156819   -7.5091133    161.76303  0.022847885  0.023060679            3 
  591000    1.0281089   -7.5143149    162.10988  0.022858133  0.023044143            5 
  592000    1.0158557   -7.4868376    162.73304  0.022907241  0.023027468            2 
  593000    1.0126956   -7.5105584    162.27368  0.022804058  0.023010946            7 
  594000    1.0184957   -7.5105145     162.6942  0.022824663  0.022994425            3 
  595000    1.0146304   -7.5542447     162.0605  0.022697548  0.022977596            5 
  596000    0.9982221   -7.5601929    162.75519  0.022756598  0.022960433            3 
  597000    1.0096002   -7.5103944    162.95184   0.02274593  0.022943679            5 
  598000    1.0244744   -7.4900734    162.98407  0.022712384  0.022926699            3 
  599000    1.0039983    -7.522602    162.85633  0.022656696  0.022909789            4 
  600000    1.0055661   -7.5563733    163.12497  0.022656245  0.022892854            4 
  601000    1.0310523   -7.5392629    162.98872  0.022599656  0.022875953            9 
  602000    1.0110209   -7.5458165    163.01966  0.022566398  0.022858835            2 
  603000    1.0174497   -7.5439586    164.00521  0.022665175  0.022841838            4 
  604000    1.0223629   -7.5170259       163.66  0.022580022  0.022824862            4 
  605000    1.0138981   -7.5518864    164.10115  0.022603464  0.022807903            6 
  606000    0.9959011   -7.5219057    164.70866  0.022649706  0.022791109            7 
  607000    1.0101855   -7.5414727    164.35937  0.022564439  0.022774165            4 
  608000    1.0307487   -7.5656288    164.31218  0.022520857  0.022757162            5 
  609000    1.0215627   -7.5335528    164.99184   0.02257688  0.022739996            3 
  610000   0.98448591   -7.5343164    164.99709  0.022540586  0.022723255            4 
  611000    1.0073238   -7.5269358    165.17321  0.022527716  0.022706474            3 
  612000    1.0085056   -7.5429401    165.20303  0.022494965  0.022689987            3 
  613000    1.0086181   -7.5452896    165.09401  0.022443449  0.022673238            4 
  614000     1.031436   -7.5499921    164.94102  0.022386132  0.022656397            7 
  615000     1.025829   -7.4950747    165.88214  0.022477255  0.022639526            4 
  616000    1.0159869   -7.5074039    165.45412  0.022382862  0.022622597            4 
  617000    1.0001218    -7.492849    165.77797  0.022390326  0.022605577            6 
  618000    1.0064974   -7.5328023    166.22791  0.022414766  0.022588628            2 
  619000    1.0004064   -7.5104513    166.29674  0.022387821  0.022571817            4 
  620000    1.0003794   -7.5435975    166.37607  0.022362376  0.022555106            9 
  621000    1.0338477   -7.5370018    166.35476  0.022323505  0.022538372            5 
  622000   0.99536902   -7.5266508    166.64667  0.022326724   0.02252159            4 
  623000   0.99141532   -7.5227215     166.5139  0.022273128  0.022504386            5 
  624000    1.0199334   -7.5267604     166.6034  0.022249386  0.022486923            4 
  625000    1.0132251   -7.5450268    167.03681  0.022271575  0.022469515            5 
  626000   0.99567555   -7.5461686    166.97276  0.022227471  0.022452537           16 
  627000    1.0134092     -7.56407    167.17439  0.022218819  0.022435179            4 
  628000   0.99418997   -7.5930617    167.12224  0.022176518  0.022417985            5 
  629000    0.9827171   -7.5150374    167.78573  0.022229164  0.022400947            2 
  630000    1.0077762   -7.5450441    167.53925  0.022161276  0.022384229            4 
  631000    1.0007851    -7.573622    167.52289  0.022123994  0.022367375            4 
  632000    1.0129393   -7.5819242    167.16656  0.022042004  0.022350272            2 
  633000    1.0331283   -7.5761297    168.00011  0.022116918  0.022332873            3 
  634000    1.0262042   -7.5831182    167.68694  0.022040871  0.022315604            2 
  635000   0.98349735   -7.5347853    167.84102  0.022026381  0.022298426            4 
  636000    1.0132779   -7.5352222    168.39022  0.022063708  0.022281217            5 
  637000   0.99409908   -7.5683907    167.75553   0.02194604  0.022264132            4 
  638000     1.009988    -7.549608    168.25948  0.021977466  0.022246653           12 
  639000   0.98492026   -7.5715552     168.5895  0.021986111   0.02222894            3 
  640000    1.0041616   -7.5685779    168.61001  0.021954429  0.022211432            4 
  641000   0.97815562   -7.6222281    168.31185  0.021881416  0.022193991            2 
  642000    1.0007862   -7.6220076    168.85343  0.021917632  0.022176263            8 
  643000   0.99844837   -7.5724681    169.54922   0.02197372  0.022158751            3 
  644000    1.0099476   -7.5806051    168.86178  0.021850645  0.022141332            3 
  645000    1.0021852   -7.5913797    169.13895  0.021852578  0.022124129            4 
  646000   0.95990573   -7.5769657    169.70288  0.021891497  0.022106901            3 
  647000    1.0019324   -7.5600072    170.47821  0.021957523  0.022089967            3 
  648000   0.98709205   -7.5877327    169.90558  0.021849997  0.022073055            5 
  649000   0.99043783   -7.6019606    169.99229  0.021827464  0.022055964            2 
  650000   0.99639334   -7.5796432    170.10778  0.021808689  0.022038779            2 
  651000   0.99502804   -7.5869845    170.30131  0.021799963  0.022021318            4 
  652000    1.0046588   -7.5606021    170.80353  0.021830717  0.022003959            5 
  653000   0.99710587   -7.5928258    170.89794  0.021809334  0.021986722            2 
  654000   0.99472366     -7.58508     170.5872  0.021736392   0.02196953            2 
  655000   0.98406081   -7.5833344    170.69304  0.021716671   0.02195204            4 
  656000   0.99366007   -7.5835455    170.86358  0.021705232  0.021934458            4 
  657000   0.98877393   -7.5872146    170.93309  0.021681011  0.021917071            4 
  658000   0.99304029   -7.5695074    171.24376  0.021687406  0.021899771            3 
  659000   0.99140972   -7.6161516    170.70512  0.021586383  0.021882096            6 
  660000   0.98026618   -7.6017377    170.22758  0.021493382  0.021864389            5 
  661000   0.99628849    -7.578541    171.54702  0.021627209  0.021846707            2 
  662000   0.99080313   -7.6267101    171.01131  0.021527103  0.021828899            9 
  663000   0.98894684   -7.6066659    171.35571  0.021537922  0.021811125            4 
  664000    1.0088284   -7.5962584    171.65393  0.021542913  0.021793199            2 
  665000   0.98295774   -7.5875614    172.36953  0.021600191  0.021775388            3 
  666000   0.98730068    -7.584015    171.89293  0.021508124   0.02175793            6 
  667000   0.98723508   -7.6227014    171.88184  0.021474492  0.021740174            4 
  668000   0.96796633   -7.6441728    171.57619  0.021404215  0.021722063            1 
  669000   0.98588289   -7.6321698    171.67465  0.021384485  0.021703824            3 
  670000   0.97927481   -7.5984365    171.85705  0.021375254  0.021685523           11 
  671000    0.9983684   -7.6236485    171.89288  0.021347849  0.021667475            6 
  672000    1.0019005   -7.6498676    171.32639  0.021245832  0.021649226            3 
  673000   0.97610119   -7.5865745    171.88805  0.021283809  0.021630759            4 
  674000    1.0001873   -7.5937881    172.54626  0.021333613  0.021612592           12 
  675000   0.97586083   -7.6001192    172.40593  0.021284683  0.021594393            5 
  676000   0.98256357   -7.6187216    171.96185  0.021198452  0.021576199            5 
  677000   0.99506167   -7.6488122    171.94556  0.021165135  0.021557767            5 
  678000   0.98445087   -7.6049826    172.26559  0.021173253  0.021539102            4 
  679000   0.97395702   -7.6055839    172.79188  0.021206662  0.021520926            4 
  680000   0.98986868   -7.5929472    172.85816  0.021183598  0.021502939            4 
  681000    0.9998861   -7.5877167     173.0847  0.021180213  0.021484896            5 
  682000    1.0003814   -7.6083282    173.33692  0.021179976  0.021466682            4 
  683000   0.99234919   -7.5916012    173.62423   0.02118402  0.021448575            6 
  684000   0.98459172    -7.549851      173.467  0.021133893  0.021430371            4 
  685000   0.98016796   -7.5926449    173.67258  0.021128051  0.021412243            5 
  686000   0.97541237   -7.5962367    173.69938  0.021100508  0.021393902            3 
  687000   0.98202663   -7.6249941    172.97079  0.020981416  0.021375403           11 
  688000   0.97237171   -7.6001128    172.78455  0.020928361  0.021356664            3 
  689000   0.96766945   -7.6498479    173.02842  0.020927482  0.021337776            5 
  690000   0.95030629   -7.6275742    173.41851  0.020944265   0.02131886            4 
  691000   0.96629906   -7.6405565     173.3195  0.020902014  0.021300026            6 
  692000   0.97646978    -7.630988    173.57693   0.02090281  0.021281281            4 
  693000    0.9909457   -7.6475166    173.93905  0.020916192  0.021262595            7 
  694000   0.98310199   -7.6233755    173.93308  0.020885336   0.02124388            2 
  695000   0.97110811   -7.6256762    173.85097   0.02084544  0.021225345            8 
  696000   0.98267787   -7.6325915    174.33771  0.020873768  0.021206627            5 
  697000   0.98158125   -7.6350986    174.56306  0.020870762  0.021187763            2 
  698000   0.98575978   -7.6348902    174.11617  0.020787508  0.021168602            4 
  699000   0.98021617   -7.6487887    174.15216   0.02076206  0.021149521            5 
  700000   0.97437183   -7.6717953    173.96781  0.020710454  0.021130394           10 
  701000   0.97351265   -7.6721998    173.66651  0.020645092  0.021111051           10 
  702000    0.9787993   -7.6658963    174.45147  0.020708864  0.021091604            4 
  703000   0.96696266   -7.6215194    174.53098  0.020688831  0.021072238            7 
  704000   0.97048914   -7.6612936    174.09315  0.020607618  0.021052885            4 
  705000   0.98277717   -7.6261592    173.96941   0.02056376   0.02103346            3 
  706000   0.97432807   -7.6407788    174.24525  0.020567192  0.021014013            3 
  707000   0.96176806   -7.6550599    174.70411  0.020592186  0.020994495            5 
  708000   0.99982352   -7.6236284     174.0807  0.020489725  0.020974813            5 
  709000   0.99121133   -7.6725133    173.78949  0.020426597  0.020955066            3 
  710000   0.95637798   -7.6693274    173.99005  0.020421368  0.020935169            6 
  711000   0.97342382   -7.6516498    174.05083  0.020399769  0.020915102            4 
  712000   0.95878024   -7.6595165    174.28342   0.02039834  0.020895187            4 
  713000   0.98673358   -7.6845619    174.12555   0.02035128  0.020875028            6 
  714000   0.96708511   -7.6796856    174.12207  0.020322371  0.020854812            8 
  715000   0.98039661   -7.6495037    174.37511  0.020323439  0.020834548            3 
  716000   0.96585636   -7.6431476    174.81114  0.020345803  0.020814448            2 
  717000   0.93111852   -7.6524159    174.61978  0.020295186  0.020794249            4 
  718000   0.96404672   -7.6243474    175.07916  0.020320237  0.020774005            4 
  719000   0.96282737   -7.6658217    174.97405  0.020279793   0.02075405            5 
  720000   0.96579142    -7.691604    174.78718  0.020229998  0.020733842            2 
  721000   0.98862596   -7.6644584    175.36153  0.020268323     0.020714            4 
  722000   0.98084045   -7.6718198    176.04196  0.020318786  0.020694193            7 
  723000   0.96591887    -7.702718    175.51658  0.020230127   0.02067453           12 
  724000    0.9654588   -7.6859426    176.15796  0.020276008  0.020655067           10 
  725000   0.94944963   -7.6753058    176.06413  0.020237257  0.020635586            5 
  726000   0.96424966   -7.6912612    175.97083  0.020198672  0.020616051            3 
  727000   0.99359216   -7.6583462    176.04384  0.020179257   0.02059664            3 
  728000   0.98356029   -7.6941269    176.04247  0.020151382  0.020577089            3 
  729000   0.98725352   -7.6573927    176.51858  0.020178164  0.020557584            6 
  730000   0.95546785   -7.6510802    176.58421  0.020158015  0.020538209            2 
  731000     0.967954   -7.6787569    176.60881  0.020133243  0.020519061            2 
  732000   0.97334798   -7.6526718    176.70543  0.020116738  0.020499556            3 
  733000   0.94898187   -7.6932248    176.94606  0.020116651  0.020480111            7 
  734000   0.97264239   -7.6935491    176.86492  0.020080032  0.020460804            9 
  735000   0.95190217   -7.7022173    176.90139  0.020056847  0.020441516            2 
  736000     0.954813   -7.6463973    178.09776  0.020165055  0.020422549            5 
  737000   0.95969786   -7.7164994    177.55244  0.020076033  0.020403551            6 
  738000   0.96171273   -7.6357671     177.7432  0.020070371  0.020384672           11 
  739000   0.96455519   -7.7003249    177.31085  0.019994457  0.020365775            4 
  740000   0.97188493   -7.6783883    177.77891  0.020020147  0.020346757           14 
  741000   0.95654679   -7.6764703    178.03583  0.020022023  0.020327929            3 
  742000    0.9674845   -7.6852395    177.86141   0.01997545  0.020309141            8 
  743000   0.96056806   -7.7331065     177.6703  0.019927131  0.020290279            6 
  744000   0.95394758   -7.7016863    178.32042  0.019973166  0.020271286            5 
  745000   0.95907275   -7.6802053    178.70553  0.019989433  0.020252468            3 
  746000   0.98858021   -7.6745151    179.00479  0.019996066  0.020233861            7 
  747000   0.95681272   -7.7229105    178.54227  0.019917701  0.020215187            5 
  748000   0.94827396   -7.7133007    178.72217  0.019911115  0.020196553            9 
  749000   0.93830162    -7.690288    178.54273  0.019864567  0.020177777            7 
  750000   0.95529989   -7.7077014    178.59053  0.019843392  0.020159076            5 
  751000   0.96785692   -7.7017151    178.28909  0.019783521  0.020140174            8 
  752000   0.97499217   -7.6845412    179.04737  0.019841242  0.020121415            5 
  753000   0.95058356    -7.688617    178.87277   0.01979557  0.020102662           10 
  754000   0.97947003   -7.6936996    179.25356  0.019811401  0.020083873            3 
  755000   0.95294221    -7.698636    179.15646  0.019774444  0.020065492            6 
  756000   0.95938341   -7.6942348     179.2541   0.01975905  0.020046905            6 
  757000   0.96915477   -7.7118165      179.348  0.019743285  0.020028291            3 
  758000   0.95096638   -7.7031005    179.06987  0.019686661  0.020009448            6 
  759000   0.94251936    -7.726153    179.54065  0.019712412  0.019990503            3 
  760000   0.97245465   -7.7163447    179.38423  0.019669324  0.019971716            6 
  761000   0.94935784   -7.6901618    179.55739  0.019662439  0.019952957            3 
  762000   0.93315807   -7.7129505    179.41581  0.019621152  0.019934236            5 
  763000   0.95569528   -7.7392053    179.88711   0.01964691  0.019915532            3 
  764000    0.9641659   -7.7053827    179.71111  0.019601997  0.019896873            6 
  765000   0.95593835    -7.684852    180.28589  0.019638986  0.019878121            7 
  766000   0.94154365   -7.7011353    179.84256  0.019565118  0.019859507            3 
  767000   0.96005139   -7.7332849     179.9393   0.01955012   0.01984078           11 
  768000   0.95405809   -7.7078767    179.95392   0.01952625  0.019822139            8 
  769000   0.93882896   -7.7108779    180.27792  0.019535969  0.019803443            9 
  770000   0.95248158   -7.7237589    180.54445  0.019539442  0.019784817            7 
  771000    0.9415165   -7.7270406    180.59016  0.019519041  0.019766413            4 
  772000   0.95624926   -7.6896257    180.53551  0.019487858  0.019748066            4 
  773000   0.93942221   -7.7195229    180.94308  0.019506585  0.019729805           13 
  774000   0.94254667   -7.7052005    181.03282  0.019491045  0.019711504            5 
  775000     0.939635   -7.7365406    181.30989  0.019495687  0.019693313            3 
  776000   0.94268646   -7.7689972    180.34101  0.019366518  0.019675094            6 
  777000   0.93024118   -7.7075192    181.22872    0.0194368  0.019656674           13 
  778000   0.94625549   -7.7415504    181.05682  0.019393404  0.019638329            3 
  779000   0.96347472   -7.7538118    181.14474  0.019377914  0.019620003            3 
  780000   0.94110687   -7.7532053    181.46432  0.019387214  0.019601711            6 
  781000   0.93218607   -7.7501648    181.37289  0.019352635  0.019583235            9 
  782000   0.91601508   -7.7854778    180.90651  0.019278187  0.019564873            8 
  783000   0.94883676   -7.7338681    181.50369  0.019317124  0.019546556            5 
  784000   0.93805947   -7.7345118     181.7828  0.019322151   0.01952844            6 
  785000   0.94990346   -7.7640166    181.54605  0.019272404  0.019510227            7 
  786000   0.94590608   -7.7692538     181.6717  0.019261207  0.019492095            6 
  787000   0.96351037   -7.7380285    182.20318  0.019293009  0.019473965            6 
  788000   0.91498239   -7.7685606    182.27323  0.019275933  0.019456017            6 
  789000   0.93688576   -7.7564819    182.85706  0.019313166  0.019437982            4 
  790000   0.93704177   -7.7744363    182.47126  0.019248023  0.019419889           12 
  791000   0.93856737    -7.785242    182.61952  0.019239309  0.019401897            7 
  792000    0.9360718   -7.7732772    182.86408   0.01924075   0.01938412            5 
  793000   0.92071615   -7.7400654    182.68956  0.019198146   0.01936631            2 
  794000   0.92485055   -7.7874115    182.28259  0.019131254  0.019348283            6 
  795000    0.9378666   -7.7396331    182.65112   0.01914582  0.019330338            4 
  796000    0.9313784     -7.73956    182.73143  0.019130175  0.019312327            8 
  797000   0.92425048   -7.7114321    183.06634   0.01914119  0.019294595           16 
  798000   0.91864895   -7.7787157    182.66782  0.019075587  0.019276708           33 
  799000   0.93229915   -7.8053523    182.95647  0.019081818   0.01925867            8 
  800000   0.95740375   -7.7610526    183.17727  0.019080966  0.019240782           13 
  801000   0.92369113   -7.7757981    183.00509  0.019039231  0.019222769            5 
  802000   0.92534737   -7.8121263    182.77771  0.018991865  0.019204709           10 
  803000   0.93769229   -7.7524291    183.11984   0.01900372  0.019186723            4 
  804000   0.94886891   -7.7569573    183.42473  0.019011685   0.01916875            4 
  805000   0.93136219   -7.7777136    183.79958  0.019026872  0.019150841            5 
  806000   0.95228151    -7.764194    183.60947   0.01898361  0.019132925            6 
  807000   0.91696812    -7.779639    183.40965  0.018939452  0.019114917            6 
  808000   0.92566291    -7.766795    183.40954  0.018916001  0.019096938            8 
  809000   0.92115696   -7.8390994    183.25738  0.018876945  0.019078811            9 
  810000   0.92152247   -7.7660534    183.53372   0.01888207  0.019060672           10 
  811000   0.93696772   -7.7526635    183.79994  0.018886142  0.019042577            8 
  812000   0.92088245   -7.7391134    183.51773  0.018833921  0.019024549            7 
  813000    0.9312735   -7.7400762    184.07905  0.018868292  0.019006649            7 
  814000   0.93841339   -7.7703738    183.88717  0.018825468   0.01898869            6 
  815000   0.93394507    -7.796944    183.80967  0.018794445  0.018970595            4 
  816000   0.92598977   -7.8375462    183.62235  0.018752283   0.01895264            8 
  817000   0.93048351   -7.7723742    184.32149  0.018800641  0.018934658            7 
  818000    0.9189799   -7.7857093    183.95256  0.018740073  0.018916647            6 
  819000   0.91808449   -7.7483058    184.74097  0.018797413  0.018898751            7 
  820000   0.93760861    -7.810586    183.88694  0.018687697  0.018880879            6 
  821000   0.91507425   -7.7689574    184.67277  0.018744698  0.018862891            5 
  822000   0.93448473   -7.7917602    184.13288  0.018667161  0.018844838           18 
  823000   0.95072525   -7.7707731    184.43934  0.018675511  0.018826981            6 
  824000   0.92279763   -7.7400201    185.10926  0.018720597  0.018809372            6 
  825000   0.92806071   -7.8105695    184.08617  0.018594562  0.018791588           10 
  826000    0.9280241   -7.7814348    184.75063  0.018639087   0.01877386            8 
  827000   0.93323521   -7.7743404    184.73618  0.018615093  0.018756257            9 
  828000   0.90288418   -7.8078677    184.80445  0.018599482  0.018738586            8 
  829000   0.93915065   -7.8179375    184.91155  0.018587811   0.01872088            8 
  830000   0.91581657   -7.7865407    184.98165  0.018572455  0.018703195            6 
  831000   0.92441138   -7.8232915    184.90896  0.018542816  0.018685513           13 
  832000   0.93449228   -7.7951093    184.79825   0.01850944  0.018667713            6 
  833000   0.91662409   -7.8244206    185.12369  0.018519777  0.018650032            5 
  834000   0.93742276    -7.817717    185.13566  0.018498767  0.018632435           19 
  835000   0.93405987   -7.7967933    185.47071  0.018510051  0.018614773            6 
  836000   0.92163582   -7.8330967    185.63888  0.018504674  0.018597141            7 
  837000   0.92312409   -7.7818783    185.53781  0.018472502  0.018579656            7 
  838000   0.92698501   -7.7955261     186.3642  0.018532637  0.018562119            6 
  839000   0.93515286   -7.8059839    185.44075  0.018418827  0.018544524            7 
  840000   0.90781342   -7.8216186    185.59423  0.018412126  0.018526808            4 
  841000   0.90426505   -7.8346657     185.5011  0.018381005  0.018509148            7 
  842000   0.92239627   -7.8497942    185.25862  0.018335176  0.018491392            3 
  843000   0.92285578   -7.7974885     185.6142  0.018348577   0.01847377           11 
  844000    0.9254715   -7.8041017    186.07488  0.018372322  0.018456321            5 
  845000   0.92195097   -7.7606374    186.47646  0.018390184  0.018438995            3 
  846000   0.90968492   -7.7918918    186.44686   0.01836553  0.018421864           11 
  847000   0.92167108   -7.8182531    186.42405  0.018341603  0.018404572            6 
  848000   0.93348373   -7.7727935    187.27343  0.018403443  0.018387388            5 
  849000   0.91930177   -7.8080918    186.66061  0.018321614  0.018370113            4 
  850000   0.91355567   -7.8189021    186.65547  0.018299556   0.01835291            8 
  851000   0.89686113   -7.8253093    186.95526  0.018307409  0.018335811            6 
  852000   0.91051117   -7.7826838     186.7887  0.018269631  0.018318638            5 
  853000    0.9187108    -7.833277    186.49454  0.018219474  0.018301431            4 
  854000   0.91204656   -7.8024927    187.21418  0.018268362  0.018284096            4 
  855000   0.91157616   -7.7909995    187.21555   0.01824713  0.018266821           11 
  856000   0.90021677   -7.7913626    186.43377  0.018149705  0.018249408            7 
  857000   0.90656601   -7.8253503    187.00726  0.018184292  0.018232004           20 
  858000   0.91354899   -7.8328477    186.74366  0.018137496  0.018214602            6 
  859000   0.91087505   -7.8223609    186.51242  0.018093948   0.01819726            9 
  860000   0.90228949   -7.8292348    186.88766   0.01810927  0.018179791            6 
  861000   0.90492448   -7.7993803    187.17244    0.0181158  0.018162416            6 
  862000   0.90004854   -7.8035641    187.46929  0.018123481  0.018145103            9 
  863000   0.91948449   -7.8292069    186.73065  0.018031156  0.018127839           11 
  864000   0.92574329   -7.8320677    187.37725  0.018072652  0.018110649            9 
  865000   0.91029376   -7.8313262    186.96371  0.018011918  0.018093225            3 
  866000   0.91376044    -7.883475    186.76158  0.017971669  0.018075907            4 
  867000    0.8966358   -7.8366577    186.73138  0.017948037  0.018058422            9 
  868000   0.89879099   -7.8879594    186.87683  0.017941323  0.018041003           13 
  869000   0.89386195   -7.8670519    186.51463  0.017885945  0.018023474            7 
  870000   0.91030136   -7.8611157    187.11239  0.017922643  0.018005956            3 
  871000   0.90213978   -7.8388748    187.08237  0.017899193  0.017988551            3 
  872000   0.92589465    -7.822106    187.21184   0.01789104  0.017971205            7 
  873000   0.92559717   -7.8521521    187.37761   0.01788637  0.017953814            6 
  874000   0.91150036   -7.8311852    187.68559   0.01789527   0.01793641           16 
  875000   0.92839685   -7.8466791    187.46387  0.017853702  0.017919086           12 
  876000   0.91396065   -7.8307402    187.31272  0.017818942  0.017901871            9 
  877000   0.92567995   -7.8993768    187.15479  0.017783618  0.017884624           15 
  878000   0.92720411   -7.9162193    187.14476  0.017762411  0.017867026           13 
  879000   0.89179151   -7.8557932      187.184  0.017745923  0.017849566            6 
  880000   0.88985418   -7.8426807    187.23777  0.017730849  0.017832125            5 
  881000   0.89910607   -7.8574877    188.06167  0.017788655  0.017814756            4 
  882000   0.90065009   -7.8103688    187.73039  0.017737187  0.017797473            6 
  883000   0.89940186   -7.8390792    188.19141  0.017760609  0.017780198            3 
  884000   0.90473078   -7.8652638    187.35221  0.017661408  0.017762935            7 
  885000   0.87607714   -7.8688097    187.95251  0.017697977  0.017745628            2 
  886000   0.89084175   -7.8718772    188.18721  0.017700076  0.017728496            6 
  887000   0.90097018    -7.860106     188.0483  0.017667071  0.017711185            3 
  888000   0.89177489   -7.8967408    187.89121  0.017632434  0.017693858            5 
  889000   0.90128689   -7.8492912    188.36792  0.017657285  0.017676643            9 
  890000   0.90207795   -7.8704996     188.2124  0.017622884  0.017659496            7 
  891000   0.89904134    -7.849178    188.31608  0.017612802  0.017642325            9 
  892000   0.88729349   -7.8531548    189.21314  0.017676863  0.017625211           12 
  893000   0.92472993    -7.918754    188.21681  0.017564092  0.017608075            9 
  894000   0.91782995   -7.9026947    188.77058  0.017596065  0.017591073            4 
  895000    0.8953222   -7.8864741    188.76095  0.017575507  0.017574108            7 
  896000   0.88758287   -7.8898614    188.71283  0.017551417  0.017557057           13 
  897000   0.90136441   -7.8984924    188.38427  0.017501325  0.017539949            9 
  898000   0.88646319   -7.9064378    188.34808  0.017478478  0.017522745           26 
  899000   0.89111694    -7.917547      188.207  0.017445959   0.01750556           10 
  900000   0.90903639   -7.8958594     188.7359  0.017475547    0.0174886            5 
  901000   0.91924316   -7.8910781     188.5605  0.017439928  0.017471569            8 
  902000   0.91162441   -7.9070776    189.41115  0.017499183  0.017454633           14 
  903000   0.88690784   -7.9197584    188.84277   0.01742735  0.017437801            7 
  904000   0.88423811   -7.8965081    189.20507  0.017441471   0.01742101           19 
  905000   0.89590217    -7.902567    189.60605   0.01745912  0.017404242           11 
  906000   0.89723891   -7.8684564    189.85464  0.017462716  0.017387667            6 
  907000   0.89000778   -7.9212902    189.54337  0.017414863  0.017371108            5 
  908000   0.89839409   -7.9405441    189.45741  0.017387795  0.017354498            5 
  909000   0.89805008     -7.86692    190.40337  0.017455387  0.017337989           38 
  910000   0.90601737    -7.901395    189.97049  0.017396565  0.017321603           12 
  911000   0.89497158   -7.8976731    190.04535  0.017384317  0.017305309           21 
  912000   0.87478937   -7.8926373    190.22593  0.017381756  0.017288957           26 
  913000   0.89103438   -7.9092775    190.36945  0.017375817  0.017272573           20 
  914000    0.9066684   -7.9090989    189.73049   0.01729855  0.017256141           12 
  915000   0.88454756   -7.8929456    190.56365  0.017355523  0.017239665           10 
  916000   0.89854464    -7.944411    189.66846  0.017255136  0.017223172           16 
  917000   0.88485827   -7.9022929    190.51778  0.017313503  0.017206799            7 
  918000   0.88792793   -7.9594612    189.94052   0.01724224  0.017190407            9 
  919000   0.89912542   -7.8914356    190.72736  0.017294828  0.017174075            5 
  920000   0.87689811   -7.9068419    190.97436  0.017298402  0.017157911           12 
  921000   0.89961812   -7.9443774    190.43277  0.017230616  0.017141725            3 
  922000   0.88757585   -7.9041249    190.50515  0.017218469  0.017125423            9 
  923000   0.86469852   -7.9211422    190.47571  0.017197157  0.017109226            7 
  924000   0.88159601   -7.9573537    190.59368  0.017189185  0.017092913            8 
  925000   0.89116112    -7.921232     190.7295  0.017182838  0.017076658            5 
  926000   0.88638889   -7.8972321    191.14558  0.017201726  0.017060455            4 
  927000   0.90305203   -7.9072617    190.86129  0.017157613  0.017044343            5 
  928000   0.87615716   -7.9300197    191.23627  0.017172797  0.017028387            7 
  929000   0.88024789    -7.939519      190.695  0.017105759  0.017012215            8 
  930000   0.87461962   -7.9106693    191.10299  0.017123924  0.016996168            4 
  931000   0.89505238    -7.912576    191.50174  0.017141223  0.016980219            5 
  932000   0.89750765   -7.8603582    191.72758  0.017143024  0.016964499           23 
  933000   0.89418388   -7.9147592    191.15043  0.017073101  0.016948711           12 
  934000    0.8750949   -7.9211191    191.85918  0.017118057  0.016932944           10 
  935000   0.88840397   -7.9456505     191.4723  0.017065268  0.016917088            4 
  936000    0.8920141   -7.9321467    191.91097  0.017086091  0.016901367            7 
  937000   0.88981224   -7.9144533    191.75932  0.017054369  0.016885698            7 
  938000   0.87443064   -7.9600001    191.77965  0.017037993  0.016869995           14 
  939000   0.87735087   -7.9153741    191.94011  0.017034089  0.016854263            9 
  940000   0.88874237   -7.9884138    191.39892   0.01696799   0.01683843           12 
  941000   0.88304638   -7.9523045    192.07199  0.017009564  0.016822543           12 
  942000   0.87767543   -7.9430981    191.43301   0.01693498  0.016806639            7 
  943000   0.85244168    -7.960762    191.88669  0.016957113  0.016790751           15 
  944000   0.86841198   -7.9415642    191.58446   0.01691247  0.016774824           10 
  945000   0.86861546   -7.9556185    191.65639  0.016900916  0.016758876            9 
  946000   0.88612515   -7.9321685    192.36036  0.016945064  0.016743026           17 
  947000   0.88237023   -7.9450722    191.79031  0.016877007  0.016727193           18 
  948000   0.86444519   -7.9702238     191.9857   0.01687638  0.016711419           16 
  949000   0.88466256   -7.9567005    192.68424  0.016919937  0.016695737            6 
  950000   0.87188267   -7.9264657    192.08027  0.016849147  0.016680107            4 
  951000   0.87576597   -7.9860534    192.25129  0.016846415  0.016664342           19 
  952000   0.87177808   -7.9734875    192.22442  0.016826368  0.016648542           21 
  953000   0.88159647   -7.9705465    192.32286  0.016817319  0.016632632            4 
  954000   0.85507178   -7.9247869    192.23677  0.016792171  0.016616829            8 
  955000   0.87667454   -7.9827233    192.22884  0.016773895  0.016601043           11 
  956000   0.88429712   -7.9625403    192.06938  0.016742449  0.016585388            7 
  957000    0.8684804   -7.9604297     192.5023  0.016762652  0.016569671            6 
  958000   0.87011836   -7.9764253    192.88826  0.016778728  0.016554101            5 
  959000   0.86313438   -7.9600479    193.35937   0.01680217  0.016538581            6 
  960000      0.86275   -7.9751966    193.07799  0.016760242  0.016523114           10 
  961000   0.87085065   -7.9444792    192.85649  0.016723594  0.016507659            3 
  962000   0.85453838   -7.9504293    193.16295  0.016732757  0.016492235            5 
  963000   0.86802799   -7.9637301    192.93106  0.016695315   0.01647678            8 
  964000   0.88318353    -7.968251    192.70711  0.016658637  0.016461208            4 
  965000   0.86144766   -7.9933553    192.73956  0.016644176  0.016445673            7 
  966000   0.86016752   -7.9668966    193.11591  0.016659413  0.016430181            7 
  967000   0.86508247   -7.9806042    193.63591  0.016686997  0.016414648            7 
  968000   0.86228312   -7.9862864    193.11797  0.016625169  0.016399156            8 
  969000   0.87846449   -7.9901795    192.89871  0.016589156  0.016383737            6 
  970000   0.87290699   -7.9708475    193.53134  0.016626404  0.016368363            6 
  971000    0.8698985   -7.9862391    193.86031  0.016637514  0.016353004            6 
  972000   0.86554698   -7.9756915    193.89902  0.016623716  0.016337754           12 
  973000   0.86924006   -7.9799513    193.39363  0.016563346  0.016322482            5 
  974000   0.86772495   -7.9952213    193.72296  0.016574517  0.016307185           17 
  975000   0.84734063   -7.9611977     194.1868  0.016597163  0.016292057           22 
  976000   0.85634249   -7.9975834     193.8277  0.016549496  0.016276861           25 
  977000   0.86925643   -8.0082614    193.64284   0.01651679  0.016261659           19 
  978000   0.86269975   -7.9943195    193.92694  0.016524109   0.01624653           14 
  979000   0.86684158   -7.9752038    193.65942  0.016484458  0.016231469           27 
  980000   0.85438232   -8.0214002    194.04444  0.016500378  0.016216318           34 
  981000   0.87390329   -8.0294317    194.15399  0.016492864  0.016201269           30 
  982000   0.86687783    -7.986507    194.13373   0.01647435  0.016186225           22 
  983000   0.88589389   -8.0218155     194.0956  0.016454357   0.01617111            8 
  984000   0.84586829   -8.0077435    194.29877  0.016454842  0.016156075           13 
  985000   0.85180939   -8.0043606    194.45707  0.016451529  0.016140995           21 
  986000   0.86085992   -8.0419877    193.80691  0.016379894  0.016125889           43 
  987000   0.87492749   -8.0151954    194.29129  0.016404196  0.016110825           28 
  988000    0.8439089   -7.9897884    194.42373  0.016398763  0.016095909           27 
  989000   0.84973418   -7.9865133    194.53805  0.016391814  0.016080946           14 
  990000   0.84578583   -8.0214024    193.86078  0.016318248  0.016065928           16 
  991000   0.85264377   -8.0007159    194.54337   0.01635918  0.016050921           25 
  992000   0.84361407   -8.0319757    193.92302  0.016290576  0.016035838           11 
  993000   0.87029855    -8.025141    194.16685  0.016294634  0.016020681           19 
  994000   0.87222294   -7.9963094    194.04977  0.016268425  0.016005556           13 
  995000   0.85473627   -8.0337294    194.24961  0.016268811  0.015990399           25 
  996000   0.87119969   -8.0531116    193.78614    0.0162137  0.015975222            7 
  997000   0.85408332   -8.0143998    194.59244  0.016264831  0.015960069           13 
  998000   0.84743061    -8.036283    193.83393  0.016185198  0.015944885            7 
  999000     0.863051   -8.0312734    194.32681  0.016210111  0.015929692            9 
 1000000   0.85562318   -8.0047205    194.44188   0.01620349  0.015914471           11 
 1001000   0.84495273   -8.0297103     194.2186  0.016168714  0.015899233           17 
 1002000   0.85315102   -8.0539064    194.27892  0.016157595  0.015884015           16 
 1003000   0.84406485   -8.0621082    194.18943  0.016134051  0.015868786            7 
 1004000   0.83859312   -7.9919481    194.50871  0.016144481  0.015853703            6 
 1005000   0.85408323    -8.046794    194.48688  0.016126607  0.015838612           19 
 1006000    0.8571157   -7.9909824    194.84004  0.016139831  0.015823544           11 
 1007000   0.85667012   -8.0050203    194.89106  0.016128026  0.015808501            8 
 1008000   0.86294942   -8.0453622    194.74872  0.016100258  0.015793491            6 
 1009000   0.84722856   -8.0241841    194.42762  0.016057781  0.015778445           12 
 1010000   0.86048411   -8.0429566    194.88523  0.016079639  0.015763438            4 
 1011000   0.85531629   -7.9703082    195.28148  0.016096396  0.015748508            7 
 1012000   0.86321239   -8.0502548    194.73444  0.016035444  0.015733602            7 
 1013000   0.85128418   -8.0333792    194.62652  0.016010737  0.015718605            9 
 1014000     0.853222   -8.0439631    194.63183  0.015995384  0.015703652            8 
 1015000   0.84799448   -8.0024808    194.34883   0.01595639  0.015688728            8 
 1016000   0.83972504   -8.0296031     194.9742  0.015991978  0.015673868            7 
 1017000    0.8471879   -8.0241246    194.52359   0.01593933  0.015658972           10 
 1018000   0.84071298   -8.0262539    194.63323  0.015932648  0.015644086           16 
 1019000   0.83757889   -8.0276573    195.22331  0.015965269   0.01562917           18 
 1020000   0.85420618   -8.0424149     194.9443  0.015926822  0.015614374            8 
 1021000   0.82976494   -8.0460334    195.67636  0.015970973  0.015599652            9 
 1022000   0.83985202   -8.0141206    195.10945   0.01590912  0.015584882           19 
 1023000   0.84081369   -8.0631705    195.27456  0.015907019  0.015570077            7 
 1024000   0.85629907   -8.0651988    195.26297  0.015890541  0.015555257            9 
 1025000   0.85396949   -8.0513354    195.28842  0.015877107  0.015540423            5 
 1026000   0.84975114   -8.0633526    195.10514  0.015846746  0.015525642            8 
 1027000   0.84806644   -8.0411318    195.14686  0.015834702  0.015510812           16 
 1028000   0.83652631   -8.0704284    195.13227  0.015818115  0.015495858           14 
 1029000   0.84297285   -8.0518482    194.72419  0.015769694   0.01548096            8 
 1030000   0.85322738    -8.056087     194.9802  0.015775097  0.015466021            8 
 1031000   0.82684954   -8.0697912    195.19447  0.015777115  0.015451172            7 
 1032000   0.86423322   -8.0490508    195.36332  0.015775462  0.015436389            6 
 1033000   0.81395507   -8.0568991    194.90671  0.015723355  0.015421582           12 
 1034000    0.8398147   -8.0553751    195.09376  0.015723224  0.015406777           10 
 1035000   0.82081682   -8.0647773    195.22532  0.015718625  0.015392028            9 
 1036000   0.83998207   -8.0451317    195.23016  0.015703841  0.015377302           11 
 1037000   0.84964244   -8.0516202    195.44777  0.015706185  0.015362549            9 
 1038000   0.83342436   -8.0745563    195.32951   0.01568156  0.015347794            7 
 1039000   0.84694622   -8.1004443    195.26899  0.015661613  0.015332969           20 
 1040000   0.83548314   -8.0626268    195.58962  0.015672245  0.015318132           21 
 1041000   0.84606822   -8.0810296     195.1454   0.01562163  0.015303391           26 
 1042000   0.85195615   -8.0778991    195.17924  0.015609344  0.015288572           35 
 1043000   0.85938531   -8.1131491    195.17167  0.015593774  0.015273864           56 
 1044000   0.82978131    -8.087788    195.02617  0.015567223  0.015259085           36 
 1045000    0.8337315    -8.087655    195.35013   0.01557816  0.015244335           45 
 1046000   0.83482079   -8.0894127    195.34992  0.015563251  0.015229635           17 
 1047000   0.82246652   -8.1080432    195.43488  0.015555148  0.015214922           19 
 1048000   0.84419961   -8.0887987    195.55509  0.015549864  0.015200117           16 
 1049000   0.85268616   -8.0848865     195.0463  0.015494622  0.015185372           12 
 1050000   0.84861566   -8.1106856    195.44218  0.015511284  0.015170602           15 
 1051000   0.83706455   -8.1011425    195.35265  0.015489426  0.015155841           20 
 1052000   0.84056871   -8.0874846    195.91077  0.015518914  0.015141071           18 
 1053000   0.85518735   -8.0920879    195.66322  0.015484585  0.015126348            7 
 1054000   0.83760606   -8.1005808    195.34979  0.015445113  0.015111611            7 
 1055000   0.82784892   -8.1518371    195.32991  0.015428903  0.015096822           14 
 1056000   0.81697922   -8.1119734    195.81984  0.015452955  0.015082106            7 
 1057000   0.79834525   -8.0958691    195.42763  0.015407413  0.015067369           18 
 1058000   0.82759745   -8.1074824    195.30199  0.015382955  0.015052678            8 
 1059000   0.82711073   -8.1570954    195.37267   0.01537399  0.015038003           13 
 1060000   0.83928265   -8.1287236    195.07667  0.015336216  0.015023291            9 
 1061000   0.83391224   -8.1275399    195.53792  0.015357989  0.015008634            5 
 1062000   0.82741954   -8.1411998    195.70503  0.015356641  0.014994032           10 
 1063000   0.83761852   -8.1236168    195.52706  0.015328242  0.014979459           18 
 1064000   0.82967707   -8.1278182    195.64269  0.015322892  0.014964866           16 
 1065000    0.8400231   -8.1126546    195.48994  0.015296553  0.014950292           19 
 1066000   0.84682866   -8.1366519    195.67372  0.015296569  0.014935745           11 
 1067000   0.81963957   -8.1116538    195.55534  0.015272988  0.014921191           17 
 1068000   0.82782686   -8.1381484    195.70161    0.0152701  0.014906536           12 
 1069000   0.82566864   -8.1480243    195.75787  0.015260202  0.014891921           10 
 1070000    0.8145897   -8.1254508    195.76053  0.015246147   0.01487736           18 
 1071000    0.8366427   -8.1060336    196.48347  0.015288163  0.014862857           13 
 1072000    0.8109529   -8.1072047    195.86655  0.015225944  0.014848423           19 
 1073000   0.82191182   -8.1073024    195.75432  0.015203038  0.014834014           18 
 1074000   0.81865147   -8.1269086    195.99472  0.015207536  0.014819586           19 
 1075000   0.80359582   -8.1160782    196.11157  0.015202447  0.014805153           10 
 1076000    0.8287359   -8.1434479    195.49946  0.015140912  0.014790715           11 
 1077000   0.79947088   -8.1488815    196.07378  0.015171292  0.014776245           13 
 1078000   0.82414944   -8.1326921    195.70207  0.015128484  0.014761776           17 
 1079000   0.83644768   -8.1331578    195.56492  0.015103871  0.014747271           13 
 1080000   0.83549355   -8.1795641    195.56876  0.015090182  0.014732694           29 
 1081000   0.81771662   -8.1523411     195.7076  0.015086926  0.014718172           28 
 1082000   0.85323958    -8.151061    195.63082  0.015067069  0.014703608           32 
 1083000   0.81170557   -8.1490421    195.50787  0.015043695  0.014689127           14 
 1084000   0.81922673   -8.1278691    195.82867   0.01505448  0.014674777           12 
 1085000   0.81563306   -8.1545601    196.24949  0.015072926  0.014660498            8 
 1086000   0.82621982   -8.1252577    196.65733  0.015090341  0.014646237           35 
 1087000   0.80870063   -8.1444639    196.17913  0.015039799  0.014632021           15 
 1088000     0.808915   -8.1282456    196.93042  0.015083519  0.014617845           14 
 1089000   0.80784427   -8.1339851    196.56819  0.015041949  0.014603632           18 
 1090000   0.81770793   -8.1800076     195.9523  0.014981063  0.014589449           28 
 1091000   0.80616019    -8.129607     196.1411  0.014981752   0.01457526           12 
 1092000   0.81100753   -8.1470726    196.49382   0.01499495   0.01456106            8 
 1093000   0.81603592   -8.1449029    196.83128   0.01500696  0.014546911           16 
 1094000   0.80592756   -8.1861348    196.29616   0.01495248  0.014532668           20 
 1095000   0.82854995    -8.173735    195.99126  0.014915621  0.014518467           10 
 1096000   0.83690712   -8.1953932    196.44542  0.014936544  0.014504274           10 
 1097000   0.82425926   -8.1316926    196.97124  0.014962872  0.014490152           10 
 1098000   0.82931897   -8.1892477    196.27924  0.014896724  0.014476057           16 
 1099000   0.81267322   -8.1609212    196.42471    0.0148942  0.014461946           12 
 1100000   0.82255328   -8.1420283    196.98903  0.014923412   0.01444785           19 
 1101000   0.80561052   -8.1611905    196.39453   0.01486486  0.014433761           14 
 1102000   0.80923783   -8.1580052    196.57417  0.014864956  0.014419717           33 
 1103000   0.81080548   -8.1471785     196.8989  0.014876012  0.014405708           39 
 1104000    0.8160789   -8.1508749    196.53124  0.014834786  0.014391694           37 
 1105000   0.82056248   -8.1512031    197.34399  0.014882654  0.014377723           21 
 1106000   0.80092483    -8.173607    196.28393  0.014789326  0.014363719           38 
 1107000   0.79764372   -8.1640074    196.85646  0.014819065  0.014349651           84 
 1108000   0.81798942   -8.1728718     196.4729  0.014776843  0.014335666           39 
 1109000   0.80580879   -8.1708369    196.86774  0.014793187  0.014321766           63 
 1110000   0.82340167   -8.1834756    196.63861  0.014762658  0.014307773           49 
 1111000   0.81420489    -8.159753    196.45702   0.01473575    0.0142938           51 
 1112000    0.7943992   -8.1632733    196.46285  0.014722935  0.014279817           78 
 1113000    0.8119165    -8.150153    197.31076  0.014773192  0.014265891           53 
 1114000   0.80923963   -8.1508307    196.92764  0.014731272  0.014251993           76 
 1115000   0.81701198   -8.1690377    196.90759  0.014716562  0.014238062           74 
 1116000   0.80189397   -8.1612741    197.07917  0.014716186  0.014224141           65 
 1117000   0.81539657   -8.1465263    197.52538  0.014736301  0.014210263           46 
 1118000   0.79885273    -8.153446    196.70118  0.014661686  0.014196444           93 
 1119000   0.78855409   -8.1715822    197.19137  0.014685089  0.014182559           91 
 1120000   0.80443681   -8.1840052    196.44022  0.014616088  0.014168664          120 
 1121000   0.81526406   -8.1895015    196.77183  0.014627701  0.014154725          110 
 1122000   0.80336528   -8.1720755    196.73714  0.014612087  0.014140884          160 
 1123000   0.82265267    -8.211624    197.19879  0.014633332  0.014127042           96 
 1124000   0.80851564   -8.1893089    196.57856  0.014574329  0.014113196          190 
 1125000   0.80466656   -8.2185993     196.6026  0.014563155   0.01409934          144 
 1126000   0.80521815   -8.1814378    196.68057  0.014555993   0.01408553          216 
 1127000   0.81421237   -8.2113717    196.70135  0.014544613  0.014071764          157 
 1128000   0.80786748   -8.2413624    196.69852   0.01453151  0.014057936          165 
 1129000   0.78822864   -8.2256292    196.38686  0.014495635  0.014044014          264 
 1130000   0.80371874   -8.2202082    196.68331  0.014504669  0.014030163          287 
 1131000   0.78253034   -8.2531484    196.57713  0.014484021  0.014016304          165 
 1132000   0.78786267   -8.2094506    196.58826  0.014472045  0.014002458          249 
 1133000    0.7968306   -8.2318097    197.05511  0.014493609  0.013988648          230 
 1134000   0.81330182   -8.2364088    196.80682  0.014462582  0.013974886          224 
 1135000   0.79963701   -8.2223438    196.80368  0.014449609  0.013961081          287 
 1136000   0.78862154   -8.2172449    196.48203  0.014413294  0.013947211          209 
 1137000   0.78154696   -8.2465555    196.80384  0.014424204  0.013933406          305 
 1138000   0.80415442    -8.261219    196.30562  0.014375046  0.013919586          290 
 1139000   0.80345116   -8.2715872    196.05155  0.014343836  0.013905705          316 
 1140000   0.81469093    -8.235971    196.90448  0.014393602  0.013891911          342 
 1141000   0.80176627   -8.2528134     196.6673  0.014363665  0.013878147          339 
 1142000    0.7976217   -8.2334799    196.62901  0.014348293  0.013864319          357 
 1143000   0.79910237   -8.2380485    196.59565  0.014333308  0.013850546          308 
 1144000   0.79914582   -8.2504162    196.73766  0.014331123  0.013836801          313 
 1145000   0.79112717   -8.2624734    196.73403  0.014318343  0.013823116          392 
 1146000   0.81828477   -8.2581238    196.92829  0.014319974  0.013809372          292 
 1147000   0.79702918   -8.2596479    196.47181  0.014274325  0.013795645          416 
 1148000   0.80692616   -8.2654564    196.72271  0.014280104  0.013781849          321 
 1149000   0.79031092   -8.2464993    196.89127  0.014279901  0.013768098          401 
 1150000   0.80709611   -8.2779099    196.13302  0.014212538  0.013754322          322 
 1151000   0.79070994     -8.26463    196.46337  0.014224107  0.013740585          457 
 1152000   0.79408312   -8.2797409    196.44487  0.014210422   0.01372686          351 
 1153000   0.78988956   -8.2596389    196.31833  0.014188951  0.013713144          460 
 1154000   0.79572645   -8.3007673    196.88687  0.014217712   0.01369943          527 
 1155000   0.79156587   -8.2629581    196.84865  0.014202645  0.013685701          520 
 1156000   0.79430829   -8.3213573    196.37626  0.014156305  0.013671945          576 
 1157000   0.78557825   -8.3091107    196.55956  0.014157271  0.013658175          604 
 1158000   0.80784814   -8.3288362    196.21293  0.014120101  0.013644405          613 
 1159000   0.78601601   -8.3356619    196.28297  0.014112954  0.013630636          595 
 1160000   0.78595073   -8.3190229    196.37661  0.014107515   0.01361684          604 
 1161000   0.77944263   -8.3419334     196.0788  0.014073988  0.013603081          591 
 1162000   0.79368987   -8.3206187    196.09315  0.014062906  0.013589369          575 
 1163000    0.7779927    -8.331372    196.22646  0.014060365  0.013575663          451 
 1164000    0.7771948   -8.3299612    196.22558  0.014048223  0.013561914          623 
 1165000   0.79556381   -8.3195535    196.03297  0.014022387  0.013548204          653 
 1166000   0.78421987   -8.3324845     196.7644  0.014062636  0.013534548          620 
 1167000   0.78153403   -8.3475088    196.02304  0.013997647  0.013520934          689 
 1168000   0.78949171   -8.3354618     196.3557  0.014009396  0.013507311          674 
 1169000   0.78856897   -8.3407169    196.54781  0.014011107  0.013493658          671 
 1170000   0.77260432   -8.3388309    196.14975   0.01397078  0.013480058          675 
 1171000   0.79492166   -8.3562468    196.18827   0.01396159  0.013466405          734 
 1172000   0.78344463   -8.3431283    196.08299  0.013942192  0.013452736          728 
 1173000   0.79207629   -8.3262311    196.47671  0.013958278  0.013439155          674 
 1174000   0.77612231   -8.3459691    196.47588  0.013946329  0.013425561          724 
 1175000   0.79304532    -8.337155    196.74246  0.013953366  0.013411963          678 
 1176000   0.80564298   -8.3825565    196.41703   0.01391844  0.013398388          768 
 1177000   0.79666754   -8.3517639    196.44519  0.013908608   0.01338484          757 
 1178000   0.80094597   -8.3754939    196.53567  0.013903202  0.013371278          755 
 1179000   0.77847908   -8.3622833    196.17381  0.013865833  0.013357698          765 
 1180000   0.78176226   -8.3821962    196.33008  0.013865119   0.01334413          738 
 1181000   0.79327292   -8.3642447    196.42921  0.013860373    0.0133306          744 
 1182000   0.77513029   -8.3573986     196.3538  0.013843331  0.013317124          752 
 1183000    0.7824204   -8.3563486    196.38245  0.013833647  0.013303629          751 
 1184000   0.77025622   -8.3973863    195.55957  0.013764046  0.013290097          794 
 1185000   0.78233161   -8.3944426    196.21559  0.013798565  0.013276584          764 
 1186000   0.79024745    -8.371283    196.47266  0.013804993  0.013263116          827 
 1187000   0.78524422   -8.3790445     195.7046  0.013739441  0.013249636          806 
 1188000   0.78844033   -8.3851672    196.30256  0.013769821  0.013236154          876 
 1189000   0.76643177   -8.3852157    196.10224  0.013744199  0.013222722          890 
 1190000   0.79619691   -8.3971929    196.27835  0.013744982  0.013209292          813 
 1191000   0.75916454   -8.3904157    196.16289  0.013725363  0.013195843          926 
 1192000   0.79231018   -8.4042105     196.0276  0.013704391  0.013182429          993 
 1193000   0.77461038   -8.3959988    196.43719  0.013721513  0.013168992          982 
 1194000   0.76421359   -8.3802375    196.68852  0.013727563  0.013155502         1036 
 1195000   0.78064285   -8.4185169    195.82162  0.013655622  0.013142048          985 
 1196000   0.79407127   -8.4280116    195.66106  0.013633017  0.013128559         1019 
 1197000   0.76777508   -8.4625251    195.53808  0.013613066   0.01311506         1111 
 1198000    0.7645906   -8.4351275    196.04819  0.013637186  0.013101547         1124 
 1199000   0.77510236   -8.4325109    195.78701   0.01360766  0.013088036         1088 
 1200000   0.78032531    -8.470596     195.6323  0.013585576  0.013074483         1192 
 1201000    0.7793899   -8.4456762    195.68353  0.013577819  0.013060985         1152 
 1202000   0.78902391   -8.4063888    196.05055  0.013591968  0.013047509         1204 
 1203000   0.78368167   -8.4907515    195.50005  0.013542536  0.013034004         1157 
 1204000   0.77003554    -8.486288     195.3839  0.013523249  0.013020447         1249 
 1205000   0.77173089   -8.4775914    195.38026  0.013511774  0.013006918         1246 
 1206000   0.77526907    -8.503317    195.46689  0.013506557   0.01299339         1224 
 1207000   0.77809311   -8.4936139    195.42437  0.013492431  0.012979878         1274 
 1208000   0.77329142   -8.4605583    195.21222  0.013466627  0.012966362         1292 
 1209000   0.77436293   -8.4794447    195.45083  0.013471935  0.012952882         1273 
 1210000   0.75959314   -8.4907847    195.47812   0.01346268  0.012939398         1271 
 1211000   0.76606958   -8.5068759    195.51665  0.013454215  0.012925851         1284 
 1212000   0.77461461   -8.4502544    195.66999  0.013453657  0.012912343         1299 
 1213000   0.75813918   -8.4800967    195.43144  0.013426177  0.012898875         1340 
 1214000   0.79267742   -8.4911867    195.02719  0.013387369  0.012885426         1305 
 1215000   0.78003653   -8.4841389     195.5005  0.013408814  0.012871976         1360 
 1216000   0.77495574   -8.4851821    195.36329  0.013388383  0.012858545         1264 
 1217000   0.76666516   -8.5177456    195.10281  0.013359546    0.0128451         1407 
 1218000   0.76595218   -8.4895274    194.76815  0.013325681   0.01283164         1384 
 1219000   0.76623665   -8.4944316    195.14902  0.013340786  0.012818188         1373 
 1220000   0.77154783   -8.5104632    195.26352  0.013337672  0.012804763         1443 
 1221000   0.75724708   -8.5099946    195.23063  0.013324504  0.012791313         1492 
 1222000   0.76606113   -8.5092091    195.25074  0.013314971  0.012777871         1448 
 1223000   0.76225064   -8.5427921    194.70107   0.01326663  0.012764421         1571 
 1224000   0.77248129   -8.5289849    194.72027  0.013257099  0.012750966         1588 
 1225000   0.75129705     -8.51908    195.27183  0.013283798  0.012737522         1571 
 1226000   0.75605759   -8.5320765    194.72673  0.013235912    0.0127241         1677 
 1227000   0.76252291   -8.5520062    194.81217  0.013230927  0.012710645         1741 
 1228000   0.75669076     -8.52394    195.42326  0.013261622  0.012697201         1663 
 1229000   0.75496775   -8.5614097    194.94919  0.013218687  0.012683749         1774 
 1230000   0.76635226   -8.5616969    194.19259   0.01315668  0.012670283         1781 
 1231000   0.77230118   -8.5443496    195.06549  0.013205084  0.012656797         1771 
 1232000   0.75440714    -8.546432    194.86262  0.013180643  0.012643332         1800 
 1233000   0.75304639   -8.5689458    194.45372  0.013142317  0.012629859         1761 
 1234000   0.76289819   -8.5551657    194.56632  0.013139271  0.012616376         1821 
 1235000   0.74926535   -8.5724398    194.35543  0.013114402  0.012602947         1763 
 1236000    0.7704777    -8.570086    194.73087  0.013129104  0.012589555         1801 
 1237000   0.76823359    -8.573639    194.79646  0.013122909  0.012576128         1853 
 1238000   0.76525375   -8.5839361    194.13971  0.013068101  0.012562726         1865 
 1239000   0.75190611   -8.6046417    193.98249   0.01304698  0.012549329         1895 
 1240000   0.74903837   -8.5995619    194.24874  0.013054351  0.012535926         1882 
 1241000   0.75996278   -8.5842384    194.66227    0.0130716   0.01252256         1930 
 1242000    0.7623595   -8.5855644    194.64134  0.013059672  0.012509193         1960 
 1243000   0.74923961   -8.6006516    194.69954  0.013053066  0.012495824         2068 
 1244000   0.76818808   -8.6160648    194.25681  0.013012916   0.01248249         2047 
 1245000   0.76331823   -8.6122409    194.12302  0.012993509  0.012469096         2090 
 1246000   0.75547079   -8.6408322    194.40277   0.01300179  0.012455732         2098 
 1247000   0.76117505   -8.6386269    194.11482  0.012972121  0.012442355         2161 
 1248000   0.76513289   -8.6600191    193.94932  0.012950675  0.012428944         2216 
 1249000   0.75111451    -8.668962    193.67874  0.012922254  0.012415551         2193 
 1250000   0.77006326   -8.6659712    194.09662  0.012939775  0.012402155         2183 
 1251000   0.76747046   -8.6597862    193.96396  0.012920594  0.012388789         2231 
 1252000   0.77216023   -8.6609237    194.05084  0.012916057  0.012375429         2187 
 1253000   0.77407631   -8.6703543     193.7015  0.012882515  0.012362085         2123 
 1254000   0.75949237   -8.6857485    193.55682  0.012862628  0.012348711         2206 
 1255000   0.74842745   -8.6447083    193.65932  0.012859184  0.012335365         2166 
 1256000    0.7555703   -8.6885222    193.49414  0.012837987  0.012322012         2362 
 1257000   0.76235292   -8.6705435    193.91359  0.012855582  0.012308644         2352 
 1258000   0.75328424   -8.6962554    193.73631  0.012833619   0.01229528         2402 
 1259000   0.74965188   -8.6834983    193.72346  0.012822575  0.012281952         2367 
 1260000   0.75165943   -8.6969488    193.32844  0.012786272  0.012268616         2294 
 1261000   0.75014742   -8.6876037    193.73568  0.012803045  0.012255285         2401 
 1262000   0.75026788   -8.7068906    193.37722   0.01276923   0.01224196         2398 
 1263000   0.75281206   -8.7199889    193.31615   0.01275509  0.012228667         2402 
 1264000   0.74930982   -8.7040937    193.25573  0.012741016  0.012215358         2407 
 1265000   0.76213027   -8.7086987    193.51592  0.012748084  0.012202054         2405 
 1266000   0.75763761   -8.6768401    193.86104  0.012760732  0.012188782         2436 
 1267000    0.7450547   -8.7326222    193.16574  0.012704929  0.012175492         2557 
 1268000   0.76351654   -8.7166716     193.4774  0.012715392  0.012162226         2457 
 1269000   0.76435562   -8.7358928    192.92487  0.012669088  0.012148989         2584 
 1270000   0.75643607    -8.706802    193.56115  0.012700863  0.012135726         2477 
 1271000   0.73633983   -8.7163017    193.25744  0.012670957  0.012122486         2399 
 1272000   0.73633969   -8.7246626    192.93334  0.012639763  0.012109266         2549 
 1273000   0.73722199   -8.7216029    193.14507  0.012643694  0.012096048         2480 
 1274000   0.74313244   -8.7521024    193.04612  0.012627297  0.012082813         2577 
 1275000   0.75559154   -8.7031713    193.35738  0.012637737  0.012069603         2587 
 1276000   0.76001834   -8.7425794    193.54474  0.012640069  0.012056405         2526 
 1277000   0.74448561   -8.7194678    193.18213  0.012606508  0.012043209         2513 
 1278000   0.72841195   -8.7602853    192.73937  0.012567773  0.012030037         2570 
 1279000     0.734733    -8.738793    193.63825  0.012616514  0.012016867         2526 
 1280000     0.731706   -8.7407475    193.18349   0.01257705  0.012003727         2507 
 1281000   0.74165012   -8.7354506    193.62424  0.012595904  0.011990575         2494 
 1282000   0.74636703   -8.7457309    193.46769  0.012575903  0.011977441         2567 
 1283000   0.73518811   -8.7608236    193.31033   0.01255588  0.011964312         2603 
 1284000   0.74430505   -8.7404899    193.30902  0.012546017  0.011951202         2530 
 1285000   0.73874664   -8.7536085    193.00589  0.012516595  0.011938118         2527 
 1286000   0.73106227   -8.7574788    192.95279  0.012503421  0.011925042         2515 
 1287000   0.73095021   -8.7622567    193.02411  0.012498324  0.011911978         2585 
 1288000   0.73874286   -8.7697485    193.17221  0.012498202  0.011898934         2664 
 1289000   0.75450607   -8.7724299     193.2809  0.012495533  0.011885893         2604 
 1290000   0.74804085   -8.7605115     193.0886  0.012473424  0.011872861         2614 
 1291000   0.73491578   -8.7625866    192.83609  0.012447463  0.011859852         2561 
 1292000    0.7382955   -8.7779975    192.71542  0.012430045  0.011846861         2591 
 1293000   0.74991578   -8.7471233    192.87404  0.012430655  0.011833888         2647 
 1294000   0.74454442   -8.7650106    192.84711  0.012419314  0.011820901         2630 
 1295000   0.73184796   -8.7833536    193.19657  0.012432212  0.011807967         2643 
 1296000   0.74676048   -8.7741622    193.08197   0.01241525   0.01179504         2637 
 1297000   0.72526977   -8.7498474    192.87142   0.01239215  0.011782137         2580 
 1298000   0.72213527   -8.7664691    193.10183  0.012397396   0.01176926         2558 
 1299000   0.72994503   -8.7560356    193.12892   0.01238959  0.011756382         2598 
 1300000   0.72226436   -8.7820624    193.09347  0.012377787  0.011743525         2634 
 1301000   0.74768256   -8.7568141    193.15217  0.012372032   0.01173069         2615 
 1302000   0.72768597   -8.7861342    192.71535  0.012334572  0.011717851         2608 
 1303000   0.73619363   -8.7851418    192.92662  0.012338617  0.011705024         2661 
 1304000    0.7389216   -8.7617502    192.88272   0.01232635  0.011692217         2683 
 1305000   0.73133412   -8.7985799    192.53855  0.012294926  0.011679404         2671 
 1306000   0.73596765   -8.7920612    192.42191   0.01227807  0.011666594         2719 
 1307000   0.72686082   -8.8205251     192.3898  0.012266628  0.011653798         2793 
 1308000   0.75687192   -8.8103177    192.93578  0.012292035   0.01164101         2755 
 1309000   0.73280848   -8.7988082    192.92936  0.012282236  0.011628252         2768 
 1310000   0.74465406   -8.7978083    192.78252  0.012263519  0.011615489         2752 
 1311000   0.73333085    -8.796051    192.68263  0.012247815  0.011602764         2797 
 1312000   0.72636452   -8.8288622    192.72032  0.012240874  0.011590037         2758 
 1313000   0.71312928   -8.7961265    192.67889  0.012228922  0.011577324         2746 
 1314000   0.73823995    -8.816101    192.77153   0.01222549  0.011564635         2769 
 1315000   0.72401101   -8.7922994    192.32367  0.012187812  0.011551941         2805 
 1316000   0.72242443    -8.808133    192.62928  0.012197903  0.011539257         2767 
 1317000   0.72185904    -8.829784    192.28298  0.012166729  0.011526594         2788 
 1318000   0.72063099   -8.7903546    193.02361  0.012204325  0.011513941         2823 
 1319000   0.70958105   -8.7993127    192.86391  0.012184983  0.011501276         2801 
 1320000   0.71872733   -8.8209048    192.54365  0.012155534   0.01148864         2877 
 1321000   0.74236165   -8.8310607    192.52639  0.012145243  0.011476034         2862 
 1322000   0.73291385   -8.8273107    192.32186  0.012123163  0.011463446         2782 
 1323000   0.71102021   -8.8077126     192.4791  0.012123904  0.011450891         2815 
 1324000   0.71530769   -8.8236145    192.61071   0.01212303  0.011438336         2890 
 1325000   0.71935709     -8.81531    192.73622  0.012121775  0.011425786         2850 
 1326000   0.72415808   -8.8336427    192.13483  0.012074839  0.011413261         2913 
 1327000   0.72678504   -8.8126884    192.68221  0.012100114  0.011400758         2804 
 1328000   0.73850808   -8.8524211    192.25524  0.012064209  0.011388258         2896 
 1329000   0.71923424   -8.8369884    192.28316  0.012056882  0.011375772         2962 
 1330000   0.73605737   -8.8289666    192.46176  0.012059008  0.011363307         2894 
 1331000   0.71591926   -8.8057925    192.76304  0.012068811  0.011350857         2845 
 1332000    0.7202471   -8.8265293    192.23992  0.012027022  0.011338421         2881 
 1333000   0.72939331   -8.8340261    192.30696   0.01202219  0.011326004         2935 
 1334000   0.72236517   -8.8223141    192.33412  0.012014875  0.011313619         2937 
 1335000   0.72460231   -8.8413171    192.52633  0.012017873  0.011301233         2951 
 1336000   0.73922912   -8.8274369    192.47378    0.0120056  0.011288852         2881 
 1337000    0.7269212    -8.798385    192.76733  0.012014917   0.01127649         2797 
 1338000   0.73149766   -8.8228066    192.86065  0.012011749  0.011264184         2937 
 1339000   0.71731595   -8.8425876    192.44024  0.011976614  0.011251856         2918 
 1340000   0.71072529    -8.837725    192.28056  0.011957746  0.011239538         2958 
 1341000    0.7173862    -8.843231    192.52892  0.011964263  0.011227262         3005 
 1342000   0.71241568   -8.8381561    192.70538  0.011966305  0.011215005         2872 
 1343000   0.71451482   -8.8401755    192.28411  0.011931255  0.011202743         2896 
 1344000    0.7042926   -8.8408395     192.4653  0.011933612  0.011190516         2976 
 1345000    0.7174808   -8.8404855     192.5263  0.011928519  0.011178299         2891 
 1346000   0.70389988   -8.8365199    192.23542  0.011901648  0.011166097         2966 
 1347000    0.7226471   -8.8530033    192.32933  0.011898622  0.011153894         2954 
 1348000   0.72646054    -8.863224    192.32438   0.01188949  0.011141705         2861 
 1349000   0.71553601   -8.8504089    192.32402  0.011880654  0.011129543         2963 
 1350000   0.70379615   -8.8373785    192.52638  0.011884344  0.011117371         2947 
 1351000   0.69741092   -8.8406364    192.67318  0.011884603  0.011105211         2869 
 1352000   0.70827897   -8.8613236    192.15656   0.01184397  0.011093086         2840 
 1353000   0.72023599   -8.8738226    192.24408  0.011840606   0.01108099         2911 
 1354000    0.7081212    -8.851256    192.17329  0.011827504  0.011068889         2907 
 1355000   0.70426598   -8.8594171    192.12878  0.011816038  0.011056802         2970 
 1356000   0.70640209   -8.8666307    192.37232  0.011822291  0.011044729         2901 
 1357000    0.7222898   -8.8451557    192.38801  0.011814542  0.011032684         2913 
 1358000   0.71495995   -8.8522855    192.13748  0.011790469  0.011020633         2958 
 1359000   0.71398611   -8.8500156     192.1405  0.011781978  0.011008582         2942 
 1360000   0.71263393   -8.8704145    192.29719  0.011782916  0.010996544         2909 
 1361000   0.70692781   -8.8316167    192.50394  0.011786917  0.010984526         2910 
 1362000   0.72185052   -8.8632459    192.49286  0.011777586   0.01097254         2925 
 1363000   0.70746033   -8.8871238    192.61479  0.011776399  0.010960562         2957 
 1364000   0.71861538   -8.8872954    191.99705  0.011730025  0.010948593         2953 
 1365000   0.71099458   -8.8735548    192.24937  0.011736836  0.010936606         2928 
 1366000   0.71983554   -8.8747498    191.94632  0.011709756  0.010924665         2966 
 1367000   0.70218074   -8.8724453    192.22751  0.011718332   0.01091275         2958 
 1368000   0.69836976   -8.8829862    192.23484  0.011710212  0.010900833         2951 
 1369000   0.70833908   -8.8806552    192.07433  0.011691888  0.010888949         2969 
 1370000   0.70104591   -8.8705005    191.87596  0.011671287  0.010877068         2929 
 1371000   0.70988898   -8.8458546    192.28959  0.011687916  0.010865217         2966 
 1372000   0.70086224   -8.8724188     192.0451  0.011664547  0.010853373         2962 
 1373000   0.70136198   -8.8954711    192.04752  0.011656198  0.010841533         2978 
 1374000   0.70732481   -8.8727392     191.9165  0.011639768    0.0108297         3044 
 1375000   0.71011742   -8.8766701    191.74233  0.011620747   0.01081789         2918 
 1376000   0.71389733   -8.8737774    192.07493  0.011632445  0.010806086         2967 
 1377000   0.71234603   -8.8912946    192.18724  0.011630794  0.010794283         2987 
 1378000   0.69617638   -8.8690625    191.77869  0.011597647  0.010782501         2956 
 1379000   0.69628978   -8.8973813     191.6747  0.011582952  0.010770736         2973 
 1380000   0.69797039   -8.8724856    191.69671  0.011575888  0.010758975         2983 
 1381000   0.69360614   -8.8782114    191.74857  0.011570635  0.010747228         2995 
 1382000   0.69808132   -8.8911473    192.25972  0.011593085  0.010735509         2983 
 1383000   0.69979319    -8.904136    191.90242  0.011563173  0.010723786         2995 
 1384000   0.71284177   -8.8676789     191.9055  0.011555004  0.010712087         3024 
 1385000   0.68581906   -8.8924222    191.74413  0.011536951  0.010700418         2969 
 1386000   0.70707751   -8.8950499    192.02303  0.011545396  0.010688761         2990 
 1387000    0.7197133   -8.9055485    191.96813  0.011533773  0.010677116         2975 
 1388000   0.71098321   -8.9151701    191.40067  0.011491395   0.01066551         3034 
 1389000   0.70069769   -8.8839053    192.16614  0.011529046  0.010653881         3052 
 1390000   0.68746418   -8.8877376    192.02883   0.01151252  0.010642282         3024 
 1391000   0.69493921   -8.9095067    191.93364  0.011498541  0.010630691         2970 
 1392000   0.70098463   -8.9026269    191.50704  0.011464741  0.010619117         2956 
 1393000   0.67379833   -8.9111376    192.18312  0.011496956  0.010607554         3063 
 1394000   0.71505176   -8.9140375    191.97719  0.011476398  0.010595984         3040 
 1395000   0.69132636   -8.9075766    191.76232  0.011455336  0.010584442         3037 
 1396000   0.69026742   -8.9096197    191.81935  0.011450534  0.010572919         3063 
 1397000   0.69296353   -8.9036209    191.47086   0.01142155  0.010561411         2975 
 1398000   0.69059001   -8.9165811    191.77644  0.011431595  0.010549907         3025 
 1399000   0.68340473   -8.9259591    191.66809   0.01141697  0.010538427         3054 
 1400000    0.6890889   -8.9151764    192.05581  0.011431894  0.010526952         3033 
 1401000   0.68537382   -8.9234858    191.29919  0.011378729  0.010515503         3024 
 1402000   0.69040689   -8.9488141    191.63935  0.011390831  0.010504055         3020 
 1403000   0.69184602   -8.9334495    191.60418  0.011380624  0.010492631         2975 
 1404000   0.69127861   -8.9299675    191.60383  0.011372497  0.010481227         3016 
 1405000   0.67580842   -8.9201088    191.44503  0.011354984  0.010469825         3039 
 1406000   0.68385424   -8.9367806    191.66213  0.011359775   0.01045844         2971 
 1407000    0.6852067   -8.9319519    191.50681  0.011342502  0.010447073         3017 
 1408000   0.68315455   -8.9332426    191.83186  0.011353685  0.010435719         3046 
 1409000   0.68993645   -8.9180608    191.92858  0.011351348  0.010424375         3023 
 1410000   0.67977016   -8.9113945    191.98603  0.011346692  0.010413056         2987 
 1411000   0.68738348    -8.943303    191.42378  0.011305444  0.010401737         3093 
 1412000   0.69072022   -8.9428927    191.71847   0.01131483  0.010390442         3043 
 1413000   0.68284223   -8.9258038    191.74591   0.01130844  0.010379154         3038 
 1414000   0.69523413   -8.9443428    191.68409  0.011296799  0.010367886         3046 
 1415000   0.68881085   -8.9483458    191.84125  0.011298071  0.010356641         2983 
 1416000     0.688653   -8.8905375    191.97312  0.011297853    0.0103454         2993 
 1417000    0.6963968   -8.9427614    191.56177  0.011265689  0.010334181         3014 
 1418000    0.6869067   -8.9464496    191.77857  0.011270485  0.010322963         3095 
 1419000   0.68010876   -8.9366988    191.90931   0.01127022  0.010311754         3074 
 1420000   0.67129141   -8.9703293     191.5888  0.011243474  0.010300555         3060 
 1421000   0.69718824   -8.9229288    191.29169  0.011218138  0.010289379         3017 
 1422000    0.7054596   -8.9509031    191.22518  0.011206351  0.010278218         3068 
 1423000   0.68403795   -8.9518146    191.17864  0.011195751  0.010267071         3100 
 1424000   0.68011403   -8.9175883    191.64956  0.011215447  0.010255937         3038 
 1425000   0.66555788   -8.9272695    191.41835  0.011194055   0.01024484         3085 
 1426000    0.6986238   -8.9467101    191.68975  0.011202066  0.010233753         3060 
 1427000    0.6859628   -8.9448871    191.48663  0.011182354  0.010222671         3048 
 1428000    0.6804535    -8.943667    191.36461  0.011167402  0.010211614         3118 
 1429000    0.6745674   -8.9676762    191.52427  0.011168898   0.01020056         3078 
 1430000   0.67393884   -8.9399283     191.7501  0.011174248  0.010189514         3111 
 1431000   0.68596236   -8.9580161      191.557  0.011155194  0.010178482         3162 
 1432000   0.68568859   -8.9252099    191.87453  0.011165883  0.010167467         3109 
 1433000   0.68910363   -8.9538717    191.15506  0.011116251  0.010156467         3074 
 1434000   0.65475917   -8.9520524    191.38142  0.011121654  0.010145477         3094 
 1435000   0.69405803   -8.9609465    191.02916  0.011093447  0.010134492         3154 
 1436000   0.66956033   -8.9384122    191.46633  0.011111092  0.010123545         3043 
 1437000   0.69285175   -8.9629843    191.54008  0.011107636  0.010112594         3044 
 1438000   0.66447277   -8.9336654    191.36411  0.011089715  0.010101669         3060 
 1439000   0.66958394   -8.9515312    191.65306  0.011098741  0.010090755         3067 
 1440000   0.68248539   -8.9574737    191.40122   0.01107646  0.010079844         3091 
 1441000   0.66855647   -8.9544624    191.82023  0.011093005  0.010068949         3072 
 1442000   0.68650716    -8.964847    191.46555  0.011064814   0.01005807         3087 
 1443000   0.65179112   -8.9683866    191.26308  0.011045454  0.010047202         3085 
 1444000   0.67890092   -8.9747655    191.37946  0.011044521  0.010036358         3079 
 1445000   0.67275768   -8.9373844    191.41029  0.011038656  0.010025521         3092 
 1446000    0.6828454   -8.9681835    191.43925  0.011032691  0.010014701         3079 
 1447000   0.66418785   -8.9592428    191.50184  0.011028671  0.010003908         3072 
 1448000   0.66747255   -8.9586615    191.32505   0.01101088 0.0099931175         3056 
 1449000   0.66720328   -8.9422641    191.55334   0.01101641 0.0099823394         3061 
 1450000   0.67554141   -8.9385666    191.01374  0.010977801 0.0099715813         3071 
 1451000   0.67292737   -8.9552135    191.21008  0.010981512 0.0099608354         3115 
 1452000    0.6727802   -8.9510324    191.22543   0.01097483 0.0099501053         3056 
 1453000   0.66138638     -8.94336    190.98436  0.010953451 0.0099393835         3043 
 1454000   0.68271371   -8.9563176    191.43771    0.0109719  0.009928686         3128 
 1455000    0.6504797   -8.9495037    191.55988  0.010971356 0.0099180001         3067 
 1456000   0.66883134   -8.9648174    191.32338  0.010950285 0.0099073346         3031 
 1457000   0.66669138   -8.9851041    191.26665  0.010939525 0.0098966832         3086 
 1458000   0.67317819   -8.9611721    191.36239  0.010937494 0.0098860667         3066 
 1459000   0.66586119   -8.9644958    191.23895  0.010922947 0.0098754385         3100 
 1460000   0.67367206   -8.9812729    191.44004  0.010926943 0.0098648301         3148 
 1461000   0.66982986   -8.9578018    191.25315  0.010908804 0.0098542211         3106 
 1462000   0.66807932   -8.9634014    190.87899  0.010880015 0.0098436314         3104 
 1463000   0.65631376   -8.9727902    191.39528  0.010901987 0.0098330438         3120 
 1464000   0.65074437   -8.9664351    191.52121  0.010901708 0.0098224697         3064 
 1465000   0.65919577   -8.9776727    191.23676  0.010878087 0.0098119315         3135 
 1466000   0.68666607   -8.9854383    191.05284  0.010860211 0.0098013884         3082 
 1467000    0.6565663   -8.9542281    191.36275  0.010870413 0.0097908594         3139 
 1468000   0.67367717   -8.9874154    191.01574  0.010843309 0.0097803486         3198 
 1469000   0.66321954   -8.9758223    190.88652  0.010828598  0.009769833         3224 
 1470000   0.65328023   -8.9802161    191.17061  0.010837336 0.0097593319         3186 
 1471000    0.6693418   -8.9802606    191.41072  0.010843571 0.0097488461         3194 
 1472000    0.6579369   -8.9830924    190.84265  0.010804045 0.0097383612         3255 
 1473000   0.66725638   -8.9976589    191.12155  0.010812488 0.0097278997         3253 
 1474000   0.67491976   -8.9854583    191.07659  0.010802611  0.009717432         3174 
 1475000   0.67435742   -9.0012658    190.93985  0.010787562 0.0097069911         3210 
 1476000   0.65800905   -8.9890843     191.0432  0.010786088 0.0096965813         3161 
 1477000   0.66428999   -9.0077367    190.88017  0.010769587 0.0096861836         3178 
 1478000   0.66920988   -8.9930269    191.13749  0.010776809 0.0096758056         3194 
 1479000   0.67336959   -8.9791414    190.76083    0.0107483 0.0096654318         3193 
 1480000   0.65956296   -8.9930668    191.24281  0.010768176  0.009655074         3180 
 1481000   0.65421299   -9.0128467    190.95021  0.010744441 0.0096447105         3225 
 1482000   0.67063283   -8.9893256    190.76527  0.010726792 0.0096343525         3179 
 1483000   0.67618065    -9.000838    190.75642  0.010719061 0.0096240153         3242 
 1484000   0.66758846   -8.9986734    191.00613  0.010725861 0.0096136918         3164 
 1485000   0.65002752   -9.0001449     190.7764  0.010705746 0.0096033923         3199 
 1486000   0.66136133    -9.011637     190.7706  0.010698217 0.0095930928         3195 
 1487000   0.66085598   -9.0240382    190.97021  0.010702208  0.009582807         3153 
 1488000    0.6609458   -9.0117786    191.01332  0.010697431 0.0095725436         3205 
 1489000   0.67047734   -8.9880671    190.87623  0.010682574 0.0095622862         3191 
 1490000   0.65950599   -9.0126516    190.88214  0.010675735 0.0095520501         3160 
 1491000   0.65601681   -8.9830942     191.1451  0.010683272 0.0095418091         3187 
 1492000   0.65500629   -9.0189856    190.48437  0.010639207 0.0095315821         3185 
 1493000   0.65872755   -9.0141829    190.77295  0.010648189 0.0095213737         3212 
 1494000   0.65251028   -9.0237849     191.0561  0.010656855 0.0095111766         3258 
 1495000   0.66097177   -9.0173669    190.91591  0.010641913 0.0095009923         3200 
 1496000   0.65018792    -9.018262     191.0048   0.01063975 0.0094908187         3222 
 1497000   0.66329515   -9.0101858    190.57244  0.010608575 0.0094806428         3249 
 1498000   0.65315497   -9.0164232    190.85098  0.010616988 0.0094704939         3276 
 1499000     0.655131   -8.9975994    191.16136   0.01062716   0.00946035         3191 
 1500000   0.66778747   -9.0257724    190.79705  0.010599836 0.0094502242         3227 
 1501000   0.65229372   -9.0121133    190.34896  0.010567897 0.0094401086         3197 
 1502000   0.64889045   -8.9999853    190.75297  0.010583276 0.0094299993         3265 
 1503000   0.65328123   -9.0298213    190.58887  0.010567137 0.0094199176         3225 
 1504000   0.64425587   -9.0348388    190.75067  0.010569075 0.0094098364         3245 
 1505000   0.64668181   -9.0348103    190.46971  0.010546496  0.009399766         3251 
 1506000   0.64277862   -9.0425387    190.35084  0.010532915 0.0093897049         3292 
 1507000   0.64526548   -9.0288751    190.41421   0.01052943  0.009379656         3237 
 1508000   0.65566438   -9.0387328    190.81746  0.010544731 0.0093696402         3273 
 1509000     0.652184    -9.044894    190.47349  0.010518748  0.009359638         3270 
 1510000   0.65855961   -9.0251676    190.63461  0.010520674 0.0093496499         3263 
 1511000   0.63570749   -9.0241933    190.93651  0.010530361 0.0093396631         3236 
 1512000    0.6494976   -9.0332423    190.88512  0.010520564 0.0093296905         3224 
 1513000   0.65359632   -9.0499931    190.52543    0.0104938 0.0093197165         3256 
 1514000   0.63830614   -9.0392548    190.83431   0.01050387 0.0093097604         3287 
 1515000   0.65849134   -9.0367677    190.53804   0.01048064  0.009299822         3291 
 1516000    0.6481514   -9.0474229    190.49487  0.010471354 0.0092898848         3226 
 1517000   0.65003992   -9.0500997    190.57965  0.010469109 0.0092799584         3269 
 1518000    0.6488643   -9.0373211    190.45013  0.010455102 0.0092700642         3251 
 1519000   0.66293815   -9.0494677     190.3858  0.010444689 0.0092601742         3238 
 1520000   0.63966475   -9.0528514    190.42628  0.010440037 0.0092503028         3277 
 1521000   0.63522982   -9.0600622    190.34361  0.010428644 0.0092404454         3321 
 1522000   0.66022847   -9.0584105    190.44579  0.010427387  0.009230602         3301 
 1523000   0.64379785   -9.0520476    190.41664  0.010418945 0.0092207714         3273 
 1524000   0.62620301   -9.0546684    190.29811  0.010405627 0.0092109416         3297 
 1525000   0.64184209   -9.0367994     190.5343  0.010411711  0.009201125         3235 
 1526000   0.64525836   -9.0515705    190.56821  0.010406739 0.0091913399         3262 
 1527000   0.65295311   -9.0696463    190.22678  0.010381291 0.0091815597         3333 
 1528000   0.64541895   -9.0509377    190.26908  0.010376804 0.0091717849         3320 
 1529000   0.66267282   -9.0321136    190.94532  0.010406874 0.0091620319         3328 
 1530000   0.64941259   -9.0534963     190.3421  0.010367217 0.0091522843         3290 
 1531000   0.64043123   -9.0563656    190.54196  0.010371324 0.0091425405         3286 
 1532000   0.62897689    -9.050811    190.88641  0.010383291  0.009132817         3272 
 1533000   0.63762974    -9.066397    190.43292  0.010351866 0.0091231021         3252 
 1534000   0.64144164   -9.0687036    190.29069  0.010337391 0.0091134073         3279 
 1535000   0.63697779   -9.0531889     190.1789  0.010324587 0.0091037303         3319 
 1536000   0.63048523   -9.0663667    190.12526  0.010314956  0.009094053         3346 
 1537000    0.6390253   -9.0608132    190.38584  0.010322373 0.0090843936         3305 
 1538000   0.64691811   -9.0596161    190.13482   0.01030206 0.0090747441         3302 
 1539000   0.63852495   -9.0596347    190.10545  0.010293776 0.0090651191         3352 
 1540000   0.64114543   -9.0613157    190.26726  0.010295847 0.0090554944         3312 
 1541000   0.64920643    -9.083994    190.00647  0.010275063 0.0090458838         3286 
 1542000   0.63964952   -9.0604554    190.42113  0.010290809 0.0090362804         3294 
 1543000   0.63785335     -9.06975    190.05249  0.010264231 0.0090266892         3329 
 1544000   0.62170701   -9.0577665    190.23222  0.010267283 0.0090171082         3262 
 1545000   0.64122994   -9.0948314    190.42513  0.010271043 0.0090075479         3318 
 1546000   0.64902692   -9.0826825    190.28613  0.010256906 0.0089980014         3243 
 1547000   0.65410003   -9.0899541    190.26758  0.010249277 0.0089884706         3343 
 1548000   0.62007236   -9.0476164     190.1728  0.010237554 0.0089789595         3328 
 1549000   0.62376886   -9.0678388    189.95214  0.010219074 0.0089694406         3324 
 1550000   0.64247297   -9.0599973    190.36827  0.010234853 0.0089599501         3337 
 1551000   0.63832172   -9.0645932    190.55365  0.010238215 0.0089504613         3344 
 1552000   0.62292509   -9.0762622    190.11486  0.010208057 0.0089409876         3308 
 1553000   0.63766772   -9.0640914    190.20772  0.010206467 0.0089315363         3326 
 1554000   0.63814812   -9.0498483    189.81606  0.010178896 0.0089220926         3282 
 1555000   0.64192188   -9.0798576    190.17295  0.010191477 0.0089126741         3383 
 1556000   0.62391054   -9.0728055    190.17464  0.010185017 0.0089032596         3251 
 1557000   0.63672721   -9.0730471     190.0952  0.010174224 0.0088938515         3324 
 1558000    0.6349458   -9.0700032     190.2146   0.01017408 0.0088844577         3277 
 1559000   0.63961853   -9.0766404    190.34209  0.010174369 0.0088750821         3279 
 1560000   0.61732946   -9.0752572    190.10634  0.010155253 0.0088657132         3318 
 1561000   0.64353437   -9.0981459    189.89858  0.010137656 0.0088563558         3321 
 1562000   0.63200556   -9.0848444    190.15458  0.010144824 0.0088470084         3309 
 1563000   0.61211654   -9.0767575    190.53831  0.010158793 0.0088376788         3337 
 1564000    0.6272821    -9.082812    190.27787   0.01013842 0.0088283586         3340 
 1565000   0.62130833   -9.0778787     190.3646   0.01013656 0.0088190549         3366 
 1566000   0.62309491   -9.0726169    189.86272   0.01010338 0.0088097758         3309 
 1567000    0.6283029   -9.0907508    189.96915  0.010102593 0.0088004976         3317 
 1568000   0.63478513   -9.0935297    190.01802  0.010098747 0.0087912428         3276 
 1569000   0.63825815   -9.0964997    190.24878  0.010104566 0.0087819972         3316 
 1570000   0.62682166   -9.0780368    190.02205  0.010086096 0.0087727644         3358 
 1571000   0.61809021   -9.0847797     190.3833  0.010098838 0.0087635432         3274 
 1572000   0.61891744   -9.0818816    190.29783  0.010087883 0.0087543329         3281 
 1573000   0.61851409   -9.0889008    189.86374  0.010058473  0.008745136         3332 
 1574000   0.63545003   -9.0639516    190.40825  0.010080911 0.0087359487         3263 
 1575000    0.6226709   -9.0927849    190.04853  0.010055478 0.0087267829         3327 
 1576000   0.62577033   -9.0783788    189.82105  0.010037069 0.0087176346         3348 
 1577000   0.63279806   -9.0998096     189.9115  0.010035484 0.0087084868         3348 
 1578000   0.62500662   -9.1015468    189.80708   0.01002361  0.008699346         3318 
 1579000   0.62789057    -9.112152    189.91088   0.01002274 0.0086902174         3389 
 1580000   0.62774485    -9.081725    190.14919  0.010028966 0.0086810955         3341 
 1581000   0.61776783   -9.1130273    190.01527  0.010015564 0.0086719925         3298 
 1582000   0.61640066   -9.0941681    190.11301  0.010014381 0.0086629004         3319 
 1583000    0.6429978   -9.0911315    190.14024  0.010009488 0.0086538203         3377 
 1584000   0.61384318   -9.0802403    190.11188  0.010001677  0.008644753         3370 
 1585000   0.61413486   -9.0983703    190.24727  0.010002485 0.0086356925         3336 
 1586000   0.60846333    -9.114445    189.94065  0.009980068 0.0086266456         3365 
 1587000   0.62473459   -9.0806775    189.99083 0.0099764142 0.0086176212         3308 
 1588000   0.62608898   -9.0870997    189.88303 0.0099644748 0.0086085997         3284 
 1589000   0.62607509    -9.090079    189.98308 0.0099634507 0.0085995912         3318 
 1590000   0.61871193   -9.1053883    190.11665 0.0099641852 0.0085906039         3363 
 1591000   0.62144357   -9.0956728    189.81114   0.00994192 0.0085816204         3340 
 1592000   0.61386472   -9.1100343    189.76001 0.0099329991   0.00857265         3339 
 1593000   0.61530262   -9.0902943    189.96147 0.0099373021 0.0085636977         3401 
 1594000   0.60499553   -9.1010703    189.98474 0.0099322845 0.0085547504         3294 
 1595000   0.62054115   -9.1123006    189.72946 0.0099127198 0.0085458165         3309 
 1596000   0.60071719    -9.099554    190.04911 0.0099231992 0.0085369034         3320 
 1597000   0.62518727   -9.1026377    190.10208 0.0099197496 0.0085279939         3379 
 1598000   0.60559917   -9.0961268    189.78411 0.0098969602  0.008519096         3356 
 1599000   0.61286866   -9.0905484    189.97771 0.0099008606 0.0085102047         3334 
 1600000   0.60166068   -9.1016518    190.17061 0.0099047194 0.0085013385         3340 
 1601000   0.60595396   -9.1002201    189.96115 0.0098876299 0.0084924807         3377 
 1602000   0.60282802   -9.0900849    189.67361 0.0098665007 0.0084836348         3363 
 1603000   0.62392763   -9.0826467    189.89654 0.0098719351 0.0084748038         3355 
 1604000   0.59638733   -9.1125231    189.85444 0.0098635932  0.008465977         3345 
 1605000   0.61258413   -9.1023658    189.81361 0.0098553275 0.0084571615         3311 
 1606000   0.60499931    -9.087975    189.82431 0.0098497464 0.0084483562         3343 
 1607000   0.62290224    -9.109636     190.2286 0.0098645818 0.0084395636         3338 
 1608000   0.61185978   -9.1226468    189.89742 0.0098412841 0.0084307901         3421 
 1609000   0.60696431   -9.1180851    189.58914 0.0098192012 0.0084220256         3352 
 1610000   0.61253341   -9.1013379    189.85454 0.0098268395 0.0084132666         3358 
 1611000   0.59914477   -9.0961606    189.91804 0.0098240243 0.0084045281         3365 
 1612000   0.59782417   -9.0987228    190.21555 0.0098333099 0.0083957966         3368 
 1613000   0.60765149   -9.1156925    190.00916 0.0098165509 0.0083870749         3358 
 1614000   0.59733742   -9.1152573    189.52001 0.0097852131 0.0083783696         3378 
 1615000   0.60787006   -9.1208348    189.67037 0.0097869127 0.0083696712         3341 
 1616000   0.59938172   -9.1219063    189.36765 0.0097652461 0.0083609881         3433 
 1617000    0.6112172   -9.1061827    189.50259 0.0097661609 0.0083523194         3367 
 1618000   0.60690083   -9.1258201    190.00485 0.0097859934 0.0083436634         3378 
 1619000     0.621152   -9.1055064    189.64892 0.0097616285 0.0083350262         3381 
 1620000   0.60498728   -9.1229715    189.60858  0.009753528 0.0083263826         3336 
 1621000   0.60994643   -9.1254981    189.75042 0.0097548027 0.0083177657         3372 
 1622000   0.60029084   -9.1109058    189.93128 0.0097580806 0.0083091561         3365 
 1623000   0.60907851   -9.1380991     189.6612 0.0097382011 0.0083005671         3352 
 1624000   0.60375684   -9.1140744    189.63287 0.0097307509 0.0082919718         3357 
 1625000   0.60935933   -9.1148314    190.15158 0.0097513633 0.0082833999         3346 
 1626000   0.61046672   -9.1208433    189.90105  0.009732526 0.0082748379         3316 
 1627000   0.60224966    -9.124184    189.66653 0.0097145326  0.008266279         3301 
 1628000   0.61148178   -9.1336515    189.81692 0.0097162632 0.0082577285         3358 
 1629000   0.60357248   -9.1329544    189.78852 0.0097088459 0.0082492091         3378 
 1630000   0.59256987   -9.1194599    189.67436 0.0096970532 0.0082406951         3358 
 1631000   0.60738199   -9.1261488    190.13483 0.0097146347  0.008232192         3363 
 1632000   0.59813918   -9.1467207    189.40379 0.0096713536 0.0082236952         3402 
 1633000   0.60437863   -9.1458015    189.58894 0.0096748797 0.0082152024         3399 
 1634000   0.59118787   -9.1518467    190.17432 0.0096988129  0.008206736         3349 
 1635000   0.58991991   -9.1365391    189.62359 0.0096648109 0.0081982725         3371 
 1636000   0.59200501    -9.135871    189.95355 0.0096757105 0.0081898308         3389 
 1637000    0.6227189   -9.1204604    189.62309 0.0096529773 0.0081814029         3380 
 1638000   0.58688722   -9.1343288    189.76166 0.0096541343 0.0081729834         3391 
 1639000   0.59732825   -9.1326184    189.39466 0.0096295842 0.0081645671         3407 
 1640000   0.60018372   -9.1152825    189.45174 0.0096266129 0.0081561641         3377 
 1641000   0.60682341    -9.120318    189.88013 0.0096425008 0.0081477747         3351 
 1642000   0.58916074   -9.1170717    189.80019 0.0096325716 0.0081393957         3379 
 1643000   0.59414308   -9.1334764    189.66976 0.0096200934 0.0081310201         3326 
 1644000   0.59527102   -9.1015359    189.68223  0.009614874 0.0081226601         3355 
 1645000    0.6053687   -9.1356343    189.67152 0.0096084864 0.0081143165         3356 
 1646000   0.59780572   -9.1406819    189.50135 0.0095940335 0.0081059856         3355 
 1647000    0.5867089   -9.1270396    189.79658 0.0096031463 0.0080976661         3333 
 1648000   0.59626957   -9.1510224    189.54264 0.0095844781 0.0080893518         3341 
 1649000   0.60460305   -9.1255595    189.67805 0.0095855087 0.0080810561         3319 
 1650000   0.60176471   -9.1290975    189.69501 0.0095805559 0.0080727652         3392 
 1651000   0.60498865   -9.1347327      189.513 0.0095655664  0.008064479         3377 
 1652000   0.59718485   -9.1425913    189.33895 0.0095509964 0.0080562078         3365 
 1653000   0.58612617   -9.1615889     189.3096 0.0095437387 0.0080479532         3432 
 1654000   0.58626313    -9.144066    189.26586 0.0095357646 0.0080397001         3368 
 1655000   0.58272659   -9.1359745     189.4462 0.0095390835 0.0080314613         3384 
 1656000   0.58440167   -9.1489998    189.78815  0.009550531  0.008023235         3361 
 1657000   0.59679856    -9.149828    189.65293 0.0095379667 0.0080150219         3379 
 1658000   0.57840769   -9.1436092     189.6677 0.0095329561 0.0080068319         3347 
 1659000   0.58326472   -9.1324542    189.34794 0.0095111484 0.0079986423         3366 
 1660000   0.61210128   -9.1486317    189.18471 0.0094972244 0.0079904604         3370 
 1661000   0.59138012   -9.1298267    189.64362 0.0095145304 0.0079822877         3406 
 1662000   0.60358577   -9.1528627    189.43058 0.0094981238 0.0079741291         3391 
 1663000   0.59344722   -9.1524359    189.02724 0.0094722009 0.0079659748         3386 
 1664000   0.58298927   -9.1283902    189.18337 0.0094743276 0.0079578401         3405 
 1665000    0.5814407   -9.1563477    189.62775 0.0094908781 0.0079497208         3373 
 1666000    0.5749873   -9.1516988    189.82133 0.0094948646 0.0079416088         3374 
 1667000   0.58861159   -9.1339957    189.83309 0.0094897566 0.0079335107         3310 
 1668000   0.57878569   -9.1554352     189.4323 0.0094640436 0.0079254187         3418 
 1669000   0.58842195     -9.15082    189.54994 0.0094642473 0.0079173406         3382 
 1670000   0.58014613   -9.1343597    189.70346 0.0094662406 0.0079092735         3362 
 1671000   0.58502134   -9.1418289    189.53098  0.009451974 0.0079012128         3350 
 1672000   0.58409316   -9.1264613    189.51162  0.009445356 0.0078931655         3340 
 1673000   0.58805699   -9.1484592    189.74757 0.0094514627 0.0078851284         3317 
 1674000   0.59248219   -9.1664466    189.30101 0.0094235866 0.0078771006         3394 
 1675000   0.59545566   -9.1624965    189.30429 0.0094181241 0.0078690805         3369 
 1676000   0.58618259   -9.1618672    189.61407 0.0094279074  0.007861068         3388 
 1677000   0.58488062   -9.1372931     189.5714 0.0094201649 0.0078530765         3360 
 1678000   0.59912576   -9.1654875     189.0043 0.0093863873 0.0078450929         3330 
 1679000   0.58186529    -9.163877     189.0627 0.0093836957 0.0078371196         3379 
 1680000   0.58198044   -9.1660314    189.31904 0.0093908252 0.0078291503         3366 
 1681000   0.57801511   -9.1794977    189.43539  0.009391007 0.0078211914         3392 
 1682000   0.58147386   -9.1642342    189.55358 0.0093912794 0.0078132436         3389 
 1683000   0.58329099   -9.1399465     189.1659  0.009366503 0.0078053132         3369 
 1684000   0.58582864     -9.14883    189.42796 0.0093739093 0.0077973923         3407 
 1685000   0.58292628   -9.1650322    189.31266 0.0093626438 0.0077894787         3372 
 1686000   0.57109912   -9.1650171    189.56276 0.0093694526  0.007781574         3350 
 1687000    0.5795455   -9.1676594    189.44745 0.0093582026 0.0077736817         3338 
 1688000   0.55825958   -9.1766154    189.55572 0.0093580033 0.0077657913         3381 
 1689000   0.56448354   -9.1711737    189.15746 0.0093328132 0.0077579198         3392 
 1690000   0.57335478   -9.1588952    189.55695 0.0093469898 0.0077500577         3363 
 1691000   0.56904821   -9.1637092    189.69487 0.0093482589 0.0077422083         3381 
 1692000   0.56580011    -9.148533    189.56794 0.0093364824 0.0077343614         3407 
 1693000   0.57186242   -9.1498123    189.27377  0.009316488 0.0077265279         3362 
 1694000   0.57690601   -9.1830922    189.21359 0.0093080278 0.0077186989         3370 
 1695000   0.56699164   -9.1518215    189.51365 0.0093172887 0.0077108861         3334 
 1696000   0.58045781   -9.1698762    189.46013 0.0093091653 0.0077030827         3391 
 1697000   0.57620749   -9.1797297    189.04419 0.0092832543 0.0076952893         3369 
 1698000   0.56082504   -9.1549617    189.62533 0.0093063081 0.0076875143         3322 
 1699000   0.56332649    -9.163184    189.35948  0.009287791 0.0076797443         3344 
 1700000   0.57144641   -9.1732548    189.37089 0.0092828866 0.0076719829         3362 
 1701000   0.56916333   -9.1733981    189.16043 0.0092671188 0.0076642305         3348 
 1702000   0.58005794   -9.1567236     189.0123 0.0092544211 0.0076564951         3372 
 1703000   0.57736616   -9.1746137    189.24645 0.0092604446 0.0076487622         3399 
 1704000   0.57349802   -9.1663374    189.03833 0.0092448322 0.0076410367         3342 
 1705000   0.56518275     -9.18483    189.26764  0.009250618 0.0076333285         3432 
 1706000   0.59276988   -9.1727755    189.24494 0.0092440868 0.0076256268         3413 
 1707000   0.57728648   -9.1424118    189.38407 0.0092454631 0.0076179466         3354 
 1708000    0.5773541    -9.186226    189.26735 0.0092343556 0.0076102799         3431 
 1709000   0.56294979    -9.185086    189.18734 0.0092250508 0.0076026194         3310 
 1710000   0.56967286   -9.1711326     189.1259  0.009216662 0.0075949673         3372 
 1711000   0.55970722   -9.1605883    188.86741 0.0091986853 0.0075873241         3378 
 1712000   0.57382822   -9.2012035    189.35947 0.0092172638 0.0075796837         3395 
 1713000   0.57046383   -9.1800824    189.08616 0.0091985875 0.0075720615         3401 
 1714000   0.57210783   -9.1716587    189.30422 0.0092038222  0.007564446         3386 
 1715000   0.55689983   -9.1619254    189.35428 0.0092008881 0.0075568499         3335 
 1716000   0.57380101   -9.1723468    189.19785 0.0091879296 0.0075492568         3405 
 1717000   0.55920975   -9.1680481    188.99367 0.0091726691 0.0075416656         3367 
 1718000   0.57060925   -9.1822339    189.04607 0.0091698714 0.0075340946         3323 
 1719000   0.57363172   -9.1748509    189.14962 0.0091695568 0.0075265372         3395 
 1720000   0.56636479    -9.202061    189.19339 0.0091663465 0.0075189902         3349 
 1721000   0.57520991   -9.1743337    188.88467 0.0091460715 0.0075114499         3382 
 1722000   0.56559091   -9.1776619    189.18299 0.0091551969 0.0075039243         3389 
 1723000   0.56757586   -9.1738126    189.39588   0.00916018 0.0074964114         3354 
 1724000   0.55278574   -9.1722727     189.1377  0.009142387 0.0074888993         3350 
 1725000    0.5719745   -9.1936222    188.87318  0.009124308 0.0074813998         3396 
 1726000   0.56573252   -9.1827402    189.09257 0.0091296144 0.0074739161         3398 
 1727000   0.56341693    -9.186982    189.16128 0.0091276435 0.0074664308         3377 
 1728000   0.57041142   -9.1813424    189.31189 0.0091296245  0.007458969         3406 
 1729000   0.56990723   -9.1815342    189.39331 0.0091282683 0.0074515066         3339 
 1730000   0.56627844   -9.1949539    189.06529 0.0091071913 0.0074440587         3387 
 1731000    0.5797617    -9.191852    189.27206 0.0091118843 0.0074366139         3417 
 1732000   0.56184292   -9.1956537    189.06434 0.0090966291 0.0074291832         3383 
 1733000   0.57017949   -9.1961059    189.12021 0.0090940665 0.0074217534         3382 
 1734000   0.56034709   -9.2071569     189.1391 0.0090897297 0.0074143423         3397 
 1735000   0.56263519   -9.1924275    189.05364 0.0090803863 0.0074069479         3359 
 1736000   0.56070134    -9.192519    189.01916 0.0090735006 0.0073995596         3381 
 1737000   0.56331709   -9.1723181    189.32573 0.0090829846 0.0073921803         3390 
 1738000   0.55477309   -9.1799724    189.15579 0.0090696104 0.0073848082         3408 
 1739000   0.56476281   -9.1896073    189.04383 0.0090590294 0.0073774397         3385 
 1740000   0.54525904   -9.1859172    189.18768 0.0090607124 0.0073700822         3368 
 1741000    0.5719911   -9.1936517    189.10777 0.0090516834 0.0073627349         3339 
 1742000   0.55762374   -9.2012799      188.763 0.0090299943 0.0073553959         3399 
 1743000   0.55602411   -9.1931752    189.14448 0.0090430521 0.0073480709         3394 
 1744000   0.54526157   -9.1984886     189.1752 0.0090393349 0.0073407621         3390 
 1745000    0.5490611   -9.1837123    189.07118 0.0090291872 0.0073334511         3395 
 1746000   0.55236955    -9.202219     189.1953 0.0090299397 0.0073261574         3365 
 1747000   0.54995997   -9.2008722    188.92555 0.0090119035 0.0073188702         3385 
 1748000   0.54787108   -9.2012473    188.91104 0.0090060566 0.0073115948         3381 
 1749000   0.55015497   -9.2141632    188.90103 0.0090004303  0.007304326         3355 
 1750000   0.56039854   -9.2054575    189.01133 0.0090005394 0.0072970656         3377 
 1751000   0.55344242   -9.2054098    188.97965 0.0089938915 0.0072898124         3398 
 1752000   0.55348829   -9.2016832    189.00569 0.0089899965 0.0072825769         3401 
 1753000   0.56106541   -9.1923407    189.22355 0.0089952247 0.0072753526         3384 
 1754000   0.56230805   -9.2016776    188.98498 0.0089787621 0.0072681317         3394 
 1755000    0.5483282   -9.2040972    188.95803 0.0089723662  0.007260916         3371 
 1756000   0.55646294   -9.1787826    189.40464  0.008988451 0.0072537174         3380 
 1757000   0.54372733   -9.2177277    188.85248 0.0089571464 0.0072465291         3398 
 1758000   0.54296169   -9.2029485    188.78026 0.0089486283 0.0072393473         3442 
 1759000   0.56048509    -9.204414    188.56762 0.0089334671 0.0072321768         3414 
 1760000   0.54394326   -9.2041576    188.92004 0.0089450778 0.0072250154         3378 
 1761000   0.53760304   -9.1964053    188.86108 0.0089372078 0.0072178625         3435 
 1762000   0.54948142    -9.208161    189.20839 0.0089485617 0.0072107199         3412 
 1763000   0.54538869   -9.2155127    188.86998   0.00892749 0.0072035931         3430 
 1764000   0.54917232   -9.1762595    188.96933 0.0089271223 0.0071964696         3405 
 1765000    0.5483181   -9.2063613    189.09161 0.0089278381 0.0071893576         3433 
 1766000    0.5550396   -9.2049183    188.80901 0.0089094473 0.0071822504         3389 
 1767000   0.54516359   -9.2158895     188.4653 0.0088881954 0.0071751556         3398 
 1768000   0.55611159   -9.2173215    188.60629 0.0088898138 0.0071680684         3445 
 1769000   0.54348835   -9.2014256    188.83525 0.0088955744 0.0071609961         3455 
 1770000   0.54719726   -9.2108264    189.03733 0.0089000624 0.0071539344         3400 
 1771000   0.54739182   -9.1853037    188.91543 0.0088893011 0.0071468756         3380 
 1772000   0.54258488   -9.2037669    188.74972 0.0088764915 0.0071398299         3446 
 1773000   0.53888869   -9.1951765    188.73017 0.0088705662 0.0071327947         3400 
 1774000   0.54435225   -9.2090716    188.99751 0.0088781245 0.0071257597         3452 
 1775000   0.55034844   -9.1932195    188.90945 0.0088689885 0.0071187416         3403 
 1776000    0.5407467    -9.213472    188.80345 0.0088590206 0.0071117313         3427 
 1777000     0.543152   -9.2173805    188.82555 0.0088550715 0.0071047243         3402 
 1778000   0.54590562   -9.2162316    188.86155 0.0088517785 0.0070977292         3428 
 1779000   0.52841614   -9.2135291    188.94902 0.0088509003 0.0070907523         3361 
 1780000   0.53627331   -9.2267142    188.78892 0.0088384325 0.0070837754         3424 
 1781000    0.5480481   -9.2244523     188.9552 0.0088412501 0.0070768092         3360 
 1782000   0.54791952   -9.2188906    188.89458 0.0088334538 0.0070698505         3389 
 1783000   0.54406733    -9.217841    188.84724 0.0088262872 0.0070629036         3374 
 1784000   0.54515521   -9.2061245    188.73814 0.0088162436 0.0070559685         3334 
 1785000   0.55223093   -9.2128407    188.47422 0.0087989834 0.0070490382         3396 
 1786000   0.54680762   -9.2333891     188.7635 0.0088075543 0.0070421121         3397 
 1787000   0.54165307   -9.2328095    188.98459 0.0088129356 0.0070351972         3374 
 1788000   0.53166075    -9.231947    188.84661 0.0088015758 0.0070282977         3439 
 1789000   0.55216096   -9.2217743    188.54629 0.0087826668  0.007021404         3393 
 1790000   0.53561171    -9.221813    188.95928 0.0087969872 0.0070145147         3437 
 1791000    0.5369272   -9.2371359    188.72911 0.0087813655 0.0070076337         3467 
 1792000    0.5475797    -9.217577    188.88292 0.0087836179 0.0070007685         3425 
 1793000   0.53433194   -9.2283413    188.42087 0.0087572444 0.0069939069         3418 
 1794000   0.54621365   -9.2277098    188.67773 0.0087642946 0.0069870532         3420 
 1795000   0.51590915   -9.2331993    188.40834 0.0087469052 0.0069802113         3446 
 1796000   0.53988694   -9.2323421    188.98061 0.0087685881 0.0069733773         3421 
 1797000   0.53949364   -9.2380717    188.90282 0.0087601013 0.0069665536         3420 
 1798000   0.52436344   -9.2422621    188.83902 0.0087522721 0.0069597377         3391 
 1799000   0.55215145   -9.2205137    188.74342 0.0087429783 0.0069529321         3387 
 1800000   0.52716617   -9.2209946    188.61192 0.0087320331 0.0069461336         3484 
 1801000   0.53829365   -9.2427876    188.96711 0.0087436197 0.0069393475         3447 
 1802000   0.52624702     -9.24599     188.4377 0.0087142853 0.0069325615         3456 
 1803000   0.54402611   -9.2169335    188.61785 0.0087177783 0.0069257946         3402 
 1804000   0.53598399   -9.2641221    188.69058 0.0087163053 0.0069190316         3409 
 1805000   0.53518332   -9.2530972    188.57133 0.0087059711 0.0069122755         3450 
 1806000   0.53036842   -9.2495795    188.82228   0.00871273 0.0069055319         3446 
 1807000   0.54005531   -9.2292185    188.70715 0.0087025989 0.0068987958         3417 
 1808000   0.53272289   -9.2488323    188.55958 0.0086909835 0.0068920708         3389 
 1809000   0.53953464   -9.2217489    188.83625 0.0086989245 0.0068853569         3442 
 1810000   0.51881369   -9.2377786     188.4774 0.0086775968 0.0068786535         3368 
 1811000   0.53471042   -9.2379681    188.78179 0.0086868115 0.0068719549         3382 
 1812000   0.53010478   -9.2222573    188.71637 0.0086790088 0.0068652652         3406 
 1813000   0.52554027   -9.2389592    188.32369 0.0086561725 0.0068585827         3422 
 1814000   0.52384963    -9.244043    188.26672 0.0086487834 0.0068519041         3445 
 1815000    0.5257578   -9.2458707    188.62621 0.0086605237 0.0068452389         3417 
 1816000   0.52763865   -9.2342621    188.48486 0.0086492688 0.0068385797         3388 
 1817000   0.54176527   -9.2293814    188.62024 0.0086507171 0.0068319339         3413 
 1818000   0.53617142   -9.2345565    188.61737 0.0086458274 0.0068252943         3439 
 1819000   0.51739701   -9.2458639    188.65989 0.0086430223 0.0068186661         3413 
 1820000    0.5242599   -9.2494885    188.74459 0.0086421517 0.0068120419         3389 
 1821000   0.52732695   -9.2490458     188.5513 0.0086285603 0.0068054282         3400 
 1822000   0.52879012   -9.2551155    188.60211 0.0086261484 0.0067988249         3427 
 1823000   0.52012751   -9.2378764    188.58402 0.0086205898  0.006792223         3437 
 1824000   0.53260194   -9.2484406    188.64852 0.0086188101 0.0067856277         3448 
 1825000   0.52471122   -9.2294168    188.38046 0.0086018474 0.0067790461         3433 
 1826000   0.52070326   -9.2406117    188.68323 0.0086109543 0.0067724782         3371 
 1827000   0.52143579   -9.2447953    188.42692 0.0085945503 0.0067659178         3492 
 1828000   0.51192704   -9.2341762    188.61752 0.0085985376 0.0067593564         3427 
 1829000   0.53049021   -9.2609575    188.56681 0.0085915258 0.0067528117         3433 
 1830000   0.52520713   -9.2560283    188.23877 0.0085718929 0.0067462753         3453 
 1831000    0.5259758   -9.2291872     188.9276  0.008598562 0.0067397433         3448 
 1832000   0.52012551   -9.2397331    188.48529 0.0085737488 0.0067332242         3393 
 1833000    0.5143775   -9.2385331     188.1821 0.0085552872 0.0067267132         3409 
 1834000   0.52131372   -9.2703448    188.37341 0.0085593152   0.00672021         3410 
 1835000   0.51065147   -9.2564208    188.61547 0.0085656437 0.0067137108         3430 
 1836000   0.52228876   -9.2419918    188.34489 0.0085486969 0.0067072248         3409 
 1837000   0.51049434   -9.2549349    188.55164 0.0085534223 0.0067007471         3410 
 1838000   0.52494987   -9.2523545    188.55773 0.0085490449 0.0066942731         3394 
 1839000   0.52353081   -9.2673248    188.65974 0.0085490187 0.0066878096         3417 
 1840000   0.52786035   -9.2608319    188.57241 0.0085404173 0.0066813591         3437 
 1841000   0.51553595    -9.258883    188.54714 0.0085346342  0.006674916         3434 
 1842000   0.51744848   -9.2614502    188.52183  0.008528856   0.00666848         3446 
 1843000    0.5248207   -9.2597539    188.72304  0.008533326 0.0066620571         3459 
 1844000   0.51170893   -9.2661837    188.22757 0.0085063073 0.0066556365         3408 
 1845000   0.51561111   -9.2488763    188.29226 0.0085046187 0.0066492219         3464 
 1846000   0.51469656    -9.246153    188.26284 0.0084986834 0.0066428149         3397 
 1847000   0.51868855   -9.2724907    188.36373 0.0084986344 0.0066364182         3434 
 1848000   0.51972098   -9.2694109    188.30812 0.0084915277  0.006630036         3443 
 1849000   0.50791101   -9.2617003    188.57924 0.0084991547 0.0066236555         3432 
 1850000   0.51372356    -9.260981    188.82697 0.0085057193 0.0066172868         3388 
 1851000   0.50887028   -9.2611753    188.24996 0.0084751469 0.0066109247         3454 
 1852000   0.50973794   -9.2558467    188.45697 0.0084798854 0.0066045703         3471 
 1853000   0.50987413   -9.2701299    188.24019   0.00846556 0.0065982254         3457 
 1854000   0.52098178   -9.2665977    188.51082 0.0084731582 0.0065918864         3457 
 1855000   0.51656334   -9.2730162    188.28408 0.0084584043 0.0065855565         3472 
 1856000   0.50661709   -9.2456584    188.44429 0.0084610404  0.006579239         3433 
 1857000   0.50314934   -9.2773031    188.42442 0.0084555922 0.0065729249         3406 
 1858000   0.51382807   -9.2657799    188.13785 0.0084381883 0.0065666214         3412 
 1859000   0.50540148   -9.2717187    188.08238 0.0084311628 0.0065603287         3433 
 1860000   0.50297482   -9.2566135    188.28713 0.0084358032 0.0065540368         3394 
 1861000   0.51519496   -9.2711746    188.48446 0.0084401066 0.0065477623         3410 
 1862000   0.51930319   -9.2643183    188.59286 0.0084404254 0.0065414939         3425 
 1863000   0.51388693   -9.2633401    188.33262 0.0084242538  0.006535237         3398 
 1864000   0.51801358   -9.2472012    188.32574 0.0084194268  0.006528986         3440 
 1865000   0.51630606   -9.2646182    188.13778 0.0084065137  0.006522737         3422 
 1866000   0.51182795   -9.2560821    188.52797 0.0084194342 0.0065164992         3453 
 1867000   0.49658545   -9.2791213    188.33908 0.0084064933 0.0065102687         3404 
 1868000   0.51381898   -9.2578232    188.69065 0.0084176769 0.0065040482         3416 
 1869000   0.49855158   -9.2639528    188.48649 0.0084040703 0.0064978319         3395 
 1870000   0.49450609   -9.2726661    188.02672 0.0083790875 0.0064916198         3398 
 1871000   0.50980336   -9.2698094    188.21214 0.0083828673 0.0064854194         3390 
 1872000   0.50901972   -9.2657805    188.26293 0.0083806505 0.0064792254         3431 
 1873000    0.5087935   -9.2849045    188.10953 0.0083693511 0.0064730366         3453 
 1874000   0.50629514   -9.2639731    188.33014 0.0083746948 0.0064668604         3424 
 1875000   0.49871957   -9.2762675    188.18742 0.0083638854 0.0064606911         3467 
 1876000   0.50672319   -9.2888631    188.23326 0.0083614633 0.0064545267         3432 
 1877000   0.50928967    -9.272119    188.41261 0.0083649712 0.0064483754         3399 
 1878000   0.49501299   -9.2775921    188.56188 0.0083671406 0.0064422305         3401 
 1879000   0.50559204   -9.2835886    188.15119 0.0083444737 0.0064360913         3428 
 1880000   0.49648884   -9.2667887    188.21667 0.0083429373 0.0064299545         3399 
 1881000     0.502331   -9.2587558    188.48989 0.0083506067 0.0064238312         3434 
 1882000   0.50620167   -9.2901364    188.26557 0.0083362367 0.0064177138         3446 
 1883000   0.50812691   -9.2698755    188.01551 0.0083207431 0.0064116063         3427 
 1884000   0.49607184   -9.2698122    188.06967 0.0083187219 0.0064055054         3438 
 1885000   0.49136296    -9.285854    188.17149 0.0083188101 0.0063994099         3465 
 1886000   0.50405876   -9.3062872    188.00849 0.0083071973 0.0063933131         3411 
 1887000   0.50322071    -9.260242     187.9949 0.0083021948 0.0063872322         3423 
 1888000   0.49373107   -9.2893579     188.4142 0.0083163048 0.0063811569         3441 
 1889000   0.49846932   -9.2825418    188.33055 0.0083082122 0.0063750928         3492 
 1890000   0.49622008   -9.2818624    188.16571 0.0082965479  0.006369037         3441 
 1891000    0.5033143   -9.2662895    187.99376 0.0082845831  0.006362984         3443 
 1892000   0.49256879   -9.2985524    188.15489 0.0082873015 0.0063569432         3472 
 1893000   0.50297484   -9.2803716    188.11827 0.0082813114 0.0063509079         3480 
 1894000   0.49072028   -9.2986247    188.04744 0.0082738226 0.0063448778         3459 
 1895000   0.49622305   -9.2774705    188.35527 0.0082829933 0.0063388609         3453 
 1896000   0.49795569   -9.2924716    188.24433 0.0082737487 0.0063328524         3418 
 1897000   0.49724285   -9.2926155    188.19039 0.0082670178 0.0063268464         3435 
 1898000   0.49494972    -9.290061    188.32027 0.0082683645 0.0063208472         3450 
 1899000   0.49539987   -9.2874835    188.34558 0.0082651212 0.0063148588         3390 
 1900000   0.50430283   -9.2910955    188.30807 0.0082591258 0.0063088729         3440 
 1901000   0.49479769    -9.299696     188.2297 0.0082513457 0.0063029011         3456 
 1902000    0.4983815   -9.3025785    187.84836 0.0082302998 0.0062969353         3469 
 1903000   0.49460718   -9.3043069    187.78661 0.0082232706 0.0062909726         3412 
 1904000   0.50208643   -9.2970692    188.21783 0.0082378253 0.0062850237         3451 
 1905000   0.49486806   -9.2868448    188.04211 0.0082258142 0.0062790785         3414 
 1906000   0.48838775   -9.2852311    187.86902 0.0082139307 0.0062731426         3428 
 1907000   0.47237747   -9.3083233    188.20634 0.0082243636  0.006267214         3465 
 1908000   0.48302944   -9.3098298    188.15884 0.0082179786 0.0062612936         3455 
 1909000   0.49178185    -9.302663    188.02898 0.0082080049 0.0062553812         3482 
 1910000   0.49304133   -9.3016109    188.10243 0.0082069122 0.0062494714         3381 
 1911000   0.49035003   -9.3005676    188.13591 0.0082040778 0.0062435729         3456 
 1912000   0.49575353    -9.289488    188.21748 0.0082033422 0.0062376829         3454 
 1913000   0.49051754    -9.295432    187.99718 0.0081894572 0.0062318029         3451 
 1914000   0.49427528   -9.3012059    188.58509 0.0082107754 0.0062259286         3441 
 1915000   0.48060582   -9.2947349    188.29278 0.0081937677 0.0062200626         3400 
 1916000   0.49650132   -9.2896746    187.80472 0.0081682638  0.006214201         3463 
 1917000   0.48088961     -9.29213    187.78568 0.0081631753 0.0062083477         3384 
 1918000   0.50035113   -9.3068032    188.09885 0.0081725256 0.0062025017         3474 
 1919000   0.49085177   -9.2985393    188.16989 0.0081713516 0.0061966666         3469 
 1920000   0.47674677   -9.2965821    188.04441 0.0081616496 0.0061908389         3477 
 1921000   0.48315623   -9.3016997     187.7575 0.0081449548 0.0061850126         3473 
 1922000   0.48853619   -9.3202955    188.08333 0.0081548443 0.0061791986         3443 
 1923000   0.49076875   -9.3118764    188.19607 0.0081554893 0.0061733919         3409 
 1924000   0.48157335   -9.3054915     187.9805 0.0081419137 0.0061675956         3449 
 1925000   0.48134101   -9.3009075    188.11227 0.0081433885 0.0061618009         3464 
 1926000   0.49710128   -9.3143133    187.75214 0.0081235783 0.0061560124         3458 
 1927000   0.48144478   -9.3002456    188.03176 0.0081314546 0.0061502322         3491 
 1928000    0.4827104   -9.3060468    188.21784 0.0081352803 0.0061444584         3501 
 1929000    0.4836915   -9.3086949    187.62688  0.008105533 0.0061386924         3412 
 1930000   0.47413741   -9.3069064    187.80434 0.0081089957 0.0061329362         3458 
 1931000   0.47834457   -9.3115899    187.83404 0.0081060781 0.0061271876         3468 
 1932000    0.4778687   -9.2999992    188.03586 0.0081105874  0.006121444         3474 
 1933000   0.47553787   -9.3224763     187.9774 0.0081038713 0.0061157097         3444 
 1934000   0.47733708   -9.3245054    187.95538 0.0080987322 0.0061099821         3470 
 1935000   0.48206168   -9.3018934    187.94375  0.008094046 0.0061042579         3458 
 1936000   0.48029135   -9.3034069     188.1744 0.0080997933  0.006098542         3435 
 1937000    0.4895586   -9.3158634    187.90367 0.0080839643 0.0060928352         3449 
 1938000   0.47639663   -9.3223484    188.03065 0.0080852531 0.0060871333         3472 
 1939000   0.46713656   -9.3331658    187.84021 0.0080728988 0.0060814394         3465 
 1940000   0.47625849   -9.3190645    187.97502 0.0080745285 0.0060757524         3448 
 1941000   0.48010108   -9.3173973     187.8407 0.0080646014 0.0060700746         3432 
 1942000   0.47810484   -9.3184616    188.00069 0.0080673143 0.0060644012         3481 
 1943000   0.47453419    -9.327817    187.56978  0.008044681 0.0060587345         3450 
 1944000   0.47453378   -9.3170381    187.78842 0.0080499151  0.006053076         3461 
 1945000    0.4681374    -9.312994    187.99669 0.0080546995 0.0060474266         3451 
 1946000   0.49365884   -9.3124164    187.79106 0.0080417551 0.0060417826         3442 
 1947000    0.4882977   -9.3082915    187.71241 0.0080342582 0.0060361521         3431 
 1948000    0.4860724   -9.3245418    187.87789 0.0080372128 0.0060305262         3440 
 1949000   0.47724405   -9.3469792    187.51044 0.0080173783 0.0060249024         3499 
 1950000   0.47485674   -9.3285166    187.64672 0.0080190908 0.0060192867         3414 
 1951000   0.48295011   -9.3327944    187.76502 0.0080200331 0.0060136804         3458 
 1952000   0.48409326   -9.3115486     188.1025  0.008030332 0.0060080782         3434 
 1953000   0.47092211   -9.3317082    187.86055 0.0080158966 0.0060024853         3471 
 1954000    0.4669788   -9.3364883    188.01741 0.0080184838 0.0059969002         3451 
 1955000   0.46982535   -9.3193438    187.87291 0.0080082231 0.0059913243         3444 
 1956000   0.46947418   -9.3278278    188.06631 0.0080123682 0.0059857483         3431 
 1957000   0.47284045   -9.3226415    187.77657 0.0079959364 0.0059801853         3468 
 1958000   0.47151191   -9.3309475    187.79138 0.0079924829 0.0059746219         3458 
 1959000   0.46635138   -9.3289938    187.96312 0.0079957087   0.00596907         3483 
 1960000   0.46920369   -9.3235608    187.55452  0.007974257 0.0059635263         3423 
 1961000   0.46445463     -9.31725    187.86656 0.0079834508  0.005957988         3433 
 1962000   0.46780308   -9.3264233    187.80766   0.00797688 0.0059524583         3454 
 1963000   0.46931991     -9.32538    187.78344 0.0079717881  0.005946929         3470 
 1964000   0.47072752   -9.3334921    187.69691 0.0079640577 0.0059414123         3485 
 1965000   0.47062317   -9.3333455    187.81559 0.0079650376    0.0059359         3496 
 1966000   0.46852727   -9.3321702    187.69936 0.0079560596 0.0059303987         3464 
 1967000   0.46348832   -9.3199294    187.77231 0.0079551054    0.0059249         3451 
 1968000   0.46425327   -9.3422599    187.83901 0.0079538875 0.0059194097         3461 
 1969000   0.45942642   -9.3303322     187.6184 0.0079405113 0.0059139305         3404 
 1970000   0.46471558   -9.3306764    187.71354  0.007940505 0.0059084533         3446 
 1971000   0.47435889   -9.3352689    187.85487 0.0079424519  0.005902985         3498 
 1972000    0.4648947   -9.3437374    187.98093 0.0079437512 0.0058975251         3479 
 1973000    0.4655529   -9.3444811    187.49428 0.0079191704 0.0058920733         3479 
 1974000   0.45339313   -9.3403963    187.64459 0.0079215039  0.005886622         3477 
 1975000   0.47511664   -9.3294162    187.63106 0.0079169222  0.005881182         3468 
 1976000   0.47536862   -9.3496927     187.7876 0.0079195175 0.0058757472         3519 
 1977000   0.46849433    -9.334536    187.52849 0.0079045897 0.0058703178         3461 
 1978000   0.47223297   -9.3242357    187.78317 0.0079113235 0.0058649024         3431 
 1979000   0.47948201   -9.3390317    187.42771 0.0078923577 0.0058594842         3504 
 1980000   0.46190185   -9.3406334    187.85595 0.0079063951 0.0058540727         3449 
 1981000   0.47789176   -9.3434231    187.84126 0.0079017859 0.0058486721         3482 
 1982000   0.46293426   -9.3477581     187.6248 0.0078886981 0.0058432774         3481 
 1983000   0.45728153   -9.3407834    187.68467  0.007887236 0.0058378904         3480 
 1984000   0.46150176     -9.34244    187.63157 0.0078810302  0.005832507         3512 
 1985000   0.46297902   -9.3489504    187.67879 0.0078790423 0.0058271379         3443 
 1986000   0.46394559   -9.3441863    187.66885 0.0078746582 0.0058217701         3493 
 1987000   0.45564029   -9.3500848    187.82848 0.0078773896 0.0058164096         3470 
 1988000   0.45630198   -9.3506831    187.68267 0.0078673153 0.0058110581         3441 
 1989000   0.44859832   -9.3441922    187.58417 0.0078592328 0.0058057131         3457 
 1990000   0.45738677   -9.3468076      187.731  0.007861432 0.0058003715         3481 
 1991000   0.45528659   -9.3473597    187.60879 0.0078523686 0.0057950411         3480 
 1992000   0.44917004    -9.354058    187.71265 0.0078527714 0.0057897104         3472 
 1993000   0.46230122   -9.3342963    187.79493 0.0078522718 0.0057843881         3473 
 1994000   0.45602426   -9.3497151    187.63116 0.0078414897 0.0057790773         3463 
 1995000   0.46192949   -9.3399873    187.60841 0.0078366088 0.0057737661         3466 
 1996000    0.4525281   -9.3479699    187.91513 0.0078454879 0.0057684672         3473 
 1997000   0.45845887   -9.3533132    187.86991 0.0078396724 0.0057631733         3507 
 1998000   0.46112965   -9.3540596    187.57481 0.0078234404 0.0057578797         3465 
 1999000   0.45934378   -9.3499835    187.61185  0.007821071 0.0057525963         3498 
 2000000   0.45550216    -9.360268     187.6438 0.0078184915 0.0057473219         3465 
 2001000   0.45019798   -9.3526666    187.56135 0.0078111509 0.0057420533         3449 
 2002000   0.45839559   -9.3442067    187.13573 0.0077895327 0.0057367898         3444 
 2003000   0.46017589    -9.354241    187.63067 0.0078062351 0.0057315338         3506 
 2004000   0.45180391   -9.3537087    187.55941 0.0077993766 0.0057262814         3478 
 2005000   0.45784903   -9.3548723    187.57067 0.0077959545 0.0057210377         3488 
 2006000    0.4615738   -9.3474869     187.3389 0.0077824403  0.005715801         3519 
 2007000   0.45238626   -9.3325723    187.73039 0.0077948177 0.0057105696         3472 
 2008000   0.44294444   -9.3739446    187.58715 0.0077849913 0.0057053438         3494 
 2009000   0.45441331    -9.363449    187.36492 0.0077718981  0.005700128         3511 
 2010000   0.44942503    -9.355817    187.60364 0.0077779288 0.0056949192         3469 
 2011000   0.45110839   -9.3473653    187.31787 0.0077622192 0.0056897126         3517 
 2012000   0.45489454   -9.3659117    187.48604 0.0077653263 0.0056845136         3508 
Loop time of 5237.09 on 48 procs for 2000000 steps with 4000 atoms

Performance: 65990.848 tau/day, 381.891 timesteps/s
99.4% CPU use with 48 MPI tasks x no OpenMP threads

MPI task timing breakdown:
Section |  min time  |  avg time  |  max time  |%varavg| %total
---------------------------------------------------------------
Pair    | 364.06     | 398.74     | 436.78     |  78.0 |  7.61
Neigh   | 36.816     | 38.524     | 41.097     |  15.4 |  0.74
Comm    | 326.27     | 366.66     | 398.72     |  93.9 |  7.00
Output  | 6.0945     | 6.0965     | 6.1419     |   0.3 |  0.12
Modify  | 4360.7     | 4376.2     | 4394.8     |  13.8 | 83.56
Other   |            | 50.91      |            |       |  0.97

Nlocal:        83.3333 ave          97 max          73 min
Histogram: 1 7 11 5 7 3 4 6 3 1
Nghost:        2432.85 ave        2444 max        2419 min
Histogram: 2 3 3 3 8 8 6 6 4 5
Neighs:        16846.0 ave       20271 max       13968 min
Histogram: 5 8 3 4 7 6 6 3 4 2
FullNghs:      33689.1 ave       39405 max       29317 min
Histogram: 1 7 10 8 6 1 5 6 3 1

Total # of neighbors = 1617078
Ave neighs/atom = 404.26950
Neighbor list builds = 106446
Dangerous builds = 2

#clear
#
#next RN
#
#jump SELF
Total wall time: 1:27:20
