
units lj                  # Use reduced LJ style units
atom_style atomic         # Uncharged point particles
atom_modify map hash      # Needed for indexing of clusters etc
                          # Used to be able to find where atoms are in relation to each other.

lattice fcc 1.0 spacing 1 1 1
Lattice spacing in x,y,z = 1.5874011 1.5874011 1.5874011
region box block 0 10 0 10 0 10 units lattice
create_box 2 box
Created orthogonal box = (0.0000000 0.0000000 0.0000000) to (15.874011 15.874011 15.874011)
  3 by 4 by 4 MPI processor grid
create_atoms 1 box
Created 4000 atoms
  using lattice units in orthogonal box = (0.0000000 0.0000000 0.0000000) to (15.874011 15.874011 15.874011)
  create_atoms CPU = 0.047 seconds
set type 1 type/fraction 2 0.31 78393
Setting atom values ...
  1268 settings made for type/fraction
mass 1 1.0
mass 2 1.0
pair_style lj/cut  3.5
pair_modify tail  yes
pair_coeff 1  1  1.0  1.0   # Intearaction between 1 and 1 set with epsilon = 1 and sigma = 1
pair_coeff 1  2  1.5  0.8
pair_coeff 2  2  0.5  0.88

write_data data.0
System init for write_data ...
Neighbor list info ...
  update every 1 steps, delay 10 steps, check yes
  max neighbors/atom: 2000, page size: 100000
  master list distance cutoff = 3.8
  ghost atom cutoff = 3.8
  binsize = 1.9, bins = 9 9 9
  1 neighbor lists, perpetual/occasional/extra = 1 0 0
  (1) pair lj/cut, perpetual
      attributes: half, newton on
      pair build: half/bin/atomonly/newton
      stencil: half/bin/3d
      bin: standard
WARNING: Not all mixed pair coeffs generated from mixing. Use write_data with 'pair ij' option to store all pair coeffs. (../write_data.cpp:312)


#############################
#   M E L T   S Y S T E M   #
#############################

velocity all create 2.4 3143649 mom yes dist gaussian # Assign velocities
                                                    # Temperature 2.4, random number seed, zero linear momentum
                                                                                # Gaussian distribution

timestep 0.002   # simulation timestep
thermo 1000       # output thermodynamic data every 1000 steps bf 100

# Define a fix  in this case with index 1 applied to all
# particles in the simulation. This fix is for simulations
# in the anisotropic NPT ensemble. Note that we use the MTK
# correction.
fix 1 all npt temp 2.4 2.4 0.1 iso 5.68 5.68 0.5 mtk yes tchain 5 pchain 5 # Use NPT ensemble
                                                                         # Set temperature and pressure and damping
                                                                         # Numbers of thermostats in chain and in barostat
run 10000          # run for 10000 steps
Per MPI rank memory allocation (min/avg/max) = 3.642 | 3.644 | 3.648 Mbytes
Step Temp E_pair E_mol TotEng Press Volume 
       0          2.4   -6.3727134            0   -2.7736134   -4.0086663         4000 
    1000    2.3762729   -5.0514073            0   -1.4878889    5.4080856    4118.1312 
    2000    2.4181095   -4.9711882            0   -1.3449308     5.807888    4121.1638 
    3000     2.411948   -5.0052207            0   -1.3882031    5.6617011     4117.338 
    4000     2.411752   -4.9944366            0   -1.3777129    5.2160937    4160.6275 
    5000    2.3577706   -5.0247787            0   -1.4890069    5.7519095    4112.4878 
    6000    2.4350179   -4.9726711            0   -1.3210573    5.4301631    4155.6717 
    7000    2.4191793   -4.9293593            0   -1.3014976    5.6929447     4163.811 
    8000    2.3902769    -4.951493            0   -1.3669739    5.5988338    4147.5659 
    9000    2.3447381   -4.9959488            0   -1.4797209    5.2152863    4158.7384 
   10000    2.3994287   -5.0098221            0   -1.4115788    5.8423754    4102.6866 
Loop time of 2.59028 on 48 procs for 10000 steps with 4000 atoms

Performance: 667109.519 tau/day, 3860.587 timesteps/s
99.5% CPU use with 48 MPI tasks x no OpenMP threads

MPI task timing breakdown:
Section |  min time  |  avg time  |  max time  |%varavg| %total
---------------------------------------------------------------
Pair    | 1.0522     | 1.1229     | 1.2452     |   3.5 | 43.35
Neigh   | 0.20213    | 0.21181    | 0.22811    |   1.1 |  8.18
Comm    | 0.78324    | 0.86329    | 0.94389    |   4.3 | 33.33
Output  | 0.00024656 | 0.00025485 | 0.00052853 |   0.0 |  0.01
Modify  | 0.3182     | 0.37692    | 0.42905    |   4.1 | 14.55
Other   |            | 0.01512    |            |       |  0.58

Nlocal:        83.3333 ave          93 max          71 min
Histogram: 1 1 2 6 6 14 4 8 5 1
Nghost:        1614.40 ave        1634 max        1592 min
Histogram: 2 0 6 8 6 7 5 7 5 2
Neighs:        9296.08 ave       10475 max        7773 min
Histogram: 1 0 4 6 11 7 5 6 5 3

Total # of neighbors = 446212
Ave neighs/atom = 111.55300
Neighbor list builds = 904
Dangerous builds = 187

# Equilibrate just above the melting temperature to avoid step fn in T

fix 1 all npt temp 1.25 1.25 0.1 iso 5.68 5.68 0.5 mtk yes tchain 5 pchain 5
run 2000
Per MPI rank memory allocation (min/avg/max) = 3.643 | 3.645 | 3.649 Mbytes
Step Temp E_pair E_mol TotEng Press Volume 
   10000    2.3994287   -5.0098221            0   -1.4115788    5.8423754    4102.6866 
   11000    1.2473186   -6.8538414            0   -4.9833312    5.5750649     3328.773 
   12000    1.2404919   -6.9216476            0    -5.061375    5.6258584    3308.7335 
Loop time of 0.573741 on 48 procs for 2000 steps with 4000 atoms

Performance: 602362.260 tau/day, 3485.893 timesteps/s
99.6% CPU use with 48 MPI tasks x no OpenMP threads

MPI task timing breakdown:
Section |  min time  |  avg time  |  max time  |%varavg| %total
---------------------------------------------------------------
Pair    | 0.25221    | 0.27497    | 0.29865    |   2.0 | 47.93
Neigh   | 0.037404   | 0.03964    | 0.042367   |   0.6 |  6.91
Comm    | 0.18243    | 0.20894    | 0.2352     |   2.6 | 36.42
Output  | 5.1937e-05 | 5.3049e-05 | 6.9706e-05 |   0.0 |  0.01
Modify  | 0.039273   | 0.045382   | 0.051363   |   1.6 |  7.91
Other   |            | 0.004756   |            |       |  0.83

Nlocal:        83.3333 ave          92 max          73 min
Histogram: 1 2 4 6 6 10 7 8 3 1
Nghost:        1865.85 ave        1896 max        1840 min
Histogram: 2 4 7 9 4 8 5 4 4 1
Neighs:        11554.6 ave       12915 max        9998 min
Histogram: 1 0 6 8 6 11 4 5 3 4

Total # of neighbors = 554620
Ave neighs/atom = 138.65500
Neighbor list builds = 142
Dangerous builds = 11

#############################
# L I N E A R  Q U E N C H  #
#############################

# Define solid atoms. This closely follows ten Wolde  Ruiz-Montero and Frenkel  Faraday Discuss  1996  104  93-110
# Compute components of the per-atom q6 vector
compute q6 all orientorder/atom degrees 1 6 components 6 nnn NULL cutoff 1.3 # compute the Q6 parameter.
                                                                             # Use all neighbours within 1.3 unit cell.

# get number of connections
compute coord_number all coord/atom orientorder q6 0.5

# An atom is solid if it has 8 or more connections (of a possible 14)
variable is_solid atom c_coord_number>=8
group solid dynamic all var is_solid    # Must be dynamic to update
dynamic group solid defined

# do clustering
compute cluster solid cluster/atom 1.3 # Create a cluster where all atoms within are solid and max 1.3 units from another member

# define chunks one chunk per cluster
compute clus_chunks solid chunk/atom c_cluster nchunk every compress yes  # Says which atoms are in which chunk

# count the size of each chunk
compute size_chunks solid property/chunk clus_chunks count


# Find the maximum entry in the vector of chunk sizes
variable max_n equal max(c_size_chunks)


# Thermo style which includes this variable
# thermo_style custom step temp pe vol v_max_n

thermo ${N}  # Print the thermo information every 100 steps
thermo 1000  

# Reset the npt fix at a lower temperature (below freezing)
fix 1  all npt temp  ${temp} ${temp}  0.1  iso  5.68  5.68  0.5  mtk yes tchain  5  pchain  5
fix 1  all npt temp  0.45 ${temp}  0.1  iso  5.68  5.68  0.5  mtk yes tchain  5  pchain  5
fix 1  all npt temp  0.45 0.45  0.1  iso  5.68  5.68  0.5  mtk yes tchain  5  pchain  5

dump dmp2 all dcd ${N} traj.dcd
dump dmp2 all dcd 1000 traj.dcd


compute msd all msd com yes
variable twopoint equal c_msd[4]/6/(step*dt+1.0e-6)
fix 9 all vector 10 c_msd[4]
variable fit equal slope(f_9)/6/(10*dt)
thermo_style custom step temp pe c_msd[4] v_twopoint v_fit v_max_n

fix 1 all npt temp 1.25 ${temp} 0.1 iso 5.68 5.68 0.5 mtk yes tchain 5 pchain 5
fix 1 all npt temp 1.25 0.45 0.1 iso 5.68 5.68 0.5 mtk yes tchain 5 pchain 5
run 2000000 # 5000000  # Run for this many steps
Neighbor list info ...
  update every 1 steps, delay 10 steps, check yes
  max neighbors/atom: 2000, page size: 100000
  master list distance cutoff = 3.8
  ghost atom cutoff = 3.8
  binsize = 1.9, bins = 8 8 8
  4 neighbor lists, perpetual/occasional/extra = 1 3 0
  (1) pair lj/cut, perpetual
      attributes: half, newton on
      pair build: half/bin/atomonly/newton
      stencil: half/bin/3d
      bin: standard
  (2) compute orientorder/atom, occasional
      attributes: full, newton on
      pair build: full/bin/atomonly
      stencil: full/bin/3d
      bin: standard
  (3) compute coord/atom, occasional
      attributes: full, newton on
      pair build: full/bin/atomonly
      stencil: full/bin/3d
      bin: standard
  (4) compute cluster/atom, occasional
      attributes: full, newton on
      pair build: full/bin/atomonly
      stencil: full/bin/3d
      bin: standard
Per MPI rank memory allocation (min/avg/max) = 9.811 | 9.816 | 9.820 Mbytes
Step Temp PotEng c_msd[4] v_twopoint v_fit v_max_n 
   12000    1.2404919   -6.9216476 7.5415103e-31 5.2371597e-33 8.3333333e+20            2 
   13000    1.2528498   -6.8660855   0.50585006 0.0032426284   0.04125703            1 
   14000    1.2577139   -6.9342362   0.98107517  0.005839733  0.040286353            3 
   15000    1.2678989   -6.8894906    1.4604754 0.0081137521  0.039775049            2 
   16000    1.2555504   -6.8998931    1.9345038   0.01007554  0.039696904            1 
   17000    1.2553197   -6.9156253    2.4490102  0.012004952  0.040234072            2 
   18000     1.240506   -6.9170387    2.8592774  0.013237395  0.039942695            2 
   19000    1.2510052   -6.9718128    3.3495802  0.014691141   0.03959546            1 
   20000    1.2425109   -6.9090019    3.8582004  0.016075835   0.03965144            1 
   21000    1.2506478   -6.9465676    4.3391581  0.017218881  0.039817886            1 
   22000    1.2517939   -6.9181552    4.7806237  0.018108423  0.039782962            1 
   23000    1.2579852   -6.9524641    5.2476091  0.019013076  0.039714336            2 
   24000    1.2725654   -6.8905123    5.6970808   0.01978153  0.039605384            1 
   25000    1.2544482   -6.8605687    6.1389717  0.020463239  0.039516552            2 
   26000    1.2392575   -6.9242997    6.5091556  0.020862678  0.039309965            2 
   27000    1.2223606   -6.9537042    7.0362681  0.021716876  0.039086265            2 
   28000    1.2585853     -6.92073    7.4955432  0.022308164  0.038948823            1 
   29000    1.2191106   -6.9285171     8.002737   0.02299637  0.038911204            1 
   30000    1.2352595   -6.8836943      8.41706  0.023380722  0.038840464            1 
   31000    1.2278383   -6.9668152    8.8198429  0.023709255  0.038704374            2 
   32000    1.2452204   -6.9088923    9.2575787  0.024108278  0.038575814            2 
   33000    1.2441463   -6.8873457    9.6366158  0.024334888  0.038411037            1 
   34000    1.2123067   -6.9251243    10.095893  0.024744836   0.03824787            1 
   35000    1.2351998   -6.9676825    10.501995   0.02500475  0.038119693            1 
   36000    1.2046441   -6.8989487    11.030878  0.025534439  0.038018093            2 
   37000    1.2439644   -6.9302851    11.514333  0.025933183   0.03797318            1 
   38000    1.2485501   -6.9079506    11.930151   0.02616261  0.037939584            1 
   39000    1.2417997   -6.9321798    12.372601  0.026437181  0.037880828            1 
   40000     1.230553   -6.9005414    12.839869  0.026749727  0.037847713            1 
   41000    1.2518894   -6.9432863    13.200442  0.026830167  0.037788966            1 
   42000    1.2442401   -6.9250349    13.637612  0.027058754  0.037756048            1 
   43000    1.2341361   -6.9241588     14.07551   0.02727812  0.037688569            2 
   44000    1.1896192   -6.9172984    14.495866  0.027454291  0.037630228            2 
   45000    1.2264202   -6.9422513    14.981083  0.027742747  0.037567635            1 
   46000    1.2185317   -6.9867717    15.425635   0.02794499  0.037528708            1 
   47000    1.2246811   -6.9329706    15.860107  0.028120756  0.037492152            2 
   48000    1.2588615   -6.9873378    16.406568  0.028483624  0.037475759            1 
   49000    1.2400313   -6.9323323      16.8482  0.028653401  0.037479928            1 
   50000     1.233464   -6.9207393    17.195089  0.028658482  0.037446681            1 
   51000    1.2370674   -6.9173051    17.613561  0.028780328  0.037409936            2 
   52000    1.2222353    -6.885913    18.088902  0.028988624  0.037389965            2 
   53000    1.2439862   -6.9413056    18.342559  0.028840502  0.037347197            1 
   54000    1.2394403   -6.9240543    18.869755  0.029119992  0.037294356            1 
   55000     1.219062   -6.9417081    19.222387  0.029124829  0.037246682            2 
   56000    1.2205566   -6.9075742    19.614429  0.029188139  0.037186765            2 
   57000    1.2241573   -6.9082876     20.06019  0.029327762  0.037113999            1 
   58000    1.2429859   -6.9503667    20.388751  0.029294182  0.037036635            3 
   59000    1.2334368   -6.9619545    20.877695  0.029488269  0.036973869            1 
   60000    1.2287432   -6.9801719    21.282186  0.029558592  0.036918122            2 
   61000     1.249492   -6.9964896    21.812203  0.029798092  0.036876515            1 
   62000    1.2558259   -6.9317091    22.367972  0.030064478  0.036863705            1 
   63000    1.2183855   -6.9524511    22.939993  0.030343906  0.036863503            1 
   64000    1.2415039   -6.9217502    23.448315  0.030531659  0.036876661            1 
   65000    1.2374915   -6.9217942    23.962446  0.030721085  0.036891551            1 
   66000    1.2137392    -6.938935    24.320157  0.030707269  0.036911172            3 
   67000    1.2502866   -6.9638939    24.805136  0.030852159  0.036931848            1 
   68000    1.1992376   -6.9445408    25.559611  0.031323052  0.036978094            2 
   69000    1.2099447   -7.0165868    25.943731  0.031333008  0.037038044            2 
   70000    1.2100311   -6.9471177    26.593934  0.031659445  0.037107156            1 
   71000    1.2172422   -6.9250509    27.082251  0.031786679  0.037175342            1 
   72000    1.2290591   -6.9320742    27.490145  0.031817298  0.037238235            1 
   73000    1.2185951   -6.9507014    27.816271  0.031753734  0.037288139            1 
   74000     1.229095   -6.9785663    28.045333  0.031582582  0.037311548            2 
   75000    1.2471594    -6.946355    28.645813  0.031828681  0.037327977            1 
   76000     1.236518   -6.9218447    29.133692  0.031944837  0.037352704            2 
   77000    1.2269905   -6.9543288    29.600183   0.03203483  0.037377565            1 
   78000    1.2300991   -6.9678075    30.365239  0.032441495  0.037425736            2 
   79000    1.2366922   -6.9720593    30.780808  0.032469207  0.037479268            2 
   80000    1.2262174   -6.9826646     31.25142  0.032553563  0.037525054            3 
   81000    1.2322028   -6.9897856    31.852073  0.032769622  0.037582492            3 
   82000     1.204065   -6.9781821    32.264218  0.032788839  0.037638905            1 
   83000    1.2207783   -6.9835842    32.831638  0.032963492   0.03769119            1 
   84000    1.2422287   -6.9411088    33.100247  0.032837547  0.037735623            1 
   85000    1.2280897    -6.964667    33.417825  0.032762574  0.037771058            3 
   86000    1.2104128   -6.9659118    33.846515  0.032797011  0.037797567            2 
   87000      1.19472   -6.9221745    34.385538  0.032936339  0.037814136            2 
   88000    1.2093363    -6.945223    34.696736  0.032856757  0.037824541            2 
   89000    1.2297359   -6.9461603    35.024408   0.03279439  0.037822509       -1e+20 
   90000    1.2246144   -6.9957002    35.339278  0.032721553  0.037812124            2 
   91000    1.2241878    -6.966916    35.920348  0.032894091   0.03780395            2 
   92000    1.1898578   -6.9839572    36.428374  0.032996715  0.037803682            1 
   93000    1.2127494   -6.9484924    36.810637  0.032984442  0.037801028            2 
   94000    1.1966632   -6.9782301    37.321198  0.033086168  0.037799414            2 
   95000    1.2231634   -6.9729589    37.635083  0.033013231  0.037796694            2 
   96000    1.2037932   -6.9963869    37.908701  0.032906858  0.037785019            2 
   97000    1.2366787   -6.9339518    38.441125  0.033025021  0.037772589            1 
   98000    1.1953362   -6.9898139    38.840362  0.033027519  0.037762946            2 
   99000    1.2206719   -6.9826309    39.542086  0.033284584  0.037761032            2 
  100000     1.184145   -6.9155412    39.938998  0.033282498  0.037762305            1 
  101000     1.195548   -6.9606924     40.36529  0.033304694  0.037764292            1 
  102000    1.2136661   -6.9719266    40.735641  0.033280752  0.037758035            1 
  103000    1.1976984   -6.9557547    41.488258  0.033566551  0.037759611            1 
  104000    1.2017119    -6.986072    41.904891  0.033577636  0.037770651            2 
  105000    1.2037768    -6.957073    42.472932  0.033708676  0.037781574            2 
  106000    1.2163269   -6.9906612    43.023755  0.033823707  0.037791166            1 
  107000     1.223752   -7.0033079    43.177754  0.033627534  0.037800216            1 
  108000     1.226759   -7.0014927    43.589574  0.033633931  0.037805668            1 
  109000    1.1824083   -6.9789773    43.881133  0.033548267  0.037801487            2 
  110000    1.2195333     -6.99171    44.276389  0.033542719  0.037793534            1 
  111000    1.2123073   -7.0224621    45.017745  0.033797106  0.037787633            1 
  112000    1.2174412    -6.993174    45.287293  0.033695903  0.037787462            1 
  113000    1.2163289   -6.9422751    45.946175   0.03388361  0.037783077            2 
  114000    1.2082263   -6.9451937     46.36386   0.03389171  0.037784158            1 
  115000    1.2057815    -6.969492    46.678193  0.033824777   0.03778052            2 
  116000    1.2057365     -6.97556    47.003079   0.03376658   0.03777165            3 
  117000    1.1959265   -7.0151369    47.337486  0.033716158   0.03775813            1 
  118000    1.1989675    -6.988339    47.846718  0.033790055  0.037746948            1 
  119000    1.2061057    -6.973627     48.42542  0.033911358  0.037736807            5 
  120000    1.2109413   -7.0330502    48.825623  0.033906682  0.037730468            2 
  121000    1.2119795   -6.9913883    49.281742  0.033940594  0.037719787            1 
  122000    1.2160696   -6.9914744    49.666521  0.033925219  0.037709376            2 
  123000    1.2264174   -6.9868075    50.302183  0.034080069  0.037700094            1 
  124000    1.2111349    -6.975727    50.564492  0.033981513  0.037694008            2 
  125000    1.2305411   -6.9737133     50.96588  0.033977253  0.037685276            1 
  126000    1.2093014   -6.9904051     51.25162  0.033896574  0.037669537            2 
  127000    1.2094409   -7.0234193    51.752528  0.033958352  0.037654836            1 
  128000    1.2080794    -7.004826    52.049866  0.033886631  0.037638924            2 
  129000    1.2023819   -7.0456312    52.314922  0.033795169  0.037618703            1 
  130000    1.1869372   -7.0030491    52.807014   0.03385065  0.037599402            1 
  131000    1.1837372   -6.9975213     53.55177  0.034066011  0.037583537            2 
  132000    1.2175332   -6.9768201    53.787855  0.033956979  0.037564608            2 
  133000    1.1933838   -6.9954932    54.264913  0.034000572  0.037546701            1 
  134000    1.1904951   -6.9704576    54.746716  0.034046465  0.037529587            3 
  135000    1.1954293    -6.999283    55.304891  0.034138821  0.037519169            2 
  136000    1.2287204   -7.0110763     55.63817  0.034092016  0.037509479            2 
  137000    1.1883473   -7.0079799    55.863422  0.033980183  0.037494449            1 
  138000    1.2192119   -6.9739209     56.39423  0.034054487  0.037477555            1 
  139000    1.1954388   -6.9863779    56.975822  0.034158167  0.037460611            1 
  140000    1.1750907   -7.0157035    57.043393    0.0339544  0.037441275            1 
  141000    1.1810853   -6.9953631    57.581538  0.034031642  0.037419836       -1e+20 
  142000    1.1866313   -7.0617568    57.768352  0.033901615  0.037398681            2 
  143000    1.1911754   -7.0314791    57.962388  0.033777615  0.037372821            2 
  144000    1.1969254    -7.004144    58.742413  0.033994452  0.037347949            1 
  145000    1.2154413   -7.0214446    59.296217  0.034078285  0.037330112            1 
  146000    1.2012179   -7.0088245    59.848892  0.034160327  0.037312404            1 
  147000    1.1907182   -7.0509156    59.982903  0.034003913  0.037296058            1 
  148000     1.197228   -6.9992938    60.625701  0.034136093  0.037280648            2 
  149000    1.2113614   -6.9987917    61.085822   0.03416433  0.037264995            1 
  150000    1.1828368   -7.0164481    61.056539    0.0339203   0.03724491            2 
  151000    1.1957754   -7.0085624    61.817134  0.034115416  0.037225723            2 
  152000    1.1883569   -7.0290387    62.078291   0.03403415  0.037210194            4 
  153000    1.2109795   -7.0419429    62.750584  0.034177878  0.037195373            2 
  154000    1.2080073    -7.015326    63.234845  0.034217989  0.037183281            5 
  155000    1.1789382   -7.0503132    63.772087  0.034286068  0.037173299            2 
  156000    1.1926795    -7.021677    64.317101  0.034357426  0.037164492            1 
  157000    1.1872139   -7.0003257    64.532636  0.034252992  0.037152105            1 
  158000     1.171021   -6.9751753    65.264755  0.034422339  0.037139386            3 
  159000    1.1961659   -7.0207114    65.327634  0.034238802  0.037125233            1 
  160000    1.1913113   -7.0735559    65.641189  0.034188119  0.037107769            2 
  161000    1.2006481   -7.0210126    65.986726   0.03415462   0.03709214            1 
  162000    1.1942141   -7.0191514    66.618102  0.034268571  0.037075084            1 
  163000    1.1710629   -7.0280585    66.993349  0.034250179  0.037058235            1 
  164000    1.2054201   -7.0279407    67.253249  0.034173399  0.037045571            1 
  165000    1.1835285    -7.061458     68.14856  0.034418464  0.037035627            2 
  166000    1.1931331   -7.0423325    68.603985  0.034439752  0.037027701            1 
  167000    1.2237911   -7.0236988    68.608763   0.03423591  0.037018085            1 
  168000    1.1986903   -7.0400986    69.310498  0.034380207  0.037008625            3 
  169000    1.1897271    -7.043998    69.814563  0.034425327  0.036997513            2 
  170000    1.1877646   -7.0275503    69.642163  0.034138315  0.036982066            2 
  171000    1.2024765    -7.004451    70.271058  0.034245155  0.036963804            3 
  172000    1.1963031   -7.0204065    70.407447  0.034112135  0.036944466            1 
  173000    1.1855763   -7.0471738    71.018089  0.034209099   0.03692265            1 
  174000    1.2077963   -7.0058531    71.365938  0.034179089  0.036905222            2 
  175000    1.1745784   -7.0587833    71.880312   0.03422872  0.036887578            2 
  176000    1.1932727   -7.0449252    72.085288  0.034131292  0.036871483            1 
  177000    1.1533561    -7.065173    72.740853  0.034247106  0.036854891            1 
  178000    1.1990785   -7.0363102    73.056742  0.034202594  0.036836404            3 
  179000    1.1768974   -7.0271775    73.264416  0.034108201  0.036817223            1 
  180000    1.1705851   -7.0346623    73.732651  0.034135486  0.036797173            1 
  181000    1.1772559   -7.0197933    74.285109  0.034201247  0.036776621            1 
  182000    1.1730439   -7.0565902    74.266812  0.034004951  0.036756929            1 
  183000    1.1914784   -7.0855234    74.696503  0.034014801  0.036736025            1 
  184000    1.1754803   -7.0715875    74.673075  0.033819327  0.036710713            1 
  185000    1.1971182   -7.0460775    75.384876  0.033957151  0.036686346            2 
  186000    1.1676133   -7.0792672    75.730665  0.033929509   0.03666093            1 
  187000     1.198771    -7.037641    76.014548  0.033874576  0.036634691            1 
  188000    1.2199535   -7.0624722    76.492026   0.03390604  0.036609097            2 
  189000    1.1776537   -7.0659315    77.048948  0.033972199  0.036585621            3 
  190000    1.1810712   -7.0404033    77.203903  0.033861361   0.03656176            1 
  191000    1.1834216   -7.0546449     77.56989  0.033843756  0.036536045            2 
  192000    1.1874551   -7.0612912    78.164044  0.033925366  0.036511919            3 
  193000    1.2030928   -7.0749391     78.58609  0.033931818  0.036488466            2 
  194000     1.174067   -7.0917065    78.814603   0.03385507  0.036463892            2 
  195000    1.1896685   -7.0745957    79.587076  0.034011571  0.036439379            1 
  196000    1.1741733   -7.0727366    80.099458  0.034055892  0.036420026            1 
  197000    1.1642903   -7.0632278    80.564482   0.03407973  0.036402597            2 
  198000     1.162972   -7.0754275    80.768049  0.033993287  0.036385828            3 
  199000    1.1551262   -7.0533202    81.244058    0.0340218  0.036369609            1 
  200000    1.1588916   -7.0382259    81.887715  0.034119881  0.036355474            3 
  201000    1.1783609   -7.0649661    82.503548  0.034205451  0.036342096            1 
  202000     1.195154    -7.058075    82.567183  0.034062369  0.036327691            1 
  203000    1.1526964   -7.0751069    82.802128  0.033991021  0.036311396       -1e+20 
  204000    1.1786184   -7.1220922    82.902947  0.033865583   0.03629281            3 
  205000    1.1565225     -7.08639     83.66057  0.034008362  0.036270841            1 
  206000    1.1723888   -7.0388188    84.120375  0.034029278  0.036251646            1 
  207000    1.1765626   -7.0853384    84.354717  0.033959226  0.036231719            2 
  208000    1.1880236   -7.0562419    84.825202  0.033984456    0.0362118            1 
  209000    1.1585344    -7.051128    85.199659  0.033971156  0.036194582            2 
  210000    1.1577203   -7.0494311       85.585  0.033962302  0.036173768            3 
  211000    1.1628938   -7.0804439    86.020626  0.033973391  0.036155387            1 
  212000    1.1770297   -7.0599311    86.116983  0.033851015  0.036134172            2 
  213000    1.1834706   -7.0569692    86.664568  0.033906325  0.036113415            2 
  214000    1.1716078   -7.0433052    87.024142  0.033887906  0.036095668            2 
  215000    1.1539796   -7.0943521    87.500422  0.033914892  0.036076044            2 
  216000    1.1835208   -7.0928299    87.774427  0.033863591  0.036056831            1 
  217000    1.1474017   -7.0939049    88.070823   0.03382136  0.036038719            1 
  218000    1.1655316   -7.0839892    88.640757  0.033884081  0.036019576            1 
  219000    1.1452162   -7.1034125    88.881455  0.033820949  0.036002031            1 
  220000    1.1648711   -7.0823254    89.353095  0.033845869  0.035984389            2 
  221000    1.1610504    -7.107929    89.506406   0.03375053  0.035966734            1 
  222000    1.1664851   -7.0637847    89.861282  0.033731712  0.035947063            3 
  223000    1.1698643   -7.0288074    90.847409  0.033948957  0.035927837            1 
  224000    1.1860991   -7.0899039    90.761588  0.033765472  0.035907523            2 
  225000    1.1541888   -7.1020943    91.014685  0.033709142  0.035886735            1 
  226000    1.1447701   -7.0829223    91.503505   0.03374023  0.035865433            1 
  227000    1.1544155   -7.0574655    91.983072  0.033767647  0.035845453            3 
  228000     1.164206   -7.0342051    92.396255  0.033770561  0.035825933            1 
  229000    1.1529914   -7.0970295    92.513916  0.033665908  0.035805356            2 
  230000    1.1470656   -7.1127876    92.848102  0.033640617  0.035782726            1 
  231000    1.1693724   -7.0956368    93.221838  0.033629812  0.035760063            2 
  232000    1.1498836   -7.0678019    93.841792   0.03370754   0.03573775            1 
  233000    1.1651732   -7.0607369    94.357804  0.033747426  0.035715367            1 
  234000    1.1730949   -7.0460272    94.789847  0.033757068  0.035693638            2 
  235000     1.151745   -7.0891145    94.956077  0.033672368  0.035672753            2 
  236000    1.1676249    -7.099406    95.314036  0.033656086  0.035651206            1 
  237000    1.1681832   -7.0607123    95.544355  0.033595061  0.035629543            1 
  238000    1.1642576   -7.1093437    95.950518   0.03359612  0.035608354            3 
  239000    1.1380861   -7.0777791    96.103903  0.033509032  0.035585646            1 
  240000     1.167139   -7.0691794    96.622826  0.033549592  0.035562623            1 
  241000    1.1659223   -7.0711187     96.41642  0.033339011  0.035538618            2 
  242000    1.1501208   -7.0960435    96.853388  0.033351718   0.03551192            1 
  243000    1.1649375   -7.0888299    97.297595  0.033366802  0.035486414            1 
  244000    1.1419283   -7.1295218    97.505427  0.033301034  0.035459404            2 
  245000    1.1394631   -7.1425744    97.882319  0.033293306  0.035433005            1 
  246000    1.1849077    -7.101653    98.194785  0.033263816  0.035406276            2 
  247000    1.1453339   -7.1202485    98.641458  0.033279844  0.035380831            1 
  248000    1.1490476   -7.1039082    99.449225  0.033417078  0.035355563            1 
  249000    1.1546924   -7.1343152    99.604931  0.033334983  0.035330931            2 
  250000     1.143036   -7.0940329    99.977472  0.033325824  0.035307268            1 
  251000    1.1662164   -7.1767425    99.896856  0.033166287    0.0352825            3 
  252000    1.1554951   -7.1331747     100.2606   0.03315496  0.035255505            2 
  253000    1.1400721   -7.0931384    100.87947  0.033227756  0.035229815            1 
  254000    1.1715642     -7.08349    101.32582  0.033243378  0.035205094            3 
  255000    1.1487363   -7.1254814    101.42691  0.033146047  0.035180499            2 
  256000    1.1436978   -7.0726472    102.35411  0.033318396  0.035156778            2 
  257000    1.1661122   -7.1107352    102.07413  0.033097968  0.035132497            1 
  258000    1.1447386   -7.1089717    102.99672  0.033267675  0.035108233            2 
  259000    1.1484806   -7.1022332    103.52579  0.033309455  0.035084959            2 
  260000    1.1672813   -7.1617787    103.40678  0.033143197  0.035061499            2 
  261000    1.1312632   -7.1023396    104.17074  0.033260133  0.035037579            1 
  262000    1.1563353   -7.1138338    104.18087  0.033136411  0.035014631            1 
  263000    1.1677104   -7.1253818     105.1443  0.033315684  0.034992881            3 
  264000    1.1609445   -7.0907621    105.37774  0.033263176  0.034971692            2 
  265000    1.1506278    -7.059883    105.88791  0.033298085  0.034952491            2 
  266000    1.1473972   -7.1476108    105.88835  0.033173042  0.034932664            1 
  267000    1.1188694   -7.1383543    106.11134  0.033118395  0.034910672            1 
  268000    1.1622117   -7.1217299    106.52397  0.033123124  0.034888873            1 
  269000    1.1462933   -7.1115345    106.80753  0.033087833  0.034867546            3 
  270000    1.1323268   -7.1105296    107.50796  0.033181468  0.034846964            1 
  271000    1.1652294   -7.1173297    107.27589  0.032987665  0.034824423            1 
  272000    1.1668562   -7.1065123    107.84253   0.03303999  0.034802109            1 
  273000    1.1558753   -7.1144232    108.39009  0.033086109  0.034779476            1 
  274000    1.1334353   -7.1377791     108.6509  0.033044677  0.034756936            1 
  275000    1.1436882   -7.1673001    108.71917  0.032945204  0.034734632            2 
  276000    1.1310692   -7.1326602    109.13076  0.032950108  0.034711881            3 
  277000    1.1548718   -7.1037759    109.72754  0.033010693  0.034689203            1 
  278000    1.1518971   -7.1457186    110.22153  0.033040027  0.034667357            2 
  279000    1.1567636   -7.1198999    110.42434  0.032982181  0.034645686            1 
  280000    1.1433396   -7.1274738    110.25662  0.032814471  0.034622819            2 
  281000    1.1318741   -7.1720371    110.89619  0.032887363  0.034598963            2 
  282000    1.1111271   -7.1476003    111.18534  0.032856188  0.034575202            3 
  283000    1.1335179   -7.1554507      111.477  0.032825971   0.03455253            1 
  284000    1.1320342   -7.1617541    111.70368  0.032776901  0.034528682            2 
  285000    1.1204719   -7.1399469    112.10069  0.032777978  0.034505349            2 
  286000    1.1226024   -7.1150385    113.03059  0.032934321  0.034483353            1 
  287000    1.1849258   -7.1166597    113.02828  0.032818897   0.03446112            1 
  288000    1.1302648   -7.1406932    113.20059  0.032754799  0.034437899            2 
  289000    1.1486716   -7.1420753    113.66806  0.032776258  0.034414716            2 
  290000    1.1482517     -7.14308    114.11554  0.032791822  0.034392542            1 
  291000    1.1539121   -7.1489224    114.78499  0.032870844  0.034371143            2 
  292000    1.1200322   -7.1094377    115.34437  0.032917913  0.034352023            2 
  293000    1.1343564   -7.1357151    115.58544  0.032874129  0.034333023            4 
  294000    1.1216069   -7.1876706    115.43295  0.032719089  0.034312513            2 
  295000    1.1470972   -7.1503782    115.99242  0.032766221  0.034291898            2 
  296000    1.1376384   -7.1547504    116.52851  0.032806451  0.034271823            2 
  297000    1.1210419   -7.1590893    116.50441  0.032689228  0.034250528            2 
  298000    1.1141803   -7.1649226    117.28929  0.032799018  0.034230491            1 
  299000    1.1425683   -7.1598101    117.85943  0.032848225  0.034211407            1 
  300000    1.1268831   -7.1701104    118.20847  0.032835685  0.034193649            3 
  301000    1.1361898   -7.1399787     118.5701  0.032826717  0.034175112            1 
  302000    1.1282301   -7.1436777    118.80063   0.03278163  0.034156135            1 
  303000    1.1574779   -7.1543006    118.89359  0.032699007  0.034136478            2 
  304000    1.1401728   -7.1639124    119.15189   0.03266225  0.034116878            2 
  305000     1.128667   -7.1875499     120.1306  0.032822569   0.03409839            2 
  306000    1.1425008    -7.134326    119.68033  0.032592683  0.034079463            1 
  307000    1.1345972   -7.2347044    119.88077  0.032540925  0.034058496            2 
  308000    1.1289059   -7.1543414     120.8664  0.032701948  0.034037659            2 
  309000    1.1161661   -7.1723443    120.47949  0.032491772  0.034017989            1 
  310000    1.1473331   -7.1760602    121.04044  0.032537754  0.033996048            1 
  311000    1.1117825   -7.1781238    121.29206  0.032500553  0.033974132            1 
  312000    1.1330257   -7.1506697    121.51149  0.032454991  0.033953512            2 
  313000    1.1490469   -7.1646707     122.1139  0.032511689  0.033932394            1 
  314000    1.1227771    -7.166728    122.43505  0.032493378  0.033912114            2 
  315000    1.1408525   -7.1584729    122.93591  0.032522727  0.033891544            2 
  316000    1.1072162   -7.1533858    123.44578  0.032554267   0.03387193            2 
  317000    1.1344676   -7.1856263    122.98605  0.032330718  0.033851198            1 
  318000    1.1526251   -7.1628439     123.4773  0.032357784  0.033829418            2 
  319000    1.1411178    -7.153441    124.14849  0.032431685  0.033807185            1 
  320000    1.1265725   -7.2237995    123.75011  0.032226592  0.033784186            2 
  321000    1.1250573   -7.1524943    124.09981  0.032216982  0.033760102            2 
  322000    1.1226943   -7.1689122    124.17944  0.032137537  0.033735092            2 
  323000    1.1253174   -7.2102495    124.43432  0.032103799  0.033710326            2 
  324000    1.1268829   -7.2064208    124.27121   0.03196276  0.033683426            2 
  325000     1.119748   -7.2039129    124.55537  0.031937274  0.033656191            1 
  326000    1.1315478   -7.2169572    125.16645  0.031995513  0.033628178            2 
  327000    1.1403154   -7.1549792    125.53923  0.031992669  0.033601411            1 
  328000    1.1210281   -7.1918766    125.30854  0.031836519  0.033575231            1 
  329000    1.1183118   -7.1561076    125.84304  0.031875137  0.033547483            3 
  330000    1.1355209   -7.1818302    126.17045  0.031861224  0.033519388            2 
  331000    1.1252155    -7.194049    125.69239  0.031644609  0.033490458            1 
  332000    1.1126415   -7.1509336    126.32744  0.031708696  0.033459858            2 
  333000    1.1178016    -7.189347      126.251  0.031594343  0.033429944            2 
  334000     1.109029   -7.2229483    126.46265  0.031552558  0.033399341            2 
  335000    1.1272021   -7.1761308    126.87421  0.031560749  0.033368552            2 
  336000    1.1344333   -7.2159053    127.29106  0.031570202  0.033338519            2 
  337000    1.1272059   -7.2138789    127.66005  0.031567766  0.033308452            2 
  338000    1.1222671   -7.1740041    128.12514  0.031589038  0.033279245            2 
  339000    1.1146708   -7.1701236    128.52876  0.031595074  0.033250138            1 
  340000    1.1319585   -7.1442653     129.1316  0.031649901  0.033220737            4 
  341000    1.1439102   -7.1685905    129.00129  0.031525241  0.033191939            4 
  342000    1.1369775   -7.1868124      128.982  0.031428361  0.033162382            3 
  343000    1.1256919   -7.2094727     129.3258  0.031420261  0.033132456            1 
  344000    1.1423223   -7.1910856    129.72951  0.031426723  0.033102742            6 
  345000    1.1081547   -7.1847331    129.83375  0.031360808  0.033072574            2 
  346000     1.127347   -7.1931888    129.96739  0.031302357  0.033042602            2 
  347000    1.1055762   -7.1931161    130.41512  0.031319672  0.033013286            2 
  348000    1.0848178   -7.2013034    130.67769  0.031292551  0.032983177            3 
  349000    1.1265545   -7.1824156    131.35123  0.031363713  0.032953721            2 
  350000    1.1109767   -7.1773632    131.37705  0.031280251  0.032924995            1 
  351000    1.1153409   -7.1807227     132.1391  0.031372055  0.032896289            1 
  352000    1.1120064   -7.2118003    132.27615  0.031315375  0.032867485            2 
  353000     1.117701   -7.2251238    131.68958  0.031088192  0.032837746            1 
  354000    1.0918237   -7.1975272    132.35118  0.031156115  0.032807438            3 
  355000       1.1438    -7.207241    133.01378  0.031223891  0.032777724            1 
  356000    1.1007986   -7.1882706    132.84099  0.031095738  0.032747909            2 
  357000    1.1222655   -7.1375859    134.01439  0.031282537  0.032719295            3 
  358000    1.1037502   -7.2108987    133.70787  0.031123806   0.03269138            2 
  359000    1.1286911   -7.1896484    134.33395   0.03118244  0.032663772            1 
  360000    1.1279825   -7.1858981    134.64758  0.031168422  0.032636333            1 
  361000     1.124074   -7.2110792    134.78385  0.031113538  0.032608696            3 
  362000    1.1071522   -7.1741696    135.35318  0.031158651  0.032580886            1 
  363000    1.1283771    -7.189985    135.85773  0.031188644  0.032553683            1 
  364000    1.0922711   -7.1857947    136.27345  0.031198134  0.032528059            1 
  365000    1.1121988   -7.2439098    136.37117  0.031134969  0.032502663            1 
  366000    1.1046553   -7.1914967    137.31528  0.031264863  0.032477746            2 
  367000    1.1059029   -7.1640276    137.43289  0.031206378  0.032453283            1 
  368000    1.0900553   -7.1950503    137.18756  0.031066024  0.032428195            1 
  369000    1.1062705    -7.191621    137.63908  0.031083803  0.032403236            2 
  370000    1.0856533   -7.2383538    138.05739  0.031094008  0.032377869            2 
  371000    1.1109294   -7.2470985    138.40602  0.031088505  0.032353437            2 
  372000    1.1141517   -7.2261442    138.90034  0.031115668  0.032330152            2 
  373000    1.1051583   -7.2123479    139.19275  0.031097575  0.032306946            3 
  374000    1.1217929   -7.1990586     139.9521  0.031183624  0.032284261            1 
  375000    1.0892262   -7.2712258    139.47128  0.030993618  0.032260028            3 
  376000    1.1230822   -7.2048799    140.38616  0.031113953  0.032236724            2 
  377000    1.1196231   -7.2296567    141.36093   0.03124689  0.032214291            1 
  378000    1.1193234   -7.1843131    141.18503  0.031125448  0.032191798            1 
  379000    1.1212167   -7.2530614    141.21018  0.031048851  0.032169358            1 
  380000    1.1003743   -7.2475754    141.85111    0.0311077  0.032146573            1 
  381000    1.0904019   -7.1777369    141.97773  0.031053746  0.032124607            1 
  382000    1.1184624   -7.1610065    142.77421  0.031146207  0.032103159            2 
  383000    1.1012935   -7.1966522    143.17729  0.031152586  0.032082263            2 
  384000    1.0784796   -7.1930644    143.41514  0.031123076  0.032062643            1 
  385000    1.1109491   -7.2244607    143.81426  0.031128628  0.032043497            1 
  386000    1.1010705    -7.263744    144.35098  0.031163856  0.032024363            1 
  387000     1.097559   -7.1863077    144.71537  0.031161794  0.032005726            4 
  388000    1.0946758   -7.2408456    145.09824  0.031163712  0.031987312            1 
  389000    1.0864362   -7.2040331    145.24836  0.031115758  0.031968947            1 
  390000    1.0895708   -7.2269623    145.65942  0.031123807  0.031950571            1 
  391000    1.0793994    -7.223212    146.23513  0.031166908  0.031932184            2 
  392000    1.0632098    -7.220167    146.88312  0.031225152  0.031914663            1 
  393000    1.0660611   -7.2331855    147.19625  0.031212097  0.031898371            2 
  394000    1.0770812   -7.2107639    147.36595  0.031168771  0.031882375            2 
  395000    1.1105475   -7.2594227    147.87103  0.031196421  0.031866111            2 
  396000    1.0996805   -7.2275797     148.2279   0.03119274  0.031850402            3 
  397000    1.0819964   -7.2411766    148.55864  0.031183594  0.031833816            1 
  398000    1.1080752   -7.2249863    148.55514  0.031104511  0.031817858            2 
  399000    1.0942273   -7.2453702    149.35773  0.031194179  0.031801764            2 
  400000    1.1230725    -7.217095    149.77418  0.031202954  0.031786492            1 
  401000    1.1098486   -7.2275116    149.54331  0.031077163  0.031771368            2 
  402000    1.1021792   -7.2963596    149.85893  0.031065284  0.031755964            2 
  403000    1.0684107   -7.2750209    150.37133  0.031094154  0.031740011            1 
  404000    1.1001588    -7.225637    151.25229  0.031198904  0.031724772            2 
  405000    1.1048204   -7.2395118    151.16988  0.031104914  0.031709734            2 
  406000    1.0891825   -7.2657809    150.95085  0.030983344  0.031693557            1 
  407000    1.0915426   -7.2497922    151.03137  0.030923704  0.031676398            2 
  408000     1.081356   -7.2681456    150.96774  0.030834914  0.031659007            2 
  409000    1.0905353   -7.2649716     151.2037    0.0308076  0.031640872            1 
  410000    1.1012038   -7.2540262    151.45898  0.030784345  0.031622551            1 
  411000    1.0906424   -7.2466336    152.30189   0.03088035  0.031604766            1 
  412000    1.1138918    -7.282272    152.69388  0.030884685  0.031587501            1 
  413000    1.0952037   -7.2031444    153.34592  0.030941469  0.031571225            2 
  414000    1.0896234   -7.2785287    153.56242   0.03091031  0.031555563            1 
  415000     1.092418   -7.2617816    153.91685  0.030906997   0.03153957            3 
  416000    1.0990857    -7.255511    154.46856  0.030943221  0.031523899            1 
  417000    1.0796258   -7.2614765    154.59231  0.030893746   0.03150805            2 
  418000    1.0757273   -7.2345956    155.11447  0.030923938  0.031492587            1 
  419000    1.0990068   -7.2641961    155.49012  0.030924846  0.031477588            2 
  420000     1.078443   -7.2327698    155.43052  0.030839389  0.031462637            1 
  421000    1.1061859   -7.2244592    156.37253  0.030952599  0.031447825            2 
  422000    1.0975399   -7.2780746     156.3624  0.030877252  0.031432668            1 
  423000    1.0954712    -7.233955    156.72813  0.030876306  0.031417704            3 
  424000      1.08875   -7.2735613    156.77953  0.030813587  0.031402963            2 
  425000    1.0494348   -7.2487121    157.72397  0.030926268  0.031388331            1 
  426000     1.093826   -7.2306784    157.82999  0.030874411   0.03137334            1 
  427000    1.0989918   -7.2874848    158.16307  0.030867109  0.031358334            1 
  428000     1.075696   -7.2571207    158.00662   0.03076453  0.031343342            2 
  429000    1.1041154   -7.2198694    159.03195  0.030891987  0.031328572            2 
  430000    1.0777426   -7.2536561    158.68875  0.030753634  0.031313672            1 
  431000    1.0949012   -7.2582142    159.78753  0.030894728   0.03129926            1 
  432000    1.0634434   -7.2781525    159.82148   0.03082976  0.031284383            1 
  433000    1.0752536   -7.2556488    160.13838   0.03081955  0.031269722            1 
  434000    1.0678688   -7.2653349    159.97534  0.030717231  0.031255468            1 
  435000    1.0852591   -7.2742612    159.72188   0.03059806  0.031240251            2 
  436000    1.0713823   -7.2508738    160.32168  0.030642524  0.031223974            1 
  437000    1.0703735   -7.2955833    160.43287  0.030593606  0.031208279            1 
  438000    1.0822395   -7.2231096    161.41059  0.030709777  0.031192726            1 
  439000    1.0665446   -7.2811435     161.8757  0.030728113  0.031177608            2 
  440000    1.1021588   -7.3165461    161.45533  0.030578662  0.031162623            1 
  441000    1.0782732    -7.275278    162.37603  0.030683301  0.031147069            1 
  442000    1.1046335   -7.2671443    162.87194  0.030707378   0.03113201            1 
  443000    1.0603017   -7.2621366    162.28202  0.030527091  0.031117056            1 
  444000    1.0784766   -7.2975073    162.68573  0.030534108  0.031101334            1 
  445000    1.1283639   -7.2355758    163.03633  0.030531147  0.031085384            2 
  446000    1.0751385   -7.2997338    163.00507  0.030456852  0.031069918            1 
  447000     1.068459   -7.2691363    163.56132  0.030492415  0.031054226            3 
  448000    1.0994531   -7.2691926    163.39369  0.030393171  0.031037341            1 
  449000    1.0488477   -7.3005769    164.05834  0.030448839  0.031021023            1 
  450000    1.0577135   -7.2704103    164.82089  0.030522388  0.031004656            2 
  451000    1.0866577   -7.2974451    164.22006  0.030343691  0.030988318            2 
  452000    1.0495666   -7.2962888    164.76918  0.030377798  0.030971469            2 
  453000    1.0877487   -7.3119457    164.78099  0.030312913   0.03095464            1 
  454000     1.068978   -7.3170704    164.94873  0.030276933  0.030937367            3 
  455000    1.0664464   -7.2982201    165.78629   0.03036379  0.030920437            3 
  456000    1.0546383   -7.2658228     165.8902  0.030316191  0.030904116            3 
  457000    1.0883752   -7.2636007    166.09008  0.030286301  0.030887787            1 
  458000    1.0938911   -7.2873823    166.52913   0.03030006   0.03087114            1 
  459000    1.0680995   -7.3051754    166.67129  0.030259856  0.030854041            2 
  460000    1.0737172    -7.273348    166.65907  0.030191861  0.030836708            3 
  461000     1.074342   -7.3044473    166.93333  0.030175946   0.03081936            1 
  462000    1.0904928   -7.3025692    166.90014  0.030104643  0.030802041            3 
  463000    1.0804606   -7.2940356    166.99461  0.030056626  0.030784101            1 
  464000    1.0703016   -7.2905093    167.37548  0.030060252  0.030765917            2 
  465000    1.0859564   -7.2930853    167.75888  0.030064316   0.03074783            2 
  466000      1.05709   -7.2729326    167.80939  0.030008832  0.030729411            1 
  467000    1.0510353    -7.306688    168.69636  0.030102847  0.030711004            1 
  468000    1.0383293   -7.3075219    168.25941  0.029960721  0.030692415            1 
  469000    1.0348196   -7.2990361    168.57614  0.029953117   0.03067385            1 
  470000    1.0798961   -7.2894165    168.81626  0.029931961  0.030655406            2 
  471000    1.0669961   -7.2970749    169.14053  0.029925784  0.030637243            2 
  472000    1.0457558   -7.2573311    169.43993  0.029915242  0.030618714            3 
  473000    1.0800799   -7.3034696    169.51865  0.029865866  0.030599717            2 
  474000    1.0723688   -7.3087817    168.99475  0.029710751  0.030580588            1 
  475000    1.0733514   -7.3265856     169.8199  0.029792965  0.030561589            2 
  476000     1.051774   -7.2966462    170.28783  0.029812295  0.030542419            1 
  477000    1.0671287   -7.3082175    170.67935  0.029818195  0.030522721            1 
  478000    1.0422024   -7.3169674    170.30325  0.029690246  0.030503014            2 
  479000    1.0805977   -7.2917038    170.94519  0.029739942  0.030483211            1 
  480000    1.0419716   -7.2968643    170.82291  0.029656754  0.030463064            1 
  481000    1.0496668   -7.2939858    171.68885  0.029745123  0.030443504            1 
  482000    1.0502706    -7.316592    171.65483  0.029677529  0.030423533            3 
  483000    1.0687269    -7.312353    172.37521  0.029740375   0.03040405            1 
  484000    1.0932923   -7.2957357     171.6813  0.029559452  0.030384406            2 
  485000    1.0628717    -7.312162    171.81423  0.029521346  0.030364494            1 
  486000    1.0392066   -7.3490437     171.4581  0.029399537  0.030343394            2 
  487000    1.0412591   -7.3497862    171.68511  0.029378013  0.030322318            2 
  488000    1.0811045   -7.3172718    172.55915  0.029467068  0.030301417            2 
  489000    1.0564136   -7.3386001    172.24282  0.029352901  0.030280789            2 
  490000    1.0654249   -7.3316424     173.0194  0.029425068  0.030260122            2 
  491000    1.0534401   -7.3081446    173.02555  0.029366182   0.03023951            2 
  492000     1.042429    -7.301592    173.41413  0.029372312  0.030218627            1 
  493000    1.0671774   -7.3232999    174.20553  0.029446506   0.03019826            1 
  494000    1.0663064   -7.3309195     173.8987  0.029335138  0.030178115            2 
  495000    1.0482503   -7.3551803    173.33009  0.029180151  0.030157185            2 
  496000    1.0614518   -7.3177969    174.38551  0.029298641  0.030135884            4 
  497000    1.0894532    -7.328314     174.3549  0.029234557   0.03011457            1 
  498000    1.0560289   -7.3273842    174.58875  0.029214985  0.030093644            3 
  499000    1.0644233   -7.3358994    174.86303  0.029202243  0.030072502            1 
  500000    1.0207704   -7.3279422    175.00129  0.029166882  0.030051187            1 
  501000    1.0415781   -7.3544132    175.26067  0.029151809  0.030029398            2 
  502000    1.0447361   -7.3234565    175.53379  0.029139075  0.030007502            1 
  503000    1.0413803   -7.3187379    175.43926  0.029065484  0.029986394            4 
  504000    1.0355878   -7.3684102    176.10027  0.029117109  0.029965396            2 
  505000    1.0784343   -7.3219839    176.34871  0.029100447  0.029944397            2 
  506000    1.0629473   -7.3556177    176.52406  0.029071814    0.0299234            1 
  507000    1.0633508   -7.3438886    177.48334  0.029172146  0.029902498            2 
  508000    1.0531685   -7.3331656    177.47717   0.02911371  0.029881613            5 
  509000    1.0391706   -7.3627514     177.0901   0.02899314  0.029860962            1 
  510000    1.0422234   -7.3379983    177.59077  0.029018099  0.029840553            4 
  511000    1.0447257   -7.3994289    177.90357  0.029012323  0.029820299            2 
  512000    1.0898262   -7.3797774    178.37019  0.029031606  0.029799487            1 
  513000    1.0556726   -7.3524687    178.01023  0.028916542  0.029779262            4 
  514000    1.0497945   -7.3110264    179.08056  0.029033813  0.029759274            4 
  515000    1.0511186   -7.3615698    178.88307  0.028945481   0.02973924            1 
  516000    1.0516105   -7.3599389    179.26738   0.02895145  0.029719215            4 
  517000    1.0290498   -7.3600327    179.90504  0.028998234  0.029698841            1 
  518000    1.0492155   -7.3004404    180.01387  0.028959761  0.029678612            3 
  519000    1.0453834   -7.3813264    180.13583  0.028923544  0.029658217            2 
  520000     1.056024   -7.4030306    179.92951  0.028834858  0.029637559            3 
  521000    1.0420942   -7.3747998    179.91362  0.028776971  0.029616775            2 
  522000    1.0458096   -7.3180689    180.78759  0.028861364  0.029595905            1 
  523000    1.0546763   -7.3204971    180.84278  0.028814975  0.029575385            1 
  524000    1.0443035   -7.3819224    180.65993  0.028730905  0.029554576            2 
  525000    1.0384556   -7.3561974    181.05268  0.028738521  0.029533175            1 
  526000    1.0567273   -7.3270947    181.42882  0.028743475  0.029512225            1 
  527000    1.0322123   -7.3175952    182.07979  0.028791871  0.029491422            2 
  528000    1.0489394   -7.3637413    182.26008  0.028765795  0.029471921            3 
  529000    1.0390369   -7.3580219    182.49891  0.028749041  0.029451969            3 
  530000    1.0295231   -7.3459966    182.54055  0.028701344  0.029431877            4 
  531000    1.0289416    -7.370153    182.66309  0.028666523  0.029412007            2 
  532000    1.0632249   -7.3400656    182.73411  0.028623764  0.029391681            2 
  533000    1.0373552   -7.3513481    183.32352  0.028662214  0.029371188            1 
  534000    1.0480617   -7.3439895    183.71653  0.028669871  0.029350527            1 
  535000    1.0337033   -7.3563708    184.03413  0.028665752  0.029330313            1 
  536000    1.0548714   -7.3553517    184.63353  0.028705462  0.029309939            2 
  537000    1.0473048   -7.3699557    183.60002  0.028491624  0.029289375            2 
  538000    1.0189104   -7.3693712    184.09287  0.028515004  0.029268899            6 
  539000    1.0462936   -7.3592257    185.23627  0.028638878  0.029248609            2 
  540000    1.0410108   -7.4081448    184.83298  0.028523608  0.029228533            4 
  541000    1.0399883   -7.3345112    185.71339  0.028606499  0.029208607            2 
  542000    1.0237089    -7.375226    185.67377  0.028547627  0.029188936            1 
  543000    1.0504047   -7.3640573    185.63106  0.028488499   0.02916959            2 
  544000     1.057506   -7.3514663    186.33772  0.028544382  0.029149971            2 
  545000    1.0547966   -7.3587562    186.25264  0.028478997  0.029130068            2 
  546000    1.0488356   -7.3383202    186.40076  0.028449444  0.029110717            4 
  547000    1.0402028   -7.3784189    187.09042  0.028502502  0.029090849            2 
  548000    1.0450752   -7.3893408    186.77988  0.028403266  0.029071106            2 
  549000    1.0369282   -7.3517946    187.08844  0.028398366  0.029051353            2 
  550000    1.0263279   -7.3812047    187.10696  0.028349539   0.02903175            2 
  551000    1.0133992   -7.3833668    187.12929  0.028301466   0.02901163            2 
  552000    1.0360841   -7.3698565    187.53131  0.028310887  0.028991192            6 
  553000     1.025874   -7.3958989    187.18023  0.028206786  0.028970037            2 
  554000    1.0297538   -7.3964555    187.44402   0.02819555   0.02894899            2 
  555000    1.0435711   -7.3969632    186.91325  0.028065053  0.028927532            1 
  556000    1.0326699   -7.3793596     187.2277  0.028061706   0.02890571            1 
  557000    1.0201936   -7.4179809    187.44552  0.028043915  0.028884041            2 
  558000    1.0358557   -7.4085837    187.95642  0.028069955   0.02886235            3 
  559000    1.0158774   -7.3839436    188.30477  0.028071671  0.028840541            1 
  560000    1.0483361   -7.3574832    188.96312  0.028119512  0.028819072            1 
  561000      1.02984    -7.367778    189.27378  0.028115534  0.028798152            1 
  562000    1.0241376    -7.442442    188.64154  0.027971758  0.028777184            2 
  563000    1.0253821   -7.4130715    189.79751  0.028093177  0.028756148            1 
  564000    1.0451808   -7.3909737    189.83619  0.028049082  0.028735401            2 
  565000    1.0343402   -7.4094161     189.8556  0.028002301  0.028714854            2 
  566000    1.0186046   -7.4077831    190.78255  0.028089303  0.028694841            3 
  567000    1.0328356    -7.353216    191.16149  0.028095457   0.02867462            2 
  568000    1.0212416   -7.4259134    190.79273  0.027991892  0.028654492            2 
  569000    1.0169607   -7.3517804     191.0299  0.027977431  0.028634006            2 
  570000    1.0045787   -7.3991654       190.55  0.027858187  0.028613589            2 
  571000    1.0169326    -7.389702    190.98179  0.027872416  0.028593206            1 
  572000    1.0177822   -7.4080755    191.59455  0.027912959  0.028572696            1 
  573000    1.0361494   -7.3723085    191.60099  0.027865182  0.028552328            2 
  574000    1.0257009   -7.4194891    191.99226  0.027873441  0.028532029            4 
  575000    1.0301746   -7.3874897    192.25684  0.027863309  0.028511363            3 
  576000    1.0219456   -7.3631922    192.09113  0.027790962  0.028490684            2 
  577000    1.0353329   -7.3943334    191.78742  0.027698934  0.028469701            1 
  578000    1.0228942   -7.3796213    192.98381  0.027823502  0.028449017            1 
  579000    1.0032544   -7.3972662    192.60886  0.027721482  0.028427931            1 
  580000    1.0378964   -7.4082389    192.61853  0.027675076  0.028406805            2 
  581000    1.0101266   -7.3764817     193.7672  0.027792198  0.028385754            4 
  582000    1.0175195   -7.3902054    193.68588  0.027732801  0.028365069            1 
  583000    1.0216104   -7.4204483    193.13359  0.027606288  0.028344362            3 
  584000    1.0299112   -7.3902941    194.09631  0.027696391  0.028323526            1 
  585000    1.0236436   -7.3903152    194.46179   0.02770111  0.028303173            3 
  586000    0.9871195   -7.3941608     194.7971  0.027701522  0.028282789            1 
  587000     1.001563    -7.431463    194.08429  0.027553136  0.028262335            1 
  588000    1.0090846   -7.4105731    194.56007  0.027573706  0.028242252            2 
  589000    1.0255654   -7.3991048    195.50614  0.027660744   0.02822212            4 
  590000    1.0051285   -7.3986266    195.36424   0.02759382  0.028201812            2 
  591000    1.0230248   -7.4415441    195.28781  0.027536353  0.028181638            2 
  592000    1.0040749   -7.4471612    195.88013  0.027573217  0.028161436            2 
  593000    1.0275098   -7.4163234    195.67201  0.027497472  0.028142019            2 
  594000    1.0149059   -7.4094713    195.77786   0.02746603  0.028122679            2 
  595000    1.0199841   -7.4360691    196.30407  0.027493568  0.028102906            2 
  596000    1.0132526   -7.3955786    197.47803  0.027611582  0.028083106            1 
  597000    1.0163021   -7.3666254    197.00501  0.027499304   0.02806336            1 
  598000    1.0387296   -7.3948039    197.90691     0.027579  0.028043834            2 
  599000   0.99554732   -7.4186662    197.37565   0.02745905  0.028024369            1 
  600000    1.0071004   -7.4066639    197.16713  0.027384323  0.028004147            2 
  601000    1.0263805   -7.4086774    197.42959  0.027375151  0.027984037            2 
  602000    1.0086866   -7.3794147    197.46448  0.027334507   0.02796355            3 
  603000    1.0188511   -7.4458785    197.90566  0.027350147  0.027942751            2 
  604000    1.0130352   -7.4339942    197.56702  0.027258144  0.027921985            2 
  605000    1.0033011   -7.4110522     198.1597  0.027294724  0.027901976            1 
  606000    1.0139543   -7.4402172    198.75193  0.027331124  0.027881782            1 
  607000    1.0162602   -7.4331243    198.45009  0.027244658  0.027861145            2 
  608000    1.0251744   -7.4501136    198.24997  0.027172419  0.027840215            1 
  609000   0.98665217   -7.4303361    199.29853  0.027271283  0.027819244            1 
  610000   0.99944806   -7.4506382    198.59424  0.027130361   0.02779847            3 
  611000    1.0028813   -7.4263226    199.58026  0.027220439  0.027777989            2 
  612000    1.0008544    -7.445363    199.33186  0.027142137  0.027757774            2 
  613000    1.0108562   -7.4360379     199.6479  0.027140824  0.027737145            2 
  614000     1.005525   -7.4644556    200.10193  0.027158242  0.027716827            2 
  615000    1.0051257   -7.4175156    200.47543  0.027164692  0.027696777            1 
  616000    1.0303717    -7.408392    200.31743  0.027099219  0.027676718            2 
  617000    1.0047116   -7.4842775    200.34157  0.027058558  0.027656797            1 
  618000    1.0005027   -7.4402593    200.58845  0.027048065  0.027636792            4 
  619000   0.98539739   -7.4687939    200.73634  0.027024278  0.027616748            3 
  620000   0.99003768   -7.4281044    201.56499  0.027092068   0.02759677            1 
  621000    1.0061374   -7.4694434    201.61935  0.027055737  0.027576947            1 
  622000   0.99725663    -7.470335    201.37385  0.026979347  0.027556756            3 
  623000    1.0013322   -7.4422456    201.95731  0.027014086  0.027536798            2 
  624000   0.98523097   -7.5017459    201.88375  0.026960971  0.027517126            2 
  625000    1.0230807   -7.4460539    202.26688  0.026968918  0.027497223            2 
  626000   0.97930919   -7.4364213    202.96536  0.027018818  0.027477816            2 
  627000    1.0066269   -7.4475877    202.40981  0.026901889  0.027457989            1 
  628000    1.0303744   -7.4433662    203.38368   0.02698828  0.027437877            2 
  629000   0.99234597   -7.4594975    203.05591  0.026901949  0.027418107            4 
  630000   0.99163181   -7.4534107    203.53254  0.026922294   0.02739835            2 
  631000    1.0074609   -7.4201791    203.02052  0.026812008  0.027378071            2 
  632000    1.0200836   -7.4593318     203.9154  0.026887579  0.027357735            2 
  633000    1.0053292   -7.4701562    203.70677  0.026817637  0.027337723            2 
  634000    1.0010908   -7.4685227    203.98644  0.026812098   0.02731782            2 
  635000    1.0069524   -7.4028804     204.2079  0.026798936  0.027298643            4 
  636000    1.0171592   -7.4689352    204.78562  0.026832497  0.027279451            3 
  637000    1.0017808   -7.4448254    204.57182  0.026762404  0.027259803            1 
  638000   0.99915426   -7.4471498     204.9811  0.026773916  0.027240197            2 
  639000   0.98702387   -7.4355685    204.97872  0.026731706  0.027220832            2 
  640000   0.99505745   -7.4608001    205.29543  0.026731175  0.027201301            1 
  641000   0.97860158   -7.4600279    206.04959  0.026787519  0.027181838            1 
  642000    1.0030583   -7.4616059    206.28614  0.026776497  0.027163074            1 
  643000   0.99919352   -7.4545607    206.51258  0.026764202  0.027144212            1 
  644000   0.99331737   -7.4844361    206.64338  0.026739567  0.027125798            1 
  645000    1.0029702   -7.4930418    206.55413   0.02668658  0.027107077            2 
  646000   0.99589149   -7.4553156    207.15703  0.026723043  0.027087974            4 
  647000   0.99579431   -7.4449111      207.144  0.026680061  0.027069403            4 
  648000    1.0141585   -7.4577816    207.29587  0.026658419  0.027050711            3 
  649000   0.97565582    -7.470363    206.91456  0.026568382   0.02703202            2 
  650000   0.99836743   -7.4813963    207.51326  0.026604264  0.027013136            2 
  651000    1.0162193    -7.475456    207.89558  0.026612337  0.026994257            4 
  652000   0.98418591   -7.4555223    208.32565  0.026626489  0.026975476            1 
  653000   0.96868906     -7.45473    208.53461   0.02661238  0.026956918            2 
  654000   0.98199358   -7.4414774    208.97976   0.02662841  0.026938716            2 
  655000    1.0055085   -7.5025258    208.57878  0.026536741  0.026920366            2 
  656000    0.9804881   -7.4941456    208.70449  0.026512257  0.026902072            2 
  657000   0.98932644   -7.4921941    209.31217  0.026548981  0.026883973            6 
  658000   0.99307721    -7.443885    209.91404  0.026584858  0.026865594            1 
  659000   0.99776746   -7.4389769    209.93611  0.026547308  0.026847242            1 
  660000   0.98735947   -7.4678428    209.78981  0.026488612  0.026829379            1 
  661000   0.99352628   -7.5141801    209.84052  0.026454932  0.026811386            1 
  662000   0.97654467   -7.4448131    210.94841  0.026554433  0.026793654            1 
  663000   0.98900267   -7.5085255    210.70978  0.026484387  0.026775928            2 
  664000   0.97471207   -7.4728336    210.98744  0.026479347  0.026758341            3 
  665000    0.9803733   -7.4786447    210.93875  0.026433428  0.026740585            1 
  666000    1.0080376   -7.5119268    210.82632   0.02637967  0.026722384            1 
  667000     0.972857   -7.5078859    210.76219  0.026332107  0.026703758            1 
  668000   0.99011628   -7.4847096    211.27972  0.026357251  0.026685403            1 
  669000   0.98324468   -7.5137258    211.28032  0.026317927  0.026667028            1 
  670000   0.97548215   -7.5105633    211.21115  0.026270044  0.026648524            2 
  671000   0.99443271   -7.4541588    211.21685  0.026231601  0.026629859            1 
  672000   0.98370797   -7.4920363    212.08237  0.026299897  0.026611057            3 
  673000    1.0003725   -7.5071603     210.7941  0.026101301  0.026592268            4 
  674000   0.98073514   -7.5202072    211.61896   0.02616456  0.026573161            2 
  675000    1.0060504   -7.5120553    212.07703  0.026182349  0.026554148            2 
  676000   0.98223314   -7.4801342    211.63606  0.026089258  0.026535165            2 
  677000   0.96988069   -7.4939052    212.26387     0.026128  0.026516011            2 
  678000   0.97174568   -7.4938382    212.06726  0.026065297  0.026496937            2 
  679000   0.98829992   -7.4766018    212.42569    0.0260709  0.026477986            3 
  680000   0.98436369   -7.5237223    212.22871   0.02600842  0.026458995            1 
  681000   0.98405913   -7.4930502    213.06205  0.026072204  0.026439963            2 
  682000    0.9707694   -7.4973666    213.08181  0.026036389  0.026420718            3 
  683000   0.98791145   -7.4875095     213.5251  0.026052354  0.026401991            3 
  684000   0.98301776   -7.4906188    213.39259  0.025998122  0.026383237            2 
  685000   0.98762302   -7.4862241     213.3993  0.025960986   0.02636408            1 
  686000   0.97183025    -7.524988    213.40802  0.025924201  0.026344642            1 
  687000   0.97942295   -7.4969898    213.71406  0.025923588  0.026325253            3 
  688000    1.0068576   -7.5236341    213.70096  0.025884321  0.026306126            2 
  689000   0.95053385    -7.521421    214.18846  0.025905716   0.02628692            1 
  690000   0.99393553   -7.4532943    214.28908  0.025880324  0.026267917            2 
  691000   0.98422262   -7.4601303    214.21507  0.025833945  0.026248869            1 
  692000    0.9781119   -7.5336162    213.97821  0.025768089  0.026229767            2 
  693000   0.97000695    -7.515681    214.30552  0.025770265  0.026210321            1 
  694000    0.9738875   -7.5027489    214.70517   0.02578112   0.02619107            1 
  695000   0.99073505    -7.476535    214.33189  0.025699268  0.026171845            2 
  696000   0.96167829    -7.516133    215.56462   0.02580994  0.026152442            2 
  697000   0.97972793   -7.5159741    215.08528    0.0257156  0.026133072            3 
  698000   0.98745792   -7.4949766     215.1631  0.025688049  0.026113366            1 
  699000   0.99258648   -7.5115144    215.01952  0.025634182   0.02609366            2 
  700000    1.0023421   -7.4859373    215.68115  0.025676328  0.026074241            2 
  701000   0.96788928   -7.5294995    215.81674  0.025655818  0.026054694            1 
  702000   0.99294132    -7.503016     215.7499  0.025611337  0.026035288            2 
  703000   0.96453972   -7.5069099    215.88247   0.02559062  0.026015415            1 
  704000   0.97766794   -7.5066597    215.91028  0.025557562  0.025995487            2 
  705000   0.95592872   -7.5320525    216.16288  0.025551167  0.025975909            2 
  706000   0.97888891   -7.5085694    216.14745  0.025513155  0.025956231            1 
  707000   0.95795391   -7.5444399    215.79465  0.025435485  0.025936522            2 
  708000    0.9584353   -7.5381494    216.29578  0.025458543  0.025916801            1 
  709000   0.96074368   -7.5232002     216.3858  0.025433216  0.025896976            3 
  710000   0.97053295    -7.510677    216.97861  0.025466973  0.025877284            2 
  711000   0.97148763   -7.5501176    216.38621  0.025361722  0.025857451            2 
  712000   0.99293899   -7.5373257    216.30296  0.025316358  0.025837512            2 
  713000   0.96242391   -7.5383718    216.98178  0.025360189  0.025817535            2 
  714000   0.97429361   -7.4791481    217.65002  0.025402663  0.025797625            2 
  715000   0.96315123   -7.5349239    217.27355  0.025323257  0.025777799            2 
  716000   0.99155216   -7.4933487    217.96713  0.025368613  0.025757863            2 
  717000   0.96363458   -7.5679138    217.30996  0.025256852  0.025737983            1 
  718000   0.96900105   -7.5556581    217.04628  0.025191073  0.025717894            2 
  719000   0.96480742   -7.5268984    218.29669  0.025300961  0.025697875            2 
  720000   0.95773127   -7.5253131    217.33604  0.025154634  0.025677831            3 
  721000   0.97362462   -7.5670734    217.84218  0.025178245   0.02565774            1 
  722000   0.97651497    -7.529797    217.92845   0.02515333  0.025637543            1 
  723000   0.96476092   -7.5259537    217.91222  0.025116669   0.02561731            3 
  724000   0.95809385   -7.5445328    218.45393  0.025144328  0.025597025            1 
  725000   0.97713523   -7.5442769    218.04926  0.025063133   0.02557655            4 
  726000   0.98583377   -7.5346389    217.79223  0.024999108  0.025555881            2 
  727000   0.97761827   -7.5516056    218.43088  0.025037927  0.025535405            2 
  728000    0.9518904   -7.5408393    218.23043   0.02498059  0.025514792            1 
  729000   0.97232429   -7.5478519    218.29315  0.024953492  0.025494111            2 
  730000    0.9753003   -7.5380193    219.20037  0.025022873  0.025473689            1 
  731000   0.97856707   -7.5032128    219.78639  0.025055448  0.025453369            2 
  732000   0.94743883   -7.5360484    219.77251  0.025019639  0.025433394            1 
  733000   0.95043007     -7.52222    219.75884  0.024983952  0.025413333            2 
  734000   0.96082247   -7.5384539    219.61985  0.024934134  0.025393237            1 
  735000   0.95944111    -7.511248     220.3981  0.024988447   0.02537328            3 
  736000   0.95087839   -7.6115801    219.50211  0.024853047  0.025353273            2 
  737000   0.94978062   -7.5875651    220.14913  0.024892484  0.025333057            1 
  738000   0.97420172   -7.5588303    220.25565  0.024870782  0.025313238            2 
  739000   0.94672731   -7.6009883    220.35669  0.024848522  0.025293377            1 
  740000   0.95271481   -7.5816404    220.10411  0.024786499  0.025273477            1 
  741000   0.94400783   -7.5620592    221.35759  0.024894016  0.025253852            2 
  742000   0.96272178   -7.5446084    221.01654  0.024822163  0.025234325            3 
  743000   0.95525092   -7.5800863    221.30886  0.024821542  0.025214649            1 
  744000   0.93570487   -7.5773824    221.17913  0.024773648  0.025195197            2 
  745000   0.96974786   -7.5464225    222.37482  0.024874141  0.025175783            4 
  746000    1.0005956   -7.5548405    221.94635  0.024792934  0.025156411            3 
  747000   0.94567796   -7.5358247    222.61721  0.024834584   0.02513718            4 
  748000   0.95536546   -7.6027325    221.57928  0.024685748  0.025117962            2 
  749000   0.92868126   -7.5448813    223.04958  0.024816375  0.025098784            2 
  750000   0.95850141   -7.5368901    222.62751   0.02473639  0.025079683            9 
  751000    0.9497265   -7.5614073    223.08601  0.024754328  0.025060706            1 
  752000   0.92698393   -7.5613907     223.1933    0.0247333  0.025041488            2 
  753000   0.94921536   -7.5650817    223.30401  0.024712706  0.025022321            1 
  754000   0.97055753   -7.5784183    223.23902  0.024672747  0.025003273            2 
  755000   0.93993418   -7.5798808    223.00558  0.024614302  0.024984191            1 
  756000   0.97854073   -7.5289324    223.89528  0.024679815  0.024965183            1 
  757000   0.95099788   -7.5562307      224.241  0.024685271  0.024946367            1 
  758000   0.93849247    -7.569115    224.39935  0.024670113   0.02492755            4 
  759000   0.94782055    -7.541868    225.02368  0.024706158  0.024908974            3 
  760000   0.94629094   -7.5448333    225.39966  0.024714875  0.024890459            1 
  761000   0.95767671   -7.5805004    225.21454  0.024662127  0.024872036            3 
  762000   0.94643434    -7.611496    225.52682  0.024663913  0.024853505            4 
  763000   0.94383274   -7.5895279    224.71277   0.02454268  0.024835093            2 
  764000   0.95398083   -7.5780868    226.01075  0.024652133  0.024816661            2 
  765000   0.93023227   -7.6139731    225.50913  0.024565264   0.02479832            2 
  766000   0.95589799    -7.554086    226.21255   0.02460972  0.024779989            2 
  767000   0.96007309    -7.564539    225.70052  0.024522004  0.024761625            2 
  768000   0.95826378   -7.6156339    226.04435  0.024527382  0.024743349            1 
  769000   0.95283231   -7.5687918    226.20405  0.024512792  0.024725256            3 
  770000   0.94251769   -7.5612653    226.41705  0.024504009  0.024707062            1 
  771000   0.94898594   -7.5703207    227.12577  0.024548829  0.024689126            2 
  772000   0.90553338   -7.5584138    227.07408   0.02451145  0.024671236            1 
  773000   0.95110565   -7.6099877    227.21161  0.024494568  0.024653228            3 
  774000   0.94336406   -7.6507529    227.22122  0.024463956  0.024635101            2 
  775000    0.9388356   -7.5627278    226.85982  0.024393529  0.024617248            3 
  776000   0.94808084   -7.5854648      227.277  0.024406894   0.02459931            1 
  777000   0.95435025   -7.5464863    227.71625  0.024422592  0.024581456            2 
  778000   0.92647003    -7.587885    228.16982  0.024439784  0.024563829            2 
  779000   0.95014673   -7.5879357    228.48646  0.024442283  0.024546098            1 
  780000   0.94319782   -7.5912502    228.51623  0.024414127  0.024528383            1 
  781000   0.94116834   -7.5599346     228.7776  0.024410755  0.024510797            3 
  782000   0.93676861   -7.5982018    228.59355  0.024359926  0.024493267            3 
  783000   0.92605878   -7.6267341    228.39734  0.024307933  0.024475676            2 
  784000   0.92886427   -7.6062362    228.89269   0.02432958  0.024458065            3 
  785000   0.91083543   -7.5959116    228.90879  0.024300296  0.024440512            2 
  786000   0.95091462   -7.6042572      228.388  0.024214165  0.024422886            2 
  787000    0.9269474   -7.6367489    229.77129   0.02432987  0.024405363            2 
  788000   0.95422536   -7.5863548    230.08631  0.024332308   0.02438788            2 
  789000   0.94457893   -7.5982082    229.75054  0.024266006  0.024370345            2 
  790000   0.93023311   -7.5687288    230.54369  0.024318954  0.024352835            3 
  791000   0.93223105   -7.6078334     230.2204  0.024254151   0.02433535            1 
  792000   0.94900559   -7.6156358     229.6644  0.024165025  0.024317935            2 
  793000   0.93989948   -7.6037575    230.63857  0.024236924  0.024300383            1 
  794000    0.9474107   -7.5930984    230.75768    0.0242189  0.024282879            2 
  795000   0.93641979   -7.5860599    231.29187  0.024244431  0.024265603            1 
  796000    0.9370299   -7.6425862    230.24995  0.024104894  0.024248166            3 
  797000   0.92530867   -7.6135528     230.4875  0.024099488  0.024230613            4 
  798000   0.93555759   -7.6023235    230.54437  0.024075226  0.024212993            4 
  799000   0.93316223   -7.6217331    230.52692  0.024043275  0.024195332            2 
  800000   0.94772706   -7.6192785    231.21979  0.024085395  0.024177411            1 
  801000   0.94053141   -7.5972293    231.01734  0.024034264  0.024159701            1 
  802000   0.91695601   -7.5933961    231.30893  0.024034593  0.024141927            1 
  803000   0.91936593   -7.5957605    231.69109  0.024044322  0.024124392            2 
  804000   0.93729551   -7.6401019     230.6024  0.023901575  0.024106827            1 
  805000   0.93194328   -7.6125135    231.83515  0.023999498  0.024089307            3 
  806000   0.92869119   -7.6016434    231.43348  0.023928192  0.024071684            1 
  807000   0.93719587   -7.5957922     231.5947   0.02391519  0.024054002            1 
  808000   0.92495405   -7.5799974    231.63153   0.02388939  0.024036375            3 
  809000   0.92191123    -7.612322    231.87286   0.02388472   0.02401867            3 
  810000   0.93336021   -7.6401406     232.3837  0.023907788  0.024000896            2 
  811000   0.94191348   -7.6166558    232.64991  0.023905663  0.023983411            1 
  812000   0.94057693   -7.6561312    232.05888  0.023815567  0.023965925            2 
  813000    0.9255645   -7.6334233    232.99545  0.023882272  0.023948676            2 
  814000   0.93025795   -7.6070302    232.96869  0.023850193  0.023931551            1 
  815000   0.93148751   -7.6472553    232.82683  0.023806425  0.023914379            2 
  816000    0.9174968   -7.6364207    233.18171  0.023813492  0.023897075            2 
  817000   0.94927873   -7.6289607    233.21145  0.023787378  0.023879552            1 
  818000   0.92134312   -7.6519481    233.15827   0.02375288  0.023862051            3 
  819000   0.92546632   -7.6240684    233.44199  0.023752746  0.023844655            2 
  820000   0.93547737    -7.652589    233.40833  0.023720359  0.023827266            3 
  821000   0.91469036   -7.6239817    233.84998  0.023736295  0.023809918            1 
  822000   0.91996649   -7.6458366     233.5086   0.02367281  0.023792386            4 
  823000   0.92483829   -7.6144934    234.14155  0.023708136  0.023774887           10 
  824000   0.92729575   -7.6264983    234.37389  0.023702861  0.023757538            2 
  825000   0.92098965   -7.6607111    233.24087  0.023559684  0.023739965            2 
  826000   0.92384997   -7.6159182    234.70574  0.023678949  0.023722373            2 
  827000   0.92384424   -7.6446796    235.28065  0.023708248  0.023705045            1 
  828000   0.94821961   -7.6300756    234.63388  0.023614521  0.023687768            2 
  829000   0.92638017   -7.6311575    234.98148  0.023620977  0.023670898            1 
  830000   0.90457192   -7.6516483    234.84637  0.023578953  0.023653853            2 
  831000   0.92276741   -7.6387166    236.17771  0.023684086   0.02363694            3 
  832000    0.8943036   -7.6334361    234.82638   0.02352027  0.023619953            1 
  833000   0.93124903   -7.6420963    235.01558  0.023510962  0.023602866            2 
  834000   0.92277134   -7.6493523    235.54437  0.023535609  0.023585657            1 
  835000   0.92968575   -7.6382282     235.6361  0.023516577  0.023568499            4 
  836000   0.91123371    -7.629874    235.75801  0.023500599  0.023551427            2 
  837000   0.90116607   -7.6316977    236.47547  0.023543954  0.023534571            2 
  838000   0.91649734   -7.6395087     236.4165  0.023509994  0.023517533            2 
  839000   0.92446237     -7.64819    236.52455  0.023492705   0.02350068            1 
  840000   0.90855856   -7.6507889    236.61433  0.023473644  0.023483676            3 
  841000   0.90672929   -7.6571199    236.55219  0.023439575  0.023466534            2 
  842000   0.91277675   -7.6473811    237.07238   0.02346322  0.023449564            1 
  843000   0.90952146   -7.6936812    235.97446  0.023326855  0.023432418            2 
  844000   0.91624862   -7.6822487    236.93873  0.023394425  0.023415512            1 
  845000   0.91971125   -7.6515693    237.86259  0.023457849  0.023398812            2 
  846000   0.93321324   -7.6426059    237.05972  0.023351037  0.023382109            1 
  847000   0.91733779   -7.6553298    237.42094  0.023359006  0.023365363            1 
  848000   0.92795061   -7.6990827    237.33381  0.023322898  0.023348563            3 
  849000   0.91686279   -7.6481128    237.57231  0.023318836   0.02333153            2 
  850000   0.91807207   -7.7078555    237.09782  0.023244884  0.023314313            2 
  851000   0.92915219   -7.6778428    236.95803  0.023203881  0.023296883            2 
  852000   0.91379149   -7.6320365    238.40178  0.023317858   0.02328004            2 
  853000   0.90061088   -7.6735738      237.712  0.023223134  0.023263155            2 
  854000   0.90768352   -7.7016151      237.426  0.023168033  0.023246141            3 
  855000   0.90786682   -7.6637934    238.37306  0.023233241  0.023228865            2 
  856000   0.92021882   -7.7050597    238.14727  0.023184118  0.023211598            1 
  857000   0.91531102   -7.6632406     237.6238  0.023106165   0.02319439            2 
  858000   0.92315415   -7.6722522    237.91218  0.023107243  0.023177228            2 
  859000   0.89510476   -7.6941159    238.01591  0.023090406  0.023159952            2 
  860000   0.91725965   -7.6488955    238.54661  0.023114982  0.023142762            1 
  861000   0.89515669   -7.6182018    238.55137  0.023088596  0.023125617            4 
  862000   0.92408955   -7.6653765    238.69156  0.023075364   0.02310846            2 
  863000   0.90905757   -7.6893872    238.06271  0.022987902  0.023090985            2 
  864000   0.88864376   -7.6658041    238.28944  0.022983163  0.023073614            1 
  865000   0.91382153   -7.6808873    239.47371  0.023070685  0.023056249            2 
  866000   0.92524971   -7.6762472    238.88842  0.022987723  0.023038853            2 
  867000   0.91788769   -7.6420443    239.28423  0.022999253  0.023021431            1 
  868000   0.91737768     -7.68348    238.73346  0.022919879  0.023004189            2 
  869000   0.88964942   -7.6689856    239.05237  0.022924086  0.022986881            3 
  870000   0.89259281    -7.732391    238.78039  0.022871685  0.022969468            2 
  871000   0.89975806   -7.6966039    238.88043  0.022854997  0.022952026            3 
  872000   0.91565888   -7.6840625    239.55668  0.022893413   0.02293466            2 
  873000   0.90097241   -7.7152289    239.13714  0.022827142  0.022917216            4 
  874000    0.8882039   -7.7103127    239.79328  0.022863585  0.022899861            3 
  875000   0.90977241    -7.690339    240.02328   0.02285936  0.022882635            2 
  876000   0.90403516   -7.7069181    240.00516  0.022831541  0.022865524            6 
  877000   0.88450095    -7.724743    240.18006  0.022822127  0.022848342            3 
  878000   0.90997438   -7.7307938    240.13879  0.022792216  0.022831071            2 
  879000   0.88760966   -7.7157234    240.06439  0.022759233  0.022813723            2 
  880000   0.89504719   -7.6798332    241.13331  0.022834594  0.022796518            3 
  881000   0.91255368   -7.6771198    240.21545  0.022721855  0.022779314            3 
  882000   0.90944528   -7.6931637    240.30165  0.022704237  0.022762239            5 
  883000   0.87914367   -7.6792553    240.84146   0.02272947  0.022744966            4 
  884000     0.893292   -7.6656868    240.99436  0.022718172  0.022727778            4 
  885000   0.90038771   -7.6889234    240.58278  0.022653746  0.022710583            1 
  886000   0.88578659   -7.6691312    241.02362  0.022669641  0.022693475            2 
  887000   0.90015741   -7.6823891    241.30764  0.022670766  0.022676282            2 
  888000   0.87307704   -7.6927982    240.83936  0.022601291  0.022658969            3 
  889000   0.91597347    -7.699276    240.83029  0.022575018  0.022641703            2 
  890000   0.88492517   -7.6770157    242.33812  0.022690835  0.022624638            2 
  891000   0.88707867   -7.7148868    241.86676  0.022621283  0.022607688            2 
  892000   0.91138571   -7.6500336    241.90338  0.022599344   0.02259079            1 
  893000   0.91102489   -7.7260746    241.35312  0.022522687  0.022573906            3 
  894000   0.92264143   -7.7081381    241.39736  0.022501618  0.022556661            6 
  895000   0.88407906   -7.6879977    242.00793  0.022533327  0.022539477            2 
  896000   0.90050055   -7.6885257    241.87123  0.022495464   0.02252236            2 
  897000    0.8784801   -7.6884528    242.23181  0.022503884  0.022505204            4 
  898000   0.89835105   -7.7008594    241.29461  0.022391853  0.022488087            2 
  899000   0.89257812   -7.7271636    242.36856  0.022466496  0.022470917            3 
  900000   0.88640932   -7.7275226    242.88837  0.022489664  0.022453812            3 
  901000    0.9083124   -7.6693514     243.0962  0.022483925  0.022436761            3 
  902000   0.91086148   -7.7335994    242.03898  0.022361325  0.022419801            1 
  903000    0.8878379   -7.6752367    242.70717  0.022398225  0.022402686            1 
  904000   0.87799263   -7.7056728    242.73332  0.022375859  0.022385771            4 
  905000   0.88571401   -7.7230474    242.89745  0.022366248  0.022368959            3 
  906000   0.89588763   -7.6828546    243.21523   0.02237079  0.022352059            3 
  907000    0.8870762    -7.716413    243.56461  0.022378225  0.022335428            1 
  908000   0.89764259   -7.7362187     244.0008  0.022393612  0.022318842            3 
  909000   0.89358824   -7.6989905    244.75491   0.02243811  0.022302455            3 
  910000   0.87490376   -7.6986891    244.52756  0.022392634   0.02228584            2 
  911000   0.89170864   -7.7423143     243.6914  0.022291566  0.022269256            1 
  912000   0.88752527   -7.7554153    243.43731  0.022243906  0.022252542            4 
  913000   0.87283782   -7.7381212    244.26787  0.022295351  0.022235826            3 
  914000    0.8807004   -7.7595841     243.2824  0.022181109   0.02221913            1 
  915000   0.88050041    -7.715801    244.09679  0.022231038  0.022202177            3 
  916000   0.90674507   -7.7385848    243.73483  0.022173839  0.022185367            2 
  917000    0.8983535   -7.6988159    244.59375  0.022227713  0.022168678            2 
  918000   0.89328204   -7.7080447     244.6079  0.022204784  0.022152122            6 
  919000   0.88128586   -7.7461312     244.2547  0.022148594  0.022135434            1 
  920000   0.87891727   -7.7529528    244.85586  0.022178973  0.022118749            2 
  921000   0.90320019   -7.7250594     245.2767   0.02219297  0.022102051            7 
  922000   0.87770539   -7.7564388    244.74677  0.022121003   0.02208534            1 
  923000   0.88365834   -7.7423643    245.04851  0.022124278  0.022068596            2 
  924000   0.87822941   -7.7802603    244.25356   0.02202864   0.02205186            2 
  925000   0.89969272   -7.7133025    244.78357  0.022052574  0.022035138            3 
  926000   0.89937789   -7.7581772    245.22485  0.022068471  0.022018412            2 
  927000   0.89132307   -7.7376269    244.81729  0.022008027  0.022001738            2 
  928000   0.87847521   -7.7371595    245.47365  0.022043251  0.021985061            2 
  929000   0.86608777   -7.7334677    246.25587   0.02208969  0.021968532            2 
  930000    0.8776025   -7.7249384    245.86545  0.022030954  0.021952085            2 
  931000   0.88122572   -7.7268282    245.71814  0.021994105  0.021935587            4 
  932000   0.88382069   -7.7206583    246.75049  0.022062812  0.021919182            1 
  933000   0.89602066   -7.7264086    246.43138  0.022010663  0.021902877            2 
  934000   0.88847246   -7.7637711    245.95414  0.021944517  0.021886525            2 
  935000   0.87891482   -7.7494704    246.42204  0.021962749  0.021870138            1 
  936000   0.89379858   -7.7354897    246.83633  0.021976169    0.0218538            1 
  937000   0.88772807   -7.7514971    246.58101  0.021930008  0.021837456            2 
  938000    0.8795834   -7.7506103    246.67602  0.021915069  0.021821164            2 
  939000   0.86885212   -7.7166957    247.51574  0.021966253  0.021804944            1 
  940000   0.86588275   -7.7648658    247.33558  0.021926913  0.021788802            3 
  941000   0.87947261   -7.7430347    247.59958  0.021926991  0.021772563            1 
  942000   0.86839693   -7.7502187    247.51401  0.021896144  0.021756285            5 
  943000   0.87808242   -7.7539359    247.09368   0.02183578  0.021739923            2 
  944000   0.86800876   -7.7735174    247.15877  0.021818394  0.021723511            3 
  945000   0.86269632   -7.7298092    247.16307  0.021795685  0.021707122            2 
  946000   0.86558487   -7.7549409    247.98717   0.02184524  0.021690906            4 
  947000   0.88083911   -7.7395279     247.6844   0.02179553  0.021674807            2 
  948000    0.8649736   -7.7132651    248.21391  0.021819085  0.021658681            2 
  949000    0.8700525    -7.751884    247.62662  0.021744523  0.021642578            1 
  950000   0.88895667   -7.7346519     248.9047  0.021833746  0.021626546            2 
  951000   0.89491912   -7.7408438    248.32226  0.021759749  0.021610679            3 
  952000   0.87841153   -7.7310202    248.58465  0.021759861  0.021594831            2 
  953000    0.8774529   -7.7361226    248.56078  0.021734941   0.02157899            1 
  954000   0.87304822   -7.7743815    248.86863  0.021739049  0.021562859            2 
  955000   0.86890858   -7.7438909    248.76172  0.021706957  0.021546693            2 
  956000   0.88785204   -7.7266632    249.05426  0.021709751  0.021530633            1 
  957000   0.87438689   -7.7326374    248.73408  0.021659185  0.021514604            4 
  958000    0.8624498   -7.7479763    248.71509  0.021634924  0.021498452            3 
  959000   0.88357564   -7.7454106    248.35196  0.021580809  0.021482418            3 
  960000   0.86001619   -7.7461646    248.87776  0.021603973  0.021466308            2 
  961000   0.85763663   -7.7885943    248.86634  0.021580501  0.021450158            2 
  962000   0.87916357   -7.7595643    248.69195  0.021542961   0.02143396            2 
  963000   0.86429957    -7.775335    249.26958  0.021570576  0.021417844            1 
  964000   0.87635066   -7.7858247    248.87709  0.021514272  0.021401623            1 
  965000   0.87669802   -7.7897771    248.93207  0.021496724  0.021385497            3 
  966000   0.85066928   -7.7545506    249.40965  0.021515671  0.021369453            1 
  967000   0.87326681   -7.7309011    250.16067  0.021558141  0.021353486            1 
  968000   0.85264255   -7.7405467    250.23947  0.021542654  0.021337643            2 
  969000   0.86387338   -7.7736475      249.875  0.021489078  0.021321795            2 
  970000   0.87510197   -7.7709841    250.21621  0.021496238  0.021305975            3 
  971000   0.87126675   -7.7935882     249.8356  0.021441435  0.021290154            1 
  972000   0.88421032   -7.7687211    249.86153  0.021421599  0.021274236            8 
  973000   0.86197003   -7.7931295    250.66657  0.021468531  0.021258483            5 
  974000   0.86648499   -7.7885656    250.76283  0.021454725  0.021242828            3 
  975000   0.87682876   -7.7699855    250.77804   0.02143402  0.021227113            1 
  976000    0.8670348   -7.7381478    251.30678  0.021457205  0.021211446            1 
  977000   0.86844528   -7.7308595    251.15871  0.021422612  0.021195737            3 
  978000   0.86917952   -7.7586892    251.27108  0.021410283  0.021180064            2 
  979000   0.89098108   -7.7858877    250.54645  0.021326732  0.021164262            2 
  980000    0.8709165   -7.8283488    250.45266  0.021296995  0.021148377            2 
  981000   0.87023863   -7.7724972     251.3589  0.021352268  0.021132622            2 
  982000   0.88534047   -7.8096034    250.63821  0.021269366  0.021116884            1 
  983000   0.86394711   -7.8014138    251.58261   0.02132779  0.021101163            3 
  984000   0.85053573   -7.7683014    251.27808  0.021280325  0.021085385            4 
  985000   0.85098188   -7.7923866     251.6704  0.021291912   0.02106971            2 
  986000   0.85678668   -7.8261786    251.08099  0.021220503  0.021053998            1 
  987000   0.88284412   -7.7695515    251.83511  0.021262674  0.021038261            1 
  988000   0.84255671    -7.780571    252.24156  0.021275435  0.021022597            1 
  989000   0.86186853   -7.7854545    252.01594  0.021234912  0.021006913            7 
  990000   0.87875695   -7.7791774    251.93562  0.021206702  0.020991219            3 
  991000   0.84442293   -7.7609102    251.42728  0.021142556  0.020975473            3 
  992000    0.8464338   -7.8127468    251.58983  0.021134898  0.020959762            2 
  993000   0.86227358   -7.7648043    251.71872  0.021124431  0.020944146            2 
  994000   0.85825057   -7.7870641    251.98656  0.021125633  0.020928654            2 
  995000   0.86533137    -7.788939    252.45399   0.02114355  0.020913087            2 
  996000    0.8370545    -7.783078    252.39634  0.021117499   0.02089764            2 
  997000   0.86021351   -7.8230646    252.31692  0.021089679   0.02088214            3 
  998000   0.83743201   -7.8077786    252.89568  0.021116873  0.020866488            3 
  999000   0.85987246   -7.7620885     252.6185  0.021072615  0.020850976            2 
 1000000   0.88716031   -7.8058993    252.78391  0.021065326  0.020835595            3 
 1001000   0.85898311   -7.7715517     252.9876  0.021061239  0.020820153            2 
 1002000   0.87196056   -7.8150977    253.27646  0.021064243  0.020804641            3 
 1003000   0.84000912   -7.7505955    253.21129  0.021037827  0.020789071            2 
 1004000   0.86625362   -7.8043738    253.12639  0.021009826  0.020773497            1 
 1005000   0.85461974   -7.8050834    253.18911  0.020994122  0.020757959            2 
 1006000    0.8349873   -7.7868009    253.16128  0.020970947  0.020742395            2 
 1007000   0.84513692   -7.8388758    252.96251  0.020933674  0.020726745            1 
 1008000   0.86376167     -7.87232    252.83591  0.020902439  0.020711069            2 
 1009000   0.85623707   -7.7992398    252.68326  0.020869116  0.020695345            2 
 1010000   0.83978287   -7.8178114    253.43497  0.020910476  0.020679718            2 
 1011000   0.87405291   -7.7703924    253.64399  0.020907022  0.020664184            1 
 1012000   0.86743725    -7.827661    252.74377  0.020812234  0.020648511            2 
 1013000   0.84315295   -7.8091837    252.84664  0.020800151  0.020632719            2 
 1014000   0.85423109   -7.8254044    253.27532  0.020814868  0.020616928            3 
 1015000   0.84041327   -7.8341974    252.93056  0.020766056  0.020601009            6 
 1016000   0.84566641   -7.8046424    253.03114  0.020753867  0.020585151            2 
 1017000   0.85194985   -7.7996799    252.89695  0.020722464  0.020569106            3 
 1018000    0.8538319   -7.8230206    252.73176  0.020688586  0.020553027            2 
 1019000   0.84393779   -7.8065486    253.50028  0.020731132  0.020537039            2 
 1020000   0.84503815   -7.8313625    252.88908  0.020660872  0.020521063            2 
 1021000   0.84668904   -7.8129322    253.58507  0.020697443  0.020505194            3 
 1022000   0.84195329   -7.8212768     253.3328  0.020656621  0.020489331            2 
 1023000   0.83311644   -7.8256998    253.55843  0.020654809  0.020473335            4 
 1024000   0.84067975   -7.8585006    252.91919  0.020582616  0.020457215            1 
 1025000   0.82255928   -7.8722872    252.98226  0.020567663  0.020440972            2 
 1026000   0.81557904   -7.8693368    253.21932  0.020566871  0.020424807            1 
 1027000    0.8348391   -7.8186533    253.51707  0.020571005  0.020408849            2 
 1028000   0.85295566   -7.8392456    253.34689  0.020537199  0.020392798            2 
 1029000   0.84868207   -7.8445922    253.62898  0.020540085  0.020376842            1 
 1030000    0.8249458   -7.8280135    253.70991  0.020526692  0.020360761            1 
 1031000   0.84308178   -7.8183732    253.55853  0.020494547    0.0203448            1 
 1032000   0.84117958   -7.8252483    254.19844   0.02052636  0.020328915            2 
 1033000   0.84644022   -7.8566463    253.84454   0.02047794  0.020312968            1 
 1034000   0.83358855   -7.8720144    253.86355  0.020459667  0.020297027            1 
 1035000   0.83241553   -7.8432924    254.02993  0.020453296  0.020281144            2 
 1036000    0.8473263   -7.8762183    253.67285  0.020404831  0.020265218            1 
 1037000   0.83223726   -7.8543469    254.09698  0.020419237  0.020249221            3 
 1038000    0.8295171    -7.877967    253.56866   0.02035715  0.020233239            4 
 1039000   0.86512502   -7.8723987    254.02974  0.020374538   0.02021733            3 
 1040000   0.84864104   -7.8481017     254.7085  0.020409335  0.020201504            3 
 1041000   0.83058434   -7.8593784    255.01325  0.020414125   0.02018565            2 
 1042000   0.84126968   -7.8561851     254.3952  0.020345105  0.020169837            2 
 1043000    0.8216871   -7.8212098    254.93083  0.020368395  0.020153995            1 
 1044000   0.83084702   -7.8645928    254.66912  0.020327995  0.020138068            1 
 1045000   0.84068711   -7.8556965    255.50243  0.020374994  0.020122204            1 
 1046000    0.8242139    -7.850528    254.27257  0.020257534  0.020106379            1 
 1047000   0.83531474   -7.8295072    255.22089  0.020313665  0.020090621            2 
 1048000   0.83953908   -7.8485351    254.75402  0.020257158  0.020074893            4 
 1049000   0.83790101   -7.8457909    254.95272  0.020253632  0.020059035            2 
 1050000   0.82456651   -7.8650816    255.42081  0.020271493  0.020043105            1 
 1051000   0.83505683   -7.8051067    254.99085  0.020218114  0.020027212            3 
 1052000   0.82497824   -7.8528666    254.66496  0.020173079  0.020011282            2 
 1053000   0.84104925   -7.8640132    254.78686  0.020163569  0.019995355            3 
 1054000   0.82361424   -7.8674718    254.46488  0.020118982  0.019979464            1 
 1055000   0.84722351   -7.8536463     254.7036  0.020118767    0.0199635            2 
 1056000   0.85254066   -7.8686875    254.81376  0.020108409  0.019947606            3 
 1057000    0.8309464   -7.8426548    255.31893  0.020129213  0.019931758            2 
 1058000   0.83049103   -7.8580185    255.47011  0.020122094  0.019915972            1 
 1059000   0.82018338   -7.8876134     255.6469  0.020117005  0.019900199            2 
 1060000   0.84110453   -7.8897164    255.28215  0.020069352  0.019884367            4 
 1061000   0.83873272   -7.8365002    256.02771  0.020108994  0.019868676            3 
 1062000    0.8069205   -7.8623042    255.52406  0.020050538  0.019852974            2 
 1063000   0.79370598   -7.8540366    255.40127   0.02002205  0.019837222            2 
 1064000   0.83313209   -7.8756657    255.72841  0.020028855  0.019821382            3 
 1065000   0.84448415   -7.8623757    255.65843  0.020004572  0.019805652            3 
 1066000   0.82083593   -7.9133003    255.62681  0.019983334  0.019790051            3 
 1067000   0.83072833   -7.8673288    255.62041  0.019964106   0.01977442            2 
 1068000   0.82660893    -7.868912    255.74726   0.01995531  0.019758812            4 
 1069000    0.8226079   -7.8918555    256.23629  0.019974765  0.019743252            2 
 1070000   0.81769353   -7.9157277    256.81046  0.020000815  0.019727733            1 
 1071000    0.8087344   -7.8786403    256.00155  0.019919199  0.019712147            1 
 1072000   0.82120487   -7.8762911    255.78553  0.019883826  0.019696458            2 
 1073000   0.83377386   -7.8659926    256.33074  0.019907637  0.019680765            1 
 1074000   0.82807675   -7.8937578    255.83015   0.01985026  0.019665136            1 
 1075000   0.81731343   -7.8697339    256.01089  0.019845806  0.019649497            1 
 1076000   0.83338463    -7.888636    256.52314  0.019867034  0.019633791            2 
 1077000   0.83552891   -7.8919631    256.24408  0.019826994    0.0196181            1 
 1078000   0.83449773   -7.8994754    256.71543  0.019845039  0.019602416            2 
 1079000   0.82477256    -7.883718    256.72654  0.019827506   0.01958682            3 
 1080000   0.83057953   -7.8773079    256.97718  0.019828486  0.019571232            1 
 1081000   0.81157798   -7.9185961     255.9448  0.019730558  0.019555601            4 
 1082000     0.820811   -7.8998025    256.59569  0.019762453  0.019539958            2 
 1083000   0.83006767   -7.9083571    256.84385    0.0197633   0.01952431            2 
 1084000    0.8035322   -7.8981267    256.34894  0.019707022   0.01950875            3 
 1085000   0.83764469   -7.9140233    256.46859  0.019698049  0.019493223            4 
 1086000   0.81395755   -7.8974815     257.1458  0.019731875  0.019477636            4 
 1087000   0.82430413   -7.8990106    257.02123  0.019704172  0.019462159            4 
 1088000   0.81988053   -7.9113612    256.95565  0.019681039  0.019446691            2 
 1089000   0.82796183   -7.9423058    256.86365  0.019655927  0.019431226            3 
 1090000   0.81392573   -7.8821748    257.40493  0.019679276  0.019415744            3 
 1091000    0.8073663   -7.9151814    257.22198  0.019647264  0.019400286            3 
 1092000   0.80464604   -7.8844236     257.4168  0.019644139  0.019384858            3 
 1093000   0.82268322   -7.9341189    257.14888  0.019605739  0.019369351            4 
 1094000   0.82266458   -7.8818307    257.98303  0.019651358  0.019353912            1 
 1095000   0.83705361   -7.8885299    257.27971  0.019579887  0.019338531            2 
 1096000   0.79755448    -7.916982    257.45373  0.019575253  0.019323123            3 
 1097000   0.82377391   -7.9166486    257.57559  0.019566666  0.019307731            2 
 1098000   0.81074665    -7.912109    256.99536  0.019504809    0.0192924            2 
 1099000   0.80796106   -7.9437684    257.11801  0.019496361  0.019277056            1 
 1100000   0.80846249   -7.9266173    257.51583  0.019508775  0.019261742            1 
 1101000   0.79579767   -7.8855247    258.13178  0.019537676  0.019246416            3 
 1102000   0.81250598   -7.8995123    257.86607  0.019499854  0.019231152            2 
 1103000   0.80416404    -7.905858     257.8417  0.019480334   0.01921595            2 
 1104000   0.82955351   -7.8989684    258.75135  0.019531352  0.019200622            2 
 1105000   0.79758254   -7.9092319    258.07714  0.019462831  0.019185346            2 
 1106000   0.82140244   -7.8763962    258.68073  0.019490712  0.019170023            2 
 1107000   0.82837591   -7.9116663    257.37423  0.019374754  0.019154665            2 
 1108000   0.79045157   -7.8903639    258.22531  0.019421278  0.019139317            3 
 1109000   0.79699297   -7.8995948    258.32123  0.019410973  0.019124006            2 
 1110000   0.83096728   -7.9149833    257.96576  0.019366799  0.019108787            2 
 1111000   0.81690191   -7.9263394    258.68878  0.019403599  0.019093603            2 
 1112000      0.80937   -7.9251583    257.86015  0.019324052   0.01907832            1 
 1113000   0.81658133   -7.9335145    258.15026  0.019328411  0.019063005            4 
 1114000   0.81166581   -7.9370318    258.43381  0.019332272  0.019047805            2 
 1115000   0.81384733   -7.9109949    258.51042  0.019320659  0.019032697            1 
 1116000   0.78903548   -7.9231243    258.58516  0.019308928  0.019017502            1 
 1117000   0.80684577   -7.9197743    258.56477   0.01929012  0.019002317            2 
 1118000   0.80308799   -7.9056847    259.04079  0.019308347  0.018987246            2 
 1119000   0.79925536   -7.9005478    258.49356   0.01925034  0.018972235            3 
 1120000    0.8105461   -7.9333875    258.93108  0.019265705  0.018957149            2 
 1121000   0.78797788   -7.9448541    258.75961  0.019235773  0.018941993            4 
 1122000   0.81118342   -7.9373446    258.96059  0.019233556  0.018926896            1 
 1123000   0.81021397   -7.9398554    258.75034  0.019200826  0.018911823            5 
 1124000   0.80566638    -7.953576    259.07324  0.019207684  0.018896705            2 
 1125000   0.79033218   -7.9382781     258.5508  0.019151911  0.018881507            2 
 1126000   0.80308919   -7.9478907    259.09218  0.019174969  0.018866384            1 
 1127000   0.80930952   -7.9578769    259.07545  0.019156718  0.018851321            3 
 1128000   0.81232685   -7.9729634    258.76346  0.019116686  0.018836211            2 
 1129000   0.79466744   -7.9467426    259.26235  0.019136577  0.018821085            2 
 1130000   0.81870357   -7.9294386    259.15611  0.019111808  0.018805969            3 
 1131000   0.77559405   -7.9394149      258.843  0.019071839  0.018790877            3 
 1132000   0.80771329   -7.9359564    259.67579  0.019116298  0.018775827            3 
 1133000   0.81222458   -7.9191484    259.63319  0.019096292   0.01876084            5 
 1134000   0.79503663   -7.9477386    259.73696  0.019087078  0.018745851            2 
 1135000   0.79363221   -7.9308791    260.02117  0.019091129   0.01873096            1 
 1136000   0.80030594   -7.9389087    259.47977  0.019034608  0.018716122            1 
 1137000   0.81142508   -7.9299016    260.62242  0.019101614  0.018701238            2 
 1138000   0.79571821   -7.9402239    259.70017  0.019017294  0.018686379            4 
 1139000   0.79981406   -7.9420253    259.89699  0.019014998  0.018671484            3 
 1140000   0.79262809    -7.959024    259.72627  0.018985839  0.018656585            3 
 1141000   0.80308288   -7.9619712     259.9676  0.018986824  0.018641828            5 
 1142000   0.80992836   -7.9226042    260.39154  0.019001134  0.018627149            1 
 1143000   0.80579007   -7.9447892    260.86456  0.019018997  0.018612478            1 
 1144000   0.80036934    -7.923221    260.71507  0.018991483  0.018597777            2 
 1145000   0.79607608   -7.9608216    260.13039  0.018932343  0.018582987            4 
 1146000    0.8011646    -7.930084    260.28699   0.01892721   0.01856826            2 
 1147000   0.80440127   -7.9375549     260.7062  0.018941166  0.018553537            3 
 1148000   0.78643483   -7.9445068    260.88271  0.018937479  0.018538719            4 
 1149000   0.80711208   -7.9463997    260.49569  0.018892928  0.018523984            3 
 1150000   0.79620124   -7.9606707    260.89217   0.01890523  0.018509286            1 
 1151000   0.79584423   -7.9815548    260.31038  0.018846683  0.018494539            4 
 1152000   0.78723209   -7.9424822    260.87764  0.018871357  0.018479856            2 
 1153000    0.8103532   -7.9817692    260.56574  0.018832447  0.018465112            1 
 1154000   0.78133388   -7.9777979    260.68876  0.018825012  0.018450345            1 
 1155000   0.80459268   -7.9518263    260.99686  0.018830942  0.018435605            6 
 1156000   0.79656238     -7.93246    260.97894  0.018813361  0.018420879            2 
 1157000   0.78645638   -7.9679615     260.5292  0.018764707  0.018406188            1 
 1158000   0.77120276   -7.9513974    260.69598  0.018760505  0.018391544            3 
 1159000   0.79746017   -7.9589797    261.12656  0.018775278  0.018376901            4 
 1160000   0.77683814   -7.9619769    260.97606   0.01874828  0.018362301            1 
 1161000   0.79222373   -7.9802646    261.10869  0.018741652  0.018347708            2 
 1162000   0.79348882   -7.9645586    260.88143  0.018709225  0.018333049            3 
 1163000   0.80016584   -7.9597582    261.09756  0.018708624  0.018318553            2 
 1164000   0.77874508   -7.9524191    260.88349  0.018677226  0.018303975            2 
 1165000    0.7922251   -7.9559503    260.79416  0.018654804  0.018289379            3 
 1166000   0.79298833   -7.9576391    261.19911  0.018667746  0.018274858            2 
 1167000   0.80380645   -7.9802108    261.42672  0.018668004  0.018260334            3 
 1168000   0.77089453   -7.9920725    261.14247   0.01863174  0.018245817            3 
 1169000   0.80025601   -7.9791687    261.98905  0.018676151  0.018231303            2 
 1170000   0.80075178   -7.9858127    261.40043  0.018618265  0.018216854            3 
 1171000   0.77301653   -7.9604518    262.69277  0.018694333  0.018202384            2 
 1172000   0.79829982   -7.9710535    261.80378  0.018615172  0.018187932            1 
 1173000   0.78832329   -8.0168097    261.80248   0.01859921  0.018173449            3 
 1174000   0.79548425   -7.9887449    261.18505  0.018539541  0.018158987            5 
 1175000   0.80283625   -8.0095171    261.70674  0.018560762  0.018144588            2 
 1176000   0.78800871   -7.9778832    261.83519  0.018554081  0.018130158            2 
 1177000    0.7739998   -7.9858216    262.25544  0.018568072  0.018115636            2 
 1178000   0.78548934   -8.0025323    261.41483  0.018492843  0.018101132            1 
 1179000   0.81462142    -7.991033    261.73301  0.018499648  0.018086645            2 
 1180000   0.79639106   -7.9959359    261.99786  0.018502674  0.018072133            1 
 1181000   0.78517427   -7.9598519    262.17073  0.018499205  0.018057698            2 
 1182000   0.77063733   -8.0190306    261.52052  0.018437713  0.018043257            3 
 1183000   0.78674502   -8.0044806    261.22579  0.018401366  0.018028761            2 
 1184000   0.79269256   -8.0041727    262.07311  0.018445461  0.018014226            3 
 1185000   0.78528769    -8.027297    261.91888  0.018419049  0.017999651            2 
 1186000   0.78806896   -7.9942764    261.61969  0.018382497  0.017985148            2 
 1187000   0.76730245   -8.0101529    261.53211  0.018360862  0.017970629            2 
 1188000    0.7822143   -8.0140394    261.69043  0.018356512  0.017956138            2 
 1189000   0.76967042   -8.0038799    261.86284  0.018353157  0.017941615            2 
 1190000   0.78613808   -8.0085894    262.05351  0.018351086   0.01792714            1 
 1191000   0.77350412   -7.9975485    261.52774   0.01829889  0.017912618            3 
 1192000   0.77033811   -8.0171624    261.89403  0.018309146  0.017898221            2 
 1193000   0.76153578   -8.0259345    262.14986  0.018311669  0.017883818            2 
 1194000   0.77426305   -8.0123465    262.61356  0.018328696  0.017869498            3 
 1195000   0.77246234   -8.0004767    261.96568  0.018268179  0.017855104            2 
 1196000   0.75773365   -7.9818755    262.50675  0.018290604  0.017840747            3 
 1197000   0.77783583   -7.9743812    262.60127  0.018281904  0.017826467            5 
 1198000   0.78378243   -7.9858099    262.64558  0.018269726  0.017812215            1 
 1199000   0.78420856    -7.995948    262.30963  0.018231139  0.017797976            2 
 1200000   0.77506642   -7.9932138    262.98395  0.018262774  0.017783746            4 
 1201000   0.77699822   -8.0084949    262.46428   0.01821151   0.01776953            1 
 1202000   0.77440362    -8.017455    262.81655  0.018220782  0.017755308            3 
 1203000   0.78653658   -8.0202479    262.68047  0.018196209  0.017741097            1 
 1204000   0.77372287   -7.9830853    262.85968  0.018193499  0.017726872            2 
 1205000    0.7734785   -7.9897652    263.13175  0.018197216  0.017712658            3 
 1206000   0.74966685   -7.9803086    263.24704  0.018190094  0.017698508            4 
 1207000   0.76744182   -8.0239608    262.50151  0.018123551  0.017684373            1 
 1208000   0.77540639   -7.9983638    263.24361  0.018159742  0.017670324            3 
 1209000   0.76933702   -8.0216925    263.12833  0.018136775  0.017656216            4 
 1210000   0.76530182   -7.9953092    263.32235  0.018135148  0.017642138            1 
 1211000   0.76830398   -8.0133781    263.03961  0.018100716  0.017628025            2 
 1212000   0.76494984   -8.0267542    263.04084  0.018085866  0.017613932            1 
 1213000   0.78742202   -8.0266532    262.99941   0.01806811  0.017599823            3 
 1214000   0.74827331   -8.0162802    263.51516   0.01808863  0.017585692            2 
 1215000   0.76634566   -8.0313359    263.18261  0.018050933  0.017571591            5 
 1216000   0.77082122   -8.0313228    263.75628  0.018075403  0.017557508            2 
 1217000    0.7740817   -8.0287133    263.33721  0.018031855  0.017543478            3 
 1218000   0.76662285   -8.0129863    262.71881   0.01797474  0.017529395            4 
 1219000   0.77820047   -8.0146154    263.04697  0.017982429  0.017515352            4 
 1220000   0.75883031   -8.0268877    263.95796  0.018029915  0.017501322            2 
 1221000   0.76419108    -8.016218    263.51523  0.017984933  0.017487364            1 
 1222000   0.76226798   -8.0371755    263.41293  0.017963238  0.017473378            2 
 1223000   0.75683073   -8.0205132    263.79826  0.017974806  0.017459382            1 
 1224000   0.77835092   -8.0308051    263.52013  0.017941185  0.017445472            2 
 1225000   0.77563737   -8.0121993     264.3363  0.017982061  0.017431585            1 
 1226000   0.76920383   -8.0465514    263.58645  0.017916426  0.017417626            3 
 1227000   0.75536997     -8.02219    263.96664  0.017927645  0.017403677            2 
 1228000   0.75923657   -8.0189385    263.92863  0.017910466  0.017389685            3 
 1229000   0.77245942   -8.0961423    263.37782  0.017858545   0.01737571            1 
 1230000   0.76614041   -8.0559844     263.3215   0.01784021  0.017361691            1 
 1231000   0.76259013   -8.0751785    263.60198  0.017844705  0.017347737            1 
 1232000   0.75319473   -8.0548623    263.77788  0.017842119  0.017333738            2 
 1233000   0.74958284   -8.0621842    264.06216  0.017846861  0.017319755            3 
 1234000   0.75921013   -8.0507197    263.88592  0.017820497  0.017305801            2 
 1235000   0.77793868   -8.0608816    264.29405  0.017833606  0.017291878            1 
 1236000   0.77207368   -8.0740602    263.47149  0.017763719  0.017277919            2 
 1237000   0.75794929   -8.0667423    263.84723  0.017774672  0.017263947            3 
 1238000   0.74910201   -8.0751187    263.76915  0.017755058  0.017249974            4 
 1239000   0.76475579   -8.0616231    264.00396  0.017756521  0.017236013            1 
 1240000    0.7556693   -8.0811166    263.38092  0.017700331   0.01722203            2 
 1241000   0.73904886   -8.0686909    263.78145  0.017712963  0.017208096            3 
 1242000   0.75611137   -8.0847618    264.42143  0.017741642  0.017194272            4 
 1243000   0.75121026   -8.0711333    263.81287   0.01768657  0.017180453            2 
 1244000   0.74256055   -8.0603312    264.29099   0.01770438  0.017166608            1 
 1245000   0.73622806   -8.0670915    264.30811  0.017691306   0.01715279            3 
 1246000    0.7436916   -8.0536208    264.50592  0.017690337  0.017139006            2 
 1247000   0.76742368   -8.0200454    264.47405  0.017674021  0.017125262            2 
 1248000   0.75978914   -8.0386471    263.89785  0.017621385  0.017111481            2 
 1249000   0.75060734   -8.0792158    263.90829  0.017607973  0.017097663            1 
 1250000    0.7370423   -8.0660176    264.02817  0.017601878  0.017083905            1 
 1251000    0.7622654   -8.0562267    264.42338  0.017614134  0.017070196            1 
 1252000   0.76981088   -8.0545747    264.50115  0.017605242  0.017056432            2 
 1253000   0.76186147   -8.0835087    264.34611   0.01758088   0.01704268            2 
 1254000   0.77560117   -8.0668175    263.82864  0.017532472  0.017028853            1 
 1255000   0.75632344   -8.0833889    264.39401  0.017556043   0.01701504            2 
 1256000   0.75173017   -8.0973911    263.90153   0.01750939  0.017001264            4 
 1257000   0.75744832   -8.0557907    265.04904  0.017571535  0.016987486            2 
 1258000   0.74931246   -8.0999401     264.3573  0.017511745  0.016973738            1 
 1259000   0.74764492   -8.1114814    263.93848  0.017470114  0.016959954            2 
 1260000   0.73254161    -8.094812    264.00532  0.017460669  0.016946118            3 
 1261000   0.73759761   -8.0999795    264.52265  0.017481011  0.016932318            6 
 1262000   0.75949162   -8.0690921    264.33047  0.017454468  0.016918509            5 
 1263000   0.74399197   -8.0577056    264.57751  0.017456948  0.016904793            1 
 1264000   0.72451067   -8.0639332    264.56666  0.017442422  0.016891074            5 
 1265000    0.7565277   -8.0986473    264.08412  0.017396846  0.016877324            2 
 1266000    0.7531822   -8.0714715    264.53205  0.017412589  0.016863587            2 
 1267000   0.74509848   -8.0748774    264.17577  0.017375413  0.016849836            2 
 1268000   0.75776826   -8.0780128    264.48385  0.017381957  0.016836146            1 
 1269000   0.75670605   -8.0619808    265.06124  0.017406175  0.016822476            1 
 1270000   0.74225465   -8.0466264    264.66855  0.017366703  0.016808876            2 
 1271000   0.74100812   -8.0985903    264.63645  0.017350935  0.016795293            5 
 1272000   0.75938645   -8.0563449    264.77804   0.01734657  0.016781691            2 
 1273000   0.74286866   -8.0725214    265.12213  0.017355468   0.01676815            2 
 1274000   0.74263364   -8.0688954    265.07258  0.017338604  0.016754567            2 
 1275000   0.75204183   -8.0949687    264.41234  0.017281852  0.016741014            5 
 1276000   0.73517848   -8.0945607    265.25936  0.017323626  0.016727433            1 
 1277000   0.75099672   -8.0819926    265.38117  0.017318009  0.016713845            2 
 1278000   0.73923828   -8.1004058    264.89363  0.017272668  0.016700197            5 
 1279000   0.74084294   -8.0890996    264.52378  0.017235065  0.016686527            5 
 1280000   0.74067975   -8.0511979    264.65564  0.017230185  0.016672867            2 
 1281000   0.74222884   -8.0942211    264.08505  0.017179616  0.016659198            1 
 1282000   0.75243008   -8.0968131    264.38145  0.017185482  0.016645523            3 
 1283000   0.74504721   -8.0874444     264.4569  0.017176988  0.016631882            4 
 1284000   0.73931732   -8.1085247    264.73322  0.017181543   0.01661825            2 
 1285000   0.71884659   -8.1165122    265.03836  0.017187961  0.016604611            1 
 1286000   0.73819146   -8.1179238     264.5384  0.017142198  0.016590949            4 
 1287000   0.74372856   -8.0690665    265.31261  0.017179008  0.016577382            3 
 1288000   0.76302033   -8.0860302    264.62961  0.017121481  0.016563831            2 
 1289000   0.75799964   -8.0819495    264.74028  0.017115353  0.016550304            2 
 1290000   0.74785367   -8.0897357    264.75497  0.017103034   0.01653679            2 
 1291000   0.73876803   -8.0935803    265.24784  0.017121601  0.016523259            2 
 1292000   0.76183549   -8.0788567    264.56667  0.017064414  0.016509714            3 
 1293000   0.73975202   -8.0726607    265.47704  0.017109889  0.016496186            4 
 1294000   0.74317556   -8.0862416    265.15993  0.017076245  0.016482702            2 
 1295000   0.73618781     -8.09501    264.90175  0.017046445  0.016469185            6 
 1296000   0.75972911   -8.0807265    264.73471  0.017022551  0.016455615            6 
 1297000    0.7399045   -8.1345246    264.11666  0.016969716  0.016442025            2 
 1298000   0.73664259   -8.1117821    264.62393   0.01698921  0.016428392            3 
 1299000   0.73619265   -8.1314387    264.73629  0.016983339  0.016414795            3 
 1300000   0.72093136   -8.1262465    264.82593  0.016976021  0.016401239            2 
 1301000   0.73630517   -8.1106328    264.79515  0.016961001  0.016387729            1 
 1302000   0.73450583   -8.1240954    264.51201  0.016929852  0.016374213            2 
 1303000   0.72978467   -8.1234782    264.93591   0.01694397  0.016360706            2 
 1304000   0.73195995   -8.1110163    264.95953  0.016932485  0.016347208            1 
 1305000   0.73801411   -8.1290213    264.87106  0.016913861  0.016333722            3 
 1306000   0.71347087   -8.1018186    264.82396  0.016897904  0.016320237            1 
 1307000   0.72894912   -8.0833734    265.06553  0.016900378  0.016306759            3 
 1308000   0.73722529   -8.1058794    265.13466  0.016891862  0.016293311            3 
 1309000    0.7335338   -8.1032921    264.58611  0.016844036  0.016279837            2 
 1310000   0.72080923   -8.1386279    264.72755  0.016840175  0.016266404            1 
 1311000   0.73688753   -8.1287544    264.69861   0.01682549  0.016252929            1 
 1312000   0.72015036   -8.1604628    264.79874  0.016819026  0.016239458            5 
 1313000   0.73146038   -8.1427244    264.86324   0.01681031  0.016225994            2 
 1314000   0.72285976   -8.1428615    264.94725  0.016802844  0.016212531            3 
 1315000   0.71124369   -8.1413617      265.194  0.016805704  0.016199121            1 
 1316000   0.74000219   -8.1515144    264.40824  0.016743176  0.016185733            3 
 1317000   0.70288186   -8.1356793    265.12248  0.016775656  0.016172349            1 
 1318000   0.74497619   -8.1417291    265.31763  0.016775267  0.016158978            3 
 1319000   0.71888213   -8.1461221    264.91219  0.016736934  0.016145597            1 
 1320000   0.71561884   -8.1659658    264.77871  0.016715828  0.016132175            1 
 1321000    0.7246535   -8.1699564    264.45019   0.01668245  0.016118751            2 
 1322000   0.73578088   -8.1493971    265.43366  0.016731824  0.016105354            1 
 1323000    0.7119068   -8.1618998    264.89023  0.016684948  0.016092003            2 
 1324000    0.7400779   -8.1458044    265.14206  0.016688196  0.016078665            4 
 1325000   0.72911325    -8.158603    264.39657  0.016628715  0.016065298            2 
 1326000   0.73464685   -8.1506556    264.92798  0.016649571  0.016051978            2 
 1327000   0.72064021   -8.1518916    265.02759   0.01664328  0.016038626            5 
 1328000   0.71586046   -8.1400292    265.22152  0.016642917  0.016025326            1 
 1329000   0.73281882   -8.1616392    263.85972  0.016545004  0.016011997            5 
 1330000   0.74342381   -8.1494725    264.74798  0.016588219  0.015998648            2 
 1331000    0.7152838   -8.1199097    264.53807  0.016562614  0.015985303            1 
 1332000   0.71689287   -8.1390284    265.18789  0.016590834  0.015972004            3 
 1333000   0.72158028    -8.178673    264.51733  0.016536467  0.015958691            4 
 1334000   0.74110833   -8.1600287    264.82708  0.016543421  0.015945311            2 
 1335000   0.72456184   -8.1620626    264.15533  0.016489096  0.015931971            2 
 1336000    0.7278747   -8.1846595    264.10642  0.016473704  0.015918546            3 
 1337000    0.7263804   -8.1501751    264.07059  0.016459149  0.015905172            1 
 1338000   0.73213674   -8.1657599    264.52674  0.016475258  0.015891777            3 
 1339000   0.70638555   -8.1495714    264.93823  0.016488563  0.015878399            4 
 1340000    0.7114099   -8.1675575    264.61366  0.016456074   0.01586504            2 
 1341000   0.71369678   -8.1558587    264.67205   0.01644743  0.015851679            2 
 1342000   0.71204751   -8.1468065    265.11345  0.016462584  0.015838334            3 
 1343000   0.72845057   -8.1769983    264.16337  0.016391373  0.015825016            4 
 1344000   0.72262758   -8.1640031    265.07812  0.016435895  0.015811768            1 
 1345000   0.72276184   -8.1647153    264.55444  0.016391229  0.015798494            3 
 1346000   0.72330822    -8.160403    265.22473  0.016420551  0.015785223            2 
 1347000   0.72413043   -8.1874161    264.32915  0.016352954  0.015771936            1 
 1348000   0.70933647   -8.1967314    264.89784  0.016375979  0.015758626            2 
 1349000   0.71708457   -8.1473824    264.76783  0.016355809  0.015745374            2 
 1350000   0.72289552   -8.1772925    264.73683   0.01634178  0.015732149            4 
 1351000   0.70652037   -8.1910602    264.89071  0.016339175  0.015718939            5 
 1352000   0.70499037   -8.1786221    264.61686  0.016310211  0.015705707            2 
 1353000   0.70703531   -8.1709579    264.99795  0.016321628  0.015692481            1 
 1354000   0.71205845   -8.1680123    265.45068  0.016337437  0.015679285            2 
 1355000   0.72341348   -8.1979605      264.631  0.016274969  0.015666085            2 
 1356000   0.73665027   -8.1583766    265.09666  0.016291585    0.0156529            2 
 1357000   0.71786996   -8.1643908    264.77225  0.016259657  0.015639706            2 
 1358000   0.72048269   -8.1589002    265.27736  0.016278679  0.015626533            2 
 1359000   0.71084015   -8.1705417    265.02652   0.01625132  0.015613366            1 
 1360000   0.70652165   -8.1627752    264.94468  0.016234355  0.015600225            1 
 1361000   0.70681421   -8.1633413    264.79863  0.016213484  0.015587131            1 
 1362000   0.70794827    -8.199187    264.92711  0.016209441  0.015574045            2 
 1363000   0.69017337   -8.1797014    264.78837  0.016189067  0.015560966            1 
 1364000   0.71457981   -8.1964131    265.05166  0.016193283    0.0155479            2 
 1365000   0.69812736   -8.1706074    265.11799   0.01618547  0.015534826            3 
 1366000   0.69649088   -8.1910055    265.66367   0.01620691  0.015521784            1 
 1367000   0.70313244   -8.1907875    265.21005  0.016167401   0.01550874            1 
 1368000   0.69696814   -8.1745918    264.80859  0.016131128  0.015495709            2 
 1369000   0.71363235   -8.1920896    265.28258  0.016148197  0.015482672            4 
 1370000   0.71036247   -8.1875256    264.99365  0.016118835  0.015469614            2 
 1371000   0.71766534   -8.1719636    264.84827  0.016098241  0.015456563            1 
 1372000   0.71712805   -8.1956193    265.28341  0.016112938  0.015443563            3 
 1373000     0.716398   -8.2127263    265.57706  0.016119025  0.015430528            2 
 1374000   0.69349166   -8.1880742    265.27315  0.016088862   0.01541753            2 
 1375000   0.70961453   -8.2042402    265.11601  0.016067637  0.015404534            1 
 1376000   0.69931006   -8.2515895    265.19444   0.01606071  0.015391557            3 
 1377000    0.7204678   -8.2016523    265.59134  0.016073066  0.015378585            1 
 1378000   0.71563284   -8.2089975    265.91981  0.016081265  0.015365661            2 
 1379000   0.70981058    -8.215283    265.20657  0.016026503  0.015352717            2 
 1380000   0.68472681    -8.184841    265.65453   0.01604194  0.015339744            4 
 1381000   0.70186293   -8.2283318    265.15146  0.015999967  0.015326778            1 
 1382000   0.69298416   -8.1911864     265.3159  0.015998306  0.015313828            1 
 1383000   0.70783844   -8.1964495    265.49362  0.015997446  0.015300929            2 
 1384000   0.71192867   -8.2208705    264.82084  0.015945378  0.015288054            2 
 1385000   0.70241289   -8.2009426    265.04233  0.015947192  0.015275135            2 
 1386000   0.71667729   -8.2255377    265.23196  0.015947087  0.015262202            2 
 1387000   0.69967934   -8.2108158    265.42139  0.015946971  0.015249299            3 
 1388000   0.69178449   -8.2162975    265.05641  0.015913569  0.015236387            4 
 1389000   0.71801784   -8.2298327    265.30627  0.015917103  0.015223491            3 
 1390000   0.69699138   -8.2338468    264.80364  0.015875518  0.015210605            3 
 1391000   0.69970774   -8.2343971    264.95459  0.015873148  0.015197753            4 
 1392000   0.69107144   -8.2266739    265.17276  0.015874806  0.015184901            2 
 1393000   0.68890588   -8.2204519    265.60281  0.015889137  0.015172079            3 
 1394000   0.70398288   -8.2422802    265.38032  0.015864438  0.015159258            3 
 1395000   0.69606421   -8.2382463    265.20184  0.015842404   0.01514643            4 
 1396000   0.68752021   -8.2326982    264.74689  0.015803897  0.015133601            3 
 1397000   0.69950451   -8.2370346    265.10184  0.015813758  0.015120793            4 
 1398000    0.6933336    -8.251503    265.15941  0.015805878  0.015108021            3 
 1399000   0.68964224   -8.2218021    265.33727  0.015805175  0.015095225            1 
 1400000   0.69563217   -8.2647416    265.20937  0.015786272  0.015082429            1 
 1401000   0.70330879   -8.2218421    265.61804  0.015799312    0.0150697            1 
 1402000   0.70865676   -8.2568272    265.54573  0.015783746  0.015056983            1 
 1403000   0.68492673   -8.2293029    265.47102  0.015768058   0.01504429            1 
 1404000   0.69820643   -8.2463718     265.1436  0.015737393  0.015031602            4 
 1405000    0.6869973   -8.2373024    265.46298  0.015745135  0.015018921            2 
 1406000   0.69743471   -8.2341676    265.65507  0.015745322  0.015006241            1 
 1407000   0.70314719   -8.2222678      265.109  0.015701789  0.014993575            2 
 1408000   0.68979466   -8.2264481    265.57391  0.015718153  0.014980903            3 
 1409000   0.68411492   -8.2308896    265.73963  0.015716798  0.014968294            1 
 1410000   0.68222259   -8.2241945    265.92597  0.015716665  0.014955696            2 
 1411000   0.70437641   -8.2124859    266.01201  0.015710608  0.014943161            2 
 1412000   0.68778426   -8.2072466    265.38149  0.015662269  0.014930608            2 
 1413000   0.68846006   -8.2194263    265.85971  0.015679388  0.014918049            3 
 1414000   0.70152934   -8.2405713    265.43504  0.015643272  0.014905516            1 
 1415000   0.68876969   -8.2324755    265.83084  0.015655527  0.014892988            2 
 1416000   0.69185554    -8.205774    265.87683  0.015647177  0.014880484            3 
 1417000   0.69337665    -8.246154    265.70694  0.015626143   0.01486799            4 
 1418000   0.68652243   -8.2092113    265.47516  0.015601502  0.014855523            2 
 1419000   0.69242699   -8.2276021    265.32821  0.015581877  0.014843039            1 
 1420000   0.68379839   -8.2256337    265.53281  0.015582911  0.014830585            3 
 1421000   0.69008702   -8.2452307    265.80873  0.015588126  0.014818134            2 
 1422000    0.6906269   -8.2119503    265.96111  0.015586094   0.01480569            4 
 1423000   0.69128271   -8.2414969      265.693   0.01555944  0.014793246            2 
 1424000    0.6925933   -8.2525574    266.28328  0.015583057   0.01478082            2 
 1425000   0.66629419   -8.2091458    265.81581  0.015544784  0.014768433            4 
 1426000   0.70506194   -8.2588548    265.62494  0.015522729  0.014756059            2 
 1427000   0.69020027   -8.2379969    265.75467  0.015519427  0.014743653            2 
 1428000   0.67931144   -8.2334711    265.49079   0.01549316  0.014731251            4 
 1429000   0.66861118   -8.2368805    265.50136  0.015482934  0.014718877            2 
 1430000    0.6816276   -8.2589808    265.69534  0.015483411  0.014706526            2 
 1431000    0.6664666   -8.2458385    264.93224  0.015428153  0.014694164            6 
 1432000   0.68165816   -8.2566972    265.64908  0.015459094  0.014681822            2 
 1433000   0.67824262   -8.2468526    265.69722  0.015451106  0.014669455            2 
 1434000   0.65819762   -8.2512438    266.29592  0.015475123  0.014657056            3 
 1435000   0.69459831   -8.2439131    266.56743  0.015480106   0.01464471            2 
 1436000   0.66712161   -8.2548257    265.80506  0.015425085  0.014632353            2 
 1437000   0.68635313   -8.2722914    266.10994  0.015432031  0.014619993            3 
 1438000   0.67888729   -8.2633602    265.39185  0.015379686  0.014607642            2 
 1439000   0.67463618   -8.2661849    265.51551  0.015376159  0.014595297            2 
 1440000   0.68060145   -8.2446714    265.50498  0.015364872  0.014582968            1 
 1441000   0.67440852   -8.2779928    265.46316   0.01535179  0.014570672            2 
 1442000   0.67966096   -8.2761494    265.33138  0.015333529  0.014558357            1 
 1443000   0.66956709   -8.2575067    266.25981   0.01537652  0.014546074            2 
 1444000    0.6775761   -8.2717894    265.96762  0.015349009   0.01453378            3 
 1445000   0.66750438   -8.2766627    265.39622  0.015305434  0.014521471            2 
 1446000   0.67917618   -8.2708634    265.36565  0.015293088   0.01450918            5 
 1447000   0.68317624   -8.2878346    265.47705  0.015288934   0.01449694            2 
 1448000   0.68290285   -8.2789749    265.88142  0.015301647  0.014484679            1 
 1449000   0.67148194   -8.2904788    265.42979  0.015265113  0.014472445            2 
 1450000     0.681659   -8.2523328    265.79508  0.015275579   0.01446022            3 
 1451000   0.67068281   -8.2733533    266.04094  0.015279172  0.014447996            3 
 1452000   0.66528571   -8.2802453    265.94487  0.015263136  0.014435753            2 
 1453000   0.67532428   -8.2963912    265.91975   0.01525119  0.014423539            1 
 1454000    0.6699609   -8.2856631     265.4138  0.015211704  0.014411383            1 
 1455000   0.67929763    -8.288227    265.80614  0.015223719  0.014399215            3 
 1456000   0.67859085   -8.2981078    265.57644  0.015200117  0.014387043            3 
 1457000   0.66358135   -8.3023759    265.40009  0.015179598   0.01437487            2 
 1458000   0.66362607   -8.2763012    265.99163  0.015202997  0.014362712            4 
 1459000   0.67042448   -8.2816215    265.30033  0.015153091  0.014350568            3 
 1460000   0.67595554   -8.2899892    265.86178  0.015174759  0.014338411            2 
 1461000   0.69035757   -8.2805001    266.20912  0.015184184  0.014326269            2 
 1462000   0.67437876   -8.2711579    265.97328  0.015160356  0.014314138            2 
 1463000   0.66917664   -8.2827571    265.98976  0.015150932  0.014302022            3 
 1464000   0.67425664   -8.2767813    265.80375  0.015129995  0.014289914            2 
 1465000   0.66979698   -8.2737495    265.58214  0.015107061  0.014277814            1 
 1466000   0.66842267   -8.2811783    265.87093  0.015113172  0.014265705            1 
 1467000   0.68433226   -8.3053963    265.69032   0.01509261  0.014253602            2 
 1468000   0.65604039   -8.2977914    265.75809  0.015086177   0.01424152            7 
 1469000   0.67242791   -8.3060066    265.60091  0.015066991  0.014229457            1 
 1470000   0.65620625   -8.2830248    265.76519  0.015066054  0.014217403            2 
 1471000   0.67062386   -8.2767136    265.92945  0.015065117  0.014205388            2 
 1472000   0.66249061   -8.2884643    265.90285  0.015053377  0.014193389            1 
 1473000   0.66664096   -8.2887818    265.68924  0.015031072  0.014181365            2 
 1474000   0.66176452   -8.2903231    265.59425  0.015015505  0.014169353            1 
 1475000   0.66185641   -8.3018158    265.87253  0.015021047  0.014157374            1 
 1476000   0.66033082     -8.29592    265.76485  0.015004791  0.014145396            3 
 1477000   0.65155611   -8.2833943     266.3702  0.015028786  0.014133448            3 
 1478000   0.66524395   -8.2813258    265.79023  0.014985918  0.014121511            3 
 1479000   0.66560082   -8.2672438    266.21805   0.01499989   0.01410958            2 
 1480000   0.66000523   -8.2864391    266.05559  0.014980607  0.014097672            1 
 1481000   0.65494203   -8.3274698    265.56052  0.014942635  0.014085751            1 
 1482000   0.64886971   -8.2939388    265.47523  0.014927757  0.014073839            3 
 1483000   0.67300247   -8.2919794    265.82652  0.014937431  0.014061947            4 
 1484000   0.65326974   -8.3013485    265.51239  0.014909725  0.014050061            2 
 1485000   0.64785389   -8.3217892    265.46836  0.014897215  0.014038184            2 
 1486000   0.66162642   -8.3067375    265.76658  0.014903913  0.014026314            2 
 1487000   0.65693785   -8.3007196     266.3655  0.014927454  0.014014471            1 
 1488000   0.67248742   -8.2997369    266.70982  0.014936706  0.014002641            1 
 1489000   0.65118437   -8.3175953     265.7115  0.014870802  0.013990794            4 
 1490000   0.65337628   -8.3041182    265.72729  0.014861705  0.013978961            2 
 1491000    0.6515841   -8.2890496     265.4071  0.014833842  0.013967116            2 
 1492000   0.66009189   -8.3269576    265.61846  0.014835705  0.013955285            3 
 1493000   0.66298625   -8.3257309    265.65392  0.014827747  0.013943439            3 
 1494000   0.65795371   -8.3168308     266.0869  0.014841974  0.013931586            2 
 1495000   0.66201949   -8.3276366    265.57215  0.014803353  0.013919758            2 
 1496000   0.65574824   -8.3521007    265.18607  0.014771952  0.013907927            3 
 1497000   0.65576686   -8.3078815    265.87837  0.014800622  0.013896089            3 
 1498000   0.65699614   -8.3205284    265.82926  0.014788009    0.0138843            7 
 1499000   0.66058901   -8.3380809    265.19991  0.014743157   0.01387247            2 
 1500000   0.66084335   -8.3178452    266.01607  0.014778671  0.013860641            1 
 1501000   0.65715484   -8.3412961    265.50181  0.014740273  0.013848842            4 
 1502000   0.66731914   -8.3242567    265.67208  0.014739907  0.013837068            2 
 1503000   0.65566384   -8.3296273    265.26709  0.014707645   0.01382531            1 
 1504000   0.64811854   -8.3288568     265.9767  0.014737184  0.013813562            2 
 1505000    0.6542692   -8.3257333    265.00962  0.014673844  0.013801806            5 
 1506000   0.66375484   -8.3481454    265.18874  0.014674012  0.013790046            2 
 1507000   0.66245611   -8.3154425     265.3797  0.014674834  0.013778316            5 
 1508000   0.64588565   -8.3277705    266.00993   0.01469993  0.013766584            1 
 1509000   0.64988285   -8.3530188    265.72292  0.014674338  0.013754864            2 
 1510000   0.65843194   -8.3624374    265.49175  0.014651863  0.013743153            2 
 1511000   0.65310794   -8.3476988    265.34039  0.014633818  0.013731432            2 
 1512000   0.65551874   -8.3711446    265.11683  0.014611818  0.013719686            2 
 1513000   0.64638474   -8.3556502    264.99902  0.014595672  0.013707965            2 
 1514000   0.65316486   -8.3507685    265.22781  0.014598625  0.013696261            2 
 1515000   0.65897706   -8.3498035    265.47939  0.014602827  0.013684551            2 
 1516000   0.63983109   -8.3788544    264.70845  0.014550816  0.013672844            2 
 1517000   0.64548492   -8.3630367    264.79108  0.014545763  0.013661162            5 
 1518000   0.66497873   -8.3296846    266.11302  0.014608752  0.013649505            3 
 1519000   0.65349796   -8.3737564    264.75591  0.014524683  0.013637831            3 
 1520000   0.65160771   -8.3534433    264.91314  0.014523747  0.013626164            8 
 1521000   0.64091927   -8.3594676    265.14968  0.014527158  0.013614503            1 
 1522000    0.6639225   -8.3800569    265.08996  0.014514343  0.013602846            2 
 1523000   0.64174571   -8.3436284    264.81141  0.014489571  0.013591201            2 
 1524000    0.6480136   -8.3574274    265.38631    0.0145115  0.013579563            3 
 1525000   0.64585043   -8.3671684    265.55335  0.014511112  0.013567953            2 
 1526000   0.64237388    -8.359933    265.27794  0.014486563  0.013556338            2 
 1527000   0.65435599   -8.3750571    264.49444  0.014434318  0.013544728            1 
 1528000   0.65111433   -8.3771156    264.88046  0.014445924   0.01353313            1 
 1529000   0.64048119   -8.3676668    265.10189  0.014448544  0.013521544            2 
 1530000   0.65066855   -8.3691077    265.19857  0.014444367  0.013509971            2 
 1531000    0.6674863   -8.3829399    264.85454  0.014416206  0.013498368            2 
 1532000   0.63600139   -8.3593094    265.00694  0.014415086   0.01348678            2 
 1533000   0.63512573   -8.3564173    265.42035  0.014428156  0.013475202            3 
 1534000   0.64045102   -8.3588116    265.15162  0.014404151  0.013463651            1 
 1535000   0.64845793   -8.3948637    265.31588  0.014403685  0.013452095            4 
 1536000   0.64096177   -8.3921666    265.13603   0.01438455  0.013440542            2 
 1537000   0.63055044    -8.373042    264.47094  0.014339132  0.013428992            1 
 1538000    0.6486832   -8.3581503    264.41017  0.014326516  0.013417446            6 
 1539000   0.64209992   -8.3676622    264.78023  0.014337245  0.013405918            4 
 1540000   0.64863504   -8.3840125    264.59932  0.014318145  0.013394389            2 
 1541000   0.63677603   -8.3829584    264.59077  0.014308391   0.01338287            1 
 1542000   0.62401515   -8.3758477    265.23656  0.014334012  0.013371352            1 
 1543000   0.63252395   -8.3684331    265.12226  0.014318549  0.013359852            2 
 1544000   0.64222064   -8.3716746    264.90922  0.014297778  0.013348415            2 
 1545000   0.63432892   -8.3664314    264.93731  0.014290038   0.01333696            1 
 1546000   0.63605031   -8.3533885    265.47125  0.014309576  0.013325548            2 
 1547000   0.64768829   -8.3816816    264.83123   0.01426585  0.013314149            1 
 1548000   0.64084677   -8.3655637    264.89643  0.014260144   0.01330275            2 
 1549000   0.61902788   -8.3697879    265.02516  0.014257863  0.013291383            1 
 1550000    0.6214228   -8.3915891    265.49132  0.014273727  0.013280047            2 
 1551000   0.64057256    -8.359958     265.1641  0.014246943   0.01326871            2 
 1552000   0.62810933   -8.3570431     265.1839  0.014238826  0.013257386            2 
 1553000    0.6260822   -8.3767063    265.04569  0.014222241  0.013246075            2 
 1554000   0.63458839   -8.3881082    265.14467  0.014218397  0.013234742            3 
 1555000   0.62490399   -8.3900357    265.36143   0.01422087  0.013223411            1 
 1556000   0.62849315     -8.38679    265.16001  0.014200943    0.0132121            1 
 1557000   0.64802967   -8.3697773    265.31437  0.014200084  0.013200815            2 
 1558000   0.63199395   -8.3878659    264.94504  0.014171215  0.013189531            3 
 1559000   0.62187961    -8.360987    264.95129  0.014162459  0.013178258            1 
 1560000     0.624043   -8.3773964      264.531   0.01413093  0.013166996            3 
 1561000   0.63637014   -8.3588736    264.93361   0.01414337   0.01315575            2 
 1562000   0.63257873    -8.370442    264.97809  0.014136689  0.013144502            1 
 1563000   0.63141586   -8.3821163    265.34727  0.014147327  0.013133285            3 
 1564000   0.62465461   -8.3574775     264.9752  0.014118457  0.013122076            2 
 1565000    0.6257748    -8.378536    264.86753  0.014103702  0.013110866            3 
 1566000   0.63019338   -8.4091884    264.61538  0.014081278  0.013099662            2 
 1567000   0.64053932    -8.364133    265.27987   0.01410763  0.013088454            2 
 1568000   0.62376517   -8.3800181    264.79408  0.014072815  0.013077258            1 
 1569000   0.63167048   -8.3710785    264.71684  0.014059743  0.013066078            3 
 1570000   0.61823425   -8.3994036    265.46396  0.014090444  0.013054887            2 
 1571000   0.60805157   -8.3985668    265.03279  0.014058604  0.013043737            2 
 1572000   0.62439436   -8.3740482    265.14221  0.014055461  0.013032572            7 
 1573000   0.63552301   -8.3915653    264.78596  0.014027652  0.013021407            3 
 1574000   0.62242626   -8.3824714    264.78695  0.014018792  0.013010272            2 
 1575000   0.62538864   -8.3835517    265.19582  0.014031525  0.012999137            2 
 1576000   0.63105986   -8.3920855    264.52655  0.013987233  0.012987993            2 
 1577000   0.62350154    -8.394324    264.76995  0.013991226  0.012976874            2 
 1578000   0.62022899   -8.4021667    265.41822  0.014016594   0.01296576            3 
 1579000   0.63501853   -8.4191492    265.00751  0.013986041  0.012954682            5 
 1580000    0.6088433   -8.3963313    264.94872  0.013974089  0.012943605            1 
 1581000   0.63157065    -8.406487    264.99328  0.013967598  0.012932538            4 
 1582000   0.62010126   -8.4075736    264.79844  0.013948506  0.012921481            2 
 1583000   0.61671685   -8.3850728    264.78788  0.013939139  0.012910425            1 
 1584000   0.61721535   -8.3866987    265.20758  0.013952419  0.012899384            1 
 1585000   0.62109284   -8.4020013    265.17759   0.01394204  0.012888361            4 
 1586000   0.62008536   -8.4144154    264.52623  0.013899024   0.01287735            2 
 1587000   0.62389334   -8.3948314    264.66966  0.013897798  0.012866346            2 
 1588000   0.62377268    -8.421768    264.74569  0.013893036  0.012855323            3 
 1589000   0.63364273   -8.3979207    264.84305  0.013889399  0.012844338            1 
 1590000   0.61671296   -8.3952111    265.37349  0.013908464  0.012833358            2 
 1591000   0.61551024   -8.3999686    264.69101  0.013863975  0.012822379            2 
 1592000   0.61435013   -8.3894629    264.47451  0.013843934  0.012811398            1 
 1593000     0.611066   -8.3915188    264.75919  0.013850135  0.012800435            3 
 1594000   0.61403526   -8.4169319    265.21112  0.013865073  0.012789487            3 
 1595000   0.61950455   -8.4067821    264.91399  0.013840856  0.012778522            2 
 1596000   0.63376304   -8.3900032    264.81872   0.01382721  0.012767612            2 
 1597000   0.60823374   -8.4296125      264.811  0.013818148  0.012756712            3 
 1598000   0.61450416   -8.3884467    265.01271   0.01382002  0.012745813            1 
 1599000   0.61607522   -8.4180336     265.0549  0.013813576  0.012734914            1 
 1600000   0.60782883   -8.4198653    264.73553  0.013788309  0.012724013            2 
 1601000   0.61828096   -8.4119896    264.15568  0.013749515  0.012713136            3 
 1602000   0.59986418   -8.4064108    265.02548  0.013786177   0.01270227            1 
 1603000   0.60774136   -8.4345131    264.41041  0.013745603  0.012691407            1 
 1604000   0.60597669   -8.4338115    264.91223  0.013763104  0.012680552            3 
 1605000   0.61048372   -8.4064825    264.56112  0.013736299  0.012669709            1 
 1606000   0.60335729   -8.4030382    264.41975  0.013720411    0.0126589            1 
 1607000   0.60777473   -8.4079137    264.82202  0.013732733   0.01264809            4 
 1608000   0.60557472   -8.4040497    264.66294  0.013715949  0.012637309            2 
 1609000   0.61169379   -8.4197582    264.77298  0.013713123  0.012626518            2 
 1610000   0.60871707   -8.4147115    264.88034  0.013710163  0.012615754            2 
 1611000   0.60199301   -8.4091341    264.75266  0.013695048  0.012605006            2 
 1612000   0.60742344    -8.402392     265.0731  0.013703117   0.01259426            3 
 1613000   0.61044185   -8.4127317    264.79771  0.013680394   0.01258353            3 
 1614000   0.60924713   -8.4215201    264.71862  0.013667835   0.01257281            7 
 1615000   0.60044949   -8.4128863    264.99801  0.013673788  0.012562114            4 
 1616000   0.61266894   -8.4260448     264.7829  0.013654233  0.012551414            4 
 1617000   0.61898792   -8.4170832    264.80614  0.013646987  0.012540716            3 
 1618000   0.59934842   -8.4279453    265.19478  0.013658569  0.012530032            1 
 1619000   0.60336045   -8.4158531    264.69199  0.013624253  0.012519364            4 
 1620000   0.61270341   -8.4122774    264.76959  0.013619835  0.012508728            2 
 1621000   0.61517918    -8.411361     265.4707  0.013647476  0.012498102            2 
 1622000   0.60712543   -8.4112476    264.62853  0.013595794  0.012487485            1 
 1623000   0.60351423   -8.4296758    265.08444  0.013610825  0.012476862            4 
 1624000   0.61063048    -8.427585    264.91288  0.013593641   0.01246624            1 
 1625000   0.60464977   -8.4346595    265.33395  0.013606869  0.012455607            2 
 1626000   0.59271787   -8.4348286    264.69489  0.013565749  0.012445012            2 
 1627000   0.59980563   -8.4454206      264.936   0.01356976  0.012434419            1 
 1628000   0.60569628   -8.4449213     264.8212  0.013555549  0.012423826            4 
 1629000   0.60260215   -8.4506058    264.68344   0.01354018  0.012413226            2 
 1630000   0.59797475   -8.4420068    264.89703  0.013542793  0.012402636            2 
 1631000   0.58980048   -8.4269477    264.93055  0.013536202  0.012392045            2 
 1632000   0.60353582   -8.4440048    264.94673  0.013528734  0.012381474            1 
 1633000     0.597209   -8.4514548    264.71438  0.013508593  0.012370906            2 
 1634000   0.60190953   -8.4327625    264.72356  0.013500794  0.012360346            2 
 1635000   0.60492751   -8.4148846    264.59288  0.013485876  0.012349801            2 
 1636000   0.58949284   -8.4377038    264.82052  0.013489228  0.012339265            2 
 1637000   0.60297086   -8.4462312    264.37142  0.013458126  0.012328741            1 
 1638000   0.60229574   -8.4349378    264.74104  0.013468714  0.012318212            2 
 1639000   0.60469865   -8.4457095     264.3239  0.013439287  0.012307714            3 
 1640000   0.58877256   -8.4276433    264.81697  0.013456147  0.012297217            1 
 1641000   0.59526223   -8.4521963    264.57749  0.013435786  0.012286722            1 
 1642000   0.58159286   -8.4517061    264.63359   0.01343045  0.012276245            2 
 1643000   0.58970224   -8.4535678    264.91908  0.013436756  0.012265788            5 
 1644000    0.6078954   -8.4628396    264.28884  0.013396636  0.012255345            1 
 1645000   0.59627008   -8.4508309    264.28777  0.013388438  0.012244899            1 
 1646000    0.6110816   -8.4373632     264.6221   0.01339723   0.01223448            2 
 1647000   0.60371189   -8.4520296    264.32975  0.013374304  0.012224045            4 
 1648000   0.60501964   -8.4626938     264.4881  0.013374196  0.012213628            2 
 1649000   0.59703002   -8.4610327    264.91642  0.013387731  0.012203206            1 
 1650000    0.6042142   -8.4544611    264.72515  0.013369957  0.012192807            3 
 1651000   0.58159922   -8.4623343    264.44193  0.013347564  0.012182426            1 
 1652000   0.60581364   -8.4570076    264.68541  0.013351766  0.012172048            3 
 1653000   0.60431727   -8.4586627    264.22809  0.013320633  0.012161681            1 
 1654000   0.59270863   -8.4575702    264.43009  0.013322757  0.012151302            2 
 1655000   0.58409108   -8.4588555    264.66225  0.013326397  0.012140943            2 
 1656000   0.60139754   -8.4750255    264.12441  0.013291285  0.012130593            1 
 1657000   0.60320566   -8.4565016    264.40515  0.013297382  0.012120225            2 
 1658000   0.60004417   -8.4622212    263.72019  0.013254935  0.012109884            3 
 1659000   0.59547076   -8.4601655    264.76164  0.013299259  0.012099571            4 
 1660000   0.59322579   -8.4591093    264.44218   0.01327521  0.012089243            2 
 1661000    0.6005472   -8.4669314    264.04964  0.013247524   0.01207893            1 
 1662000   0.58963537   -8.4615314    263.84182  0.013229133  0.012068621            2 
 1663000   0.59218473   -8.4718836    263.80353  0.013219259  0.012058311            1 
 1664000   0.60160291   -8.4910057    264.32585  0.013237473  0.012048019            2 
 1665000   0.58756186   -8.4727871    264.01493   0.01321396  0.012037733            3 
 1666000   0.59781419    -8.480137    263.87214  0.013198887  0.012027459            1 
 1667000   0.59487336    -8.487555    264.27355  0.013211035  0.012017203            1 
 1668000   0.58340855    -8.456721    263.68151  0.013173537  0.012006943            2 
 1669000   0.60370294   -8.4750596    264.28348    0.0131957  0.011996695            2 
 1670000    0.5845326   -8.4806512    264.35628  0.013191431  0.011986462            4 
 1671000   0.58675282    -8.468849    264.28134  0.013179799  0.011976228            3 
 1672000    0.5894995   -8.4862614    264.27371  0.013171536  0.011966007            1 
 1673000   0.57673289   -8.4850887    263.73717  0.013136938  0.011955801            2 
 1674000   0.59215924   -8.4783221    264.04179  0.013144255  0.011945595            1 
 1675000    0.5804712    -8.481154    263.98575  0.013133619  0.011935399            3 
 1676000    0.5917604   -8.4601721    264.17904  0.013135394  0.011925231            4 
 1677000    0.5812618   -8.4792565    264.17621   0.01312742  0.011915067            2 
 1678000     0.575462   -8.4730245    264.26218  0.013123866  0.011904922            5 
 1679000   0.57273681    -8.487265    263.76792  0.013091519  0.011894768            2 
 1680000   0.59479125   -8.4862639    264.13845  0.013102106  0.011884626            3 
 1681000   0.59290132   -8.4786991    264.28612  0.013101632  0.011874493            2 
 1682000   0.58388647   -8.4939208    263.91174  0.013075294  0.011864372            2 
 1683000   0.59691781   -8.4967658    263.81375  0.013062674  0.011854246            1 
 1684000   0.57925508   -8.4928982    263.92371  0.013060358  0.011844129            3 
 1685000   0.58131238   -8.4926115    263.66469  0.013039797  0.011834019            3 
 1686000   0.58156377   -8.5018348    264.24812    0.0130609  0.011823926            2 
 1687000   0.57542404   -8.4823248    264.31343  0.013056384  0.011813843            2 
 1688000   0.58451213   -8.4861412    264.04901  0.013035595  0.011803775            2 
 1689000   0.59694217   -8.4997381    263.47362  0.012999488  0.011793722            1 
 1690000   0.57231692   -8.4960197    263.99241  0.013017377  0.011783664            1 
 1691000   0.59333542   -8.4698657    264.68829  0.013043973  0.011773613            2 
 1692000   0.56581674   -8.5032519    264.14801  0.013009654  0.011763577            2 
 1693000   0.59498212   -8.4712766    264.51782  0.013020172  0.011753564            2 
 1694000   0.56898012   -8.4869909    263.69888    0.0129722  0.011743557            6 
 1695000    0.5707803   -8.5036567    263.76332  0.012967715  0.011733545            3 
 1696000   0.57983932   -8.4799508    263.60489  0.012952284  0.011723551            1 
 1697000   0.59015231   -8.5049848    264.14488  0.012971169  0.011713566            2 
 1698000   0.57554194     -8.49057     263.9414  0.012953543  0.011703579            2 
 1699000   0.57622452   -8.5180363    263.82004  0.012939967  0.011693608            4 
 1700000   0.57678353   -8.5041124    264.13984  0.012948031  0.011683627            1 
 1701000   0.57224434   -8.4972868    263.70029  0.012918885  0.011673675            2 
 1702000   0.57293268   -8.4825824    263.86061  0.012919144   0.01166373            6 
 1703000   0.57257235   -8.5053475    263.95729  0.012916289  0.011653788            4 
 1704000   0.56960102   -8.5114383    263.82329  0.012902156  0.011643859            2 
 1705000   0.57521187   -8.5099899    263.94063  0.012900324  0.011633955            3 
 1706000   0.57498621   -8.5240412    263.70369  0.012881188  0.011624045            1 
 1707000   0.55599469   -8.4939814    263.46901  0.012862186   0.01161414            3 
 1708000   0.57916467   -8.5140045    264.00996  0.012881048  0.011604217            4 
 1709000   0.57021356   -8.5173506     263.6496  0.012855939  0.011594318            5 
 1710000    0.5622348   -8.5092064    263.74316  0.012852981  0.011584421            5 
 1711000   0.57453588   -8.5088483    263.75913  0.012846246  0.011574537            2 
 1712000   0.57175156   -8.5208337    263.84622  0.012842982  0.011564647            4 
 1713000   0.56985014    -8.509428    263.63268  0.012825096  0.011554768            2 
 1714000   0.57730305   -8.5214278    263.48176  0.012810276  0.011544897            2 
 1715000   0.56088169   -8.5118614    263.98737  0.012827375  0.011535046            4 
 1716000    0.5677316   -8.5174463    263.51319  0.012796872  0.011525206            3 
 1717000   0.55729505   -8.5246983    263.84706  0.012805623  0.011515381            2 
 1718000   0.56770751   -8.5167177     263.3663  0.012774849  0.011505568            3 
 1719000   0.55954995   -8.5273538    263.28421  0.012763439  0.011495752            3 
 1720000   0.56010392   -8.5283376    263.34726  0.012759073  0.011485947            2 
 1721000   0.56994322   -8.5304861    263.79459  0.012773319   0.01147616            5 
 1722000   0.56961594   -8.4981574    263.81111  0.012766701  0.011466385            3 
 1723000   0.56251097   -8.5119587    263.89227  0.012763217  0.011456631            1 
 1724000   0.55875848   -8.5349304    263.73869   0.01274839  0.011446868            2 
 1725000    0.5668618   -8.5257197    263.60575  0.012734577   0.01143711            2 
 1726000   0.57007532   -8.5204805    263.65102  0.012729385  0.011427365            5 
 1727000   0.56441939   -8.5435831    263.49442  0.012714458   0.01141763            2 
 1728000   0.57432961    -8.526026    263.67587   0.01271585   0.01140789            4 
 1729000   0.56649861   -8.5381739    263.16107  0.012683684  0.011398155            2 
 1730000   0.56325722   -8.5281428    263.57427  0.012696256  0.011388432            2 
 1731000   0.56747142    -8.532579     263.3706  0.012679116  0.011378714            4 
 1732000   0.56928072   -8.5338238    263.33458  0.012670063  0.011369009            2 
 1733000   0.55855037   -8.5138882     263.1875  0.012655679  0.011359307            2 
 1734000   0.57153018   -8.5369137     263.4132  0.012659227  0.011349605            3 
 1735000   0.56405809   -8.5151114    263.48153  0.012655213  0.011339924            2 
 1736000   0.56642492   -8.5304629    262.99746  0.012624686  0.011330242            4 
 1737000   0.55465916   -8.5483726    263.57459  0.012645106  0.011320585            2 
 1738000   0.55541921   -8.5422994     263.3659  0.012627824  0.011310915            5 
 1739000   0.55765362   -8.5439817    263.29895  0.012617354  0.011301262            2 
 1740000   0.57733574   -8.5386509    262.98584  0.012595107  0.011291619            2 
 1741000   0.56258053   -8.5422896    262.97829  0.012587512  0.011281977            3 
 1742000   0.56871097   -8.5472175    263.08521    0.0125854  0.011272346            2 
 1743000   0.55980698   -8.5177252    263.27341  0.012587178  0.011262722            3 
 1744000   0.56734568   -8.5454508    262.86101  0.012560255  0.011253097            3 
 1745000   0.55210399   -8.5340569      263.215  0.012569962  0.011243493            3 
 1746000    0.5384486   -8.5501208    263.17947  0.012561067  0.011233904            2 
 1747000   0.54799363   -8.5374203    262.60807   0.01252662  0.011224315            3 
 1748000   0.55907645   -8.5291126    263.67003  0.012570081  0.011214743            4 
 1749000   0.55050668   -8.5548058    263.27665  0.012544152  0.011205183            3 
 1750000   0.55597699   -8.5369141    262.86946  0.012517594   0.01119563            2 
 1751000   0.55082531   -8.5093021    263.06183    0.0125196  0.011186086            4 
 1752000   0.55410275   -8.5504173    263.06272  0.012512496  0.011176565            2 
 1753000   0.55534488    -8.552881    262.88712  0.012497011  0.011167047            2 
 1754000   0.55536753   -8.5394656    263.50078  0.012519041  0.011157529            2 
 1755000   0.55324916    -8.547118    263.24956  0.012499979  0.011148024            2 
 1756000   0.54594227   -8.5656607    263.40805  0.012500382  0.011138517            2 
 1757000   0.55328788   -8.5482848    263.58366  0.012501596  0.011129028            2 
 1758000   0.54752856   -8.5642832    263.12355  0.012472675  0.011119539            2 
 1759000   0.55229795   -8.5450998    263.07818  0.012463435  0.011110053            3 
 1760000    0.5508095   -8.5548878    262.92092  0.012448907   0.01110059            3 
 1761000    0.5424615   -8.5327224    263.48201   0.01246839  0.011091151            2 
 1762000   0.53972345   -8.5432179    262.76288  0.012427302  0.011081716            2 
 1763000   0.55697711   -8.5390559    263.09082  0.012435754  0.011072281            2 
 1764000   0.56096322   -8.5294805    263.23252  0.012435399   0.01106285            3 
 1765000    0.5574539   -8.5584502      263.211  0.012427337  0.011053449            2 
 1766000   0.54910014   -8.5620523    262.64284   0.01239349   0.01104404            1 
 1767000   0.54486801   -8.5428906    262.89979  0.012398594  0.011034643            1 
 1768000   0.54886836   -8.5512313    262.46379  0.012371031   0.01102526            1 
 1769000    0.5522478   -8.5259037    262.87488  0.012383403  0.011015886            3 
 1770000   0.55087053   -8.5593663    263.14217  0.012388991  0.011006517            2 
 1771000   0.56175804   -8.5488478    262.67715  0.012360114  0.010997165            3 
 1772000   0.54985655   -8.5598925     263.2903  0.012381974  0.010987815            2 
 1773000   0.54601704    -8.555336    262.93523  0.012358302  0.010978481            3 
 1774000   0.54747315   -8.5430659    263.63486  0.012384201   0.01096914            2 
 1775000   0.53276918   -8.5612735    262.96934  0.012345979  0.010959826            1 
 1776000   0.53287196   -8.5570803    262.91944  0.012336686  0.010950506            2 
 1777000   0.54467739   -8.5718113    262.91926  0.012329735  0.010941201            3 
 1778000   0.53487919   -8.5388278    263.03298   0.01232813  0.010931913            6 
 1779000   0.53519457   -8.5726459    263.48082  0.012342178  0.010922621            2 
 1780000   0.52865525   -8.5645995    263.03581   0.01231441  0.010913349            4 
 1781000   0.54204606    -8.584092    262.90134  0.012301204  0.010904082            3 
 1782000   0.53896087   -8.5685899    262.57426  0.012279006  0.010894824            3 
 1783000   0.53547962   -8.5584603    262.98317   0.01229123  0.010885574            2 
 1784000   0.52529461    -8.562279    262.89242  0.012280102   0.01087634            1 
 1785000   0.55142374   -8.5724781    263.14273  0.012284908  0.010867108            2 
 1786000   0.53682407   -8.5672275    262.83158  0.012263512  0.010857887            1 
 1787000   0.54487114   -8.5583435    262.79095  0.012254754  0.010848664            3 
 1788000   0.53742943   -8.5648194    262.85545  0.012250907  0.010839458            1 
 1789000    0.5387643   -8.5564069    262.86972  0.012244723  0.010830274            2 
 1790000   0.53367225   -8.5731247    263.03288  0.012245478   0.01082108            3 
 1791000   0.53409399   -8.5678538    262.97766  0.012236072  0.010811906            3 
 1792000   0.54521934   -8.5778194    262.75094  0.012218701  0.010802747            2 
 1793000    0.5343656   -8.5783835    262.51607   0.01220097  0.010793585            2 
 1794000   0.53604222    -8.569676    262.73967  0.012204555  0.010784431            5 
 1795000   0.54929419   -8.5760051    262.52019  0.012187567  0.010775289            2 
 1796000   0.52979943   -8.5743796    262.83614  0.012195441  0.010766153            2 
 1797000   0.52891776    -8.575408    262.94351  0.012193633  0.010757042            1 
 1798000   0.54594285    -8.570005    263.01736  0.012190274  0.010747939            2 
 1799000   0.54460574    -8.573351    263.03602  0.012184363  0.010738843            2 
 1800000   0.54908569   -8.5938668    262.65198  0.012159814  0.010729758            2 
 1801000   0.54064865   -8.5572141    262.83868  0.012161701  0.010720677            2 
 1802000    0.5365528   -8.5733212    262.42278  0.012135719  0.010711605            4 
 1803000    0.5419395   -8.5904257    262.83399  0.012147994  0.010702539            2 
 1804000   0.55781446   -8.5905523    262.39079  0.012120786  0.010693481            3 
 1805000    0.5312001   -8.5867427    262.93326  0.012139116  0.010684442            2 
 1806000   0.53194602     -8.56043    262.76231  0.012124507  0.010675406            2 
 1807000   0.53290072    -8.572984    262.97842  0.012127763  0.010666382            3 
 1808000   0.52683685   -8.5925754    262.97797  0.012121035  0.010657361            1 
 1809000   0.53122882   -8.5743936    262.89142  0.012110347  0.010648358            3 
 1810000   0.53896286   -8.5811233    262.87846   0.01210306  0.010639358            4 
 1811000    0.5277978   -8.5781681    263.19903  0.012111128  0.010630387            1 
 1812000   0.52425461   -8.5990498    262.81898  0.012086966  0.010621402            5 
 1813000   0.52530631   -8.5885393    262.92487  0.012085166  0.010612426            2 
 1814000   0.53192011   -8.5778587    262.75048  0.012070493  0.010603449            2 
 1815000   0.52662023   -8.5820605    262.69528  0.012061308  0.010594502            3 
 1816000   0.53049605   -8.5682497     262.5631    0.0120486  0.010585558            3 
 1817000   0.51767751   -8.6072916     262.6887   0.01204773  0.010576627            1 
 1818000   0.53265466    -8.581497    262.40197   0.01202796    0.0105677            2 
 1819000   0.52957154   -8.5788571    262.29397  0.012016399   0.01055878            3 
 1820000   0.52762905   -8.5881954     262.8901  0.012037093  0.010549866            2 
 1821000   0.51793741   -8.5856928    262.47049   0.01201128  0.010540964            2 
 1822000   0.51584528   -8.5827187    261.98985  0.011982705  0.010532064            2 
 1823000   0.52359248   -8.5894362    262.47337  0.011998234  0.010523175            1 
 1824000   0.52350244   -8.6201976    262.83872  0.012008348  0.010514294            2 
 1825000   0.53417245   -8.5901046    262.56405  0.011989226   0.01050542            1 
 1826000   0.52181517   -8.6031085    262.42193  0.011976174  0.010496545            1 
 1827000    0.5252205    -8.595325    262.24928  0.011961744  0.010487688            2 
 1828000   0.52600818   -8.6028714    262.47891  0.011965669   0.01047884            3 
 1829000   0.52606709   -8.6126889    262.86526   0.01197673  0.010469996            5 
 1830000   0.52061929   -8.6038427    262.13458  0.011936912  0.010461167            2 
 1831000   0.52484098   -8.5938534    262.46868  0.011945598  0.010452344            2 
 1832000   0.52253315   -8.5950213    262.47615  0.011939417  0.010443524            3 
 1833000   0.52212094    -8.595096     262.5822  0.011937725  0.010434712            2 
 1834000   0.51738525   -8.6081701     262.1819  0.011913027   0.01042591            4 
 1835000   0.51046527   -8.5862989    262.80499  0.011934831  0.010417115            3 
 1836000   0.51841153   -8.5888607    262.56711  0.011917534  0.010408332            2 
 1837000   0.52810892   -8.6026992    262.75139  0.011919406  0.010399548            2 
 1838000    0.5214923   -8.6113339    262.48116  0.011900669  0.010390784            2 
 1839000   0.51691596    -8.583976    262.44138  0.011892395  0.010382027            3 
 1840000   0.51680148   -8.6112811    262.11159  0.011870996  0.010373282            3 
 1841000    0.5205628   -8.6158886    262.32166  0.011874057  0.010364543            3 
 1842000   0.50935685   -8.6169013    261.99078  0.011852641  0.010355819            2 
 1843000   0.51695558   -8.6178294    262.44293  0.011866655  0.010347092            5 
 1844000   0.52317031   -8.6112856    262.22997  0.011850595  0.010338379            1 
 1845000   0.50882053    -8.613012     262.2865  0.011846725  0.010329679            2 
 1846000   0.51527639   -8.6112653    262.00715  0.011827697  0.010320977            3 
 1847000   0.51455229   -8.6113744    262.08874  0.011824975  0.010312284            4 
 1848000   0.51870456   -8.6077382    262.40632  0.011832897  0.010303622            7 
 1849000   0.50167962   -8.6143794    261.72419  0.011795754  0.010294954            3 
 1850000   0.51511255   -8.6106607     262.4062  0.011820099  0.010286303            3 
 1851000   0.51426997   -8.6125059    262.29477  0.011808697  0.010277657            3 
 1852000    0.4978092   -8.6061316     262.4645  0.011809958  0.010269016            1 
 1853000   0.51001757   -8.6191817     262.0223  0.011783698  0.010260383            3 
 1854000   0.50315396   -8.6166939    262.11064  0.011781312  0.010251763            5 
 1855000   0.52066354    -8.632166    261.70904   0.01175692  0.010243149            3 
 1856000   0.53082596   -8.6138665    262.32258  0.011778133  0.010234547            3 
 1857000   0.49974651   -8.6066586    262.19507  0.011766069  0.010225956            2 
 1858000   0.51063353    -8.610111    262.24401  0.011761931  0.010217376            2 
 1859000   0.50857573    -8.625171    261.81765  0.011736491  0.010208797            5 
 1860000   0.50746842   -8.6268673    262.42703  0.011757484  0.010200226            2 
 1861000   0.51115882   -8.6223247    262.40551  0.011750202  0.010191656            2 
 1862000    0.5182622   -8.6160269    262.15555  0.011732705  0.010183105            2 
 1863000   0.50671704   -8.6143126    262.18508  0.011727728  0.010174556            2 
 1864000   0.50724052   -8.6115506    262.17606  0.011721033  0.010166021            2 
 1865000    0.5204883    -8.627752    262.32329  0.011721327  0.010157496            3 
 1866000   0.49167447   -8.6048109    262.17041  0.011708217  0.010148975            1 
 1867000   0.51554232   -8.6258915    262.37467  0.011711064  0.010140465            2 
 1868000   0.50719965   -8.6109521    262.21278  0.011697572  0.010131964            3 
 1869000   0.51554435   -8.6280887    262.05135  0.011684116  0.010123478            1 
 1870000   0.49927815   -8.5958237    262.13839  0.011681746  0.010114999            2 
 1871000   0.50707207   -8.6240334    261.97916  0.011668411  0.010106533            4 
 1872000   0.50281406   -8.6139039    262.35291  0.011678815  0.010098074            2 
 1873000   0.49806908   -8.6132974    262.38156  0.011673855  0.010089626            2 
 1874000      0.50444   -8.6331294    262.25101   0.01166182  0.010081178            3 
 1875000   0.51634885    -8.613784    261.92095  0.011640931  0.010072744            4 
 1876000   0.50761828   -8.6391623    262.04879  0.011640405  0.010064318            3 
 1877000   0.51160839   -8.6445512    262.06487  0.011634917  0.010055901            2 
 1878000   0.50037195   -8.6126835    261.80124  0.011617023  0.010047489            3 
 1879000    0.5076364   -8.6378736    262.16134  0.011626811  0.010039101            2 
 1880000   0.50807749   -8.6197094    262.39193  0.011630848  0.010030714            1 
 1881000   0.49792856   -8.6332283    261.89817   0.01160279  0.010022337            5 
 1882000   0.50592096   -8.6304675    262.55765  0.011625826  0.010013963            1 
 1883000    0.4947474   -8.6295052    261.98086  0.011594125  0.010005596            5 
 1884000   0.50586835   -8.6358374    262.27091  0.011600801 0.0099972336            2 
 1885000   0.50366791   -8.6196492    261.91087   0.01157873 0.0099888926            3 
 1886000   0.50230539   -8.6286821    261.65097  0.011561107 0.0099805472            2 
 1887000   0.49541061   -8.6352324    262.12029  0.011575706 0.0099722098            2 
 1888000   0.50995952   -8.6474649    262.13632  0.011570282 0.0099638858            3 
 1889000   0.48307073   -8.6403849    262.07203  0.011561321  0.009955567            5 
 1890000   0.49619221   -8.6329434    261.95902  0.011550221 0.0099472608            3 
 1891000   0.48867584    -8.619835    262.06009  0.011548567 0.0099389672            2 
 1892000    0.4839404   -8.6294981    262.00355  0.011539973 0.0099306836            3 
 1893000   0.50063821   -8.6392469    262.43236  0.011552754 0.0099224087            1 
 1894000   0.48887272   -8.6281841    261.93507  0.011524774 0.0099141281            2 
 1895000   0.49506377   -8.6477107     262.4925  0.011543206  0.009905866            1 
 1896000    0.4950798   -8.6488555    262.04605  0.011517495 0.0098976121            2 
 1897000   0.49352171   -8.6296357    261.97221   0.01150818 0.0098893652            3 
 1898000   0.49226398   -8.6373837    261.91829  0.011499749 0.0098811246            2 
 1899000   0.49205392   -8.6355966    261.79364  0.011488223 0.0098728916            3 
 1900000   0.49916859   -8.6272821    261.89995   0.01148684 0.0098646648            4 
 1901000   0.49613327   -8.6567653    261.78341  0.011475689 0.0098564543            1 
 1902000   0.49289019   -8.6419898    262.19116   0.01148752 0.0098482459            3 
 1903000   0.49028296   -8.6412269    261.71624  0.011460686 0.0098400477            3 
 1904000   0.48956426   -8.6509866    262.03438  0.011468592 0.0098318568            2 
 1905000   0.49564301   -8.6363431    262.11314  0.011466017 0.0098236812            5 
 1906000   0.48913882   -8.6340825    262.19566  0.011463609 0.0098155194            3 
 1907000    0.4910763   -8.6449248    261.73146  0.011437312 0.0098073565            2 
 1908000   0.49566198   -8.6518756    262.21696  0.011452523 0.0097992028            1 
 1909000   0.49105309   -8.6411082    261.96005  0.011435309 0.0097910526            4 
 1910000   0.49216938   -8.6434131    261.69623  0.011417811 0.0097829188            4 
 1911000   0.49316688   -8.6589872     262.1267  0.011430608 0.0097747896            2 
 1912000   0.48451554   -8.6494452    261.72238  0.011407007 0.0097666716            3 
 1913000   0.49195556   -8.6540052    262.01984  0.011414002 0.0097585526            3 
 1914000   0.47913465   -8.6552872    261.92719  0.011404005 0.0097504389            3 
 1915000   0.48903998     -8.66053    261.64889   0.01138594 0.0097423308            2 
 1916000   0.49832619   -8.6528109     261.7942  0.011386317 0.0097342312            2 
 1917000   0.48392492   -8.6435378    261.78625  0.011380032 0.0097261422            3 
 1918000   0.48897112   -8.6427776    261.43605  0.011358883 0.0097180692            3 
 1919000   0.48906799   -8.6552158    261.51684  0.011356472 0.0097099939            3 
 1920000   0.48099671   -8.6526657    261.98165  0.011370731 0.0097019359            2 
 1921000   0.48103238   -8.6441394    261.93454  0.011362768 0.0096938728            2 
 1922000    0.4933566   -8.6502185    261.32411   0.01133039 0.0096858337            2 
 1923000   0.47587503   -8.6342053    261.37837  0.011326849 0.0096777918            2 
 1924000   0.48163155   -8.6476669    261.49673  0.011326088 0.0096697658            2 
 1925000   0.48292941   -8.6597685     261.9287  0.011338905 0.0096617383            2 
 1926000   0.49175467   -8.6553617    261.72961  0.011324403 0.0096537268            2 
 1927000   0.48519528   -8.6453461    261.78993  0.011321135 0.0096457237            1 
 1928000   0.47137296   -8.6405662    261.99822  0.011324266  0.009637732            3 
 1929000    0.4879708   -8.6651572    261.38813  0.011292039 0.0096297513            3 
 1930000   0.48700356   -8.6556585    261.90699  0.011308592 0.0096217739            2 
 1931000   0.48897536   -8.6463485    261.65537  0.011291877 0.0096138064            4 
 1932000   0.46592147   -8.6583908    261.75891  0.011290498 0.0096058542            2 
 1933000   0.47914714   -8.6495106    261.38894  0.011268707 0.0095979077            2 
 1934000   0.48337939   -8.6506056    262.19434  0.011297584 0.0095899646            5 
 1935000   0.48078461   -8.6630062    261.57796  0.011265201 0.0095820346            4 
 1936000   0.49408433   -8.6636932    261.99817   0.01127747  0.009574111            2 
 1937000   0.48985475   -8.6606987    261.86301  0.011265833 0.0095661893            3 
 1938000   0.48230713    -8.664148    261.63481  0.011250207 0.0095582818            2 
 1939000   0.48229867   -8.6603481    261.54381  0.011240494 0.0095503749            3 
 1940000   0.47715715   -8.6669974    261.43175  0.011229886 0.0095424778            2 
 1941000   0.49011818   -8.6647482     261.3587  0.011220964 0.0095345872            1 
 1942000   0.47288856   -8.6613796    261.54824   0.01122332 0.0095267061            2 
 1943000   0.47334322   -8.6731106    262.05019  0.011239071   0.00951884            2 
 1944000   0.47189942    -8.681649    261.91568  0.011227524 0.0095109756            3 
 1945000   0.48771104   -8.6751917    261.36948   0.01119835 0.0095031223            2 
 1946000   0.48134287   -8.6598827    261.51179  0.011198689 0.0094952697            2 
 1947000   0.47385875   -8.6747577    261.51699   0.01119316 0.0094874338            2 
 1948000   0.46508521   -8.6698127    261.39534   0.01118221 0.0094796059            3 
 1949000   0.47045919   -8.6849328    261.45198  0.011178894  0.009471785            2 
 1950000   0.47359108   -8.6653734    261.40283  0.011171061 0.0094639701            3 
 1951000   0.47533711    -8.661556    261.28319  0.011160225 0.0094561661            3 
 1952000   0.47888049   -8.6767855    261.19102  0.011150573 0.0094483674            2 
 1953000   0.47663513   -8.6724287    261.31872  0.011150312 0.0094405749            3 
 1954000   0.47066566   -8.6618267    261.22542  0.011140627 0.0094327892            2 
 1955000   0.47289096   -8.6783762    261.59905  0.011150854 0.0094250267            2 
 1956000   0.47432836   -8.6950647    261.80935  0.011154113 0.0094172669            2 
 1957000   0.48007295   -8.6643072    261.65828  0.011141981 0.0094095086            2 
 1958000   0.46715498   -8.6689533    261.52112  0.011130453 0.0094017541            2 
 1959000   0.47431496   -8.6801926    261.76529  0.011135158 0.0093940091            5 
 1960000   0.46841205   -8.6775289    261.65845  0.011124934 0.0093862781            2 
 1961000   0.47424463   -8.6753283    261.34097   0.01110577 0.0093785495            3 
 1962000   0.47014873   -8.6789808    261.60192  0.011111193 0.0093708366            3 
 1963000   0.45902646   -8.6892387    261.85548  0.011116297 0.0093631235            2 
 1964000   0.46923687   -8.6820813     261.0757   0.01107755 0.0093554221            3 
 1965000   0.47688643   -8.6882113    261.70545   0.01109862 0.0093477327            2 
 1966000   0.46710713   -8.6837679    261.45604  0.011082403 0.0093400383            3 
 1967000   0.46121823   -8.6819948     261.2499  0.011068035 0.0093323508            3 
 1968000   0.46663404   -8.6990341    261.18124  0.011059504 0.0093246738            2 
 1969000   0.46582745   -8.6763574    261.26035  0.011057235 0.0093170097            2 
 1970000   0.46500581   -8.6886606    261.40833  0.011057882  0.009309349            2 
 1971000   0.46610914   -8.6831854    260.82306  0.011027527 0.0093017012            2 
 1972000    0.4728965   -8.6945565    261.10868  0.011034004 0.0092940603            1 
 1973000    0.4619033   -8.6767372    261.28593  0.011035898 0.0092864227            4 
 1974000   0.45616911   -8.6739389    261.19152  0.011026322 0.0092787926            2 
 1975000   0.45822597   -8.6811278    261.58256  0.011037239 0.0092711748            4 
 1976000   0.47107801   -8.6803679    260.99248  0.011006768 0.0092635622            3 
 1977000   0.46080219    -8.694787    261.25781  0.011012385 0.0092559616            2 
 1978000   0.46516809   -8.6806689    261.19549  0.011004191  0.009248361            2 
 1979000   0.47221721   -8.6975808     261.0802  0.010993777 0.0092407682            2 
 1980000    0.4586551   -8.6925932    261.30353  0.010997623 0.0092331818            2 
 1981000   0.46525216   -8.6727275    260.54603  0.010960207 0.0092256085            2 
 1982000   0.46263513   -8.7042985    260.95574  0.010971903 0.0092180408            2 
 1983000   0.45392688   -8.6977816    261.25864  0.010979099 0.0092104778            3 
 1984000    0.4707214   -8.6931276     261.3087  0.010975668 0.0092029246            1 
 1985000   0.46311016   -8.6890687    260.92175  0.010953894 0.0091953781            2 
 1986000   0.45953243   -8.6946571    261.20716  0.010960354 0.0091878457            2 
 1987000   0.46376552   -8.7070377    261.10173  0.010950417 0.0091803188            2 
 1988000   0.46413168   -8.7126662    261.13173  0.010946166 0.0091727979            3 
 1989000   0.45826834   -8.6833325    261.32021  0.010948559   0.00916529            3 
 1990000   0.45872891   -8.6947074    261.61842  0.010955545 0.0091577837            2 
 1991000   0.45968246   -8.7045541    261.02223  0.010925089 0.0091502877            4 
 1992000   0.45613391   -8.6897414    261.01015  0.010919099    0.0091428            4 
 1993000   0.45682717   -8.6883159    261.17386  0.010920466 0.0091353233            3 
 1994000   0.45376387   -8.6774065    261.36415  0.010922942 0.0091278497            3 
 1995000   0.46887314   -8.6965496     261.7901  0.010935259 0.0091203862            2 
 1996000   0.45843255   -8.7008881       261.07  0.010899716 0.0091129328            3 
 1997000   0.45148998   -8.6957638    261.00679   0.01089162 0.0091054766            2 
 1998000   0.46354655   -8.6824653    260.86846    0.0108804 0.0090980308            3 
 1999000   0.45896046    -8.701944    261.33783  0.010894524 0.0090905965            1 
 2000000   0.44635143    -8.694819    260.90468  0.010871028 0.0090831711            4 
 2001000   0.44745839   -8.7133624    261.10349  0.010873875 0.0090757507            2 
 2002000   0.44874346   -8.7125244    261.09575  0.010868121 0.0090683384            3 
 2003000   0.44836901   -8.7140817    261.21837  0.010867797 0.0090609278            2 
 2004000   0.46365632   -8.7025899    260.49123  0.010832137 0.0090535199            3 
 2005000   0.45134771   -8.7196756     261.2619  0.010858766 0.0090461257            2 
 2006000    0.4650804   -8.7047024    260.93474  0.010839762 0.0090387361            3 
 2007000    0.4528748     -8.70004    261.11429  0.010841816 0.0090313582            2 
 2008000   0.45802512   -8.7093753     261.1072  0.010836122 0.0090239812            1 
 2009000     0.453222   -8.6996553    261.04301  0.010828066 0.0090166225            2 
 2010000   0.45537848   -8.7168047    260.74446  0.010810301  0.009009269            1 
 2011000   0.45705201   -8.6919887    261.06767  0.010818319 0.0090019283            2 
 2012000   0.45623769     -8.70998    261.18711  0.010817889 0.0089945874            3 
Loop time of 4791.02 on 48 procs for 2000000 steps with 4000 atoms

Performance: 72135.018 tau/day, 417.448 timesteps/s
99.4% CPU use with 48 MPI tasks x no OpenMP threads

MPI task timing breakdown:
Section |  min time  |  avg time  |  max time  |%varavg| %total
---------------------------------------------------------------
Pair    | 294.61     | 321.08     | 350.57     |  58.8 |  6.70
Neigh   | 31.507     | 32.823     | 34.17      |  12.5 |  0.69
Comm    | 285.2      | 319.31     | 346.89     |  67.0 |  6.66
Output  | 4.3693     | 4.3711     | 4.4088     |   0.3 |  0.09
Modify  | 4066.1     | 4072.4     | 4079.7     |   5.4 | 85.00
Other   |            | 41.02      |            |       |  0.86

Nlocal:        83.3333 ave          93 max          74 min
Histogram: 1 1 3 8 12 12 7 2 1 1
Nghost:        2070.98 ave        2104 max        2038 min
Histogram: 2 1 3 14 3 10 7 4 1 3
Neighs:        13489.8 ave       15362 max       11976 min
Histogram: 2 5 5 8 8 12 1 5 1 1
FullNghs:      26979.4 ave       29961 max       23775 min
Histogram: 1 1 1 9 12 8 9 4 1 2

Total # of neighbors = 1295009
Ave neighs/atom = 323.75225
Neighbor list builds = 107057
Dangerous builds = 0

#clear
#
#next RN
#
#jump SELF
Total wall time: 1:19:54
