
units lj                  # Use reduced LJ style units
atom_style atomic         # Uncharged point particles
atom_modify map hash      # Needed for indexing of clusters etc
                          # Used to be able to find where atoms are in relation to each other.

lattice fcc 1.0 spacing 1 1 1
Lattice spacing in x,y,z = 1.5874011 1.5874011 1.5874011
region box block 0 10 0 10 0 10 units lattice
create_box 2 box
Created orthogonal box = (0.0000000 0.0000000 0.0000000) to (15.874011 15.874011 15.874011)
  3 by 4 by 4 MPI processor grid
create_atoms 1 box
Created 4000 atoms
  using lattice units in orthogonal box = (0.0000000 0.0000000 0.0000000) to (15.874011 15.874011 15.874011)
  create_atoms CPU = 0.002 seconds
set type 1 type/fraction 2 0.67 78393
Setting atom values ...
  2693 settings made for type/fraction
mass 1 1.0
mass 2 1.0
pair_style lj/cut  3.5
pair_modify tail  yes
pair_coeff 1  1  1.0  1.0   # Intearaction between 1 and 1 set with epsilon = 1 and sigma = 1
pair_coeff 1  2  1.5  0.8
pair_coeff 2  2  0.5  0.88

write_data data.0
System init for write_data ...
Neighbor list info ...
  update every 1 steps, delay 10 steps, check yes
  max neighbors/atom: 2000, page size: 100000
  master list distance cutoff = 3.8
  ghost atom cutoff = 3.8
  binsize = 1.9, bins = 9 9 9
  1 neighbor lists, perpetual/occasional/extra = 1 0 0
  (1) pair lj/cut, perpetual
      attributes: half, newton on
      pair build: half/bin/atomonly/newton
      stencil: half/bin/3d
      bin: standard
WARNING: Not all mixed pair coeffs generated from mixing. Use write_data with 'pair ij' option to store all pair coeffs. (../write_data.cpp:312)


#############################
#   M E L T   S Y S T E M   #
#############################

velocity all create 2.4 5300450 mom yes dist gaussian # Assign velocities
                                                    # Temperature 2.4, random number seed, zero linear momentum
                                                                                # Gaussian distribution

timestep 0.002   # simulation timestep
thermo 1000       # output thermodynamic data every 1000 steps bf 100

# Define a fix  in this case with index 1 applied to all
# particles in the simulation. This fix is for simulations
# in the anisotropic NPT ensemble. Note that we use the MTK
# correction.
fix 1 all npt temp 2.4 2.4 0.1 iso 5.68 5.68 0.5 mtk yes tchain 5 pchain 5 # Use NPT ensemble
                                                                         # Set temperature and pressure and damping
                                                                         # Numbers of thermostats in chain and in barostat
run 10000          # run for 10000 steps
Per MPI rank memory allocation (min/avg/max) = 3.642 | 3.644 | 3.648 Mbytes
Step Temp E_pair E_mol TotEng Press Volume 
       0          2.4   -4.3445498            0  -0.74544977   -3.8717164         4000 
    1000    2.3931005   -4.0100171            0  -0.42126372    6.0217008    3617.0165 
    2000    2.3918706    -3.996086            0  -0.40917708    5.7080298     3645.635 
    3000    2.4530021   -4.0266156            0  -0.34803226    6.0454015     3595.452 
    4000    2.3822531   -4.0419011            0  -0.46941481     5.721237    3613.9054 
    5000     2.426376   -4.0194064            0  -0.38075225     5.599481    3646.0749 
    6000    2.4454265   -4.0338017            0  -0.36657897    5.6218823    3645.8592 
    7000    2.3899819   -3.9885755            0  -0.40449884     5.923822    3626.2654 
    8000    2.4360719    -3.998775            0  -0.34558073    5.5069719    3654.0039 
    9000    2.4164788   -4.0026924            0   -0.3788804    5.8057502    3628.1463 
   10000    2.3785964   -4.0114799            0  -0.44447719    5.6209912     3644.909 
Loop time of 2.66273 on 48 procs for 10000 steps with 4000 atoms

Performance: 648957.719 tau/day, 3755.542 timesteps/s
99.6% CPU use with 48 MPI tasks x no OpenMP threads

MPI task timing breakdown:
Section |  min time  |  avg time  |  max time  |%varavg| %total
---------------------------------------------------------------
Pair    | 1.1799     | 1.2673     | 1.3613     |   2.9 | 47.59
Neigh   | 0.21681    | 0.22437    | 0.24195    |   1.0 |  8.43
Comm    | 0.77006    | 0.90089    | 0.9863     |   3.9 | 33.83
Output  | 0.00026429 | 0.00026971 | 0.00034001 |   0.0 |  0.01
Modify  | 0.22653    | 0.25433    | 0.28465    |   2.8 |  9.55
Other   |            | 0.01557    |            |       |  0.58

Nlocal:        83.3333 ave          93 max          76 min
Histogram: 3 5 8 5 10 7 3 3 3 1
Nghost:        1748.29 ave        1780 max        1719 min
Histogram: 6 2 5 6 7 6 4 4 4 4
Neighs:        10469.0 ave       12078 max        9437 min
Histogram: 6 4 7 9 10 3 3 2 2 2

Total # of neighbors = 502514
Ave neighs/atom = 125.62850
Neighbor list builds = 907
Dangerous builds = 209

# Equilibrate just above the melting temperature to avoid step fn in T

fix 1 all npt temp 1.25 1.25 0.1 iso 5.68 5.68 0.5 mtk yes tchain 5 pchain 5
run 2000
Per MPI rank memory allocation (min/avg/max) = 3.644 | 3.646 | 3.650 Mbytes
Step Temp E_pair E_mol TotEng Press Volume 
   10000    2.3785964   -4.0114799            0  -0.44447719    5.6209912     3644.909 
   11000    1.2374987   -5.9227478            0   -4.0669639    5.6640673    2770.3081 
   12000    1.2473298    -5.942064            0   -4.0715371    5.6563545     2766.179 
Loop time of 0.665959 on 48 procs for 2000 steps with 4000 atoms

Performance: 518951.183 tau/day, 3003.190 timesteps/s
99.6% CPU use with 48 MPI tasks x no OpenMP threads

MPI task timing breakdown:
Section |  min time  |  avg time  |  max time  |%varavg| %total
---------------------------------------------------------------
Pair    | 0.29746    | 0.32463    | 0.36755    |   2.8 | 48.75
Neigh   | 0.041103   | 0.043886   | 0.049875   |   0.9 |  6.59
Comm    | 0.19821    | 0.24856    | 0.27694    |   3.6 | 37.32
Output  | 5.2982e-05 | 5.4391e-05 | 7.0066e-05 |   0.0 |  0.01
Modify  | 0.040515   | 0.044006   | 0.047148   |   0.8 |  6.61
Other   |            | 0.004822   |            |       |  0.72

Nlocal:        83.3333 ave          90 max          77 min
Histogram: 1 8 3 11 5 2 6 4 5 3
Nghost:        2117.15 ave        2139 max        2100 min
Histogram: 2 6 5 7 11 5 8 2 0 2
Neighs:        13806.0 ave       15517 max       12248 min
Histogram: 3 2 5 8 10 6 4 5 4 1

Total # of neighbors = 662687
Ave neighs/atom = 165.67175
Neighbor list builds = 143
Dangerous builds = 9

#############################
# L I N E A R  Q U E N C H  #
#############################

# Define solid atoms. This closely follows ten Wolde  Ruiz-Montero and Frenkel  Faraday Discuss  1996  104  93-110
# Compute components of the per-atom q6 vector
compute q6 all orientorder/atom degrees 1 6 components 6 nnn NULL cutoff 1.3 # compute the Q6 parameter.
                                                                             # Use all neighbours within 1.3 unit cell.

# get number of connections
compute coord_number all coord/atom orientorder q6 0.5

# An atom is solid if it has 8 or more connections (of a possible 14)
variable is_solid atom c_coord_number>=8
group solid dynamic all var is_solid    # Must be dynamic to update
dynamic group solid defined

# do clustering
compute cluster solid cluster/atom 1.3 # Create a cluster where all atoms within are solid and max 1.3 units from another member

# define chunks one chunk per cluster
compute clus_chunks solid chunk/atom c_cluster nchunk every compress yes  # Says which atoms are in which chunk

# count the size of each chunk
compute size_chunks solid property/chunk clus_chunks count


# Find the maximum entry in the vector of chunk sizes
variable max_n equal max(c_size_chunks)


# Thermo style which includes this variable
# thermo_style custom step temp pe vol v_max_n

thermo ${N}  # Print the thermo information every 100 steps
thermo 1000  

# Reset the npt fix at a lower temperature (below freezing)
fix 1  all npt temp  ${temp} ${temp}  0.1  iso  5.68  5.68  0.5  mtk yes tchain  5  pchain  5
fix 1  all npt temp  0.45 ${temp}  0.1  iso  5.68  5.68  0.5  mtk yes tchain  5  pchain  5
fix 1  all npt temp  0.45 0.45  0.1  iso  5.68  5.68  0.5  mtk yes tchain  5  pchain  5

dump dmp2 all dcd ${N} traj.dcd
dump dmp2 all dcd 1000 traj.dcd


compute msd all msd com yes
variable twopoint equal c_msd[4]/6/(step*dt+1.0e-6)
fix 9 all vector 10 c_msd[4]
variable fit equal slope(f_9)/6/(10*dt)
thermo_style custom step temp pe c_msd[4] v_twopoint v_fit v_max_n

fix 1 all npt temp 1.25 ${temp} 0.1 iso 5.68 5.68 0.5 mtk yes tchain 5 pchain 5
fix 1 all npt temp 1.25 0.45 0.1 iso 5.68 5.68 0.5 mtk yes tchain 5 pchain 5
run 2000000 # 5000000  # Run for this many steps
Neighbor list info ...
  update every 1 steps, delay 10 steps, check yes
  max neighbors/atom: 2000, page size: 100000
  master list distance cutoff = 3.8
  ghost atom cutoff = 3.8
  binsize = 1.9, bins = 8 8 8
  4 neighbor lists, perpetual/occasional/extra = 1 3 0
  (1) pair lj/cut, perpetual
      attributes: half, newton on
      pair build: half/bin/atomonly/newton
      stencil: half/bin/3d
      bin: standard
  (2) compute orientorder/atom, occasional
      attributes: full, newton on
      pair build: full/bin/atomonly
      stencil: full/bin/3d
      bin: standard
  (3) compute coord/atom, occasional
      attributes: full, newton on
      pair build: full/bin/atomonly
      stencil: full/bin/3d
      bin: standard
  (4) compute cluster/atom, occasional
      attributes: full, newton on
      pair build: full/bin/atomonly
      stencil: full/bin/3d
      bin: standard
Per MPI rank memory allocation (min/avg/max) = 9.846 | 9.851 | 9.855 Mbytes
Step Temp PotEng c_msd[4] v_twopoint v_fit v_max_n 
   12000    1.2473298    -5.942064 8.8981538e-30 6.1792732e-32 8.3333333e+20            3 
   13000    1.2316617   -6.0206728   0.56423962 0.0036169205   0.04726459            2 
   14000    1.2116619   -5.9835124    1.0790093 0.0064226744  0.044192901            4 
   15000    1.2386727   -6.0031098    1.6390152 0.0091056395  0.044784388            2 
   16000    1.2736555   -6.0172332    2.1621387  0.011261139  0.044687953            1 
   17000    1.2602484   -5.9799162    2.6525081   0.01300249  0.044386568            4 
   18000    1.2750572   -5.9895611    3.1175434  0.014433071  0.043511826            2 
   19000    1.2316367   -5.9989893    3.6155377  0.015857621  0.042895341            1 
   20000    1.2300113    -6.060003    4.2304704  0.017626959   0.04306151            2 
   21000    1.2085788   -6.0282166    4.7314067  0.018775423  0.043281119            5 
   22000    1.2403517   -6.0345185     5.244352  0.019864969  0.043361823            4 
   23000    1.2614444    -5.985358    5.7571146  0.020859111  0.043260003            4 
   24000    1.2503254    -5.983616    6.1714952  0.021428802  0.043097577            2 
   25000    1.2498138   -5.9800003    6.8093112  0.022697704  0.043079724            3 
   26000    1.2634376   -5.9757911    7.4421749  0.023853124  0.043218091            2 
   27000    1.2522918   -5.9722373    8.0151014  0.024737967  0.043530137            2 
   28000    1.2291558   -5.9806738    8.6263883  0.025673774  0.043868692            3 
   29000    1.2378512   -6.0097654    9.1166083   0.02619715   0.04409501            2 
   30000    1.2441677   -5.9701875    9.5881947  0.026633874  0.044210311            2 
   31000    1.2325762   -5.9747304    10.096179  0.027140264  0.044240255            1 
   32000    1.2348849    -5.966923    10.617033  0.027648524  0.044242461            3 
   33000    1.2608035    -6.020351    11.111173  0.028058518  0.044268714            2 
   34000    1.1958016   -6.0262167    11.638724  0.028526283  0.044276602            2 
   35000    1.2322056   -6.0008685    12.110136  0.028833658  0.044230568            3 
   36000     1.261934   -6.0406404    12.569268  0.029095528  0.044177738            2 
   37000    1.2430142    -6.031447    13.213924   0.02976109  0.044119181            1 
   38000    1.2405401   -6.0168119    13.737881  0.030126931  0.044107048            1 
   39000    1.2430137   -6.0347496    14.190703  0.030322015  0.044078374            2 
   40000    1.2362466   -6.0130619    14.688983  0.030602047  0.043997887            1 
   41000    1.2459737   -5.9718826    15.295795  0.031089015  0.043930683            1 
   42000    1.2562749   -6.0092474    15.807989  0.031365056  0.043924496            2 
   43000    1.2585162   -6.0203963    16.291868  0.031573388  0.043892804            4 
   44000    1.2209544   -6.0231346    16.759848  0.031742136  0.043861673            6 
   45000    1.2337317   -6.0166283     17.24789  0.031940536  0.043796744            2 
   46000    1.2416056   -5.9824553    17.756054  0.032166764  0.043748573            1 
   47000     1.233431   -6.0316559    18.203356  0.032275453   0.04369742            2 
   48000    1.2355236   -6.0188398    18.721995  0.032503464  0.043642282            3 
   49000    1.2461347   -5.9867303    19.301344  0.032825415  0.043565349            2 
   50000    1.2441866   -5.9971906    19.737232  0.032895387  0.043499883            3 
   51000    1.2349653   -6.0254673    20.209196  0.033021561  0.043440664            4 
   52000    1.2308104    -6.029852    20.779137  0.033299898  0.043382537            4 
   53000    1.2383719   -6.0566998    21.240512   0.03339703   0.04335701            1 
   54000    1.2373334   -6.0496513    21.774012   0.03360187  0.043327163            3 
   55000    1.2447783   -5.9954473     22.37977  0.033908742    0.0433137            2 
   56000    1.2727471   -5.9624136    22.986988  0.034206827  0.043310265            2 
   57000    1.2399311   -6.0379369    23.432576  0.034258151  0.043300354            5 
   58000    1.2370938    -6.066063    23.818966  0.034222653  0.043270313            2 
   59000     1.234846   -6.0166867    24.521174  0.034634426  0.043238695            4 
   60000    1.2223775   -6.0130411    24.844648  0.034506455  0.043228442            2 
   61000    1.2558029   -6.0874472    25.196012  0.034420781  0.043169152            2 
   62000    1.2226243   -5.9925573     25.79594  0.034671962  0.043113753            6 
   63000    1.2529689   -6.0623969    26.236049  0.034703769  0.043063087            2 
   64000    1.2292506   -6.0798535    26.672433   0.03472973  0.043014212            4 
   65000    1.2347072   -6.0404626     27.05808  0.034689845  0.042949122            4 
   66000    1.2214105   -6.0548931    27.709229  0.034986401  0.042880589            2 
   67000    1.2528253   -6.0123947    28.073582   0.03491739  0.042817019            2 
   68000    1.2277102   -6.0292074    28.823434  0.035322835  0.042774793            2 
   69000    1.2378033   -5.9834058    29.471916  0.035594102  0.042768422            2 
   70000    1.2601223   -6.0899365    29.952751  0.035658037  0.042770714            3 
   71000    1.2245239   -5.9390235    30.625739  0.035945703  0.042779273            4 
   72000    1.1960987   -6.0187536    30.857963  0.035715234  0.042760803            1 
   73000    1.2361721   -6.0415551    31.396613  0.035840882  0.042731148            3 
   74000    1.2400408   -6.0271006    31.944547  0.035973589  0.042719899            2 
   75000    1.2341699   -6.0739227    32.245172  0.035827969  0.042690385            4 
   76000    1.2061112   -6.0070175    32.754944  0.035915508  0.042663987            4 
   77000    1.2383976   -6.1126865    32.995733  0.035709667  0.042628945            2 
   78000    1.2315173   -6.0701082    33.827229  0.036140201  0.042595119            2 
   79000    1.2529187   -6.0165647    34.406698  0.036293985  0.042576113            2 
   80000     1.211865   -6.0179313    34.991818  0.036449811  0.042559821            2 
   81000    1.2060376   -6.0518155    35.230328  0.036245193  0.042533095            2 
   82000     1.182171    -6.043534    35.954264  0.036538886  0.042513171            1 
   83000    1.2383589   -6.0637161    36.318866  0.036464724  0.042503079            4 
   84000    1.2318932   -6.0686325    36.907199  0.036614285  0.042496984            3 
   85000    1.2378196   -6.0703614      37.2562  0.036525686  0.042479245            3 
   86000    1.2288188   -6.0661711    37.942552  0.036766038  0.042467426            3 
   87000    1.2160999   -6.0739046    38.088448  0.036483187  0.042452693            2 
   88000    1.2497986    -6.041572    38.686331  0.036634783  0.042425848            3 
   89000    1.2342649   -6.0511235    39.429936  0.036919416  0.042409799            1 
   90000    1.2342747   -6.0730983    39.881415  0.036927236  0.042401809            3 
   91000     1.219369    -6.031388    40.461153  0.037052337  0.042391216            4 
   92000    1.2115768   -6.0797788     40.96263  0.037103831  0.042389915            4 
   93000    1.2380102   -6.0510145    41.335216  0.037038724  0.042385805            3 
   94000    1.2307059   -6.0585516    41.582106  0.036863569   0.04236814            3 
   95000    1.2377599   -6.0164126    42.000894   0.03684289  0.042336159            1 
   96000    1.2158213   -6.0441265    42.496407  0.036889242  0.042300321            2 
   97000     1.222409   -6.0530725    43.057844  0.036991275  0.042270719            3 
   98000    1.1979745   -6.0765934    43.737724  0.037191942  0.042250863            1 
   99000    1.2423797   -6.0553324    44.253235  0.037250197  0.042231213            5 
  100000    1.2078229    -6.115766    44.569038  0.037140865  0.042209767            3 
  101000    1.2234212   -6.0820639     45.31655  0.037389893  0.042192704            2 
  102000    1.1863048   -6.0950335    45.645245  0.037291867  0.042175137            5 
  103000    1.2071109   -6.0788255    46.000747  0.037217433  0.042152321            6 
  104000    1.1983387    -6.035006    46.753695  0.037462897  0.042131492            1 
  105000    1.2116467   -6.1020128    46.911127  0.037231053  0.042111627            4 
  106000    1.2101316   -6.0671711    47.592553  0.037415529  0.042091481            2 
  107000    1.2076995   -6.0743281    47.773329  0.037206642  0.042069106            2 
  108000    1.2189712   -6.0404146    48.468311  0.037398388  0.042040431            2 
  109000    1.2052253   -6.1018127     48.62731  0.037176842  0.042012085            2 
  110000    1.2068126   -6.0810552    49.316211  0.037360766  0.041983717            2 
  111000    1.2077652   -6.0652887    49.414993  0.037098343  0.041944877            3 
  112000    1.2137233    -6.122526    49.628565  0.036926016  0.041898365            2 
  113000    1.2013468   -6.0784709    50.385722  0.037157612  0.041855698            1 
  114000    1.2037154    -6.015845    50.924692  0.037225652   0.04181898            2 
  115000    1.2035571   -6.0877343    51.330661  0.037196131  0.041780169            1 
  116000    1.1768635   -6.1002749    51.982835   0.03734399  0.041745975            4 
  117000    1.2298667   -6.0908813    52.337825  0.037277653  0.041715617            5 
  118000    1.2064442   -6.0637054    52.884503  0.037347813  0.041683568            2 
  119000    1.2226567   -6.0994819    53.549364  0.037499555  0.041656665            2 
  120000    1.2246802   -6.1349953     53.62467  0.037239354  0.041623991            4 
  121000    1.1934978   -6.0921149    53.901438  0.037122202  0.041582917            2 
  122000    1.1896656   -6.1263412    54.204168  0.037024705  0.041539796            3 
  123000    1.1813733   -6.0945749     54.70555  0.037063381  0.041488472            2 
  124000    1.1706613   -6.0709675     55.25027  0.037130558  0.041436062            1 
  125000    1.2064852   -6.0834642    55.664347  0.037109565  0.041386402            1 
  126000    1.1839174   -6.1067152    56.054038  0.037072776  0.041339008            4 
  127000    1.1948472   -6.1120825    56.383893  0.036997305  0.041291045            8 
  128000    1.2037038   -6.1225715    57.011752  0.037117026   0.04124845            4 
  129000    1.1953889   -6.0727108    57.606057  0.037213215  0.041207053            3 
  130000    1.1878283    -6.091843    58.187186  0.037299478  0.041169275            2 
  131000    1.2114324   -6.0878211    58.779239  0.037391373  0.041137892            1 
  132000      1.21045   -6.1021912    59.278189  0.037423099   0.04110648            4 
  133000    1.1943914    -6.079982    59.728886  0.037424114    0.0410754            2 
  134000    1.2159578   -6.0814665    59.918841  0.037262961  0.041045647            2 
  135000     1.190997   -6.1116024    60.341557  0.037247875    0.0410077            2 
  136000    1.1853615   -6.0584309    60.843375  0.037281479  0.040968552            2 
  137000    1.2029331   -6.1239681    60.805737  0.036986458  0.040928528            4 
  138000     1.219216   -6.1015332    61.047231   0.03686427  0.040882965            3 
  139000    1.1851552   -6.1123926    61.575936  0.036916029  0.040834257            3 
  140000    1.1917223   -6.1138953    62.177724   0.03701055  0.040784135            1 
  141000    1.1939227   -6.0725601    62.660696  0.037033508  0.040737632            1 
  142000    1.1991531   -6.0918607    63.472188  0.037248936  0.040698025            2 
  143000     1.200301   -6.1513589    63.394316  0.036943075  0.040656372            3 
  144000    1.1934251   -6.0712691     63.84902  0.036949664  0.040611946            5 
  145000    1.1802678   -6.1186055    63.941295   0.03674787  0.040563803            2 
  146000    1.2004989   -6.1232113    64.621792  0.036884584  0.040517105            2 
  147000    1.2195079   -6.1420914    64.903784  0.036793528  0.040468037            2 
  148000    1.1991285   -6.1116977    65.565908  0.036917741  0.040422108            2 
  149000    1.2133031    -6.109063    65.581764  0.036678839  0.040376996            1 
  150000    1.2187417   -6.0899369     66.37322  0.036874011  0.040328783            3 
  151000    1.1722165   -6.0641811     66.69876   0.03680947  0.040281586            2 
  152000    1.1935692   -6.1201826    66.969661  0.036715823  0.040235641            1 
  153000    1.1670758   -6.1479338    67.403543  0.036712169  0.040187731            2 
  154000     1.187163   -6.1052359    67.849759  0.036715237  0.040142708            3 
  155000    1.1981856   -6.1627066      68.1829  0.036657473  0.040096035            3 
  156000    1.1962059   -6.1291478    68.869387  0.036789202  0.040050874            3 
  157000    1.1931545   -6.1148218    69.464726  0.036870874  0.040008192            3 
  158000    1.1928431   -6.1216146     69.67508   0.03674846  0.039964573            4 
  159000    1.2119863   -6.1478101    70.007688  0.036691661  0.039924216            2 
  160000    1.1768209   -6.0991482    70.863473  0.036908059  0.039886163            2 
  161000    1.2089197   -6.1063586    71.199697  0.036852845  0.039851092            5 
  162000    1.1631421   -6.0861428    71.631044  0.036847245  0.039814949            1 
  163000     1.173177   -6.0968442    72.011867  0.036815883  0.039778582            2 
  164000      1.18501   -6.1198025    72.299981  0.036737795  0.039742066            3 
  165000    1.1743853   -6.1475661    72.826392  0.036781006  0.039701359            2 
  166000    1.1959098   -6.1539596    73.169602  0.036731728  0.039663988            5 
  167000    1.1846704   -6.1548485    73.230851  0.036542341  0.039622493            5 
  168000    1.1899611   -6.1510598    74.046829  0.036729578  0.039579042            2 
  169000    1.2025024   -6.1284999    74.247691  0.036611287  0.039536652            3 
  170000    1.2206247   -6.1890603    74.318283  0.036430531   0.03949506            2 
  171000    1.1665761   -6.1474443    74.978831  0.036539391  0.039452651            5 
  172000    1.1863661   -6.1064127    75.662616  0.036658244  0.039411034            2 
  173000    1.1892455   -6.1489159    75.821983  0.036523113  0.039376379            1 
  174000    1.1563787   -6.1209089    76.300783  0.036542521  0.039341435            1 
  175000    1.1817207   -6.1753716    76.626377  0.036488751  0.039302334            2 
  176000     1.188992   -6.1368768    77.445624  0.036669329  0.039266543            3 
  177000    1.2159118   -6.1392298    77.855341  0.036655057  0.039232513            1 
  178000    1.1731891   -6.1480272    78.179994  0.036601121   0.03920032            2 
  179000    1.1860292   -6.1589812    78.549048  0.036568458  0.039166716            2 
  180000    1.1675687   -6.1354074    79.351693  0.036736895  0.039132345            3 
  181000    1.1802128   -6.1458708    79.617867  0.036656476  0.039102398            2 
  182000     1.179803   -6.1396617    79.754578  0.036517664  0.039071217            5 
  183000    1.2072348   -6.1428734    80.580829  0.036694367  0.039041187            3 
  184000    1.1917161    -6.118529    80.912926  0.036645347  0.039013112            2 
  185000     1.174603   -6.1683488    81.436262  0.036683001  0.038983739            4 
  186000    1.1874098   -6.1604641     81.59867  0.036558544  0.038954414            2 
  187000    1.1570522   -6.1407099     82.08912  0.036581604  0.038923145            5 
  188000    1.1887522   -6.1864279    82.343994  0.036499997  0.038896544            3 
  189000    1.1830023   -6.1391054    82.784119  0.036500934  0.038867892            5 
  190000    1.1599382   -6.2048941    82.904498  0.036361622  0.038836621            3 
  191000    1.1758383   -6.1742597    83.470491   0.03641819  0.038803382            3 
  192000    1.1900666   -6.1064231    84.189129   0.03654042  0.038774355            1 
  193000    1.1824749    -6.125993    84.357142  0.036423636  0.038744133            2 
  194000    1.2081498    -6.112209    85.199687  0.036597804  0.038716444            2 
  195000    1.1794256   -6.1423805    85.544082    0.0365573  0.038690462            3 
  196000    1.2118124   -6.1617862    86.125017  0.036617779  0.038666085            1 
  197000    1.1529223   -6.1694992    86.756555   0.03669905  0.038646194            3 
  198000    1.2036465    -6.136628    87.859048  0.036977714  0.038632363            4 
  199000    1.1852526   -6.1642228     88.05633   0.03687451  0.038620036            2 
  200000    1.1652098    -6.186139    88.246796  0.036769498  0.038605553            3 
  201000    1.1552091   -6.1574234    88.831667  0.036829049  0.038590028            2 
  202000    1.1948994    -6.149893    89.445802  0.036900083  0.038573379            4 
  203000    1.1646152   -6.1736639    89.804138   0.03686541  0.038560193            5 
  204000    1.1773318   -6.2044868    90.025358  0.036775064  0.038547197            2 
  205000    1.1984598   -6.1883206    90.811913  0.036915412  0.038532707            4 
  206000     1.172999   -6.1907169    90.745487  0.036709339  0.038521919            2 
  207000    1.1873681   -6.1312032    91.636762  0.036890806   0.03850916            2 
  208000    1.1595999   -6.1540658    91.941195  0.036835415   0.03849568            3 
  209000    1.1366963   -6.1415816     92.15723  0.036745307  0.038482912            3 
  210000    1.1690203   -6.1428003     93.06875  0.036932043  0.038469121            3 
  211000     1.192162   -6.1907775    92.475102  0.036522552  0.038454282            3 
  212000    1.1587662   -6.2342699    93.139326   0.03661137  0.038435871            4 
  213000    1.1718697   -6.2091349    93.858708  0.036720934  0.038418511            7 
  214000    1.1833744   -6.2165754    94.230797  0.036694236  0.038401012            5 
  215000    1.1856175     -6.20578    94.651422  0.036686597  0.038382991            2 
  216000    1.1500858   -6.1758133    95.548461  0.036862832  0.038369007            2 
  217000    1.1778081   -6.1776007    96.131691  0.036916932  0.038357406            2 
  218000    1.1778053   -6.2066652    96.312364  0.036816653  0.038345812            5 
  219000    1.1517864   -6.1704301    96.846447  0.036851768  0.038334462            3 
  220000    1.1564044    -6.233308    97.150848  0.036799564   0.03832302            4 
  221000     1.146036   -6.1784975    97.855239  0.036898657  0.038314948            3 
  222000    1.1578496   -6.2097523      97.9986  0.036786261  0.038305204            3 
  223000    1.1812205   -6.1890901    98.936471  0.036971775   0.03829772            2 
  224000    1.1647585   -6.1435147    99.685894  0.037085526  0.038291602            2 
  225000     1.147556   -6.1663016    99.936359  0.037013466  0.038284568            2 
  226000    1.1734822   -6.2010158    100.08645  0.036905032  0.038276037            2 
  227000    1.1592745   -6.1596467    100.70482  0.036969465   0.03826796            3 
  228000    1.1693583   -6.2177661    100.75303  0.036824938  0.038259456            2 
  229000    1.1473873   -6.1996745    101.76179   0.03703122  0.038250487            2 
  230000    1.1530091   -6.2162845    101.64986  0.036829658  0.038240884            2 
  231000    1.1759996    -6.221465     102.4026  0.036941775  0.038233055            4 
  232000    1.1570509   -6.2663872    102.40252  0.036782516  0.038224424            1 
  233000    1.1405032   -6.2040519    103.30388  0.036947023   0.03821616            1 
  234000     1.141097   -6.2061263    103.27041   0.03677721  0.038207598            5 
  235000    1.1583955   -6.1814336    103.80226   0.03680931   0.03819589            6 
  236000    1.1519708   -6.1782512    104.27522  0.036820347  0.038186725            4 
  237000    1.1592753   -6.1753193    104.75579  0.036833961   0.03817557            2 
  238000    1.1626319   -6.2259524    105.02142  0.036772206   0.03816512            2 
  239000    1.1430254   -6.2255492    105.62726  0.036829589  0.038155205            4 
  240000    1.1526022   -6.1829795    105.92576  0.036779778  0.038144677            3 
  241000    1.1480901    -6.230997    106.26784  0.036745451  0.038134407            4 
  242000    1.1585863   -6.1748659    106.82902  0.036786851  0.038122051            2 
  243000    1.1532971   -6.2173551    106.92955  0.036669942  0.038110141            6 
  244000    1.1389117   -6.2551755    106.84506  0.036490799  0.038096666            4 
  245000    1.1398236   -6.1919059    108.05691  0.036754051  0.038085103            1 
  246000    1.1704722   -6.1857088    108.52182  0.036762135  0.038075495            3 
  247000     1.136724   -6.2040176    108.95888  0.036760755  0.038062963            2 
  248000    1.1498113   -6.2143982    109.36998  0.036750667   0.03805124            2 
  249000    1.1475473   -6.2191031    109.48886  0.036642856  0.038038438            4 
  250000      1.14803     -6.18842    110.05827  0.036686089  0.038026534            3 
  251000    1.1459503   -6.1773098    110.38027  0.036646834  0.038015058            2 
  252000    1.1650974   -6.2207745    111.15612  0.036757976  0.038004726            4 
  253000    1.1571875   -6.2049764    111.76705  0.036813915  0.037995942            2 
  254000    1.1542198   -6.1946794    112.48153  0.036903391  0.037990593            5 
  255000    1.1592934   -6.2585317    112.83353  0.036873701  0.037983963            6 
  256000    1.1745535   -6.2153502    113.28046  0.036875148  0.037976701            4 
  257000    1.1671318   -6.2157892    113.48321  0.036797409  0.037968526            2 
  258000    1.1510225   -6.2273219    113.77509   0.03674906  0.037958742            3 
  259000     1.176849   -6.1777373    114.36978  0.036798514  0.037947555            2 
  260000    1.1732904   -6.2322003    114.93235  0.036837292  0.037940113            3 
  261000    1.1552718   -6.2369906    115.13505  0.036760873  0.037931495            1 
  262000    1.1841746   -6.2016915    116.01548  0.036900599   0.03792465            3 
  263000    1.1536311   -6.2086984     116.1475  0.036802122  0.037916621            2 
  264000    1.1141454   -6.1951173    116.82021  0.036875065  0.037906612            2 
  265000    1.1530195    -6.208875    116.63755  0.036678474  0.037894673            2 
  266000     1.129993   -6.2104531    117.01664  0.036659347  0.037883842            3 
  267000     1.133333   -6.2114496    117.45089  0.036657581  0.037872294            3 
  268000    1.1619623   -6.2415275    117.25308  0.036459291  0.037857833            4 
  269000    1.1570477   -6.2273406    117.90958  0.036527131  0.037844996            2 
  270000    1.1374161   -6.2382711    118.32145  0.036518965  0.037832966            2 
  271000    1.1342089   -6.2295226    118.89737  0.036561305  0.037819403            2 
  272000    1.1388149   -6.2209734     119.2431  0.036532814  0.037806296            2 
  273000    1.1469765   -6.2435945    119.14837  0.036370076  0.037793707            3 
  274000    1.1588233   -6.2213129    120.07828  0.036520157  0.037779217            4 
  275000    1.1488916   -6.2433533    120.54598  0.036529084  0.037766602            1 
  276000    1.1372362   -6.2553481    120.71475  0.036447692  0.037751178            2 
  277000    1.1592911    -6.213497    120.57787   0.03627493  0.037735065            5 
  278000    1.1490656   -6.2486042     120.4555  0.036107764  0.037716712            3 
  279000    1.1592446    -6.264224    120.72402  0.036058547  0.037695743            2 
  280000    1.1407817   -6.2290975     121.1775  0.036064733  0.037674419            1 
  281000     1.110292   -6.2549551    121.18486   0.03593857  0.037652753            5 
  282000    1.1380534   -6.2297059    121.93699   0.03603339  0.037629391            5 
  283000    1.1477336   -6.2605771     122.0114  0.035927975  0.037608318            5 
  284000    1.1364999   -6.2583483      123.133  0.036130576  0.037588607            3 
  285000    1.1289623   -6.2269003    123.78229  0.036193652  0.037568838            3 
  286000      1.12587   -6.2327616    123.70539  0.036044694  0.037550304            5 
  287000    1.1481108   -6.2984344    123.54829  0.035873487  0.037527699            2 
  288000    1.1139522   -6.2342846    124.43888  0.036006621  0.037505756            3 
  289000    1.1359065     -6.29062    124.38428  0.035866287  0.037484035            2 
  290000    1.1507564   -6.2216361    125.18666  0.035973177  0.037461657            3 
  291000    1.1419982     -6.26244    125.42483  0.035917763  0.037439686            6 
  292000    1.1417333   -6.2135457    126.19824  0.036015479  0.037417868            2 
  293000    1.1633701   -6.2699799    125.87319  0.035800111  0.037396715            4 
  294000    1.1357197   -6.2413125    126.55774  0.035872376  0.037375284            4 
  295000    1.1338986   -6.2707988    126.97712  0.035869243  0.037352331            6 
  296000    1.1318007   -6.2652236    127.01394  0.035758429  0.037329867            3 
  297000    1.1554288   -6.2492837    127.96025  0.035903549  0.037308297            2 
  298000    1.1404097   -6.2497921    128.12084  0.035827975  0.037287244            2 
  299000    1.1429532   -6.2283025    128.67206  0.035861778   0.03726581            4 
  300000    1.1193944   -6.2344195    128.90744  0.035807623  0.037243991            3 
  301000    1.1134463   -6.2432153    129.73955  0.035919033   0.03722278            2 
  302000    1.1280164    -6.223148    129.54772  0.035747162  0.037200638            2 
  303000    1.1253172   -6.2753493      129.652  0.035657865  0.037178449            2 
  304000    1.1079567   -6.2340029    130.73005  0.035836089  0.037156121            3 
  305000    1.1281185   -6.2597804    130.87144  0.035757224  0.037135131            6 
  306000    1.1521978   -6.3076695    130.51989  0.035544632  0.037114106            1 
  307000    1.1510422   -6.3084183    131.27221  0.035633063  0.037092169            3 
  308000    1.1364676    -6.290043    132.13194  0.035749985  0.037071127            1 
  309000    1.1424561   -6.2391789    132.70597  0.035789097   0.03705119            5 
  310000    1.1249946   -6.2479074    133.10543  0.035781029  0.037032838            3 
  311000     1.121775   -6.2823041    133.43833  0.035755179  0.037013936            2 
  312000    1.1451415   -6.2742514    134.38842  0.035894342  0.036995357            4 
  313000    1.1246226   -6.2705609     134.4947   0.03580796  0.036978782            3 
  314000    1.1120729   -6.2652651    135.45636  0.035949139  0.036961812            2 
  315000    1.1432325   -6.2238265    135.43738  0.035829994  0.036945767            3 
  316000    1.1556352   -6.2900462     135.4184  0.035711603  0.036930346            2 
  317000    1.1272289    -6.282841    135.84216  0.035710348  0.036914973            1 
  318000    1.1316144   -6.2150936    137.39158  0.036004083  0.036899793            3 
  319000    1.1068386   -6.2886313    137.46514  0.035910434   0.03688661            1 
  320000    1.1456523   -6.2429731    138.26534    0.0360066  0.036873751            2 
  321000    1.0977499   -6.2827235    138.34259  0.035914484  0.036860959            4 
  322000    1.1228815   -6.2497421    138.98336   0.03596878  0.036847516            3 
  323000    1.1168127   -6.2816894    139.32167  0.035944703  0.036834823            3 
  324000    1.1266797   -6.2768047    139.96043  0.035998053  0.036822045            4 
  325000     1.136298   -6.2856122    140.15647  0.035937556  0.036810447            5 
  326000    1.1351228   -6.2733234    140.80942  0.035994229  0.036798938            2 
  327000     1.116975   -6.2872883    140.70226  0.035856846  0.036787918            1 
  328000     1.128085   -6.3108299    140.66862  0.035738977  0.036775631            1 
  329000    1.1248062   -6.2570959    141.78012  0.035911884  0.036764203            3 
  330000    1.1271489    -6.272006    141.86942  0.035825612  0.036752431            1 
  331000    1.1167307      -6.2387    142.35985  0.035840848  0.036739712            3 
  332000    1.1345208   -6.2574339     142.9269  0.035875225  0.036727514            3 
  333000    1.1168548   -6.2725599    143.25093   0.03584858  0.036716081            2 
  334000    1.1077023   -6.2825884     144.0465  0.035939747  0.036705302            4 
  335000     1.123781   -6.2914142    144.52713  0.035952024  0.036695953            3 
  336000    1.1190588   -6.2782812    144.36178  0.035804013  0.036685521            2 
  337000    1.1119912    -6.316854    144.64894  0.035768778  0.036673949            6 
  338000    1.1344369   -6.2666581    145.24532   0.03580999  0.036661574            4 
  339000    1.1155431   -6.2951679     145.9907  0.035887586  0.036650686            2 
  340000    1.1164433   -6.3106189    146.33267  0.035865851  0.036638893            4 
  341000    1.1252975   -6.2759309    146.37073  0.035769973   0.03662652            3 
  342000    1.1308128   -6.2591641    147.01808  0.035823118  0.036614513            4 
  343000     1.122904   -6.2914324    147.66521  0.035875901   0.03660344            2 
  344000    1.1295192   -6.3084279    147.30854  0.035685207  0.036591219            2 
  345000    1.1309088   -6.2737312    147.87139  0.035717728  0.036578997            3 
  346000    1.1142349    -6.311241    147.73652  0.035582013  0.036565374            4 
  347000    1.1037667   -6.2977795    147.97931   0.03553778  0.036551084            3 
  348000    1.1156271   -6.3379205    147.81815  0.035397066  0.036535127            1 
  349000    1.1071659   -6.2861957    148.82506   0.03553607  0.036518651            5 
  350000    1.0866847   -6.3240848    148.93824  0.035461485  0.036501961            4 
  351000    1.1295962   -6.3072659    149.36543  0.035461877  0.036483977            2 
  352000    1.1094729   -6.2847616    149.05375  0.035287347  0.036465619            4 
  353000    1.1263671   -6.2807521    149.53503  0.035300998  0.036446614            6 
  354000    1.1124196   -6.3574233    149.22026  0.035127181  0.036426755            6 
  355000    1.1210701   -6.2627765    150.29266  0.035279968  0.036407425            2 
  356000    1.1124847   -6.3130308    149.81468   0.03506898  0.036386604            5 
  357000    1.1018586   -6.3071892    150.81028  0.035203146  0.036366913            5 
  358000     1.130544   -6.3141837    150.94598  0.035136401  0.036347627            6 
  359000    1.1355145   -6.3092157    151.34102  0.035130228  0.036328427            3 
  360000    1.1119012   -6.3227463    152.29319  0.035253054  0.036308956            3 
  361000    1.1239541   -6.3220676    152.61014  0.035228564  0.036290235            2 
  362000    1.1096755   -6.3520424    152.14095  0.035023239  0.036271616            3 
  363000    1.0943442   -6.3353434    152.86018  0.035091868  0.036252256            3 
  364000    1.1102849    -6.308482    153.03046  0.035034445  0.036233525            3 
  365000    1.1014733   -6.2771985    153.85901  0.035127628  0.036213997            3 
  366000     1.097253   -6.3646607    153.35315  0.034916473   0.03619373            3 
  367000    1.1236286   -6.3715685     153.1923  0.034784809  0.036173238            2 
  368000    1.1053095   -6.3358044    154.31947  0.034945531  0.036153301            4 
  369000    1.0989237   -6.3215764    154.28574  0.034843211  0.036131983            4 
  370000    1.0951768     -6.30476    154.81951   0.03486926  0.036110871            5 
  371000    1.1062565    -6.350877    154.93015  0.034800123  0.036090254            2 
  372000    1.0976767   -6.3517526    155.62904  0.034863137  0.036068091            2 
  373000    1.1243659   -6.2815152    155.95617  0.034842755  0.036047284            7 
  374000    1.0872182   -6.3146344    155.82089  0.034719449  0.036025611            2 
  375000    1.1091538   -6.3271674    156.56192  0.034791538  0.036005442            4 
  376000    1.1036983   -6.3130709    157.29665  0.034861847  0.035985626            3 
  377000    1.0984231   -6.3095269    157.61983  0.034840811  0.035964894            4 
  378000    1.1187079   -6.3369806    156.99054  0.034609907   0.03594379            5 
  379000    1.1131213   -6.3304244     158.4156  0.034831925  0.035922506            2 
  380000    1.1033896   -6.3597317    157.59156  0.034559552  0.035900247            2 
  381000    1.0906877   -6.3620766    158.69921  0.034711114  0.035878379            3 
  382000    1.1142992   -6.3563869    158.41295  0.034557798  0.035855442            2 
  383000    1.1211196   -6.3316416    159.21308  0.034641661  0.035832639            2 
  384000    1.0954264   -6.3735623    159.53777  0.034621912  0.035809792            2 
  385000    1.1269605    -6.363322     159.3695  0.034495562  0.035786343            1 
  386000    1.0837043   -6.3267759    160.09089  0.034561936  0.035762795            3 
  387000    1.1008651   -6.3625852    159.72837  0.034394568   0.03573979            5 
  388000    1.0835795   -6.3925857    159.87969  0.034338421  0.035715818            6 
  389000    1.0809481   -6.3497751    160.08044  0.034293154  0.035692764            3 
  390000    1.0797356   -6.3557701    160.60992  0.034318359   0.03566867            2 
  391000    1.1120729   -6.3892112    160.67957  0.034245432  0.035644002            2 
  392000    1.0967339   -6.3780048    161.07611  0.034242369  0.035618894            8 
  393000    1.1079744   -6.3834175    161.71698  0.034291132   0.03559403            2 
  394000     1.095506   -6.3877623    161.61514   0.03418256  0.035569118            3 
  395000    1.0972016   -6.3723191    162.10104  0.034198531   0.03554492            2 
  396000    1.0981703   -6.3297061    162.44625  0.034184816  0.035519476            4 
  397000    1.1108979   -6.3625333    162.73306  0.034158914  0.035495182            3 
  398000    1.1004052   -6.3690071    163.42885  0.034218771  0.035471775            4 
  399000    1.0797706   -6.3854883    163.50059  0.034147994  0.035447615            5 
  400000    1.0716339   -6.3439467    164.06155  0.034179489  0.035424802            3 
  401000    1.1002056   -6.3531181     164.3926  0.034163052  0.035401598            3 
  402000    1.1101991   -6.3597291    164.88983  0.034181143  0.035378873            3 
  403000    1.1136426   -6.3248916    165.82181  0.034289042  0.035357384            3 
  404000    1.0777509   -6.3407313    165.79876  0.034199415  0.035337117            2 
  405000    1.0845946   -6.3605254     166.1652  0.034190369  0.035315497            3 
  406000    1.0984993   -6.3122166    166.90373  0.034257743  0.035294161            1 
  407000    1.0922377   -6.2984934    167.34013  0.034262926  0.035272127            4 
  408000    1.1036095   -6.3764504    166.82238  0.034073199   0.03525011            3 
  409000    1.1084202   -6.3806199    167.41667  0.034110976  0.035227689            1 
  410000    1.0796546   -6.3417644    167.92423  0.034130941  0.035205017            3 
  411000    1.1092427    -6.342861    168.07532  0.034078532   0.03518254            4 
  412000     1.096143   -6.3970642    167.39554  0.033858321  0.035159693            3 
  413000    1.0997889   -6.3500719    168.70258  0.034040069  0.035136979            3 
  414000    1.0819963    -6.348304     169.1081  0.034039473  0.035114677            7 
  415000    1.0834944   -6.3291127     169.8771  0.034111868  0.035093403            2 
  416000    1.0949217   -6.3997362    169.48408  0.033951137  0.035071346            3 
  417000     1.092206   -6.3550185    170.12671  0.033998143  0.035049081            2 
  418000    1.0530758   -6.3480483    169.11326  0.033714765  0.035026901            3 
  419000    1.0924938   -6.4110527    170.33557    0.0338774  0.035003552            3 
  420000     1.078767   -6.3561921     170.5062  0.033830594  0.034981151            3 
  421000    1.1031536   -6.3772557     170.8868  0.033825573  0.034958613            3 
  422000    1.0682605   -6.4146111    170.98634  0.033765075  0.034935531            3 
  423000    1.1068782    -6.405493    171.58107  0.033802417  0.034912728            6 
  424000     1.075993   -6.3837864     171.9435  0.033793928  0.034890503            2 
  425000    1.1005261    -6.438783    171.08423  0.033545927  0.034867333            5 
  426000    1.0845288   -6.3555575    172.40651  0.033725843  0.034843601            3 
  427000    1.0659461   -6.3748385    171.99103  0.033565774  0.034820529            2 
  428000    1.0892198   -6.3774248    172.28135  0.033543876  0.034797114            4 
  429000    1.0972329   -6.4065751    173.29831   0.03366323  0.034774261            8 
  430000    1.0907199   -6.4019141    173.06165   0.03353908  0.034749974            2 
  431000    1.0828203   -6.4073438     173.5261  0.033551064  0.034726036            4 
  432000    1.0753559   -6.4241957    173.50322  0.033468985  0.034701911            4 
  433000     1.081732   -6.3925068     174.3075  0.033546477  0.034677657            4 
  434000    1.0570913    -6.402957    174.72605  0.033549549  0.034653963            2 
  435000    1.0898205   -6.4077128    174.93865  0.033513152  0.034630971            3 
  436000    1.0808255   -6.4031393    175.27851  0.033501244  0.034608374            6 
  437000    1.0751317   -6.3948561    176.50856  0.033659145  0.034585823            2 
  438000     1.085682    -6.398249    175.82495  0.033452236  0.034563454            4 
  439000    1.0819482   -6.3983877    176.49364  0.033502969  0.034541689            2 
  440000    1.0851915   -6.3879561    177.08254   0.03353836  0.034519829            2 
  441000    1.0633919   -6.3769555    177.29837  0.033503094  0.034498133            2 
  442000    1.0593269   -6.3484911    177.61325  0.033486662  0.034476544            3 
  443000    1.0794213   -6.3576349    178.20184  0.033521792   0.03445519            4 
  444000    1.0789561   -6.4067789      176.949  0.033211148  0.034433098            5 
  445000    1.0752152   -6.3886653    178.87994  0.033498115  0.034410719            6 
  446000    1.0611569   -6.3870618    178.76213  0.033400997  0.034389216            4 
  447000    1.0712183   -6.3649642    179.02806   0.03337585  0.034367374            3 
  448000    1.0719908    -6.394086    179.44644  0.033379173   0.03434516            7 
  449000    1.0507483   -6.3884261    179.14161  0.033248258  0.034322417            2 
  450000    1.0733299   -6.3985774    179.34134  0.033211359  0.034299706            2 
  451000    1.0616791   -6.4302418    179.87399   0.03323614  0.034276826            3 
  452000     1.061184   -6.4175166    180.58364  0.033293443   0.03425417            2 
  453000    1.0769813   -6.3897024    180.57753  0.033218825  0.034232136            3 
  454000    1.0872506   -6.4562647    180.41769  0.033116316  0.034209262            3 
  455000     1.114221   -6.4125845    181.09499  0.033167581  0.034185576            2 
  456000    1.0589348    -6.402935     181.1746  0.033109394  0.034162152            2 
  457000    1.0549777   -6.4050962    181.37144  0.033072838  0.034138345            5 
  458000    1.0740893   -6.4732638    180.78111  0.032893215  0.034114513            6 
  459000    1.0814415   -6.4503691    181.75801  0.032998912  0.034090353            3 
  460000     1.086029   -6.4382159    182.04421  0.032979023  0.034065667            4 
  461000    1.0598391   -6.4041594    182.21155  0.032937736  0.034041907            5 
  462000    1.0935189   -6.4023902    182.43679  0.032907069  0.034018286            3 
  463000    1.0442851   -6.4342855    182.94306  0.032927116   0.03399321            2 
  464000    1.0466194   -6.4163125     182.5622  0.032787752  0.033968207            4 
  465000    1.0953433   -6.4065776     183.5854  0.032900609  0.033943588            4 
  466000    1.0895745   -6.3782664    183.24725  0.032769538  0.033919662            4 
  467000    1.0684968   -6.4194319    183.81608   0.03280087  0.033895591            5 
  468000    1.0550129   -6.4905648    183.72349  0.032714296  0.033870585            3 
  469000    1.0576338   -6.4595506    184.22436   0.03273354   0.03384536            3 
  470000     1.073842   -6.4485566     184.9185  0.032786968  0.033820708            2 
  471000    1.0633446   -6.4304993    184.96363  0.032725341  0.033797517            5 
  472000    1.0829337   -6.4466245    185.79166    0.0328022  0.033774111            3 
  473000    1.0649995   -6.4507626    185.50012  0.032681487   0.03375128            2 
  474000    1.0587487   -6.4647647     185.9612    0.0326936  0.033728672            4 
  475000    1.0865611   -6.4245141    186.47714  0.032715288  0.033705618            3 
  476000    1.0770353   -6.4170863     186.7018  0.032685889  0.033681812            5 
  477000    1.0678403    -6.440513    186.89007  0.032650257  0.033658493            6 
  478000    1.0354328   -6.4350568    187.49489  0.032687394  0.033636001            4 
  479000     1.049301   -6.4490794    187.54043  0.032627075   0.03361378            3 
  480000    1.0515897   -6.4253041    188.30222  0.032691358  0.033591529            4 
  481000    1.0708584   -6.4109797    188.87827  0.032723194  0.033569414            3 
  482000       1.0625   -6.4054863    189.48343  0.032759928  0.033547674            2 
  483000    1.0613854   -6.4708905    188.71026  0.032558706  0.033526086            2 
  484000    1.0586185   -6.4446187     189.4194  0.032613533  0.033504014            3 
  485000    1.0721531   -6.4284819    189.56027  0.032570493  0.033482093            3 
  486000     1.074261   -6.4573644    189.61917  0.032513574  0.033459716            3 
  487000    1.0589385   -6.4176467    190.26745  0.032557742  0.033436991            5 
  488000    1.0675049   -6.5044212     190.0114  0.032447302   0.03341456            5 
  489000    1.0421644   -6.4674253    190.94827  0.032540604  0.033391756            3 
  490000    1.0563344    -6.416524    191.01811  0.032486073  0.033369574            5 
  491000     1.053714   -6.4513677    191.06013  0.032427042  0.033347669            2 
  492000     1.063616   -6.4255038    191.58095  0.032449349  0.033325872            4 
  493000    1.0498576   -6.4675685    192.47061   0.03253391  0.033304776            5 
  494000      1.02562   -6.4491472    192.32907  0.032444175  0.033282837           10 
  495000    1.0638136   -6.4983641    192.32166  0.032377383  0.033260747            3 
  496000    1.0693882   -6.4711765    192.90741  0.032410519  0.033238886            5 
  497000    1.0800112   -6.4637345    193.67575  0.032474136  0.033218106            2 
  498000    1.0659189   -6.4681425    193.93067  0.032451585  0.033198026            6 
  499000     1.041212   -6.4447458    194.57072   0.03249344   0.03317757            3 
  500000    1.0288067   -6.4400564    194.59599  0.032432666  0.033157593            4 
  501000    1.0406196   -6.4104011    195.06249  0.032445523  0.033137363            2 
  502000    1.0642303   -6.4628742    195.51081  0.032455314  0.033117085            3 
  503000    1.0631723     -6.43599    195.36986  0.032367438  0.033096215            2 
  504000    1.0541622   -6.4831963    195.43154  0.032313415  0.033075273            3 
  505000    1.0499557    -6.416727    196.61195  0.032444216  0.033054645            3 
  506000    1.0505967    -6.485706    195.29472  0.032163163  0.033034317            2 
  507000    1.0533152   -6.4677528    196.80946  0.032348694   0.03301403            5 
  508000    1.0486473   -6.4629037    196.64966  0.032258803  0.032994487            5 
  509000     1.055378   -6.4643067    197.35918  0.032311587  0.032974284            8 
  510000     1.064506   -6.4367616    197.93902  0.032342977  0.032954303            6 
  511000    1.0495266   -6.4419532    198.02111  0.032293071  0.032935152            5 
  512000    1.0462661   -6.4324049    198.82607  0.032361014  0.032915795            6 
  513000     1.068065   -6.4823933    198.27108  0.032207778  0.032896531            2 
  514000    1.0349752   -6.4588525    199.53017  0.032349249  0.032877656            3 
  515000    1.0481129   -6.4588871    199.59874   0.03229753  0.032858475            6 
  516000    1.0136788    -6.480444    200.17157   0.03232745  0.032838791            3 
  517000    1.0636311   -6.4755574    199.44023  0.032147039  0.032819137            4 
  518000    1.0317029   -6.4842931    199.42774   0.03208297  0.032798979            4 
  519000    1.0321511   -6.4954602    199.52025  0.032036007  0.032778086            8 
  520000    1.0428285   -6.4986476      198.862   0.03186891  0.032757193            3 
  521000    1.0440134   -6.4918761    200.03578  0.031995486  0.032735605            4 
  522000    1.0405047   -6.4825454    200.22899  0.031965037  0.032714471            4 
  523000    1.0527785   -6.5468938    199.92604  0.031855647  0.032692892            3 
  524000    1.0352287   -6.4634916     200.3424  0.031861068  0.032671504            6 
  525000    1.0440277   -6.4882474    200.67531  0.031853223  0.032649793            2 
  526000    1.0444176   -6.4386582    201.41338  0.031909598  0.032628175            3 
  527000    1.0446352   -6.5204562    201.02527  0.031787677  0.032605701            3 
  528000     1.054248   -6.5207443    200.72217  0.031679635  0.032583976            3 
  529000     1.033012   -6.4793724    202.09804  0.031836491  0.032562221            6 
  530000    1.0406579   -6.4620197    201.73983  0.031720098  0.032540407            4 
  531000    1.0479256   -6.5193555    201.77693  0.031666185   0.03251865            3 
  532000    1.0485115   -6.4883661    202.15341  0.031665634  0.032496905            2 
  533000    1.0300329   -6.4697488    202.33656  0.031634859  0.032475561            3 
  534000    1.0652506   -6.5228748    202.42258  0.031589042  0.032453535            3 
  535000    1.0488573   -6.4988822    203.32358   0.03167034  0.032431524            3 
  536000    1.0292775   -6.5499992    202.63684  0.031504483  0.032409318            3 
  537000    1.0482388   -6.5158601    204.21334  0.031690462  0.032387428            3 
  538000    1.0438951   -6.5048328    203.95779  0.031591975  0.032364756            4 
  539000    1.0474594   -6.4719346    204.62978  0.031637258  0.032342903            2 
  540000    1.0540168   -6.5117599    204.43778   0.03154904  0.032321395           10 
  541000    1.0675504    -6.520972    204.45815  0.031493861  0.032299246            4 
  542000    1.0514842   -6.4860342    205.35497  0.031573643  0.032277475            1 
  543000    1.0641231   -6.4990892    204.97705  0.031457497  0.032256094            3 
  544000    1.0317792   -6.5054548    205.14246   0.03142501  0.032234153            4 
  545000    1.0600829   -6.4778947    205.99052  0.031497022  0.032212559            2 
  546000    1.0433501   -6.4675757     206.5742  0.031528419  0.032191153            5 
  547000    1.0149841   -6.5205383    205.78217  0.031350118  0.032169422            3 
  548000    1.0220373   -6.4680781    207.06643  0.031488204  0.032147424            8 
  549000    1.0249321   -6.5420087     205.8621  0.031248043   0.03212523            5 
  550000    1.0291462   -6.5341956     206.2811  0.031254712  0.032102203            5 
  551000    1.0330499     -6.52462    206.56328  0.031240666  0.032079907            6 
  552000    1.0142745   -6.4723323    207.42145  0.031313625  0.032057404            7 
  553000    1.0451333   -6.5096177    207.20992  0.031225124  0.032034807            3 
  554000    1.0314464   -6.5486061    206.50683  0.031063001  0.032011878            5 
  555000    1.0141892   -6.5022152    207.70606  0.031187097  0.031988976            3 
  556000     1.024871   -6.5716629    206.52426  0.030953876  0.031965933            2 
  557000    1.0068029   -6.5224858    208.46243  0.031188275  0.031942569            4 
  558000    1.0252798   -6.5261313    208.07104  0.031073931   0.03191992            3 
  559000    1.0368675   -6.5145746    208.34118  0.031058613   0.03189681            5 
  560000    1.0434709   -6.5305713    208.74532  0.031063291  0.031873484            6 
  561000    1.0401478   -6.5114206    208.82882  0.031020324  0.031849804            9 
  562000    1.0340087   -6.5071165    209.05564   0.03099876  0.031826677            4 
  563000    1.0384144   -6.5216657    209.16243  0.030959508   0.03180323            4 
  564000    1.0532788   -6.5574473    208.74303  0.030842647  0.031779943            3 
  565000    1.0206183   -6.5191715    209.49895   0.03089955  0.031756421            9 
  566000    1.0284976   -6.4988583    210.76324  0.031031102  0.031733778            2 
  567000    1.0204593   -6.5109876    211.69728  0.031113651   0.03171164            4 
  568000    1.0204051   -6.5721239    211.42937  0.031019567    0.0316899            3 
  569000    1.0273133   -6.5204497    211.05492  0.030910211  0.031667736            8 
  570000     1.026733   -6.5305703    211.07816  0.030859381  0.031645755            5 
  571000    1.0394126   -6.5182975    211.67678  0.030892699  0.031623625            5 
  572000    1.0436033   -6.5578586    211.93136  0.030875781  0.031601868            7 
  573000    1.0232089   -6.5146661    212.64858  0.030926204  0.031580582            5 
  574000    1.0117819   -6.5111045    213.34339  0.030973198  0.031558985            4 
  575000    1.0356475   -6.5149964    213.10013  0.030884076  0.031537208            3 
  576000    1.0260737   -6.5335774    213.25193   0.03085242  0.031515634            3 
  577000    1.0328687   -6.5631863    212.91457  0.030750227  0.031493544            9 
  578000    1.0412996   -6.4925946    214.05939  0.030862081  0.031472098            3 
  579000    1.0228332   -6.5425678    213.19196  0.030683932  0.031450996            3 
  580000    1.0193554   -6.5319126    214.59968  0.030833288  0.031430073            3 
  581000    1.0316358   -6.5614856    214.56687  0.030775512  0.031409087            5 
  582000    1.0257394   -6.5294145    215.18267  0.030810806  0.031388699            2 
  583000    1.0324772    -6.539752    215.50136  0.030803511   0.03136863            8 
  584000    1.0211788   -6.5428316    215.67777  0.030775937  0.031348326            4 
  585000    1.0102223   -6.5313152    216.22844  0.030801772  0.031328008            3 
  586000    1.0558153   -6.5447571    216.05997  0.030725251  0.031307662            3 
  587000    1.0215319   -6.5399328    216.38241  0.030718684  0.031286883            3 
  588000    1.0164328   -6.4949353    217.14096  0.030773946  0.031266682            5 
  589000    1.0225384   -6.5230975    217.29625  0.030743669   0.03124685            3 
  590000    1.0246025   -6.5551818    216.89788  0.030635294  0.031226399           11 
  591000    1.0009706   -6.6051793     217.2391  0.030631571  0.031205777            6 
  592000    1.0221351   -6.5562574     217.4008   0.03060259  0.031184972            6 
  593000     1.015236   -6.5309815    218.00144   0.03063539  0.031163853            4 
  594000   0.99349382   -6.5800766    217.67566  0.030538112   0.03114338            4 
  595000    1.0350021   -6.5600958    217.72342  0.030493476  0.031122493            4 
  596000    1.0129232   -6.5429112    218.77645  0.030589548  0.031101441            3 
  597000     1.021467   -6.5685575    219.00713  0.030570509  0.031080969            3 
  598000    1.0211295   -6.5138918    219.51297  0.030589878   0.03106062            4 
  599000    1.0268939   -6.5432056     219.4518    0.0305303  0.031040428            5 
  600000    1.0303737   -6.5844832    218.86973  0.030398573  0.031019813            8 
  601000    1.0169202    -6.571663    219.84105  0.030482674  0.030999574            9 
  602000   0.99568783   -6.5758991    220.21819  0.030484245  0.030979442            5 
  603000    1.0413127   -6.6146916    220.59109  0.030485226  0.030959068            2 
  604000    1.0015394   -6.5623606    220.57012   0.03043186   0.03093881            4 
  605000    1.0104686     -6.55903    220.83463  0.030417993  0.030918501            5 
  606000    1.0018322   -6.5313673    221.13962  0.030409739  0.030898786            3 
  607000    1.0154887   -6.5640832    221.07965  0.030351407   0.03087895            3 
  608000   0.99775526   -6.5833549    221.24349  0.030323943  0.030858808            4 
  609000    1.0124298    -6.577266    221.65651  0.030330667  0.030838691            4 
  610000    1.0028015   -6.5721337    222.66255  0.030418381  0.030818823            3 
  611000   0.99966016   -6.5537111    222.74984  0.030380501  0.030799511            8 
  612000     1.012795   -6.5563086    222.94098  0.030356888  0.030780425            3 
  613000   0.99764617   -6.5957087    223.63891  0.030402244  0.030760752            4 
  614000    1.0086256   -6.5678104    223.90311  0.030388587  0.030741854            5 
  615000    1.0182986   -6.5622136    224.11949  0.030368495  0.030722974            4 
  616000   0.99285406   -6.5696368    223.80317  0.030276402   0.03070389            2 
  617000     1.010591   -6.5734797    224.85133    0.0303689  0.030685134            5 
  618000    1.0277362   -6.5490164    225.31235  0.030381924   0.03066704            3 
  619000    1.0133388   -6.5398343     225.0845  0.030302168  0.030648688            5 
  620000    1.0021613   -6.5999086    224.36917  0.030157146  0.030630047            5 
  621000    1.0000826   -6.6059511    224.87121  0.030175954  0.030611396            5 
  622000    1.0116156   -6.6184859     226.0413  0.030284204  0.030592695            8 
  623000   0.99943187   -6.5334192    227.04711  0.030370133  0.030574475            6 
  624000   0.99525333   -6.5733357    226.51397  0.030250263  0.030555958            5 
  625000    1.0002183   -6.5507445    226.77605  0.030236806  0.030537503            8 
  626000   0.99813755   -6.5827856    227.18855  0.030243417  0.030518518            3 
  627000    1.0187216   -6.5921805     227.2748  0.030206646  0.030499755            5 
  628000    1.0167271   -6.5710002    227.90585  0.030242283  0.030481798            4 
  629000     1.007083   -6.5738413    228.25297  0.030240192  0.030463974            2 
  630000    1.0026864   -6.5739205    227.76091  0.030127104  0.030445568            5 
  631000    1.0127279   -6.5843495    228.01663  0.030113132  0.030427272            4 
  632000   0.99412156   -6.5971999    227.69186  0.030022661  0.030408827            7 
  633000     1.002434   -6.5911299    229.31633   0.03018909  0.030390252            6 
  634000    1.0126905   -6.6051265    228.74761  0.030066721  0.030372401            2 
  635000    0.9925253    -6.616734    229.43471  0.030109543  0.030354674            4 
  636000    1.0068446    -6.565139    230.12949  0.030153235  0.030337101            4 
  637000    1.0137457   -6.5616489    230.44286  0.030146895  0.030319243            3 
  638000    1.0122147   -6.5419915    231.54842  0.030244047  0.030301378            6 
  639000   0.98243692   -6.5499633    231.14759  0.030144444  0.030283611            3 
  640000     1.019176   -6.6125416    230.31643  0.029989118  0.030265515            4 
  641000   0.98865859     -6.66056    229.73455  0.029866686  0.030247073            4 
  642000   0.96498939   -6.6129726    230.09212  0.029866578  0.030228588            4 
  643000   0.98774171   -6.6185938    231.21341   0.02996545  0.030210374            4 
  644000    1.0174234   -6.5930014    231.18648  0.029915434  0.030192097            4 
  645000    1.0026782   -6.5934617     231.5822  0.029920181  0.030173756            4 
  646000   0.99987825   -6.6134795    231.37339  0.029846928  0.030154968            8 
  647000   0.96760966   -6.5667159    231.85616  0.029862978  0.030136253            4 
  648000   0.97974008   -6.6273121    231.23779  0.029737371  0.030117271            9 
  649000   0.98642378   -6.6234733    230.91536   0.02965015  0.030097989            5 
  650000   0.98976868   -6.5970034    232.05307  0.029750394   0.03007871            8 
  651000    1.0022731    -6.599619    231.40744  0.029622048  0.030059025           13 
  652000   0.99162576   -6.6371337    231.74823  0.029620172  0.030039356            5 
  653000   0.98026724   -6.6122095    231.63663  0.029560571  0.030019476            4 
  654000   0.99022959   -6.6028224    232.18092  0.029584725   0.02999954            3 
  655000    1.0030597   -6.6465594    231.64901  0.029471885  0.029979355            5 
  656000    1.0054744   -6.5965102    232.33702  0.029514358  0.029958744            7 
  657000   0.99963632   -6.6136392    232.47623  0.029487092  0.029938389            4 
  658000   0.98191581   -6.6027375     232.6067  0.029458802  0.029918238            7 
  659000   0.98278528   -6.6655667    232.50958  0.029401819  0.029898272            3 
  660000    1.0127173   -6.6541032    232.06835   0.02930156  0.029878163            2 
  661000      1.00143   -6.6174743    233.32189  0.029415266   0.02985814            5 
  662000   0.98702971   -6.6358128    233.85084  0.029437417  0.029838252            2 
  663000   0.97835604    -6.597531    234.48986  0.029473336  0.029818802            4 
  664000   0.97308938   -6.6127618    234.28155  0.029402805  0.029798971            2 
  665000   0.96654087   -6.6201219    234.19404  0.029347624  0.029779439            4 
  666000   0.99781217   -6.6412839    233.81945  0.029256688  0.029759535            6 
  667000    1.0052127   -6.5808736    235.67664  0.029444858  0.029739442            5 
  668000   0.95973773   -6.6205907    234.53758  0.029258681  0.029719815            8 
  669000   0.97329504   -6.6245398    234.98299  0.029270427  0.029699951            3 
  670000    1.0010589   -6.6110827    235.43002   0.02928234  0.029680161            3 
  671000   0.98767421   -6.6423224    235.34115  0.029227664  0.029660548            4 
  672000   0.99444757   -6.6239248    235.37512  0.029188382  0.029640535            3 
  673000   0.99603424   -6.6366561    235.54243  0.029165729  0.029620887            2 
  674000   0.98180138   -6.6199234    235.85161  0.029160683  0.029601054            3 
  675000   0.97727328   -6.6335058    236.37857   0.02918254  0.029581118            4 
  676000    0.9771204   -6.6191438    236.26549   0.02912543  0.029561152            2 
  677000   0.98572684    -6.643504    236.89257  0.029159597   0.02954142            6 
  678000    0.9686008   -6.6807871    236.72182  0.029095602  0.029521292            3 
  679000    1.0018953   -6.6388842    236.41166  0.029014686  0.029501487            5 
  680000   0.98213381   -6.6349744    237.43978  0.029098012  0.029481826            5 
  681000   0.96265132   -6.6468015    237.82636  0.029102589  0.029462055            3 
  682000   0.98538788   -6.6107227    238.31111  0.029119148  0.029442365            4 
  683000   0.98705882   -6.6283001    238.67145  0.029120479  0.029423215            4 
  684000   0.99460313   -6.6325142     238.3835  0.029042824  0.029403908            3 
  685000   0.99275926   -6.6314144    238.46791  0.029010695  0.029384593            5 
  686000   0.99165989   -6.6420901     239.2273  0.029060654  0.029365444            3 
  687000    1.0016349   -6.6504264    239.59227  0.029062624   0.02934591            5 
  688000   0.99497667   -6.6365155    239.70275  0.029033763  0.029326456            4 
  689000   0.96570644   -6.6992974    238.38015  0.028831658  0.029307017            8 
  690000   0.97103926   -6.6692918    239.27152  0.028897527   0.02928733            5 
  691000   0.97416497   -6.6860913    239.54233  0.028888366  0.029267815            6 
  692000   0.97715672   -6.6074583    239.91682  0.028891718  0.029248442            6 
  693000   0.96180079    -6.667748    239.77774  0.028833302  0.029228972            2 
  694000   0.97751809   -6.6685963    240.00156  0.028818631  0.029209543            5 
  695000   0.99688747   -6.6747037    240.30437  0.028813473  0.029190232            5 
  696000   0.96879674   -6.6232159    241.42793    0.0289066  0.029171174            4 
  697000   0.96884559   -6.6202058     241.1935    0.0288371  0.029152153           11 
  698000   0.96438451   -6.6482232    241.50453  0.028832918  0.029132945            3 
  699000   0.96011032    -6.683342    240.46892  0.028668207  0.029113866            6 
  700000    0.9580409   -6.6059142     242.9143  0.028918369  0.029095189            4 
  701000   0.96416257   -6.6926094    241.66889  0.028729064  0.029076562            5 
  702000   0.97936661   -6.6749219    242.48927  0.028785526  0.029057515           12 
  703000   0.97348891   -6.7118756    242.01793  0.028688707  0.029038438            6 
  704000   0.96506666   -6.6237671    242.73353  0.028732663  0.029019609            3 
  705000   0.94600249   -6.6647237    243.39895  0.028770562  0.029000759            9 
  706000   0.96573755   -6.6517165    243.70565  0.028766011  0.028981879            5 
  707000   0.97277632   -6.6361042    243.20877  0.028666757  0.028962936            3 
  708000   0.97450363   -6.7044307    243.00163  0.028601887  0.028943728            4 
  709000   0.97569399   -6.6799549    243.76919  0.028651762  0.028924989            5 
  710000   0.98525648   -6.6965999    244.11761  0.028652302  0.028906156            6 
  711000   0.97239863   -6.7023815     243.8118   0.02857616  0.028887112            4 
  712000   0.97864232   -6.6684961    244.09312  0.028568951  0.028868132            5 
  713000   0.97061702   -6.6532172    244.76288  0.028607163  0.028849295            4 
  714000   0.96879376   -6.6675754    245.00798  0.028595702  0.028830387            6 
  715000   0.93892061   -6.7033822    244.59095  0.028507104  0.028811402            6 
  716000    0.9953589    -6.690195    244.81236  0.028493059  0.028792171            4 
  717000   0.96476331   -6.6765723     245.3464  0.028515389  0.028773332            7 
  718000   0.98174193   -6.7014588    244.88803  0.028422473  0.028754158            6 
  719000   0.98181193   -6.6834915    245.34625  0.028436051  0.028735044            2 
  720000   0.98067435   -6.7131308    245.51426  0.028416002  0.028715832            5 
  721000   0.97941979   -6.6928059    245.83415  0.028413564  0.028696733            2 
  722000   0.95907687   -6.6983663    245.78373   0.02836839  0.028677671            9 
  723000   0.95757677   -6.7001152      246.363   0.02839592  0.028658496            8 
  724000   0.95368626   -6.7117334    246.70984   0.02839662  0.028639287            5 
  725000   0.98650738   -6.7079121     246.4275     0.028325  0.028620497            2 
  726000   0.96502814   -6.7106216    246.45261  0.028288867  0.028601649            9 
  727000   0.96260785   -6.6846566    247.17992  0.028333324  0.028583043            5 
  728000   0.97583779   -6.6925564    246.59397  0.028227331  0.028564298            3 
  729000   0.94317965   -6.6499373    247.98232  0.028347315  0.028545291            4 
  730000   0.97793888   -6.6987347    247.04764  0.028201785  0.028526517            2 
  731000   0.94645045   -6.6735743    247.58754  0.028224754  0.028507214            3 
  732000   0.97792088   -6.6871909    247.76516  0.028206416  0.028488246            4 
  733000   0.94053977   -6.6668139    248.24563  0.028222559  0.028469549            4 
  734000   0.95548911   -6.6992017    248.58785  0.028222962  0.028450976            4 
  735000   0.98627792   -6.7103012    247.96893  0.028114391  0.028432296            7 
  736000   0.94824063   -6.6707029     248.9682  0.028189334  0.028413671            2 
  737000   0.97106989   -6.6913725    248.35472  0.028081718   0.02839508            5 
  738000   0.95738035   -6.6804699    250.12044  0.028243049  0.028376761           12 
  739000   0.95088253   -6.6687025    250.02746  0.028194346  0.028358244            7 
  740000   0.96027637   -6.7388191    249.83214   0.02813425  0.028339897            7 
  741000   0.95344175   -6.6830566    249.71006  0.028082553  0.028321604            5 
  742000   0.95047168   -6.7306267     248.7746  0.027939645  0.028303011            6 
  743000   0.97555792   -6.6999536    250.23793  0.028066166   0.02828404            6 
  744000    0.9591931   -6.7012262    249.78402  0.027977601   0.02826549            3 
  745000   0.95300712    -6.728989    250.23482  0.027990472  0.028246893            2 
  746000    0.9454021    -6.724363    250.49691  0.027982228  0.028228188            9 
  747000   0.95724501   -6.7220104    251.40425  0.028045989  0.028209903            7 
  748000   0.96007757   -6.7284175    250.90684   0.02795308  0.028191322            6 
  749000   0.94723239   -6.7502029    251.02802  0.027929242  0.028172625            4 
  750000   0.97253677   -6.6997737    251.66213  0.027962458  0.028154076            3 
  751000   0.94726069   -6.7694075    251.30186  0.027885249  0.028135517            7 
  752000   0.94296064   -6.7646096    251.69016  0.027891197  0.028117035            9 
  753000   0.96811039   -6.7058372     252.4756  0.027941081   0.02809851            3 
  754000   0.95640735   -6.7295869    252.42728  0.027898682  0.028080143           12 
  755000   0.96162134   -6.7246211    252.31564  0.027849409  0.028061763            8 
  756000    0.9588602   -6.7507672    252.36992  0.027818554  0.028043017            4 
  757000   0.94987761   -6.7335246    252.52154  0.027798497  0.028024432            6 
  758000   0.94266642   -6.7398308    252.45018  0.027753978  0.028005709            5 
  759000   0.95298624   -6.7334788    252.90977  0.027767871  0.027986963            6 
  760000   0.92821549   -6.6952239    253.81149  0.027830207  0.027968379            3 
  761000   0.95143377   -6.6952291    253.96152  0.027810066  0.027949782            4 
  762000    0.9495443   -6.7064255    253.54608  0.027728136  0.027931343            9 
  763000   0.94671139   -6.7433765    253.19371  0.027653311  0.027912536           10 
  764000   0.95894879   -6.7285763    253.39744  0.027639337  0.027893772            3 
  765000    0.9478954   -6.7464168     253.0099  0.027560991  0.027874931            4 
  766000   0.94229274   -6.7148653    253.10389  0.027535236  0.027855869            7 
  767000   0.93380911   -6.7266756    253.73712  0.027568136  0.027836755            3 
  768000   0.94656353   -6.7241331    253.48063  0.027504408  0.027817576            4 
  769000    0.9520762   -6.6954925    254.27407  0.027554624  0.027798455            3 
  770000    0.9489307   -6.7480094    253.39145  0.027423317  0.027779111            5 
  771000   0.95298808    -6.752934    253.80313  0.027432245  0.027759322            6 
  772000   0.95128599   -6.7752039    253.26791  0.027338937  0.027739703            3 
  773000   0.95218582   -6.7399429    254.48727  0.027435022  0.027719841            5 
  774000   0.95511244   -6.7773302    254.32142   0.02738172  0.027700372            4 
  775000   0.93496283    -6.764409    254.34633  0.027349067  0.027680762            4 
  776000   0.93036132   -6.7570829    254.53095   0.02733365   0.02766111            5 
  777000    0.9337501   -6.7570053    253.90248  0.027231068   0.02764151            6 
  778000   0.91935904   -6.7424956    254.87603  0.027300345  0.027621606            2 
  779000   0.94165914   -6.7707619    254.70987  0.027247526  0.027602055            5 
  780000   0.94896015   -6.7713237    255.57163  0.027304662  0.027582386           20 
  781000   0.93991294   -6.7538892     255.1282  0.027222386  0.027562805            8 
  782000   0.93594739   -6.7642392    255.81287  0.027260536  0.027543316            6 
  783000   0.93117566   -6.7641713    256.07566  0.027253689  0.027523942            2 
  784000   0.94053218   -6.7822268    255.19635  0.027125462  0.027504386            4 
  785000   0.95880034   -6.7511009    255.44565  0.027117373  0.027484606            4 
  786000   0.94796507   -6.7890312    256.00306  0.027141969  0.027464776            7 
  787000    0.9448078   -6.7323303    257.08428  0.027221969   0.02744522            6 
  788000   0.92029695   -6.7755206    256.62628  0.027138989  0.027425778            3 
  789000   0.93934322   -6.7386497    256.65138  0.027107244  0.027406717            9 
  790000   0.92515106    -6.722663    257.22449  0.027133385  0.027387499            5 
  791000   0.94810095   -6.7382794    258.28624   0.02721094  0.027368388            4 
  792000   0.95170112   -6.7665797    257.66163  0.027110862  0.027349667            6 
  793000   0.93333217   -6.7553657    258.18298   0.02713146  0.027330537           10 
  794000    0.9644547   -6.7752784    258.19984   0.02709906  0.027311171            5 
  795000   0.93198768   -6.7575095    257.32012  0.026972759   0.02729145            4 
  796000   0.95385259    -6.780195    257.50957  0.026958707  0.027271823            6 
  797000   0.93642872   -6.7297954    258.16533  0.026993447  0.027252415            5 
  798000   0.93846034    -6.747727    257.96273  0.026938464  0.027233184            6 
  799000   0.92087747   -6.7932423    257.35345  0.026841203  0.027213577            4 
  800000   0.91930633   -6.7850154    258.06444  0.026881712  0.027193813            4 
  801000   0.91708795   -6.7737811    258.54838    0.0268985  0.027174223            9 
  802000   0.93955177   -6.7527949    259.04321  0.026916377   0.02715432            4 
  803000   0.96081341   -6.7786693      258.597  0.026836551  0.027134739            4 
  804000    0.9068711   -6.7482595    259.34993  0.026881212  0.027115526            6 
  805000   0.93862789   -6.7860644     259.4391  0.026857049  0.027096549           12 
  806000   0.94735008   -6.7731787    258.35174  0.026711305  0.027076807            7 
  807000   0.92055254   -6.7798204    258.31959  0.026674885  0.027057236            6 
  808000   0.92991748   -6.7950139    259.10126  0.026722489   0.02703753            2 
  809000   0.91266316    -6.789177    259.42473  0.026722778  0.027017897            5 
  810000   0.90863396   -6.8078481      259.282  0.026675103  0.026998173            3 
  811000   0.90925132   -6.7735333    258.90638  0.026603615  0.026978628            7 
  812000   0.92534583   -6.7683225    260.34749  0.026718749  0.026959055            5 
  813000   0.93917197   -6.7775078    260.12644  0.026663227  0.026939529            5 
  814000   0.94099431   -6.7932948    259.97178  0.026614637  0.026920009            7 
  815000   0.92737407   -6.8164453    260.06512  0.026591526  0.026900163            7 
  816000    0.9400255   -6.8025652    259.21355  0.026471972  0.026880544            3 
  817000   0.91923201   -6.7567489    260.46372  0.026567087  0.026860794            4 
  818000   0.89298797   -6.7961146    259.49887  0.026436315  0.026841074            3 
  819000    0.9133319   -6.7823497    259.77628  0.026432263  0.026821333            5 
  820000   0.93076532   -6.7827009    260.41038   0.02646447  0.026801509            6 
  821000   0.93354176   -6.8048617    260.84366  0.026476214  0.026781543           10 
  822000   0.93683831   -6.7764475    261.47587  0.026508097   0.02676155            7 
  823000   0.93340612   -6.7606669    260.83096  0.026410588  0.026741512           11 
  824000   0.92666215   -6.7692463    260.91308   0.02638684  0.026721623            5 
  825000   0.91975338   -6.8403296    260.38528  0.026301544   0.02670162            6 
  826000   0.93748905   -6.8367714    260.80268  0.026311812   0.02668162           11 
  827000   0.89116539   -6.8277246    260.26858  0.026226177  0.026661686            7 
  828000   0.93632581   -6.8159157      261.503   0.02631874   0.02664163            8 
  829000    0.9349611   -6.7995734    261.90645  0.026327548   0.02662194            2 
  830000   0.92373638   -6.8057549     261.7959  0.026284729  0.026602111            6 
  831000   0.93348453   -6.7901699    262.41034  0.026314715  0.026582436            4 
  832000   0.91403936   -6.8334969    262.09373  0.026251375   0.02656259            6 
  833000   0.92948487   -6.8146863    261.63149  0.026173619  0.026542798            7 
  834000   0.93479593   -6.8175678    262.79958   0.02625895  0.026523061            3 
  835000   0.93413956   -6.7886839    262.99492  0.026246998  0.026503299            5 
  836000   0.92301194   -6.7661224    263.69123  0.026285011  0.026483828            2 
  837000   0.91240368   -6.7970445    263.01562  0.026186342  0.026464381            5 
  838000   0.92133444   -6.8355647    262.46988  0.026100824  0.026444631            5 
  839000   0.94962956   -6.8104504    263.42235  0.026164317  0.026425248            5 
  840000   0.91712049   -6.8126958    262.67316  0.026058845  0.026405905            5 
  841000   0.92961726   -6.8442575    262.88694  0.026049043  0.026386204           17 
  842000   0.91645844    -6.793051    264.10347  0.026138507  0.026366464            3 
  843000   0.89127512   -6.7738831    264.34608  0.026131482  0.026347178            8 
  844000    0.9059132   -6.8156958    263.82858  0.026049426  0.026327853            6 
  845000   0.89727999   -6.8168321    263.74836  0.026010686  0.026308361            8 
  846000   0.91376028   -6.8411344    263.23299  0.025929175  0.026288821            8 
  847000   0.92823959   -6.8291892    263.84807  0.025959078  0.026269347            8 
  848000   0.93564505   -6.8276129    264.43931  0.025986567  0.026249833            7 
  849000   0.94254476   -6.8230166    264.14584  0.025927153  0.026230361            6 
  850000    0.9514225   -6.8410617     264.0149  0.025883814  0.026210857            8 
  851000   0.91018161   -6.8290153    264.22237  0.025873714  0.026191205            3 
  852000    0.9153307   -6.8151962      264.628   0.02588302  0.026171631            8 
  853000   0.93770565   -6.7838606    265.89633  0.025976586  0.026152321            7 
  854000   0.91247415   -6.8655144    265.14549  0.025872901  0.026132733            5 
  855000   0.92809668   -6.7906471     265.8531  0.025911608   0.02611323            9 
  856000   0.91439298   -6.7910409    266.03664  0.025899206  0.026093855            5 
  857000   0.92532213   -6.8211872     266.1333  0.025878384  0.026074793            5 
  858000   0.91345412   -6.8068343    266.08536  0.025843567  0.026055668            4 
  859000   0.89651287   -6.8359821    266.00929  0.025806101  0.026036308            4 
  860000   0.91030551    -6.788424    265.88684  0.025764229   0.02601672           10 
  861000   0.91074444   -6.8346319    266.59596  0.025802938  0.025996999           11 
  862000   0.92522503   -6.8273766    266.63739   0.02577701  0.025977521            7 
  863000   0.90222492   -6.8546493    265.78138  0.025664482   0.02595765            6 
  864000   0.91266576    -6.843873    265.90082  0.025646298  0.025937716            9 
  865000   0.93007561   -6.8053131    266.46058  0.025670576  0.025918006            6 
  866000   0.91671043   -6.8387283    265.72659  0.025570303  0.025898235            3 
  867000   0.91976983   -6.9017128    265.18422   0.02548868  0.025878196            9 
  868000   0.91133084   -6.8731307     265.4313  0.025483036  0.025857989            9 
  869000   0.92290383   -6.8474421    265.66305  0.025475935  0.025837772            4 
  870000   0.90119182   -6.8585101    266.12689  0.025491081  0.025817753            8 
  871000   0.90906232   -6.8222857    267.04453  0.025549611  0.025797808            7 
  872000   0.88699095   -6.8569885    267.15067  0.025530454  0.025777808            7 
  873000   0.91015252   -6.8651517    266.21285  0.025411689  0.025757643            3 
  874000   0.91019677   -6.8412854    266.85479  0.025443821  0.025737612            3 
  875000   0.89633304   -6.8458446    266.40716   0.02537211  0.025717511            6 
  876000   0.90699742     -6.86023    265.82289  0.025287565  0.025697401            8 
  877000   0.90205341    -6.899978    265.82777  0.025259195  0.025677186            7 
  878000   0.89767362   -6.8497121    267.79622  0.025417257  0.025657182            4 
  879000   0.90142179    -6.870863    267.51444  0.025361627  0.025637114            9 
  880000    0.8815279   -6.8795159     267.0368  0.025287575  0.025616907            4 
  881000   0.89911327   -6.8748393    266.61749   0.02521921  0.025596931            4 
  882000   0.92490666    -6.847389    268.20473  0.025340583   0.02557681            7 
  883000   0.88317592   -6.8966222    267.58266  0.025253177  0.025556968           20 
  884000   0.91886666   -6.8403628    268.27125  0.025289522   0.02553695            3 
  885000   0.88066104    -6.859536    268.42328  0.025275262  0.025516871            8 
  886000   0.92024552   -6.8975365    267.53867  0.025163531  0.025496864            7 
  887000   0.88683392   -6.8359656    268.46972  0.025222634  0.025476996            6 
  888000   0.90685007   -6.8821011    268.60217  0.025206661  0.025457305           14 
  889000   0.90706622   -6.9163956    267.87091  0.025109759  0.025437303            6 
  890000    0.9177729   -6.8687579    269.11359  0.025197902  0.025417611            7 
  891000   0.89479642   -6.8640808    268.96601  0.025155819   0.02539793            3 
  892000   0.90645963   -6.8462566    269.02454  0.025133085  0.025378227            5 
  893000   0.89446288   -6.8720665    268.67217  0.025072058  0.025358419            9 
  894000   0.89878015   -6.8960859    268.82575  0.025058329  0.025338353            6 
  895000   0.89464635   -6.8673641    269.23512  0.025068447  0.025318361            9 
  896000   0.88626644     -6.88311    269.48063  0.025063303  0.025298563            6 
  897000    0.9065206   -6.8595144    270.10796  0.025093642  0.025278855            3 
  898000   0.89082369   -6.8850438     268.7241  0.024937277  0.025259177            7 
  899000    0.8990008   -6.8674193     269.8125  0.025010429  0.025239296           10 
  900000   0.87642459   -6.9142863    268.61098  0.024871387  0.025219365            4 
  901000   0.88714203   -6.8897289    270.26733  0.024996979  0.025199574            9 
  902000   0.87716098   -6.8970603    269.48049  0.024896572  0.025179736           10 
  903000   0.88376997    -6.891981    269.25961  0.024848617  0.025159853            5 
  904000   0.87793042   -6.9158498    269.98361  0.024887869  0.025139723            4 
  905000   0.89159689   -6.9209423    269.01827   0.02477148  0.025119716            6 
  906000   0.88484321   -6.8800731    268.60942  0.024706532  0.025099821           17 
  907000    0.9198282   -6.9104066    270.14126  0.024820035  0.025080017            7 
  908000   0.90038968   -6.8772127    270.01618  0.024781221  0.025060179           10 
  909000   0.89737192   -6.8783002    269.98285  0.024750903  0.025040309            6 
  910000   0.85990882   -6.8502913    271.21752  0.024836769   0.02502067            8 
  911000   0.87785984   -6.8853151    270.72401  0.024764363  0.025001174            7 
  912000   0.88917671    -6.890927    271.35547  0.024794908  0.024981633            7 
  913000   0.89758496   -6.8715208    270.42735  0.024683037  0.024962084           13 
  914000    0.9001491   -6.8685209    270.41605  0.024655001  0.024942597            4 
  915000   0.91059354   -6.9119554    270.33367  0.024620553  0.024923037            9 
  916000   0.88098721   -6.8902302    271.39635  0.024690352  0.024903203            4 
  917000   0.88563305    -6.941476     270.9977  0.024627199  0.024883296            8 
  918000   0.87838759   -6.8856099     271.3392  0.024631373  0.024863433            5 
  919000   0.87859493   -6.9240037    271.12806  0.024585424  0.024843625            8 
  920000   0.86013281   -6.9216855    270.57776  0.024508855  0.024823763            9 
  921000   0.90141702   -6.9037541    270.51713  0.024476758  0.024804033            5 
  922000   0.87198082   -6.9147928    271.11022  0.024503816  0.024784269           13 
  923000   0.87946399   -6.9520664    270.93986  0.024461887  0.024764344           10 
  924000   0.88616754   -6.9056301    271.69321  0.024503356  0.024744461           11 
  925000    0.8781975   -6.9611841    270.86341  0.024402109  0.024724618            9 
  926000   0.89749539   -6.9024043    271.61749  0.024443619  0.024704834           13 
  927000   0.89573656    -6.882386     271.9404  0.024446278  0.024685153            3 
  928000   0.86938956   -6.8540027    272.67309   0.02448573  0.024665686            6 
  929000   0.87575946   -6.9210054    271.90451   0.02439043  0.024646158            6 
  930000   0.86471342   -6.9235438      272.014  0.024374014  0.024626423            6 
  931000   0.90141065   -6.8982772    272.68075  0.024407515  0.024606893            3 
  932000    0.8846131   -6.9082875    272.81854  0.024393646  0.024587502            8 
  933000   0.90562068   -6.9575041    272.10683  0.024303933  0.024567859            9 
  934000   0.91988773   -6.9422088    273.17126  0.024372882  0.024548495            8 
  935000    0.8845856    -6.900887    273.25776  0.024354524  0.024529011           13 
  936000   0.88657264   -6.9306558    272.98437  0.024304164  0.024509575            5 
  937000   0.86559752   -6.9355475     273.1141  0.024289764  0.024489924            9 
  938000   0.87110285   -6.9419996    273.36989  0.024286593  0.024470197            6 
  939000   0.86591536   -6.9658956    272.09008  0.024147149  0.024450495            4 
  940000   0.88116466   -6.9533652    272.38631  0.024147722  0.024430765            4 
  941000   0.86325876   -6.9502044    273.12436  0.024187421  0.024411107            7 
  942000   0.89838418   -6.9324955    273.37026  0.024183498   0.02439156            7 
  943000   0.88484255   -6.9531817    272.92548  0.024118547  0.024372064           13 
  944000   0.88563009   -6.9160048    274.82361  0.024260559  0.024352781            7 
  945000   0.86892909    -6.938333    273.98319  0.024160775  0.024333626            9 
  946000   0.88587373    -6.918281    275.34634  0.024255316  0.024314619           10 
  947000   0.87869307   -6.9739451     274.4105  0.024147352  0.024295504            7 
  948000   0.85796839   -6.9413877    274.52575   0.02413201  0.024276254            9 
  949000   0.86862387   -6.9787557    274.08397  0.024067788  0.024256936            7 
  950000   0.89548992   -6.9412399    274.19956  0.024052593  0.024237544            3 
  951000   0.87731534   -6.9459651    274.92802  0.024091134  0.024218162            4 
  952000   0.88476266   -6.9458233    274.83625  0.024057795  0.024199095            9 
  953000   0.88241934   -6.9809188    274.37334  0.023992072  0.024179857            6 
  954000   0.85918202   -6.9240203    275.19029  0.024038285  0.024160701            9 
  955000   0.88155799   -6.9010138    275.71972  0.024059313  0.024141769            3 
  956000   0.86061369   -6.9415886    275.94335  0.024053639  0.024122815           23 
  957000   0.87598591   -6.9537435      275.274  0.023970219  0.024103844            5 
  958000   0.86777183   -6.9671845    275.68288  0.023980766  0.024084869            4 
  959000   0.87545057   -6.9331677    275.90337  0.023974919  0.024065939            9 
  960000    0.8670436   -6.9632818    275.57494  0.023921436  0.024047133           11 
  961000    0.8591118   -6.9652804    275.72106  0.023909215  0.024028325           11 
  962000   0.83480396   -6.9818737    275.12269  0.023832526  0.024009484            5 
  963000   0.87061559   -6.9134009    276.78706  0.023951805  0.023990894            5 
  964000   0.88183574   -6.9616501    276.80106  0.023928169   0.02397243            7 
  965000   0.88927601   -6.9267795    278.13417  0.024018494  0.023954097            3 
  966000   0.86449981   -6.9947708    277.08522  0.023903142  0.023935929            3 
  967000   0.86147175   -6.9659038    277.50442  0.023914548  0.023917769            3 
  968000   0.85312068    -6.949997    278.17578  0.023947639  0.023899572            6 
  969000    0.8614582   -6.9554643    277.98626  0.023906627  0.023881341            4 
  970000   0.87963669   -6.9924322    277.49491  0.023839769  0.023863033           10 
  971000   0.87495107   -6.9487977    278.09651  0.023866847  0.023844724            7 
  972000   0.84802498   -6.9393272    278.37687   0.02386633  0.023826542            6 
  973000   0.85822604   -6.9921666    277.71687  0.023785275   0.02380848           10 
  974000   0.87180325   -6.9611239    278.41593  0.023820665  0.023790185            6 
  975000   0.84948057   -6.9933691    278.25345  0.023782346  0.023771888            4 
  976000   0.87414217    -6.984793    277.48122  0.023692044  0.023753583            8 
  977000   0.88373552   -6.9782315    278.69221  0.023771086  0.023735201            8 
  978000   0.85106453   -6.9483911    278.39493   0.02372145  0.023716914            6 
  979000   0.85565692   -6.9873308    278.53073  0.023708778  0.023698676           15 
  980000    0.8665161   -6.9892302    277.93605  0.023634018  0.023680531           11 
  981000   0.87355966   -6.9993439    278.37826  0.023647491  0.023662431            6 
  982000   0.86425684   -6.9727528    279.57979  0.023725373  0.023644184            9 
  983000   0.88259942   -6.9806992    278.72855  0.023629073  0.023625975            9 
  984000   0.84182621    -6.999339      278.883  0.023618141   0.02360775            9 
  985000   0.85869641   -6.9904598    279.15148  0.023616876  0.023589584            5 
  986000   0.87132551   -6.9624709    279.43927  0.023617248   0.02357146            6 
  987000   0.86922601   -6.9945523    279.99763  0.023640462  0.023553297            6 
  988000   0.86284215   -6.9567803     279.7259  0.023593615  0.023535377            5 
  989000   0.87150583   -6.9420695     279.8326   0.02357875  0.023517414            2 
  990000   0.87065665   -6.9722776    280.19718  0.023585621  0.023499618            4 
  991000   0.84967739   -6.9493119     280.1984  0.023561924   0.02348186            6 
  992000   0.84749568   -6.9770447     280.3065  0.023547253  0.023464121            3 
  993000   0.86268675   -6.9641393     281.0557  0.023586413  0.023446284            8 
  994000   0.87157194   -7.0047298    280.12393  0.023484568  0.023428471            5 
  995000   0.87031922     -7.00224     280.4721  0.023490126  0.023410535            7 
  996000   0.85771547   -7.0037422     279.6322  0.023396268   0.02339245            9 
  997000   0.84861702    -6.986069     279.7586  0.023383367  0.023374263            4 
  998000    0.8521763   -7.0208841    279.72797  0.023357379  0.023356176            8 
  999000   0.86094195   -7.0228285    279.56088   0.02332006  0.023337836            9 
 1000000   0.85634212   -7.0260657    280.10819  0.023342349  0.023319631            5 
 1001000   0.85999468   -7.0081474    280.19332  0.023326117  0.023301649            6 
 1002000   0.86812398   -7.0123209    279.89635  0.023278139  0.023283604           19 
 1003000   0.85436872   -6.9865936    280.92061  0.023340031  0.023265638            8 
 1004000   0.82553391   -7.0193709    280.71435  0.023299664  0.023247652            5 
 1005000   0.84310323   -6.9855244    280.94798  0.023295852  0.023229784            5 
 1006000    0.8656805   -6.9916333    280.83074  0.023262983  0.023211877           12 
 1007000   0.84434586   -7.0231705    280.50255  0.023212723  0.023193783           13 
 1008000   0.85363215   -7.0249915    280.51894   0.02319105  0.023175664           12 
 1009000   0.84387298   -7.0033019    280.57668  0.023172835   0.02315747           11 
 1010000   0.85558609   -6.9785791    280.85481  0.023172839  0.023139437            8 
 1011000   0.85476215   -7.0355414     280.7077  0.023137793  0.023121337            8 
 1012000    0.8390495   -7.0109241     280.5084  0.023098518  0.023103243            8 
 1013000   0.85713803   -7.0141199    281.10357  0.023124677  0.023085107            5 
 1014000   0.85336935   -7.0503613    280.55315  0.023056636  0.023066759            7 
 1015000    0.8356458   -7.0256912    280.71323  0.023047063  0.023048431            9 
 1016000   0.83936291   -7.0408287    280.54084   0.02301024  0.023030006           15 
 1017000   0.84417764   -7.0607979    281.37933   0.02305632  0.023011705            9 
 1018000   0.85933905   -7.0129985    281.23997  0.023022264  0.022993574            8 
 1019000   0.84580306   -7.0337699    281.18849  0.022995461  0.022975519           15 
 1020000   0.85311785   -7.0135315    281.58572  0.023005369  0.022957597            6 
 1021000   0.84352329   -7.0178812    281.77397  0.022998202  0.022939662            5 
 1022000   0.86139387   -7.0241864    281.38432  0.022943927  0.022921646            8 
 1023000   0.84717297   -7.0328824    280.63677  0.022860603  0.022903577           12 
 1024000   0.83976506   -6.9871381     281.5224  0.022910352  0.022885479            6 
 1025000   0.84044488   -7.0350277    281.87789  0.022916902  0.022867412           16 
 1026000    0.8616931   -7.0308808    281.61707  0.022873381  0.022849364           13 
 1027000    0.8505305   -7.0314709    281.35397  0.022829761  0.022831391            7 
 1028000   0.82730572   -7.0425017    281.89159  0.022851134  0.022813325            9 
 1029000   0.82906652   -7.0512069    281.30775  0.022781644   0.02279515            8 
 1030000   0.83482298   -7.0637845    281.73197  0.022793849  0.022776956           18 
 1031000   0.83419507   -7.0063456    281.87496  0.022783298  0.022758823           14 
 1032000   0.84017295   -7.0368788    281.92746  0.022765461  0.022740764            9 
 1033000    0.8440906   -7.0255176    282.32335  0.022775359  0.022722599           10 
 1034000   0.84949713   -7.0522858    282.14356  0.022738842  0.022704539            3 
 1035000   0.83090321   -7.0567196    282.33439  0.022732238  0.022686527           13 
 1036000   0.82702311   -7.0962203    281.73225  0.022661861  0.022668388           10 
 1037000    0.8424477   -7.0527044    282.18976  0.022676773  0.022650241            9 
 1038000   0.84338487    -7.014442    283.40271  0.022752305  0.022632249            7 
 1039000   0.85427634    -7.038609    282.28376  0.022640661  0.022614217            6 
 1040000   0.83928251   -7.0418769    282.68955  0.022651406  0.022596235            3 
 1041000   0.82938975   -7.0359231    281.77024  0.022556055  0.022578306            4 
 1042000   0.84295681    -7.045138    282.26441  0.022573929  0.022560301            5 
 1043000   0.84541139   -7.0378963    282.39478  0.022562702  0.022542203            7 
 1044000   0.84732556   -7.0642127    282.61519  0.022558683  0.022523953           10 
 1045000   0.84937181   -7.0664004    281.76223  0.022469077  0.022505755            6 
 1046000   0.86254135   -7.0654707    282.06368  0.022471613  0.022487387           19 
 1047000   0.84113557   -7.0290824    283.15104  0.022536695  0.022469304            9 
 1048000   0.82627329   -7.0366128    283.39321  0.022534447  0.022451487           12 
 1049000   0.83809614   -7.0729038    283.22951  0.022499961  0.022433614            9 
 1050000   0.82050028   -7.0568887     283.4556  0.022496476  0.022415596           13 
 1051000   0.84544628   -7.0483497    283.73535  0.022497253  0.022397712            5 
 1052000   0.83813974   -7.0458276    283.08847  0.022424625  0.022379897           11 
 1053000   0.83282224   -7.0409072     284.3288  0.022501488  0.022362065            7 
 1054000   0.82134639   -7.0782096    283.13772  0.022385968   0.02234437           12 
 1055000   0.83474657   -7.0688685    283.63157  0.022403757  0.022326527           10 
 1056000   0.81480141   -7.0852248    283.93238   0.02240628  0.022308773            6 
 1057000   0.83351447   -7.0476342    284.80019    0.0224535  0.022291097            6 
 1058000   0.81719875   -7.0332949     284.5448  0.022412162  0.022273454            7 
 1059000   0.83314577   -7.0731535    283.33318  0.022295655  0.022255969            7 
 1060000   0.82867544   -7.0918187    283.92366  0.022321042  0.022238413            5 
 1061000   0.81011197   -7.0808032    284.55617  0.022349683  0.022220812            9 
 1062000    0.8305362   -7.0787315     284.8003  0.022347795  0.022203331           11 
 1063000   0.85911417   -7.0467784    285.24185  0.022361387  0.022185837            6 
 1064000   0.83166908     -7.11362    284.70528  0.022298346  0.022168327            7 
 1065000   0.84432638   -7.0956553    284.37911  0.022251886  0.022150789            5 
 1066000   0.83317413   -7.0661746    284.84727   0.02226761  0.022133285            9 
 1067000    0.8278816   -7.0545537      285.172  0.022272102  0.022115888           11 
 1068000   0.83092809   -7.0500949    285.05699  0.022242274  0.022098555            8 
 1069000   0.83052206    -7.082066    285.64874  0.022267597  0.022081157           16 
 1070000   0.84505729    -7.062862    284.87846  0.022186796    0.0220637           16 
 1071000   0.81954843   -7.0480916    286.00726   0.02225391  0.022046295           16 
 1072000   0.80839461   -7.0999746    285.58772  0.022200538  0.022028888           17 
 1073000   0.82283323   -7.0824484    285.44724  0.022168938  0.022011385           13 
 1074000   0.82167816   -7.0881952    284.78148  0.022096639  0.021993828           10 
 1075000   0.82962232   -7.0936898    285.85035  0.022158942  0.021976336           17 
 1076000   0.82851923   -7.0687275    285.59923    0.0221189  0.021958915            9 
 1077000   0.82471989   -7.0997767     285.4546  0.022087171   0.02194156           12 
 1078000   0.82668108   -7.0512738    286.48171  0.022146082  0.021924229           14 
 1079000   0.80971208    -7.047926    286.75499  0.022146663  0.021906995           12 
 1080000   0.81555993   -7.0997527    285.93862  0.022063165  0.021889724           14 
 1081000   0.80979005   -7.0935402    285.65206  0.022020665  0.021872405            6 
 1082000   0.83018275   -7.0718525    286.19202    0.0220419  0.021855191           10 
 1083000   0.82495179   -7.1170705     285.9359  0.022001839  0.021837871            5 
 1084000   0.82754415   -7.0978269    285.96707  0.021983939  0.021820646           10 
 1085000    0.8201942   -7.0853992    286.29042  0.021988511  0.021803466            6 
 1086000   0.80364664   -7.1384235    285.44689  0.021903537  0.021786201           14 
 1087000   0.81796511   -7.1169442    285.79326   0.02190994  0.021768925           17 
 1088000   0.82855468   -7.1244452    286.08449  0.021912109  0.021751647            9 
 1089000   0.82567594   -7.1057761    286.31283   0.02190946  0.021734391           10 
 1090000   0.82791685   -7.0989129    286.34794  0.021892045  0.021717218            7 
 1091000   0.81614467   -7.1304109    286.49276   0.02188304  0.021699947            9 
 1092000   0.80044254    -7.075083    287.49398  0.021939407  0.021682789           25 
 1093000   0.79540174   -7.0840806    287.03619   0.02188443  0.021665593           14 
 1094000   0.81755765   -7.1135417    286.87739   0.02185233   0.02164837            8 
 1095000   0.81693893   -7.1266059    287.00968  0.021842441  0.021631207            8 
 1096000   0.80846886   -7.1202317    286.40331  0.021776407   0.02161396           13 
 1097000   0.82660648   -7.1091531    287.00431  0.021802212  0.021596619           11 
 1098000   0.81110996   -7.1220562    286.25876  0.021725771  0.021579329            7 
 1099000   0.80893913   -7.1444766    285.60476  0.021656412  0.021561833           18 
 1100000     0.826202   -7.1365603    285.94747  0.021662687  0.021544328            9 
 1101000   0.82845542    -7.136327    285.51344   0.02161016  0.021526766           11 
 1102000   0.81919115   -7.1479434    285.90548  0.021620196  0.021509057            7 
 1103000   0.80088539   -7.1218948     287.1029  0.021691062  0.021491411           19 
 1104000   0.81762844   -7.1555446    286.18813  0.021602365  0.021473966           12 
 1105000   0.80111348   -7.1197013    287.08301  0.021650302  0.021456336           22 
 1106000   0.81296266   -7.1303257     287.0596  0.021628963  0.021438856            9 
 1107000   0.79509586   -7.1306589    286.18022  0.021543226  0.021421394           20 
 1108000   0.80571422    -7.138718    286.39796   0.02154016  0.021403951            6 
 1109000   0.81098887   -7.1424893    286.98221  0.021564638  0.021386419           22 
 1110000   0.79830601   -7.1568786    286.43964  0.021504477  0.021368835           18 
 1111000   0.80608344   -7.1379105    287.09194  0.021534049  0.021351285            8 
 1112000   0.79885109   -7.1204833    287.07737  0.021513592  0.021333897            9 
 1113000   0.81895034   -7.1440264    286.65419  0.021462578  0.021316418            9 
 1114000   0.81068182   -7.1175954    287.04976  0.021472903  0.021298881           10 
 1115000   0.80088645   -7.1662037    286.94896   0.02144611  0.021281485           13 
 1116000   0.82098575    -7.143807    286.38616  0.021384868  0.021263959           11 
 1117000   0.78339342    -7.126189    287.56967  0.021454019  0.021246441           13 
 1118000   0.79815957   -7.1477045    286.65797  0.021366873  0.021229042            7 
 1119000   0.80105616   -7.1437448    287.42778  0.021405108  0.021211705            7 
 1120000   0.81202977   -7.1077119     287.2367  0.021371778  0.021194329            9 
 1121000   0.79599247   -7.1330131    286.83805  0.021323079  0.021176953           10 
 1122000   0.81174099    -7.136934    286.99733  0.021315904   0.02115959           18 
 1123000   0.81084535   -7.1474763     286.8021  0.021282435  0.021142223           11 
 1124000    0.8008009   -7.1723598    286.97823  0.021276559  0.021124873           11 
 1125000   0.79681399   -7.1801613    286.93932  0.021254765  0.021107525            6 
 1126000   0.81272648   -7.1378621    287.55765  0.021281649  0.021090224            9 
 1127000   0.79188675   -7.1539546     287.6188  0.021267288  0.021072986            7 
 1128000   0.80723743   -7.1522525     287.7217  0.021256036  0.021055801           12 
 1129000    0.7990783   -7.1462732      287.506  0.021221287  0.021038583            7 
 1130000    0.7971438   -7.1106641    289.17462  0.021325562  0.021021429            7 
 1131000   0.80559296   -7.1348982    288.41215  0.021250527  0.021004356           10 
 1132000    0.7838885   -7.1396858    288.33276   0.02122591  0.020987208           25 
 1133000   0.79255103   -7.1359231    288.19355  0.021196937  0.020970076           19 
 1134000   0.80389811   -7.1704533    287.95225  0.021160513  0.020953131            9 
 1135000   0.79865162    -7.119218    288.48899  0.021181277  0.020936097            4 
 1136000   0.78476707    -7.141252    288.39822  0.021155973  0.020919127            5 
 1137000    0.7986393   -7.1308987    288.49594  0.021144528  0.020902174            9 
 1138000   0.78085195   -7.1643494    288.73579  0.021143511  0.020885232            8 
 1139000   0.78679909   -7.1786906    288.51352  0.021108686   0.02086819            8 
 1140000   0.78468592   -7.1455545    289.20272   0.02114055  0.020851287            9 
 1141000   0.80320301   -7.1641407     288.5757  0.021076227  0.020834393           10 
 1142000   0.80556173    -7.162762    288.30086  0.021037716   0.02081746           16 
 1143000   0.79839408   -7.1770148    288.34591  0.021022595  0.020800447           11 
 1144000   0.79448252   -7.2288472    287.99577  0.020978713   0.02078343           20 
 1145000   0.80106981   -7.1769109    288.79515   0.02101857  0.020766398           11 
 1146000   0.78367437   -7.2046457     289.1843  0.021028527  0.020749432           11 
 1147000   0.78428287   -7.1781386    288.51513  0.020961576   0.02073246           10 
 1148000   0.78662532    -7.207503    288.57909  0.020947959  0.020715516           13 
 1149000    0.8007609   -7.1644792    289.76867  0.021016005  0.020698709           22 
 1150000   0.80026725   -7.1868008    289.44647  0.020974382  0.020681861           19 
 1151000   0.78327179   -7.1894093    289.31603  0.020946715   0.02066502            7 
 1152000   0.78954968   -7.2042841    289.17342  0.020918216  0.020648179            5 
 1153000   0.79772495   -7.1865638    289.17505  0.020900192  0.020631302           11 
 1154000   0.79451565   -7.1858499    289.85563  0.020931227  0.020614426            5 
 1155000   0.79663199   -7.2218197    288.99505  0.020851014  0.020597515            5 
 1156000   0.79780333   -7.2003447    288.76712  0.020816546  0.020580667           11 
 1157000   0.80715152   -7.1930914    288.92943  0.020810244  0.020563858           10 
 1158000   0.78860141   -7.1848669     289.6564  0.020844588  0.020547023            8 
 1159000   0.78332284   -7.2089788    290.06175  0.020855748  0.020530272           13 
 1160000   0.78783341   -7.2194088    289.17274  0.020773904  0.020513506            4 
 1161000   0.76514617   -7.2361931    289.42337     0.020774  0.020496735            7 
 1162000   0.80722779   -7.2013405    289.57513  0.020767006  0.020479868            9 
 1163000   0.80327484   -7.2184068    289.52309  0.020745421  0.020463066           16 
 1164000   0.78221927   -7.2230304    289.35771  0.020715758  0.020446386           26 
 1165000   0.78329405   -7.1982112    289.82568  0.020731451  0.020429694           10 
 1166000   0.78294138   -7.2150333    289.41505  0.020684323  0.020413112            9 
 1167000   0.78455822   -7.1712858    290.63841  0.020753957  0.020396509            9 
 1168000   0.80708231   -7.1952854    290.07486  0.020695981  0.020379942           15 
 1169000   0.79301531   -7.1838071     290.2359  0.020689756   0.02036343            6 
 1170000   0.78494101    -7.206447    289.82138  0.020642549  0.020346857           20 
 1171000   0.77387976   -7.2103611    289.58424  0.020608044  0.020330162           13 
 1172000   0.79146643   -7.1700551    290.88085  0.020682654  0.020313632            9 
 1173000   0.76911332   -7.1991981    289.83483   0.02059071  0.020297073           19 
 1174000    0.7782117   -7.2000716    290.36299  0.020610661  0.020280469           15 
 1175000   0.79339983   -7.2081121    290.29475   0.02058828  0.020263881           11 
 1176000   0.79513849   -7.1867603    289.91804  0.020544079  0.020247308           11 
 1177000   0.78619765   -7.2000356     290.0095    0.0205331  0.020230789            9 
 1178000    0.7851878   -7.1761438    290.59247   0.02055691  0.020214222            9 
 1179000   0.78673337   -7.2032376    290.06074   0.02050189  0.020197791           22 
 1180000   0.77027372   -7.2357766    289.26955  0.020428641  0.020181217           13 
 1181000   0.78564056   -7.2045876    290.04344   0.02046595  0.020164624           16 
 1182000   0.78954454   -7.2094558    290.28455  0.020465634  0.020148042           14 
 1183000   0.79638581   -7.2045835    290.68574  0.020476595  0.020131513           13 
 1184000   0.78408152   -7.2186017    290.33868  0.020434873  0.020115038           10 
 1185000   0.77675015   -7.2392958    290.07852  0.020399333    0.0200984           13 
 1186000   0.79433467   -7.2271633    289.61298  0.020349422  0.020081656           19 
 1187000   0.78482154   -7.2091896    290.33498  0.020382967  0.020064984           17 
 1188000   0.77886098   -7.2275268    290.32865  0.020365366  0.020048414           17 
 1189000   0.77750129    -7.235926     290.2296  0.020341295  0.020031791           22 
 1190000   0.78423891    -7.218986    289.86558   0.02029871  0.020015195           13 
 1191000   0.78842129   -7.2266131    291.34357   0.02038508  0.019998687           13 
 1192000   0.76977073   -7.2678715    289.94253  0.020270031  0.019982094           12 
 1193000   0.78035792   -7.2447854    290.62418  0.020300655  0.019965562           22 
 1194000   0.77476346    -7.234996    290.43181  0.020270227  0.019949079           20 
 1195000   0.76965939   -7.2280641    290.41811  0.020252309  0.019932651            8 
 1196000   0.78608486   -7.2531926    291.07832  0.020281377  0.019916119           10 
 1197000   0.77654328   -7.2254659    290.76294  0.020242477  0.019899557           12 
 1198000   0.76551334   -7.2579463    290.98795  0.020241232  0.019883126           11 
 1199000   0.77886593   -7.2206753    290.91658   0.02021939  0.019866696           11 
 1200000   0.78280446   -7.2785847    290.16529  0.020150367  0.019850298            9 
 1201000   0.77443939   -7.2570765     290.2402  0.020138787  0.019833805            5 
 1202000   0.75769642    -7.277667    291.22356  0.020190208  0.019817323           10 
 1203000   0.78437591   -7.2481485    290.60799  0.020130783  0.019800914            8 
 1204000     0.776073   -7.2424095    290.40111  0.020099745  0.019784533            8 
 1205000   0.78710377      -7.2515    290.77307  0.020108788   0.01976818           19 
 1206000   0.75750058   -7.2421093    290.73404  0.020089417  0.019751845           26 
 1207000   0.77421263   -7.2609297    291.36485  0.020116325  0.019735542           10 
 1208000   0.75669786    -7.222882     291.6253   0.02011764  0.019719233           15 
 1209000   0.74988457   -7.2521628    291.25665   0.02007559   0.01970291            6 
 1210000   0.75904988   -7.2410437    291.52121  0.020077218  0.019686564           13 
 1211000    0.7555685   -7.2943787    290.52455  0.019992055  0.019670168           21 
 1212000    0.7690301   -7.2494848    290.57144  0.019978784    0.0196537            9 
 1213000   0.76915001   -7.2560588     290.5436  0.019960401   0.01963723           11 
 1214000   0.75899184    -7.274243    290.70053  0.019954732  0.019620898            7 
 1215000   0.75169856   -7.2807276    291.20476  0.019972892  0.019604514           10 
 1216000   0.77675619   -7.2649792    290.92281  0.019937144  0.019588129           10 
 1217000   0.77458954   -7.2755628    290.49354  0.019891368  0.019571726           13 
 1218000   0.79108458   -7.2842349    290.35854    0.0198658  0.019555393            8 
 1219000   0.76336366   -7.2672906    290.72128  0.019874302  0.019539035           28 
 1220000    0.7666809   -7.2547857     290.8975  0.019870048  0.019522702           11 
 1221000    0.7551446   -7.2876621    290.76006  0.019844394  0.019506327           12 
 1222000   0.75829811   -7.2813402    290.72177  0.019825543  0.019489882           16 
 1223000   0.77170967   -7.2786301    291.25657  0.019845773  0.019473497           10 
 1224000   0.77546123   -7.2902522    290.55242  0.019781619  0.019457098           15 
 1225000     0.751208   -7.2738459    290.91355  0.019790038  0.019440703           16 
 1226000   0.74723376   -7.2900379    290.36311  0.019736481  0.019424351           15 
 1227000    0.7674215    -7.283335    290.88438  0.019755799  0.019408002           13 
 1228000   0.75568599    -7.306163    290.07558  0.019684825  0.019391546           20 
 1229000    0.7542881   -7.2829743    290.56602  0.019702063  0.019375241           11 
 1230000   0.76995135   -7.2917447    290.92115  0.019710105  0.019358851            9 
 1231000   0.75030503    -7.302913      290.316  0.019653128  0.019342474           15 
 1232000   0.76770688   -7.3408099    289.68541  0.019594522   0.01932606           42 
 1233000   0.77675882   -7.3104735    290.96959  0.019665422  0.019309664           15 
 1234000   0.76403144   -7.2885455     291.1311  0.019660393  0.019293291           14 
 1235000   0.76831336    -7.301291    290.61113  0.019609388  0.019276933           16 
 1236000   0.76074583   -7.2963181    290.79379  0.019605838  0.019260585           19 
 1237000   0.76720499   -7.3294392    290.85643  0.019594208  0.019244373            6 
 1238000   0.74869162   -7.2989324    290.93063  0.019583376  0.019228032           12 
 1239000   0.74217496    -7.325821    290.98302  0.019571094  0.019211753           22 
 1240000   0.76092873   -7.3105341    290.61888  0.019530838  0.019195437           15 
 1241000   0.75151423   -7.3172543    291.16618  0.019551852  0.019179092           17 
 1242000   0.75353769   -7.3101264    290.64002  0.019500807  0.019162796           13 
 1243000    0.7618243   -7.3222158    290.11991  0.019450248  0.019146496           16 
 1244000   0.74610485    -7.310241    291.55801  0.019530949  0.019130193           16 
 1245000    0.7484905   -7.3114748    291.44021  0.019507377  0.019113889           12 
 1246000   0.75549426   -7.3252062    291.14717  0.019472122  0.019097621           10 
 1247000   0.71127709   -7.3265524    290.91222  0.019440806  0.019081351           23 
 1248000   0.74882298   -7.3064506    291.51349  0.019465377  0.019065121           25 
 1249000   0.75283825   -7.3017517    291.51026  0.019449577  0.019048945           18 
 1250000   0.76135679    -7.325133    291.35731  0.019423821  0.019032786           11 
 1251000   0.75275706   -7.3049926    290.91849  0.019379063  0.019016602            5 
 1252000   0.75181587   -7.3177624    291.16148  0.019379758  0.019000455           14 
 1253000   0.74647395   -7.3181163    291.61817  0.019394664  0.018984336           20 
 1254000   0.76274196   -7.3214003    291.17658  0.019349853  0.018968264           12 
 1255000   0.75205273   -7.2998464    291.20699  0.019336454  0.018952138           18 
 1256000   0.74148167   -7.2867172    292.16537  0.019384645  0.018936056           17 
 1257000   0.74969129   -7.3547912    290.32121  0.019246964  0.018919932           17 
 1258000   0.75791262     -7.31425    292.01693  0.019343994  0.018903876           15 
 1259000   0.74019663   -7.2944271    292.03848  0.019330056  0.018887913           18 
 1260000   0.73459391   -7.3293069    292.13101  0.019320834  0.018871896           18 
 1261000    0.7627926   -7.3294285    291.55039  0.019267142  0.018855913           15 
 1262000   0.73554748   -7.3119451    291.29722  0.019235157  0.018839937           22 
 1263000   0.76091549   -7.3249018    291.87118  0.019257797  0.018824018            7 
 1264000   0.75587665   -7.3643556    291.95998  0.019248416   0.01880814           14 
 1265000   0.75754124    -7.318011     291.6009  0.019209546  0.018792245           17 
 1266000   0.75168153   -7.3314276    291.53133  0.019189793  0.018776315           13 
 1267000    0.7613844   -7.3253282    291.20179  0.019152972  0.018760414           15 
 1268000   0.75222486   -7.3375908    291.89221  0.019183242  0.018744462           19 
 1269000   0.74827559   -7.3438115    292.39906  0.019201409  0.018728654           21 
 1270000   0.75585703   -7.2993937    292.78433   0.01921157  0.018712887           25 
 1271000   0.74159354   -7.3146582    291.91684  0.019139578   0.01869721           14 
 1272000   0.74685697   -7.3334765    291.88153  0.019122218  0.018681534           19 
 1273000   0.75058489   -7.2536819    292.39568  0.019140854  0.018665859           10 
 1274000   0.74982966   -7.3352494    291.72902  0.019082223  0.018650207           21 
 1275000   0.73340297   -7.3072839     293.3313   0.01917198  0.018634585           18 
 1276000   0.73444544   -7.3231351    292.10006  0.019076545  0.018618962           18 
 1277000   0.73464806   -7.3127283    292.42644  0.019082906  0.018603319           21 
 1278000   0.72978332   -7.3242239    292.96745   0.01910325  0.018587694            7 
 1279000   0.72361282   -7.3176301    292.39302  0.019050887   0.01857213           19 
 1280000    0.7383977   -7.3421321    292.53576  0.019045297  0.018556601           33 
 1281000   0.74571987   -7.3028544     293.2804  0.019078871   0.01854106           28 
 1282000   0.73401723   -7.3304036     292.6148  0.019020723  0.018525446           28 
 1283000   0.74137671   -7.3399146    292.39003  0.018991298  0.018509876            8 
 1284000   0.75395448   -7.3184436    292.44643  0.018980168  0.018494295           13 
 1285000   0.74617194   -7.3662885    292.17239  0.018947626  0.018478714           16 
 1286000    0.7582407   -7.3604769    292.41146  0.018948384  0.018463119           17 
 1287000   0.71475922   -7.3467751    292.41849  0.018934116  0.018447475           25 
 1288000   0.73047211   -7.3790567    291.94794  0.018888971  0.018431892           21 
 1289000   0.73628937   -7.3761702    292.04542  0.018880619  0.018416223           33 
 1290000   0.72088987   -7.3741049    292.04731  0.018866105  0.018400557           17 
 1291000   0.75914002   -7.3857638    292.09113  0.018854321  0.018384885            9 
 1292000   0.74461446   -7.3713889    292.33291  0.018855322   0.01836927           13 
 1293000   0.74077014   -7.3542649    292.75691  0.018868066  0.018353647           13 
 1294000   0.72031571   -7.3806899    292.41957   0.01883176  0.018338081           14 
 1295000   0.73443626    -7.376529    292.54637  0.018825377  0.018322461           13 
 1296000   0.74939945    -7.385945     292.7481  0.018823823  0.018306826           11 
 1297000   0.70963293   -7.4170019    291.97767  0.018759809  0.018291276           23 
 1298000   0.72716361   -7.3786089    292.49398  0.018778504  0.018275702           20 
 1299000   0.73894128   -7.3923975    292.07092  0.018736908  0.018260109           21 
 1300000   0.72564232   -7.3963096    292.33261   0.01873927   0.01824456           11 
 1301000   0.71152749   -7.3794721     292.7929  0.018754349  0.018228994           17 
 1302000   0.73527708   -7.3934806    292.01096  0.018689897  0.018213447           28 
 1303000   0.72409882   -7.3765881    292.04237  0.018677563  0.018197834           19 
 1304000   0.73332754   -7.3722085    292.47143  0.018690659  0.018182242           16 
 1305000   0.72250954   -7.3699399     292.8454  0.018700217  0.018166703           21 
 1306000   0.73416529   -7.3887754    292.10549  0.018638686   0.01815113           17 
 1307000     0.738234   -7.3886365    291.75627   0.01860216  0.018135548           36 
 1308000   0.74364516   -7.3857573    292.04922  0.018606602  0.018120042           67 
 1309000   0.73730003   -7.3829496    292.59511   0.01862714  0.018104499           40 
 1310000   0.73629947    -7.401201     292.2989  0.018594077  0.018088963           75 
 1311000   0.73523993   -7.3788289    291.91739  0.018555644  0.018073482           75 
 1312000   0.72074291    -7.382109    293.01358  0.018611127  0.018057976           41 
 1313000   0.72761224   -7.3764573    292.25027  0.018548507  0.018042479           43 
 1314000   0.73712005   -7.4126035    292.15344   0.01852825  0.018027011           44 
 1315000   0.72798401   -7.3895222    292.30881  0.018524005   0.01801157           65 
 1316000   0.73754733   -7.3740558    293.21243   0.01856715  0.017996106           41 
 1317000   0.72131143   -7.3734498    292.40035  0.018501667  0.017980754           56 
 1318000   0.70849125   -7.3872187    292.19165  0.018474434  0.017965389           85 
 1319000   0.73408096   -7.3873811    293.02919  0.018513343  0.017949984           55 
 1320000   0.71490911   -7.3732555     292.8309  0.018486799  0.017934598           50 
 1321000   0.72436693   -7.4108947    292.29201   0.01843881  0.017919255           39 
 1322000   0.72991338   -7.3996002    292.22357  0.018420548  0.017903885           44 
 1323000   0.75721855   -7.4242601    292.58229   0.01842922  0.017888486           27 
 1324000   0.72933031   -7.3957636    292.75309   0.01842605  0.017873051           22 
 1325000   0.73277465    -7.385579    292.11949  0.018372295  0.017857646           30 
 1326000   0.72075246   -7.3874127     292.4159  0.018377068  0.017842231           49 
 1327000   0.69560436    -7.424943    291.92059  0.018332114  0.017826769           31 
 1328000   0.73053019   -7.4060173    291.70866  0.018305011  0.017811334           26 
 1329000   0.72500539   -7.4182246    292.32797  0.018330071  0.017795918           19 
 1330000   0.71391141   -7.4057876    291.83017  0.018285099  0.017780506           20 
 1331000   0.72358351    -7.392437    292.65362  0.018322916  0.017765045           38 
 1332000   0.71452363   -7.3952395    292.41522  0.018294246  0.017749631           60 
 1333000   0.71831119   -7.4098027    291.80579  0.018242423  0.017734305           51 
 1334000   0.70627783   -7.4258564    292.31402  0.018260496  0.017718933           35 
 1335000   0.71857471   -7.4471576      291.725   0.01821005  0.017703605           39 
 1336000   0.72972477   -7.4078425    292.48686  0.018243941  0.017688241           53 
 1337000   0.71774165   -7.4123159    292.81968   0.01825104   0.01767293           28 
 1338000   0.72095955   -7.4090249    292.28885  0.018204338  0.017657635           32 
 1339000   0.72805228    -7.437038    291.86453  0.018164335  0.017642383           43 
 1340000   0.72092762   -7.4128579    292.04097  0.018161752  0.017627095           48 
 1341000   0.72212026   -7.4429275    292.34789  0.018167281  0.017611817           81 
 1342000   0.72654848   -7.4306453     292.4692  0.018161277  0.017596539           57 
 1343000   0.72104909   -7.4087793    292.25322  0.018134352  0.017581328           19 
 1344000   0.72409378   -7.4499977    292.36557  0.018127826    0.0175661           20 
 1345000   0.73242592   -7.4531587    292.14931  0.018100949  0.017550868           16 
 1346000   0.72261746   -7.4439223    292.22975  0.018092481  0.017535708           49 
 1347000   0.71450719   -7.4043562     292.6548  0.018105345  0.017520527           42 
 1348000    0.7171337   -7.4386727    292.42238  0.018077546  0.017505334          113 
 1349000   0.71662015    -7.439785    292.87275  0.018091966  0.017490123           50 
 1350000    0.7191139   -7.4613818    292.00531  0.018025019  0.017474927           45 
 1351000   0.71452282   -7.4679309    291.50337  0.017980716  0.017459721           30 
 1352000   0.71242758   -7.4467129    292.21483  0.018011269  0.017444443           67 
 1353000   0.70581711   -7.4546432    292.22943  0.017998856  0.017429294           71 
 1354000   0.70607798   -7.4298727    291.94444  0.017968023  0.017414108           45 
 1355000   0.71618565   -7.4174589    292.19463  0.017970149  0.017398959           23 
 1356000   0.71739769   -7.4500442     291.8239  0.017934114  0.017383854           60 
 1357000   0.69919063   -7.4454254    292.76369   0.01797861  0.017368827           27 
 1358000   0.70470478   -7.4363965     292.6432  0.017957977  0.017353773           39 
 1359000   0.69442147   -7.4204209    292.66279  0.017945965  0.017338721           75 
 1360000   0.71217952   -7.4563945     292.1778  0.017903051   0.01732364           88 
 1361000   0.70071618   -7.4590389    291.76715  0.017864753   0.01730851           47 
 1362000   0.71523917   -7.4263995    292.61831  0.017903714  0.017293338           74 
 1363000   0.70632991   -7.4371189    292.69452  0.017895239  0.017278239           44 
 1364000   0.71327609   -7.4169685    291.92765  0.017835267  0.017263178           22 
 1365000   0.71532665   -7.4719622    292.10513  0.017833036  0.017248151           50 
 1366000   0.71338991   -7.4500959    291.48406  0.017782092  0.017233104           29 
 1367000   0.70275608   -7.4632997     292.1316  0.017808559  0.017218103           14 
 1368000   0.70343601   -7.4558781    292.56283   0.01782181  0.017203032           17 
 1369000   0.69709041    -7.422282    292.17352  0.017785094  0.017187978           44 
 1370000   0.71867291   -7.4373831    292.18524  0.017772825  0.017172957           43 
 1371000   0.71392912    -7.449669     292.1453  0.017757434  0.017157976           43 
 1372000   0.70971797   -7.4595073    292.09783  0.017741608  0.017142973           39 
 1373000   0.71221058   -7.4430008    291.88575  0.017715814  0.017128042           38 
 1374000   0.69500019   -7.4844689    292.15076  0.017718993  0.017113084           21 
 1375000   0.71160314   -7.4592374    292.51305  0.017728063  0.017098186           45 
 1376000   0.70734982   -7.4759664    292.86164  0.017736291  0.017083279           22 
 1377000   0.69177542   -7.4411238    292.98437  0.017730838  0.017068448           39 
 1378000   0.69831509   -7.4660808    292.17984  0.017669318  0.017053596           39 
 1379000   0.70573988   -7.4688169    292.20331  0.017657923  0.017038748           52 
 1380000   0.69813223   -7.4481268    292.75836  0.017678645  0.017023965           30 
 1381000   0.69679443   -7.4681642    292.87437  0.017672844  0.017009179           29 
 1382000   0.71351424   -7.4705356    291.98062  0.017606164  0.016994445           23 
 1383000   0.71028465   -7.4778743    292.51657  0.017625727  0.016979683           47 
 1384000   0.71080498   -7.4629394    292.99803  0.017641981  0.016964929           23 
 1385000   0.73653755   -7.4438637    292.73246  0.017613265  0.016950165           27 
 1386000   0.69616657   -7.4718871    292.37431  0.017579023  0.016935376           25 
 1387000   0.68849698   -7.4860369    292.66918  0.017584065  0.016920551           18 
 1388000   0.69904652   -7.4588944    292.52264  0.017562599  0.016905783           29 
 1389000   0.71903033   -7.4780136    292.41124  0.017543271  0.016891016           40 
 1390000   0.69656695   -7.4575276    292.30139  0.017524064  0.016876239           37 
 1391000   0.70111762   -7.4582143    292.02952  0.017495178  0.016861491           26 
 1392000   0.70183333   -7.4652539    292.22248  0.017494162  0.016846787           34 
 1393000   0.70621775   -7.4983183    292.71701  0.017511188  0.016832023           15 
 1394000   0.71133408   -7.4853779    292.59739  0.017491475  0.016817314           19 
 1395000   0.69416364   -7.4771806    292.39368  0.017466767  0.016802609           23 
 1396000   0.70003104    -7.463025    292.80306  0.017478693  0.016787914           34 
 1397000   0.70266356   -7.4971782    292.82354  0.017467403  0.016773245           28 
 1398000   0.69623259   -7.4657904    292.81118  0.017454171  0.016758623           39 
 1399000   0.69941412   -7.5115319    292.34076  0.017413674  0.016743932           46 
 1400000   0.69528794   -7.4818259    293.12414  0.017447865   0.01672927           19 
 1401000   0.70559935   -7.5084889    291.65875  0.017348248  0.016714635           36 
 1402000   0.71082192   -7.4717388      292.088  0.017361388   0.01670003           24 
 1403000   0.69269165   -7.4804729     292.1486  0.017352614  0.016685392           65 
 1404000   0.67148273   -7.5134468    292.72212  0.017374295  0.016670774           66 
 1405000   0.70365786    -7.487005    292.40408  0.017343065  0.016656162           21 
 1406000     0.688011   -7.4826642    292.39237  0.017330036  0.016641589           41 
 1407000   0.68162156   -7.4951039    292.67639  0.017334541  0.016627004           29 
 1408000   0.68590358     -7.52189    292.33168  0.017301828  0.016612396           46 
 1409000   0.69018828   -7.5002599    292.42543  0.017295093  0.016597824           49 
 1410000   0.69280904   -7.5345228    292.39092  0.017280787  0.016583292           26 
 1411000   0.68336208   -7.5111999     292.2895   0.01726255  0.016568768           37 
 1412000   0.67577098   -7.5265597    291.80991   0.01722202  0.016554184           62 
 1413000   0.69374825    -7.508531    292.38357  0.017243664  0.016539639           81 
 1414000   0.70991775   -7.4913948    293.13241  0.017275601  0.016525176           28 
 1415000   0.68789889    -7.520053    292.02488  0.017198167  0.016510707           32 
 1416000   0.69244346   -7.5185864    292.45832   0.01721153   0.01649623          197 
 1417000   0.68603373   -7.4972997    292.29896  0.017190012   0.01648179           68 
 1418000   0.67813717   -7.4856528    293.00939   0.01721964  0.016467334           61 
 1419000   0.69445601   -7.4748394    293.09983  0.017212816  0.016452924           48 
 1420000   0.68697591    -7.495045    292.59532  0.017171087  0.016438511           28 
 1421000   0.69969671   -7.4933142    291.98706  0.017123332  0.016424101           38 
 1422000   0.68309453   -7.4822008    292.18908  0.017123129  0.016409692           46 
 1423000   0.68043515   -7.5080437    292.28418  0.017116665  0.016395293           65 
 1424000   0.68914076   -7.4977487    292.21601  0.017100656  0.016380848           47 
 1425000   0.68599631   -7.5419912    292.40273  0.017099575  0.016366445           35 
 1426000   0.69913042   -7.5441185    291.99514  0.017063764  0.016352035           48 
 1427000   0.67997813   -7.5412114    291.94412  0.017048828  0.016337657           81 
 1428000   0.67959995   -7.5217635    293.14445  0.017106936  0.016323272           32 
 1429000   0.68129957   -7.5201228    292.35378  0.017048856  0.016308899           43 
 1430000   0.67487631   -7.5212277    292.17021  0.017026236  0.016294543           30 
 1431000   0.67288254   -7.5303221    292.15224  0.017013292  0.016280219           36 
 1432000   0.69104666   -7.5282253    291.72492  0.016976543  0.016265841           31 
 1433000   0.68638669   -7.5407013    291.86437  0.016972806  0.016251433           79 
 1434000   0.68162578   -7.5526386    292.27725  0.016984964  0.016237006           56 
 1435000   0.69015918   -7.5614722    291.05948  0.016902409  0.016222593           50 
 1436000   0.67885419   -7.5504089    291.30321  0.016904782    0.0162082           37 
 1437000   0.67975526   -7.5481365    291.53492  0.016906456  0.016193851           38 
 1438000   0.68484096   -7.5545769    292.03196  0.016923502  0.016179509           73 
 1439000   0.67300436    -7.528492    292.26308  0.016925127  0.016165168           42 
 1440000    0.6892614   -7.5492169    291.72736  0.016882371  0.016150835           34 
 1441000   0.67482348   -7.5289067    292.02831  0.016888058  0.016136528           36 
 1442000   0.67955536   -7.5544801    291.13592  0.016824776   0.01612221           22 
 1443000   0.67792072    -7.578119    291.94869  0.016860054  0.016107962           50 
 1444000   0.67347602   -7.5375436    291.73178   0.01683586  0.016093745           28 
 1445000   0.69023709   -7.5527856     291.4901  0.016810271  0.016079523           33 
 1446000   0.67525887   -7.5297029    292.34793  0.016848083  0.016065307           51 
 1447000   0.67630573   -7.5391618    291.78185  0.016803839  0.016051095           46 
 1448000   0.68336894   -7.5478134    292.30634  0.016822418  0.016036895           80 
 1449000   0.65870982   -7.5662025    291.81278  0.016782423  0.016022666           89 
 1450000   0.68368555   -7.5339539      291.945  0.016778448  0.016008482           46 
 1451000   0.65990401   -7.5485562    291.98256  0.016769042  0.015994321           34 
 1452000   0.67647158   -7.5594357    292.14805  0.016766991  0.015980206           59 
 1453000   0.65368186    -7.530707    291.88382  0.016740297   0.01596611           50 
 1454000    0.6652239    -7.545587    291.97107  0.016733784  0.015952002           48 
 1455000    0.6789548    -7.578228    291.35839  0.016687193  0.015937856           57 
 1456000    0.6684469   -7.5956599    291.33469  0.016674376  0.015923708           96 
 1457000   0.66684444   -7.5740924    292.05468  0.016704111  0.015909615           74 
 1458000   0.66868521   -7.5549922     291.9269  0.016685351  0.015895494           34 
 1459000   0.67100822   -7.5859723    291.31046  0.016638706  0.015881381           56 
 1460000   0.67876308   -7.5682639    291.09192  0.016614835  0.015867299           91 
 1461000   0.67362954    -7.556482    291.49324  0.016626354  0.015853233          179 
 1462000   0.66939238   -7.5683966     292.2466  0.016657923  0.015839187          123 
 1463000   0.66655983   -7.5785816    291.58785  0.016609014  0.015825085          252 
 1464000   0.67303559   -7.5769566    291.70473  0.016604322  0.015811012           31 
 1465000   0.66990628    -7.597051    291.66453  0.016590701  0.015796962          165 
 1466000   0.67639095     -7.58186     291.3296  0.016560345  0.015782899           87 
 1467000   0.66399458   -7.6022706    291.33099  0.016549136  0.015768817          139 
 1468000   0.67719291    -7.594015    291.21487  0.016531271  0.015754781          213 
 1469000   0.69915841   -7.5937399    291.81391     0.016554  0.015740764           89 
 1470000   0.65667157   -7.6061349    291.63742  0.016532733  0.015726732           77 
 1471000    0.6751955   -7.5994044    291.83924  0.016532928  0.015712707           97 
 1472000   0.66693877      -7.6063    291.37822  0.016495597  0.015698705           90 
 1473000   0.67178391   -7.5859997    291.76214  0.016506118  0.015684721           61 
 1474000    0.6567268   -7.6024104    291.51807  0.016481121  0.015670768           67 
 1475000   0.66701241   -7.6077832    290.99413  0.016440346  0.015656791          125 
 1476000    0.6640464   -7.5987977     291.3566  0.016449672  0.015642816           60 
 1477000   0.66942083   -7.5941797    291.37529   0.01643959  0.015628889           78 
 1478000   0.65659329   -7.5891212    291.07423  0.016411493  0.015614988           64 
 1479000   0.64863672   -7.6024592    291.62165   0.01643124  0.015601079           79 
 1480000   0.67325235   -7.5781494    291.71121  0.016425181   0.01558717           76 
 1481000   0.65748409   -7.6128491    291.59456  0.016407527  0.015573242           52 
 1482000   0.66216549   -7.5686399    291.28559  0.016379082  0.015559362           51 
 1483000   0.64942537   -7.5996879    291.40464  0.016374727   0.01554549           69 
 1484000   0.66122808   -7.5972484    291.05573    0.0163441  0.015531596           55 
 1485000   0.65422648   -7.5960536    291.40222  0.016352537  0.015517706          117 
 1486000   0.66979092   -7.5741459    291.35681  0.016338987  0.015503867           68 
 1487000   0.66088997   -7.6084349     290.8735  0.016300914  0.015490008           53 
 1488000   0.65873035   -7.6207941    290.88738  0.016290736  0.015476121          127 
 1489000   0.67130959   -7.5927698    291.63496  0.016321634  0.015462277           73 
 1490000   0.65463086   -7.6291295    290.30707  0.016236413  0.015448492          237 
 1491000   0.67544497   -7.6091055    290.96116  0.016262081  0.015434706          144 
 1492000   0.66589516   -7.6115137    290.80347  0.016242374   0.01542089          274 
 1493000    0.6593101   -7.5981206    291.18652  0.016252876   0.01540711          122 
 1494000   0.65723009   -7.5827215    291.66528  0.016268701  0.015393331          205 
 1495000   0.65929453   -7.6282067    290.91689  0.016216103  0.015379562          187 
 1496000   0.64854262   -7.6094591    291.10485  0.016215734  0.015365793          215 
 1497000   0.65844436   -7.6013514    290.81654  0.016188852   0.01535206           80 
 1498000   0.66280456   -7.6180595    291.67729  0.016225928  0.015338334          120 
 1499000   0.66028822    -7.638294    290.15163  0.016130288  0.015324629          111 
 1500000   0.65583915   -7.6195295    291.66263   0.01620348  0.015310901          166 
 1501000   0.65291361   -7.6207702    290.81094    0.0161454  0.015297211          143 
 1502000   0.65776048   -7.5981264    291.20906  0.016156739  0.015283535          225 
 1503000   0.65315728   -7.6342659    291.06304  0.016137893  0.015269904          191 
 1504000   0.64848688   -7.6131853    291.33068  0.016141992  0.015256294          256 
 1505000   0.65403869   -7.5979798    291.84779    0.0161599  0.015242697          202 
 1506000   0.66655369   -7.6127172    290.75931  0.016088939  0.015229075          171 
 1507000    0.6481968   -7.5987801     291.3253  0.016109561  0.015215464          323 
 1508000   0.64056992   -7.6246191    290.83499  0.016071783  0.015201837          167 
 1509000   0.64818626    -7.625072    291.28413  0.016085936  0.015188266          193 
 1510000   0.63698153   -7.6206986    290.38861  0.016025862  0.015174701          433 
 1511000   0.64834541   -7.6026177    291.10584  0.016054811  0.015161123          272 
 1512000   0.66338434   -7.6190206    291.54695  0.016068505  0.015147569          191 
 1513000   0.65393691   -7.6199826    291.43509  0.016051724  0.015134008          265 
 1514000   0.64944286   -7.6362698    291.09071  0.016022166  0.015120481          253 
 1515000   0.64771913   -7.6319816    291.15383  0.016015062  0.015106978          303 
 1516000   0.64696525   -7.6347245    291.27846  0.016011349  0.015093479          295 
 1517000   0.65221483   -7.6493645    290.76316  0.015972487  0.015079991          371 
 1518000   0.64839211   -7.6213857    290.81273  0.015964686  0.015066519          174 
 1519000   0.65730369   -7.6154184    290.82778  0.015955002  0.015053097          231 
 1520000   0.64491049   -7.6154092    291.22517  0.015966292  0.015039634          213 
 1521000   0.64756716   -7.6491922    291.17761  0.015953189  0.015026167          353 
 1522000   0.64389299   -7.6373621    291.44505  0.015957351  0.015012775          312 
 1523000   0.64517703   -7.6217447     290.9982  0.015922423  0.014999369          318 
 1524000   0.64910294    -7.659276    291.03931  0.015914223   0.01498597          229 
 1525000   0.64110784   -7.6522903    291.53049  0.015930628  0.014972564          213 
 1526000     0.650839   -7.6423463    290.76827  0.015878564  0.014959161          308 
 1527000   0.64224369   -7.6687021    290.54536  0.015856001  0.014945747          250 
 1528000   0.64051485   -7.6516075      290.395  0.015837424  0.014932357          374 
 1529000   0.63406456   -7.6499945    290.80186   0.01584924  0.014918991          353 
 1530000   0.64524178   -7.6305454    290.51731  0.015823383  0.014905647          262 
 1531000   0.64470471   -7.6604659    290.85322  0.015831331  0.014892317          366 
 1532000    0.6322418   -7.6265386    290.86524  0.015821652  0.014878991          515 
 1533000   0.64522521   -7.6556575    291.42515  0.015841767  0.014865684          255 
 1534000    0.6367663   -7.6485137    290.71531  0.015792879  0.014852382          299 
 1535000   0.63863357   -7.6445249    291.25251  0.015811754  0.014839137          383 
 1536000   0.63773346   -7.6523023    290.72048  0.015772596  0.014825895          321 
 1537000   0.62896404   -7.6499229    290.51455  0.015751168  0.014812645          309 
 1538000   0.63745998   -7.6728047    290.64878    0.0157482   0.01479942          396 
 1539000   0.62875223   -7.6601128      290.483  0.015728991  0.014786183          525 
 1540000    0.6270656   -7.6721916    290.20529  0.015703749  0.014772986          573 
 1541000   0.64301468   -7.6559641    290.93827  0.015733197   0.01475979          469 
 1542000    0.6448012   -7.6749598    290.46034  0.015697165  0.014746602          525 
 1543000   0.64220587   -7.6838223    291.40192  0.015737844   0.01473344          491 
 1544000   0.62992367   -7.6593913    290.52901  0.015680538   0.01472029          370 
 1545000   0.64285394   -7.6807377    291.20283  0.015706733  0.014707155          428 
 1546000   0.61888904     -7.66535    290.71056  0.015670039  0.014694026          344 
 1547000    0.6363554   -7.6595934    290.89173  0.015669669  0.014680916          617 
 1548000   0.63097878   -7.6613588    290.41929  0.015634113  0.014667834          615 
 1549000   0.62783943   -7.6789785    290.83547   0.01564641  0.014654718          449 
 1550000   0.64226454   -7.6688597    290.38322  0.015612001  0.014641628          429 
 1551000   0.62851419   -7.6847484    290.50538  0.015608499  0.014628541          604 
 1552000   0.63531008   -7.6660145    290.37951  0.015591683  0.014615423          650 
 1553000   0.62992798   -7.6541917    290.89387  0.015609244  0.014602309          501 
 1554000   0.63092083    -7.679827     290.5305  0.015579714  0.014589204          629 
 1555000   0.62854932      -7.6582    290.94927  0.015592137  0.014576149          678 
 1556000    0.6273073   -7.6918143    290.23579  0.015543905   0.01456313          621 
 1557000    0.6305089   -7.6582871    290.72707  0.015560216  0.014550096          775 
 1558000   0.62100978   -7.6607761    290.66153  0.015546723  0.014537121          741 
 1559000    0.6328835   -7.6796696    290.44058   0.01552494  0.014524147          734 
 1560000   0.62884629   -7.6765174    290.78826  0.015533561  0.014511174          692 
 1561000   0.62901964    -7.684485    290.51605  0.015509078  0.014498241          646 
 1562000   0.62745942   -7.6882287    290.91864  0.015520627  0.014485304          583 
 1563000   0.62981104   -7.6797054    290.83289  0.015506125  0.014472339          601 
 1564000   0.64450136   -7.6992572    290.37009  0.015471552  0.014459397          662 
 1565000    0.6222247    -7.702106    290.00919  0.015442449  0.014446463          753 
 1566000   0.63163564   -7.7038692    290.26068  0.015445971  0.014433521          747 
 1567000   0.61921155   -7.7011739    290.53416  0.015450657  0.014420593          660 
 1568000   0.62307547   -7.7053414    290.20001  0.015423045  0.014407673          485 
 1569000   0.62898019   -7.7022828    290.21057  0.015413775  0.014394756          449 
 1570000   0.62292059   -7.6863442    290.91627  0.015441416  0.014381874          735 
 1571000    0.6207535   -7.6789877    290.75295  0.015422923  0.014369039          733 
 1572000   0.63663426   -7.6745987    290.03778    0.0153752  0.014356197          682 
 1573000   0.61925552    -7.729525    290.35774  0.015382376  0.014343371          770 
 1574000   0.62868639   -7.6984753    290.48724   0.01537946  0.014330547          714 
 1575000   0.62259639    -7.696729    290.12825  0.015350701  0.014317719          837 
 1576000   0.62506371   -7.6955587    290.26739  0.015348318  0.014304927          872 
 1577000   0.62819366   -7.7038591    290.62392  0.015357425  0.014292123          967 
 1578000   0.62286599   -7.7312499    290.34923  0.015333187  0.014279334          986 
 1579000   0.61304986   -7.7075127    290.50327  0.015331606  0.014266557          911 
 1580000   0.62399984   -7.6952218    290.28858  0.015310579  0.014253779          878 
 1581000   0.63514582   -7.7012069    290.25786  0.015299276  0.014241048          902 
 1582000   0.61752871   -7.7003722    289.89806  0.015270652  0.014228298          894 
 1583000   0.62613923   -7.7115073    290.60573  0.015298259   0.01421556          922 
 1584000   0.62147931   -7.6968925    290.08592  0.015261254  0.014202853          895 
 1585000   0.63004522   -7.7302106    289.65196   0.01522881  0.014190118          966 
 1586000   0.60603766   -7.7243487    289.75921  0.015224843  0.014177423          909 
 1587000   0.63275827   -7.7189225    290.35601  0.015246587  0.014164725          937 
 1588000   0.61339385   -7.7410568    289.83731  0.015209766  0.014152033          932 
 1589000   0.63448023   -7.7495418    289.70083  0.015193037  0.014139347          943 
 1590000   0.60961232   -7.7195079    289.59293  0.015177827  0.014126644          828 
 1591000   0.60972334   -7.7429811    289.75824  0.015176945  0.014113963          930 
 1592000   0.61840132   -7.7282508    289.81131   0.01517019  0.014101313          938 
 1593000   0.60599614   -7.7335205    289.60241  0.015149739  0.014088641          898 
 1594000   0.61683977   -7.7205265    289.52073  0.015135964  0.014076005          862 
 1595000   0.60664356    -7.745014    289.78795  0.015140436  0.014063368          968 
 1596000   0.61420061   -7.7534681    289.86139  0.015134784  0.014050742          905 
 1597000    0.6130609   -7.7411182    289.59424  0.015111367  0.014038148          889 
 1598000   0.61092381   -7.7312413    289.88217  0.015116926  0.014025552          923 
 1599000   0.61243503   -7.7127878    290.41509  0.015135245  0.014012986          930 
 1600000    0.6275582   -7.7508555     289.6387  0.015085349  0.014000435          930 
 1601000   0.60380536    -7.723907    290.19409  0.015104835  0.013987885          901 
 1602000   0.58606639   -7.7099733    290.14183  0.015092688  0.013975388          884 
 1603000   0.61334829   -7.7443609    289.81539  0.015066302  0.013962898         1013 
 1604000    0.6171233   -7.7524152    289.94726   0.01506376  0.013950405          943 
 1605000    0.6246066    -7.751072    289.66765  0.015039857   0.01393792          923 
 1606000   0.63668199   -7.7532565    289.79013  0.015036848  0.013925423          964 
 1607000   0.61096268   -7.7581944    289.97264  0.015036955  0.013912927         1041 
 1608000   0.60140603   -7.7581961     289.5092  0.015003586   0.01390044         1007 
 1609000   0.61042417   -7.7480605    289.04239  0.014970085  0.013887938         1057 
 1610000   0.61061792   -7.7663313     289.3997   0.01497928  0.013875438         1071 
 1611000   0.61687471   -7.7465229    289.53348  0.014976902  0.013862962         1126 
 1612000   0.60215118   -7.7356658    290.04054  0.014993824  0.013850526         1068 
 1613000   0.61957731   -7.7573554     289.6959  0.014966723  0.013838095         1038 
 1614000    0.6041976   -7.7819776    289.12479  0.014927963   0.01382565         1124 
 1615000   0.60507357   -7.7761656    289.52288  0.014939261  0.013813229         1119 
 1616000   0.60906023   -7.7448825    289.65563  0.014936862  0.013800827          978 
 1617000   0.61034372   -7.7670155    289.23894   0.01490615  0.013788449         1027 
 1618000   0.62219701   -7.7670733    290.03839  0.014938112   0.01377606         1066 
 1619000   0.60472768   -7.7719679    289.10145  0.014880659  0.013763676         1103 
 1620000   0.60999085   -7.7746935    288.89467  0.014860837  0.013751327         1079 
 1621000    0.6122798   -7.7582212    289.39804  0.014877547  0.013738969         1008 
 1622000   0.61708042   -7.7607014    289.27652  0.014862131  0.013726638         1076 
 1623000   0.60773978   -7.7796082    289.29136  0.014853736  0.013714301         1006 
 1624000   0.59586622   -7.7725973    289.31292  0.014845696  0.013701984         1019 
 1625000   0.60943082   -7.7678905    288.98631  0.014819811  0.013689668         1064 
 1626000   0.59435732   -7.7694422    289.12857  0.014817987  0.013677344         1086 
 1627000   0.60848334    -7.767302    289.50671  0.014828248   0.01366506         1116 
 1628000   0.60276665   -7.7645564    288.83323  0.014784666  0.013652764         1123 
 1629000   0.58804895   -7.7786961    289.12448  0.014790489  0.013640488         1102 
 1630000   0.59472541   -7.7787247    289.01848  0.014775996  0.013628229         1236 
 1631000   0.59850431   -7.7726605    288.53035  0.014741996  0.013615948         1092 
 1632000   0.59279326   -7.7582833    289.39533  0.014777131  0.013603698         1075 
 1633000   0.60009735   -7.7598556    289.11965  0.014754014  0.013591448         1118 
 1634000   0.60112444   -7.7723418    289.06269  0.014742079  0.013579234         1119 
 1635000   0.59240157   -7.7694469     289.1959  0.014739852  0.013567017         1234 
 1636000   0.58209185   -7.7671391    289.22132  0.014732137    0.0135548         1208 
 1637000   0.60482973   -7.7744233    288.91331  0.014707458  0.013542602         1217 
 1638000   0.60051722    -7.757898    288.61372  0.014683237  0.013530381         1144 
 1639000   0.60654782   -7.7800564    289.37633  0.014713053  0.013518193         1231 
 1640000   0.59499717   -7.7901811    288.57758  0.014663495  0.013506018         1239 
 1641000   0.60572382   -7.7879662    288.89441  0.014670649   0.01349385         1189 
 1642000   0.59913552   -7.7743213    288.35719  0.014634449  0.013481712         1198 
 1643000   0.60607027   -7.7899862     289.5876  0.014687949  0.013469599         1126 
 1644000   0.59364968   -7.7876033    289.15036  0.014656851  0.013457482         1214 
 1645000   0.59884543   -7.8040661     289.2346  0.014652209  0.013445348         1351 
 1646000   0.60617057   -7.7949425    288.80621  0.014621619  0.013433217         1298 
 1647000    0.5961336   -7.8044774    288.68575  0.014606646  0.013421091         1245 
 1648000    0.5999804   -7.7875133    289.31759  0.014629732  0.013408996         1248 
 1649000   0.58001938   -7.7882123    288.81629  0.014595527  0.013396922         1284 
 1650000    0.5893222   -7.7889544    288.87625  0.014589709  0.013384837         1242 
 1651000   0.59911728    -7.812573    288.70723  0.014572341  0.013372772         1242 
 1652000   0.59218206   -7.7965119    288.61353  0.014558794  0.013360722         1224 
 1653000   0.58405143    -7.784404    288.85382    0.0145621  0.013348703         1301 
 1654000   0.59514542   -7.7888145    288.23126  0.014521929  0.013336702         1225 
 1655000   0.59666192   -7.8093415    289.40701  0.014572357  0.013324712         1162 
 1656000   0.59353497   -7.8057911    287.90798  0.014488123  0.013312739         1220 
 1657000   0.60294472   -7.7977697    288.67287  0.014517847  0.013300781         1197 
 1658000   0.58482396   -7.7850622    289.49243  0.014550283  0.013288833         1208 
 1659000   0.58528831   -7.8169038    288.30105  0.014481668   0.01327687         1142 
 1660000   0.58571218   -7.8130217    288.66509  0.014491219  0.013264923         1267 
 1661000   0.59115799   -7.8145857    288.49378    0.0144739  0.013252976         1184 
 1662000   0.57748986   -7.8062212    288.24325   0.01445263  0.013241052         1287 
 1663000   0.59348666   -7.8001921      288.521  0.014457857  0.013229154         1333 
 1664000   0.59531526   -7.8205684    288.43655  0.014444939  0.013217279         1199 
 1665000   0.57800549    -7.787346    288.95659  0.014462292  0.013205404         1166 
 1666000   0.58911478   -7.8220344    288.38988  0.014425264  0.013193535         1241 
 1667000   0.59282636   -7.8079585    288.46633  0.014420433  0.013181673         1220 
 1668000   0.57561446   -7.8148811    288.24746  0.014400852  0.013169825         1232 
 1669000   0.59364386   -7.8103877    288.33103  0.014396397  0.013158004         1197 
 1670000   0.57521483   -7.8164599    288.31058  0.014386756  0.013146168         1257 
 1671000   0.57233785   -7.8077373    288.82377  0.014403739  0.013134362         1216 
 1672000   0.58078062   -7.7943232    288.58686  0.014383316  0.013122552         1222 
 1673000   0.58730888   -7.8005336    288.48087   0.01436944  0.013110772         1150 
 1674000   0.58751631   -7.8201757    288.64808  0.014369179  0.013098983         1149 
 1675000   0.59056132   -7.8134272    288.79878  0.014368099  0.013087229         1200 
 1676000   0.58061935   -7.7976431    288.09724  0.014324644  0.013075488         1207 
 1677000   0.57298051    -7.792229    288.98763  0.014360348  0.013063766         1143 
 1678000   0.58901492   -7.8015605    288.09395  0.014307407  0.013052055         1092 
 1679000   0.59357398   -7.8193563    288.27815  0.014308028  0.013040338         1178 
 1680000   0.58588335    -7.801168    288.53423  0.014312214  0.013028636         1214 
 1681000   0.58655828   -7.8194367    288.50934  0.014302466  0.013016943         1283 
 1682000   0.58608505   -7.8183118    288.80233  0.014308478  0.013005254         1130 
 1683000   0.58275062    -7.798841    288.15099  0.014267726  0.012993583         1210 
 1684000   0.58178826   -7.8254484    288.52297  0.014277661  0.012981913         1187 
 1685000   0.58470012   -7.8157084    288.68994  0.014277445  0.012970278         1230 
 1686000   0.57900486   -7.8232517    288.15215  0.014242396  0.012958637         1201 
 1687000   0.57492329   -7.8139644    288.61117  0.014256628  0.012947011         1180 
 1688000   0.58728873   -7.8301065    287.98921  0.014217477  0.012935407         1160 
 1689000   0.59186036   -7.8232116    288.30337  0.014224559  0.012923814         1254 
 1690000   0.58981692   -7.8297922    288.29253  0.014215608  0.012912205         1321 
 1691000   0.57492265    -7.802053     288.2383  0.014204529  0.012900669         1253 
 1692000   0.56866148    -7.820893    288.59981  0.014213938  0.012889131         1301 
 1693000   0.57585747   -7.8219547    288.21627  0.014186664  0.012877598         1294 
 1694000   0.57679019   -7.8248226    288.14525  0.014174796  0.012866069         1293 
 1695000   0.57358274   -7.8246389    288.12954  0.014165661  0.012854551         1282 
 1696000   0.58303246   -7.8401853    287.94749  0.014148363  0.012843017         1313 
 1697000   0.58913638   -7.8475471     287.5625   0.01412112    0.0128315         1365 
 1698000   0.56803939   -7.8327218    288.36837  0.014152354  0.012819986         1317 
 1699000    0.5707717   -7.8294474    287.54214  0.014103499  0.012808485         1285 
 1700000   0.58224226   -7.8350774    288.36927  0.014135749  0.012797002         1311 
 1701000   0.57297714   -7.8396372     288.2742  0.014122781  0.012785531         1300 
 1702000   0.57458831   -7.8265115     288.2139  0.014111531  0.012774069         1299 
 1703000   0.57086321   -7.8335727    288.13875  0.014099567  0.012762636         1412 
 1704000   0.56121137   -7.8410758    287.39432  0.014054887  0.012751209         1370 
 1705000   0.58086838   -7.8378544    288.05863  0.014079112  0.012739791         1342 
 1706000   0.57780332   -7.8395713    287.93437   0.01406479  0.012728393         1303 
 1707000   0.56753616   -7.8185705    288.09075  0.014064184  0.012717009         1360 
 1708000   0.57525554    -7.837074    287.95624  0.014049387  0.012705617         1455 
 1709000   0.56582848   -7.8400891    287.90579  0.014038707  0.012694248         1413 
 1710000   0.56677974   -7.8374044    287.95893  0.014033086  0.012682879         1379 
 1711000   0.56336851   -7.8494044    287.58956  0.014006894  0.012671522         1345 
 1712000   0.57017092   -7.8355215    288.15828  0.014026396  0.012660189         1367 
 1713000   0.57086801   -7.8509101    287.57331   0.01398975  0.012648859         1399 
 1714000   0.58057001   -7.8527351    287.77256  0.013991276  0.012637551         1382 
 1715000   0.56513333   -7.8377037    287.54736  0.013972175  0.012626258         1451 
 1716000   0.56630981   -7.8410143     287.9275  0.013982493  0.012614967         1368 
 1717000   0.56032706    -7.838264    287.94566  0.013975231  0.012603703         1375 
 1718000   0.56287974   -7.8708698    287.58406  0.013949557  0.012592427         1490 
 1719000   0.57881365   -7.8632286    287.73127  0.013948578  0.012581162         1419 
 1720000   0.56076041   -7.8481831    288.13652  0.013960103  0.012569893         1461 
 1721000   0.55861268   -7.8468485    287.25977  0.013909537  0.012558639         1486 
 1722000   0.56512319   -7.8583074     287.6365  0.013919691  0.012547395         1365 
 1723000   0.56189881    -7.850025    287.67866  0.013913652  0.012536186         1505 
 1724000   0.55587417   -7.8544467    287.26125  0.013885405   0.01252497         1515 
 1725000   0.57492602   -7.8653248    288.06414  0.013916142  0.012513771         1460 
 1726000   0.56008464   -7.8588018    287.88047  0.013899211  0.012502596         1580 
 1727000   0.56144156   -7.8607021    287.35854  0.013865979  0.012491425         1545 
 1728000   0.57205437   -7.8580739    288.12304  0.013894823  0.012480256         1530 
 1729000    0.5612129   -7.8736837    287.56002   0.01385965  0.012469106         1573 
 1730000   0.57138019   -7.8730142    287.89488  0.013867769  0.012457974         1564 
 1731000   0.55904673   -7.8641812    287.56925  0.013844081  0.012446846         1628 
 1732000   0.56202056   -7.8572775     287.9717  0.013855451  0.012435735         1534 
 1733000   0.55371883   -7.8892071    287.46633  0.013823155  0.012424614         1622 
 1734000   0.56358289   -7.8671903    287.46475  0.013815107  0.012413511         1565 
 1735000   0.56360782     -7.85611    287.64687  0.013815892  0.012402439         1586 
 1736000   0.55799452   -7.8628596    287.53702   0.01380266  0.012391372         1638 
 1737000   0.56370194   -7.8918754      287.715  0.013803253  0.012380307         1531 
 1738000   0.55057475   -7.8862097    287.23772  0.013772426  0.012369251         1524 
 1739000   0.56122875   -7.8550705    287.14639   0.01376013  0.012358206         1604 
 1740000   0.55928914   -7.8672492    288.10935  0.013798341  0.012347169         1505 
 1741000    0.5493559   -7.8755217    287.42484  0.013757651  0.012336155         1685 
 1742000   0.57128471   -7.8754871    287.43903  0.013750432  0.012325151         1541 
 1743000    0.5439513   -7.8569644    287.61722  0.013751062  0.012314169         1520 
 1744000     0.565703   -7.9070632    287.04593  0.013715879  0.012303165         1622 
 1745000   0.56384876   -7.8751344    287.65827  0.013737262  0.012292171         1627 
 1746000    0.5521401   -7.8761327    287.23548  0.013709215  0.012281195         1598 
 1747000   0.55485556   -7.8843657    287.33124  0.013705936  0.012270223         1621 
 1748000   0.54820769   -7.8755565    286.96686  0.013680723  0.012259265         1661 
 1749000   0.55996596   -7.8982213    287.40552  0.013693802  0.012248325         1693 
 1750000   0.55176597   -7.8735253    287.44675   0.01368794  0.012237402         1721 
 1751000   0.54243629   -7.8770923    287.67476  0.013690975  0.012226474         1713 
 1752000   0.55611847   -7.8868344    286.86244  0.013644523  0.012215552         1655 
 1753000   0.54664737   -7.9108183    286.83262  0.013635322  0.012204635         1707 
 1754000   0.54940005   -7.8879912    287.07094   0.01363887  0.012193729         1744 
 1755000   0.55599192   -7.8959662    286.88989  0.013622502  0.012182823         1776 
 1756000   0.54988291   -7.8806144    287.14231  0.013626723  0.012171937         1749 
 1757000   0.55119444   -7.9024002     287.4324  0.013632726   0.01216108         1816 
 1758000   0.55932912   -7.8829687    286.91679   0.01360053  0.012150226         1782 
 1759000   0.55193945   -7.9069935    287.09695  0.013601334  0.012139387         1846 
 1760000   0.53872772   -7.8947053    287.25759  0.013601212  0.012128555         1789 
 1761000   0.54658594       -7.905    286.66137  0.013565274  0.012117731         1748 
 1762000   0.55928171   -7.8985409    287.20832  0.013583443  0.012106928         1756 
 1763000   0.55769051   -7.8854838    287.03377  0.013567488  0.012096128         1793 
 1764000   0.56047682   -7.9067338    287.19275  0.013567307  0.012085348         1716 
 1765000   0.54573382    -7.886405    287.39874  0.013569345  0.012074577         1729 
 1766000    0.5541163   -7.8754875    287.09255  0.013547214  0.012063825         1802 
 1767000   0.54789975   -7.8969974      286.856  0.013528391  0.012053071         1847 
 1768000   0.55284021   -7.9053081    286.92089  0.013523798  0.012042336         1823 
 1769000   0.54667881   -7.8936667    286.59409  0.013500758  0.012031608         1797 
 1770000   0.54293468   -7.8961778    287.46476  0.013534122  0.012020903         1841 
 1771000   0.54055123    -7.892567    287.16283  0.013512273  0.012010201         1705 
 1772000   0.54771508   -7.8934434    287.17919  0.013505417  0.011999492         1782 
 1773000   0.54478821   -7.9080605    287.05905  0.013492153  0.011988805         1835 
 1774000   0.53428383    -7.911347     287.3588  0.013498628  0.011978132         1773 
 1775000   0.54468982   -7.9113139    287.26068  0.013486417  0.011967456         1782 
 1776000   0.55002226   -7.9111053      286.946  0.013464058  0.011956793         1893 
 1777000   0.53917286    -7.920349    286.87211  0.013453016  0.011946144         1942 
 1778000    0.5477604   -7.9083685    286.71028  0.013437864  0.011935506         1919 
 1779000   0.53835186   -7.9307468    286.54848  0.013422732  0.011924877         1858 
 1780000   0.53878838   -7.9075449    286.46742  0.013411396  0.011914267         1934 
 1781000   0.54704193   -7.9095739    287.16811  0.013436651  0.011903672         1772 
 1782000   0.53798659   -7.9177161    286.94234  0.013418553  0.011893088         1790 
 1783000   0.54645801   -7.9030711    286.49323  0.013390037  0.011882508         1758 
 1784000   0.52719085   -7.8950668    287.03631  0.013407899  0.011871942         1688 
 1785000   0.53357564   -7.9154116    286.81476  0.013390045  0.011861396         1784 
 1786000   0.54285354   -7.9209272    286.49515  0.013367635  0.011850862         1815 
 1787000   0.54303482   -7.9200006    287.00784  0.013384063  0.011840336         1808 
 1788000   0.55005405   -7.9232945    286.52481  0.013354065  0.011829817         1777 
 1789000   0.54964093   -7.9171872    286.71463  0.013355442  0.011819319         1690 
 1790000   0.54638967   -7.9303249    286.80611   0.01335224   0.01180883         1749 
 1791000   0.53521813   -7.9174323    286.76578  0.013342908  0.011798355         1752 
 1792000   0.54348232   -7.9242206    286.79083  0.013336627  0.011787879         1694 
 1793000   0.52833002   -7.8977229    287.01505   0.01333961  0.011777433         1771 
 1794000   0.53005433   -7.9203034    286.72526  0.013318713  0.011766984         1781 
 1795000   0.54591017   -7.9415069    286.69456  0.013309868  0.011756555         1798 
 1796000   0.53904592   -7.9401386    286.65252  0.013300507   0.01174613         1838 
 1797000   0.53943248   -7.9084486    286.80077   0.01329998  0.011735723         1793 
 1798000   0.52867361   -7.9313929    286.86326  0.013295479  0.011725324         1817 
 1799000    0.5358283   -7.9310176    286.54155  0.013273186  0.011714934         1845 
 1800000   0.52311641   -7.9268194    286.62727  0.013269781  0.011704571         1851 
 1801000   0.52328709   -7.9222623    287.17726  0.013287861  0.011694214         1822 
 1802000   0.54452118   -7.9268677    286.52994  0.013250552  0.011683869         1838 
 1803000   0.53060852   -7.9227704    287.07994  0.013268624  0.011673535         1843 
 1804000   0.52507159    -7.923814    286.26321  0.013223541  0.011663202         1837 
 1805000   0.53962173   -7.9144271    286.62778  0.013233046  0.011652893         1938 
 1806000   0.53079942   -7.9228778    286.65694  0.013227065  0.011642593         1892 
 1807000   0.52332585   -7.9412286    286.50027  0.013212519  0.011632293         1932 
 1808000   0.52142118   -7.9318442    286.55212  0.013207601  0.011621999         1911 
 1809000   0.51944817   -7.9204181    286.70471   0.01320733  0.011611723         1843 
 1810000   0.52599742   -7.9220358    286.84763  0.013206613  0.011601456         1810 
 1811000   0.53685277   -7.9413853    286.61828  0.013188767  0.011591193         1808 
 1812000   0.53727004   -7.9324585    286.40167  0.013171526  0.011580945         1826 
 1813000   0.53103381   -7.9299351    287.04037  0.013193619  0.011570715         1861 
 1814000   0.53295462   -7.9445094    286.64016   0.01316796  0.011560492         1836 
 1815000   0.52174034   -7.9435056    286.44295  0.013151651  0.011550282         1893 
 1816000   0.54181275   -7.9533257    286.71197  0.013156754  0.011540088         1804 
 1817000   0.54095593   -7.9473199    286.37664  0.013134133  0.011529915         1866 
 1818000    0.5258291   -7.9450301    286.33351  0.013124932  0.011519736         1783 
 1819000   0.52871095   -7.9577209    286.06174  0.013105266  0.011509569         1844 
 1820000   0.51472021   -7.9258251    286.02118  0.013096208  0.011499404         1832 
 1821000   0.52384978   -7.9500656    286.92287  0.013130279  0.011489261         1833 
 1822000   0.53468071   -7.9562358    286.32918   0.01309592  0.011479119         1916 
 1823000   0.52564209    -7.942138    285.93341  0.013070644  0.011468997         1806 
 1824000   0.52655211   -7.9448223    286.38561  0.013084138  0.011458881         1859 
 1825000   0.51538223   -7.9399316    286.59008  0.013086305  0.011448786         1834 
 1826000   0.51706777   -7.9422093    286.07254  0.013055519   0.01143869         1826 
 1827000   0.52429037   -7.9478686    286.03806  0.013046801  0.011428605         1809 
 1828000   0.52711437   -7.9364984    286.09238   0.01304214  0.011418542         1825 
 1829000   0.51638341   -7.9408073    286.64273  0.013060084    0.0114085         1818 
 1830000    0.5276172    -7.954571    286.35428  0.013039813   0.01139846         1779 
 1831000   0.51832238   -7.9334479    286.46114  0.013037554  0.011388422         1871 
 1832000   0.52861426   -7.9481636    286.27324   0.01302189  0.011378401         1799 
 1833000   0.51645963   -7.9668092    285.96104  0.013000593  0.011368383         1856 
 1834000   0.51206147   -7.9599892    286.21079  0.013004852  0.011358376         1911 
 1835000   0.52430297   -7.9591652    286.19947  0.012997251  0.011348376         1919 
 1836000   0.50956003   -7.9260225    285.69035  0.012967064  0.011338411         1889 
 1837000   0.51748359   -7.9432428    286.36998  0.012990835  0.011328433         1819 
 1838000   0.51901471   -7.9468056    285.96742  0.012965516  0.011318471         1875 
 1839000   0.52129824   -7.9528012    286.47746  0.012981578  0.011308523         1798 
 1840000   0.51421433   -7.9722579    286.74616  0.012986692  0.011298573         1839 
 1841000    0.5427548   -7.9557271    286.23233  0.012956379  0.011288637         1877 
 1842000   0.52458266   -7.9550081    286.08973  0.012942894   0.01127872         1909 
 1843000   0.52154028   -7.9626979    286.47847  0.012953449  0.011268808         1902 
 1844000   0.52216326   -7.9517214    286.21452  0.012934496  0.011258902         1886 
 1845000   0.50870386   -7.9688314    286.09074  0.012921894  0.011249004         1913 
 1846000   0.51299481   -7.9469199    285.89339  0.012905985  0.011239124         1980 
 1847000   0.51444488    -7.968439    286.51784  0.012927172  0.011229254         1886 
 1848000   0.51035772   -7.9634557    285.57362  0.012877598  0.011219389         1955 
 1849000   0.51842279   -7.9629701     285.9194  0.012886218  0.011209533         2017 
 1850000   0.51475032   -7.9627698    286.02554  0.012884033  0.011199687         1978 
 1851000   0.51527955   -7.9847328    285.89454  0.012871175  0.011189861         1967 
 1852000    0.5192324    -7.972634    285.72969  0.012856808  0.011180041         1971 
 1853000   0.51164924   -7.9682678    285.42748  0.012836278   0.01117022         1955 
 1854000   0.51849728   -7.9786506    285.68458  0.012840911  0.011160412         1939 
 1855000   0.50458161   -7.9717495    285.96729  0.012846689   0.01115061         1868 
 1856000   0.50371965   -7.9576408    286.43666  0.012860841  0.011140837         1841 
 1857000   0.51105099    -7.962248     286.0528   0.01283669  0.011131058         1948 
 1858000   0.51931752   -7.9567365    285.96426   0.01282581  0.011121306         1879 
 1859000   0.51350154   -7.9763315    285.78274  0.012810774  0.011111574         1832 
 1860000   0.49476051   -7.9729099    285.74466   0.01280218  0.011101842         1872 
 1861000   0.50582289   -7.9657131    286.25314   0.01281807  0.011092123         1937 
 1862000   0.49668943   -7.9857077    286.17762  0.012807806   0.01108241         1928 
 1863000   0.51402517   -7.9917658    285.83014  0.012785388  0.011072707         1933 
 1864000    0.5058687   -7.9707735    285.52753     0.012765  0.011063008         1891 
 1865000   0.51642712   -7.9692007    285.92734  0.012776021  0.011053322         1903 
 1866000   0.49504552   -7.9763513    286.02729  0.012773637  0.011043654         1884 
 1867000   0.50948001   -7.9699188    285.98895  0.012765084     0.011034         1926 
 1868000   0.50963391      -7.9817    285.59089  0.012740493  0.011024351         1935 
 1869000   0.50428292   -7.9562401    286.27422  0.012764144  0.011014711         1914 
 1870000   0.51067681   -7.9446984    285.59063  0.012726855  0.011005084         1952 
 1871000   0.50050876   -7.9768416    285.55477  0.012718456  0.010995471         1856 
 1872000   0.49985763   -7.9694108     285.8966  0.012726878  0.010985865         1862 
 1873000   0.50570518   -7.9824836    286.28735  0.012737469  0.010976273         1851 
 1874000   0.50890617   -7.9677762    285.91561  0.012714141  0.010966687         1836 
 1875000   0.51975856   -7.9908754    286.33602  0.012726045  0.010957118         1916 
 1876000   0.50096169   -7.9692777    286.08346  0.012708043  0.010947553         1910 
 1877000   0.50291249   -7.9933251     285.7547  0.012686676  0.010938003         1870 
 1878000   0.50671102   -7.9865972    285.63698  0.012674697  0.010928467         1840 
 1879000   0.49597354   -7.9834852     286.4574  0.012704337  0.010918945         1806 
 1880000   0.51334596   -7.9756053      286.037  0.012678945  0.010909424         1842 
 1881000   0.51233174   -7.9730306    285.88759  0.012665585  0.010899915         1837 
 1882000   0.50188958   -7.9903878    285.98401  0.012663125  0.010890428         1839 
 1883000   0.50083227   -7.9845075     286.0029  0.012657236   0.01088094         1828 
 1884000   0.50796734   -7.9814489    286.03473  0.012651926  0.010871469         1829 
 1885000   0.50611231   -7.9766548     285.9621  0.012642003  0.010862017         1842 
 1886000   0.50177187   -7.9930181    286.24205  0.012647669  0.010852575         1881 
 1887000   0.49358697   -7.9916993    285.83789  0.012623118  0.010843152         1844 
 1888000   0.49954696   -7.9835751    286.18755  0.012631866  0.010833729         1751 
 1889000   0.49975233   -8.0000844    285.84111  0.012609895  0.010824319         1857 
 1890000   0.50773368   -7.9953408    285.48952  0.012587721  0.010814916         1777 
 1891000   0.50198802   -7.9935238    285.80891   0.01259514   0.01080552         1841 
 1892000   0.49630223   -7.9968621    285.33859  0.012567768  0.010796135         1867 
 1893000   0.49445995   -7.9879095     285.9812  0.012589417  0.010786761         1752 
 1894000   0.50353101   -7.9986312    285.69471  0.012570165  0.010777398         1829 
 1895000   0.50776405   -7.9947962     285.0394  0.012534714  0.010768035         1833 
 1896000   0.50010892   -8.0023221    285.67877  0.012556205  0.010758691         1821 
 1897000   0.48365201   -7.9997011    286.05763  0.012566229  0.010749357         1855 
 1898000   0.49545585   -8.0022188    285.35897  0.012528933   0.01074003         1798 
 1899000     0.497255   -7.9916914    285.47972  0.012527634  0.010730716         1859 
 1900000   0.49168711   -7.9983157    285.29377  0.012512885  0.010721411         1747 
 1901000   0.48664446   -8.0068259    285.59705  0.012519597  0.010712102         1821 
 1902000   0.49139766   -7.9817006    285.76003  0.012520155  0.010702805         1812 
 1903000   0.48871532   -8.0051214    285.02049  0.012481191  0.010693521         1883 
 1904000   0.49075268   -8.0170213     285.1118  0.012478633  0.010684242         1868 
 1905000   0.48453815   -7.9972666    285.90945  0.012506975  0.010674969         1855 
 1906000   0.48074891   -8.0000669    285.31463  0.012474407  0.010665704         1867 
 1907000   0.49369058   -7.9910679    285.80542  0.012489312  0.010656466         1832 
 1908000   0.49473025   -8.0027595    284.90995  0.012443656  0.010647238         1813 
 1909000   0.49496661   -8.0019883    285.60883  0.012467646  0.010638018         1802 
 1910000   0.49189794   -8.0055654    285.97328  0.012477019  0.010628818         1824 
 1911000   0.49264011   -8.0002121    285.46533   0.01244834  0.010619636         1883 
 1912000   0.48734316   -7.9896811    285.91163  0.012461281  0.010610459         1782 
 1913000   0.48872534   -7.9930266    286.09767  0.012462871  0.010601293         1783 
 1914000   0.49992564   -7.9961261    285.93793  0.012449405  0.010592136         1810 
 1915000   0.48545091   -7.9965342    285.50007   0.01242385  0.010582997         1745 
 1916000   0.49355592   -7.9989744    285.88997  0.012434324  0.010573861         1788 
 1917000   0.49045124   -8.0029066    285.57563  0.012414173  0.010564735         1820 
 1918000   0.48335974   -8.0126763    285.73883  0.012414791  0.010555615         1738 
 1919000   0.48106345   -7.9951117    285.28255  0.012388507  0.010546509         1840 
 1920000   0.49223555   -8.0106887    285.78146  0.012403709  0.010537407         1861 
 1921000    0.4845533   -8.0164659    285.03686  0.012364951  0.010528314         1831 
 1922000   0.48930773    -8.017173      285.231  0.012366936  0.010519229         1916 
 1923000   0.47925158   -8.0077719    285.77967  0.012384281  0.010510169         1823 
 1924000   0.47481419   -8.0069949    285.84674  0.012380749   0.01050111         1868 
 1925000   0.49043027   -8.0171944     284.9784  0.012336727   0.01049205         1881 
 1926000   0.47887751   -8.0046108    285.52715  0.012354065  0.010483012         1893 
 1927000   0.48119329   -8.0102843    285.56421  0.012349257  0.010473984         1901 
 1928000   0.47450044   -8.0142476     285.0961  0.012322618  0.010464964         1901 
 1929000   0.48948231   -8.0041357    285.16238  0.012319094  0.010455957         1838 
 1930000   0.47956714   -8.0113695    285.35125  0.012320866  0.010446946         1897 
 1931000   0.49065292   -8.0057907    285.40102  0.012316633  0.010437954         1923 
 1932000   0.48020654   -8.0043618     285.5304  0.012315839  0.010428973         1930 
 1933000   0.47270765   -8.0149282     284.8983  0.012282217   0.01041999         1863 
 1934000   0.48899039   -8.0093498    284.95288  0.012278218  0.010411027         1894 
 1935000   0.48279414   -8.0205675    285.41732  0.012291874  0.010402061         1912 
 1936000   0.48835935   -8.0200618    285.40252  0.012284888  0.010393111         1931 
 1937000   0.48111913   -8.0141208    285.58528  0.012286408  0.010384174         1917 
 1938000   0.48289878   -8.0304193    285.23914  0.012265185  0.010375242         1933 
 1939000   0.48029528   -8.0090432    285.31076  0.012261937  0.010366328         1944 
 1940000   0.49249648   -8.0118337    285.07294  0.012245401  0.010357417         1816 
 1941000   0.47855453   -8.0281001    285.65512  0.012264087  0.010348521         1937 
 1942000   0.47313144   -8.0290833    284.93923  0.012227053  0.010339627         1805 
 1943000   0.47641346   -8.0158199     285.0946  0.012227423  0.010330739         1960 
 1944000   0.47446114   -8.0182448    285.20886  0.012226032   0.01032186         1877 
 1945000   0.47779118   -8.0365138    284.65428  0.012195985  0.010312999         1936 
 1946000   0.47594507   -8.0184499    285.18494  0.012212442  0.010304142         1955 
 1947000   0.48840708   -8.0192296    285.44587  0.012217337  0.010295301         1844 
 1948000   0.47109995   -8.0158636    285.30797  0.012205166   0.01028647         1954 
 1949000   0.46625571   -8.0298682     285.1238   0.01219103  0.010277638         1992 
 1950000   0.48079045   -8.0195961    284.90282  0.012175334  0.010268821         1862 
 1951000     0.476311   -8.0242019    285.48212  0.012193837  0.010260014         1922 
 1952000   0.47926326   -8.0156676    284.99967  0.012166994  0.010251221         1958 
 1953000   0.46973773   -8.0287135    284.86705  0.012155106  0.010242432         1915 
 1954000   0.47436526    -8.032176    285.19055  0.012162681  0.010233658         1962 
 1955000   0.47169362   -8.0284162     285.2259  0.012157967  0.010224895         1987 
 1956000   0.47334475   -8.0427273    285.15517  0.012148738  0.010216136         1959 
 1957000   0.47891796   -8.0419417    284.91795  0.012132428  0.010207382         2019 
 1958000   0.47104467   -8.0352374      285.467    0.0121496  0.010198635         1854 
 1959000   0.45931355   -8.0293241    285.18881  0.012131564  0.010189905         1933 
 1960000    0.4721666   -8.0439772    285.33143  0.012131438  0.010181178         1898 
 1961000   0.46988527   -8.0519821    284.78389  0.012101984  0.010172465         1873 
 1962000   0.47159457   -8.0385826    285.08896  0.012108773  0.010163765         1867 
 1963000   0.46662355   -8.0357472    284.86488  0.012093092  0.010155063         1973 
 1964000    0.4677543   -8.0314517    285.05786  0.012095123  0.010146381         1939 
 1965000   0.46468666   -8.0568581    285.13328  0.012092166  0.010137702         1967 
 1966000   0.47658571   -8.0310238    285.03134  0.012081695  0.010129038         1948 
 1967000   0.47815903   -8.0359668    284.93507  0.012071474  0.010120379         1932 
 1968000    0.4694886   -8.0357372    284.87116  0.012062634  0.010111725         1941 
 1969000   0.47346092   -8.0417854    284.96683  0.012060557  0.010103079         1912 
 1970000   0.45966851   -8.0400952    284.79503  0.012047167  0.010094446         1948 
 1971000   0.45914413   -8.0547245    285.07862  0.012053045  0.010085827         1988 
 1972000    0.4596504   -8.0426978    284.91615  0.012040067  0.010077206         1877 
 1973000   0.46506683   -8.0477083    284.80649  0.012029333  0.010068605         1953 
 1974000   0.46257376   -8.0578243    284.39896  0.012006035  0.010060012         1896 
 1975000   0.47728732   -8.0475788    285.03573  0.012026824  0.010051434         1962 
 1976000   0.46575258   -8.0388614    284.57384  0.012001258  0.010042855         1877 
 1977000   0.45924388   -8.0378474     284.6515  0.011998461  0.010034294         1936 
 1978000   0.46534756   -8.0340214    285.12488  0.012012339  0.010025736         1884 
 1979000   0.47259194   -8.0652894    284.71035  0.011988814   0.01001719         1971 
 1980000   0.46065037   -8.0521058    285.11099  0.011999621  0.010008648         1976 
 1981000   0.46611391    -8.061338    284.65431  0.011974353  0.010000119         2101 
 1982000   0.45541995   -8.0550282    284.39477  0.011957399 0.0099915903         1974 
 1983000   0.45449442   -8.0457512    285.11576  0.011981667 0.0099830804         2011 
 1984000   0.44904879   -8.0603724    284.23366  0.011938578 0.0099745742         1955 
 1985000   0.46436185    -8.066567    284.22573  0.011932231 0.0099660778         1956 
 1986000   0.44903391   -8.0629617    284.52541  0.011938797 0.0099575952         1935 
 1987000   0.46120477   -8.0602784    284.81487  0.011944928   0.00994912         1891 
 1988000   0.45572101   -8.0703929    284.92439  0.011943511 0.0099406591         1972 
 1989000   0.44473807   -8.0720689    284.73221  0.011929454 0.0099321947         2016 
 1990000   0.45417742   -8.0579633    284.83687  0.011927842 0.0099237429         1952 
 1991000   0.45985733   -8.0519776    285.38716  0.011944884 0.0099153014         1952 
 1992000   0.45752737   -8.0655187      284.449   0.01189964 0.0099068702         1973 
 1993000   0.44378605   -8.0633462    285.26945  0.011927975 0.0098984617         1948 
 1994000   0.46898243   -8.0638281    284.48569  0.011889238 0.0098900503         1922 
 1995000   0.45562378   -8.0440576    285.08152  0.011908167  0.009881645         1903 
 1996000   0.45326006   -8.0665663    284.82362  0.011891434 0.0098732512         1923 
 1997000   0.45784883     -8.06784    284.75341  0.011882549 0.0098648672         1897 
 1998000   0.45157537   -8.0610634    284.65667  0.011872567  0.009856489         1960 
 1999000   0.45776794   -8.0623867    284.28659    0.0118512 0.0098481137         1949 
 2000000   0.45791776   -8.0634327    284.51432  0.011854763 0.0098397551         1910 
 2001000   0.46761729   -8.0619287     284.9316  0.011866217 0.0098314085         1911 
 2002000   0.45558603   -8.0627025     284.8476  0.011856793 0.0098230639         1942 
 2003000   0.45921632    -8.067641     284.7135  0.011845294 0.0098147328         1919 
 2004000   0.45370811    -8.064273     284.8071  0.011843276  0.009806409         1938 
 2005000   0.45597809   -8.0781114    284.54393  0.011826431 0.0097980973         1912 
 2006000   0.45862708    -8.070214     284.3296  0.011811632 0.0097897905         1893 
 2007000   0.44986621   -8.0603836    284.26679  0.011803139 0.0097814959         1854 
 2008000   0.45074152   -8.0628484    283.89452  0.011781811 0.0097732046         1962 
 2009000   0.46442022   -8.0760368     284.3752  0.011795885 0.0097649297         1954 
 2010000   0.45635339    -8.077175    284.66147  0.011801885 0.0097566582         2012 
 2011000   0.43679516   -8.0699356    284.28477  0.011780406 0.0097484007         1924 
 2012000   0.44316528   -8.0685733    283.89774  0.011758521 0.0097401484         1956 
Loop time of 5232.63 on 48 procs for 2000000 steps with 4000 atoms

Performance: 66047.034 tau/day, 382.217 timesteps/s
99.4% CPU use with 48 MPI tasks x no OpenMP threads

MPI task timing breakdown:
Section |  min time  |  avg time  |  max time  |%varavg| %total
---------------------------------------------------------------
Pair    | 388.8      | 421.15     | 452.65     |  82.7 |  8.05
Neigh   | 36.551     | 38.107     | 39.461     |  11.6 |  0.73
Comm    | 331.52     | 366.98     | 397.23     |  86.8 |  7.01
Output  | 5.2006     | 5.203      | 5.2513     |   0.3 |  0.10
Modify  | 4341.9     | 4354.2     | 4366.5     |   9.0 | 83.21
Other   |            | 47.01      |            |       |  0.90

Nlocal:        83.3333 ave          94 max          74 min
Histogram: 1 2 1 12 8 13 5 4 1 1
Nghost:        2435.67 ave        2455 max        2419 min
Histogram: 4 5 0 10 9 4 11 1 1 3
Neighs:        16969.0 ave       19863 max       14283 min
Histogram: 2 4 6 8 4 8 9 2 3 2
FullNghs:      33939.0 ave       38201 max       30292 min
Histogram: 2 1 4 13 6 12 5 3 1 1

Total # of neighbors = 1629071
Ave neighs/atom = 407.26775
Neighbor list builds = 106704
Dangerous builds = 0

#clear
#
#next RN
#
#jump SELF
Total wall time: 1:27:16
