
units lj                  # Use reduced LJ style units
atom_style atomic         # Uncharged point particles
atom_modify map hash      # Needed for indexing of clusters etc
                          # Used to be able to find where atoms are in relation to each other.

lattice fcc 1.0 spacing 1 1 1
Lattice spacing in x,y,z = 1.5874011 1.5874011 1.5874011
region box block 0 10 0 10 0 10 units lattice
create_box 2 box
Created orthogonal box = (0.0000000 0.0000000 0.0000000) to (15.874011 15.874011 15.874011)
  3 by 4 by 4 MPI processor grid
create_atoms 1 box
Created 4000 atoms
  using lattice units in orthogonal box = (0.0000000 0.0000000 0.0000000) to (15.874011 15.874011 15.874011)
  create_atoms CPU = 0.004 seconds
set type 1 type/fraction 2 0.55 78393
Setting atom values ...
  2215 settings made for type/fraction
mass 1 1.0
mass 2 1.0
pair_style lj/cut  3.5
pair_modify tail  yes
pair_coeff 1  1  1.0  1.0   # Intearaction between 1 and 1 set with epsilon = 1 and sigma = 1
pair_coeff 1  2  1.5  0.8
pair_coeff 2  2  0.5  0.88

write_data data.0
System init for write_data ...
Neighbor list info ...
  update every 1 steps, delay 10 steps, check yes
  max neighbors/atom: 2000, page size: 100000
  master list distance cutoff = 3.8
  ghost atom cutoff = 3.8
  binsize = 1.9, bins = 9 9 9
  1 neighbor lists, perpetual/occasional/extra = 1 0 0
  (1) pair lj/cut, perpetual
      attributes: half, newton on
      pair build: half/bin/atomonly/newton
      stencil: half/bin/3d
      bin: standard
WARNING: Not all mixed pair coeffs generated from mixing. Use write_data with 'pair ij' option to store all pair coeffs. (../write_data.cpp:312)


#############################
#   M E L T   S Y S T E M   #
#############################

velocity all create 2.4 6583654 mom yes dist gaussian # Assign velocities
                                                    # Temperature 2.4, random number seed, zero linear momentum
                                                                                # Gaussian distribution

timestep 0.002   # simulation timestep
thermo 1000       # output thermodynamic data every 1000 steps bf 100

# Define a fix  in this case with index 1 applied to all
# particles in the simulation. This fix is for simulations
# in the anisotropic NPT ensemble. Note that we use the MTK
# correction.
fix 1 all npt temp 2.4 2.4 0.1 iso 5.68 5.68 0.5 mtk yes tchain 5 pchain 5 # Use NPT ensemble
                                                                         # Set temperature and pressure and damping
                                                                         # Numbers of thermostats in chain and in barostat
run 10000          # run for 10000 steps
Per MPI rank memory allocation (min/avg/max) = 3.642 | 3.644 | 3.648 Mbytes
Step Temp E_pair E_mol TotEng Press Volume 
       0          2.4   -4.9973821            0   -1.3982821   -4.1559512         4000 
    1000    2.4298709   -4.6971436            0   -1.0532485     5.743711    3647.5639 
    2000    2.4090172   -4.6719486            0   -1.0593262     5.560129    3662.8684 
    3000    2.4383899   -4.6907634            0   -1.0340929    5.5730978    3670.7584 
    4000    2.3942859   -4.8192384            0   -1.2287074    5.8707984    3573.5935 
    5000    2.3990612   -4.7447616            0   -1.1470694    5.8029044     3618.784 
    6000    2.4416822   -4.7233155            0   -1.0617078    5.5204299    3654.0386 
    7000     2.381472   -4.7360243            0   -1.1647093    5.5691304    3626.8663 
    8000    2.4019258   -4.7111448            0   -1.1091567    5.5086871    3650.9644 
    9000    2.3488067    -4.669176            0   -1.1468468    5.5026021    3663.5123 
   10000    2.4033919   -4.6847306            0    -1.080544    6.1202489    3622.9904 
Loop time of 2.64093 on 48 procs for 10000 steps with 4000 atoms

Performance: 654315.881 tau/day, 3786.550 timesteps/s
99.6% CPU use with 48 MPI tasks x no OpenMP threads

MPI task timing breakdown:
Section |  min time  |  avg time  |  max time  |%varavg| %total
---------------------------------------------------------------
Pair    | 1.2118     | 1.2637     | 1.3497     |   2.8 | 47.85
Neigh   | 0.21638    | 0.2237     | 0.24061    |   0.9 |  8.47
Comm    | 0.78598    | 0.89249    | 0.96924    |   3.6 | 33.79
Output  | 0.00024094 | 0.00024886 | 0.00031817 |   0.0 |  0.01
Modify  | 0.19612    | 0.24553    | 0.29705    |   5.8 |  9.30
Other   |            | 0.01526    |            |       |  0.58

Nlocal:        83.3333 ave          93 max          73 min
Histogram: 1 1 4 6 5 15 5 6 3 2
Nghost:        1751.56 ave        1777 max        1723 min
Histogram: 3 2 6 2 5 13 5 4 5 3
Neighs:        10545.6 ave       11851 max        9132 min
Histogram: 2 2 4 7 4 14 5 6 1 3

Total # of neighbors = 506187
Ave neighs/atom = 126.54675
Neighbor list builds = 910
Dangerous builds = 242

# Equilibrate just above the melting temperature to avoid step fn in T

fix 1 all npt temp 1.25 1.25 0.1 iso 5.68 5.68 0.5 mtk yes tchain 5 pchain 5
run 2000
Per MPI rank memory allocation (min/avg/max) = 3.644 | 3.646 | 3.649 Mbytes
Step Temp E_pair E_mol TotEng Press Volume 
   10000    2.4033919   -4.6847306            0    -1.080544    6.1202489    3622.9904 
   11000    1.2716736   -6.8511558            0   -4.9441223    5.5171908    2810.0046 
   12000     1.256946   -6.8990088            0   -5.0140612    5.8325915    2785.5537 
Loop time of 0.645269 on 48 procs for 2000 steps with 4000 atoms

Performance: 535590.872 tau/day, 3099.484 timesteps/s
99.7% CPU use with 48 MPI tasks x no OpenMP threads

MPI task timing breakdown:
Section |  min time  |  avg time  |  max time  |%varavg| %total
---------------------------------------------------------------
Pair    | 0.28878    | 0.31919    | 0.35199    |   2.3 | 49.47
Neigh   | 0.039923   | 0.043267   | 0.046785   |   0.7 |  6.71
Comm    | 0.1984     | 0.23513    | 0.26889    |   2.9 | 36.44
Output  | 5.2363e-05 | 5.3817e-05 | 7.3168e-05 |   0.0 |  0.01
Modify  | 0.038933   | 0.042869   | 0.046332   |   1.0 |  6.64
Other   |            | 0.004758   |            |       |  0.74

Nlocal:        83.3333 ave          91 max          77 min
Histogram: 3 3 5 11 5 10 4 3 2 2
Nghost:        2101.38 ave        2114 max        2085 min
Histogram: 2 1 5 3 9 7 8 6 2 5
Neighs:        13716.2 ave       15267 max       12287 min
Histogram: 3 4 7 4 7 10 4 2 5 2

Total # of neighbors = 658376
Ave neighs/atom = 164.59400
Neighbor list builds = 143
Dangerous builds = 14

#############################
# L I N E A R  Q U E N C H  #
#############################

# Define solid atoms. This closely follows ten Wolde  Ruiz-Montero and Frenkel  Faraday Discuss  1996  104  93-110
# Compute components of the per-atom q6 vector
compute q6 all orientorder/atom degrees 1 6 components 6 nnn NULL cutoff 1.3 # compute the Q6 parameter.
                                                                             # Use all neighbours within 1.3 unit cell.

# get number of connections
compute coord_number all coord/atom orientorder q6 0.5

# An atom is solid if it has 8 or more connections (of a possible 14)
variable is_solid atom c_coord_number>=8
group solid dynamic all var is_solid    # Must be dynamic to update
dynamic group solid defined

# do clustering
compute cluster solid cluster/atom 1.3 # Create a cluster where all atoms within are solid and max 1.3 units from another member

# define chunks one chunk per cluster
compute clus_chunks solid chunk/atom c_cluster nchunk every compress yes  # Says which atoms are in which chunk

# count the size of each chunk
compute size_chunks solid property/chunk clus_chunks count


# Find the maximum entry in the vector of chunk sizes
variable max_n equal max(c_size_chunks)


# Thermo style which includes this variable
# thermo_style custom step temp pe vol v_max_n

thermo ${N}  # Print the thermo information every 100 steps
thermo 1000  

# Reset the npt fix at a lower temperature (below freezing)
fix 1  all npt temp  ${temp} ${temp}  0.1  iso  5.68  5.68  0.5  mtk yes tchain  5  pchain  5
fix 1  all npt temp  0.45 ${temp}  0.1  iso  5.68  5.68  0.5  mtk yes tchain  5  pchain  5
fix 1  all npt temp  0.45 0.45  0.1  iso  5.68  5.68  0.5  mtk yes tchain  5  pchain  5

dump dmp2 all dcd ${N} traj.dcd
dump dmp2 all dcd 1000 traj.dcd


compute msd all msd com yes
variable twopoint equal c_msd[4]/6/(step*dt+1.0e-6)
fix 9 all vector 10 c_msd[4]
variable fit equal slope(f_9)/6/(10*dt)
thermo_style custom step temp pe c_msd[4] v_twopoint v_fit v_max_n

fix 1 all npt temp 1.25 ${temp} 0.1 iso 5.68 5.68 0.5 mtk yes tchain 5 pchain 5
fix 1 all npt temp 1.25 0.45 0.1 iso 5.68 5.68 0.5 mtk yes tchain 5 pchain 5
run 5000000 # 5000000  # Run for this many steps
Neighbor list info ...
  update every 1 steps, delay 10 steps, check yes
  max neighbors/atom: 2000, page size: 100000
  master list distance cutoff = 3.8
  ghost atom cutoff = 3.8
  binsize = 1.9, bins = 8 8 8
  4 neighbor lists, perpetual/occasional/extra = 1 3 0
  (1) pair lj/cut, perpetual
      attributes: half, newton on
      pair build: half/bin/atomonly/newton
      stencil: half/bin/3d
      bin: standard
  (2) compute orientorder/atom, occasional
      attributes: full, newton on
      pair build: full/bin/atomonly
      stencil: full/bin/3d
      bin: standard
  (3) compute coord/atom, occasional
      attributes: full, newton on
      pair build: full/bin/atomonly
      stencil: full/bin/3d
      bin: standard
  (4) compute cluster/atom, occasional
      attributes: full, newton on
      pair build: full/bin/atomonly
      stencil: full/bin/3d
      bin: standard
Per MPI rank memory allocation (min/avg/max) = 9.845 | 9.850 | 9.854 Mbytes
Step Temp PotEng c_msd[4] v_twopoint v_fit v_max_n 
   12000     1.256946   -6.8990088 1.9151571e-30 1.3299701e-32 8.3333333e+20            2 
   13000    1.2647533   -6.9349311   0.43013812 0.0027572955  0.034894485            2 
   14000    1.2500266   -6.9266222    0.8920527 0.0053098373  0.035481029            2 
   15000    1.2655638   -6.9477122    1.3416492 0.0074536066   0.03709928            3 
   16000      1.28107   -6.9570445    1.7320782 0.0090212402  0.036461654            1 
   17000    1.2170194   -6.9364017    2.1934769  0.010752337  0.036159608            3 
   18000    1.2423441   -6.8947273    2.6239925  0.012148113   0.03609899            1 
   19000    1.2516098   -6.9523058    3.0859502  0.013534869  0.036209416            6 
   20000    1.2380254   -6.9347871    3.5159234  0.014649681  0.036435496            3 
   21000    1.2254917   -6.9028726     3.887967   0.01542844  0.036229293            3 
   22000    1.2333598   -6.9171622    4.2827215  0.016222429  0.035942254            2 
   23000    1.2320149   -6.9206184    4.6675668  0.016911473  0.035651899            2 
   24000    1.2529023   -6.9047831    5.1283719  0.017806847  0.035364521            4 
   25000    1.2615172   -6.8832329    5.6180206  0.018726735  0.035381808            2 
   26000    1.2264944   -6.8867197    6.1009095  0.019554197  0.035561509            2 
   27000    1.2313462   -6.9712005    6.3784934  0.019686708  0.035543596            2 
   28000    1.2792006   -6.9402689    6.8139991  0.020279759  0.035400094            3 
   29000    1.2423601    -6.940797    7.1637001  0.020585345  0.035277188            2 
   30000    1.2769267   -6.9213633    7.5478708  0.020966307   0.03511961            2 
   31000    1.2480819   -6.8961869    8.0037031  0.021515331  0.034988224            4 
   32000    1.2175888   -6.9341434    8.2675881  0.021530177  0.034839004            3 
   33000     1.249109   -6.9367461    8.6504335  0.021844529   0.03460045            1 
   34000    1.2618208   -6.9274583    9.0325692   0.02213865  0.034372938            1 
   35000    1.2279423   -6.9743195    9.4081501  0.022400357  0.034206275            4 
   36000    1.2212171    -6.938003    9.8015222  0.022688708  0.034053137            3 
   37000    1.2547019   -6.9395294    10.211494  0.022998861  0.033919004            2 
   38000    1.2511917   -6.9537428    10.680661  0.023422502  0.033836709            1 
   39000    1.2388491   -6.8948285    11.201278  0.023934353  0.033835125            3 
   40000    1.2418414    -6.936808    11.513673  0.023986817   0.03384019            3 
   41000    1.2393781   -6.9201746    11.919788   0.02422721  0.033820395            2 
   42000    1.2419224    -6.910358     12.31665  0.024437797  0.033801757            2 
   43000     1.252538   -6.9302623    12.685796  0.024584876  0.033802672            1 
   44000    1.2594015   -6.9890125    13.134015  0.024875028  0.033781239            1 
   45000    1.2529842   -6.9556813    13.705132  0.025379875  0.033791901            2 
   46000    1.2637445   -6.9650142    14.017397  0.025393835  0.033830727            3 
   47000    1.2291259   -6.8807394    14.449885  0.025620363  0.033862691            1 
   48000    1.2306794   -6.9404163    14.893799  0.025857289  0.033893706            3 
   49000    1.2448016     -6.91001    15.272964  0.025974429  0.033923001            2 
   50000    1.2322328   -6.9015079    15.701082   0.02616847  0.033939607            5 
   51000      1.24903   -6.8832781    16.163715  0.026411299  0.033963201            4 
   52000    1.2648247   -6.8950536     16.46364  0.026384039  0.033975243            2 
   53000    1.2422316   -6.9722232    16.811503   0.02643318   0.03397855            3 
   54000    1.2351203   -6.9433011     17.18253   0.02651625  0.033961705            1 
   55000    1.2442132   -6.9008285    17.699088    0.0268168  0.033948456            1 
   56000    1.2628239   -6.9433538    18.096962  0.026930003   0.03394694            3 
   57000    1.2320277   -6.9693696    18.393863  0.026891612  0.033938172            2 
   58000    1.2464564   -6.9588642    18.901804  0.027157763  0.033940763            1 
   59000    1.2487811   -6.9503726    19.286928  0.027241423  0.033943442            7 
   60000    1.2392065   -6.9712457    19.681402  0.027335281  0.033931785            2 
   61000    1.2538695   -6.9211162    20.220256  0.027623301  0.033937367            3 
   62000    1.2401459   -6.9544538    20.631237  0.027730157  0.033944941            2 
   63000    1.2478774   -6.9448084    20.871839  0.027608252  0.033939949            1 
   64000    1.2585175   -6.9306874    21.398413  0.027862517  0.033944125            2 
   65000    1.2769658    -6.941621    21.848975  0.028011506  0.033960349            1 
   66000    1.2400658   -6.9573953    22.096951  0.027900191  0.033948943            4 
   67000     1.241568    -6.960446    22.433739   0.02790266  0.033943303            2 
   68000    1.2531329   -6.9338983    22.846036  0.027997594  0.033923875            3 
   69000    1.2282991   -6.9507061    23.323489  0.028168465  0.033901491            5 
   70000    1.2519227   -6.9781829    23.569472  0.028058895  0.033881867            4 
   71000     1.251563   -6.9419239     23.97365  0.028138086  0.033853766            1 
   72000    1.2327445   -6.9393718    24.359512  0.028193879  0.033822757            1 
   73000    1.2595238    -6.916495    24.868071  0.028388209  0.033798129            1 
   74000    1.2291873   -6.9259228    25.245455  0.028429567  0.033794782            2 
   75000    1.2242245   -6.9054384    25.732051  0.028591167  0.033777161            4 
   76000    1.2509321    -6.966736     26.03385  0.028545888  0.033761153            2 
   77000    1.2584887   -6.9505209    26.466131  0.028642999  0.033751307            2 
   78000    1.2190238   -6.9136442    26.808075  0.028641106  0.033733286            3 
   79000    1.2411067   -6.9971891    27.216309  0.028709186  0.033713892            2 
   80000    1.2446527    -6.999396    27.600545  0.028750568  0.033695988            2 
   81000    1.2386785   -6.9937905    27.901894  0.028705652  0.033676483            3 
   82000     1.212407   -6.9307129    28.476823  0.028939861   0.03366729            1 
   83000     1.271673   -6.9221319    28.812961  0.028928676  0.033657499            1 
   84000    1.2272064   -6.9386573    29.247771  0.029015645  0.033652546            3 
   85000      1.25179   -6.9226971    29.887731  0.029301697  0.033653181            1 
   86000    1.2311284   -6.9493054    30.136878  0.029202401  0.033656954            4 
   87000    1.2519151   -6.9327202    30.664937  0.029372545  0.033661852            3 
   88000    1.2482616   -7.0430876    30.720571  0.029091449  0.033663505            5 
   89000    1.2197704   -6.9939146    31.311493  0.029317877     0.033655            2 
   90000     1.225447   -6.9215006     31.55105  0.029213935  0.033645346            2 
   91000    1.2208399   -6.9200123    31.873016  0.029187744  0.033628685            1 
   92000    1.2428928   -7.0240134    32.189344  0.029157014  0.033602544            3 
   93000    1.2400883   -6.9789599    32.589914  0.029202432  0.033581817            4 
   94000    1.2496728   -6.9390089    33.104618  0.029348066  0.033565434            1 
   95000     1.206577   -6.9621298    33.540261  0.029421282  0.033549783            1 
   96000    1.2329284   -6.9726521    33.955423  0.029475193  0.033539204            3 
   97000    1.2482012   -6.9366257     34.35971  0.029518651  0.033529902            3 
   98000    1.2451233   -6.9796083    34.579898  0.029404675  0.033515609            1 
   99000    1.2476323   -6.9726614    34.919107  0.029393188  0.033497826            3 
  100000    1.2474118   -6.9084967    35.344711  0.029453925  0.033474009            3 
  101000     1.237256   -6.9491881     35.53606  0.029320182  0.033446047            2 
  102000     1.239239    -6.952126    35.956099  0.029375897  0.033417707            5 
  103000    1.2449838   -6.9517613    36.436499  0.029479368  0.033392441            1 
  104000    1.2496365   -6.9662572     36.59567  0.029323453  0.033364203            3 
  105000    1.2302199   -6.9822511    36.731198  0.029151744  0.033324079            1 
  106000    1.2284242   -6.9167106    37.143899  0.029201179  0.033283724            2 
  107000    1.2352155   -6.9486355    37.591064   0.02927653  0.033242573            3 
  108000    1.2464173   -6.9442593    37.932686  0.029269048  0.033205784            2 
  109000    1.2314763   -6.9182739    38.361758  0.029328561  0.033167098            3 
  110000    1.2331186   -6.9232177    38.774462  0.029374592   0.03313177            3 
  111000    1.2464377   -6.9791811    39.207588  0.029435126  0.033102143            2 
  112000    1.2024657   -6.9720932    39.702892  0.029540842  0.033071945            3 
  113000    1.2174794    -6.982407    39.934496  0.029450218  0.033047987            3 
  114000    1.2088075   -6.9640857    40.381565  0.029518688  0.033020591            1 
  115000    1.2373769   -6.9517246     40.69874   0.02949184  0.032994321            1 
  116000    1.2221996    -6.988562    41.020291  0.029468599  0.032966989            1 
  117000    1.1986053   -6.9767506    41.291955  0.029410224  0.032936539            2 
  118000     1.212237   -6.9630927    41.918311  0.029603327  0.032911913            1 
  119000     1.203354   -6.9825226    42.285333  0.029611578  0.032884786            2 
  120000    1.2157605   -7.0108178    42.460907  0.029486741  0.032855286            1 
  121000    1.2450749   -7.0134714    42.898729  0.029544579  0.032827649            2 
  122000    1.2502199   -6.9802416    43.337475    0.0296021  0.032804513            2 
  123000    1.2531434   -6.9956605    43.627964  0.029558241  0.032777767            2 
  124000    1.2444131   -6.9349712    44.059715  0.029610024  0.032751412            2 
  125000    1.2181874   -6.9375471    44.438517  0.029625678  0.032732467            4 
  126000    1.2313059   -6.9762287    44.896675  0.029693568  0.032713833            1 
  127000    1.2355394    -6.937466    45.544219  0.029884658   0.03269794            4 
  128000    1.2436379   -6.9405759    45.876993  0.029867834  0.032684827            2 
  129000    1.2181448   -6.9754301    46.211794   0.02985258  0.032678242            2 
  130000    1.2288449   -6.9671944    46.638234  0.029896304  0.032669237            3 
  131000    1.2520998   -6.9648422    46.805193  0.029774296  0.032656042            3 
  132000    1.2535347   -6.9686003    47.155163  0.029769673  0.032640169            2 
  133000    1.2124833   -7.0262692    47.688944  0.029880291  0.032628058            3 
  134000    1.2070519   -6.9946481    47.915682  0.029798309  0.032614891            4 
  135000    1.2431454   -6.9561491    48.535482  0.029960174  0.032606537            3 
  136000     1.222099    -6.968707     48.89013  0.029957187  0.032596979            2 
  137000     1.229578   -7.0015587    48.907603   0.02974915  0.032586476            2 
  138000    1.2392043   -6.9831941    49.398714  0.029830141  0.032571241            2 
  139000    1.2422005   -6.9759664    49.831398  0.029874939  0.032555621            4 
  140000    1.2445365   -6.9552762    50.392943  0.029995799  0.032542718            3 
  141000    1.2300041   -6.9587308     50.66373  0.029943103  0.032529633            5 
  142000    1.2374713    -6.994364    50.711635  0.029760349  0.032516543            2 
  143000    1.2330671   -6.9331682    51.126573   0.02979404  0.032499119            3 
  144000    1.2390458   -6.9477883    51.760341  0.029953901  0.032487104            1 
  145000    1.2460999   -6.9617363     52.20943  0.030005419  0.032476998            2 
  146000    1.1998809   -7.0301185    52.293223   0.02984773   0.03246459            3 
  147000    1.2224748   -7.0066019     52.76555  0.029912443  0.032449853            1 
  148000     1.238265   -7.0051763    53.037462  0.029863436  0.032431861            2 
  149000    1.2218364   -7.0204727    53.104102  0.029700281  0.032416444            1 
  150000    1.2173117   -6.9850347    53.915737  0.029953187  0.032399835            1 
  151000    1.2278421   -6.9857348    54.183204   0.02990243  0.032387078            4 
  152000     1.242226   -7.0190755    54.610796  0.029940129  0.032373014            6 
  153000    1.2352539   -6.9576962     55.18905  0.030059395  0.032360653            3 
  154000    1.1985897   -6.9460694    55.289523  0.029918573  0.032347968            3 
  155000    1.2212429   -6.9746618    55.587105   0.02988554  0.032330944            2 
  156000    1.2285034    -7.037679    55.882691  0.029851865  0.032313467            4 
  157000    1.2285082   -7.0006276     56.29139  0.029878657  0.032295808            3 
  158000    1.1957326    -6.964829    56.801789   0.02995875  0.032280597            3 
  159000    1.2150316   -6.9786513    57.040163  0.029895264  0.032263403            8 
  160000    1.2394907   -7.0421571    57.446028  0.029919806  0.032245869            2 
  161000    1.2373836    -6.956533    57.680698  0.029855434  0.032230326            1 
  162000    1.2271377   -6.9978625    58.403309  0.030042854  0.032217484            3 
  163000       1.1872   -6.9848383      58.6787  0.029999335   0.03220627            2 
  164000     1.222816   -7.0426398    59.230368  0.030096731  0.032195898            3 
  165000    1.2311559   -6.9892887    59.618596  0.030110402  0.032187798            1 
  166000    1.2438844   -7.0335899    59.935343  0.030088024  0.032183701            1 
  167000    1.2258216   -6.9925874    60.425168  0.030152279  0.032175223            1 
  168000    1.2213008    -7.056338    60.719878  0.030118987   0.03216713            4 
  169000    1.2221283   -7.0342693    60.766486   0.02996375   0.03215837            3 
  170000    1.2379151   -6.9867088    61.111199   0.02995647  0.032145283            2 
  171000    1.2319779   -7.0021606    61.598089  0.030018562  0.032132231            1 
  172000     1.213325   -6.9769424    61.888839  0.029984902  0.032119073            2 
  173000    1.2062009   -6.9599097    62.315202  0.030016956  0.032104833            2 
  174000    1.2286444   -7.0011311    62.544649  0.029954334  0.032090482            4 
  175000    1.2238732   -7.0378918    62.668766  0.029842269   0.03207577            1 
  176000    1.2102423   -7.0350352    63.252378  0.029949043  0.032062163            1 
  177000     1.228698   -6.9709864     63.74138  0.030010066  0.032049641            2 
  178000     1.227631   -7.0398009    64.080881  0.030000412  0.032036693            1 
  179000    1.2267852   -6.9680512    64.497438   0.03002674  0.032022854            3 
  180000    1.2322597   -6.9830798    64.841595  0.030019257  0.032007978            3 
  181000    1.2351669   -7.0089482     64.99505  0.029924056   0.03199147            3 
  182000    1.2357874   -6.9903301    65.679625  0.030073088  0.031977653            4 
  183000    1.2026015   -7.0142759    66.265146  0.030175385  0.031967344            2 
  184000    1.2169998    -6.988999    66.506582  0.030120734  0.031957451            4 
  185000    1.2181866   -6.9852567    66.860297  0.030117251  0.031948375            1 
  186000    1.2002909   -7.0483398    67.221371  0.030117102  0.031937893            3 
  187000    1.2253381   -6.9820643     67.86571  0.030243186  0.031931827            4 
  188000     1.255995   -7.0356368     67.89029  0.030093214  0.031923199            1 
  189000    1.2196427   -7.0444881    68.149653  0.030048348   0.03191315            1 
  190000    1.1999591   -7.0074014    68.791487  0.030171705  0.031905361            2 
  191000    1.1988995    -7.037951     69.28583  0.030229419  0.031900602            2 
  192000    1.2133496   -7.0247822    69.528139  0.030177143  0.031894498            2 
  193000    1.2388347   -7.0518049    70.065817  0.030252943   0.03188898            2 
  194000    1.2467326   -7.0075831    70.678841  0.030360327  0.031884107            6 
  195000    1.2102524   -6.9937727    70.778291  0.030247133  0.031881569            2 
  196000    1.2125086   -7.0212642    71.385839  0.030351122  0.031878465            4 
  197000     1.211849      -7.0499    71.648291  0.030308075  0.031875982            3 
  198000    1.2091822   -7.0381013    72.289483  0.030424866  0.031875811       -1e+20 
  199000    1.2200722   -7.0025095    73.030149  0.030582139  0.031875216            2 
  200000    1.2007644   -7.0459478    73.228081  0.030511701  0.031877127            3 
  201000    1.2531156   -6.9940017    73.685964  0.030549736  0.031878918            5 
  202000    1.2276215   -6.9896133    73.904809  0.030488783  0.031882169            2 
  203000    1.2218668   -6.9985074    74.254989  0.030482344  0.031883379            2 
  204000    1.2128487   -6.9833016    74.386921  0.030386814  0.031883085            2 
  205000    1.1982904   -6.9699746    74.629179  0.030337064  0.031880266            3 
  206000     1.200303   -6.9722442     75.09672  0.030378932  0.031877952            3 
  207000    1.2291025   -7.0142245    75.341067  0.030330542  0.031874211            3 
  208000    1.2261269   -7.0408166    75.702466  0.030329513  0.031869804            1 
  209000    1.2117196   -7.0520051     75.86455  0.030249023  0.031864425            7 
  210000    1.2413835   -7.0229398    76.634539  0.030410531  0.031860727            2 
  211000    1.2395095   -7.0584092    77.069218   0.03043808  0.031859633            2 
  212000     1.205162   -7.0304503    77.303845  0.030386732  0.031857876            2 
  213000     1.223632   -6.9712885     77.92664  0.030487731  0.031853677            1 
  214000    1.2025254   -7.0002455    78.156378  0.030434727  0.031853466            1 
  215000    1.2314752   -6.9580221    78.646773  0.030483245  0.031852529            1 
  216000    1.1983879   -6.9540315    79.181332  0.030548353  0.031851042            3 
  217000    1.2549516   -6.9814161    79.386448  0.030486347  0.031849822            4 
  218000    1.2207616   -7.0533799    79.420513  0.030359523  0.031846551            3 
  219000    1.2169278   -7.0071499    79.956613  0.030424891  0.031843896            2 
  220000       1.2084   -7.0094739    79.905856   0.03026737  0.031838531            2 
  221000    1.2104443    -7.003315    80.466367  0.030341767  0.031834399            2 
  222000    1.2476413   -7.0027025    81.258012  0.030502257  0.031830781            4 
  223000    1.2081039   -7.0114725    81.331166  0.030392812  0.031828015            2 
  224000    1.2201563   -7.0186863    81.882899  0.030462388    0.0318259            1 
  225000    1.2187355   -6.9989371      82.2051  0.030446333  0.031821883            1 
  226000    1.2381983   -6.9955392    82.578327  0.030449236  0.031818141            1 
  227000     1.225084   -6.9782012    83.259982  0.030565338  0.031816731            2 
  228000    1.1851824   -7.0099774     83.51833  0.030525705  0.031814673            3 
  229000    1.2005308   -7.0002618    83.775719  0.030486069  0.031812446            3 
  230000     1.235971   -7.0166989    83.758235  0.030347187   0.03180792            3 
  231000    1.2355716   -7.0050999     83.97375   0.03029356  0.031800225            3 
  232000    1.2105984   -7.0570017    84.090027  0.030204751  0.031791796            2 
  233000    1.1772603    -6.996503      84.9691  0.030389521  0.031783798            1 
  234000    1.2192827   -7.0298787    84.944695   0.03025096  0.031775396            2 
  235000    1.2159705   -6.9627798    85.439198  0.030297588  0.031767915            4 
  236000     1.208697   -7.0172698    85.889162  0.030328094  0.031760963            1 
  237000     1.218844   -7.0330964    86.170509  0.030299054  0.031754131            2 
  238000    1.2287789   -6.9831032    87.189336  0.030528479  0.031749203            3 
  239000    1.2363354   -7.0397299    86.930139  0.030310369  0.031744743            2 
  240000    1.1954857   -7.0569341    87.523391  0.030390066  0.031738701            3 
  241000    1.2322054   -7.0529992    87.753511  0.030343538  0.031732429            2 
  242000    1.2178053   -7.0094393     88.15977  0.030358047  0.031725565            4 
  243000    1.2087314   -7.0284714    88.774276  0.030443853  0.031718779            3 
  244000    1.2100469   -7.0406193    88.603729  0.030260836  0.031711487            3 
  245000    1.1979401   -7.0259357    89.043929   0.03028705  0.031704467            3 
  246000    1.2042911    -7.013825    89.551517   0.03033588  0.031697638            2 
  247000    1.1955364   -7.0715182    89.499117  0.030195384  0.031690191            1 
  248000    1.2200856   -7.0145221    90.089196  0.030271907   0.03168127            2 
  249000    1.2042588   -7.0216912     90.42805  0.030263738  0.031673613            2 
  250000    1.1903366   -7.0295146    90.404391  0.030134797  0.031664718            3 
  251000    1.2395025   -7.0675797    90.922872  0.030186876  0.031654895            5 
  252000    1.2354613   -7.0065314    91.402605  0.030225729  0.031645266            3 
  253000    1.1749679   -7.0666658    91.374855  0.030097119  0.031635343            3 
  254000     1.212458   -7.0001173    92.103996  0.030217846  0.031624609            2 
  255000     1.210086   -7.0225836    92.388696  0.030192384  0.031614117            2 
  256000    1.2178383   -6.9789329     92.85978  0.030227793  0.031603728            3 
  257000    1.2248335   -7.0127889    92.720072  0.030064874  0.031591984            2 
  258000     1.171661   -7.0154366    93.136369  0.030082806  0.031580453            4 
  259000    1.1830994   -7.0305329    93.797632  0.030179418  0.031567988            1 
  260000    1.2110328   -7.0246061    93.740576  0.030045056  0.031556275            5 
  261000    1.2179311   -7.0119709    94.611569  0.030208036  0.031546349            2 
  262000    1.2355461   -7.0027686    95.049755   0.03023211  0.031535485            1 
  263000    1.2123246   -7.0458604    95.263549  0.030184901  0.031524152            2 
  264000    1.2229799   -7.0567031    95.792913  0.030237662  0.031513788            1 
  265000    1.1888002    -7.066877     95.92543   0.03016523  0.031504812            1 
  266000    1.2168649   -7.0278485    96.438069  0.030212428  0.031496091            3 
  267000    1.2097148   -7.0330488    96.435897  0.030098594  0.031486501            1 
  268000    1.2033618   -7.0518372    96.514737  0.030010801  0.031476395            2 
  269000    1.2022964   -7.0811707    96.573988  0.029917592  0.031465405            5 
  270000    1.2124979   -7.0556054    97.272649  0.030022422  0.031454091            2 
  271000    1.2176069   -7.0653923    97.379485  0.029944491  0.031441588            4 
  272000    1.2291763   -7.0519811    98.178472  0.030079189  0.031430286            5 
  273000    1.1955885   -7.0583607     98.19142  0.029972961  0.031419209            4 
  274000     1.215296   -7.0637779    98.930674  0.030088404  0.031407384            3 
  275000    1.1895383   -7.0246854    99.469529  0.030142282  0.031396794            2 
  276000    1.1976144   -7.0938291    99.015212  0.029895897  0.031385593            2 
  277000    1.1882866   -7.0320476    99.881429  0.030048565  0.031373559            1 
  278000    1.2240122   -7.0041971    99.881218  0.029940413  0.031361176            3 
  279000    1.1860792   -7.0244583    100.79055  0.030104704  0.031348922            2 
  280000    1.2108557   -7.0155229    100.99349  0.030057586  0.031336699            2 
  281000    1.2006243   -6.9968348    101.57419  0.030122833  0.031325287            4 
  282000    1.1835517   -7.0627516    101.33654  0.029945785  0.031313304            4 
  283000    1.2071493   -7.0468571    101.90437  0.030007176  0.031300997            2 
  284000    1.1929778   -7.0552887    102.31801  0.030022889  0.031291441            4 
  285000    1.2213138   -7.0378135    102.79559  0.030057189   0.03128156            2 
  286000    1.2163387   -7.0078102    102.88086  0.029976939  0.031270536            7 
  287000    1.2036111    -6.993838    103.34735  0.030007942  0.031260669            2 
  288000    1.2026342   -7.0623514    103.43152  0.029928102  0.031250328            3 
  289000    1.2343116   -7.0556289    103.84776  0.029944567  0.031239365            3 
  290000    1.1581323   -7.0534831    104.41146  0.030003293  0.031229186            6 
  291000    1.1830584   -7.0468694    104.76405  0.030001159  0.031219226            2 
  292000    1.1941178   -7.0481022    105.11873  0.029999638  0.031210055            2 
  293000    1.2065384   -7.0360176    105.76994  0.030082462  0.031201352            2 
  294000    1.2019513   -7.0551977    105.87455  0.030009794  0.031192237            1 
  295000    1.1908114   -7.0606519    106.37422  0.030049215  0.031183425            1 
  296000     1.214724    -7.097167    106.43291  0.029964219  0.031174606            1 
  297000    1.1869245   -7.0525722    107.10298  0.030051341   0.03116594            2 
  298000    1.1785841   -7.0301301    107.59877  0.030089143  0.031157298            3 
  299000    1.1879585   -7.0907322    107.93735  0.030082873   0.03114881            2 
  300000    1.1817043   -7.0479218    108.40713  0.030113092  0.031141775            4 
  301000    1.2152832   -7.0426037    108.70457  0.030095395  0.031134302            2 
  302000    1.2021984   -7.0450393    108.67214  0.029986792  0.031126674            6 
  303000    1.1995198   -7.1115617    108.94662  0.029963317  0.031118521            2 
  304000    1.2027886   -7.0406444    109.67579  0.030064634  0.031110442            1 
  305000    1.1701613   -7.0146272    109.91941  0.030032626  0.031101603            2 
  306000    1.2121791   -7.0314639    109.95075  0.029943014  0.031093091            1 
  307000    1.1813618   -7.0309156    110.34189  0.029951653  0.031084425            5 
  308000    1.2000398   -7.1096804    110.30411  0.029844184  0.031074146            4 
  309000    1.1936182   -7.0689463    111.03726  0.029945325  0.031064558            2 
  310000    1.1790524   -7.0262684    111.43777  0.029956389  0.031055816            3 
  311000     1.197406   -7.0600895    111.10381  0.029770582  0.031046212            2 
  312000    1.2016836   -7.0314446    112.22117  0.029973603  0.031037202            1 
  313000    1.2332109   -7.0288399    112.59413  0.029977139  0.031029338            5 
  314000    1.1773479   -7.0162058    113.06364  0.030006274  0.031020759            2 
  315000    1.2065288    -7.067854    113.29529  0.029972299  0.031011423            1 
  316000    1.1689025   -7.0799383    113.69371  0.029982517  0.031002952            2 
  317000    1.2009665   -7.0492153     114.1189  0.029999711  0.030995484            4 
  318000    1.2093724   -7.0570705    114.45539  0.029993552  0.030988456            3 
  319000    1.1993089   -7.0338208    114.85704  0.030004452  0.030981372            4 
  320000     1.168353   -7.0443652    115.46085  0.030067929  0.030974144            1 
  321000    1.2020526   -7.0335429    115.58734  0.030007098  0.030966892            3 
  322000     1.220782   -7.1017366    115.17571  0.029807378  0.030959478            3 
  323000    1.1956934   -7.0827511    115.61783  0.029829162   0.03095055            2 
  324000    1.1967841   -7.0626616    116.30718  0.029914397  0.030941298            2 
  325000    1.2094992    -7.057283    116.24715  0.029806962  0.030931915            1 
  326000    1.2008527   -7.0424252    117.17238   0.02995204  0.030922407            3 
  327000    1.1737535   -7.0769624     116.6099    0.0297171  0.030912856            1 
  328000    1.2019331   -7.0755005    117.03739  0.029735109  0.030902844            1 
  329000    1.1850112   -7.0290881    117.54101  0.029772291  0.030893223            2 
  330000      1.20884   -7.0469379     117.7964  0.029746566  0.030882772            2 
  331000    1.2067178   -7.0361042    118.33485  0.029792259  0.030872147            3 
  332000     1.188181     -7.03584    118.45684  0.029733142  0.030861812            1 
  333000    1.1861117    -7.056338    118.72674  0.029711396  0.030850825            1 
  334000    1.2003232    -7.067352    119.26417  0.029756529  0.030839912            6 
  335000     1.218171    -7.093824    119.45674  0.029715607  0.030830758            2 
  336000     1.199972    -7.110687     119.9424  0.029747618  0.030822161            3 
  337000    1.2220227   -7.0306997    120.71605  0.029850655  0.030813391            1 
  338000    1.2134272    -7.088401    120.45582  0.029698181  0.030804035            6 
  339000    1.2174647   -7.0755427    120.89005  0.029717319  0.030794021            2 
  340000    1.2102794   -7.0535455     121.0531  0.029669876  0.030783941            1 
  341000    1.2157674   -7.1009764    121.34291  0.029653692  0.030773577            2 
  342000    1.2223809   -7.0719449    121.98909  0.029724436  0.030762716            2 
  343000    1.1840985   -7.0619388    121.84633  0.029603092  0.030751305            4 
  344000    1.1824672   -7.0924572    122.18513  0.029599112  0.030740392            2 
  345000    1.1722043   -7.0397077    122.67687  0.029632094  0.030728686            4 
  346000    1.2153723   -7.0839318    122.66308  0.029543132  0.030715671            2 
  347000    1.1917681   -7.1178397    122.86565  0.029506641  0.030702391            3 
  348000    1.2126128   -7.0573202    123.69166   0.02961965   0.03068927            1 
  349000    1.2275706   -7.0404408     123.8669  0.029576623  0.030676843            3 
  350000     1.193609   -7.0366224    124.56223  0.029657674   0.03066516            2 
  351000    1.1922162    -7.066931    124.37968  0.029529839   0.03065462            2 
  352000    1.2076978   -7.0671583    125.06437  0.029608042   0.03064314            1 
  353000     1.188817   -7.0397834    125.56243  0.029641745  0.030632479            4 
  354000    1.1834204   -7.1246844    125.13256  0.029456817   0.03062137            3 
  355000    1.1930876   -7.0711199    125.89881  0.029553712   0.03060988            1 
  356000    1.2111492   -7.0097776    126.83376  0.029689552  0.030599807            4 
  357000    1.1688201   -7.0435626     126.8154  0.029602102  0.030589963            1 
  358000    1.1444247   -7.0687041    127.20017  0.029608978  0.030580641            1 
  359000    1.1906445   -7.0802078     127.6257  0.029625279  0.030571401            2 
  360000    1.1752578   -7.0916493    128.05171    0.0296416  0.030562391            5 
  361000    1.2175429   -7.0831268     128.6577  0.029699377  0.030554761            1 
  362000    1.1912946   -7.0912695    128.88771  0.029670284   0.03054674            7 
  363000    1.1805274   -7.0702059    129.66733  0.029767523  0.030539636            2 
  364000    1.2148372   -7.1059685    130.03661  0.029770285  0.030532969            3 
  365000    1.1873553   -7.1013582    129.88138  0.029653284  0.030526042            3 
  366000    1.1939004   -7.0766601    131.01729  0.029830895  0.030520141            2 
  367000    1.1918934   -7.0647851    130.90681  0.029724524  0.030514127            3 
  368000    1.1975424   -7.0641013    131.22836  0.029716566  0.030508551            5 
  369000    1.1762621   -7.0909377    132.04184  0.029819747  0.030503328            1 
  370000    1.2026104   -7.0677558    132.05017  0.029741029  0.030497617            2 
  371000    1.1795024    -7.070462    132.48658  0.029758891  0.030492189            5 
  372000    1.1999022   -7.0815504    132.89521  0.029770432  0.030485895            1 
  373000    1.1892083   -7.0667827    132.70768  0.029648722  0.030478829            3 
  374000    1.1829925   -7.0919701    133.13684  0.029665072   0.03047177            4 
  375000    1.2081313   -7.0891644    133.62805  0.029695122  0.030464584            2 
  376000     1.209524   -7.1256852    133.57756  0.029604956   0.03045702            4 
  377000    1.1993113   -7.0916956    134.09339  0.029640449  0.030449387            3 
  378000    1.1783959   -7.0917403    134.50099  0.029651893  0.030442084            2 
  379000    1.1890674   -7.1258538    134.10613  0.029486835  0.030433536            3 
  380000    1.1992371   -7.0743705       135.07  0.029620613  0.030424066            2 
  381000    1.2128141   -7.1081494    135.13679  0.029557478  0.030415061            4 
  382000    1.2043345   -7.0198647    135.76867  0.029617948  0.030406452            2 
  383000    1.2103206   -7.0253603     136.4103  0.029680222  0.030398634            3 
  384000     1.182822   -7.0692873    136.27571  0.029573722  0.030390831            3 
  385000    1.1813139   -7.0605083      136.563  0.029559091  0.030381661            5 
  386000    1.1684339   -7.1003054    136.36044  0.029438783  0.030372096            3 
  387000    1.2000487   -7.0745925    137.31221  0.029567659  0.030364187            2 
  388000    1.2094486   -7.0524272    137.66747  0.029567756  0.030356262            2 
  389000    1.1745103   -7.0501052    138.36818  0.029641855  0.030348802            2 
  390000     1.191177   -7.1584409     137.9394   0.02947423  0.030340801            4 
  391000    1.1691107   -7.0164368     138.9274  0.029609421  0.030333015            3 
  392000    1.1820129   -7.1195436    139.10949  0.029572596  0.030325436            2 
  393000    1.1633286   -7.0781568    139.57459  0.029595968  0.030317471            2 
  394000    1.1613402   -7.1002499    139.64304  0.029535329  0.030310433            5 
  395000    1.1889119   -7.0131623    140.28963  0.029596967  0.030302458            5 
  396000    1.1933879   -7.1078054    139.71241  0.029400759  0.030294396            5 
  397000    1.1602496   -7.0643469    140.66742  0.029527166  0.030286564            2 
  398000    1.1681259   -7.1036214    141.00165  0.029522958  0.030279431            2 
  399000    1.1954817   -7.1052266    141.00971  0.029450649  0.030271102            4 
  400000    1.1871304   -7.0523342    141.71166  0.029523263  0.030262905            7 
  401000    1.1921455   -7.1408025    141.48333  0.029402187   0.03025505            2 
  402000    1.1894673   -7.0693622    142.05854  0.029448287  0.030246029            2 
  403000    1.2001175   -7.0891915    142.76935  0.029522198  0.030237421            2 
  404000    1.2110966   -7.1195446    142.56726  0.029407437  0.030229214            4 
  405000    1.2108329   -7.1203874    142.99978  0.029423823  0.030221137            2 
  406000    1.1684898    -7.015094    144.10179  0.029577543  0.030213861            2 
  407000    1.1910414   -7.1342705    143.43318  0.029367973  0.030207337            4 
  408000    1.1717936   -7.0900405    144.95955  0.029607751  0.030200488            2 
  409000     1.200477   -7.0167804    145.50828  0.029647164  0.030194721            2 
  410000    1.1818527   -7.0889445    145.40376  0.029553609  0.030189373            2 
  411000    1.1880538   -7.1577382    145.26582  0.029453735  0.030183351            2 
  412000    1.1859481   -7.0730922    146.49095  0.029630046  0.030177869            2 
  413000    1.1600065   -7.1141898    146.55584  0.029571397  0.030172598            4 
  414000    1.1508479   -7.0778984    147.27432   0.02964459  0.030167054            3 
  415000    1.1749536   -7.0964648    147.03837  0.029525777  0.030161061            2 
  416000    1.1810416   -7.1127796    147.26682  0.029500566  0.030154908            2 
  417000     1.167294    -7.089426    148.33132  0.029642549  0.030149584            2 
  418000    1.1961278   -7.1162239    148.44541  0.029594379  0.030144367            2 
  419000    1.1581776   -7.0715747    148.67703  0.029569814  0.030138838            4 
  420000    1.1837719   -7.0630705    149.05918  0.029575233  0.030133212            2 
  421000    1.1845554   -7.0635417    148.78589  0.029450888  0.030126571            1 
  422000    1.1831014   -7.1045115    148.64212  0.029352709  0.030119234            4 
  423000    1.1870111    -7.095012    148.82643  0.029319627  0.030111721            3 
  424000    1.1908328   -7.0950167    149.49399  0.029381679  0.030104455            2 
  425000    1.1869335   -7.0675811    149.62953  0.029339124  0.030096611            5 
  426000    1.1852688   -7.1038813    150.07184  0.029356776  0.030088007            2 
  427000    1.1649475   -7.0551154    150.77975   0.02942618  0.030080257            2 
  428000    1.1720734   -7.0971558    150.31113  0.029266186  0.030071938            2 
  429000    1.1866791     -7.16874    150.43495  0.029222019  0.030064286            2 
  430000    1.1832554   -7.0887744    151.64714  0.029388981  0.030056077            4 
  431000    1.1852384   -7.1005712    151.60048  0.029311771  0.030047905            4 
  432000    1.1812235   -7.0637632    152.20375  0.029360292  0.030040591            2 
  433000    1.1983692   -7.1227547    152.06768  0.029266297  0.030032271            3 
  434000    1.1742716   -7.1200734    152.37144   0.02925719  0.030023445            2 
  435000    1.2124852   -7.1573454    152.40555  0.029196466   0.03001462            1 
  436000    1.1818141   -7.0809873    153.49296   0.02933734  0.030005788            1 
  437000    1.1811113   -7.1135211    153.29165  0.029231817   0.02999755            2 
  438000    1.1843487   -7.1117081    153.44865  0.029194948  0.029988864            1 
  439000     1.190998    -7.072766    154.17089  0.029265544  0.029980266            3 
  440000    1.1840556   -7.1280601     153.7434  0.029118068  0.029971518            2 
  441000    1.1967605   -7.0766188    154.99242  0.029288062  0.029962445            2 
  442000    1.1874065   -7.0856011    155.24337  0.029269112  0.029954833            2 
  443000    1.1816972   -7.1083272    155.49321   0.02925004   0.02994737            2 
  444000    1.1963622   -7.1568611    155.71309   0.02922543   0.02994002            3 
  445000    1.1938109   -7.1462889    155.80442  0.029176857  0.029931826            2 
  446000    1.1617321   -7.0978059     156.3751  0.029218068  0.029923757            2 
  447000    1.2087655    -7.115334    156.19478  0.029119086   0.02991627            3 
  448000    1.1889824   -7.1326236     156.6744  0.029143304  0.029907797            3 
  449000    1.1722317   -7.1341264    156.94179  0.029128022  0.029898805            4 
  450000    1.1644553   -7.1165548    157.18694  0.029108692  0.029890117            2 
  451000    1.1627782   -7.1248725    157.71348  0.029141442  0.029882027            2 
  452000    1.1818154   -7.0680141    158.37273  0.029198513  0.029874463            2 
  453000    1.1805218   -7.1260114    158.73273  0.029200282  0.029866119            3 
  454000     1.165856   -7.1266838     158.8384   0.02915536  0.029858125            4 
  455000     1.160429   -7.0836004    160.11517  0.029325123  0.029850176            6 
  456000    1.1916376   -7.0957847    159.66376  0.029178319  0.029843214            2 
  457000    1.2105214   -7.0595778    160.84073   0.02932909   0.02983603            3 
  458000    1.1711596   -7.1181723    160.48635  0.029200574  0.029828179            5 
  459000    1.1974972   -7.1062205    160.30318  0.029103701  0.029819956            2 
  460000     1.164382   -7.0989923    160.63729  0.029100959  0.029811597            3 
  461000    1.1470369   -7.1157312    160.42886  0.029000155  0.029802647            4 
  462000    1.2042024   -7.0763892    161.32048   0.02909821  0.029793068            3 
  463000    1.1831473    -7.103147    160.95748  0.028970029  0.029783555            2 
  464000      1.16771   -7.1193288    161.86568  0.029070704  0.029774845            5 
  465000    1.1860028   -7.1092661    162.24689  0.029076503  0.029765922            1 
  466000    1.1810388   -7.1758069    162.37377  0.029036797  0.029758094            5 
  467000    1.1532731   -7.1586967    162.70397  0.029033543  0.029750144            2 
  468000     1.171557   -7.1265274      163.759  0.029159365  0.029743042            5 
  469000    1.1726134   -7.1328077    163.81239  0.029106679  0.029736025            1 
  470000    1.1870322   -7.1172111    163.85533  0.029052364  0.029728518            2 
  471000    1.1566479   -7.1138508    164.67686  0.029136033  0.029721313            1 
  472000    1.1840316   -7.1177226    164.96303  0.029124828  0.029714728            4 
  473000    1.1760159   -7.1108682    165.11445  0.029089931   0.02970722            3 
  474000     1.177211   -7.0823208    165.14124   0.02903327  0.029699905            2 
  475000    1.1923762   -7.1207298    164.87428  0.028925312  0.029692295            2 
  476000    1.1912874   -7.1432662    165.35121  0.028948041  0.029684215            5 
  477000    1.1830134    -7.117319    166.35343  0.029062443  0.029676788            2 
  478000    1.1900385   -7.1249099    166.69367   0.02906096  0.029668754            4 
  479000    1.1565589   -7.1393299    166.71032  0.029003187  0.029660552            2 
  480000    1.1681269   -7.1081994    166.85599  0.028968053  0.029652394            3 
  481000     1.177919   -7.0682103    167.63419  0.029042652  0.029644338            3 
  482000    1.1558809   -7.1300509     167.6145  0.028978993  0.029636384            3 
  483000    1.1614719   -7.0933177    168.23475   0.02902601  0.029628045            2 
  484000    1.1724405   -7.1489348    167.78583  0.028888744  0.029619929            9 
  485000      1.15962   -7.1369006    168.68172  0.028983114  0.029611969            3 
  486000    1.1566482   -7.1166118     169.7989  0.029115038  0.029605279            3 
  487000    1.1727743   -7.1230322    169.68251  0.029035338  0.029598457            3 
  488000    1.1782836   -7.1388356    169.44959  0.028936064  0.029591666            4 
  489000    1.1675892   -7.1766475    170.06976  0.028982577  0.029584027            2 
  490000    1.1749328   -7.1179143    170.79242  0.029046331  0.029576853            2 
  491000    1.1758293   -7.1235978    171.19198  0.029054986  0.029569688            3 
  492000    1.1554913    -7.088651    171.06025   0.02897362  0.029562452            3 
  493000    1.1687382   -7.0999321    171.81087  0.029041729  0.029555452            3 
  494000    1.1831484    -7.124789    171.16045   0.02887322  0.029548072            2 
  495000    1.1497283   -7.0713421    172.81625  0.029093645  0.029540494            2 
  496000    1.1906892   -7.1699922    171.55494  0.028823074  0.029532704            2 
  497000    1.1830663   -7.1844936    172.09957    0.0288564   0.02952491            2 
  498000    1.1720374   -7.1118111     173.1611  0.028976088   0.02951674            3 
  499000    1.1852159   -7.1161612    173.47887  0.028971087  0.029508867            3 
  500000    1.1713817   -7.1517979    173.61272  0.028935453  0.029501342            2 
  501000    1.1917836   -7.1369415     173.4898  0.028857252  0.029494114            2 
  502000    1.1556811   -7.1363631    174.61722  0.028986922  0.029486607            1 
  503000    1.1642792   -7.1595703    174.14001  0.028850233  0.029478995            2 
  504000    1.1568071   -7.1651301    173.69172  0.028718868  0.029470733            1 
  505000    1.1804937    -7.173839    173.99412  0.028711901  0.029461943            3 
  506000    1.1710153   -7.1406814    175.63321    0.0289251  0.029453216            2 
  507000    1.1956625   -7.1904514    175.12145  0.028783933  0.029444954            1 
  508000    1.1458082   -7.1857208    175.24255  0.028747137  0.029436201            2 
  509000    1.1605518   -7.1653905    175.21615  0.028686337  0.029427341            3 
  510000     1.151706   -7.1351715    176.45908  0.028833183   0.02941898            1 
  511000    1.1814428   -7.1221619    176.05266  0.028710479  0.029410648            2 
  512000    1.1779523   -7.1536283    176.56154   0.02873723  0.029402422            2 
  513000    1.1661464   -7.1437352    176.67059  0.028698927  0.029393735            1 
  514000    1.1616797   -7.1480311    176.75132  0.028656181  0.029384393            3 
  515000    1.1630413   -7.1786707    176.70077  0.028592357  0.029375036            3 
  516000    1.1764046   -7.1882458    177.17222  0.028613084  0.029365266            2 
  517000    1.1701312   -7.1589365    178.01368  0.028693372   0.02935565            6 
  518000    1.1686138   -7.1547429    177.77407  0.028599432  0.029346823            2 
  519000    1.1916142   -7.1848949    178.54621  0.028668306  0.029337952            2 
  520000    1.1786431   -7.2227589    177.76612  0.028488161  0.029328729            3 
  521000    1.1689381   -7.1510243      179.631  0.028731766  0.029319458            3 
  522000    1.1815196   -7.1473915    179.62424  0.028675645  0.029311148            4 
  523000    1.1791499   -7.1572264    179.28505  0.028566769  0.029302289            2 
  524000    1.1694666   -7.1049953    180.68502  0.028734895  0.029294103            2 
  525000    1.1699087   -7.1041863    181.31429  0.028780046  0.029285623            3 
  526000    1.1751019   -7.1365308    181.63102   0.02877551  0.029277299            3 
  527000    1.1687709    -7.172928    180.92536  0.028609323  0.029268554            2 
  528000    1.1501787   -7.1457171    181.62028  0.028664816  0.029260002            3 
  529000    1.1653812   -7.1341796    181.65739  0.028616476  0.029251369            2 
  530000    1.1596126   -7.1348461     182.6973   0.02872599   0.02924245            2 
  531000    1.1794745   -7.1395707    181.79833  0.028530812  0.029233847            2 
  532000    1.1800109   -7.1470278    182.20426  0.028540768  0.029224912            1 
  533000    1.1699934   -7.1165029    183.32989   0.02866321  0.029216217            4 
  534000    1.1501806   -7.1592074     183.1553  0.028582288  0.029207566            2 
  535000     1.166484   -7.1376759    183.11699  0.028522896  0.029199194            3 
  536000    1.1800652   -7.1447392    184.03854  0.028612958  0.029190826            4 
  537000    1.1540916    -7.120627    184.26588  0.028594953  0.029182281            2 
  538000    1.1796869   -7.1547027    184.48527  0.028575786  0.029173749            4 
  539000    1.1624311    -7.189391    185.02153  0.028605678  0.029165202            5 
  540000    1.1818601   -7.1455514    184.80555  0.028519376  0.029156399            3 
  541000    1.1573194    -7.129816    185.66876  0.028599624  0.029147831            6 
  542000    1.1833703   -7.1572435    185.73748  0.028557424  0.029139399            4 
  543000    1.1454946   -7.1255033    186.61117  0.028638915  0.029131009            3 
  544000    1.1910236   -7.1610341    185.82778  0.028466266  0.029122381            2 
  545000    1.1537921   -7.1406305    185.88149  0.028422246  0.029113992            3 
  546000    1.1415142   -7.1468672    187.22012    0.0285745  0.029104955            4 
  547000    1.1468846   -7.1670152    186.26266  0.028376396   0.02909579            2 
  548000    1.1739338   -7.1715248    186.65384    0.0283841   0.02908599            2 
  549000     1.166116   -7.1723063    186.34746  0.028285892  0.029076413            4 
  550000    1.1844884   -7.1591581     186.8117  0.028304803   0.02906561            3 
  551000    1.1770091   -7.1427449     186.5456  0.028213189   0.02905487            2 
  552000    1.1710652    -7.137411    187.12363   0.02824934  0.029044569            1 
  553000     1.165796   -7.1324762    187.84499  0.028306961  0.029033991            1 
  554000    1.1588799   -7.0817634    188.34967  0.028331779   0.02902396            2 
  555000    1.1750961   -7.1604474    188.23006  0.028262772  0.029014092            2 
  556000    1.1538669   -7.1497025    189.64383  0.028423836  0.029004555            3 
  557000    1.1734476   -7.1688555    189.23607    0.0283118  0.028995545            3 
  558000    1.1548659   -7.1648798     189.2711  0.028266293  0.028985941            2 
  559000    1.1235324   -7.1328326    190.24122  0.028360348  0.028976272            2 
  560000     1.167515   -7.1956483    189.68318  0.028226664  0.028966576            4 
  561000    1.1270244   -7.1577916    190.53242  0.028302498  0.028956735            4 
  562000    1.1457594   -7.1647831    191.42773  0.028384894  0.028947165            2 
  563000    1.1716174   -7.1244802    191.72366   0.02837828  0.028937973            2 
  564000    1.1660264   -7.1535594     192.0384  0.028374467  0.028928298            4 
  565000    1.1515464   -7.1623943    191.54281  0.028251151  0.028918559            1 
  566000    1.1596138   -7.1156332    192.17341  0.028294083   0.02890905            2 
  567000    1.1812494    -7.156333    192.59258  0.028305788   0.02889993            3 
  568000    1.1660002   -7.1632307     192.7003  0.028271758  0.028890278            2 
  569000    1.1646902   -7.1700309    192.33214  0.028168151  0.028880808            3 
  570000    1.1327294   -7.1689228    193.61046  0.028305623  0.028871352            2 
  571000    1.1403575   -7.1546215    193.32411  0.028214261  0.028862013            3 
  572000     1.134904   -7.1191504     194.7081  0.028366565  0.028852882            3 
  573000    1.1487572   -7.1856505    194.11621  0.028230978  0.028844193            2 
  574000    1.1717888   -7.1695971    195.19825  0.028338887  0.028835588            3 
  575000    1.1581067   -7.2194243    194.14236  0.028136574  0.028826296            3 
  576000    1.1715254   -7.1534079     195.6051  0.028299349  0.028816957            4 
  577000    1.1870101   -7.2112692    195.33342  0.028211066  0.028808056            2 
  578000    1.1427963    -7.217865    195.59095  0.028199388  0.028799213            1 
  579000    1.1807396   -7.2015307    196.02534  0.028213204  0.028790516            3 
  580000    1.1590052   -7.1454995    196.56031  0.028241424  0.028782078            2 
  581000    1.1482863   -7.1575019    197.20921  0.028285888  0.028773541            1 
  582000    1.1746884   -7.1231779     197.7032  0.028308018  0.028765009            3 
  583000    1.1674648   -7.1979442    196.95936  0.028153139  0.028756822            1 
  584000    1.1445358   -7.2261737    197.22597  0.028142975  0.028748052            3 
  585000    1.1690155   -7.1591217    197.72773  0.028166343  0.028739361            3 
  586000    1.1836291   -7.1607275    198.89132  0.028283748   0.02873125            2 
  587000    1.1620429   -7.1510427     198.9439   0.02824303  0.028723302            2 
  588000    1.2052917   -7.2078123    199.58836  0.028286332  0.028715491            4 
  589000     1.163633   -7.1214642    200.15065  0.028317863  0.028707319            4 
  590000     1.177173   -7.1629847    199.74885  0.028213114  0.028699499            2 
  591000      1.18772   -7.1791342    199.68923  0.028156969  0.028692441            4 
  592000     1.141764   -7.2194217    200.64188  0.028243508  0.028685284            6 
  593000    1.1656968   -7.1910767    201.85895  0.028366912  0.028678556            5 
  594000    1.1563934   -7.2090828    201.57208  0.028278911  0.028671792            2 
  595000    1.1687487   -7.2018742    202.29273  0.028332315   0.02866485            1 
  596000    1.1646494   -7.1663484    201.81981  0.028218653   0.02865768            3 
  597000    1.1787334   -7.1514559    202.87146  0.028318183  0.028650562            5 
  598000    1.1291606   -7.1799601    203.37617   0.02834116  0.028644177            2 
  599000    1.1639884   -7.1365555     203.3787  0.028294198  0.028637119            1 
  600000    1.1706725   -7.1678534     203.1145  0.028210348  0.028629936            1 
  601000    1.1825447   -7.1571932    203.27706  0.028185949   0.02862299            3 
  602000    1.1356651   -7.1559234    204.20699  0.028267856  0.028616155            2 
  603000    1.1748849    -7.168974    204.00265  0.028192738  0.028609267            3 
  604000    1.1698433   -7.1758452    203.91242  0.028133612  0.028602067            5 
  605000    1.1242277   -7.1621907    204.83973  0.028214839  0.028594644            4 
  606000    1.1788936   -7.1446852    205.05538  0.028197935    0.0285871            1 
  607000    1.1485951   -7.1848049    204.31435  0.028049745  0.028579516            3 
  608000     1.142595   -7.2217391     204.7876  0.028068476  0.028571719            4 
  609000    1.1427207   -7.2008522    204.85303   0.02803134  0.028563861            4 
  610000    1.1496306   -7.2148651    205.27565  0.028043121  0.028556023            1 
  611000    1.1514748   -7.2122044    205.87894  0.028079506  0.028547818            3 
  612000    1.1825829   -7.1914517     206.4428  0.028110403  0.028540317            2 
  613000    1.1906202   -7.1294379     207.3763   0.02819145  0.028532547            2 
  614000    1.1497597   -7.1442126     207.1858   0.02811968  0.028524986            4 
  615000    1.1390173   -7.1540807    206.94055  0.028040725  0.028516982            2 
  616000    1.1846731   -7.2176842     206.4566  0.027929735  0.028508976            3 
  617000    1.1527387   -7.1562741    208.38498  0.028144919  0.028501305            7 
  618000    1.1572899   -7.2171374    207.94185  0.028039624  0.028493713            2 
  619000    1.1425941   -7.1953443    208.25312   0.02803623  0.028485971            3 
  620000    1.1639572   -7.1767278    208.82451   0.02806781  0.028478124            4 
  621000    1.1854754    -7.194242     209.1488  0.028066131  0.028470726            3 
  622000    1.1533019   -7.1566313    209.19186  0.028026777  0.028463262            3 
  623000    1.1672693   -7.1295191    211.07073  0.028233109  0.028456398            7 
  624000    1.1501902   -7.1847217    210.47666  0.028108529  0.028449575            2 
  625000    1.1510045   -7.1984095    210.26992  0.028035989  0.028442004            3 
  626000    1.1390073    -7.145108    211.38401  0.028139511  0.028434821            3 
  627000    1.1405619   -7.2222027    209.80936  0.027885349  0.028427221            3 
  628000    1.1660918    -7.265733    210.17194  0.027889058  0.028419232            3 
  629000    1.1506857   -7.2221987     210.9499  0.027947788  0.028411655            3 
  630000    1.1121107   -7.1903477     211.5869  0.027987686  0.028403722            4 
  631000    1.1579949   -7.1572107    212.00739  0.027998863  0.028396037            2 
  632000    1.1452714   -7.1299895    212.82823  0.028062794  0.028388865            2 
  633000     1.142706   -7.1780518    212.73889    0.0280067   0.02838177            2 
  634000    1.1648433   -7.2093821    213.32517  0.028039586  0.028373982            3 
  635000    1.1662987   -7.1606453    213.08503  0.027963915  0.028366248            4 
  636000    1.1421857   -7.2208172    213.25371  0.027942048  0.028358588            3 
  637000    1.1533282   -7.2150934    212.91853  0.027854334  0.028350444            3 
  638000    1.1314677   -7.1723184    213.28125  0.027858053  0.028342704            4 
  639000    1.1525698   -7.1862249    213.76065  0.027876975  0.028334785            3 
  640000    1.1428157   -7.2024727     213.7939  0.027837748  0.028326969            5 
  641000    1.1442133   -7.2001952    214.47571  0.027882957   0.02831873            1 
  642000    1.1382615   -7.1503971     214.9687  0.027903517  0.028311143            3 
  643000    1.1529945   -7.2208449    214.67371  0.027821891  0.028302704            2 
  644000    1.1701329   -7.2110452    214.93722  0.027812788   0.02829388            2 
  645000     1.134078   -7.1798262    214.94378  0.027770514  0.028285333            1 
  646000    1.1748128   -7.2219502    214.91672  0.027724035  0.028276505            3 
  647000    1.1436225   -7.2191566    214.91832   0.02768139  0.028267685            4 
  648000    1.1316678   -7.2099504    216.06588   0.02778625  0.028259023            2 
  649000    1.1694336   -7.1607453    216.58282  0.027809812    0.0282509            4 
  650000    1.1580176   -7.1949856    216.16808  0.027713857  0.028242525            4 
  651000    1.1480786   -7.1767232    216.97282  0.027774299  0.028233944            2 
  652000    1.1559545   -7.1734118    216.67667  0.027693848  0.028225395            2 
  653000    1.1309359   -7.2452497    216.39484  0.027615472  0.028216222            2 
  654000    1.1490848   -7.1804367    217.36364  0.027696693  0.028207141            3 
  655000    1.1517969   -7.1928777    217.68785  0.027695655  0.028198594            2 
  656000    1.1368053   -7.1825126    218.14488  0.027711494  0.028189599            2 
  657000    1.1458352     -7.18401    218.32028  0.027691563  0.028180615            2 
  658000    1.1820838   -7.2246116    217.85421  0.027590452  0.028171991            8 
  659000    1.1366697   -7.2063749    218.13932  0.027584638  0.028163092            3 
  660000    1.1265179   -7.2223045    218.09509  0.027537258  0.028153593            3 
  661000    1.1603007    -7.255807    219.15114  0.027628737  0.028144833            4 
  662000    1.1348228   -7.1885804    220.06318   0.02770181  0.028136104            3 
  663000    1.1604958   -7.1642731    220.14809  0.027670701  0.028127485            2 
  664000    1.1340853   -7.2016446    219.96275  0.027605767  0.028118849            4 
  665000    1.1192803   -7.1930628    219.78611  0.027542119  0.028110287            1 
  666000    1.1380402   -7.1870566    220.39803  0.027577331  0.028101645            5 
  667000    1.1558408   -7.2412508    220.08056  0.027496322  0.028093036            2 
  668000    1.1394288   -7.2075592    221.46364  0.027627699  0.028084429            5 
  669000    1.1249945   -7.2371904     220.9528  0.027522771  0.028075832            3 
  670000    1.1342134   -7.1763777    221.71708  0.027576752  0.028067097            1 
  671000    1.1360237   -7.1917021    221.67924  0.027530953  0.028058567            2 
  672000     1.122817   -7.1845206    222.46643  0.027587603  0.028049836            1 
  673000    1.1342191   -7.2224359    222.70545  0.027576207  0.028041427            2 
  674000    1.1549896   -7.2169174    222.93951  0.027564232  0.028033105            2 
  675000    1.1645419   -7.2307518    223.30977  0.027569107  0.028024877            1 
  676000    1.1492364   -7.2497508     223.7083  0.027577454  0.028016409            2 
  677000    1.1797891   -7.1778459    224.22678  0.027600539  0.028007832            2 
  678000    1.1390015   -7.2252313     224.5894    0.0276044  0.027999226            5 
  679000     1.184724   -7.2303312    224.21355  0.027517617  0.027991008            4 
  680000    1.1421116   -7.2179382    224.60667  0.027525327  0.027982497            5 
  681000    1.1660823   -7.1839474     225.0711   0.02754174  0.027973887            1 
  682000    1.1143187   -7.2479501    224.70975  0.027457203  0.027965664            2 
  683000    1.1482177   -7.2179487    225.05379  0.027458979   0.02795698            5 
  684000    1.1594971   -7.2264279    225.04744  0.027418061  0.027948527            2 
  685000    1.1609975   -7.2128499     226.3011  0.027530547  0.027940151            2 
  686000    1.1496832   -7.1828788    226.88947  0.027561889  0.027931867            5 
  687000    1.1531204   -7.2018735     226.4358   0.02746674  0.027923446            3 
  688000    1.1587611   -7.2171601    226.56937  0.027442996  0.027915317            2 
  689000    1.1398065   -7.2203374    227.53738  0.027520244   0.02790745            2 
  690000    1.1305396    -7.221876    227.85803  0.027519085  0.027899487            5 
  691000    1.1234115   -7.1726111    228.30171  0.027532768  0.027891427            3 
  692000    1.1269035   -7.1799094    228.15548  0.027475371  0.027883001            3 
  693000    1.1310025   -7.2173008    228.73058   0.02750488  0.027875182            2 
  694000    1.1477227   -7.1540291    229.30809  0.027534593  0.027867077            1 
  695000    1.1433036   -7.1557648    229.22128  0.027484566  0.027859424            2 
  696000    1.1375901   -7.2179024    230.04509  0.027543713   0.02785177            3 
  697000    1.1438121   -7.2561687    229.44306  0.027432217  0.027844284            3 
  698000    1.1139857   -7.2288678    230.87161  0.027563469  0.027837236            4 
  699000    1.1338197   -7.2205956    231.76084  0.027630047  0.027830152            2 
  700000    1.1315314    -7.225899    230.40136  0.027428734   0.02782283            3 
  701000    1.1692173    -7.230365    230.60803  0.027414173  0.027815372            3 
  702000    1.1333554   -7.2384084    230.85774  0.027404765   0.02780798            3 
  703000    1.1578778   -7.2652922    231.24464  0.027411645  0.027800303            3 
  704000    1.1336789    -7.209478    232.59148  0.027532136  0.027792639            2 
  705000    1.1467297   -7.2196145    231.41215  0.027353682  0.027784996            8 
  706000    1.1441995   -7.2193647     232.5233  0.027446094  0.027777498            3 
  707000    1.1372289   -7.1836329    233.38197  0.027508482  0.027770249            3 
  708000    1.1455366   -7.2296038    233.09346  0.027435671  0.027762962            4 
  709000    1.1289953   -7.1879257    233.24413  0.027414683  0.027755898            2 
  710000    1.1494208   -7.2048137    233.75788  0.027436371  0.027748635            1 
  711000     1.134375   -7.1949982    234.27383  0.027458254  0.027741288            2 
  712000    1.1207856   -7.2056488    234.19799  0.027410814   0.02773369            3 
  713000    1.1117422   -7.2054966    234.81527  0.027444515  0.027726226            4 
  714000    1.1478805   -7.1950672    235.05226  0.027433737  0.027718749            2 
  715000    1.1499551    -7.232085    234.70874  0.027355331  0.027711415            3 
  716000    1.1309209   -7.2674729     235.1797  0.027371939  0.027704398            3 
  717000    1.1601915    -7.205808    236.13798   0.02744514  0.027697305            2 
  718000     1.139534   -7.2555427    235.96739  0.027387115  0.027690175            4 
  719000     1.143679   -7.2267795     236.4196  0.027401437  0.027682886            3 
  720000    1.1254331    -7.275557    237.10927  0.027443203  0.027676218            4 
  721000    1.1411419   -7.2140396    237.40961  0.027439854  0.027669749            2 
  722000    1.1465956   -7.2735513    236.89111  0.027342003  0.027662976            1 
  723000    1.1307746   -7.2443968    237.25352  0.027345956  0.027656179            2 
  724000     1.109735   -7.1634343    238.96142  0.027504767  0.027649239            3 
  725000    1.1464732   -7.2297943     238.6518  0.027431242  0.027642678            6 
  726000    1.1409183   -7.1882278    239.44911  0.027484976  0.027636471            1 
  727000    1.1150651    -7.200968    239.12861  0.027410432  0.027630136            2 
  728000    1.1212331   -7.2478761    238.83862  0.027339586  0.027623348            7 
  729000    1.1266301   -7.2255961    240.35171  0.027475047  0.027616215            3 
  730000    1.1279645   -7.2125409    240.24625  0.027425371  0.027609799            5 
  731000    1.1345301   -7.2553321    239.93338  0.027352187  0.027603315            3 
  732000    1.1441177   -7.2323285    240.72036  0.027404413  0.027596856            4 
  733000    1.1429199   -7.2377966    240.86709  0.027383708  0.027590288            4 
  734000    1.1343738   -7.2355331    241.24634  0.027389458  0.027584002            4 
  735000    1.1619071   -7.2141674    241.93106  0.027429825  0.027577597            2 
  736000    1.1156362   -7.2085408    241.66477  0.027362406   0.02757161            2 
  737000    1.1274586   -7.2088123    243.36353  0.027517359  0.027565978            1 
  738000    1.1533571   -7.2194586    243.74165   0.02752277  0.027560341            2 
  739000    1.1612856   -7.2626451    243.30253  0.027436009  0.027554149            2 
  740000    1.1287309   -7.2577108    243.41483   0.02741158  0.027548226            6 
  741000    1.1278506   -7.2487876    243.85411  0.027423989  0.027542291            2 
  742000    1.1259163   -7.2205661    244.21333  0.027427373  0.027536379            3 
  743000    1.1199614     -7.27572    244.10929   0.02737879    0.0275305            4 
  744000    1.1431539   -7.2255511    245.16873  0.027460655  0.027524349            3 
  745000     1.110119   -7.2060173    245.33314  0.027442185   0.02751849            1 
  746000    1.1342915   -7.2433832     244.8185  0.027347911  0.027512767            2 
  747000    1.1138116   -7.2184144    245.78471  0.027419089   0.02750691            2 
  748000    1.1065527   -7.2228798     246.2025  0.027428977  0.027501095            1 
  749000    1.1306667   -7.3292416    245.11097  0.027270914  0.027494837            2 
  750000    1.1460532   -7.2856309    245.95921  0.027328801   0.02748861            3 
  751000    1.0945753    -7.239308    246.87819  0.027394384  0.027482633            5 
  752000     1.127167   -7.1970635    247.36016  0.027411365  0.027476608            3 
  753000      1.13591   -7.2373839    247.68874  0.027411326  0.027470714            4 
  754000    1.1541642   -7.2378446    247.03607  0.027302837  0.027464942            2 
  755000    1.1523728   -7.2790373    247.48994   0.02731677  0.027459102            3 
  756000     1.133763   -7.2392501    247.34206  0.027264337  0.027453182            2 
  757000    1.1320538    -7.239932    248.69064  0.027376777  0.027447658            2 
  758000    1.1521126   -7.2419141    249.05059  0.027380232  0.027442079            4 
  759000    1.1574931   -7.2579279    249.39369  0.027381828  0.027436865            5 
  760000    1.1263669   -7.2585346    248.69503  0.027269191  0.027431214            3 
  761000    1.1382155   -7.2610483    249.83363  0.027358041  0.027425415            3 
  762000    1.1186269   -7.2718348    250.23726  0.027366279  0.027419718            2 
  763000    1.1285378    -7.212802    250.31941  0.027339385  0.027413593            2 
  764000    1.1104095   -7.2288099    249.51604  0.027215973  0.027407539            4 
  765000    1.1545084   -7.2492229    250.39436  0.027276074  0.027401445            1 
  766000    1.1024983   -7.2453229    250.00171   0.02719775   0.02739516            2 
  767000    1.1263426   -7.2775682    250.75225  0.027243834  0.027389222            6 
  768000    1.1110368   -7.2694871    250.27819  0.027156922  0.027382984            2 
  769000    1.1296081   -7.2343885    250.42069  0.027137049  0.027376582            3 
  770000    1.1349771   -7.2928038    251.13614  0.027179236  0.027370306            6 
  771000    1.1585008   -7.2369224    251.19004  0.027149809   0.02736408            3 
  772000    1.1140142   -7.2538235    252.13556  0.027216705  0.027357655            2 
  773000    1.1167148   -7.2378184    252.05725  0.027173054  0.027351124            6 
  774000     1.104748   -7.2461709    252.14467  0.027147359  0.027344678            3 
  775000    1.1364822   -7.2740848    252.34543  0.027133917  0.027338066            3 
  776000    1.1294512   -7.2773433    253.19878  0.027190591   0.02733165            2 
  777000    1.1144476   -7.2067769    252.96803  0.027130848  0.027324985            1 
  778000    1.1193375    -7.251942    253.31047  0.027132655   0.02731899            3 
  779000    1.1406883   -7.2765435    253.70968  0.027140531   0.02731295            2 
  780000    1.1412145   -7.2371783     254.2476  0.027163205  0.027306992            2 
  781000    1.1137085   -7.2778917    253.69618  0.027069588  0.027300919            4 
  782000    1.1080792   -7.2141236    255.94263  0.027274364  0.027295141            3 
  783000    1.1232864   -7.2473087     254.3045  0.027065187  0.027289277            8 
  784000     1.140223   -7.2404963    255.32115  0.027138727  0.027283363            4 
  785000    1.1351599   -7.2538124    254.84649  0.027053768   0.02727744            3 
  786000    1.1137545    -7.265258    256.31871  0.027175435  0.027271312            2 
  787000    1.1351275   -7.2666557    255.68691  0.027074005  0.027265059            2 
  788000    1.1422014   -7.2494569    256.15094  0.027088721  0.027258788            4 
  789000    1.1421539   -7.3325635    255.25395  0.026959648  0.027252741            3 
  790000    1.1192097   -7.2774598    256.57209  0.027064566  0.027246211            2 
  791000    1.1511769    -7.285394    255.99263  0.026969303  0.027240032            2 
  792000    1.1204948   -7.2470129    258.32461   0.02718062  0.027234094            2 
  793000    1.1311257   -7.2543378    258.00979  0.027113261  0.027228182            2 
  794000    1.0958246   -7.2872436    258.00693  0.027078813   0.02722256            2 
  795000    1.1470657   -7.2891238    258.19789  0.027064768  0.027216521            5 
  796000    1.1294652   -7.3061653    257.28904  0.026935619  0.027210505            3 
  797000    1.1409617   -7.2666129    258.82825  0.027062761  0.027204476            3 
  798000    1.1202498   -7.2668773    259.03777  0.027050728  0.027198528            2 
  799000    1.1355435   -7.2813422    259.06054  0.027019247  0.027192691            2 
  800000     1.118738   -7.2316218    259.81024  0.027063567  0.027186627            4 
  801000    1.1092565   -7.2642087    259.70879  0.027019225  0.027180074            5 
  802000    1.1250069   -7.2531712    259.95117   0.02701072  0.027173958            4 
  803000    1.1289349    -7.287832    259.77593  0.026958896  0.027167742            4 
  804000    1.1181977   -7.2851945    260.23318  0.026972759  0.027161244            2 
  805000    1.1669654   -7.2335687    261.12768  0.027031851   0.02715484            1 
  806000    1.1258074   -7.2480253    260.31005  0.026913777  0.027148726            4 
  807000    1.1150893   -7.3031421    260.59292  0.026909637  0.027142581            2 
  808000    1.1283456   -7.2721767    261.62596  0.026982875  0.027136477            2 
  809000    1.1002892   -7.2841222      261.527  0.026939328  0.027130452            2 
  810000    1.1351636   -7.2487956    262.80516  0.027037568  0.027124658            2 
  811000    1.1202382   -7.2240603    262.84259  0.027008075  0.027118782            3 
  812000    1.0980111    -7.287134     263.0931  0.027000523  0.027112796            3 
  813000    1.1071796   -7.2718142     262.5285   0.02690944  0.027106707            2 
  814000    1.1327606   -7.2466486    263.96542  0.027023486  0.027100539            3 
  815000    1.1239373   -7.2403159    263.48988  0.026941706  0.027094443            2 
  816000    1.1212126   -7.2720516    263.18227  0.026877274  0.027088345            4 
  817000     1.145734   -7.2954017     263.7678    0.0269041  0.027082118            4 
  818000      1.12088   -7.2673782    264.35019  0.026930541  0.027075895            3 
  819000    1.0959852   -7.2696888    264.05483  0.026867606  0.027069596            4 
  820000    1.1177967   -7.2290411    266.07609  0.027040253  0.027063392            6 
  821000    1.1407144   -7.2650677    264.62254  0.026859779  0.027057093            2 
  822000    1.1055747   -7.2840518    264.43406  0.026807995  0.027050645            6 
  823000    1.1355983   -7.2274192    266.25789  0.026960094   0.02704415            3 
  824000    1.1365763   -7.2256654    266.18272  0.026919773  0.027038094            2 
  825000    1.1083808   -7.2856471     265.6225  0.026830556  0.027031563            7 
  826000    1.1295503   -7.2985548     264.6508  0.026700041  0.027024729            4 
  827000    1.1166456   -7.2786384    265.69144  0.026772616  0.027018102            2 
  828000    1.0962172   -7.2716393    266.59101  0.026830818    0.0270116            3 
  829000    1.1196212   -7.2881997    266.25955  0.026765134  0.027005212            2 
  830000     1.121578   -7.3115718    266.89264   0.02679645  0.026998495            4 
  831000    1.1188003   -7.2763658    267.26133  0.026801176  0.026991857            3 
  832000    1.1083579   -7.3367024    267.70025  0.026812925   0.02698527            6 
  833000    1.1007281   -7.2331195    269.06248  0.026917015  0.026979073            2 
  834000    1.1245812   -7.2943606    267.99653   0.02677823  0.026972967            4 
  835000    1.1196374   -7.2826991    269.36716   0.02688295  0.026966527            2 
  836000    1.0908131   -7.2919053    269.32768  0.026846858  0.026960353            2 
  837000    1.1287912    -7.320904    268.85439  0.026767661  0.026953816            1 
  838000    1.1046751   -7.2691199    269.35214  0.026785217  0.026947243            1 
  839000    1.1010834   -7.3001167    269.23973  0.026742126  0.026940756            2 
  840000    1.1201978   -7.2689183    270.08183  0.026793833  0.026934399            6 
  841000    1.1206181    -7.268921    270.17975  0.026771675  0.026928345            1 
  842000     1.112013   -7.3153193     270.8321  0.026804444  0.026922286            2 
  843000    1.1154315   -7.2885144    270.08797  0.026699088  0.026915862            3 
  844000    1.1195614   -7.2906785    270.50867  0.026708992    0.0269095            3 
  845000    1.1133101   -7.3320899    270.49206  0.026675746  0.026902855            2 
  846000     1.127074   -7.3124112    272.51934  0.026843907  0.026896403            5 
  847000    1.0995648   -7.2596374    271.40067  0.026702151  0.026890348            4 
  848000    1.1143451   -7.2807916    271.66941  0.026697072  0.026884082            6 
  849000    1.1401464   -7.3352858     272.2142  0.026719101  0.026877668            4 
  850000    1.1265792   -7.2939813    272.59412  0.026724914  0.026871237            4 
  851000    1.1205945   -7.2820191    272.24423  0.026659247  0.026864872            4 
  852000    1.1376037   -7.2475306    273.21323  0.026722733  0.026858502            2 
  853000    1.1000047   -7.3055185    273.32607  0.026702429  0.026852253            2 
  854000    1.1215666   -7.3079322    272.44265  0.026584958  0.026845831            1 
  855000    1.1321314   -7.3248336    273.59011  0.026665703   0.02683951            5 
  856000    1.0950585   -7.3048237    274.43512  0.026716815  0.026833295            3 
  857000    1.1192539   -7.2598444    273.72658  0.026616743  0.026826998            2 
  858000    1.1236925   -7.3290009    273.55626  0.026569178  0.026820582            2 
  859000    1.1022426   -7.2837332    273.76909  0.026558895  0.026813811            6 
  860000    1.0765934   -7.3102867    274.03032  0.026553325    0.0268068            6 
  861000    1.1054009   -7.2671652    275.12392  0.026628331   0.02679982            3 
  862000    1.1005021   -7.2542014    276.05966  0.026687902  0.026793216            2 
  863000    1.1115928   -7.2844574     275.0563  0.026560091  0.026786613            4 
  864000    1.1345112   -7.2796829     275.9677  0.026617255  0.026779988            3 
  865000     1.139016   -7.2250913    276.70034  0.026657065  0.026773499            3 
  866000    1.1068733   -7.2832686    276.41183  0.026598521  0.026766956            2 
  867000     1.113028   -7.3033596    275.69377  0.026498824  0.026760271            2 
  868000    1.1253772   -7.3176352    275.91942   0.02648996  0.026753345            5 
  869000    1.1001196   -7.2427746    277.33194  0.026594931  0.026746301            2 
  870000    1.1122992   -7.3128094    275.80844  0.026418433  0.026739275            3 
  871000    1.1002831   -7.3145367    277.39159  0.026539571  0.026731896            2 
  872000    1.0982819   -7.3254948    275.59844  0.026337771  0.026724421            2 
  873000    1.1168981   -7.3252188    276.82151  0.026424352  0.026717116            5 
  874000    1.1312845   -7.3051599    277.20912  0.026431075   0.02670976            3 
  875000    1.0990885   -7.2695874    278.55946  0.026529472  0.026702673            2 
  876000    1.1151602   -7.3139857    278.40649  0.026484635  0.026695429            6 
  877000    1.1332045   -7.2937336    278.11252  0.026426503  0.026688178            4 
  878000     1.123647   -7.3238558    277.67275  0.026354665  0.026680666            2 
  879000    1.0931739   -7.2437379    278.26489   0.02638082   0.02667346            2 
  880000    1.1026777   -7.3367791    278.18085  0.026342883  0.026665902            5 
  881000    1.1058946   -7.3140697    278.66478  0.026358757   0.02665834            3 
  882000    1.0964839   -7.2665802    278.42974  0.026306665   0.02665086            4 
  883000    1.1118911   -7.3344754    278.22653  0.026257694  0.026643276            4 
  884000    1.1211978   -7.2933439    279.05574  0.026306159   0.02663563            2 
  885000    1.1197856   -7.2687972    280.19584  0.026383789  0.026627611            3 
  886000    1.1219293   -7.2720154    279.08245   0.02624929  0.026619907            9 
  887000    1.1278941   -7.3025918     279.4072  0.026250207  0.026612043            7 
  888000    1.1027314   -7.3299927    279.76955   0.02625465  0.026604307            2 
  889000    1.1027665   -7.2715321     279.9448  0.026241545  0.026596488            4 
  890000    1.1000986   -7.3038175    279.44972  0.026165704  0.026588543            8 
  891000    1.1004615   -7.2934459    281.36286   0.02631527  0.026580742            3 
  892000    1.1073043   -7.3367114    280.69205  0.026223099  0.026573109            3 
  893000    1.1212715   -7.3199545    280.81132  0.026204864   0.02656564            4 
  894000    1.1046651     -7.31959    281.83745  0.026271202  0.026558174            3 
  895000    1.1135554   -7.2939367    282.39699  0.026293947  0.026550928            1 
  896000    1.1155479   -7.3449575    282.36998  0.026262089   0.02654358            4 
  897000    1.1201211   -7.3344492    282.66793  0.026260491  0.026536522            3 
  898000    1.0864114   -7.2701706    283.69328  0.026326399  0.026529533            4 
  899000    1.1315283   -7.3299688    282.39425  0.026176701  0.026522131            3 
  900000    1.1140689   -7.3139061    283.27907  0.026229543  0.026514607            3 
  901000    1.0996555   -7.2847455    283.88817  0.026256767   0.02650696            1 
  902000    1.1117598    -7.279318    284.17935  0.026254559  0.026499462            4 
  903000    1.1269409   -7.3238463    284.01541  0.026210356  0.026492032            2 
  904000    1.1046022   -7.3204313    283.03726  0.026091193  0.026484825            1 
  905000    1.0878752   -7.2974199    285.03427   0.02624625  0.026477263            2 
  906000    1.1244774   -7.3324651    284.49072  0.026167285  0.026469995            3 
  907000     1.102087   -7.3454476    285.11389   0.02619569  0.026462579            4 
  908000    1.1139865   -7.3397448    285.21755  0.026176354  0.026455404            4 
  909000    1.0956444   -7.3376287    285.10043   0.02613682  0.026448224            1 
  910000    1.1015629   -7.3227978    285.70865  0.026163796  0.026440923            1 
  911000    1.1103403   -7.3232449    286.23408  0.026183139  0.026433716            4 
  912000    1.1079889   -7.2811823    286.23416  0.026154438  0.026426601            1 
  913000    1.0982513   -7.3137515    286.90625  0.026187135  0.026419678            3 
  914000    1.1098392   -7.3076679    288.13387  0.026270411  0.026412791            1 
  915000    1.1215304   -7.3217825     288.2165  0.026249225  0.026406349            3 
  916000    1.0994084   -7.3518042     287.2795  0.026135326  0.026399796            1 
  917000    1.0934842   -7.3313284    288.64064   0.02623052   0.02639332            3 
  918000    1.0857364   -7.2783341    288.82649  0.026218818  0.026386967            3 
  919000    1.1068755   -7.3110887    289.18238  0.026222559  0.026380503            1 
  920000    1.1222018    -7.325768     288.4753  0.026130009  0.026373859            4 
  921000    1.1086539   -7.3354386    289.01739  0.026150687  0.026366898           17 
  922000    1.1245072   -7.2954973    288.95767  0.026116926   0.02635981            5 
  923000    1.0988737   -7.3163594    290.02785  0.026185252  0.026353036            3 
  924000    1.1073641   -7.3295418    288.99492  0.026063755  0.026346073            2 
  925000    1.0939536   -7.3197687    289.38696  0.026070897  0.026338979            3 
  926000    1.1266278   -7.3093071    290.06732   0.02610397  0.026332066            2 
  927000    1.0977727   -7.3361737    289.67772  0.026040788  0.026325043            5 
  928000    1.0933958    -7.294043     291.2613   0.02615493  0.026318149            3 
  929000    1.1127801    -7.332169    290.87556  0.026092174  0.026311154            3 
  930000    1.1296137   -7.3349858    291.04539  0.026079336   0.02630412            4 
  931000    1.1152959    -7.341098    291.45632  0.026088106  0.026296923            3 
  932000    1.1058473   -7.3767973    290.63134   0.02598635  0.026289692            5 
  933000    1.1122468   -7.3318448    292.43044  0.026119189  0.026282784            2 
  934000    1.1160382    -7.317121     292.8608  0.026129622  0.026275877            3 
  935000    1.1181852   -7.2781197    293.68545  0.026175174  0.026269286            4 
  936000    1.1215161   -7.3404474    293.39589  0.026121429  0.026262751            1 
  937000    1.1196436    -7.314649    293.06262  0.026063912   0.02625602            3 
  938000    1.1324008   -7.3235525    293.59493  0.026083416  0.026249053            2 
  939000    1.0791371   -7.3296457    293.30076  0.026029532  0.026242197            2 
  940000    1.1034585   -7.3269127    293.33444  0.026004827  0.026235238            2 
  941000     1.095371   -7.3225118    294.49243   0.02607974  0.026228698            3 
  942000     1.081908   -7.3627712    294.17686  0.026024138  0.026222057            4 
  943000    1.1279084   -7.3258152    295.26324  0.026092545  0.026215374            3 
  944000    1.1048108   -7.3293089    294.12502  0.025964426  0.026208531            4 
  945000    1.0867299   -7.3471288    294.78672  0.025995302  0.026201574            6 
  946000     1.085112   -7.3071693    295.92955  0.026068495  0.026194809            6 
  947000     1.108539   -7.3016084    296.29517  0.026073141  0.026188269            1 
  948000      1.09128   -7.3365688    296.32055  0.026047869  0.026181867            2 
  949000    1.0988042   -7.3192792    296.88585   0.02607006   0.02617548            2 
  950000    1.0976683   -7.3405182    296.02162  0.025966809  0.026168968            6 
  951000    1.1027635   -7.3403371    296.72993  0.026001571  0.026162443            2 
  952000    1.0955058   -7.3657849    297.34223  0.026027856  0.026155962            2 
  953000    1.1020035   -7.3020315    298.06294  0.026063566  0.026149643            4 
  954000    1.0953566   -7.3557559    297.83224  0.026016094  0.026143514            4 
  955000    1.1056013   -7.2825274    299.36322  0.026122445  0.026137301            3 
  956000    1.0948876   -7.2800389    299.75143   0.02612896  0.026130968            6 
  957000    1.1024267   -7.3272247    299.11208  0.026045984  0.026124689            6 
  958000    1.0973863   -7.3489399    299.39736  0.026043612  0.026118405            3 
  959000    1.0855132   -7.3336985     299.5947  0.026033603  0.026112243            9 
  960000    1.1151613   -7.2721193    300.15005  0.026054691  0.026106271            1 
  961000    1.1083327   -7.3705371    298.69689  0.025901569  0.026099904            3 
  962000    1.0993145   -7.3351918    299.86049  0.025975441   0.02609357            2 
  963000     1.093463   -7.3799927    300.33914  0.025989888  0.026087379            3 
  964000    1.1301328   -7.3475049    300.30195  0.025959712   0.02608104            5 
  965000    1.0864342   -7.3653356    300.91701  0.025985924  0.026074658            6 
  966000    1.1008896   -7.3194725    301.47917   0.02600752  0.026068601            3 
  967000    1.1127898   -7.3091769     301.3147  0.025966451  0.026062366            2 
  968000      1.09193   -7.3633451    300.69978  0.025886689  0.026056126            4 
  969000    1.0824709    -7.324251     303.3087   0.02608434  0.026050048            2 
  970000    1.0665714   -7.2909882    303.34489  0.026060558  0.026044219            3 
  971000    1.0588952   -7.3215345    303.63826  0.026058896  0.026038741            1 
  972000     1.088621   -7.2910374    303.70755  0.026038027  0.026033122            1 
  973000    1.0939787   -7.3343864    304.47123  0.026076673  0.026027505            3 
  974000    1.0902351   -7.3016387    304.95612  0.026091386  0.026021767            4 
  975000    1.0850203   -7.3539722    304.58939  0.026033281  0.026015666            1 
  976000     1.091977   -7.3335451    304.38106   0.02598882  0.026009534            2 
  977000    1.0776652   -7.4014978    302.23379  0.025779068  0.026003147            2 
  978000    1.0849783   -7.3179003    303.99046  0.025902391  0.025996622            2 
  979000    1.0882831   -7.3107574    303.86821  0.025865527  0.025990096            2 
  980000    1.0524331   -7.3444821    304.55207  0.025897285  0.025983801            3 
  981000     1.109135   -7.3044697    304.61905  0.025876575  0.025977374            3 
  982000    1.1003515   -7.3102352    305.40838  0.025917208   0.02597121            3 
  983000    1.0912817   -7.3498618    305.37171  0.025887734  0.025964949            4 
  984000     1.080173   -7.3395032    306.46117   0.02595369  0.025958956            4 
  985000    1.1137953   -7.3486975    305.05776  0.025808609  0.025952672            2 
  986000    1.0775617   -7.3835089    305.94154  0.025857128  0.025946422            3 
  987000    1.0895587   -7.3188821    307.28793  0.025944607  0.025940327            4 
  988000    1.1090393   -7.2841334     307.2894  0.025918472  0.025934226            2 
  989000     1.085624   -7.3397393    306.99379  0.025867357  0.025928226            3 
  990000    1.0865342   -7.3320559    306.48173  0.025798125  0.025922102            2 
  991000    1.0981134   -7.3521931     306.8262   0.02580106  0.025915812            6 
  992000     1.086048   -7.3154363     308.6191  0.025925663   0.02590982            3 
  993000    1.0719117   -7.3232507    307.88596   0.02583803  0.025904028            6 
  994000    1.0804594   -7.4182224    307.68924  0.025795544  0.025897992            2 
  995000    1.1003751   -7.3439042    308.43353  0.025831954  0.025891995           11 
  996000    1.0877181   -7.3231213    308.65364  0.025824435  0.025886062            4 
  997000     1.108628   -7.2913299    311.05676  0.025999395  0.025880198            3 
  998000    1.0918053   -7.3324655    309.96818  0.025882446  0.025874499            4 
  999000    1.1154632   -7.3296541    310.15073  0.025871766   0.02586857            3 
 1000000    1.1011404   -7.3734934    309.45396   0.02578783  0.025862469            3 
 1001000    1.0773779   -7.3275443    310.51245  0.025850187   0.02585658            2 
 1002000    1.0898806   -7.3291948    309.92916  0.025775878  0.025850746            3 
 1003000    1.1196938   -7.3202025    310.33042  0.025783518  0.025844808            3 
 1004000    1.1144977   -7.3017342    311.27949  0.025836611  0.025838942            2 
 1005000    1.0769152   -7.3015908    311.94692  0.025866246  0.025833177            2 
 1006000    1.0790463   -7.3366595    311.29758  0.025786745  0.025827249            3 
 1007000    1.0979487   -7.3675752    311.33318  0.025764083  0.025821175            2 
 1008000    1.0978687   -7.3093123    312.14617  0.025805735  0.025815134            2 
 1009000    1.0766183   -7.3040527    312.25002  0.025788737  0.025809427            2 
 1010000    1.0923719   -7.3265768    312.56202  0.025788945  0.025803377            3 
 1011000    1.0857827   -7.3313456    311.22717   0.02565341   0.02579706            3 
 1012000    1.0938657   -7.3615956     311.8456  0.025678985  0.025790331            4 
 1013000    1.0688594   -7.3684477    311.12273   0.02559417  0.025783478            3 
 1014000    1.1226596   -7.2858578    313.15494  0.025735942  0.025777048            3 
 1015000    1.1029985   -7.3000401    313.29398  0.025722001  0.025770783            1 
 1016000     1.089163   -7.3567898    312.40585   0.02562384  0.025764596            4 
 1017000    1.0928129   -7.3547802    313.15727  0.025660215   0.02575837            3 
 1018000      1.08869   -7.3573997    313.02001  0.025623773  0.025751933            1 
 1019000    1.0897212   -7.3718606    312.76671  0.025577912  0.025745583            2 
 1020000    1.1133714    -7.346998    313.08094  0.025578508   0.02573901            3 
 1021000    1.1037598   -7.3921876    313.84781  0.025616047  0.025732319            3 
 1022000    1.0746817   -7.3260362      314.098  0.025611383  0.025725832            5 
 1023000    1.1086274   -7.3766644    314.17215  0.025592388  0.025719361            3 
 1024000    1.1193482    -7.329851    314.38731  0.025584905  0.025712787            7 
 1025000    1.0964958   -7.3304362    315.15314  0.025622207  0.025706266            5 
 1026000    1.0819752   -7.3407696    315.59107  0.025632803  0.025699863            6 
 1027000    1.0802333   -7.4099347    314.10203   0.02548702  0.025693387            2 
 1028000     1.070926    -7.359819    315.80812  0.025600528  0.025686849            2 
 1029000     1.105316   -7.4171776    314.84544  0.025497687  0.025680264            2 
 1030000    1.0802054   -7.3447906    315.54255  0.025529333  0.025673611            2 
 1031000    1.0970141   -7.3777463    314.90486  0.025453028  0.025666989            4 
 1032000    1.0821831    -7.327638    316.34131  0.025544356   0.02566028            3 
 1033000    1.0810397   -7.3505588    315.77108  0.025473627  0.025653628            4 
 1034000    1.0887471   -7.3640784    315.78731  0.025450299  0.025647038            2 
 1035000    1.0829538   -7.3905693    315.86704  0.025432129  0.025640447            4 
 1036000     1.097988   -7.3008093    317.36763  0.025528284  0.025633943            2 
 1037000    1.0971829   -7.4018977    316.46565  0.025431184  0.025627385            4 
 1038000    1.0886098   -7.3575398    318.12163   0.02553963  0.025620913            3 
 1039000    1.0719217   -7.3900131    317.91022  0.025498092  0.025614327            6 
 1040000    1.0818459    -7.358044    318.65236  0.025533042  0.025607767            2 
 1041000    1.1084634   -7.3301657      318.553  0.025500561  0.025601352            3 
 1042000    1.0866193   -7.4288508    317.60741  0.025400464   0.02559494            3 
 1043000     1.060149    -7.360236    318.79865  0.025471289  0.025588309            4 
 1044000    1.0957443    -7.397558    319.18489  0.025477721  0.025581709            2 
 1045000    1.0868046   -7.3848296    319.24789  0.025458365   0.02557517            5 
 1046000    1.0950235   -7.3827902    319.53816  0.025457151   0.02556876            3 
 1047000    1.0768697   -7.3747397     319.6965  0.025445439  0.025562257            5 
 1048000    1.0745241   -7.3422876      320.904  0.025517176  0.025555996            5 
 1049000    1.0697391   -7.3812998     320.1813  0.025435439  0.025549546            2 
 1050000    1.0945221   -7.4056889    320.67627  0.025450498  0.025543358            3 
 1051000    1.0923952   -7.4155007    320.56497  0.025417457  0.025536819            4 
 1052000    1.0685819   -7.3912695    320.63617  0.025398936  0.025530393            2 
 1053000    1.0833047   -7.3726055    321.20373  0.025419732  0.025524086            3 
 1054000    1.1047028   -7.4226299    321.10486  0.025387797  0.025517903            2 
 1055000    1.0700401   -7.4221356    321.41434  0.025388179  0.025511616            4 
 1056000    1.0804213    -7.411628    321.00332  0.025331701  0.025505099            4 
 1057000    1.0691871   -7.3869177    321.62556  0.025356793  0.025498722            5 
 1058000    1.0695994    -7.375241    323.09859  0.025448849  0.025492147            4 
 1059000    1.0667628    -7.416414    321.88906  0.025329639  0.025485714            2 
 1060000    1.0740489   -7.3481842     322.8141  0.025378467  0.025479106            3 
 1061000    1.0749457   -7.3573548    322.86692  0.025358696  0.025472756            3 
 1062000    1.0961269   -7.3443562    324.15516  0.025435904  0.025466638            4 
 1063000    1.0817532   -7.3712137    323.56586  0.025365778  0.025460503            3 
 1064000     1.088551   -7.3539874    324.98388  0.025452998  0.025454478            8 
 1065000    1.0756419   -7.3929866    324.78755  0.025413737  0.025448171            2 
 1066000     1.069191   -7.3995317    324.10177  0.025336286  0.025441906            3 
 1067000     1.082538   -7.4309295    324.02733  0.025306726  0.025435509            3 
 1068000    1.0844709   -7.3791697    324.24693  0.025300166  0.025428968            3 
 1069000    1.0686032   -7.3520048    325.75798  0.025394292  0.025422332            5 
 1070000    1.0831431   -7.3721084    324.32891  0.025259261  0.025415703            2 
 1071000    1.0955161   -7.3661998    324.99199   0.02528727  0.025409369            6 
 1072000    1.1029511   -7.3977458     324.3563  0.025214265  0.025402916            3 
 1073000    1.0930421   -7.4135055    323.83421  0.025150218  0.025395954            9 
 1074000    1.0840989   -7.4133106    323.95233  0.025135966  0.025389008            2 
 1075000    1.0646378   -7.3747138    325.86275  0.025260678  0.025382136            6 
 1076000     1.075109   -7.3519888    326.30774  0.025271665  0.025375325            2 
 1077000    1.0697598   -7.4053133    326.20421   0.02524019  0.025368406            2 
 1078000    1.0885688   -7.3829128    325.19919  0.025139084  0.025361403            3 
 1079000     1.087912   -7.3990003    325.37771  0.025129573  0.025354433            2 
 1080000    1.0595621   -7.3746131     326.1175  0.025163387   0.02534767            4 
 1081000    1.0844708   -7.4218207    326.63638   0.02518011  0.025340784            2 
 1082000    1.0935834   -7.4161451    327.46856  0.025220931  0.025334018            2 
 1083000    1.0809927    -7.396233    326.85461  0.025150401  0.025327215            2 
 1084000    1.0820444   -7.3536176    327.70722  0.025192744  0.025320422            2 
 1085000    1.0768611   -7.3905658    327.61663  0.025162568  0.025313665            3 
 1086000     1.081136   -7.4061014     327.5836  0.025136863  0.025306994            3 
 1087000    1.0616894    -7.386493    328.34885  0.025172405  0.025300141            3 
 1088000    1.0683123    -7.410506    328.35343  0.025149619  0.025293376            3 
 1089000    1.0587469   -7.3769126     329.3609  0.025203619  0.025286516            2 
 1090000     1.056848   -7.3580374    328.35177  0.025103346   0.02527966            2 
 1091000    1.0664172   -7.3479554    329.36879   0.02515802  0.025273028            2 
 1092000    1.0758197   -7.4071891    328.59491  0.025075924  0.025266094            6 
 1093000      1.05052   -7.3626963     330.4149  0.025191743  0.025259322            4 
 1094000     1.055438   -7.4129345    329.34938  0.025087552  0.025252663            3 
 1095000    1.0791632   -7.4095867    329.46054    0.0250731  0.025245793            5 
 1096000     1.076112   -7.3704085    329.61968  0.025062323  0.025238921           11 
 1097000    1.0740819   -7.4174399    329.35536  0.025019398  0.025231975            3 
 1098000    1.0770391   -7.4054676    330.23945   0.02506371  0.025225156            4 
 1099000     1.096082   -7.3822155    330.84161  0.025086565  0.025218296            3 
 1100000    1.0742372   -7.4349146    330.36871  0.025027932  0.025211587            4 
 1101000    1.0815253    -7.395915    330.79937  0.025037797  0.025204816            6 
 1102000    1.0877332   -7.4109155    331.78494  0.025089605  0.025197931            6 
 1103000    1.0834012   -7.4034461     331.0448   0.02501094  0.025190929            2 
 1104000    1.0800448   -7.4195548    331.05801  0.024989282  0.025184116            3 
 1105000    1.0809863   -7.4083236     331.5786  0.025005928  0.025177265            2 
 1106000    1.0536886   -7.3400356    333.37305  0.025118524  0.025170599            2 
 1107000    1.0694947   -7.4128118     332.6341  0.025040206  0.025163938            5 
 1108000    1.0762587   -7.4028032     331.4598  0.024929287  0.025157218            2 
 1109000    1.0794748   -7.4104773    332.73318  0.025002493  0.025150499            5 
 1110000    1.0914105   -7.3827728    333.75435  0.025056633  0.025143912            2 
 1111000    1.0781369   -7.3900879    334.86869  0.025117663  0.025137637            1 
 1112000    1.1031981   -7.4207891    333.53254  0.024994945  0.025131393            2 
 1113000    1.0875234    -7.378232    335.17724  0.025095631   0.02512508            2 
 1114000    1.0493731   -7.3394236    336.43026  0.025166836  0.025119095            5 
 1115000    1.0769175   -7.3587557    336.27292  0.025132505  0.025113147            3 
 1116000    1.0683301   -7.3846347    336.90602  0.025157259  0.025107215            3 
 1117000    1.0869304   -7.3988938    335.80061  0.025052269  0.025101116            2 
 1118000    1.0509285   -7.3889705    335.83709   0.02503258   0.02509515            3 
 1119000    1.0647831   -7.3896569    337.38444  0.025125442  0.025089121            5 
 1120000    1.0453427    -7.411111    337.13075  0.025084133  0.025083239            3 
 1121000    1.0432532   -7.4437557     336.5557  0.025019008  0.025077333            4 
 1122000    1.0602257   -7.3435914    337.59425  0.025073845  0.025071503            1 
 1123000    1.0915332   -7.4315165     337.3488  0.025033304  0.025065496            3 
 1124000    1.0745427   -7.4442318    336.91919   0.02497918  0.025059138            9 
 1125000    1.0768436   -7.4459721    336.91019   0.02495631  0.025053009            2 
 1126000    1.0634533   -7.4388669    337.07584  0.024946406  0.025046874            2 
 1127000    1.0809117   -7.4287622    337.35604   0.02494499  0.025040722            2 
 1128000    1.0766522   -7.3977856    339.19165  0.025058485  0.025034663            3 
 1129000    1.0665031    -7.363516    339.16545  0.025034356  0.025028828            2 
 1130000    1.0796656   -7.4251883    339.09004   0.02500664  0.025023032            5 
 1131000      1.06321   -7.4916406    337.89308  0.024896336  0.025016925            2 
 1132000    1.0755828   -7.4478539    339.14721  0.024966667  0.025010947            2 
 1133000    1.0568707   -7.4350229    339.33952  0.024958776  0.025005051            4 
 1134000    1.0620117   -7.3747536     341.3468  0.025084274  0.024999194            3 
 1135000    1.0741322   -7.3901659    341.33803  0.025061529  0.024993543            4 
 1136000    1.0571566   -7.3978614    341.02421  0.025016448   0.02498767            3 
 1137000    1.0538832   -7.3685363    341.59427  0.025036227  0.024981947            6 
 1138000    1.0929277   -7.4111118    342.38318  0.025071996  0.024976371            2 
 1139000     1.085507   -7.4404266    341.55572  0.024989444  0.024970533            4 
 1140000    1.0834635     -7.38948    342.62648  0.025045796  0.024964779            3 
 1141000     1.074948   -7.4292141    341.68067  0.024954767  0.024958937            3 
 1142000    1.0697168   -7.4285319    342.37393  0.024983503  0.024953045            2 
 1143000    1.0865773    -7.431676    342.38401   0.02496238  0.024947068            3 
 1144000    1.0695054   -7.4260871    343.07527  0.024990914  0.024941124            5 
 1145000     1.077305   -7.3994335    343.57623  0.025005548  0.024935416            3 
 1146000    1.0528957   -7.4005358    343.07884   0.02494756  0.024929779            4 
 1147000    1.0482667   -7.4339659    343.24659  0.024937997  0.024923989            3 
 1148000    1.0579142   -7.4143397    342.93688  0.024893792  0.024918233            3 
 1149000    1.0614593   -7.3813047    345.28341  0.025042313   0.02491257            4 
 1150000    1.0608928   -7.4190885    344.85288  0.024989339  0.024906952            2 
 1151000    1.0757559   -7.4311843    344.01684  0.024907098  0.024901057            4 
 1152000    1.0480524   -7.4175517    344.01723  0.024885506   0.02489552            2 
 1153000    1.0688466   -7.4221309     344.5343  0.024901294  0.024889782            3 
 1154000    1.0927126   -7.3921627    344.19704  0.024855361  0.024884132            5 
 1155000    1.0877565   -7.4363979    344.58179  0.024861601  0.024878462            4 
 1156000    1.0464452   -7.3651379    345.91624  0.024936292   0.02487268            4 
 1157000    1.0720512   -7.4378015    345.26807  0.024868055  0.024866783            1 
 1158000    1.0743141    -7.432672    346.64304  0.024945527  0.024860919            4 
 1159000    1.0617063   -7.4518958    346.51998  0.024915155  0.024855291            5 
 1160000    1.0700481   -7.4512751    345.70803  0.024835347  0.024849504            5 
 1161000    1.0732151   -7.4585898    345.40622  0.024792292  0.024843624            3 
 1162000    1.0612836   -7.4357762    347.12539  0.024894248  0.024837779            2 
 1163000    1.0634879   -7.4471655    347.23071  0.024880389  0.024832087            4 
 1164000    1.0638727    -7.475283     345.4158  0.024729081  0.024826228            9 
 1165000    1.0547974   -7.4216734    347.90855  0.024886162  0.024820199            2 
 1166000    1.0714922   -7.4715431    346.73548  0.024780981  0.024814281            3 
 1167000    1.0706354   -7.3932148    348.37061  0.024876508  0.024808513            5 
 1168000    1.0485695   -7.3808122    348.75376  0.024882545  0.024802758            2 
 1169000    1.0563378   -7.4026565      347.914  0.024801397  0.024796888            2 
 1170000    1.0634151    -7.402238    347.50275  0.024750908  0.024790964            4 
 1171000     1.056567   -7.4066045    347.52005  0.024731002  0.024784798            5 
 1172000    1.0671325   -7.4299564    348.06843  0.024748893  0.024778582            4 
 1173000    1.0532098   -7.4107225    347.46718  0.024685079  0.024772578            3 
 1174000    1.0683178   -7.3909416    349.85772   0.02483374  0.024766481            3 
 1175000    1.0726927   -7.4145481    347.97859  0.024679333  0.024760314            3 
 1176000     1.042681   -7.4481974    348.77518  0.024714795  0.024754037            4 
 1177000    1.0653947    -7.441984    348.50662  0.024674782  0.024747849            1 
 1178000    1.0411513   -7.3683663    349.70367  0.024738517  0.024741912            4 
 1179000    1.0698308   -7.4460134    349.95178  0.024735071  0.024735919            6 
 1180000    1.0840067   -7.4235292    349.39679  0.024674914  0.024729794            2 
 1181000      1.09741   -7.4236122    349.67858  0.024673905  0.024723716            2 
 1182000    1.0616167   -7.4022397    350.24256  0.024692792  0.024717646            8 
 1183000    1.0707339   -7.4187683    351.38685  0.024752525  0.024711567            2 
 1184000    1.0535257   -7.4395725     351.5275  0.024741519  0.024705671            5 
 1185000    1.0435337   -7.4638806    350.35253  0.024638012  0.024699507            3 
 1186000    1.0691728     -7.46921     350.5513  0.024631204  0.024693436            3 
 1187000    1.0856674   -7.4267609    352.00301  0.024712371  0.024687527            3 
 1188000    1.0634462   -7.4270545    352.23842  0.024708082  0.024681682            2 
 1189000    1.0649497   -7.4201063    351.99424  0.024670188  0.024675796            7 
 1190000    1.0527444   -7.4260174     352.4153  0.024678942  0.024669872            2 
 1191000    1.0579689   -7.4473734    351.58979  0.024600461  0.024663689            2 
 1192000    1.0595143   -7.4315124    352.78938  0.024663687  0.024657587            4 
 1193000    1.0715229   -7.4323571    352.26291  0.024606239  0.024651651            5 
 1194000    1.0747844    -7.427716    353.70237  0.024686095  0.024645774            8 
 1195000    1.0525183   -7.4069202    353.95864  0.024683308  0.024639887            4 
 1196000    1.0628521   -7.4472846    353.61395  0.024638653  0.024634016            4 
 1197000    1.0518554   -7.4411094    352.75778  0.024558464   0.02462812            2 
 1198000    1.0520175   -7.4625808    352.64909  0.024530404  0.024622047            8 
 1199000    1.0413529   -7.4379997    353.95977   0.02460104  0.024615935            5 
 1200000    1.0481444   -7.4203186    355.11625  0.024660851  0.024610098            5 
 1201000    1.0497917   -7.3777506    355.98573  0.024700648  0.024604358            4 
 1202000    1.0670108   -7.4277465    356.23971  0.024697706  0.024598784            2 
 1203000    1.0327972   -7.3998066    355.98727  0.024659689  0.024592946            4 
 1204000    1.0647318   -7.4498448    356.34466  0.024663944  0.024587141            4 
 1205000    1.0466439   -7.4930694    354.56266  0.024520239  0.024581361            3 
 1206000    1.0310899   -7.4587459    354.91588  0.024524315  0.024575495            3 
 1207000    1.0454756   -7.4601144    356.21455  0.024593659   0.02456967            5 
 1208000    1.0496422   -7.4207573    356.80512   0.02461404  0.024563816            6 
 1209000    1.0701014   -7.4672681    355.74449  0.024520574  0.024557834            5 
 1210000    1.0534009   -7.4715001    356.31835  0.024539831  0.024552058            9 
 1211000    1.0464201   -7.4648861    356.20311  0.024511637  0.024546122            5 
 1212000     1.079391   -7.4561439    356.91268  0.024540201  0.024540197            3 
 1213000    1.0632302   -7.4469764      356.463  0.024489077  0.024534253            3 
 1214000    1.0789843   -7.4333118    357.66237  0.024551234  0.024528349            3 
 1215000    1.0741207   -7.4602576    358.18206   0.02456667  0.024522619            8 
 1216000    1.0541226   -7.4666128    358.57833  0.024573624  0.024516804            7 
 1217000    1.0519246    -7.423033    358.06778  0.024518473   0.02451098            3 
 1218000    1.0627441   -7.4268629     359.2936  0.024582211  0.024505335            2 
 1219000    1.0357962    -7.449841    358.73974  0.024524182  0.024499694            3 
 1220000    1.0533103   -7.4613566     358.2691  0.024471933  0.024493886            6 
 1221000    1.0625687    -7.485267    358.51873  0.024468928  0.024488026            4 
 1222000    1.0784135   -7.4550139    360.27737  0.024568833  0.024482294            5 
 1223000    1.0559838   -7.4704664    359.99265  0.024529344  0.024476594            2 
 1224000    1.0827867   -7.4680451    361.44822  0.024608403  0.024470971            3 
 1225000      1.06019   -7.4847304    359.04552  0.024424866  0.024465379            6 
 1226000    1.0570925    -7.472405      359.644  0.024445623  0.024459645            3 
 1227000    1.0538124   -7.4635711    360.63764  0.024493184  0.024454077            5 
 1228000    1.0433402   -7.4843072    360.59732  0.024470502  0.024448611            3 
 1229000     1.027851   -7.4721331    361.66951  0.024523292  0.024443087            2 
 1230000    1.0656916    -7.443113    361.73582  0.024507847  0.024437697            4 
 1231000    1.0541192   -7.4568221    363.25741  0.024590943  0.024432105            4 
 1232000    1.0363264   -7.4542885    362.29501  0.024505886  0.024426646            2 
 1233000    1.0590844   -7.4359741    363.24703  0.024550354  0.024421186            3 
 1234000    1.0496212   -7.4622955    363.16238  0.024524742   0.02441589            3 
 1235000    1.0732385   -7.4553397     363.8661  0.024552368   0.02441059            5 
 1236000    1.0670333   -7.4639394    363.91697  0.024535934  0.024405155            4 
 1237000    1.0715272   -7.5183097    361.90916  0.024380838   0.02439967            3 
 1238000    1.0721601   -7.4704417     364.5154  0.024536578  0.024394167            2 
 1239000     1.046862   -7.4679281    363.77887  0.024467236   0.02438875            3 
 1240000    1.0376512   -7.4434065    364.64419  0.024505658  0.024383166            4 
 1241000    1.0616343   -7.4564642     364.2751  0.024461127  0.024377458            3 
 1242000    1.0455032   -7.4694484    364.25586  0.024440141  0.024371762            7 
 1243000    1.0399282   -7.5044599    364.03621  0.024405753  0.024366077            5 
 1244000    1.0332187   -7.4249019    365.21043  0.024464793  0.024360573            4 
 1245000    1.0859044   -7.4623517    365.57987  0.024469871  0.024355042            3 
 1246000      1.04835   -7.4370341    366.32777  0.024500252  0.024349669            5 
 1247000    1.0640177   -7.4579935    366.36213  0.024482901  0.024344377            3 
 1248000    1.0226879    -7.465078    366.70638   0.02448627  0.024339005            3 
 1249000    1.0814751   -7.4739708    365.56224  0.024390328  0.024333471            2 
 1250000    1.0498457   -7.4817292    365.75195  0.024383463  0.024328015            2 
 1251000    1.0675023   -7.4408646    367.13039  0.024455795   0.02432245            4 
 1252000     1.061355   -7.4563134    367.45404  0.024457804  0.024317036            2 
 1253000    1.0666672   -7.4395765    367.72955  0.024456607  0.024311757            3 
 1254000    1.0732678   -7.4577246    366.52575  0.024357107  0.024306411            6 
 1255000    1.0511599   -7.4539035    367.29808  0.024388983  0.024301198            3 
 1256000     1.062939    -7.449139    368.73503  0.024464904  0.024295941            4 
 1257000     1.050066   -7.4271601    369.38625  0.024488613  0.024290862            2 
 1258000    1.0276448   -7.4620284    368.72875  0.024425593   0.02428583            2 
 1259000    1.0541971   -7.4556715    369.79042  0.024476464  0.024280724            4 
 1260000    1.0263604   -7.4474521    369.57327  0.024442676  0.024275625            3 
 1261000    1.0527216   -7.4083926    369.38755   0.02441102  0.024270686            3 
 1262000    1.0512578   -7.4197133     371.5785  0.024536351   0.02426564            5 
 1263000     1.043568   -7.4479316    371.21793  0.024493133  0.024260606            2 
 1264000    1.0380882   -7.4780486    370.29491  0.024412903   0.02425562            2 
 1265000    1.0814888   -7.4663949    370.61007  0.024414366  0.024250599            3 
 1266000    1.0381684   -7.4361718    372.19732   0.02449956  0.024245564            2 
 1267000    1.0616201   -7.5110968    370.36235  0.024359534  0.024240396           10 
 1268000     1.056223   -7.4843823    370.88836  0.024374892  0.024235345            4 
 1269000    1.0473233   -7.5212914     371.2834  0.024381626  0.024230191            4 
 1270000    1.0491739   -7.4929435    370.97985   0.02434251  0.024224824            6 
 1271000      1.03846    -7.458185    371.77667  0.024375601  0.024219491            5 
 1272000    1.0482143   -7.4795451    371.24543  0.024321635  0.024214215            3 
 1273000    1.0545401   -7.4586943    370.97827   0.02428504  0.024208962            7 
 1274000    1.0387378   -7.4922318    371.37187  0.024291724  0.024203603            3 
 1275000    1.0536398   -7.4456408    372.39208  0.024339352  0.024198209            3 
 1276000    1.0640387   -7.4550371    372.64408  0.024336734  0.024193022            3 
 1277000    1.0650998   -7.4791871    371.28908  0.024229254  0.024187649            3 
 1278000    1.1032498   -7.4974331    372.32294  0.024277709  0.024182185            3 
 1279000     1.031131   -7.4513264    371.57903  0.024210257   0.02417675            3 
 1280000    1.0523639   -7.5056827     371.6846  0.024198216  0.024171192            2 
 1281000    1.0473071   -7.4785593    372.68334  0.024244298  0.024165658            6 
 1282000    1.0453057   -7.4782965      372.423  0.024208464  0.024160138            3 
 1283000    1.0168109   -7.4578357    372.65384  0.024204588  0.024154511            2 
 1284000    1.0537668   -7.5028308    373.52931  0.024242557  0.024148922            2 
 1285000    1.0466468   -7.4770497    373.16608  0.024200135   0.02414337            2 
 1286000    1.0446306   -7.5208295    372.23756  0.024121149  0.024137682            3 
 1287000    1.0379896   -7.4434902    374.52439  0.024250479  0.024132074            2 
 1288000    1.0363937   -7.4701374    374.20317  0.024210868  0.024126557            3 
 1289000    1.0502377   -7.5047777    373.78314   0.02416493  0.024120952            7 
 1290000    1.0608289   -7.5090445    373.44378  0.024124275  0.024115249            4 
 1291000    1.0500769   -7.4716009      374.745  0.024189581  0.024109701            6 
 1292000     1.058179   -7.5012531    374.86507  0.024178604  0.024104251            3 
 1293000    1.0480676   -7.4786112    375.12791  0.024176844  0.024098796            3 
 1294000    1.0313662   -7.4783576    375.22366  0.024164327  0.024093241            3 
 1295000    1.0612396   -7.5420638    373.49585  0.024034482  0.024087692            5 
 1296000    1.0351205   -7.5056616    375.51225  0.024145592   0.02408184            3 
 1297000    1.0178695    -7.454765    376.70607   0.02420368  0.024076208            3 
 1298000    1.0407318   -7.5203033    376.01598  0.024140728   0.02407083            3 
 1299000    1.0573844   -7.4648029    378.02696  0.024251152  0.024065526            3 
 1300000    1.0368641   -7.4814737    378.25112  0.024246866  0.024060265            2 
 1301000    1.0480767   -7.4917524    376.95653  0.024145307  0.024054985            4 
 1302000    1.0590471   -7.4735951    378.03579  0.024195839  0.024049833            2 
 1303000    1.0615667   -7.5209545     378.2576  0.024191455  0.024044587            4 
 1304000     1.058164    -7.508386     377.5451  0.024127371  0.024039342            3 
 1305000    1.0530711   -7.4844371    378.76435   0.02418674  0.024034018            3 
 1306000    1.0308972   -7.4724714    378.46861   0.02414935  0.024028681            3 
 1307000    1.0514856    -7.502568    378.11468  0.024108306  0.024023398            2 
 1308000    1.0684722   -7.4868844    380.14645   0.02421932  0.024018073            4 
 1309000    1.0681288   -7.5197036     379.5504  0.024162872  0.024012787            5 
 1310000    1.0338405    -7.487132    379.89138  0.024166118  0.024007583            3 
 1311000    1.0479409   -7.4966226    380.02828  0.024156387  0.024002312            6 
 1312000    1.0363792   -7.4841493    380.62177  0.024175671  0.023997005            4 
 1313000     1.035124   -7.5092131     379.9293  0.024113309  0.023991874            2 
 1314000    1.0384988   -7.5382648    379.79961  0.024086733  0.023986647            4 
 1315000    1.0263699   -7.4919167    380.34789  0.024103162  0.023981441            3 
 1316000    1.0657716   -7.4626406    381.63675  0.024166461  0.023976361            2 
 1317000    1.0382343   -7.4798015    381.86262  0.024162403  0.023971428            3 
 1318000    1.0458737   -7.5019623    381.25189  0.024105456  0.023966501            5 
 1319000    1.0219076   -7.4207336    382.94622  0.024194226  0.023961733            3 
 1320000    1.0419103   -7.4811373     382.4245  0.024142961  0.023956875            4 
 1321000    1.0545331   -7.4694739    383.45917  0.024189955  0.023951948            2 
 1322000    1.0440904   -7.4851241    382.84256  0.024132789  0.023946858            9 
 1323000    1.0648764    -7.503707    382.54425  0.024095758  0.023941743            5 
 1324000    1.0696213   -7.4667164    383.54718  0.024140684  0.023936718            4 
 1325000    1.0520608   -7.5273135    382.70356  0.024069406   0.02393166            3 
 1326000    1.0561889   -7.5271215    381.68045  0.023986956  0.023926289            7 
 1327000    1.0667081   -7.4802921    383.27748  0.024069171  0.023921152            4 
 1328000    1.0474651   -7.4718621    383.45391  0.024062118  0.023916242            3 
 1329000    1.0143836   -7.5063665    383.54709  0.024049855   0.02391105            3 
 1330000    1.0333168   -7.4518711    385.88407    0.0241782  0.023905854            3 
 1331000    1.0268018    -7.472825    386.09286  0.024173107  0.023900742            6 
 1332000    1.0463632   -7.4731661    385.67846  0.024129033  0.023895827            2 
 1333000    1.0473116   -7.4925491    385.39763  0.024093375  0.023890819            5 
 1334000    1.0498227   -7.5194861    384.76672  0.024035902  0.023885797            3 
 1335000    1.0253129    -7.490228    385.90696  0.024089074    0.0238807            3 
 1336000    1.0769226   -7.4828029    386.28608   0.02409469  0.023875698            2 
 1337000    1.0342018   -7.5368963     384.8863  0.023989423  0.023870617            2 
 1338000    1.0561045   -7.5613715    384.02492  0.023917845  0.023865507            7 
 1339000    1.0504203   -7.4781519     384.5281  0.023931298  0.023860437            2 
 1340000     1.031932    -7.530426    385.22711   0.02395691  0.023855293            4 
 1341000    1.0565189   -7.4822146    385.95845  0.023984492  0.023849885            3 
 1342000    1.0296735   -7.5423323    386.09125  0.023974867  0.023844416            2 
 1343000    1.0453854   -7.4713151    386.03539  0.023953549  0.023839024            3 
 1344000     1.028809   -7.4864246    386.04593  0.023936379  0.023833483            2 
 1345000     1.032359   -7.5483856    386.03709  0.023918036   0.02382805            3 
 1346000    1.0460493   -7.5139743    385.67366  0.023877765  0.023822579            5 
 1347000     1.071781    -7.510732    385.73157  0.023863621  0.023817121            5 
 1348000     1.063491    -7.461278    387.56198  0.023959074  0.023811827            6 
 1349000    1.0411372   -7.5062004    387.61282  0.023944454  0.023806519            3 
 1350000    1.0449177   -7.4976636    387.39666  0.023913374  0.023801234            6 
 1351000    1.0416471   -7.5083378    387.39177  0.023895372  0.023795975            5 
 1352000    1.0477576   -7.4990413      388.351  0.023936822  0.023790658            3 
 1353000    1.0447537   -7.5031452    388.37603  0.023920672  0.023785346            2 
 1354000    1.0083742   -7.5305249    388.69198  0.023922451  0.023780015            5 
 1355000    1.0149081   -7.5173085    387.88341  0.023855068  0.023774708            4 
 1356000    1.0146522   -7.4948599     388.3283  0.023864817  0.023769292            4 
 1357000    1.0483335   -7.5264425    386.97721   0.02376426  0.023763935            7 
 1358000    1.0314592   -7.5438484     388.6161   0.02384733   0.02375848            4 
 1359000    1.0182105   -7.5174083    388.24251  0.023806874  0.023752918            2 
 1360000    1.0210542   -7.4991187    389.50804  0.023866914  0.023747384            2 
 1361000    1.0175084   -7.5430773     388.1118  0.023763887  0.023741703            4 
 1362000    1.0335647   -7.5317863    389.37212  0.023823551  0.023736147            2 
 1363000    1.0453164   -7.5441384    388.17856  0.023733098  0.023730583            9 
 1364000    1.0267648    -7.495006    389.55713  0.023799923  0.023725062            2 
 1365000    1.0190822   -7.5181299     388.9789  0.023747186  0.023719422            5 
 1366000    1.0387041   -7.4855511    389.24964  0.023746318  0.023713683            3 
 1367000    1.0355262   -7.5042963    390.35622  0.023796405  0.023707981            5 
 1368000    1.0277296   -7.5333781    389.01355  0.023697219  0.023702317            3 
 1369000    1.0622185    -7.463018     390.6111  0.023777155  0.023696717            2 
 1370000     1.031452   -7.5133749    389.61984  0.023699504   0.02369112            3 
 1371000    1.0154694   -7.5429202    389.45213  0.023672023  0.023685521            4 
 1372000     1.035728   -7.4996213    391.51536  0.023780087  0.023679875            5 
 1373000    1.0447983   -7.5389917    391.09681  0.023737364  0.023674372            3 
 1374000    1.0574926   -7.5461917    391.03505  0.023716342  0.023668894            4 
 1375000    1.0061597   -7.5051684    392.79121  0.023805528  0.023663515            4 
 1376000    1.0371808   -7.5357146    392.06421  0.023744199  0.023658156            5 
 1377000    1.0377975    -7.491149    393.43463  0.023809891  0.023652797            4 
 1378000    1.0374443   -7.5066157     394.1931   0.02383848  0.023647394           19 
 1379000    1.0227331   -7.5611532    394.00425   0.02380978  0.023642059            1 
 1380000    1.0232933   -7.5119968    394.31782  0.023811463  0.023636742            4 
 1381000     1.044243   -7.4658061    394.74361  0.023819914  0.023631545            3 
 1382000    1.0319268    -7.530496    393.97984  0.023756623  0.023626343            4 
 1383000    1.0213095   -7.4970332    393.53946   0.02371291  0.023621134            4 
 1384000    1.0313636   -7.5255625    393.88426  0.023716538  0.023615738            2 
 1385000     1.041782   -7.5061816    393.21838  0.023659349  0.023610328            4 
 1386000    1.0231898   -7.5102232    394.10809  0.023695773  0.023604799            3 
 1387000    1.0517557   -7.5215587    393.90038  0.023666209  0.023599242            3 
 1388000    1.0292475   -7.5216127     394.2762  0.023671722  0.023593684            6 
 1389000    1.0402578   -7.5653878    393.54611  0.023610877  0.023588131            3 
 1390000    1.0342719   -7.5234023    394.50893  0.023651614  0.023582704            3 
 1391000    1.0283927   -7.5390589    394.36032  0.023625708  0.023577245            3 
 1392000    1.0165484   -7.4905635    395.08671  0.023652222  0.023571895            3 
 1393000    1.0256186   -7.5185029    396.19268  0.023701405  0.023566386            4 
 1394000    1.0283711   -7.5170168    396.00705  0.023673305  0.023560833            4 
 1395000    1.0313562   -7.5164275    396.03836  0.023658205   0.02355538            7 
 1396000    1.0305876   -7.5185509    395.96563  0.023636917  0.023549841            5 
 1397000    1.0374489   -7.5791341    395.28611  0.023579463  0.023544289            3 
 1398000    1.0401553    -7.528064    395.67332  0.023585677  0.023538648           14 
 1399000     1.021309   -7.5237496    396.12645   0.02359581  0.023532871            7 
 1400000    1.0188093   -7.5514942    394.71679  0.023495047  0.023527167            3 
 1401000    1.0175469   -7.5442517    396.35576  0.023575765  0.023521301            4 
 1402000    1.0330811   -7.4823059    396.93803  0.023593558  0.023515531            4 
 1403000    1.0342973   -7.5129909    396.57232   0.02355502  0.023509786            5 
 1404000    1.0259493   -7.5568151    395.74628  0.023489214  0.023504099            4 
 1405000    1.0315721   -7.5232222    395.98296  0.023486534  0.023498338            4 
 1406000    1.0496844   -7.5631982    395.94309  0.023467466  0.023492452            5 
 1407000    1.0010085   -7.5369039    397.11561  0.023520233  0.023486478            2 
 1408000    1.0162578   -7.5338529    396.35861  0.023458725  0.023480598            5 
 1409000     1.023172   -7.5051386     399.2022  0.023610255  0.023474728            2 
 1410000    1.0436501   -7.5306843    397.55624  0.023496232  0.023469068            3 
 1411000    1.0469356   -7.5492021    396.39454   0.02341097  0.023463208            3 
 1412000     1.024176   -7.5691301    397.57981  0.023464342  0.023457359            3 
 1413000    1.0311558   -7.5697497    396.82058   0.02340296  0.023451235            9 
 1414000    1.0459145   -7.5516366    397.42158  0.023421828  0.023445276            5 
 1415000    1.0200823   -7.5551512    396.40608   0.02334547  0.023439352            6 
 1416000    1.0028277   -7.5375963    398.15384  0.023431841  0.023433315            6 
 1417000     1.012117   -7.5273557     397.4473  0.023373753  0.023427347            3 
 1418000    1.0253717   -7.5609592    398.58497  0.023424128  0.023421392            3 
 1419000    1.0390637   -7.5211295    398.35829  0.023394309   0.02341545            4 
 1420000    1.0263925   -7.4949074    399.10057  0.023421395  0.023409613            3 
 1421000    1.0138557   -7.5210845     398.9418  0.023395601  0.023403749            3 
 1422000     1.017289   -7.4887762    400.33376  0.023460722  0.023397644            5 
 1423000    1.0102954   -7.6072607    396.62821  0.023227232  0.023391514            4 
 1424000    1.0405568    -7.547528    400.14833   0.02341692  0.023385285            6 
 1425000    1.0081573   -7.5264139    399.82751  0.023381726  0.023379184            3 
 1426000    1.0349055    -7.565704    399.49118  0.023345674  0.023373096            6 
 1427000   0.99359901    -7.544126      399.117  0.023307463  0.023367005            4 
 1428000    1.0492572   -7.5441024    399.64931  0.023322205  0.023360873            5 
 1429000    1.0190162   -7.4948632    400.06986  0.023330409  0.023354767            7 
 1430000    1.0240474   -7.5539279    399.32663  0.023270783  0.023348747            4 
 1431000    1.0291005   -7.5170477    401.34192   0.02337188  0.023342676            2 
 1432000    1.0093043   -7.5400004    399.61314  0.023254955  0.023336608            2 
 1433000    1.0191808    -7.559017    399.84841  0.023252408  0.023330456            4 
 1434000    1.0480922   -7.5254351    400.68171  0.023284618  0.023324297            4 
 1435000    1.0276303   -7.5492561    399.31151  0.023188822  0.023318145            2 
 1436000    1.0196158    -7.556926     400.8584  0.023262442  0.023312001            3 
 1437000    1.0289808   -7.5494152    400.11134  0.023202931  0.023305754            4 
 1438000    1.0296984   -7.5597785    399.77577  0.023167349   0.02329937            4 
 1439000    1.0070931   -7.6112856    400.28726   0.02318087  0.023293017            6 
 1440000    1.0155556   -7.5402223    399.90302  0.023142536  0.023286612            5 
 1441000    1.0055883   -7.5587445    401.93199  0.023243811  0.023280333            2 
 1442000    1.0424456   -7.5319293     403.1841  0.023300052  0.023274138            3 
 1443000    1.0114869   -7.5443784    401.23493   0.02317134  0.023267936            4 
 1444000     1.014569   -7.5446165    401.71999  0.023183287  0.023261711            3 
 1445000    1.0134175   -7.5469849    401.93362  0.023179563  0.023255589            3 
 1446000    1.0018826   -7.5456613    401.77125  0.023154175  0.023249412            4 
 1447000    1.0156936   -7.5290126    402.64464  0.023188473  0.023243231            4 
 1448000    1.0078983   -7.5534238    401.37562  0.023099426  0.023236923            3 
 1449000    1.0321359   -7.5489114    402.79396  0.023165054  0.023230693            5 
 1450000    1.0103006    -7.568225    402.48691  0.023131432   0.02322453            4 
 1451000      1.02478   -7.5995332     401.6514  0.023067505  0.023218263            3 
 1452000    1.0047645   -7.5579235    402.64194  0.023108467  0.023211926            5 
 1453000     1.006843   -7.5603825    403.33306  0.023132201  0.023205695            7 
 1454000    1.0018101   -7.4908963    405.13352  0.023219482  0.023199578            5 
 1455000    1.0351089   -7.5368796     404.6358  0.023175017  0.023193534            4 
 1456000    1.0141237   -7.5523692    404.39518  0.023145328   0.02318758            4 
 1457000    1.0050639   -7.5210616    405.43676  0.023189016  0.023181599            6 
 1458000    1.0005184   -7.5310953    404.85036  0.023139595  0.023175511            5 
 1459000    1.0163198   -7.5203336    406.11309  0.023195859  0.023169428            4 
 1460000    1.0155735   -7.5680604     405.2799  0.023132415  0.023163294            5 
 1461000    1.0082647   -7.5902817    404.65318  0.023080834  0.023157148            4 
 1462000    1.0224516   -7.5741445    404.83519  0.023075421  0.023150872            3 
 1463000     1.002848   -7.5911517    403.81298  0.023001423  0.023144726            3 
 1464000     1.017277   -7.5401153    406.18094    0.0231205  0.023138437            5 
 1465000    1.0100789   -7.5420181     404.0507  0.022983544   0.02313227            6 
 1466000    1.0423569   -7.6085589    404.77971  0.023009306  0.023126056            3 
 1467000    1.0304321   -7.5786939    406.46929  0.023089598   0.02311994            5 
 1468000    1.0321047   -7.5775404    405.18786  0.023001128   0.02311378            4 
 1469000    1.0297508   -7.5383188    407.23953  0.023101857  0.023107506            5 
 1470000    1.0170078   -7.5945475    406.43385  0.023040468  0.023101194            2 
 1471000    1.0225767   -7.6115764    405.72097  0.022984419  0.023094834            4 
 1472000    1.0115138     -7.54451    407.21967   0.02305365  0.023088554           13 
 1473000    1.0266158   -7.5702519    406.60923  0.023003464  0.023082297            3 
 1474000    1.0021643   -7.5851132    405.92458  0.022949151  0.023076105            3 
 1475000    1.0305185   -7.5589785    407.58431  0.023027362  0.023069826            3 
 1476000   0.99542255   -7.5370842    407.36345  0.022999291  0.023063601            7 
 1477000    1.0099949   -7.5511891    406.88316  0.022956621  0.023057431            6 
 1478000   0.99315113   -7.5655242    407.57625  0.022980167   0.02305131            4 
 1479000    1.0125145   -7.5874635    406.04971  0.022878618    0.0230451           13 
 1480000    1.0301318   -7.6002537    407.84976  0.022964513  0.023038853            7 
 1481000    1.0050884   -7.5357116     407.6152  0.022935809  0.023032576            5 
 1482000    1.0281628   -7.5770663    407.27734  0.022901335  0.023026488            7 
 1483000    1.0275517   -7.5133407    409.30431  0.022999793  0.023020491            2 
 1484000    1.0066507   -7.5500174    407.86003  0.022903191  0.023014244            5 
 1485000    1.0186594   -7.6131522    408.89696  0.022945957  0.023008042            6 
 1486000    1.0184878   -7.5902021    408.48297    0.0229073   0.02300186            6 
 1487000    1.0162469   -7.5488629    409.05424   0.02292391   0.02299566            5 
 1488000    1.0250074   -7.6057132    408.62223   0.02288431  0.022989509            4 
 1489000    1.0224958   -7.5451704    410.35273  0.022965789  0.022983432            5 
 1490000     1.003347   -7.5787551    409.41768  0.022898081  0.022977396            2 
 1491000     1.002146    -7.559095     409.8436  0.022906528  0.022971352            5 
 1492000    1.0031932   -7.5819409    408.45042  0.022813361  0.022965206            3 
 1493000     1.003299   -7.6017841    409.40927    0.0228516  0.022959045            3 
 1494000    1.0086005   -7.6017792    410.51884  0.022898195   0.02295291            3 
 1495000    1.0090767   -7.5816228    410.12481  0.022860915  0.022946722            4 
 1496000    1.0164949   -7.5296127    412.04534  0.022952615  0.022940583            4 
 1497000    1.0314192    -7.556439    411.22591  0.022891667   0.02293451            5 
 1498000    1.0019129   -7.5752104    409.62404  0.022787274  0.022928363            7 
 1499000    1.0573606   -7.5543549    411.34363  0.022867669   0.02292216            4 
 1500000     1.010846   -7.5525132    411.73427  0.022874126  0.022916067            3 
 1501000    1.0039777   -7.5540802    412.97841   0.02292796  0.022910074            5 
 1502000    1.0307518   -7.5681632    411.58874  0.022835594  0.022903985            4 
 1503000    1.0186964   -7.5857053    411.78696  0.022831391  0.022897824            4 
 1504000    1.0444907   -7.5501622    411.89174  0.022822016  0.022891655            3 
 1505000    1.0029267   -7.5882403    411.50933  0.022785677  0.022885421            3 
 1506000    1.0125401   -7.5888139    411.02654  0.022743833  0.022879142            4 
 1507000    1.0439166   -7.5556054    411.96704  0.022780748   0.02287293            3 
 1508000    1.0107302   -7.5818376    412.47993  0.022793984  0.022866595            3 
 1509000    1.0185263   -7.5185455    411.40176  0.022719337  0.022860269            4 
 1510000    1.0193453   -7.5791577    412.43321  0.022761215  0.022853922            5 
 1511000    1.0096125   -7.5766565    413.08567  0.022782135  0.022847518            7 
 1512000    1.0022682   -7.5490565    412.84115  0.022753591  0.022841377            5 
 1513000    1.0185718   -7.5754161    412.96758  0.022745516  0.022835223            4 
 1514000    1.0188203   -7.5617802    415.15858  0.022851089  0.022829113            5 
 1515000   0.99015849   -7.5908019    413.79151  0.022760809  0.022823048            5 
 1516000    1.0076244    -7.572371    413.58519  0.022734454  0.022816949            3 
 1517000    1.0349194    -7.561973    415.24005  0.022810374  0.022810921            2 
 1518000    1.0263938   -7.5754258    414.15841  0.022735969  0.022804798            7 
 1519000    1.0233499   -7.5637101    416.13764  0.022829583  0.022798739            5 
 1520000    1.0363924    -7.574839    415.44988  0.022776857  0.022792747            6 
 1521000    1.0146192   -7.5771568    415.79665  0.022780882  0.022786839            3 
 1522000    1.0069897    -7.566095    415.44698  0.022746768   0.02278089            3 
 1523000    1.0063939   -7.5973959     414.9661  0.022705521  0.022774854            6 
 1524000     1.034742   -7.5708365    416.01424  0.022747935  0.022768821           15 
 1525000    1.0180097   -7.6008519    415.37651   0.02269817  0.022762765            9 
 1526000    1.0032811   -7.5885203    417.01702  0.022772882  0.022756674            3 
 1527000    1.0133428   -7.5726325    415.75523  0.022689109  0.022750599            4 
 1528000   0.99041968   -7.6001923    417.09769  0.022747475  0.022744521            5 
 1529000    1.0115169   -7.5769555    416.35989  0.022692385  0.022738567            7 
 1530000   0.99859434   -7.6134395    416.93954  0.022709125  0.022732572            6 
 1531000    1.0156973   -7.6413859    416.23193  0.022655777  0.022726488            9 
 1532000    1.0081582   -7.5957224    416.37377  0.022648704  0.022720503            5 
 1533000    1.0022508   -7.5994409    417.62026  0.022701688    0.0227144            9 
 1534000   0.99564887   -7.5699691     418.2236  0.022719665  0.022708422            4 
 1535000     1.026118   -7.6086101    416.94058  0.022635211  0.022702538            4 
 1536000    1.0059896   -7.5894567     418.6168  0.022711415  0.022696501            5 
 1537000    1.0012053   -7.6145051    418.12349  0.022669892  0.022690464            3 
 1538000   0.98593786   -7.6085552    418.54321  0.022677894  0.022684567            5 
 1539000    1.0144428   -7.5984601    418.33026  0.022651628  0.022678591            4 
 1540000    1.0439227   -7.5662736    419.04226  0.022675447  0.022672767            3 
 1541000    1.0083817   -7.6095575    420.07532  0.022716597  0.022667027            7 
 1542000    1.0056863   -7.6232803    418.96063  0.022641625  0.022661111            3 
 1543000    1.0057267   -7.6239712    418.65373  0.022610377  0.022655161            3 
 1544000    1.0014244   -7.5876613    418.96286  0.022612417  0.022649242            9 
 1545000    1.0202399   -7.6104961    419.21301  0.022611274  0.022643358            3 
 1546000    1.0038291   -7.6071509    420.09188  0.022644021  0.022637568            7 
 1547000    1.0041338    -7.595161     420.3045  0.022640837  0.022631715            5 
 1548000   0.99185708   -7.6588254     418.4686  0.022527379  0.022625875            3 
 1549000    1.0093199   -7.6050839    421.08614  0.022653655  0.022619902            5 
 1550000    1.0072072   -7.5370141    421.01458  0.022635193  0.022613984            4 
 1551000    0.9867323   -7.6067621    420.00449  0.022566328  0.022608141            4 
 1552000   0.98977903   -7.6222822    420.24236  0.022564559  0.022602166            3 
 1553000   0.99407498   -7.5973916     420.3365  0.022555082   0.02259614            2 
 1554000   0.98078307   -7.5564254    421.17948  0.022585772   0.02259026            4 
 1555000   0.99805143   -7.6036836    421.35263  0.022580527  0.022584436            5 
 1556000    1.0002596   -7.6273014    419.87179  0.022486707  0.022578353            9 
 1557000    1.0208191    -7.618858    421.25389  0.022546237  0.022572285            3 
 1558000    1.0124235   -7.5763497    422.35664  0.022590749  0.022566156            4 
 1559000    1.0061581   -7.5704573    421.72072  0.022542266  0.022560105            3 
 1560000    1.0230145   -7.5859228    422.24644    0.0225559  0.022554158            6 
 1561000    1.0002902    -7.573174    422.04892  0.022530905  0.022548219            4 
 1562000    1.0063223   -7.6067465    421.55073  0.022489902  0.022542254            7 
 1563000   0.98571355   -7.6127303     421.5752  0.022476818  0.022536162            4 
 1564000     1.008769   -7.5583959    422.67019   0.02252079  0.022530138            7 
 1565000    1.0189354   -7.5780844    423.06239  0.022527284  0.022524139            4 
 1566000   0.99132358   -7.5702619    423.13384  0.022516701  0.022518149            6 
 1567000   0.98779837   -7.5933468    422.86599  0.022488087  0.022512103            4 
 1568000    1.0007946   -7.6192526    421.44921  0.022398449  0.022505866            5 
 1569000   0.99829122   -7.6322356      422.304  0.022429573  0.022499576            5 
 1570000    1.0068516   -7.6178211    422.57146  0.022429483  0.022493276            4 
 1571000   0.99475462   -7.5845833       422.38   0.02240505  0.022487051            3 
 1572000    1.0110665   -7.6004272     422.6599  0.022405635  0.022480818            4 
 1573000   0.98667444   -7.6052954    422.20703    0.0223674   0.02247447            6 
 1574000   0.98715414   -7.6200757    422.55226  0.022371467  0.022468239           12 
 1575000   0.98887345   -7.6109883    424.08268  0.022438237  0.022461994            5 
 1576000    1.0079966   -7.6514586    422.18639   0.02232373  0.022455768            3 
 1577000   0.97271494   -7.6405257    423.27644  0.022367176  0.022449576            3 
 1578000    1.0235681   -7.6245127    423.04137  0.022340588  0.022443401            5 
 1579000    0.9900263   -7.6117716    422.31329  0.022288014  0.022437241            3 
 1580000    1.0202106   -7.6208295    424.73123  0.022401436  0.022431054            3 
 1581000    1.0184205   -7.6748359    423.09732  0.022301145  0.022424763           11 
 1582000   0.99361847   -7.6489881    423.70758  0.022319194  0.022418416            4 
 1583000    1.0042522   -7.6351267    424.28738  0.022335617  0.022412107            5 
 1584000    1.0112621   -7.6311187    423.31387    0.0222703  0.022405782            3 
 1585000    1.0109476   -7.6173581    424.66328  0.022327197  0.022399489            6 
 1586000    1.0103715   -7.6022527     425.0258  0.022332167  0.022393262            3 
 1587000   0.98719622   -7.6364726    425.07582  0.022320722  0.022386996            7 
 1588000   0.98231149   -7.6509144    424.52298  0.022277654  0.022380784            3 
 1589000   0.99610588   -7.6088151     425.4896  0.022314328  0.022374709            2 
 1590000   0.97587439   -7.5982147    426.67298  0.022362316  0.022368613            4 
 1591000   0.99630673   -7.6098506     425.3017  0.022276435  0.022362464            4 
 1592000    1.0039664   -7.6106534    425.12412  0.022253147  0.022356268            8 
 1593000   0.99655411   -7.5865915    427.67369  0.022372551  0.022350156            3 
 1594000   0.97809941   -7.5964989    425.89199  0.022265369  0.022343981            7 
 1595000   0.97467435    -7.602302    426.25737    0.0222705  0.022337782            4 
 1596000   0.98202264   -7.6031706     427.0654  0.022298737  0.022331573            6 
 1597000    1.0075822    -7.589331     426.9885  0.022280761  0.022325383            3 
 1598000   0.98410476   -7.6065095    426.72075  0.022252855  0.022319239            3 
 1599000    1.0170441   -7.6574885    425.72866  0.022187235  0.022312982            7 
 1600000   0.99860413   -7.5989445    427.86994  0.022284893  0.022306726            9 
 1601000    1.0003708   -7.6180008    427.24729  0.022238564  0.022300583            6 
 1602000    1.0086674    -7.669987    424.80447  0.022097611  0.022294244           15 
 1603000     1.013169   -7.6215833    426.32158  0.022162694  0.022287925           14 
 1604000   0.98500688   -7.6552599    427.39433   0.02220461   0.02228174            3 
 1605000   0.98312117   -7.6322133    427.25781  0.022183687  0.022275447           10 
 1606000   0.97034042   -7.6684901    427.03357  0.022158239   0.02226915            4 
 1607000    1.0013363   -7.6304436    426.74778   0.02212963  0.022262815            5 
 1608000   0.99837677   -7.6236373    427.17666  0.022138094  0.022256586            6 
 1609000   0.99975959   -7.6146176    428.10261  0.022172292   0.02225038            7 
 1610000   0.97788502   -7.6124027    427.94839  0.022150538  0.022244192            5 
 1611000   0.97498672   -7.6406553    427.52557  0.022114917  0.022237864            5 
 1612000   0.98794241   -7.6415211    427.49883  0.022099816  0.022231466            4 
 1613000   0.99995512   -7.6319263    426.84947  0.022052566  0.022225038            3 
 1614000   0.99652769   -7.6274186    427.88134   0.02209218  0.022218621            4 
 1615000   0.99220198   -7.6335212     427.7739  0.022072957  0.022212273            9 
 1616000    1.0014577   -7.6044126    428.14546  0.022078458   0.02220596            3 
 1617000   0.99493959    -7.657336    428.50167  0.022083162  0.022199611            4 
 1618000   0.97216641   -7.5801513    428.92665  0.022091402  0.022193302            5 
 1619000   0.96803955   -7.6413851    429.40928  0.022102598  0.022186972            8 
 1620000   0.99905479   -7.6118899    430.00654  0.022119678  0.022180672            6 
 1621000   0.97032517   -7.6517717    429.21365  0.022065271  0.022174398            2 
 1622000   0.97546022   -7.6266988    429.61236  0.022072152  0.022168012            2 
 1623000   0.98454696    -7.587217    430.64833  0.022111744  0.022161719            4 
 1624000   0.98551397   -7.6087577    431.00948   0.02211666  0.022155458            6 
 1625000   0.98795303   -7.6253598    430.22124  0.022062628  0.022149255            4 
 1626000   0.96875155   -7.6366635    429.85229   0.02203015  0.022143013            4 
 1627000   0.99727925    -7.615972     430.2218  0.022035536  0.022136795            6 
 1628000   0.97826076   -7.6531148    429.91088  0.022006085  0.022130538            5 
 1629000   0.96963457   -7.6496078     430.1633  0.022005489  0.022124206            4 
 1630000   0.97711859   -7.6462942    429.91955  0.021979527  0.022117859            4 
 1631000    0.9902225   -7.6384426    430.89732  0.022016009  0.022111555            2 
 1632000   0.99057631   -7.6141239    432.93098  0.022106361  0.022105248            5 
 1633000   0.97529246   -7.6097395     430.9912  0.021993836  0.022099006           14 
 1634000   0.99105675    -7.618328    432.46832  0.022055708  0.022092737            3 
 1635000    1.0082895   -7.6239289    431.70088  0.022003103  0.022086576            8 
 1636000   0.99305288   -7.6673878    431.01855  0.021954898  0.022080309            8 
 1637000   0.99364464   -7.6708957    431.16017  0.021948695  0.022073922            3 
 1638000   0.98226356   -7.6518175    432.11003   0.02198362  0.022067407            8 
 1639000    0.9898881   -7.6037925    432.61011  0.021995633  0.022060948            5 
 1640000   0.97987183   -7.6290018    430.89972  0.021895311  0.022054609            4 
 1641000   0.98889976   -7.6077579     431.0073  0.021887431  0.022048156            4 
 1642000    0.9971434   -7.6109778    432.18953  0.021934101  0.022041697            4 
 1643000   0.96616089   -7.6335871     431.4049  0.021880954   0.02203529            4 
 1644000   0.99804971   -7.6606125    432.90367  0.021943617  0.022028825            5 
 1645000   0.99407928   -7.6580675    431.47665  0.021857987  0.022022295            3 
 1646000   0.98541797   -7.7039134     430.8213  0.021811528  0.022015732            3 
 1647000   0.99866016   -7.6982975    430.53408  0.021783752  0.022009121            3 
 1648000   0.97405872   -7.6547473    431.68823  0.021828895  0.022002563            4 
 1649000   0.99875112   -7.6781769    431.13383  0.021787641  0.021995991            3 
 1650000    0.9937339   -7.6077759    433.06385  0.021871912  0.021989391            6 
 1651000   0.98168133   -7.6207665    432.68272  0.021839427  0.021982925            7 
 1652000   0.97931922   -7.6506115    432.28197  0.021805991  0.021976344            5 
 1653000   0.98896853   -7.6251918    433.73496  0.021866049  0.021969886            3 
 1654000   0.97958879   -7.6291545    434.03204  0.021867797  0.021963463           12 
 1655000   0.98887735    -7.644596     433.6347  0.021834577  0.021957018            8 
 1656000    0.9930368   -7.6551354    433.36399  0.021807769  0.021950519            2 
 1657000   0.99378195   -7.6836839    432.43598  0.021747937  0.021943907            2 
 1658000   0.99326295   -7.6870027    432.09145  0.021717504  0.021937219            7 
 1659000   0.99628517   -7.6804957    431.92007  0.021695804  0.021930558            3 
 1660000     1.009932   -7.6851227    432.58184  0.021715956  0.021923941            3 
 1661000    1.0087859   -7.6595216    433.03091  0.021725412  0.021917312            4 
 1662000   0.99468549    -7.644363    434.89737  0.021805925  0.021910721            3 
 1663000    1.0028402   -7.6916581    430.75948  0.021585462  0.021904033            7 
 1664000   0.98091714   -7.6676614    433.30522  0.021699981  0.021897238            6 
 1665000   0.97693266   -7.6595071    433.21884  0.021682625    0.0218905            9 
 1666000   0.97831342   -7.6263426     434.1796  0.021717667  0.021883909            5 
 1667000   0.99499217   -7.6421918    434.97893  0.021744598  0.021877336            2 
 1668000    0.9822666   -7.7030864    433.10948  0.021638163  0.021870682            4 
 1669000    0.9677495   -7.6348427    435.31081  0.021735111  0.021864022            6 
 1670000   0.97791286   -7.6381625    435.02462  0.021707815  0.021857478            3 
 1671000   0.98169004   -7.6831532    434.68438  0.021677856  0.021850871            3 
 1672000   0.98575924   -7.6572771    435.41278  0.021701195  0.021844214            3 
 1673000   0.97821168   -7.6612627    434.99247  0.021667288    0.0218377            5 
 1674000   0.97963548   -7.6963966    434.73658  0.021641606  0.021831112            3 
 1675000     0.963475   -7.6396868    435.26379  0.021654915  0.021824469            4 
 1676000   0.99433856   -7.6830039    435.31156   0.02164437  0.021817873            5 
 1677000   0.98440338    -7.667961    435.68544  0.021650042  0.021811216            3 
 1678000   0.97904654   -7.6994791    434.77098  0.021591725  0.021804542            5 
 1679000   0.99234167   -7.6323216    436.64731  0.021671993  0.021797859            3 
 1680000   0.97669671   -7.6881386    436.88944  0.021671103  0.021791247            5 
 1681000   0.97135322    -7.670642    436.50917   0.02163936  0.021784689            6 
 1682000   0.97583074   -7.6333073    438.14751  0.021707665  0.021778183            5 
 1683000   0.96212372    -7.607123    438.31212  0.021702918  0.021771717            2 
 1684000   0.98133983   -7.6678695    435.73376  0.021562439  0.021765239            4 
 1685000   0.99706732   -7.6920309    437.59744  0.021641812  0.021758711            7 
 1686000   0.97483298   -7.6378902    437.75246  0.021636638  0.021752272            3 
 1687000   0.96426352   -7.6611293    437.58382  0.021615482  0.021745838            2 
 1688000   0.97470622   -7.6691559     437.1487  0.021581196  0.021739327            3 
 1689000     0.986849   -7.6619003    437.22834  0.021572348  0.021732765            4 
 1690000   0.96876818   -7.6862057    438.16967     0.021606  0.021726172            5 
 1691000   0.97205413   -7.7145945    437.37098  0.021553863  0.021719589            3 
 1692000   0.99199779   -7.7133097    436.38808  0.021492714  0.021713015            3 
 1693000   0.98146233   -7.6887223     437.0987  0.021514998   0.02170645            2 
 1694000   0.96961938      -7.6758    437.70633  0.021532189  0.021699991            5 
 1695000   0.98749163    -7.708413    437.48533   0.02150862   0.02169334            4 
 1696000   0.97806689   -7.6930559     438.2964   0.02153579  0.021686707            6 
 1697000   0.97935171   -7.6724388    440.02121  0.021607798   0.02168014            6 
 1698000    1.0018403   -7.7076863    437.86171  0.021489091  0.021673591            4 
 1699000   0.97987806   -7.6831713    438.52236  0.021508847  0.021667125            2 
 1700000   0.97239017   -7.6654919    439.58585  0.021548326  0.021660567            5 
 1701000   0.97348882   -7.6811811    439.19306  0.021516415  0.021654031            3 
 1702000   0.99978408    -7.652199    438.84296  0.021486632   0.02164755            6 
 1703000   0.96945155   -7.6497115    438.99753  0.021481578  0.021640959            2 
 1704000   0.98458655    -7.691064    439.28818  0.021483186  0.021634404            2 
 1705000   0.99056757   -7.6623665    439.70129  0.021490777  0.021627906            6 
 1706000   0.94831791   -7.6568408    440.15504  0.021500344  0.021621456            3 
 1707000   0.97297503   -7.6897962    438.85056  0.021424066  0.021614996            7 
 1708000   0.96330576   -7.6792657    439.82868  0.021459245  0.021608505            7 
 1709000   0.98295678   -7.6855497    440.27388  0.021468397  0.021601986            5 
 1710000    1.0036549   -7.6969108    439.99591  0.021442296  0.021595481            5 
 1711000    0.9851856   -7.6358331    442.49901  0.021551676  0.021589112            3 
 1712000   0.98435003   -7.6667137    441.76403  0.021503311  0.021582748            4 
 1713000   0.97088269   -7.6846485    440.69842  0.021438919  0.021576387            3 
 1714000   0.99111968   -7.6759276    440.65758  0.021424425  0.021570058            4 
 1715000   0.96854952   -7.6846346    441.39138  0.021447589  0.021563589            4 
 1716000   0.97034324   -7.6887679    441.40807  0.021435901  0.021557066           10 
 1717000   0.99557349   -7.7172372    440.63452  0.021385873  0.021550593            5 
 1718000    1.0005045   -7.6835679    442.43997  0.021460999  0.021544053            2 
 1719000    0.9910651   -7.6555049    441.98085  0.021426258  0.021537618            4 
 1720000   0.99451886    -7.688086    441.54455  0.021392662  0.021531179            3 
 1721000   0.96796072   -7.6708818    442.68551  0.021435479   0.02152467            5 
 1722000   0.95061731   -7.6924925    440.98223  0.021340603  0.021518138            4 
 1723000   0.97320113   -7.7005735    441.82557  0.021369006  0.021511638            6 
 1724000   0.98579976   -7.7073526    441.01466  0.021317414  0.021505182            7 
 1725000    0.9655667   -7.7000429    441.47696  0.021327389  0.021498701            4 
 1726000   0.96152889   -7.7063261    441.46362  0.021314389  0.021492217            6 
 1727000   0.97073293   -7.6819033    442.57383  0.021355618  0.021485746            2 
 1728000   0.98728721   -7.6892369    442.98431  0.021363055  0.021479377            4 
 1729000   0.96125748   -7.7020848    443.23438  0.021362752  0.021472958            2 
 1730000   0.96012168   -7.6535594    443.74189   0.02137485  0.021466509            5 
 1731000   0.96834548   -7.6614141    444.46109  0.021397125  0.021460109            4 
 1732000   0.96928409   -7.6780455    442.52563  0.021291649  0.021453636            7 
 1733000   0.98509186    -7.691791     442.9706   0.02130076   0.02144716            9 
 1734000   0.98774688   -7.6606486    443.85043  0.021330759  0.021440709            3 
 1735000   0.96948871   -7.7052332    443.34268  0.021294077  0.021434258            5 
 1736000   0.96387722   -7.7086652    443.08013  0.021269208  0.021427898           10 
 1737000   0.96762584   -7.7068529    443.35722  0.021270256  0.021421594            5 
 1738000   0.98168495    -7.718312    444.69703  0.021322259  0.021415164            4 
 1739000   0.96968839   -7.7087879    444.63819  0.021307178  0.021408802            5 
 1740000   0.97136536   -7.6767876    446.01381  0.021360815  0.021402451            7 
 1741000   0.98335902   -7.7082997    445.43542  0.021320861  0.021396106            5 
 1742000   0.97652492   -7.7057232    445.95775  0.021333608   0.02138975            4 
 1743000    1.0013499   -7.7252236    444.66084  0.021259363  0.021383349            5 
 1744000   0.97710469   -7.7154792    445.28882   0.02127718  0.021376861            3 
 1745000   0.96020331   -7.7023677    445.03542  0.021252885  0.021370406            4 
 1746000   0.95472173   -7.6918643     445.3903  0.021257651  0.021364061            4 
 1747000   0.96503572   -7.6609791    446.36029  0.021291752  0.021357722            4 
 1748000   0.96345541   -7.6548379    446.09211  0.021266786  0.021351315            5 
 1749000   0.99095567   -7.7004443    446.01329  0.021250871  0.021344871            8 
 1750000   0.95202156   -7.6887906    445.94502  0.021235477  0.021338444            6 
 1751000   0.96326169   -7.6801044    445.79466  0.021216194  0.021332101            3 
 1752000   0.98602994   -7.7040454    445.84753  0.021206599  0.021325723            5 
 1753000   0.95827423   -7.6977059    446.34464  0.021218133  0.021319348            7 
 1754000   0.97383907   -7.7173806    445.81504  0.021180874  0.021312979            8 
 1755000   0.98887997   -7.6379985    447.17692  0.021233472  0.021306605            5 
 1756000   0.96001082   -7.6752042    447.80886  0.021251369  0.021300238            5 
 1757000   0.96393896   -7.7358371    446.86451  0.021194484  0.021293835           12 
 1758000   0.96485398   -7.7023229    446.42911  0.021161789  0.021287462            6 
 1759000   0.99467833   -7.6886177    447.37595  0.021194616  0.021281116            8 
 1760000   0.94906448   -7.7085629    446.71997  0.021151514  0.021274819           27 
 1761000    0.9379756   -7.6736132     449.9807  0.021293806  0.021268514            7 
 1762000    0.9787722   -7.7011945    448.44784  0.021209224  0.021262242            6 
 1763000   0.98234273   -7.6921164    449.01425  0.021223967  0.021255907            3 
 1764000   0.96183413   -7.7030079    447.58281  0.021144313  0.021249622            4 
 1765000   0.97507473    -7.731947    448.22437  0.021162623  0.021243321            9 
 1766000   0.95533891   -7.7087314    448.63454  0.021169995  0.021237068            8 
 1767000    0.9874497   -7.7245172    448.36735  0.021145413  0.021230776            4 
 1768000   0.98756052   -7.7066636    449.05308  0.021165775  0.021224476            4 
 1769000   0.97222289   -7.6954343    449.83012  0.021190415  0.021218245            6 
 1770000   0.98469739    -7.719276    448.26709  0.021104854  0.021211972            3 
 1771000   0.97743757   -7.7481217    448.46954  0.021102463  0.021205633            6 
 1772000   0.95735198   -7.7180389    450.22771  0.021173237  0.021199318            3 
 1773000   0.96245215   -7.7076635    450.22333  0.021161089  0.021193089            6 
 1774000   0.97193542   -7.7399051    449.05667  0.021094357  0.021186793            8 
 1775000   0.95951061   -7.6901384    450.61747   0.02115575   0.02118055            7 
 1776000   0.97426695   -7.7048546    449.97535  0.021113708   0.02117436            4 
 1777000    0.9673386   -7.7102098    450.81162  0.021141044  0.021168138            4 
 1778000   0.96320058   -7.7109304    450.46097  0.021112719  0.021161904            3 
 1779000   0.95830702   -7.7520302     450.9387   0.02112323  0.021155751            6 
 1780000   0.96759595   -7.6854347    451.97897  0.021160064  0.021149571            7 
 1781000   0.97379049   -7.7140622    450.40595  0.021074581  0.021143438            5 
 1782000   0.97200135   -7.7141479    451.66505  0.021121635  0.021137257            5 
 1783000   0.95815514   -7.7711307    449.88922  0.021026791  0.021130951            6 
 1784000   0.98023365    -7.744327    449.93928  0.021017343  0.021124703            8 
 1785000   0.96608245   -7.6761461    451.61441  0.021083772  0.021118484            8 
 1786000   0.96414255   -7.6858102    451.31158  0.021057838  0.021112262            2 
 1787000   0.96774824   -7.7014447    451.05445  0.021034063  0.021106038            2 
 1788000    0.9778612   -7.7218685    451.61392  0.021048374   0.02109985           13 
 1789000   0.97191441    -7.718091    450.99656  0.021007852  0.021093661            6 
 1790000   0.97503215    -7.714829    451.88842  0.021037636  0.021087454           10 
 1791000   0.96019573   -7.7057533    452.35345  0.021047527  0.021081217            4 
 1792000   0.96838555   -7.7046796    452.18671  0.021028028  0.021074988            5 
 1793000   0.96010459   -7.7314716    451.64407   0.02099108   0.02106879            2 
 1794000   0.96041555   -7.7064766    452.32409  0.021010967  0.021062544            3 
 1795000   0.97744458   -7.6901066    452.84133  0.021023274  0.021056289            4 
 1796000    0.9647707   -7.6827583    453.40258  0.021037611  0.021049994            5 
 1797000   0.96860304   -7.7049911    452.19217  0.020969772  0.021043669            4 
 1798000   0.94839299   -7.7044847     452.9753  0.020994406  0.021037349            5 
 1799000   0.95282745   -7.7018732    451.44642  0.020911915  0.021031111            2 
 1800000   0.95054796    -7.700589    453.24787  0.020983698  0.021024941            3 
 1801000   0.98288158   -7.7099074    452.37553  0.020931683  0.021018736            3 
 1802000   0.95399119    -7.700141    452.90844  0.020944711  0.021012488            3 
 1803000   0.99057287   -7.7591986    452.91816  0.020933544  0.021006292           10 
 1804000   0.95656179   -7.7325288    453.39226  0.020943841  0.021000058            5 
 1805000    0.9750869    -7.691247    453.26198  0.020926223  0.020993791            4 
 1806000   0.95027279   -7.6956419    455.70802  0.021027502  0.020987465           11 
 1807000   0.97304352   -7.7404433    453.37559  0.020908301  0.020981217            3 
 1808000   0.95695281   -7.6788722     455.2299  0.020982204  0.020974951           15 
 1809000   0.99328233   -7.7385863    453.49292   0.02089059  0.020968624            5 
 1810000    0.9610178   -7.7280937    454.37435  0.020919629  0.020962389            5 
 1811000   0.95626972   -7.6993048    455.09228  0.020941114  0.020956136            3 
 1812000   0.98050438   -7.6939461    454.51223   0.02090288  0.020949918            5 
 1813000     0.964351   -7.7307594     454.5143  0.020891446  0.020943675            7 
 1814000   0.94142117   -7.7389078    455.11506  0.020907528  0.020937467            3 
 1815000   0.94579716    -7.724898    454.31413  0.020859235  0.020931159            4 
 1816000   0.93815698   -7.7337831    454.96811  0.020877758   0.02092491            6 
 1817000   0.96029908   -7.7113045    456.54023  0.020938371  0.020918768            3 
 1818000   0.96867011    -7.730206    455.87556  0.020896386  0.020912649            4 
 1819000   0.94914119   -7.7119005    456.70628  0.020922956  0.020906549            4 
 1820000   0.96265778   -7.7265992    455.94869  0.020876771   0.02090042            7 
 1821000    0.9480857   -7.7343512    456.51567  0.020891254  0.020894223           16 
 1822000   0.94994513   -7.7312111    456.84004  0.020894623  0.020888054            4 
 1823000   0.94456065   -7.7064246    456.67384  0.020875564  0.020881861            2 
 1824000   0.96046873   -7.7269808    455.41023  0.020806388  0.020875698            8 
 1825000   0.97567563   -7.7318969    456.37204  0.020838906  0.020869501            4 
 1826000   0.94236126   -7.7604839    455.99599  0.020810332  0.020863274           11 
 1827000   0.94395113   -7.7386057    456.36915  0.020815962  0.020856959            7 
 1828000   0.96246729    -7.735458     455.7439  0.020776071  0.020850609            8 
 1829000   0.96275236   -7.7380148    455.40678  0.020749352  0.020844288            4 
 1830000   0.96756428   -7.7515951    455.14013  0.020725871  0.020837923           10 
 1831000   0.95290549   -7.7462611    456.27532  0.020766217  0.020831574            8 
 1832000    0.9377796   -7.7161604    457.01596  0.020788572    0.0208253            5 
 1833000   0.95380211   -7.7274725     456.5762  0.020757238   0.02081898            4 
 1834000   0.96390197   -7.7404684    456.82037  0.020757014  0.020812702            5 
 1835000   0.95371079   -7.7515254    456.09613  0.020712812  0.020806367            4 
 1836000   0.93675669   -7.7596416    456.41903  0.020716187  0.020800076            5 
 1837000   0.97493714    -7.733097    457.42144  0.020750383  0.020793835            7 
 1838000   0.94007988   -7.7214845     457.5881  0.020746649  0.020787544            3 
 1839000   0.96233022   -7.7268269    456.87436  0.020703025  0.020781281            5 
 1840000    0.9464023   -7.7366716     455.9613  0.020650421   0.02077499            3 
 1841000   0.93833821   -7.7191879     458.4132   0.02075019  0.020768708            3 
 1842000   0.96173945   -7.7171468    460.10461  0.020815446   0.02076253            3 
 1843000   0.96176669   -7.7477386    458.03546  0.020710592   0.02075634            4 
 1844000    0.9496141   -7.7362481    459.13364  0.020748989    0.0207501            2 
 1845000   0.96129246   -7.7854849    457.17098  0.020649096  0.020743785            5 
 1846000   0.96023046   -7.7190087    459.28947  0.020733544  0.020737553            4 
 1847000   0.95121445   -7.7309454     458.5321  0.020688147  0.020731329            3 
 1848000   0.94815092   -7.7651949    458.23686  0.020663639   0.02072508            9 
 1849000   0.94697332    -7.751437    458.81926  0.020678712  0.020718869            5 
 1850000   0.96562589    -7.749028    458.33345  0.020645651  0.020712565            3 
 1851000   0.94704357   -7.7518062    458.60564  0.020646751   0.02070627            4 
 1852000    0.9463927   -7.7722368    457.95128  0.020606159  0.020699903            9 
 1853000     0.977469   -7.6882966    459.48721  0.020664113  0.020693603            4 
 1854000   0.96484561    -7.763198    457.56629  0.020566626  0.020687321            8 
 1855000   0.93857511   -7.7194339    459.82005  0.020656786  0.020681028            6 
 1856000   0.94685214   -7.7523748    458.54838  0.020588559  0.020674707            4 
 1857000    0.9698657   -7.7416151    458.99368  0.020597455  0.020668429            5 
 1858000   0.95091113    -7.739914    459.69567  0.020617854  0.020662092            2 
 1859000   0.94469243   -7.7464281     458.5848  0.020556966  0.020655782            5 
 1860000   0.94693773   -7.7216374    459.19958  0.020573458  0.020649463            7 
 1861000    0.9608658   -7.7162301    459.20229  0.020562524  0.020643226            8 
 1862000   0.94774438   -7.7544402    458.28308  0.020510342  0.020636938           10 
 1863000    0.9537837   -7.7665392    458.23304  0.020497094  0.020630524            8 
 1864000   0.94709608   -7.7624352    459.60204  0.020547302  0.020624061            6 
 1865000   0.95481162   -7.7264096    460.24785  0.020565141   0.02061774            3 
 1866000   0.93240441   -7.7308787    459.47815  0.020519746  0.020611369            5 
 1867000   0.93357931   -7.7152046    459.19421  0.020496082   0.02060503            2 
 1868000   0.94989985   -7.7302809    460.23951  0.020531741  0.020598682            3 
 1869000   0.95558613   -7.7137753    460.88179  0.020549393  0.020592366            5 
 1870000   0.95420163   -7.7295215    460.32941  0.020513788  0.020586053            6 
 1871000   0.97272567   -7.7643588     459.6978  0.020474693  0.020579714            3 
 1872000   0.94712806   -7.7582158      460.914  0.020517895  0.020573372            5 
 1873000   0.96449625   -7.7349731    460.84103  0.020503694  0.020567075            6 
 1874000   0.94313032   -7.7495702    460.93125  0.020496765   0.02056073            6 
 1875000   0.96333205   -7.7756226    461.20781  0.020498125  0.020554401            7 
 1876000   0.98206159   -7.7517128     461.3639  0.020494132  0.020548073            4 
 1877000    0.9405092   -7.7722132    461.55698  0.020491786  0.020541785            3 
 1878000   0.93667009   -7.7685465    460.36673  0.020428059  0.020535497            6 
 1879000   0.91872109   -7.7588999    461.85623  0.020483246  0.020529222           13 
 1880000   0.95112676     -7.78739    460.53325  0.020413708  0.020522878            7 
 1881000   0.94771939   -7.7843356    461.75184  0.020456842  0.020516505            4 
 1882000   0.95179106   -7.7789672    461.79189  0.020447746  0.020510299           17 
 1883000   0.95070335   -7.7455971    461.92937  0.020442971  0.020504028            3 
 1884000   0.94011234   -7.7145562    462.64067  0.020463582  0.020497765            7 
 1885000   0.94823248   -7.7346119    462.74593   0.02045738  0.020491503            7 
 1886000   0.95203684   -7.7442774     462.0359   0.02041516  0.020485238            9 
 1887000   0.95267657   -7.7231156    462.75281  0.020436001  0.020478982            3 
 1888000   0.95774717    -7.768674    462.36835  0.020408208  0.020472741           10 
 1889000   0.92957724   -7.7632792    461.78061  0.020371476    0.0204665           13 
 1890000   0.94710244   -7.7702332    462.34206  0.020385453  0.020460175            2 
 1891000   0.95426993   -7.7691787    462.24196  0.020370261  0.020453799            7 
 1892000     0.956414   -7.7827627    462.35775  0.020364594  0.020447458            8 
 1893000   0.95255536   -7.7940479    461.05423  0.020296453   0.02044107            6 
 1894000   0.96634206   -7.8251204    461.57725  0.020308749  0.020434668            6 
 1895000   0.93658655   -7.8205457    461.62286  0.020300038  0.020428285            6 
 1896000   0.93574377   -7.7942564    463.34427  0.020364991  0.020421886           10 
 1897000    0.9718957   -7.7881708    463.04883  0.020341277  0.020415583            4 
 1898000   0.95318785   -7.7763883     461.6566  0.020269433  0.020409264            3 
 1899000   0.94569574   -7.7740729    461.96053  0.020272096  0.020402879            5 
 1900000   0.94324736   -7.7861545    463.29191  0.020319821  0.020396459            5 
 1901000   0.95872116   -7.7464012    463.77512  0.020330314  0.020390166            8 
 1902000   0.94983718   -7.8002308    462.44059  0.020261155  0.020383928            5 
 1903000   0.94933241   -7.7219694    463.67299  0.020304475  0.020377656            9 
 1904000   0.95456556   -7.7639047    463.75037  0.020297198  0.020371419            4 
 1905000   0.94625183   -7.7644076    464.86789  0.020335428  0.020365117           10 
 1906000   0.94790339    -7.776375     463.5715  0.020268079  0.020358754            9 
 1907000   0.94191599   -7.7969224    463.77397  0.020266298  0.020352368            6 
 1908000   0.93247827   -7.7463255    464.77317  0.020299317  0.020346047            4 
 1909000   0.94040493   -7.7528355    463.82531  0.020247307   0.02033972            4 
 1910000     0.949546   -7.7590329    463.04877  0.020202826  0.020333393            2 
 1911000   0.93504657   -7.7824401    463.52058  0.020212829  0.020326952            3 
 1912000   0.93811729   -7.7814056    462.73136  0.020167859  0.020320592            6 
 1913000   0.93554769   -7.7930647     464.3043  0.020225836  0.020314235            7 
 1914000   0.93125191   -7.7429813    465.16446   0.02025272  0.020307929           11 
 1915000   0.95210686   -7.7424085    465.62698  0.020262271  0.020301658            7 
 1916000   0.93288741   -7.7805637    464.16803  0.020188241  0.020295405            3 
 1917000   0.94712906   -7.7951131    464.53754  0.020193772  0.020289096            6 
 1918000   0.93841293    -7.790165    464.35206  0.020175185  0.020282731            7 
 1919000   0.95274652   -7.7895056    464.67224  0.020178576  0.020276388            9 
 1920000   0.93332756   -7.8078498    464.94252  0.020179797  0.020269984           10 
 1921000   0.93154932   -7.7919432     465.2501  0.020182635  0.020263563            6 
 1922000   0.93173144   -7.7802191    465.39075  0.020178232  0.020257176            6 
 1923000   0.94390088   -7.7776791    465.88748  0.020189265  0.020250848            5 
 1924000   0.93856497   -7.7838352    465.70067  0.020170681  0.020244564            5 
 1925000   0.94170994   -7.7749354     465.6566  0.020158294  0.020238312            4 
 1926000   0.93151178   -7.7336388    466.03811  0.020164335  0.020232073            3 
 1927000   0.95823261   -7.7475114    467.25115  0.020206329  0.020225832           10 
 1928000   0.93853799   -7.7477688    466.63706  0.020169306  0.020219614            5 
 1929000   0.94645925   -7.7983562    464.78656  0.020078908  0.020213263            5 
 1930000   0.92513112    -7.768542    467.65511  0.020192362  0.020206902            7 
 1931000   0.94168439   -7.8053538    466.82651  0.020146146   0.02020055            7 
 1932000   0.92982214   -7.7683263    466.78287  0.020133837  0.020194268            4 
 1933000   0.96701483     -7.78091    466.28439  0.020101931  0.020188006            5 
 1934000   0.92425726   -7.7939118     465.7037  0.020066516  0.020181675            3 
 1935000   0.96845084   -7.8124885    466.56407  0.020093199   0.02017531            5 
 1936000   0.94609985   -7.8076667    467.17428  0.020109086  0.020168942            3 
 1937000   0.95404129   -7.8019357    466.44088  0.020067152  0.020162562            6 
 1938000   0.92531197    -7.796251    466.18889  0.020045962  0.020156181            6 
 1939000   0.91628755    -7.769988    467.30791  0.020083716  0.020149857            5 
 1940000    0.9395954   -7.7737046    466.66137  0.020045591  0.020143511            6 
 1941000   0.96836667    -7.812109    467.21797  0.020059161  0.020137144            5 
 1942000   0.94103547    -7.796806    467.20511   0.02004828  0.020130757            3 
 1943000   0.94973461   -7.8011913    467.84596  0.020065447  0.020124384            3 
 1944000   0.94263444   -7.7736282    468.02405   0.02006276  0.020118032            6 
 1945000   0.92565903   -7.7979907    468.73377  0.020082852  0.020111759            2 
 1946000   0.93135679   -7.8013888    467.77395   0.02003143  0.020105512            3 
 1947000    0.9267321    -7.792986    468.56515  0.020055005  0.020099234            6 
 1948000   0.93701889    -7.787463    468.75491  0.020052828  0.020092958            5 
 1949000   0.95800332   -7.7855262    468.28293  0.020022359  0.020086756            5 
 1950000   0.91995063    -7.786685     467.6754  0.019986128   0.02008052            4 
 1951000   0.93465863   -7.7996225    468.14231  0.019995827  0.020074231            7 
 1952000   0.95069664   -7.7773053    468.44833  0.019998648  0.020067871            4 
 1953000   0.95937163   -7.7944507    467.89834   0.01996494  0.020061518           10 
 1954000   0.92524837   -7.7962761     470.1221  0.020049561  0.020055191            5 
 1955000   0.94133884   -7.7767896     469.5218  0.020013717  0.020048885            4 
 1956000   0.90689344   -7.7702468    469.50885  0.020002933  0.020042622            6 
 1957000   0.94633305   -7.7990267    468.50493  0.019949963  0.020036333            4 
 1958000   0.92882016   -7.7706551    470.23969  0.020013606  0.020030083            4 
 1959000   0.93570072    -7.781307    469.78826  0.019984187  0.020023854            5 
 1960000    0.9130059   -7.8121563    469.31976  0.019954071  0.020017571            8 
 1961000   0.92813812   -7.7748047    470.56566  0.019996841  0.020011282            6 
 1962000   0.93682918   -7.7530997    470.60004  0.019988109     0.020005           10 
 1963000    0.9260086   -7.8028865    471.01528  0.019995555  0.019998744            8 
 1964000   0.92211833   -7.7785945    468.78792  0.019890865  0.019992422            7 
 1965000   0.93291377   -7.7565609    471.31432  0.019987884  0.019986147            4 
 1966000   0.91501619    -7.801662    469.21239  0.019888623  0.019979881           11 
 1967000   0.95153318   -7.7974434    469.91782  0.019908398  0.019973612            5 
 1968000   0.93783152   -7.7939698    471.30533  0.019957035  0.019967383            9 
 1969000   0.92171352   -7.8130916    468.83848  0.019842495  0.019961134            4 
 1970000   0.94332954   -7.7745597    470.93487  0.019921103    0.0199549            8 
 1971000   0.94469904   -7.8061165    469.87916  0.019866361  0.019948673           12 
 1972000   0.94411224   -7.8256258    471.12816  0.019909067  0.019942414            2 
 1973000   0.93831585   -7.8046961     470.7827  0.019884385  0.019936135            3 
 1974000   0.96427885   -7.8298885    470.03874  0.019842905  0.019929905            5 
 1975000   0.94269571   -7.8092589    471.21984  0.019882694  0.019923663            3 
 1976000   0.93751058   -7.7926981    471.45917  0.019882725  0.019917435            4 
 1977000   0.96536347   -7.7943204    470.94342  0.019850928  0.019911189            9 
 1978000   0.94101538   -7.7942201    471.51553  0.019864995   0.01990498            7 
 1979000   0.90637206   -7.8055363    472.07681  0.019878592  0.019898758            6 
 1980000   0.93945907   -7.7850294    472.63024  0.019891845  0.019892562            4 
 1981000   0.90239675   -7.7997716    471.61732  0.019839194   0.01988636            3 
 1982000   0.94175324   -7.7844967    470.89797  0.019798939  0.019880085            4 
 1983000   0.93331514   -7.7884282    470.91225  0.019789555  0.019873791            2 
 1984000   0.93958283   -7.8253319    471.46428  0.019802767  0.019867478           17 
 1985000   0.92948138   -7.8363054    471.79962  0.019806869  0.019861157            4 
 1986000   0.93875022   -7.8078249    472.12031  0.019810352  0.019854846           15 
 1987000   0.93997107   -7.8283784    472.27755  0.019806976  0.019848505            5 
 1988000   0.93709854   -7.8061455    472.60053  0.019810552   0.01984223            6 
 1989000   0.94248428   -7.8101488    471.97986  0.019774588  0.019835971            4 
 1990000   0.93163231   -7.8441857    471.45537  0.019742687  0.019829632            6 
 1991000   0.94580603   -7.8137937    472.66194  0.019783272  0.019823238            7 
 1992000   0.92967563   -7.8598193    470.84569   0.01969736  0.019816917            3 
 1993000   0.93836239   -7.8325102    471.60085  0.019719052   0.01981051            4 
 1994000    0.9152811   -7.8527387    470.88732  0.019679343  0.019804131            6 
 1995000   0.94648409   -7.7941436     472.7712   0.01974817  0.019797783            4 
 1996000   0.93429598   -7.8337089    471.78612  0.019697149  0.019791372            3 
 1997000   0.94789748   -7.8197538    472.66188  0.019723831  0.019784988           11 
 1998000   0.93826268   -7.8076471    473.43201   0.01974608  0.019778654            8 
 1999000   0.93603129   -7.8455013     472.5658  0.019700092  0.019772273           14 
 2000000   0.95198022    -7.830388    469.53772  0.019564072   0.01976584            7 
 2001000   0.94265138   -7.8355395    471.72664  0.019645454  0.019759381            7 
 2002000   0.95430185   -7.8302557    472.32883  0.019660707  0.019753045            3 
 2003000   0.94447177   -7.8035652    472.88383  0.019673982  0.019746722            5 
 2004000   0.92046177   -7.8318811    473.64861  0.019695967  0.019740332            2 
 2005000   0.94168481   -7.8237344     472.6907   0.01964633  0.019733927            4 
 2006000   0.93231347   -7.7870329    471.97362  0.019606747  0.019727533            5 
 2007000   0.91878337   -7.7867044    473.42265  0.019657144   0.01972123            5 
 2008000   0.91069185   -7.7976325    473.25442  0.019640373  0.019714849            4 
 2009000   0.93819271   -7.8143589    473.28281  0.019631774  0.019708454            5 
 2010000   0.92677356   -7.8123853    472.92441  0.019607148  0.019701992            8 
 2011000   0.93389802   -7.8399112    473.02626  0.019601619  0.019695513            3 
 2012000   0.91788177   -7.8348764    472.21941  0.019558458  0.019689029            6 
 2013000   0.93042134   -7.8259678    473.56847   0.01960459  0.019682649            6 
 2014000   0.93702745    -7.843231    473.41095  0.019588338  0.019676158            4 
 2015000    0.9202045    -7.835735    473.64587  0.019588332  0.019669712            5 
 2016000   0.92987371   -7.8312933    473.99664  0.019593115  0.019663346            9 
 2017000   0.93209642   -7.8059075    473.86521  0.019577971  0.019656957           19 
 2018000    0.9094808   -7.8316675    474.20656  0.019582366  0.019650554           19 
 2019000    0.9259317   -7.7941575    474.05239  0.019566303  0.019644224            5 
 2020000   0.91954375   -7.8539796    473.64662  0.019539877  0.019637827           13 
 2021000   0.92448174   -7.8456764    473.61067  0.019528726  0.019631418            3 
 2022000   0.92317675   -7.8163978    474.46658  0.019554343  0.019625047            4 
 2023000   0.91780553   -7.8007828    475.62198  0.019592271  0.019618694            6 
 2024000   0.94268687   -7.8221071    474.88897  0.019552412  0.019612325            4 
 2025000   0.91781858    -7.805919    473.57162  0.019488544  0.019605913            3 
 2026000   0.92799604   -7.8555159     474.1154  0.019501292  0.019599449            6 
 2027000   0.92999485   -7.8093931    474.85961  0.019522267  0.019593056            8 
 2028000   0.93198445   -7.8374099    474.78861  0.019509723  0.019586674            6 
 2029000   0.92192524   -7.7817484    476.75989   0.01958107  0.019580332            3 
 2030000   0.92699565   -7.8254567    475.38935  0.019515162  0.019573951            3 
 2031000   0.91538419    -7.828241    475.03572  0.019491044   0.01956761            3 
 2032000   0.92602228   -7.8501407    473.91758  0.019435596  0.019561197            5 
 2033000   0.92998431   -7.8093716    475.31098  0.019483152  0.019554787            5 
 2034000   0.94140024   -7.8478282    475.38592  0.019476644  0.019548383            4 
 2035000   0.91086637   -7.8278097    475.80278  0.019484143     0.019542           13 
 2036000   0.90762766   -7.8117196    476.05897   0.01948506   0.01953561            6 
 2037000   0.91612667   -7.8128869    475.83396  0.019466289  0.019529277            2 
 2038000   0.92355677   -7.8237962    475.69315  0.019450979  0.019522935            4 
 2039000   0.92531412   -7.8479491    475.29262   0.01942507  0.019516547           16 
 2040000   0.91078796   -7.8309253    474.54599  0.019385049  0.019510106           13 
 2041000    0.9091613   -7.8385623     473.7071  0.019341299  0.019503632           13 
 2042000   0.92949339   -7.8794026    474.20017  0.019351949  0.019497154            8 
 2043000   0.90325913    -7.869749    475.60965  0.019399969  0.019490648            9 
 2044000   0.92139913   -7.8888345    474.15063  0.019330994  0.019484128            6 
 2045000   0.91730794    -7.887723    475.19057  0.019363919  0.019477619            3 
 2046000   0.92572076   -7.8914267    474.33294  0.019319523  0.019471133            6 
 2047000   0.91307416   -7.8473577    476.26287  0.019388653    0.0194646            4 
 2048000   0.92560965   -7.8231106    476.44532   0.01938661  0.019458133            4 
 2049000    0.9389274   -7.8345286    476.30297  0.019371359  0.019451703            8 
 2050000    0.9174364   -7.8562353    475.21152  0.019317541  0.019445259            8 
 2051000   0.91400624   -7.8216828    477.17748  0.019388001  0.019438877            4 
 2052000   0.94191499   -7.8488457     475.8838  0.019326015  0.019432442            4 
 2053000    0.9239432    -7.877811    475.78271  0.019312498  0.019426017           10 
 2054000    0.9247889   -7.8639128    476.75446  0.019342521  0.019419532            7 
 2055000     0.927538   -7.8891989    475.60728  0.019286589  0.019413026            3 
 2056000   0.94182414   -7.8941435    475.99493   0.01929292  0.019406487            3 
 2057000   0.91781681   -7.8573561    476.49484  0.019303793  0.019400012            8 
 2058000   0.90127863   -7.8478814     476.5696  0.019297441   0.01939361            3 
 2059000   0.90784916   -7.8590975    475.79937  0.019256895  0.019387177            4 
 2060000   0.92756165   -7.8645067    476.91443  0.019292655  0.019380705            6 
 2061000    0.9186977    -7.873205     475.8934   0.01924201  0.019374274            3 
 2062000   0.91164715   -7.8682404     475.1528  0.019202748  0.019367784            7 
 2063000   0.93489788   -7.8674296     475.3171  0.019200077  0.019361258           15 
 2064000   0.92518279   -7.8668642    476.35463  0.019232664  0.019354745            3 
 2065000   0.91605697   -7.8511491     476.2905  0.019220763  0.019348311            5 
 2066000   0.92405624     -7.84679     476.8889  0.019235596  0.019341806            5 
 2067000   0.92158048   -7.8491199    477.12548  0.019235828  0.019335299            6 
 2068000   0.92697211   -7.8464826    476.61625  0.019206006  0.019328795            4 
 2069000   0.90813978   -7.8473607    476.20909  0.019180324  0.019322334            7 
 2070000   0.92829029   -7.8408029     476.8825  0.019198168  0.019315864           17 
 2071000   0.91396979   -7.8635734    477.85362  0.019227974   0.01930943            3 
 2072000   0.92575196   -7.8394518    476.96019  0.019182762  0.019302983           18 
 2073000   0.91825761   -7.8275683    478.81634  0.019248124  0.019296533           38 
 2074000   0.92627415   -7.8773285    477.52222  0.019186846  0.019290139           22 
 2075000   0.91365033   -7.8459881    478.25123  0.019206877  0.019283707           40 
 2076000   0.92353569   -7.8539361    478.42595  0.019204638  0.019277308           25 
 2077000   0.91564024   -7.8710757    478.22797  0.019187449  0.019270897           32 
 2078000    0.9235528   -7.8595052    478.57162  0.019191996   0.01926448           11 
 2079000   0.93631754   -7.8479707     478.2048  0.019168061  0.019258056            5 
 2080000   0.92672933   -7.8949795    477.45548  0.019128825  0.019251592           13 
 2081000   0.93196253   -7.8895604    478.07654  0.019144503  0.019245142            8 
 2082000   0.91558395    -7.862381    479.14143  0.019177931  0.019238762           10 
 2083000   0.90476014   -7.8319918      479.015  0.019163666  0.019232417            5 
 2084000    0.9245487   -7.8674519    478.03763  0.019115388  0.019226049           14 
 2085000   0.92068078   -7.8714505    478.34426  0.019118475  0.019219619           12 
 2086000   0.92655271   -7.8834415    477.95807  0.019093882   0.01921316           18 
 2087000   0.92367436   -7.8773086    478.79356  0.019118095  0.019206649           11 
 2088000   0.93511453   -7.9056484    478.67489  0.019104202  0.019200213            6 
 2089000    0.9201094   -7.8619735    478.17387  0.019075071  0.019193784            8 
 2090000   0.93501353   -7.8681511    479.06694  0.019101552    0.0191874            6 
 2091000    0.9051082   -7.8473912    480.89769  0.019165379   0.01918102           14 
 2092000   0.89335778   -7.8476464    480.65596  0.019146588  0.019174666           11 
 2093000   0.92176745   -7.8516451    480.73638  0.019140643  0.019168279           11 
 2094000   0.91588402   -7.8550808    479.26523  0.019072956  0.019161937            4 
 2095000   0.91254783   -7.8705547    479.77125   0.01908398  0.019155627           14 
 2096000   0.94112105   -7.8717525    479.89804  0.019079916  0.019149244            8 
 2097000   0.92977158   -7.8835094    479.05311   0.01903724  0.019142913           20 
 2098000   0.91214963   -7.8618909     480.3396  0.019079266   0.01913656           20 
 2099000   0.91175708   -7.8720693    480.30679  0.019068874  0.019130207            8 
 2100000   0.93068029   -7.8635827    481.05906  0.019089645  0.019123824           14 
 2101000   0.91767899   -7.8513023    480.46925  0.019057165  0.019117494           16 
 2102000   0.90967637   -7.8798424    479.61642  0.019014289  0.019111108            7 
 2103000    0.9086399   -7.9121875    479.19822  0.018988676  0.019104668            7 
 2104000   0.91460636   -7.8642996    480.37169  0.019026128  0.019098293            7 
 2105000   0.91427543   -7.8551837    480.41345  0.019018743  0.019091964            7 
 2106000    0.9230556   -7.8553135    481.93368  0.019069867  0.019085623           10 
 2107000   0.90159501   -7.8468093    482.09624  0.019067246  0.019079297            6 
 2108000   0.93949565   -7.8982959    481.17823   0.01902191  0.019072966            4 
 2109000   0.91533301   -7.8435636     482.1891  0.019052833  0.019066699            2 
 2110000   0.91738256   -7.8619396    480.84456  0.018990702  0.019060439            6 
 2111000   0.94620001   -7.8859868    481.38397  0.019002999  0.019054178           10 
 2112000   0.92333219   -7.8736212    481.52098  0.018999407  0.019047879            6 
 2113000   0.90900933    -7.851448    481.57266  0.018992454  0.019041597            6 
 2114000   0.92180622   -7.8846657     480.5304  0.018942384   0.01903529            4 
 2115000   0.92790075   -7.8845027    481.65893  0.018977893  0.019028959            7 
 2116000   0.89626087   -7.8776029    480.56912  0.018926005  0.019022683           10 
 2117000   0.91718741   -7.8534531     482.9437  0.019010538   0.01901638           11 
 2118000   0.92687535   -7.8688313    481.92194  0.018961361  0.019010146            4 
 2119000   0.90362311   -7.8758731    482.52644  0.018976185  0.019003903            8 
 2120000   0.90154602   -7.9101949    480.80847  0.018899704  0.018997585            4 
 2121000   0.91058847    -7.858894    482.31406  0.018949947  0.018991214           14 
 2122000   0.91728013   -7.9011575    481.54535  0.018910829  0.018984851            3 
 2123000   0.91174441   -7.8735372    481.30408  0.018892451  0.018978513            6 
 2124000   0.92360567   -7.8200388    482.85205   0.01894429  0.018972198            3 
 2125000   0.92440446    -7.813619    481.47662  0.018881436  0.018965891           11 
 2126000   0.90657834   -7.8529153    482.93289  0.018929637  0.018959598            5 
 2127000   0.89903543   -7.9000569    482.09471  0.018887898  0.018953344            5 
 2128000   0.90747631   -7.8803579    481.90702  0.018871672  0.018947023            8 
 2129000   0.91548919   -7.8563089    482.33062  0.018879389  0.018940735           13 
 2130000    0.9145053   -7.8902568    482.87343  0.018891762  0.018934383           11 
 2131000   0.91853936   -7.8824803    482.34345  0.018862172  0.018928057           43 
 2132000    0.9178491   -7.8828911    483.40957  0.018894996   0.01892173           29 
 2133000   0.91580372   -7.8646577    485.34225  0.018961644  0.018915454           21 
 2134000   0.89149976   -7.8507459    483.88977  0.018896039  0.018909165            8 
 2135000   0.91869318   -7.8559289    483.69118  0.018879437  0.018902902           14 
 2136000   0.90433527   -7.9105424    482.93361  0.018841043  0.018896611           27 
 2137000   0.93124612   -7.8604942    483.04582  0.018836602  0.018890336           31 
 2138000   0.92242967   -7.8846457    482.98398  0.018825381   0.01888404           12 
 2139000   0.93061584    -7.890017     484.3825  0.018871065  0.018877704           17 
 2140000   0.89596946   -7.9137708    483.64283  0.018833443  0.018871421           11 
 2141000   0.91351654   -7.8884502    482.52559  0.018781161  0.018865107            6 
 2142000   0.90668543    -7.872594    483.49712   0.01881019  0.018858775            4 
 2143000   0.90028436   -7.8732368    483.39914  0.018797602  0.018852389            6 
 2144000   0.91280632     -7.87635    483.83826  0.018805903  0.018846079            7 
 2145000   0.90541667   -7.8644198    483.52711  0.018785047  0.018839797            5 
 2146000   0.91108011   -7.8943226    482.44819  0.018734397  0.018833456           10 
 2147000   0.91448041   -7.8967125    483.29238  0.018758437  0.018827094           13 
 2148000   0.90018488   -7.8917658    483.25829  0.018748382  0.018820733            4 
 2149000   0.91122833   -7.8529569    483.93014   0.01876571  0.018814395            6 
 2150000   0.88817495    -7.879333     484.2435  0.018769128  0.018808045           16 
 2151000   0.92881183   -7.8472912    486.25127  0.018838187    0.0188017            4 
 2152000   0.91370835   -7.8808196    483.88426  0.018737773  0.018795388           10 
 2153000   0.89996145   -7.8678026    483.25514   0.01870472  0.018789062            4 
 2154000   0.91260809   -7.8744122    484.72976  0.018753086   0.01878273           10 
 2155000   0.92129515   -7.9017692    483.42935  0.018694097  0.018776347           12 
 2156000   0.91110446   -7.8995013    485.06875  0.018748792  0.018769954            4 
 2157000   0.91212203   -7.8932205    484.00307  0.018698929  0.018763572           12 
 2158000   0.89572727    -7.882663    484.59361  0.018713068   0.01875724            7 
 2159000    0.9131997   -7.8965275    483.61461  0.018666613  0.018750862            7 
 2160000   0.89159238   -7.9190211    483.35085  0.018647795  0.018744419           20 
 2161000   0.92573904   -7.9236882    483.77564  0.018655547   0.01873801            5 
 2162000   0.87337754   -7.9137528    483.88236  0.018651031  0.018731636            4 
 2163000   0.90962739   -7.9175013    483.77206  0.018638159  0.018725279           12 
 2164000   0.90427425   -7.8615429    485.43133  0.018693443  0.018718877           43 
 2165000   0.90840008   -7.8944944    485.23543  0.018677268  0.018712632           19 
 2166000   0.91614127   -7.8743862    486.22751  0.018706814  0.018706328           33 
 2167000    0.9097612   -7.8808784    485.70861  0.018678227  0.018700034           24 
 2168000    0.9022599   -7.9051237    486.86531  0.018714072  0.018693799            6 
 2169000   0.90049586   -7.8903343    485.04373  0.018635459  0.018687504            9 
 2170000   0.90034242   -7.9240328    484.49891  0.018605949  0.018681243            7 
 2171000   0.89491836   -7.8542317    486.11994  0.018659602  0.018674959           10 
 2172000   0.89701606   -7.8939035     485.2925  0.018619264  0.018668676            5 
 2173000   0.90149533   -7.8348741    486.68664   0.01866416  0.018662469            6 
 2174000   0.89230539   -7.8676868     486.0954  0.018632912  0.018656265            6 
 2175000   0.90804652   -7.9047635    487.53306  0.018679428  0.018650024            5 
 2176000   0.90633082   -7.8858832    486.37515  0.018626499  0.018643812            7 
 2177000   0.89007851   -7.8719672    487.47659  0.018660105  0.018637559            3 
 2178000   0.91523494    -7.896066    486.08442  0.018598272  0.018631343            6 
 2179000   0.90434571   -7.8788563    486.94365  0.018622596  0.018625086            4 
 2180000   0.89466415   -7.8778151    486.22476  0.018586573  0.018618804            4 
 2181000   0.90328697    -7.907108    484.09395  0.018496636  0.018612461            9 
 2182000   0.89068116   -7.8862055     486.2756  0.018571479   0.01860614            4 
 2183000   0.89532675   -7.9053244    486.08727  0.018555782  0.018599828            5 
 2184000   0.91413425   -7.9232496    484.73888  0.018495836  0.018593473           12 
 2185000   0.88038642   -7.8905734    487.97033  0.018610615  0.018587184           10 
 2186000   0.90941698    -7.904265    486.56578  0.018548558  0.018580892            7 
 2187000   0.91118581   -7.9120111    485.45134  0.018497613  0.018574568           11 
 2188000   0.88964676   -7.9023353    486.24125  0.018519243  0.018568257           16 
 2189000    0.9063574   -7.8833429    485.83371  0.018495268  0.018561946            8 
 2190000    0.9083625   -7.8766892    487.25852   0.01854104  0.018555631           16 
 2191000   0.90795203   -7.8971143    485.77169  0.018476026  0.018549301           11 
 2192000   0.91603477   -7.8715487    486.70353  0.018503024  0.018542962            5 
 2193000   0.89853202   -7.9433849    485.72904  0.018457556  0.018536653           15 
 2194000   0.92277335   -7.9307054    486.86874  0.018492432  0.018530319           30 
 2195000   0.89801355   -7.9469142    485.60954  0.018436201  0.018523947            9 
 2196000    0.9074921   -7.9282965    486.88064  0.018476041  0.018517562           10 
 2197000   0.90586978   -7.9244459    486.75358  0.018462812  0.018511215            9 
 2198000   0.90457008   -7.9683362    486.60215  0.018448671  0.018504899            6 
 2199000   0.88675266   -7.9313569    486.71656  0.018444617  0.018498558            6 
 2200000   0.91682892   -7.9487859    485.07405  0.018374017  0.018492191            2 
 2201000   0.88122636   -7.9082763    486.66914  0.018426061  0.018485822            6 
 2202000   0.90321838   -7.9466141    485.98292  0.018391724  0.018479459           12 
 2203000   0.90076677   -7.9415819    487.16541  0.018428106   0.01847309           10 
 2204000    0.8764258   -7.9528418    486.31926  0.018387752  0.018466756           16 
 2205000   0.91471875    -7.941573    486.65146  0.018391968   0.01846041           14 
 2206000   0.91075621   -7.9165901     487.8147  0.018427572  0.018454104           19 
 2207000    0.9027857    -7.896118    488.38071  0.018440595  0.018447823           11 
 2208000   0.89085651    -7.939681    488.22853  0.018426499  0.018441528           13 
 2209000   0.89662537   -7.9555433    487.38489  0.018386332    0.0184352           26 
 2210000   0.90585172   -7.9015108    488.88159  0.018434449  0.018428924            5 
 2211000   0.91043691   -7.9100441    488.53623  0.018413095  0.018422714           10 
 2212000   0.88896375   -7.9055605     488.8385  0.018416158  0.018416505            8 
 2213000   0.89042282    -7.905524    487.93598  0.018373851  0.018410265            3 
 2214000   0.90341043   -7.8822726    488.81289  0.018398558  0.018404026           12 
 2215000   0.88659768   -7.8642932    491.39252  0.018487303  0.018397885           10 
 2216000   0.90877676   -7.8839915    488.86586  0.018383945  0.018391686           11 
 2217000   0.88737364     -7.90607    489.07596   0.01838355  0.018385461            7 
 2218000   0.88431043   -7.9055458    488.24971  0.018344218  0.018379191           13 
 2219000    0.9038948   -7.9407176    488.39675  0.018341473  0.018372929           23 
 2220000   0.90574787   -7.9268667    488.89768  0.018352015  0.018366642           16 
 2221000   0.90698016   -7.9098889      488.595  0.018332395  0.018360382            5 
 2222000   0.88346163    -7.931878    488.02168  0.018302643  0.018354136           10 
 2223000   0.89863897   -7.9194425    487.89884  0.018289805  0.018347869            3 
 2224000   0.89213455   -7.8883514    489.81048   0.01835321  0.018341617           14 
 2225000   0.89614777    -7.855311    489.44551  0.018331292  0.018335409            8 
 2226000   0.88596179   -7.8832075    489.59085  0.018328498  0.018329139            6 
 2227000   0.90598497   -7.9017615    488.62422  0.018284098  0.018322882            7 
 2228000   0.88844374   -7.8995087    489.08242  0.018293029   0.01831668           10 
 2229000   0.89733707   -7.9255128      489.038  0.018283161  0.018310457           13 
 2230000   0.87997948    -7.898149    490.65501  0.018335389  0.018304252            6 
 2231000   0.90020422   -7.8744537    490.02285  0.018303558  0.018298072            5 
 2232000   0.89964283   -7.9132176    489.99257  0.018294227  0.018291885           10 
 2233000   0.89672405   -7.8966517    490.46777  0.018303768  0.018285708           11 
 2234000   0.88027496   -7.9290882    488.89766  0.018237006  0.018279488            4 
 2235000   0.89820774   -7.9328479    489.58733  0.018254561  0.018273289            9 
 2236000   0.87061602   -7.9548357    488.50036  0.018205887  0.018266999            4 
 2237000   0.89034858   -7.9354957    489.25868  0.018225998  0.018260706            5 
 2238000   0.87432095   -7.9277426    489.87304   0.01824073  0.018254466            5 
 2239000   0.89339216   -7.9338371    490.98135  0.018273833  0.018248243            2 
 2240000   0.92574189   -7.9138865    490.10059  0.018232909  0.018241997            7 
 2241000   0.90858235   -7.9263192    489.73726  0.018211262  0.018235775            4 
 2242000   0.89758874   -7.9591305    490.84157  0.018244186  0.018229501            5 
 2243000   0.89446342   -7.9376583    490.38004  0.018218905  0.018223243            5 
 2244000   0.88019303    -7.979913    490.51817  0.018215915  0.018216939           12 
 2245000   0.89331314   -7.9607144    489.65918  0.018175916  0.018210603           11 
 2246000   0.90652821   -7.9606211    488.81734  0.018136589  0.018204314            4 
 2247000   0.88318876   -7.9476109    489.14119  0.018140528   0.01819802            3 
 2248000   0.89953126   -7.9260576    491.01057  0.018201756  0.018191736           11 
 2249000   0.91363206   -7.9743895    490.56284  0.018177073  0.018185455            7 
 2250000   0.89321842   -7.9577857     489.2308  0.018119659  0.018179171            6 
 2251000   0.89794084   -7.9606179    489.59275  0.018125009  0.018172889            9 
 2252000   0.89320339   -7.9705391    489.92265  0.018129168  0.018166577            5 
 2253000     0.893337   -7.9389142    490.69988   0.01814987  0.018160292           11 
 2254000   0.89318954   -7.9329137    491.13804  0.018158017  0.018154041            8 
 2255000   0.88624894   -7.9611783     490.4434  0.018124294  0.018147831            6 
 2256000    0.8959224   -7.9277966    491.06073  0.018139064  0.018141619           14 
 2257000    0.8734945   -7.9389918    490.34573  0.018104628  0.018135432           23 
 2258000   0.90813336   -7.9298511    492.80133  0.018187235  0.018129233            5 
 2259000   0.88298183   -7.9197989    491.79147  0.018141931  0.018123059            5 
 2260000   0.88787894   -7.9850041    489.86636  0.018062919  0.018116844            7 
 2261000   0.88880567   -7.9863126    491.12794  0.018101428  0.018110633           14 
 2262000   0.87860301   -7.9562192    490.43772  0.018067998  0.018104443           22 
 2263000   0.86463542   -7.9661053    491.21404  0.018088601  0.018098236           33 
 2264000    0.8874958   -7.9650679    491.04581  0.018074419  0.018092016            8 
 2265000   0.88691823   -7.9592076    490.88053  0.018060358  0.018085773           22 
 2266000   0.88288254   -7.9724404    490.20043  0.018027377  0.018079454           25 
 2267000   0.89532164   -7.9264998    492.90947  0.018119007  0.018073191           26 
 2268000   0.90203722   -7.9510951    489.98125  0.018003426  0.018066957           32 
 2269000   0.88552744   -7.9561701    491.31011  0.018044297  0.018060675           27 
 2270000   0.87504866   -7.9608641    491.77448  0.018053395  0.018054485           34 
 2271000    0.8976863   -7.9771967    492.22465  0.018061964  0.018048285           39 
 2272000   0.89529793   -7.9320521    491.40707  0.018024027  0.018042076           59 
 2273000   0.89650779   -7.9376963    492.41452  0.018053033  0.018035867           59 
 2274000   0.87369089   -7.9785075    491.35385  0.018006224  0.018029657           64 
 2275000   0.89625742   -7.9450665      491.907  0.018018572  0.018023473           53 
 2276000   0.89103681   -7.9684166    491.38031   0.01799137  0.018017287           95 
 2277000   0.87916084   -7.9787073    491.73245  0.017996357   0.01801102           72 
 2278000   0.88383651   -7.9704425    491.75142  0.017989151  0.018004814           78 
 2279000   0.89973998   -7.9680661    491.61682  0.017976335  0.017998589           69 
 2280000   0.86891891   -7.9487562    493.63824  0.018042333  0.017992417           92 
 2281000   0.88249391   -7.9798213    491.77608  0.017966392  0.017986223          103 
 2282000   0.88658303    -7.975958    493.56922     0.018024  0.017979999           92 
 2283000    0.8877296   -7.9521441    493.06235  0.017997604   0.01797383           95 
 2284000    0.8709692   -7.9871698    492.13702  0.017955962  0.017967648           93 
 2285000   0.90566964   -7.9407542    493.03287  0.017980776  0.017961416           55 
 2286000   0.88945085    -7.940155     493.3199  0.017983373  0.017955226           68 
 2287000   0.89669708   -7.9683029    493.00168  0.017963915  0.017949034           94 
 2288000   0.88028458   -7.9964496    493.69251  0.017981225  0.017942819          101 
 2289000   0.89405196    -7.990752     490.9337  0.017872932    0.0179366           64 
 2290000   0.88650898   -7.9965611     493.1175  0.017944596  0.017930362           90 
 2291000   0.87195554   -7.9615373    492.29901  0.017906991  0.017924128           99 
 2292000   0.89767743   -7.9542113    492.71787  0.017914408  0.017917883          116 
 2293000   0.88540128   -7.9819619    492.07865  0.017883364  0.017911618          100 
 2294000   0.87330053   -8.0020459    491.15332  0.017841954  0.017905355          112 
 2295000    0.8831633   -7.9835086    492.67633  0.017889482  0.017899052          130 
 2296000   0.87251293   -8.0142067    492.54648  0.017876977  0.017892775          138 
 2297000   0.88749878    -8.035848    491.97709  0.017848537  0.017886451          138 
 2298000   0.88070533   -8.0146969    492.00718  0.017841862  0.017880175          166 
 2299000   0.89874294   -7.9725443    492.80031   0.01786285  0.017873906          180 
 2300000   0.87951605    -7.990775    492.14468  0.017831329  0.017867649          170 
 2301000   0.87257259   -7.9819016    492.94019   0.01785239  0.017861377          165 
 2302000   0.89189747   -7.9981277    493.05677  0.017848855  0.017855123          186 
 2303000   0.87662476   -7.9665468    493.32892  0.017850952  0.017848876          234 
 2304000   0.89663364   -8.0155153    492.51473  0.017813756  0.017842652          222 
 2305000   0.88944953    -8.041308    491.25323   0.01776042  0.017836377          237 
 2306000   0.87761998   -7.9964438    492.28871  0.017790138  0.017830085          278 
 2307000   0.86990472   -8.0602214    490.76244  0.017727295  0.017823794          306 
 2308000   0.88098973   -8.0330383    492.74663  0.017791256  0.017817451          306 
 2309000   0.87690591   -8.0353086    491.06424  0.017722833  0.017811069          318 
 2310000   0.88469997   -8.0524303    491.47461  0.017729964  0.017804726          326 
 2311000   0.89217444   -8.0672512    491.12075  0.017709532  0.017798359          397 
 2312000   0.87963404   -8.0604658    491.86306  0.017728628  0.017791981          410 
 2313000   0.85597868    -8.017891    491.90382  0.017722432  0.017785611          360 
 2314000   0.88285928   -8.0450067     492.0953  0.017721669  0.017779263          374 
 2315000   0.86447531   -8.0629722    492.12695  0.017715153  0.017772895          401 
 2316000    0.8881282   -8.0311801    492.22184  0.017710918  0.017766487          402 
 2317000   0.88669716   -8.0318449    493.10169  0.017734919  0.017760096          461 
 2318000   0.86947806   -8.0565452    491.58904  0.017672888  0.017753707          467 
 2319000   0.87712481   -8.0665274    491.86207  0.017675078  0.017747275          507 
 2320000   0.88247189   -8.1168995    490.66723  0.017624541  0.017740817          531 
 2321000   0.87938149    -8.106248    490.54147  0.017612432  0.017734331          556 
 2322000    0.8830883   -8.1218289    491.35406   0.01763401  0.017727805          584 
 2323000   0.89846684   -8.1445415    489.18397  0.017548571  0.017721244          587 
 2324000   0.87902619   -8.1253876    490.33177  0.017582178  0.017714687          668 
 2325000   0.88715133   -8.1242505    490.59188  0.017583938  0.017708151          666 
 2326000   0.87407049   -8.1233965    490.07183  0.017557747  0.017701609          706 
 2327000   0.86570865   -8.1633441    489.17446  0.017518065  0.017695006          701 
 2328000   0.87017694   -8.1772975    489.32383  0.017515887  0.017688367          690 
 2329000   0.86899875   -8.1654263    488.54452  0.017480482  0.017681729          729 
 2330000   0.86648383   -8.1477176    489.61966  0.017511433  0.017675045          755 
 2331000   0.87057437   -8.1750872    488.83986  0.017476043  0.017668321          755 
 2332000   0.85055197   -8.1660235    489.06008  0.017476418  0.017661624          780 
 2333000    0.8870558   -8.1568657    488.72025  0.017456789  0.017654941          788 
 2334000   0.88137045   -8.1854359    488.21892   0.01743141   0.01764823          841 
 2335000   0.89467207   -8.2092656    487.04222  0.017381949  0.017641503          924 
 2336000   0.85411599    -8.203268    488.63652  0.017431383  0.017634733          910 
 2337000   0.87662648   -8.2271176    487.48608  0.017382901  0.017627976          967 
 2338000   0.87863519   -8.2092054    488.26493  0.017403227  0.017621217         1022 
 2339000   0.88964057   -8.2144889    487.39321  0.017364729  0.017614441         1072 
 2340000   0.88265683    -8.225722    488.61956  0.017400981  0.017607633         1136 
 2341000    0.8782624   -8.2695991    487.90524   0.01736812  0.017600787         1094 
 2342000   0.87863648   -8.2852241    486.95358  0.017326842    0.0175939         1192 
 2343000   0.88050946   -8.2705876    487.59219  0.017342161  0.017586987         1242 
 2344000    0.8841144   -8.3062672     485.3562  0.017255269  0.017580062         1276 
 2345000   0.86845058    -8.293045    486.57061  0.017291066  0.017573114         1286 
 2346000   0.87277276   -8.3209401    486.45891  0.017279728  0.017566151         1353 
 2347000    0.8970583   -8.3347873     485.9062  0.017252741  0.017559148         1400 
 2348000   0.87648285    -8.309189    486.39579   0.01726277  0.017552143         1465 
 2349000   0.87980481   -8.3364472    484.32828  0.017182073  0.017545129         1543 
 2350000   0.86311219    -8.380806    485.59723   0.01721976   0.01753806         1708 
 2351000   0.86601706   -8.3752896    485.66265  0.017214754  0.017530977         1733 
 2352000   0.86135939   -8.3855218    483.43422   0.01712848  0.017523869         1840 
 2353000   0.85121148   -8.4007717     483.7879  0.017133727  0.017516703         1909 
 2354000   0.89200459   -8.4124846    483.56575  0.017118584  0.017509529         1912 
 2355000    0.8906936   -8.4328323    482.94009  0.017089175  0.017502295         2022 
 2356000   0.87080594   -8.4417034     483.3801  0.017097485  0.017495048         2031 
 2357000   0.86052414   -8.4652106     481.8642  0.017036635  0.017487792         2226 
 2358000   0.87042926   -8.4536483    481.75891   0.01702569  0.017480471         2226 
 2359000   0.89210488   -8.4546344    483.18373  0.017068805   0.01747314         2240 
 2360000    0.8625762   -8.4769357    481.98889  0.017019382  0.017465817         2229 
 2361000   0.87629959    -8.497339    482.17186  0.017018631   0.01745845         2347 
 2362000   0.87993027   -8.5380216    481.17795   0.01697636  0.017451044         2396 
 2363000   0.85159592   -8.5181251    481.94423  0.016996199  0.017443588         2490 
 2364000   0.87608207   -8.5658087    480.49453  0.016937906  0.017436085         2611 
 2365000   0.88065813   -8.5882994    480.81826  0.016942151  0.017428535         2614 
 2366000   0.87315334   -8.5864985    480.05626  0.016908152  0.017420961         2664 
 2367000   0.86251846   -8.6157958    478.18901   0.01683527  0.017413369         2749 
 2368000   0.86725809    -8.655576    478.94789  0.016854867  0.017405729         2899 
 2369000   0.89828052   -8.6519391    477.80172  0.016807434  0.017398047         2976 
 2370000   0.87122216   -8.6714561     478.1751   0.01681347  0.017390354         3041 
 2371000     0.837582   -8.6359637    478.29783  0.016810693  0.017382662         2984 
 2372000    0.8641168   -8.7020966    477.17961   0.01676432  0.017374927         3074 
 2373000   0.89026775   -8.6719967    477.53924  0.016769885  0.017367172         3100 
 2374000   0.86519913   -8.6774027    477.84024  0.016773387   0.01735941         3101 
 2375000   0.85008432   -8.7097491    476.35547  0.016714227   0.01735163         3200 
 2376000   0.85914781   -8.7453683    476.75948  0.016721362  0.017343809         3315 
 2377000   0.88557201   -8.7571104    476.67001  0.016711191  0.017335962         3319 
 2378000   0.88880468   -8.7275501    477.34511  0.016727821  0.017328105         3402 
 2379000   0.87580251    -8.747657    476.83532  0.016702933  0.017320222         3331 
 2380000   0.86827786   -8.7449095    475.88989  0.016662811   0.01731234         3401 
 2381000   0.87027052   -8.7784244    475.92462  0.016657028  0.017304436         3474 
 2382000    0.8687301   -8.7749363    475.54134  0.016636627  0.017296513         3470 
 2383000   0.88315505   -8.7844383    474.43465  0.016590945    0.0172886         3477 
 2384000   0.85560814   -8.7906271     475.2396  0.016612122  0.017280687         3529 
 2385000   0.84403251   -8.8113184     474.9205  0.016594008  0.017272745         3518 
 2386000   0.86480734   -8.8108159    474.40732   0.01656913  0.017264791         3525 
 2387000   0.87115167   -8.7786755    474.53626   0.01656669  0.017256845         3544 
 2388000   0.86873227   -8.7988256    475.20913  0.016583233  0.017248889         3500 
 2389000   0.85482768   -8.8022644    476.15235  0.016609193  0.017240927         3544 
 2390000   0.87216877   -8.8026609    474.97304  0.016561124  0.017232956         3544 
 2391000   0.86764506   -8.7960989    474.92954  0.016552681  0.017224992         3567 
 2392000   0.87448668   -8.8223574    474.15046   0.01651862  0.017217029         3554 
 2393000   0.88955796   -8.8251057    473.84728  0.016501159  0.017209034         3618 
 2394000   0.86306797   -8.8325302    473.89901  0.016496067  0.017201037         3619 
 2395000   0.87380609   -8.8228773    475.98574  0.016561786  0.017193017         3618 
 2396000   0.87871499   -8.8294621    474.13479  0.016490498  0.017184989         3613 
 2397000   0.86147184   -8.8351017    474.00466  0.016479094  0.017176953         3608 
 2398000   0.88472814   -8.8011787    474.40098  0.016485994  0.017168911         3638 
 2399000   0.87154009   -8.8298611     475.1477  0.016505061  0.017160873         3685 
 2400000   0.86163141   -8.8454647    473.13777  0.016428395  0.017152801         3742 
 2401000   0.85702518   -8.8569416    474.09349  0.016454723  0.017144735         3717 
 2402000   0.86460079   -8.8293057    473.30794   0.01642062  0.017136664         3719 
 2403000   0.87795493   -8.8804028    473.56338  0.016422645  0.017128572         3761 
 2404000   0.86541774    -8.869542    472.90035   0.01639283    0.0171205         3772 
 2405000   0.87910736   -8.8385889    472.92583  0.016386896  0.017112432         3740 
 2406000   0.87118623   -8.8716074    473.73373  0.016408068  0.017104347         3723 
 2407000   0.88015457   -8.8662289    474.03201  0.016411578  0.017096272         3740 
 2408000    0.8480515   -8.8473594    474.16572   0.01640939  0.017088195         3718 
 2409000   0.86162577   -8.8470197    474.12953  0.016401326  0.017080119         3728 
 2410000   0.86574572   -8.8415092    473.93035  0.016387633  0.017072057         3714 
 2411000   0.86993604   -8.8671425    472.73798  0.016339623  0.017063962         3732 
 2412000   0.87653255   -8.8678938    473.04737  0.016343538   0.01705589         3760 
 2413000   0.86480704   -8.8835544    472.82937  0.016329237  0.017047804         3731 
 2414000   0.86835686   -8.8741895    473.40044  0.016342186  0.017039722         3710 
 2415000   0.84862457     -8.83127    472.79067  0.016314378  0.017031646         3737 
 2416000   0.86042713   -8.8636726    473.65083  0.016337294  0.017023554         3716 
 2417000   0.87057626   -8.8973692     472.3658   0.01628623  0.017015467         3779 
 2418000   0.85835167    -8.857511    473.57404  0.016321134  0.017007383         3775 
 2419000   0.86067902   -8.8687898    473.26793  0.016303842  0.016999307         3755 
 2420000   0.86091915   -8.8778553     472.9166  0.016285007  0.016991215         3729 
 2421000   0.86685681   -8.8712316     473.6961  0.016305112  0.016983132         3765 
 2422000   0.85912935   -8.8659111    472.42322  0.016254584  0.016975056         3752 
 2423000   0.85870566   -8.8980186    473.28656  0.016277568  0.016966985         3755 
 2424000   0.85499369   -8.8710506    472.37207  0.016239414  0.016958913         3763 
 2425000   0.87407802   -8.8865702    474.07851  0.016291358  0.016950839         3737 
 2426000   0.84913915   -8.8700659    471.97236  0.016212296  0.016942759         3707 
 2427000    0.8641435     -8.87662     474.0325  0.016276353  0.016934702         3760 
 2428000   0.88395432   -8.8583515    474.25178  0.016277175  0.016926624         3711 
 2429000   0.86640926   -8.8708306    473.05761  0.016229505  0.016918563         3736 
 2430000   0.87128592   -8.9262413    471.65246  0.016174639  0.016910486         3799 
 2431000   0.85888156   -8.8683093    472.62285   0.01620125  0.016902412         3759 
 2432000   0.87024693   -8.9023933    472.72348  0.016198036  0.016894352         3765 
 2433000   0.86722431    -8.903196    472.66284  0.016189301  0.016886294         3733 
 2434000   0.85951197   -8.8952921    472.73743  0.016185204  0.016878237         3786 
 2435000   0.85413699   -8.8746993    472.05115   0.01615507  0.016870192         3713 
 2436000   0.85333162   -8.8724131    472.73975  0.016171995  0.016862165         3753 
 2437000   0.85934317   -8.8739066    472.71412  0.016164482  0.016854123         3708 
 2438000   0.86569115   -8.8801112    472.18122  0.016139637  0.016846077         3731 
 2439000   0.87505932   -8.8892031      473.861  0.016190413  0.016838047         3741 
 2440000   0.88580718   -8.8914735    473.46647  0.016170303  0.016829999         3734 
 2441000   0.87527879   -8.9022416    473.13232  0.016152271  0.016821979         3723 
 2442000   0.85354313   -8.8825817    472.04281  0.016108477  0.016813945         3740 
 2443000    0.8670211   -8.8537085    473.20862   0.01614165  0.016805923         3699 
 2444000   0.86530272    -8.892012    472.32313  0.016104853  0.016797891         3711 
 2445000   0.85633312   -8.8536252    473.03917  0.016122671  0.016789884         3754 
 2446000   0.85207499   -8.9005524    473.12185  0.016118897  0.016781866         3769 
 2447000   0.85764191   -8.8901114    473.58303  0.016128015  0.016773859         3744 
 2448000   0.84495561   -8.8714738    473.57657  0.016121207  0.016765849         3710 
 2449000   0.86913412   -8.9048082    472.25264  0.016069574  0.016757842         3788 
 2450000   0.87434956   -8.8872765    473.66416  0.016111026  0.016749843         3759 
 2451000    0.8665656   -8.8794356    472.83174  0.016076151  0.016741839         3735 
 2452000   0.85577055   -8.8895998    472.16894  0.016047068  0.016733828         3740 
 2453000    0.8519407   -8.8857762    472.56224  0.016053888  0.016725808         3787 
 2454000   0.85918578   -8.8671352     472.8506  0.016057138  0.016717788         3729 
 2455000   0.85534291   -8.9052463    471.64083  0.016009532  0.016709782         3743 
 2456000   0.86137902   -8.9217263    472.50925   0.01603248  0.016701775         3776 
 2457000   0.85148563   -8.8844138    472.74725  0.016034027  0.016693763         3697 
 2458000   0.85535416   -8.8928856    472.99128  0.016035777  0.016685742         3747 
 2459000   0.83134536   -8.8887007    472.64562  0.016017542  0.016677722         3724 
 2460000   0.85794046   -8.9134258    472.39542  0.016002555  0.016669717         3777 
 2461000   0.85329007   -8.8984185    473.28636  0.016026221  0.016661713         3745 
 2462000    0.8556963   -8.8879934    471.87209  0.015971842  0.016653732         3769 
 2463000   0.85363213   -8.9287746    472.47942  0.015985905  0.016645739         3798 
 2464000   0.83901376    -8.895587    472.45004  0.015978424   0.01663772         3772 
 2465000   0.85912198   -8.8968388    472.60924  0.015977324  0.016629709         3744 
 2466000   0.86023774   -8.8840595    472.79472  0.015977113  0.016621705         3753 
 2467000   0.86406275    -8.889471    472.50948  0.015961001  0.016613708         3750 
 2468000   0.86349166   -8.9017519    473.89693  0.016001382  0.016605693         3787 
 2469000   0.84425962    -8.906064    472.35288  0.015942786  0.016597695         3757 
 2470000   0.84380808   -8.8979329    472.54238  0.015942725  0.016589702         3739 
 2471000   0.85433967   -8.9272754    471.93767   0.01591588  0.016581708         3777 
 2472000   0.83597869   -8.9213671    471.99455  0.015911359  0.016573724         3742 
 2473000   0.86709736   -8.8948491    472.32796   0.01591616  0.016565723         3759 
 2474000    0.8512707   -8.8792024    473.32725  0.015943386  0.016557724         3747 
 2475000   0.87120408   -8.9516303    471.66129  0.015880852  0.016549721         3762 
 2476000   0.85482224   -8.9142749     472.6974  0.015909309  0.016541722         3785 
 2477000   0.86960774   -8.9302499    472.30044  0.015889532  0.016533726         3761 
 2478000   0.87860685   -8.9270642    471.89296  0.015869416  0.016525742         3790 
 2479000   0.87954916   -8.9015861    472.96518  0.015899058  0.016517767         3792 
 2480000   0.86337924   -8.9394753    471.65775  0.015848715  0.016509776         3814 
 2481000   0.86202578   -8.8957374    471.90889  0.015850762  0.016501781         3800 
 2482000   0.85309271   -8.8984151    472.02256  0.015848192  0.016493774         3725 
 2483000   0.84766926   -8.9329766    472.36382  0.015853263  0.016485784         3812 
 2484000   0.84994163   -8.9052755    472.44655  0.015849656  0.016477808         3768 
 2485000   0.84846824   -8.9233493     473.1717  0.015867596  0.016469831         3799 
 2486000   0.86665368   -8.8980402    472.62721  0.015842961  0.016461859         3811 
 2487000   0.85420332   -8.9296371    472.15564  0.015820789  0.016453894         3766 
 2488000   0.86403048   -8.9297207    471.54335  0.015793923  0.016445935         3775 
 2489000   0.85333025   -8.8980139    472.12489  0.015807047  0.016437962         3693 
 2490000   0.85428355   -8.9013268    472.42581   0.01581077  0.016430001         3764 
 2491000   0.85560418   -8.9135206    473.11669  0.015827535  0.016422053         3798 
 2492000   0.85233131   -8.9393149    471.71429  0.015774287    0.0164141         3771 
 2493000    0.8355049   -8.9214185    472.95156  0.015809318  0.016406145         3787 
 2494000   0.84472809   -8.8699048    473.76037  0.015830004  0.016398205         3766 
 2495000   0.85323906   -8.8888147    473.17434  0.015804086  0.016390266         3810 
 2496000   0.84879196   -8.9525227    471.06318   0.01572727  0.016382315         3795 
 2497000   0.84608912   -8.9333192    472.36259  0.015764337  0.016374385         3781 
 2498000   0.85000636    -8.900603    471.77959  0.015738577  0.016366445         3785 
 2499000   0.83226206   -8.9215143    470.68534   0.01569579  0.016358514         3836 
 2500000   0.83308954   -8.9184584    472.83369  0.015761123  0.016350582         3756 
 2501000   0.85110964   -8.9219201    471.36823  0.015705992  0.016342662         3792 
 2502000   0.84079351   -8.9089086      471.634  0.015708566  0.016334736         3775 
 2503000   0.85627212   -8.9391548    473.10353  0.015751216  0.016326812         3784 
 2504000   0.85012349   -8.9155727    471.94252  0.015706287  0.016318878         3762 
 2505000    0.8496112   -8.9205784    470.82006  0.015662677   0.01631095         3810 
 2506000   0.85248864   -8.9085407    471.55528  0.015680875  0.016303024         3777 
 2507000   0.86491386   -8.9377309    471.38426  0.015668936  0.016295097         3800 
 2508000   0.84587169   -8.9550461    472.00446  0.015683296  0.016287184         3812 
 2509000   0.84793198   -8.9003325    470.85367  0.015638823  0.016279256         3774 
 2510000   0.84927023   -8.9434221    471.64773  0.015658955  0.016271338         3791 
 2511000   0.84200009   -8.9170571    472.36949  0.015676672  0.016263427         3815 
 2512000   0.85686632   -8.9147261      473.345  0.015702793   0.01625551         3745 
 2513000   0.86335488   -8.9440428    471.50634  0.015635573  0.016247607         3786 
 2514000   0.84503966   -8.8895385    472.36939  0.015657962   0.01623971         3762 
 2515000   0.85953545     -8.92136     471.4761  0.015622137  0.016231808         3805 
 2516000   0.84752373     -8.95137    472.95571  0.015664935  0.016223897         3787 
 2517000   0.86030787    -8.924432    472.60473  0.015647091  0.016216001         3774 
 2518000   0.83625979    -8.943028     471.4239  0.015601797  0.016208108         3801 
 2519000   0.83782542   -8.9260709    472.83109  0.015642156  0.016200215         3829 
 2520000   0.84202435    -8.941619    472.22845   0.01561602  0.016192326         3779 
 2521000   0.84914741   -8.9343933    471.39009  0.015582113  0.016184447         3831 
 2522000   0.83770435   -8.9732967    470.94271  0.015561152   0.01617657         3825 
 2523000   0.83756199   -8.9194857    471.95883  0.015588546  0.016168676         3782 
 2524000   0.86110682   -8.9375216    471.70461  0.015573977  0.016160784         3765 
 2525000   0.83318003   -8.9434717    472.06858  0.015579821  0.016152898         3777 
 2526000   0.84199548   -8.9497582    471.06618  0.015540584  0.016145016         3778 
 2527000   0.84403402    -8.911737    472.10963  0.015568844  0.016137133         3748 
 2528000   0.85251315   -8.9539355    470.82301  0.015520273  0.016129268         3804 
 2529000   0.84741966   -8.9511398    471.05188  0.015521678   0.01612139         3819 
 2530000   0.85030031   -8.9448749    471.86706  0.015542393  0.016113514         3796 
 2531000   0.84209794   -8.9216759    472.10476  0.015544079  0.016105646         3816 
 2532000   0.83358488   -8.9614447    472.09534   0.01553763  0.016097774         3809 
 2533000   0.86188614   -8.9404382    470.93436  0.015493301   0.01608991         3781 
 2534000   0.86203358    -8.952431    471.33211  0.015500267  0.016082049         3804 
 2535000   0.83494087    -8.971337    472.29481  0.015525799  0.016074195         3815 
 2536000   0.84903021   -8.9620035    471.03081  0.015478142  0.016066333         3761 
 2537000   0.85493966   -8.9572348    470.14753  0.015443028  0.016058491         3792 
 2538000   0.84628558   -8.9450109    471.07072  0.015467255  0.016050629         3778 
 2539000   0.84102986   -8.9231883    472.18542  0.015497749  0.016042781         3778 
 2540000   0.85109138   -8.9549258     470.9013  0.015449518  0.016034958         3779 
 2541000   0.84023873   -8.9272552    471.16267  0.015452009  0.016027121         3824 
 2542000   0.83582885   -8.9399263    471.27311  0.015449551   0.01601929         3786 
 2543000   0.82796956   -8.9445156    471.56998  0.015453204  0.016011464         3817 
 2544000   0.84526746   -8.9171836    471.94224  0.015459324  0.016003639         3797 
 2545000   0.84022774   -8.9510909    472.14125  0.015459766  0.015995812         3802 
 2546000   0.86071299   -8.9482676    470.42382   0.01539748  0.015987991         3795 
 2547000   0.82886845   -8.9085705    472.80787  0.015469437  0.015980182         3796 
 2548000   0.83646171   -8.9330211    471.75428  0.015428908  0.015972371         3797 
 2549000   0.83959646   -8.9688932    470.35693  0.015377172  0.015964556         3804 
 2550000    0.8632387   -8.9353094     471.7982  0.015418242  0.015956755         3813 
 2551000   0.84531058   -8.9361159    472.21255  0.015425734  0.015948959         3812 
 2552000   0.84215504   -8.9485863    471.74778  0.015404512  0.015941164         3814 
 2553000   0.84176715   -8.9358738    470.82822  0.015368463  0.015933392         3799 
 2554000   0.85154574   -8.9679573    471.79021  0.015393834  0.015925608         3842 
 2555000   0.85593585   -8.9475265    471.56149  0.015380349  0.015917808         3835 
 2556000   0.84687028    -8.951457    471.07825  0.015358576  0.015910015         3819 
 2557000   0.85166994    -8.938911     471.5147  0.015366794  0.015902233         3832 
 2558000   0.83989872   -8.9594684    470.93729  0.015341976  0.015894444         3803 
 2559000   0.83927094   -8.9536969    470.97459  0.015337195  0.015886665         3819 
 2560000   0.84389428   -8.9479359     470.5894  0.015318665    0.0158789         3807 
 2561000   0.85538991   -8.9529882    471.22055  0.015333221  0.015871132         3811 
 2562000   0.85809174   -8.9437666    470.81831  0.015314153  0.015863371         3797 
 2563000   0.83373403   -8.9432948    471.61079  0.015333944  0.015855602         3790 
 2564000   0.84686431   -8.9378905    470.84366  0.015303031  0.015847839         3815 
 2565000    0.8458004   -8.9490345    472.06169  0.015336637  0.015840089         3861 
 2566000   0.84324933   -8.9366334    472.41714  0.015342204  0.015832342         3819 
 2567000   0.84000593   -8.9345146    472.58397  0.015341643  0.015824591         3782 
 2568000   0.84747921   -8.9627011    471.23799  0.015291991  0.015816852         3811 
 2569000   0.85992842   -8.9411698    471.71956   0.01530166   0.01580912         3812 
 2570000    0.8437341   -8.9584988    470.24037  0.015247742  0.015801387         3837 
 2571000   0.85799976   -8.9704801    470.16769  0.015239456  0.015793656         3798 
 2572000   0.83875927   -8.9806836    471.34436  0.015271655  0.015785936         3789 
 2573000   0.84018315   -8.9637338    471.22506  0.015261856  0.015778212         3817 
 2574000   0.85703381   -8.9476748    471.50829  0.015265096  0.015770494         3776 
 2575000   0.86623014   -8.9385935    471.20753  0.015249435  0.015762785         3817 
 2576000   0.83840127   -8.9823067    471.08011  0.015239393  0.015755071         3812 
 2577000   0.81974478   -8.9567809    471.56008     0.015249  0.015747359         3797 
 2578000   0.84473292   -8.9697004    471.79788  0.015250772   0.01573964         3823 
 2579000   0.84489379    -8.944562    472.06308  0.015253428  0.015731922         3845 
 2580000   0.83102148   -8.9807805    470.77159  0.015205801  0.015724207         3856 
 2581000   0.83985251   -8.9557198    470.96933  0.015206294  0.015716494         3847 
 2582000   0.84181528   -8.9503424    471.76393   0.01522605  0.015708784         3833 
 2583000   0.82048135   -8.9668186    470.03541  0.015164389  0.015701081         3852 
 2584000   0.83656487   -8.9614296    470.76944  0.015182193   0.01569337         3879 
 2585000   0.83156246   -8.9743366    471.63896  0.015204351  0.015685657         3829 
 2586000    0.8394355   -8.9688062    471.63687  0.015198404  0.015677952         3844 
 2587000   0.84453879   -8.9953885    470.66961  0.015161371  0.015670251         3820 
 2588000   0.82368058   -8.9709258    470.61874  0.015153875  0.015662555         3838 
 2589000    0.8187374    -8.956607    471.63894  0.015180859  0.015654863         3840 
 2590000   0.83512965   -8.9712689    470.99782   0.01515437  0.015647177         3815 
 2591000   0.85314948   -8.9556949    470.61792  0.015136303  0.015639493         3825 
 2592000   0.84691241   -8.9732254     471.1486  0.015147524  0.015631821         3864 
 2593000   0.84724123   -8.9536042    470.43229  0.015118662  0.015624141         3810 
 2594000   0.83567417    -8.977513    470.75899  0.015123329   0.01561647         3842 
 2595000   0.83685069   -8.9411024    471.36112  0.015136838  0.015608804         3810 
 2596000   0.84012821   -8.9856126    470.59913  0.015106546  0.015601141         3822 
 2597000    0.8398514   -8.9659026    471.75213  0.015137727  0.015593487         3818 
 2598000   0.83232825   -8.9402478     470.6377  0.015096154  0.015585834         3839 
 2599000   0.83465054   -8.9503804    470.79101  0.015095261  0.015578189         3835 
 2600000   0.82399958   -8.9620849    470.60796  0.015083588  0.015570533         3844 
 2601000   0.83808096   -8.9724247    470.45717  0.015072958  0.015562883         3843 
 2602000   0.84334916   -8.9686988    471.02768  0.015085437  0.015555229         3823 
 2603000   0.83125111   -8.9794015    471.37639  0.015090805  0.015547569         3854 
 2604000   0.82445454   -8.9667371    471.39647  0.015085653  0.015539927         3848 
 2605000   0.84835664   -8.9697065    470.76367  0.015059618  0.015532288         3839 
 2606000   0.83482836   -8.9727175    470.91071  0.015058542  0.015524656         3832 
 2607000   0.82382159   -8.9767813    471.75008  0.015079596  0.015517022         3837 
 2608000   0.84388492    -8.995416    470.45016  0.015032277  0.015509383         3846 
 2609000    0.8508562   -8.9499074    470.62032  0.015031951  0.015501759         3865 
 2610000   0.81746335    -8.971086    470.97587  0.015037544  0.015494133         3824 
 2611000   0.84105327   -8.9654687    472.37368  0.015076397  0.015486505         3852 
 2612000   0.83337291   -8.9934982    470.69436  0.015017048  0.015478873         3872 
 2613000   0.81730254   -8.9867949    471.19463  0.015027256  0.015471254         3879 
 2614000   0.85260746   -8.9881943    471.44193  0.015029391  0.015463629         3880 
 2615000   0.83672629   -8.9831915     469.9786  0.014977011  0.015456015         3869 
 2616000   0.83865087   -8.9868064    471.94973  0.015034076  0.015448403         3852 
 2617000    0.8240206   -8.9840731    471.69382  0.015020183  0.015440791         3854 
 2618000   0.82187927    -8.975762    470.85002  0.014987587  0.015433179         3838 
 2619000   0.82469935   -8.9804378    471.24693  0.014994493   0.01542558         3861 
 2620000   0.84718291   -8.9492198    471.30313  0.014990558  0.015417977         3871 
 2621000   0.84709548    -8.955659    471.62879  0.014995192  0.015410386         3853 
 2622000   0.81607892   -9.0013989    469.67269  0.014927304  0.015402786         3842 
 2623000   0.84280554   -8.9937331    471.21317  0.014970554  0.015395194         3848 
 2624000    0.8285354   -8.9974262    470.82785  0.014952612  0.015387601         3823 
 2625000   0.83579104   -8.9761321    471.06051  0.014954302  0.015380024         3847 
 2626000   0.81675514   -8.9717775     470.7781  0.014939645  0.015372442         3827 
 2627000   0.81922917   -8.9751356    471.76883  0.014965386   0.01536488         3861 
 2628000   0.83775916   -8.9509884     470.9535  0.014933838  0.015357306         3873 
 2629000   0.84315261   -9.0033333    469.39368  0.014878714  0.015349726         3892 
 2630000   0.83787304   -8.9830732    470.60069  0.014911302  0.015342154         3841 
 2631000   0.83566053   -8.9804159    471.38099  0.014930349  0.015334594         3882 
 2632000   0.84204227   -8.9492432    472.13046  0.014948406  0.015327047         3835 
 2633000   0.82658355   -8.9774215    471.06099  0.014908881  0.015319494         3843 
 2634000   0.83092925   -8.9730326    471.11299  0.014904866  0.015311955         3836 
 2635000   0.83473469   -8.9842789    470.36029  0.014875404  0.015304411         3885 
 2636000   0.84638803   -8.9825819    469.77266  0.014851184  0.015296869         3855 
 2637000   0.82991271   -8.9895758    470.57511  0.014870911  0.015289331         3861 
 2638000   0.83744476   -8.9857773    471.09526  0.014881705   0.01528179         3861 
 2639000   0.81949623   -8.9800058    470.56188  0.014859223  0.015274243         3884 
 2640000    0.8177127    -8.991189    470.32472  0.014846109  0.015266715         3880 
 2641000   0.83630428   -8.9881025    471.09507  0.014864795  0.015259165         3848 
 2642000   0.81433474   -8.9865333    469.39224  0.014805458  0.015251634         3845 
 2643000   0.83062464    -8.984191    470.86189  0.014846194  0.015244103         3859 
 2644000   0.85430852   -8.9678073    471.28375  0.014853875  0.015236587         3864 
 2645000   0.82293536   -8.9985614    470.75238  0.014831518   0.01522908         3847 
 2646000   0.83168909   -8.9805213    471.22285   0.01484073  0.015221572         3858 
 2647000   0.79787321    -8.989053    470.13284  0.014800807  0.015214056         3855 
 2648000   0.81872174   -8.9830212    471.69172  0.014844276  0.015206547         3882 
 2649000   0.83117471   -9.0040989    469.59262  0.014772638  0.015199037         3841 
 2650000   0.82397055   -8.9827153    470.71279  0.014802289  0.015191531         3865 
 2651000   0.82853563   -8.9725224    470.70016  0.014796308   0.01518403         3835 
 2652000   0.81413637   -8.9991981    469.47277  0.014752161  0.015176523         3878 
 2653000   0.82550452   -8.9803752     470.6219  0.014782696  0.015169039         3865 
 2654000   0.82604961   -8.9968402    470.67379  0.014778755   0.01516155         3878 
 2655000     0.831764   -8.9890562    471.22476  0.014790482   0.01515407         3843 
 2656000   0.82847403   -8.9860814    470.21059  0.014753093  0.015146586         3849 
 2657000   0.81582236   -8.9703926    471.25662  0.014780348  0.015139113         3839 
 2658000    0.8233564   -8.9821515    470.75659  0.014759111  0.015131639         3838 
 2659000   0.83321149   -9.0041274    470.12236  0.014733683  0.015124172         3848 
 2660000   0.84440675   -8.9976595     469.8409  0.014719326  0.015116709         3864 
 2661000   0.83238798   -8.9592373    470.77772  0.014743133  0.015109251         3852 
 2662000   0.83851404   -8.9770674    469.97757  0.014712546  0.015101784         3847 
 2663000   0.80934074    -8.982578    471.06634  0.014741092  0.015094325         3858 
 2664000   0.82306758   -8.9913192    469.60099  0.014689721  0.015086875         3857 
 2665000   0.83066387   -8.9808667    470.54593  0.014713757  0.015079426         3872 
 2666000   0.81942533   -8.9659757    470.54438  0.014708189  0.015071995         3844 
 2667000   0.81477503   -9.0000505    469.60702  0.014673385  0.015064544         3889 
 2668000   0.82796017   -8.9998531    471.63156  0.014731121    0.0150571         3863 
 2669000   0.83162831   -8.9955338    470.53491  0.014691361  0.015049668         3869 
 2670000   0.80785867    -9.003638    469.68484  0.014659327  0.015042231         3857 
 2671000   0.81660741   -8.9942923    470.71126  0.014685862  0.015034801         3838 
 2672000   0.81887848   -8.9975356    470.61292  0.014677299  0.015027377         3860 
 2673000     0.821404   -8.9714301    471.07493  0.014686212  0.015019966         3861 
 2674000   0.82990453   -8.9863007    470.26708  0.014655543  0.015012554         3864 
 2675000   0.82166686   -9.0032969    470.70859  0.014663819  0.015005139         3849 
 2676000    0.8129633   -8.9778736    470.61948  0.014655564  0.014997736         3851 
 2677000   0.80318591    -8.992417    471.53903  0.014678715  0.014990334         3852 
 2678000   0.83888952   -8.9975801    470.71206    0.0146475  0.014982943         3821 
 2679000   0.80909962   -8.9709159    470.70802  0.014641907  0.014975546         3838 
 2680000   0.83020908   -9.0140191    469.14891  0.014587964   0.01496815         3871 
 2681000   0.82224692   -8.9766798    471.14202  0.014644474  0.014960761         3844 
 2682000   0.82484999   -9.0057433    469.86327  0.014599281  0.014953375         3848 
 2683000   0.82250159   -8.9541668    470.94715  0.014627505  0.014945998         3838 
 2684000   0.80757502   -8.9825357    470.68079  0.014613785  0.014938617         3824 
 2685000     0.799851   -9.0194948    470.64554  0.014607248  0.014931236         3876 
 2686000   0.81955944   -9.0106161    470.17828  0.014587313  0.014923867         3861 
 2687000   0.82712197   -8.9760189    471.45927  0.014621612  0.014916513         3840 
 2688000   0.81769182   -9.0007112    470.12951  0.014574948   0.01490915         3853 
 2689000   0.82586187   -8.9930558    470.66318  0.014586066  0.014901787         3847 
 2690000   0.82026112   -8.9705583    470.58016  0.014578072  0.014894436         3857 
 2691000   0.82090291   -9.0122885    470.93287  0.014583577  0.014887075         3861 
 2692000   0.83253344   -8.9709737     470.4794  0.014564122  0.014879718         3850 
 2693000   0.83158042   -9.0303076    469.66583  0.014533538  0.014872387         3882 
 2694000   0.81535307   -9.0164531    470.67338   0.01455931  0.014865043         3878 
 2695000   0.83180503   -9.0133621    470.09764  0.014536105  0.014857704         3865 
 2696000   0.80679224   -9.0166965    469.84423  0.014522881  0.014850374         3841 
 2697000   0.81743215   -8.9774481    470.36633  0.014533628  0.014843036         3844 
 2698000   0.83765848   -8.9817888    470.95359   0.01454638  0.014835696         3847 
 2699000   0.80506864    -9.009525    470.20841  0.014517982  0.014828366         3863 
 2700000   0.83546222   -8.9971996    469.93448  0.014504151  0.014821037         3882 
 2701000   0.82476541    -9.009332    469.35676  0.014480956  0.014813708         3851 
 2702000   0.80685502   -9.0087224    469.61458  0.014483549  0.014806383         3849 
 2703000   0.80756552   -8.9999727     469.5108  0.014474991  0.014799078         3865 
 2704000   0.83066573   -9.0290757    469.80135  0.014478592  0.014791756         3859 
 2705000   0.82530729   -9.0285188    470.00162  0.014479409  0.014784433         3877 
 2706000   0.83675156   -9.0057389    469.72043  0.014465399  0.014777121         3879 
 2707000   0.82342977   -9.0041293    470.34185  0.014479185   0.01476981         3861 
 2708000   0.83066777   -9.0207366    469.88992  0.014459931    0.0147625         3885 
 2709000   0.82015601   -9.0060032    470.10253  0.014461133  0.014755186         3871 
 2710000   0.81170548   -9.0131778    469.37609  0.014433459  0.014747887         3880 
 2711000   0.79794048    -9.011041     470.2533    0.0144551  0.014740592         3882 
 2712000   0.80554967   -9.0115327    469.99102   0.01444171  0.014733293         3836 
 2713000   0.81680453   -9.0139301    468.23432  0.014382428  0.014725998         3849 
 2714000      0.81052   -8.9896041    469.65361  0.014420708  0.014718706         3864 
 2715000   0.80966099   -8.9833697    469.62564  0.014414538  0.014711421         3853 
 2716000   0.80215584   -9.0139628    469.04499  0.014391415  0.014704145         3875 
 2717000   0.80256592   -9.0400022    468.71373  0.014375958  0.014696862         3874 
 2718000   0.81328948   -9.0317897    469.28937  0.014388318  0.014689595         3848 
 2719000   0.81047035   -8.9868807    470.60779  0.014423434  0.014682321         3867 
 2720000   0.80190761   -9.0132647    469.68361  0.014389817  0.014675056         3886 
 2721000   0.81583014   -9.0113056    469.77178  0.014387228  0.014667794         3855 
 2722000   0.82426219   -9.0326712     470.0685  0.014391027  0.014660532         3899 
 2723000   0.80750184   -9.0228921    470.76533  0.014407067  0.014653283         3884 
 2724000   0.82758468   -9.0201031    469.53245  0.014364062  0.014646029         3874 
 2725000   0.81296825   -9.0156653    469.96128  0.014371904  0.014638788         3873 
 2726000   0.81132026   -9.0236697      469.978  0.014367144  0.014631551         3861 
 2727000   0.81829911   -9.0115393    469.16712  0.014337096  0.014624311         3876 
 2728000   0.82289847   -8.9961889    469.54679  0.014343438  0.014617074         3861 
 2729000   0.80565019   -9.0038454    470.10846  0.014355333  0.014609852         3868 
 2730000   0.80849403   -9.0124468    470.08478  0.014349352  0.014602636         3844 
 2731000   0.81300211   -8.9955692     470.8177  0.014366462  0.014595423         3888 
 2732000   0.82669467   -9.0057767    470.45384  0.014350105  0.014588213         3864 
 2733000   0.80661644   -9.0127833    470.17109  0.014336233  0.014581005         3889 
 2734000   0.80578413   -8.9953153    470.38519  0.014337515  0.014573792         3862 
 2735000     0.818046   -9.0171425    469.11554  0.014293587  0.014566577         3878 
 2736000   0.80794586   -8.9772811    470.84928   0.01434117  0.014559399         3795 
 2737000   0.80110913   -9.0266582    469.72415  0.014301673  0.014552196         3874 
 2738000    0.8251895   -9.0047419    469.38012  0.014285979     0.014545         3852 
 2739000    0.8228682    -9.015883    469.66454  0.014289416  0.014537808         3859 
 2740000   0.80402803   -8.9969877    470.45464  0.014308231  0.014530619         3858 
 2741000   0.80192058   -8.9990651    470.06105  0.014291045  0.014523443         3858 
 2742000   0.80586228   -9.0028376    469.77162  0.014277037  0.014516262         3860 
 2743000   0.82377524   -9.0316862    468.82171  0.014242973  0.014509088         3867 
 2744000   0.80903138   -9.0045962    469.20459  0.014249411  0.014501911         3891 
 2745000   0.81866636   -9.0151962    468.39999  0.014219793  0.014494739         3884 
 2746000   0.82737834   -8.9989729    470.22999   0.01427015  0.014487574         3868 
 2747000   0.80161403   -9.0514328    469.30399  0.014236864  0.014480411         3878 
 2748000   0.80222716   -9.0365317    469.83752  0.014247863  0.014473251         3894 
 2749000   0.81153988   -9.0309222    469.70885  0.014238779  0.014466094         3845 
 2750000   0.82249222   -9.0102452    470.82015  0.014267277  0.014458952         3840 
 2751000    0.8105488   -9.0175874    470.26906  0.014245397   0.01445181         3874 
 2752000   0.81429597   -9.0279948    471.08353  0.014264884  0.014444675         3851 
 2753000    0.8162025   -9.0130549    469.62217  0.014215467  0.014437538         3875 
 2754000   0.79742889   -9.0094055    471.24232  0.014259329  0.014430402         3843 
 2755000   0.80748951   -9.0370993    468.79935  0.014180259  0.014423275         3908 
 2756000   0.81050939   -9.0374957    469.91598  0.014208877  0.014416144         3848 
 2757000   0.83341222   -9.0273177    470.22385  0.014213029  0.014409027         3849 
 2758000   0.80812658   -9.0159625    470.04712  0.014202536  0.014401911         3867 
 2759000   0.81510525   -9.0304631    469.14741  0.014170213  0.014394811         3865 
 2760000   0.81349536     -9.00481    469.70239  0.014181835  0.014387706         3837 
 2761000   0.80774946   -8.9958355    469.76868    0.0141787    0.0143806         3862 
 2762000   0.78345876   -9.0333675    469.41364  0.014162854  0.014373497         3884 
 2763000   0.81614123    -9.027881    469.05051  0.014146776  0.014366396         3888 
 2764000    0.8188443    -9.007515    469.62413  0.014158952  0.014359306         3876 
 2765000    0.8221329   -9.0332308    469.53538  0.014151157  0.014352204         3892 
 2766000   0.80060132   -9.0081193    469.95415  0.014158657  0.014345105         3875 
 2767000   0.80779604   -9.0396175    470.23445  0.014161982   0.01433802         3894 
 2768000   0.81274522   -9.0161493    470.31339  0.014159242  0.014330924         3879 
 2769000   0.80946935    -9.003748    470.17489  0.014149961  0.014323849         3896 
 2770000   0.81803791   -9.0235888    470.16506  0.014144557  0.014316775         3875 
 2771000   0.81997364   -9.0250513    469.38892  0.014116111  0.014309698         3879 
 2772000   0.80901766   -9.0552933    468.97634  0.014098615  0.014302636         3884 
 2773000   0.80716938   -9.0361214    470.06503  0.014126248  0.014295566         3874 
 2774000   0.81272557   -9.0352108     469.6347  0.014108228  0.014288509         3906 
 2775000   0.79308236   -9.0174119    470.11822  0.014117664  0.014281447         3861 
 2776000   0.81317941   -9.0174575    469.39221  0.014090784  0.014274389         3897 
 2777000   0.80860442    -9.024037    469.94162  0.014102197  0.014267337         3905 
 2778000   0.81774566   -9.0556106    469.07893  0.014071242  0.014260298         3885 
 2779000   0.83589507   -8.9833372    470.34247  0.014104068   0.01425326         3885 
 2780000   0.80839889   -9.0352706    469.09277  0.014061534  0.014246215         3872 
 2781000    0.7981291    -9.048191    469.16481  0.014058636  0.014239179         3866 
 2782000   0.80303911   -9.0314608     469.2487  0.014056096  0.014232142         3852 
 2783000   0.82427468   -9.0302953    469.54908   0.01406004  0.014225109         3877 
 2784000   0.81748224   -9.0434634     468.7117  0.014029924  0.014218083         3864 
 2785000   0.82158493   -9.0200737    469.50005  0.014048476  0.014211058         3821 
 2786000   0.81465562   -9.0403179    469.56003  0.014045227  0.014204029         3890 
 2787000   0.82276912   -9.0251341    469.69633  0.014044263  0.014197015         3841 
 2788000   0.79826127    -9.056908    468.79648  0.014012329  0.014190004         3890 
 2789000   0.81023991   -9.0203977     469.0062  0.014013571  0.014183005         3879 
 2790000   0.81025406   -9.0393157    469.23452  0.014015368  0.014175998         3862 
 2791000   0.80394154   -9.0115619    469.96839  0.014032258  0.014168998         3867 
 2792000   0.81277777   -9.0127634    468.69078  0.013989099  0.014161992         3867 
 2793000   0.80833994   -9.0001421    469.41955  0.014005835  0.014155002         3863 
 2794000   0.83139205   -9.0293279     469.1593   0.01399306  0.014148011         3855 
 2795000   0.80969423   -9.0297467    468.53379  0.013969403  0.014141019         3881 
 2796000   0.80289853   -9.0555612    468.95076  0.013976835  0.014134037         3852 
 2797000   0.79500493   -9.0203191    470.07247  0.014005258   0.01412704         3851 
 2798000   0.82115082   -9.0423477    468.89905  0.013965304   0.01412006         3863 
 2799000   0.81415384   -9.0115487    469.48324  0.013977707  0.014113088         3876 
 2800000   0.78383093   -9.0134151    469.63689  0.013977288  0.014106117         3855 
 2801000   0.81037983   -9.0467577    468.38023  0.013934911  0.014099152         3851 
 2802000   0.80485239   -9.0470792    468.79169  0.013942175  0.014092195         3888 
 2803000   0.80474952   -9.0524521    468.87861  0.013939785  0.014085243         3850 
 2804000   0.81836821   -9.0158447    469.87916   0.01396455  0.014078284         3867 
 2805000   0.80565476    -9.012611    469.41734  0.013945851  0.014071331         3849 
 2806000   0.81481795   -9.0297508    468.82621  0.013923325  0.014064376         3869 
 2807000   0.81846841   -9.0416229    469.41458  0.013935832  0.014057425         3853 
 2808000   0.80561341   -9.0375455    469.03498  0.013919604  0.014050492         3815 
 2809000   0.79980162   -9.0520954    468.51638  0.013899264  0.014043548         3835 
 2810000   0.80061625   -9.0520434    469.07456  0.013910871  0.014036616         3875 
 2811000   0.79810725   -9.0367819    469.37438   0.01391481  0.014029696         3846 
 2812000   0.80978266   -9.0442426     469.3887  0.013910286  0.014022762         3863 
 2813000   0.80976564   -9.0448319     469.0649  0.013895749  0.014015841         3841 
 2814000    0.7956104   -9.0262995    469.70852  0.013909871  0.014008924         3841 
 2815000   0.79143594   -9.0454877    469.13098  0.013887832  0.014002003         3863 
 2816000   0.77521303   -9.0385845    469.58472  0.013896328  0.013995092         3863 
 2817000   0.81702152   -9.0463352    469.27332  0.013882183  0.013988179         3863 
 2818000   0.80639307   -9.0601443     470.2026  0.013904737  0.013981269         3841 
 2819000   0.79701106   -9.0186237    468.93866  0.013862441  0.013974371         3872 
 2820000   0.79873783   -9.0397288    468.79065  0.013853151  0.013967472         3885 
 2821000   0.79227746   -9.0298812    468.58625  0.013842203  0.013960574         3850 
 2822000   0.80337283   -9.0420298     468.8672  0.013845594   0.01395369         3870 
 2823000   0.81437793   -8.9936359     469.9337  0.013872172  0.013946802         3867 
 2824000   0.81775053   -9.0502015    467.76943  0.013803394   0.01393992         3898 
 2825000   0.79747213   -9.0218409    468.96789  0.013833861  0.013933035         3831 
 2826000   0.79565528   -9.0265231    469.28556  0.013838333  0.013926167         3865 
 2827000   0.78452555   -9.0389037    469.28473  0.013833414  0.013919287         3889 
 2828000    0.7931953   -9.0429313    468.92701  0.013817981  0.013912423         3864 
 2829000   0.79855827   -9.0388232    469.15908  0.013819933  0.013905557         3875 
 2830000   0.79425037   -9.0421982    468.82845  0.013805314  0.013898699         3884 
 2831000   0.81083777   -9.0198366    469.67733  0.013825425  0.013891837         3883 
 2832000   0.81378608   -9.0658485    468.66357  0.013790712  0.013884972         3883 
 2833000   0.81313823   -9.0059056    469.79336  0.013819078   0.01387812         3871 
 2834000   0.81207927   -9.0486438    469.21487  0.013797191  0.013871272         3845 
 2835000    0.8036552   -9.0512654    468.17936  0.013761886  0.013864431         3863 
 2836000   0.78881788   -9.0488531    468.78861  0.013774936   0.01385759         3901 
 2837000   0.79840768   -9.0685631    468.99301  0.013776084  0.013850747         3879 
 2838000    0.7907199    -9.038343     468.8804  0.013767924  0.013843918         3880 
 2839000   0.80632214   -9.0325348    469.64466  0.013785507  0.013837084         3847 
 2840000   0.80081428   -9.0344135    468.90181  0.013758856  0.013830259         3868 
 2841000   0.78950652   -9.0155444    469.95869  0.013785014  0.013823435         3879 
 2842000   0.79337831   -9.0270066    469.75499  0.013774191  0.013816613         3865 
 2843000   0.81025391    -9.044761    469.59055  0.013764525  0.013809796         3837 
 2844000   0.78528172   -9.0523002     468.7545  0.013735188  0.013802978         3884 
 2845000   0.80324035   -9.0498662    468.84544  0.013733024  0.013796172         3850 
 2846000   0.80941704   -9.0378377    469.35182  0.013743026  0.013789374         3861 
 2847000   0.80704469   -9.0311012     469.5654   0.01374445  0.013782574         3840 
 2848000   0.77510442   -9.0376982    469.72927  0.013744419  0.013775778         3857 
 2849000    0.7854131   -9.0344915    468.85793  0.013714108  0.013768979         3882 
 2850000   0.77389061   -9.0412719      469.288  0.013721871  0.013762194         3860 
 2851000   0.80202321   -9.0366109    469.06114  0.013710427  0.013755404         3879 
 2852000   0.79923222   -9.0485682    468.24148   0.01368167  0.013748625         3849 
 2853000   0.78460608    -9.057688    469.39334  0.013710519  0.013741849         3862 
 2854000   0.78444764   -9.0601405    468.39606  0.013676596  0.013735071         3858 
 2855000   0.78270774   -9.0716422    468.40882  0.013672178  0.013728296         3867 
 2856000   0.79639984   -9.0360299    468.08553  0.013657958  0.013721529         3887 
 2857000   0.77715924   -9.0519152    467.88855  0.013647432  0.013714764         3877 
 2858000   0.80406695   -9.0561479    468.51976  0.013661061  0.013708003         3904 
 2859000   0.79568387   -9.0411344    469.90981    0.0136968  0.013701248         3849 
 2860000     0.779369   -9.0754597    468.30313  0.013645196    0.0136945         3921 
 2861000    0.7849476   -9.0813893    470.05958  0.013691587  0.013687744         3897 
 2862000   0.78726744   -9.0436358    469.56558   0.01367242  0.013680994         3889 
 2863000    0.8122091   -9.0350889    468.93976  0.013649428  0.013674251         3886 
 2864000    0.7867939   -9.0370188    468.75311  0.013639232  0.013667513         3881 
 2865000   0.80123386   -9.0643569    469.22498  0.013648196  0.013660773         3883 
 2866000   0.78788236   -9.0322967    469.47032  0.013650568   0.01365404         3855 
 2867000   0.77830001   -9.0471172    468.15694  0.013607631  0.013647318         3862 
 2868000   0.79368798   -9.0382646    468.26543  0.013606039  0.013640594         3896 
 2869000   0.78814876   -9.0708984      468.184  0.013598931  0.013633868         3863 
 2870000   0.80094743    -9.019508    469.68587  0.013637801  0.013627153         3894 
 2871000   0.78080623   -9.0448315    469.79917   0.01363634  0.013620437         3883 
 2872000   0.79539731   -9.0536922    468.84479  0.013603899  0.013613735         3879 
 2873000   0.79104902    -9.042437    468.61308  0.013592443  0.013607033         3882 
 2874000    0.7804006   -9.0737468    467.91613  0.013567505  0.013600323         3903 
 2875000   0.77652513   -9.0393862    469.36629   0.01360482  0.013593618         3878 
 2876000   0.80257638   -9.0638582    469.02118   0.01359009  0.013586916         3867 
 2877000    0.7829805   -9.0688561    467.04904  0.013528242  0.013580216         3891 
 2878000   0.79974413   -9.0474969    468.57836  0.013567824  0.013573521         3887 
 2879000   0.79835085   -9.0342451    469.20547  0.013581263  0.013566839         3897 
 2880000   0.80823676   -9.0669427    468.28172  0.013549818  0.013560156         3912 
 2881000   0.76695815   -9.0410195    468.30332   0.01354574  0.013553478         3844 
 2882000   0.80818513   -9.0620137    467.70005  0.013523596  0.013546795         3896 
 2883000   0.78937123   -9.0590629    467.61334  0.013516399  0.013540117         3882 
 2884000   0.79669935   -9.0735593    468.58551  0.013539803  0.013533435         3902 
 2885000   0.80789914   -9.0536546    468.60112  0.013535561  0.013526773         3897 
 2886000   0.77436091   -9.0444159    467.96556  0.013512519  0.013520107         3882 
 2887000   0.79554638   -9.0891044    468.79758  0.013531855  0.013513442         3886 
 2888000   0.76389913   -9.0724608     469.1434  0.013537148  0.013506783         3884 
 2889000   0.78511229   -9.0555342    469.05668  0.013529961  0.013500127         3895 
 2890000   0.79687776   -9.0687387    468.03935  0.013495944   0.01349348         3872 
 2891000   0.79498584   -9.0539569    468.32284  0.013499448  0.013486838         3856 
 2892000   0.78269063   -9.0514356    468.97923  0.013513694  0.013480198         3869 
 2893000   0.77123775   -9.0797677     467.4547  0.013465108  0.013473564         3891 
 2894000   0.78007175   -9.0627937    467.74333  0.013468767   0.01346692         3852 
 2895000   0.78119758   -9.0605252    468.68194  0.013491132  0.013460291         3850 
 2896000   0.80010141   -9.0707661    468.02643  0.013467611  0.013453668         3857 
 2897000   0.78012649   -9.0623314    468.56102   0.01347834  0.013447046         3868 
 2898000   0.79328052   -9.0656859    468.62381  0.013475495  0.013440425         3860 
 2899000   0.76929189   -9.0665427    468.59294  0.013469959  0.013433809         3873 
 2900000    0.7914331   -9.0815354    468.31401  0.013457299  0.013427196         3867 
 2901000   0.78182536   -9.0793013    468.82524  0.013467346   0.01342059         3886 
 2902000   0.80218217   -9.0485197    468.86695  0.013463903  0.013413983         3863 
 2903000   0.77702314   -9.0651404    467.56341  0.013421846  0.013407387         3882 
 2904000   0.79015225   -9.0733178    468.75652  0.013451461  0.013400787         3886 
 2905000   0.79806242    -9.068398    469.39399  0.013465117  0.013394208         3882 
 2906000   0.77317309    -9.068705    468.36077  0.013430855  0.013387625         3910 
 2907000   0.78851934   -9.0598773    468.66884  0.013435066  0.013381048         3873 
 2908000   0.80718402   -9.0584555    468.48726  0.013425242  0.013374467         3865 
 2909000   0.78780704   -9.0629811    468.03106  0.013407559  0.013367896         3858 
 2910000   0.76303348   -9.0585756    469.02884  0.013431525  0.013361326         3865 
 2911000   0.78374377   -9.0618181    469.01177  0.013426422  0.013354759         3887 
 2912000   0.79511852   -9.0671216    468.14655  0.013397051  0.013348187         3879 
 2913000   0.79223682   -9.1027259    467.20516  0.013365521  0.013341618         3891 
 2914000   0.75634877   -9.0638407    468.99105  0.013412007  0.013335063         3885 
 2915000   0.78151853   -9.0438246    469.34975   0.01341766  0.013328511         3870 
 2916000   0.77236637   -9.0483128    469.17527  0.013408072   0.01332196         3901 
 2917000   0.77517829   -9.0567535    469.01455  0.013398884   0.01331541         3830 
 2918000    0.7864604   -9.0928897    467.94983  0.013363886  0.013308859         3878 
 2919000    0.7933637   -9.0691236    468.68541  0.013380307  0.013302324         3866 
 2920000   0.76831223   -9.0687719    468.70622  0.013376319   0.01329579         3886 
 2921000   0.77280536   -9.0900163    468.04119  0.013352767  0.013289255         3912 
 2922000      0.78978   -9.0968222    468.45565  0.013360017  0.013282726         3895 
 2923000   0.77080524   -9.0909548    468.05311  0.013343971  0.013276198         3876 
 2924000   0.77847348   -9.0805421    467.13323  0.013313191  0.013269672         3862 
 2925000   0.77801321   -9.0762982    467.71573  0.013325234  0.013263147         3897 
 2926000    0.7613647   -9.0517226    468.24739  0.013335822  0.013256645         3888 
 2927000   0.77123482   -9.1017743    467.98875  0.013323903  0.013250131         3870 
 2928000   0.77260593   -9.0617219     468.7257  0.013340326  0.013243621         3883 
 2929000   0.78562476   -9.0730428    468.20592  0.013320983  0.013237112         3906 
 2930000   0.78641947   -9.0673322    468.56419  0.013326627  0.013230609         3902 
 2931000   0.77416445   -9.0653483    468.11566  0.013309327  0.013224109         3871 
 2932000   0.78491534   -9.0898124    467.48531  0.013286872  0.013217611         3898 
 2933000   0.78771896   -9.0691986    467.92887  0.013294945  0.013211121         3887 
 2934000    0.7740375   -9.0913643    468.34937  0.013302356  0.013204634         3889 
 2935000   0.78396204   -9.0760141    468.42856  0.013300073  0.013198148         3890 
 2936000     0.787079   -9.0621811    468.96015  0.013310631  0.013191678         3877 
 2937000   0.75962898    -9.114256    468.08941  0.013281393  0.013185195         3869 
 2938000   0.77196777   -9.0922848    468.62169   0.01329197  0.013178724         3868 
 2939000    0.7905517   -9.0805857    468.74812  0.013291032  0.013172255         3893 
 2940000   0.76438044   -9.0955401    467.75481  0.013258356  0.013165783         3895 
 2941000   0.79342513   -9.0526955    468.74462  0.013281895   0.01315932         3854 
 2942000   0.78572945   -9.0858062    467.76322  0.013249581  0.013152859         3859 
 2943000   0.76892544   -9.0999922    469.11693  0.013283411  0.013146403         3891 
 2944000   0.77300253   -9.0783681    468.56229  0.013263199  0.013139953         3890 
 2945000   0.78442276   -9.0990895    468.14556  0.013246903  0.013133516         3878 
 2946000    0.7849095   -9.1013734    468.12927  0.013241946  0.013127079         3891 
 2947000   0.78627845   -9.0716792    467.63016  0.013223339  0.013120637         3897 
 2948000   0.80327167   -9.0739612    468.16875  0.013234078  0.013114197         3884 
 2949000   0.79299956   -9.1036368    467.41409  0.013208265  0.013107765         3878 
 2950000   0.78827142   -9.0966691    468.58615  0.013236897  0.013101333         3887 
 2951000   0.77805227   -9.0949323    468.29578  0.013224212   0.01309491         3874 
 2952000   0.77731916   -9.0920465    468.33011  0.013220701  0.013088493         3866 
 2953000   0.78768187   -9.0725277    468.54497  0.013222287  0.013082076         3894 
 2954000   0.80325549   -9.0723575    467.60473  0.013191287  0.013075665         3867 
 2955000    0.7693306   -9.0769029    467.86187  0.013194074  0.013069257         3871 
 2956000   0.78181052   -9.0594772    468.29936  0.013201944  0.013062847         3880 
 2957000   0.78743127   -9.1087662    467.81814  0.013183918  0.013056455         3896 
 2958000   0.77978354    -9.083937    467.54231   0.01317169  0.013050061         3873 
 2959000   0.79264994   -9.0974488    468.11058  0.013183243  0.013043672         3853 
 2960000   0.79406396   -9.1089185    468.50959  0.013190022  0.013037284         3856 
 2961000   0.76595968   -9.0728707    468.62608  0.013188846   0.01303091         3856 
 2962000   0.77194877   -9.0914717    468.04287  0.013167985  0.013024523         3881 
 2963000   0.78254934   -9.0785799    468.85247  0.013186311   0.01301814         3878 
 2964000   0.78265537   -9.1030797    467.47721  0.013143196  0.013011769         3869 
 2965000   0.76911158   -9.0931248    468.16432  0.013158075   0.01300539         3895 
 2966000   0.77194629   -9.0891617    467.98873  0.013148706  0.012999013         3867 
 2967000   0.78148355   -9.0898276     468.8124  0.013167408  0.012992643         3864 
 2968000   0.76976536   -9.0925136    469.68199  0.013187387  0.012986282         3877 
 2969000   0.75461371    -9.078051    468.66534  0.013154411  0.012979918         3874 
 2970000   0.77671873   -9.0980774    468.42673  0.013143287  0.012973565         3882 
 2971000   0.78088269   -9.0787488    467.53926   0.01311397  0.012967214         3882 
 2972000   0.75840215   -9.0854588    467.79515  0.013116733  0.012960863         3863 
 2973000    0.7921478    -9.099411    468.87053  0.013142464  0.012954521         3903 
 2974000   0.77361902   -9.0777979    468.65791  0.013132087  0.012948175         3853 
 2975000   0.77483211   -9.0987685    468.60313  0.013126138  0.012941837         3903 
 2976000   0.78008401   -9.0745981    468.82802  0.013128025  0.012935499         3858 
 2977000   0.77917064   -9.0912521    468.56678  0.013116302  0.012929173         3857 
 2978000   0.79091496   -9.0920954    468.00539  0.013096188  0.012922845         3889 
 2979000   0.74498904   -9.0677397    466.88322  0.013060401   0.01291652         3888 
 2980000    0.7774042   -9.1020096    468.32101  0.013096225  0.012910201         3882 
 2981000   0.79116062   -9.0872885    467.53349  0.013069817  0.012903888         3875 
 2982000   0.78371672   -9.0944216    469.16243  0.013110955  0.012897569         3880 
 2983000   0.77363544   -9.0918777    467.60996   0.01306319  0.012891258         3882 
 2984000   0.77763426   -9.0910139    468.13038  0.013073346  0.012884956         3891 
 2985000   0.76957554   -9.0871998    468.20777  0.013071127  0.012878649         3890 
 2986000   0.78631893   -9.1103238    467.83665  0.013056392  0.012872342         3895 
 2987000   0.76585184   -9.0964881    468.18547  0.013061753  0.012866043         3876 
 2988000   0.77736999   -9.1061188    468.19871  0.013057751  0.012859754         3854 
 2989000   0.77570959   -9.0802301    468.24621  0.013054706  0.012853465         3876 
 2990000   0.77411454   -9.0916575    467.60863  0.013032571  0.012847184         3867 
 2991000   0.77087411   -9.0854662    468.18404  0.013044245  0.012840906         3869 
 2992000   0.78133256    -9.114753    468.00241  0.013034826  0.012834635         3857 
 2993000   0.75322675   -9.1069801    467.58318  0.013018799  0.012828353         3880 
 2994000   0.79384759   -9.0864239    467.58298  0.013014445  0.012822091         3904 
 2995000   0.76561816    -9.104771      467.491   0.01300754  0.012815827         3897 
 2996000   0.77268541   -9.0960649    467.11874  0.012992844   0.01280956         3878 
 2997000   0.75777245   -9.0768403    468.33352  0.013022287  0.012803311         3866 
 2998000   0.77979037   -9.1116747    467.50501  0.012994914  0.012797053         3880 
 2999000   0.78022917   -9.0927087    467.52677  0.012991185  0.012790799         3889 
 3000000   0.77116992   -9.0973935    467.16405  0.012976779   0.01278455         3893 
 3001000   0.78079631    -9.084392    469.21015  0.013029272  0.012778302         3859 
 3002000   0.78272315   -9.0686948     468.3368  0.013000689  0.012772063         3842 
 3003000    0.7867137   -9.1078898     467.0891  0.012961736  0.012765834         3886 
 3004000   0.76682481   -9.1093569    468.32695  0.012991759  0.012759605         3877 
 3005000   0.75947485   -9.1207542    466.60555  0.012939699  0.012753373         3876 
 3006000   0.80097292   -9.1227854    467.84523  0.012969761  0.012747148         3847 
 3007000   0.76626264   -9.1123721    468.42475  0.012981508  0.012740927         3879 
 3008000   0.76968612   -9.0943137    468.85584  0.012989136  0.012734709         3860 
 3009000   0.77579016   -9.1073886    467.93135  0.012959215  0.012728487         3857 
 3010000   0.76633765    -9.111361    467.25229   0.01293611  0.012722277         3860 
 3011000   0.77556073   -9.1006815    467.51139  0.012938984  0.012716074         3875 
 3012000   0.75919906   -9.0995399    467.62838  0.012937926  0.012709869         3865 
 3013000   0.77403494   -9.1100684    467.09682   0.01291893  0.012703666         3904 
 3014000   0.76768447   -9.0994719    467.86144  0.012935784  0.012697464         3880 
 3015000   0.76107154   -9.1044813    467.71379  0.012927413  0.012691271         3888 
 3016000   0.74928067   -9.1133465    467.49607  0.012917111  0.012685083         3877 
 3017000   0.77246057   -9.0902109    468.38184  0.012937295  0.012678899         3835 
 3018000    0.7705127    -9.116278    467.12002  0.012898167  0.012672716         3889 
 3019000     0.756148   -9.0920593     467.7372  0.012910931  0.012666543         3855 
 3020000   0.77150935   -9.1018074    467.16327  0.012890819  0.012660365         3869 
 3021000   0.75739678   -9.0933011    467.80259  0.012904187  0.012654195         3856 
 3022000   0.77412858     -9.10434    467.22561  0.012884006  0.012648024         3862 
 3023000   0.75881787   -9.1121811    467.21233  0.012879378  0.012641859         3866 
 3024000   0.77562431   -9.0846281    468.36684  0.012906935  0.012635699         3869 
 3025000   0.77103786   -9.1072577    468.12603  0.012896034  0.012629533         3867 
 3026000   0.76150242    -9.107188    467.75067  0.012881435  0.012623374         3868 
 3027000   0.76941545   -9.1126165     467.4632  0.012869265  0.012617222         3892 
 3028000   0.77269101   -9.0969242    467.98269  0.012879312  0.012611073         3861 
 3029000   0.76008172   -9.0831916    467.17969  0.012852968  0.012604929         3871 
 3030000   0.76724401   -9.1015729    467.91292  0.012868892  0.012598789         3867 
 3031000    0.7651132   -9.0896024    469.10999  0.012897558   0.01259266         3877 
 3032000   0.77104471   -9.1352292    467.05118  0.012836719  0.012586534         3884 
 3033000   0.76557871   -9.1159295     467.1506  0.012835218  0.012580407         3872 
 3034000   0.78635057   -9.1227178    467.56947  0.012842493  0.012574279         3886 
 3035000   0.76354748   -9.0924195    467.59712   0.01283902  0.012568151         3856 
 3036000   0.77264425   -9.0866433    467.61012  0.012835148   0.01256203         3871 
 3037000   0.76944547   -9.0806469    467.92698  0.012839617  0.012555909         3872 
 3038000   0.78117637   -9.0961391    467.90008  0.012834652  0.012549799         3869 
 3039000   0.77312525   -9.1015699    467.35066  0.012815363  0.012543696         3874 
 3040000   0.77801218   -9.1180087    466.71556  0.012793738  0.012537593         3874 
 3041000   0.76104393   -9.1274593    468.11437  0.012827863  0.012531487         3864 
 3042000   0.76682915   -9.0964707    467.47365  0.012806094  0.012525392         3853 
 3043000   0.74512513   -9.1260957    467.59134  0.012805108  0.012519297         3868 
 3044000   0.75716131   -9.1027937    467.35619  0.012794464  0.012513211         3856 
 3045000   0.76935976   -9.0859759    467.80943  0.012802666  0.012507125         3872 
 3046000   0.77792144    -9.101354    468.22521  0.012809838  0.012501044         3871 
 3047000   0.77431519   -9.0962225    468.35446  0.012809169  0.012494966         3879 
 3048000   0.75078591   -9.1002104    468.00999  0.012795549  0.012488884         3872 
 3049000     0.763699   -9.1094245    467.30011   0.01277195  0.012482812         3860 
 3050000   0.77051128   -9.1269372    467.02317  0.012760196  0.012476737         3880 
 3051000   0.75547292   -9.1186908    467.30571  0.012763731  0.012470671         3888 
 3052000   0.76378329   -9.1213745    467.64297  0.012768757   0.01246461         3861 
 3053000    0.7460404   -9.1132963    467.75763  0.012767705  0.012458558         3896 
 3054000    0.7448032   -9.0779862    467.70815  0.012762174  0.012452507         3893 
 3055000   0.76005036   -9.1095472    468.00266   0.01276603   0.01244646         3863 
 3056000   0.78035073   -9.0814851    468.33353  0.012770875  0.012440418         3851 
 3057000   0.76321638   -9.0922986    468.29874  0.012765749  0.012434377         3868 
 3058000   0.77594582   -9.1030292    468.29209  0.012761393  0.012428342         3864 
 3059000   0.75754337    -9.117404    468.42169  0.012760752  0.012422304         3846 
 3060000   0.74635805   -9.1239674    467.72712  0.012737667  0.012416266         3863 
 3061000   0.78789513   -9.1141981    468.05452  0.012742419  0.012410232         3871 
 3062000   0.74814469   -9.0934498    466.71299  0.012701747  0.012404208         3858 
 3063000   0.76140564   -9.0985135    467.46288  0.012718002  0.012398178         3909 
 3064000   0.76436408   -9.0989272    467.92996  0.012726555  0.012392155         3896 
 3065000   0.74845161   -9.1278775    467.96611  0.012723385  0.012386135         3867 
 3066000   0.75948836   -9.1153152    468.09987  0.012722871  0.012380118         3862 
 3067000   0.76035575   -9.1363981    467.02869  0.012689618  0.012374109         3883 
 3068000   0.76854012   -9.0960568    466.87609  0.012681337  0.012368106         3864 
 3069000   0.75927872   -9.1326441    467.40243  0.012691496  0.012362102         3895 
 3070000   0.75686359   -9.1064664    467.63081  0.012693562  0.012356105         3881 
 3071000    0.7522172   -9.0948645    468.26003  0.012706502  0.012350111         3867 
 3072000   0.75572949   -9.1311485    466.67195  0.012659287  0.012344115         3881 
 3073000   0.77064669   -9.1073384    467.03238  0.012664941  0.012338132         3903 
 3074000   0.76371088   -9.1242466    467.53486  0.012674443  0.012332148         3874 
 3075000   0.77935886   -9.1132927    467.49073  0.012669126  0.012326168         3891 
 3076000   0.76610907   -9.1157833    467.32723  0.012660577  0.012320191         3841 
 3077000   0.75229219   -9.1204915    466.59195  0.012636549  0.012314217         3866 
 3078000   0.77673127   -9.1083756    468.10088  0.012673297  0.012308246         3886 
 3079000    0.7667054   -9.1351634    466.78086  0.012633454  0.012302269         3856 
 3080000   0.76010523   -9.0983547    467.45467  0.012647583   0.01229631         3850 
 3081000    0.7427833   -9.1143772    467.09235  0.012633678  0.012290351         3848 
 3082000   0.75955886   -9.1196327    466.03761   0.01260106  0.012284395         3894 
 3083000   0.77335819   -9.1353068    467.32301  0.012631717  0.012278433         3887 
 3084000   0.74625438   -9.1134422    467.11041  0.012621877  0.012272483         3887 
 3085000   0.75635337   -9.1166542    468.33588  0.012650888  0.012266536         3896 
 3086000   0.77130484   -9.1226079    466.75283  0.012604041  0.012260592         3869 
 3087000   0.75740335   -9.1021463    467.43545  0.012618385  0.012254648         3879 
 3088000   0.76370959   -9.1375451    467.13604  0.012606219  0.012248712         3874 
 3089000   0.74357956   -9.1184529    467.98812  0.012625125  0.012242787         3862 
 3090000     0.754557   -9.1320179    467.50498  0.012608009  0.012236856         3855 
 3091000   0.76095078   -9.0713491    467.59143  0.012606261  0.012230936         3871 
 3092000   0.75630228   -9.1152354    466.65467  0.012576937  0.012225021         3893 
 3093000   0.75455884   -9.0940528    467.62404  0.012598988  0.012219104         3843 
 3094000   0.75116459   -9.1587914    466.86033  0.012574346  0.012213191         3865 
 3095000   0.75808397   -9.0887645    468.27652  0.012608415  0.012207281         3876 
 3096000   0.76232759   -9.1190933    466.59476  0.012559075  0.012201369         3890 
 3097000   0.76433133   -9.1214735    467.38808  0.012576366  0.012195459         3879 
 3098000    0.7419481    -9.113433    467.33112  0.012570775  0.012189555         3856 
 3099000   0.75098115   -9.1276336    467.85695  0.012580858  0.012183657         3904 
 3100000   0.76033597    -9.117639    466.79449  0.012548239  0.012177753         3882 
 3101000   0.75680526   -9.1479282    466.65973  0.012540571  0.012171861         3875 
 3102000   0.74242109   -9.1219552    467.06123  0.012547314  0.012165981         3874 
 3103000   0.75932012   -9.1338724    466.89481  0.012538802    0.0121601         3889 
 3104000    0.7453043   -9.1253798     466.6553  0.012528332  0.012154217         3881 
 3105000   0.75265514   -9.1134338     467.3712   0.01254351  0.012148338         3872 
 3106000   0.75378104   -9.1355571    467.31217  0.012537888  0.012142463         3884 
 3107000    0.7517776   -9.1311105    466.99197  0.012525265  0.012136595         3860 
 3108000   0.76095167    -9.116734     467.2733  0.012528778  0.012130732         3878 
 3109000   0.75672247   -9.1118514    467.16801  0.012521926  0.012124864         3872 
 3110000   0.77041761   -9.1293274    467.27886   0.01252087  0.012119012         3876 
 3111000   0.73813076   -9.1222908    467.19384  0.012514568  0.012113158         3894 
 3112000   0.75335244   -9.1215201     465.9641  0.012477616  0.012107299         3878 
 3113000   0.76098098   -9.1270321    466.59495  0.012490495  0.012101455         3878 
 3114000     0.751607   -9.1194522     467.4283  0.012508786  0.012095613         3880 
 3115000   0.74362605   -9.0963493    466.40179  0.012477309  0.012089778         3848 
 3116000   0.74781058   -9.1364602    466.62889  0.012479378  0.012083938         3885 
 3117000   0.76184006   -9.1398135    466.83024  0.012480757  0.012078102         3865 
 3118000   0.77234456   -9.1429919    465.86646  0.012450996  0.012072272         3890 
 3119000   0.75927002   -9.1172493    467.33077  0.012486127  0.012066448         3886 
 3120000   0.73902006   -9.1522579     467.5611  0.012488277  0.012060621         3887 
 3121000   0.74970957   -9.1033123    466.64357  0.012459777  0.012054801         3895 
 3122000   0.74162168   -9.1486158    467.03509  0.012466237  0.012048974         3889 
 3123000   0.75508062   -9.1272884    466.75956  0.012454893  0.012043158         3859 
 3124000   0.75480391   -9.1349179    466.90855   0.01245488   0.01203734         3861 
 3125000   0.76837427   -9.1510767     466.3929  0.012437144   0.01203153         3895 
 3126000   0.74259985   -9.1153215    467.33203  0.012458201  0.012025728         3859 
 3127000   0.76814203   -9.1383654    466.49922  0.012432023  0.012019917         3873 
 3128000   0.76412784   -9.1423602     466.8443  0.012437242  0.012014116         3885 
 3129000   0.73769743   -9.1041399    466.38722  0.012421093  0.012008322         3864 
 3130000   0.73542694   -9.1279562    466.94262  0.012431912  0.012002526         3895 
 3131000   0.75393267   -9.1193756    467.07556   0.01243148  0.011996727         3883 
 3132000   0.74569136   -9.1406635    466.52749  0.012412928  0.011990941         3882 
 3133000   0.76624732   -9.1285912    467.29058  0.012429263  0.011985156         3884 
 3134000   0.74038004   -9.1121143    466.74884  0.012410892  0.011979375         3865 
 3135000   0.76822067   -9.1469267     466.6733  0.012404926  0.011973597         3903 
 3136000   0.74913903   -9.1060165    467.28835  0.012417314  0.011967823         3875 
 3137000   0.75483972   -9.1166946    467.79039  0.012426692  0.011962058         3869 
 3138000   0.73927694   -9.1432326    466.22331  0.012381116  0.011956289         3899 
 3139000   0.74842884   -9.1089254    467.84071   0.01242011   0.01195053         3860 
 3140000   0.74079265   -9.1253599    467.27746  0.012401206   0.01194477         3891 
 3141000   0.74886841   -9.1644883    467.02342  0.012390518  0.011939007         3887 
 3142000   0.74476198   -9.1250103    467.83362  0.012408063  0.011933252         3861 
 3143000   0.74074132   -9.1179521     466.7772  0.012376106    0.0119275         3880 
 3144000   0.73541172   -9.1167964    467.64502  0.012395171  0.011921752         3845 
 3145000   0.74242573    -9.137057    466.67434   0.01236551  0.011916005         3893 
 3146000   0.74856196   -9.1235661    466.22779  0.012349751  0.011910265         3880 
 3147000   0.74581895   -9.1621031     466.4938   0.01235287  0.011904522         3882 
 3148000    0.7466527   -9.1522625    467.03447  0.012363259  0.011898789         3884 
 3149000   0.75134985   -9.1526296    466.09633  0.012334506  0.011893058         3892 
 3150000   0.75638556   -9.1424206    466.94726  0.012353102  0.011887335         3871 
 3151000    0.7368285   -9.1250916    467.01726  0.012351033  0.011881611         3874 
 3152000   0.76066815   -9.1429374    467.51321  0.012360227  0.011875893         3888 
 3153000   0.74874743    -9.130012    467.41158   0.01235362  0.011870181         3891 
 3154000    0.7593095   -9.1445788    466.56548  0.012327348  0.011864464         3894 
 3155000     0.747202   -9.1559026    466.31514  0.012316829  0.011858748         3905 
 3156000   0.75916126   -9.1392754    466.83206  0.012326575   0.01185304         3901 
 3157000   0.74982247   -9.1329753     466.5329  0.012314774  0.011847337         3877 
 3158000   0.75843639   -9.1552504    466.14781  0.012300713  0.011841634         3894 
 3159000   0.73885278   -9.1489153    467.12837  0.012322686  0.011835935         3901 
 3160000   0.75029812   -9.1369924    467.41273  0.012326285  0.011830242         3891 
 3161000   0.73541456   -9.1236664    467.44605  0.012323264  0.011824547         3873 
 3162000   0.76682277     -9.14204    466.38767  0.012291473  0.011818862         3894 
 3163000   0.74270696   -9.1543039    465.99365  0.012277206  0.011813176         3901 
 3164000   0.73941192   -9.1289432    466.96714  0.012298966  0.011807495         3877 
 3165000   0.74718329   -9.1284285    467.39558  0.012306361  0.011801818         3868 
 3166000   0.75417276   -9.1574101    466.21918  0.012271509  0.011796146         3896 
 3167000   0.74270149   -9.1406384    465.81514  0.012257003  0.011790475         3886 
 3168000   0.75676429   -9.1494837    465.88016  0.012254844  0.011784807         3916 
 3169000   0.73272409   -9.1333056    467.26495  0.012287392   0.01177915         3885 
 3170000   0.74037404   -9.1475668    466.40934  0.012261024  0.011773487         3895 
 3171000   0.74271163    -9.138514    466.89436  0.012269903  0.011767832         3862 
 3172000   0.74267431   -9.1610697    466.84102  0.012264634  0.011762178         3892 
 3173000   0.73466761   -9.1394812    466.66643  0.012256183  0.011756528         3900 
 3174000   0.72949337   -9.1201481    466.89263  0.012258261  0.011750876         3876 
 3175000   0.73893329   -9.1500803    467.05525  0.012258668  0.011745234         3878 
 3176000   0.76018126    -9.159289     466.8592  0.012249664  0.011739594         3890 
 3177000   0.76193188    -9.123069    466.73516  0.012242555  0.011733963         3868 
 3178000   0.74988001   -9.1504433     466.6015  0.012235198  0.011728324         3885 
 3179000   0.74240157   -9.1547677    466.21241  0.012221149  0.011722696         3893 
 3180000   0.74185088    -9.124283    466.96169  0.012236942  0.011717067         3878 
 3181000   0.73621692   -9.1384111    466.96013  0.012233054  0.011711449         3859 
 3182000   0.73787047    -9.113713     466.6417   0.01222087  0.011705826         3884 
 3183000   0.74033346   -9.1405656    466.54379  0.012214467  0.011700214         3883 
 3184000   0.73103448   -9.1334199    466.04925  0.012197688  0.011694608         3888 
 3185000    0.7353459   -9.1277943    466.67462   0.01221022     0.011689         3882 
 3186000   0.76636977    -9.150127    466.24837  0.012195239  0.011683389         3868 
 3187000   0.72983337   -9.1440796    466.98539  0.012210684  0.011677788         3905 
 3188000   0.73097035   -9.1155458    467.28381  0.012214654  0.011672184         3874 
 3189000   0.73244123   -9.1336277    467.28529  0.012210863  0.011666592         3872 
 3190000    0.7370186   -9.1455564    466.41437  0.012184284  0.011661002         3876 
 3191000   0.74531726   -9.1531473    466.98348  0.012195327  0.011655413         3883 
 3192000   0.74427178    -9.160256    466.59859  0.012181459  0.011649826         3876 
 3193000   0.74971177   -9.1283818    466.63481  0.012178589  0.011644243         3879 
 3194000   0.72560644   -9.1366628    466.73763  0.012177459   0.01163867         3875 
 3195000    0.7256283   -9.1272325    467.47592  0.012192903  0.011633095         3875 
 3196000   0.73797508   -9.1149026    467.02028  0.012177208  0.011627526         3883 
 3197000   0.72986396   -9.1437734    466.54649  0.012161049  0.011621955         3882 
 3198000   0.74393648   -9.1619059    466.41717  0.012153877  0.011616387         3867 
 3199000   0.73301939   -9.1386326    466.36996  0.012148848  0.011610829         3847 
 3200000   0.76440952   -9.1807288    465.30654  0.012117358  0.011605263         3902 
 3201000   0.73882358   -9.1340088    466.09693  0.012134149  0.011599709         3897 
 3202000   0.74634646   -9.1270927     466.4686  0.012140032  0.011594158         3896 
 3203000   0.73745862    -9.169887    467.51925  0.012163577  0.011588615         3881 
 3204000   0.74279765   -9.1456968      466.265  0.012127159  0.011583074         3894 
 3205000   0.74211034    -9.144683    467.13795  0.012146073  0.011577532         3886 
 3206000   0.72702195   -9.1373382    466.38849  0.012122803  0.011571996         3881 
 3207000   0.72553017     -9.12388    467.19366  0.012139945  0.011566458         3869 
 3208000   0.74414069   -9.1725964    466.10936  0.012107995  0.011560929         3884 
 3209000   0.73233786    -9.135974    466.99283  0.012127164  0.011555403         3875 
 3210000   0.73051313   -9.1401229    466.37544  0.012107358  0.011549878         3888 
 3211000   0.73372723   -9.1346914    466.60775  0.012109617  0.011544356         3885 
 3212000   0.73780733   -9.1537529    466.06396  0.012091738  0.011538834         3885 
 3213000   0.73485808   -9.1775033    466.57995  0.012101358  0.011533314         3900 
 3214000   0.73658986   -9.1733474    465.88165  0.012079487  0.011527792         3899 
 3215000   0.73117637   -9.1720554    465.91037  0.012076474  0.011522272         3891 
 3216000   0.74554571   -9.1718251    466.16877  0.012079415   0.01151676         3887 
 3217000   0.73753305   -9.1726067     465.9624  0.012070314  0.011511256         3882 
 3218000   0.71917299   -9.1608591     467.3868  0.012103449  0.011505756         3900 
 3219000   0.74284654   -9.1466441    466.37525  0.012073502  0.011500261         3874 
 3220000   0.73522503    -9.156881    466.74554  0.012079336  0.011494766         3902 
 3221000   0.73022236   -9.1588808    466.13713  0.012059845  0.011489277         3894 
 3222000   0.74447484   -9.1471233    466.32036  0.012060841  0.011483794         3900 
 3223000    0.7413616   -9.1562923     466.6824   0.01206646  0.011478309         3891 
 3224000   0.73736444   -9.1570811    467.32699  0.012079378   0.01147283         3885 
 3225000   0.75152258   -9.1538862    467.04231  0.012068277  0.011467349         3911 
 3226000   0.72989143   -9.1655821    465.81965  0.012032952  0.011461874         3895 
 3227000   0.74400094   -9.1396603     466.7487  0.012053215    0.0114564         3903 
 3228000   0.74118829   -9.1744416    466.69231  0.012048025  0.011450929         3887 
 3229000   0.72483924   -9.1605925    466.85534  0.012048502  0.011445464         3872 
 3230000   0.73614099   -9.1652794    466.40613  0.012033182  0.011440005         3887 
 3231000   0.72154049   -9.1370004    465.74029  0.012012284  0.011434543         3906 
 3232000   0.72068136   -9.1599073    466.88368  0.012038049   0.01142909         3874 
 3233000   0.73802991   -9.1371144    467.01602  0.012037736  0.011423645         3891 
 3234000   0.73581873   -9.1624478     466.9011  0.012031053  0.011418197         3911 
 3235000   0.72909657   -9.1656433    465.43196  0.011989489  0.011412752         3874 
 3236000   0.74439732   -9.1756424    465.01754  0.011975112  0.011407311         3891 
 3237000   0.76470827   -9.1671545    466.79998  0.012017299   0.01140187         3886 
 3238000   0.74426154   -9.1618352    465.73318  0.011986133  0.011396436         3901 
 3239000   0.73174698   -9.1478366    466.37928  0.011999055  0.011391003         3861 
 3240000   0.74571273   -9.1712298     466.8588  0.012007685  0.011385574         3886 
 3241000   0.73071871   -9.1705748    465.93187  0.011980147  0.011380146         3899 
 3242000   0.72972569   -9.1434198    467.15497  0.012007891  0.011374726         3899 
 3243000   0.72763216   -9.1516735    465.96532  0.011973618  0.011369307         3880 
 3244000     0.746604   -9.1531654    467.08095  0.011998586  0.011363896         3884 
 3245000   0.74544259   -9.1666508    466.95111  0.011991554  0.011358486         3919 
 3246000   0.71986093   -9.1863772    465.70439  0.011955853  0.011353079         3896 
 3247000   0.73544717    -9.169981    466.43135  0.011970828  0.011347676         3882 
 3248000   0.72223065   -9.1584187    466.58035  0.011970966  0.011342277         3905 
 3249000   0.73753232   -9.1380766    465.99476  0.011952261  0.011336883         3899 
 3250000   0.73393436   -9.1657889    466.43419  0.011959851  0.011331486         3910 
 3251000   0.74678072   -9.1505268    466.34511  0.011953889  0.011326093         3898 
 3252000   0.74426742   -9.1846248    466.50945  0.011954424  0.011320708         3887 
 3253000   0.74956043   -9.1684211    466.20047  0.011942834  0.011315322         3889 
 3254000   0.72323103   -9.1677961      465.974  0.011933364  0.011309943         3905 
 3255000   0.73206773   -9.1629345    466.76738   0.01195001  0.011304562         3898 
 3256000   0.71699869    -9.159256    467.05295  0.011953648  0.011299185         3902 
 3257000   0.73797099   -9.1719232    466.60203  0.011938441  0.011293811         3907 
 3258000   0.73347315   -9.1692201    466.42237  0.011930181  0.011288438         3895 
 3259000   0.72956083    -9.163695    466.20513  0.011920966  0.011283068         3924 
 3260000   0.74234047   -9.1568939    466.65326  0.011928764  0.011277705         3900 
 3261000   0.75411136   -9.1634996    465.98217  0.011907957   0.01127235         3892 
 3262000   0.73248442   -9.1499451    465.86864  0.011901406  0.011266995         3899 
 3263000    0.7384899   -9.1397676    466.12829   0.01190439  0.011261644         3888 
 3264000   0.73290099   -9.1659773    465.44616  0.011883327  0.011256289         3885 
 3265000   0.73679271   -9.1614591    466.51914  0.011907074   0.01125094         3871 
 3266000   0.73897566   -9.1646461    466.48736  0.011902617  0.011245595         3900 
 3267000   0.72868846    -9.162081    466.25597  0.011893071   0.01124025         3922 
 3268000   0.73122067   -9.1627083    466.77258  0.011902606  0.011234911         3887 
 3269000   0.72110994   -9.2029422    466.34377  0.011888033  0.011229575         3931 
 3270000   0.74243499    -9.192339    466.78968  0.011895761  0.011224246         3907 
 3271000   0.73344092   -9.1763717    466.50618  0.011884902  0.011218917         3906 
 3272000   0.72082983   -9.1509203    466.68176  0.011885742  0.011213593         3901 
 3273000   0.72983657   -9.1702788    465.88371  0.011861791  0.011208268         3886 
 3274000   0.74798692   -9.1844697    465.36765  0.011845033  0.011202949         3893 
 3275000   0.74623244   -9.1542465     466.3715  0.011866959  0.011197635         3908 
 3276000   0.72681596   -9.1811802     465.4102  0.011838884  0.011192323         3890 
 3277000   0.73002209   -9.1904172    465.46017  0.011836542  0.011187015         3922 
 3278000   0.72545894   -9.1564479    465.03595  0.011822146  0.011181705         3883 
 3279000   0.72862941   -9.1840421    465.96325  0.011842108  0.011176395         3892 
 3280000   0.72288956   -9.1732993    465.42355  0.011824785  0.011171094         3894 
 3281000   0.73491144   -9.1859448    465.20539   0.01181564  0.011165799         3876 
 3282000    0.7291523   -9.1794553    466.31175  0.011840132  0.011160502         3905 
 3283000   0.74785204   -9.1581018    466.62998  0.011844603  0.011155211         3899 
 3284000   0.73808431   -9.1698663    465.02965  0.011800387  0.011149919         3897 
 3285000   0.70915369   -9.1655052    466.32202  0.011829579  0.011144632         3903 
 3286000   0.73599048   -9.1506205    465.78039  0.011812244   0.01113935         3886 
 3287000   0.71867745   -9.1698102    465.65544  0.011805482   0.01113407         3912 
 3288000   0.73057502   -9.1794618    466.15924   0.01181466  0.011128789         3891 
 3289000   0.73373634   -9.1629998    465.44448  0.011792958  0.011123516         3902 
 3290000   0.69974086   -9.1585272    466.42272  0.011814152  0.011118243         3880 
 3291000   0.71942787   -9.1597022    466.38502  0.011809607  0.011112976         3902 
 3292000    0.7459117   -9.1632602    465.71093  0.011788956  0.011107707         3875 
 3293000   0.73540221   -9.1978913    465.87485  0.011789524  0.011102446         3897 
 3294000     0.701842   -9.1797256    465.75842     0.011783  0.011097188         3920 
 3295000   0.74008744   -9.1833084    466.53153  0.011798976  0.011091935         3925 
 3296000   0.72720429   -9.1744052     466.0082  0.011782165  0.011086683         3888 
 3297000   0.72295216   -9.1835729     465.9233  0.011776446  0.011081433         3897 
 3298000   0.72485844   -9.2056948    465.92112   0.01177282  0.011076193         3902 
 3299000   0.72495876   -9.1788215    465.16477  0.011750146   0.01107095         3875 
 3300000   0.72750805   -9.1583292    466.29538  0.011775136  0.011065713         3887 
 3301000   0.73614268   -9.1647553    466.10049  0.011766649  0.011060474         3905 
 3302000   0.72162252   -9.1733935     465.8231  0.011756085  0.011055243         3905 
 3303000   0.71834267   -9.1877919    466.39101  0.011766854   0.01105001         3895 
 3304000    0.7259424   -9.1723937    466.53329  0.011766881  0.011044785         3897 
 3305000   0.72360201   -9.1810204    465.09541  0.011727065  0.011039554         3886 
 3306000    0.7131566    -9.174217    465.79287  0.011741099  0.011034331         3918 
 3307000   0.72362806   -9.1619825     467.1659  0.011772147  0.011029114         3882 
 3308000   0.71259696   -9.1743984    466.17089  0.011743523  0.011023899         3910 
 3309000   0.70802469   -9.1877491    465.36537  0.011719688  0.011018684         3904 
 3310000   0.73157963   -9.1680303    465.56714  0.011721227  0.011013483         3888 
 3311000   0.73429191   -9.1755434    464.95981  0.011702401  0.011008281         3883 
 3312000   0.72593893   -9.1643243    466.28449  0.011732198  0.011003087         3882 
 3313000   0.71704889    -9.174119    465.50535  0.011709059  0.010997895         3893 
 3314000   0.71835363   -9.1659498    465.75912  0.011711907  0.010992692         3881 
 3315000   0.71158975   -9.1826777    465.46815   0.01170106  0.010987498         3897 
 3316000   0.73079023   -9.1790799    465.98556  0.011710534  0.010982302         3878 
 3317000   0.72498633    -9.184087    465.69127   0.01169961  0.010977112         3908 
 3318000   0.70987977   -9.1942304    465.33497  0.011687135  0.010971927         3889 
 3319000   0.72117252    -9.192048    465.74374  0.011693877  0.010966748         3899 
 3320000     0.722108    -9.189296    465.98312  0.011696363  0.010961571         3892 
 3321000   0.71600525   -9.1906859     465.3414  0.011676739  0.010956401         3899 
 3322000    0.7381362   -9.2056207    465.65414  0.011681069  0.010951232         3920 
 3323000   0.71633096   -9.1810005    465.29762  0.011668613   0.01094606         3889 
 3324000   0.70056236   -9.1879007    465.77551  0.011677084  0.010940891         3904 
 3325000   0.72338054   -9.1923535    465.67414  0.011671031  0.010935728         3891 
 3326000   0.70240785   -9.2015863    464.76349  0.011644706  0.010930564         3878 
 3327000   0.71706508   -9.2008832    465.48606  0.011659304  0.010925404         3906 
 3328000   0.72161857   -9.1853795    464.90228  0.011641183  0.010920249         3900 
 3329000   0.71783944    -9.189683    466.09887   0.01166764  0.010915099         3908 
 3330000   0.72012215   -9.2046058     464.9946  0.011636501  0.010909952         3894 
 3331000   0.70922415    -9.173315    465.81333  0.011653491  0.010904808         3905 
 3332000   0.73322735   -9.2046535    465.63447   0.01164552  0.010899657         3893 
 3333000   0.71557373   -9.1691416    466.19822  0.011656121  0.010894522         3883 
 3334000   0.71183246   -9.1937899    466.08505  0.011649796  0.010889388         3895 
 3335000   0.71108905   -9.2204894     465.1898  0.011623933  0.010884256         3916 
 3336000   0.71233096   -9.1837961     465.3878  0.011625395  0.010879127         3905 
 3337000   0.71347172   -9.1603196    465.29127    0.0116195  0.010874003         3893 
 3338000   0.72272413   -9.1783383    466.06999   0.01163546  0.010868883         3896 
 3339000   0.73388852   -9.1713206    464.74635  0.011598941  0.010863766         3903 
 3340000   0.71342666   -9.1761044    465.60793  0.011616964  0.010858654         3901 
 3341000   0.73155111   -9.1959197      465.385  0.011607927  0.010853546         3902 
 3342000   0.71264946   -9.2091575     464.7974  0.011589801  0.010848439         3905 
 3343000   0.71832268   -9.1814194    465.42356  0.011601943  0.010843338         3892 
 3344000   0.73807356    -9.185479    465.77441  0.011607217  0.010838238         3905 
 3345000   0.72387074   -9.1863329    465.73606  0.011602792  0.010833144         3888 
 3346000   0.69314291   -9.2039642    465.83739  0.011601848  0.010828046         3913 
 3347000   0.72988155    -9.198377    465.30974  0.011585244   0.01082295         3903 
 3348000   0.71843761   -9.1750225    466.01237  0.011599273  0.010817858         3889 
 3349000   0.72596967   -9.2145311    465.11851  0.011573567  0.010812773         3899 
 3350000   0.70930644   -9.1844945    465.35961   0.01157611   0.01080769         3889 
 3351000   0.71747259   -9.1769178     465.6955  0.011581008  0.010802614         3894 
 3352000   0.70103639   -9.1787132     465.5231  0.011573267  0.010797544         3901 
 3353000   0.72580103   -9.1942476    465.03588  0.011557707  0.010792472         3891 
 3354000   0.72697363   -9.1884792    465.02526  0.011553997  0.010787404         3927 
 3355000   0.72736764   -9.2006341     465.2361   0.01155579  0.010782337         3913 
 3356000   0.71967081   -9.1896885    465.70109  0.011563893  0.010777269         3855 
 3357000   0.72141976     -9.21175    464.84844  0.011539282  0.010772206         3899 
 3358000   0.71947421   -9.2214962    464.34972  0.011523469  0.010767148         3881 
 3359000   0.71124804   -9.2062526    465.56706   0.01155024  0.010762088         3912 
 3360000   0.71383421   -9.1878708    465.55167   0.01154642  0.010757032         3903 
 3361000   0.70915082    -9.197645    465.18847   0.01153398  0.010751985         3916 
 3362000   0.71001089    -9.202101    465.33911  0.011534283  0.010746942         3902 
 3363000   0.68670883   -9.1795933     466.0108  0.011547497    0.0107419         3909 
 3364000    0.7021338   -9.1973139    465.78041  0.011538357  0.010736858         3928 
 3365000    0.7123775    -9.216853    465.23512  0.011521424  0.010731818         3926 
 3366000   0.72468772   -9.2173536    465.23214  0.011517928  0.010726786         3908 
 3367000   0.70423239   -9.1743345    465.92427  0.011531637   0.01072175         3914 
 3368000   0.71146495   -9.1747339    466.24284  0.011536096  0.010716723         3909 
 3369000   0.71106931   -9.1786691    464.85664  0.011498383  0.010711704         3916 
 3370000    0.7026112   -9.2046291    466.26006  0.011529675  0.010706684         3905 
 3371000   0.70780907   -9.1877485    466.13426  0.011523145  0.010701664         3904 
 3372000   0.71253367   -9.1933269    465.72109  0.011509517  0.010696644         3895 
 3373000    0.6939176   -9.1846065    465.26699  0.011494886  0.010691628         3906 
 3374000   0.71860355    -9.178824    466.11694  0.011512471  0.010686611         3901 
 3375000   0.68634137   -9.2094334    465.50592  0.011493973  0.010681604         3914 
 3376000   0.72321939     -9.19777    465.77595  0.011497234  0.010676598         3902 
 3377000    0.7118299   -9.1883126    464.85122   0.01147101  0.010671599         3907 
 3378000    0.7200451   -9.1834013    465.57288  0.011485417  0.010666608         3897 
 3379000   0.70886462   -9.1862086    465.13702  0.011471269  0.010661614         3899 
 3380000   0.69739756   -9.2084444    465.38673  0.011474032  0.010656619         3896 
 3381000   0.68729988   -9.2108635    465.38879  0.011470689  0.010651628         3925 
 3382000   0.72523646   -9.1782954    465.87286  0.011479225   0.01064664         3906 
 3383000   0.70352095   -9.2139438    465.21674  0.011459669  0.010641659         3923 
 3384000    0.6951066    -9.190074    464.93868  0.011449435  0.010636675         3904 
 3385000   0.72021657   -9.2177684    464.51611   0.01143565  0.010631699         3921 
 3386000   0.71604887   -9.2035485    464.52085   0.01143239  0.010626721         3908 
 3387000   0.70653739   -9.1992957    465.18533  0.011445363  0.010621751         3888 
 3388000   0.71814743   -9.1730416    465.76075  0.011456138   0.01061678         3917 
 3389000   0.71735224    -9.195446     465.4667  0.011445527  0.010611811         3904 
 3390000   0.71241078   -9.2202875    464.94784  0.011429396  0.010606853         3933 
 3391000   0.70819613   -9.1963617    465.05148  0.011428573  0.010601895         3923 
 3392000    0.7038495   -9.2212797     465.2873  0.011430997  0.010596934         3909 
 3393000   0.69868955   -9.2161596    464.72535  0.011413826  0.010591977         3917 
 3394000   0.70788751   -9.2161587    465.42515  0.011427646  0.010587021         3912 
 3395000   0.69713836   -9.2040617     465.7378  0.011431954  0.010582067         3900 
 3396000   0.70486071   -9.1991246    465.05701  0.011411882  0.010577119         3896 
 3397000   0.71669037   -9.2110254    465.03787  0.011408053  0.010572174         3927 
 3398000   0.69880637   -9.1926027    463.36954  0.011363781  0.010567233         3918 
 3399000   0.70152783   -9.2117579     464.2362  0.011381686  0.010562294         3911 
 3400000   0.70557922    -9.199884    464.88632  0.011394273   0.01055736         3910 
 3401000   0.70651863   -9.2014397    465.30367  0.011401149  0.010552426         3897 
 3402000    0.6974474    -9.185704    466.84116  0.011435459  0.010547498         3896 
 3403000   0.72923314   -9.2074014    464.83951  0.011383081  0.010542569         3916 
 3404000   0.70606349   -9.2126598    465.52227  0.011396452  0.010537647         3904 
 3405000   0.71009822   -9.2083449       464.81  0.011375673  0.010532726         3908 
 3406000   0.71173276   -9.1916949    465.37681  0.011386201  0.010527806         3893 
 3407000   0.70507422   -9.1999939    464.85287  0.011370044   0.01052289         3910 
 3408000   0.71209695    -9.204766    465.19519  0.011375078  0.010517981         3901 
 3409000   0.71298056   -9.2063247    465.12486  0.011370022  0.010513069         3905 
 3410000   0.69678699   -9.2094339    464.53801  0.011352346  0.010508162         3917 
 3411000   0.69222066   -9.2271221    465.04801  0.011361478  0.010503264         3905 
 3412000   0.70845807   -9.2188079    465.05603  0.011358344  0.010498361         3901 
 3413000   0.70818825   -9.1917964    465.12289  0.011356648  0.010493468         3912 
 3414000   0.69358129     -9.21538    464.43494  0.011336529  0.010488574         3902 
 3415000   0.70634684   -9.1947949    465.29286  0.011354145  0.010483687         3889 
 3416000   0.69656123   -9.1953436    465.08215  0.011345681  0.010478797         3894 
 3417000   0.69373059   -9.1982614    465.23453  0.011346077  0.010473908         3909 
 3418000   0.70550586   -9.2181793    465.40288  0.011346862  0.010469026         3913 
 3419000   0.70616961   -9.2137407    465.07023  0.011335435  0.010464152         3924 
 3420000   0.68785074   -9.2023331    465.25719  0.011336676  0.010459279         3923 
 3421000   0.70085235   -9.2025988    464.67282  0.011319127  0.010454404         3913 
 3422000   0.70946289   -9.1974201    465.63762  0.011339315  0.010449536         3907 
 3423000    0.7038435   -9.1935214    464.71213  0.011313471  0.010444665         3896 
 3424000   0.70371623   -9.1926094    465.56921  0.011331026  0.010439801         3909 
 3425000   0.70018589   -9.2255082    464.56432  0.011303268  0.010434936         3914 
 3426000   0.69343066   -9.2343392    465.00489  0.011310685  0.010430073         3914 
 3427000   0.69784674    -9.213136    465.55206   0.01132069  0.010425212         3910 
 3428000   0.70446043   -9.2263903    466.16828  0.011332368  0.010420358         3900 
 3429000   0.70648477   -9.1935235    465.68246  0.011317256  0.010415504         3885 
 3430000   0.69685992   -9.2073387    464.26758  0.011279582  0.010410657         3893 
 3431000   0.70406521   -9.2075941    465.05985  0.011295537  0.010405816         3908 
 3432000   0.70412912    -9.185347    465.06199  0.011292298  0.010400972         3905 
 3433000   0.73130817   -9.2515355    464.54186  0.011276383  0.010396134         3876 
 3434000   0.70628082   -9.2121198    465.68422  0.011300821  0.010391295         3896 
 3435000   0.70883091   -9.1950603     465.6752  0.011297312  0.010386462         3897 
 3436000   0.67838487    -9.222728    465.32861  0.011285618  0.010381631         3910 
 3437000   0.70064445    -9.217307    465.73255  0.011292128  0.010376799         3919 
 3438000    0.6979127   -9.2046139    464.41974  0.011257023   0.01037197         3914 
 3439000   0.72308085   -9.1943158    465.03829  0.011268738  0.010367148         3887 
 3440000   0.72086775   -9.2231802    464.29827  0.011247536  0.010362324         3895 
 3441000     0.713176   -9.2015982    465.25356  0.011267402  0.010357507         3902 
 3442000   0.69220706   -9.2184282    465.24249   0.01126386  0.010352696         3901 
 3443000   0.71400877   -9.2208824     465.8855  0.011276152  0.010347888         3891 
 3444000   0.69926683   -9.1975089    465.76749  0.011270022  0.010343079         3911 
 3445000   0.70205222   -9.2166596    464.53754  0.011236999  0.010338276         3913 
 3446000   0.68484423    -9.209713    464.57559  0.011234658  0.010333472         3913 
 3447000   0.70465999   -9.2134057    465.19347  0.011246337  0.010328676         3902 
 3448000   0.68974796   -9.2086541     464.8712  0.011235286  0.010323875         3891 
 3449000   0.70026374   -9.2160065    465.34764   0.01124354   0.01031908         3895 
 3450000   0.70676013   -9.2397454    464.39292   0.01121722   0.01031429         3914 
 3451000   0.69420619   -9.1939535    464.03235  0.011205263  0.010309502         3883 
 3452000   0.70174673   -9.2040412    464.65804  0.011217121  0.010304717         3903 
 3453000   0.69793413   -9.2318924    464.39824  0.011207603  0.010299932         3918 
 3454000   0.69226881   -9.2196579    465.46237  0.011230032   0.01029515         3891 
 3455000   0.70901714   -9.2207005    465.33159  0.011223627  0.010290374         3915 
 3456000   0.70096159    -9.204377    465.58146  0.011226405  0.010285607         3910 
 3457000   0.68421566   -9.2297701    464.56624  0.011198685  0.010280836         3909 
 3458000   0.69820418   -9.2137156    464.47392  0.011193221   0.01027607         3880 
 3459000   0.70227805   -9.2099897    465.54958    0.0112159   0.01027131         3912 
 3460000   0.69391952    -9.220712    464.85523  0.011195935  0.010266549         3887 
 3461000   0.70378067   -9.2276618    465.09224  0.011198407  0.010261792         3933 
 3462000   0.69573947   -9.2067626    465.08555  0.011195011  0.010257035         3922 
 3463000   0.70218618   -9.2199149    464.87824   0.01118679   0.01025228         3890 
 3464000   0.69448939    -9.232973    465.04704  0.011187621   0.01024753         3903 
 3465000   0.69929201   -9.2097207    464.18544  0.011163671  0.010242786         3898 
 3466000   0.70931645    -9.220104    464.29851  0.011163169  0.010238042         3924 
 3467000   0.69081772   -9.2430841    464.76874  0.011171251    0.0102333         3921 
 3468000   0.69498012   -9.2188804    465.11813  0.011176426  0.010228564         3921 
 3469000   0.69477112    -9.238185     464.5765  0.011160193   0.01022383         3913 
 3470000   0.71406409   -9.1739806    465.91965  0.011189233  0.010219102         3896 
 3471000   0.70770393   -9.2203932     464.3262  0.011147753  0.010214372         3912 
 3472000   0.70261188   -9.2158776    464.07971  0.011138626  0.010209646         3901 
 3473000    0.6920272   -9.2105278    464.42004  0.011143585  0.010204924         3926 
 3474000     0.675194   -9.2257591    464.47946  0.011141802  0.010200204         3907 
 3475000   0.69939066   -9.2285515    464.79728  0.011146218  0.010195483         3901 
 3476000   0.69980672   -9.2328841    464.60829   0.01113848   0.01019076         3911 
 3477000   0.71686323   -9.2234342    465.26168  0.011150937  0.010186052         3892 
 3478000   0.69433534   -9.2225729    464.63463  0.011132706  0.010181343         3910 
 3479000   0.69279572   -9.2504802    464.55277  0.011127546  0.010176637         3887 
 3480000   0.68517425    -9.210278    464.68359   0.01112748  0.010171933         3902 
 3481000   0.71728156   -9.2031965    465.70969  0.011148848  0.010167234         3922 
 3482000   0.68800034   -9.2374476    464.89883   0.01112624  0.010162539         3920 
 3483000   0.68832859   -9.2461798    464.64091  0.011116875  0.010157844         3913 
 3484000   0.69688602   -9.2372682    464.12874  0.011101434  0.010153152         3906 
 3485000   0.71615147    -9.215905    465.03579  0.011119938  0.010148462         3910 
 3486000   0.70404163   -9.2306749     465.0067  0.011116052  0.010143771         3884 
 3487000   0.67754372   -9.2266352    464.21422  0.011093925  0.010139091         3917 
 3488000   0.69692951   -9.2202413    465.01164  0.011109796  0.010134409         3901 
 3489000    0.6792064   -9.2360003    464.89534  0.011103834   0.01012973         3895 
 3490000   0.69142601   -9.2283998    464.38116  0.011088375  0.010125055         3903 
 3491000   0.70632094   -9.2410355    464.51097  0.011088298  0.010120382         3894 
 3492000   0.69106741   -9.2177206    464.74817  0.011090783  0.010115709         3905 
 3493000   0.68172506   -9.2231412    464.13676  0.011073021   0.01011104         3893 
 3494000   0.67660665   -9.2283676    463.98916  0.011066332  0.010106375         3911 
 3495000   0.69467872   -9.2218517    463.35588  0.011048066   0.01010171         3895 
 3496000    0.6971341   -9.2533071    464.53858  0.011073097  0.010097049         3891 
 3497000   0.70132783    -9.232485    464.38566  0.011066287  0.010092391         3919 
 3498000   0.70235962   -9.2474545    464.02983  0.011054646  0.010087738         3890 
 3499000   0.70537804   -9.2424239    465.12277  0.011077517  0.010083089         3897 
 3500000    0.6967397   -9.2150106    465.53069  0.011084064  0.010078439         3914 
 3501000   0.69934181   -9.2400687    464.28131  0.011051159  0.010073795         3911 
 3502000   0.69072114   -9.2470864    464.51105  0.011053471  0.010069153         3908 
 3503000   0.70626731    -9.226849    465.10942   0.01106455  0.010064516         3916 
 3504000   0.68993794   -9.2375835    464.23279  0.011040544  0.010059872         3918 
 3505000   0.68115766   -9.2259136    464.86041  0.011052316  0.010055236         3915 
 3506000   0.68167768   -9.2401622     464.5977  0.011042919  0.010050606         3928 
 3507000   0.67773885    -9.237959    464.96685  0.011048542  0.010045978         3909 
 3508000   0.68969258   -9.2197244    464.19154  0.011026975   0.01004135         3919 
 3509000   0.68730745    -9.216981    464.93398  0.011041464  0.010036728         3891 
 3510000   0.68794808   -9.2423443    464.32105  0.011023767  0.010032108         3896 
 3511000   0.69095489   -9.2114588     464.8593  0.011033402   0.01002749         3904 
 3512000   0.69431539   -9.2274652    464.93858  0.011032142  0.010022877         3904 
 3513000   0.68778927   -9.2165088    464.92219  0.011028613  0.010018262         3884 
 3514000   0.68884239   -9.2342647     464.3521  0.011011954  0.010013646         3919 
 3515000   0.69876758   -9.2481325    464.99499  0.011024063  0.010009044         3907 
 3516000   0.67610373   -9.2333377    464.06798  0.010998957  0.010004438         3921 
 3517000   0.68410878   -9.2266393    464.63692   0.01100931 0.0099998321         3899 
 3518000   0.69339674   -9.2556895    464.28447  0.010997832 0.0099952319         3907 
 3519000   0.68075998   -9.2490546    464.15727  0.010991694 0.0099906344         3919 
 3520000   0.69052528   -9.2307882    464.84475  0.011004847 0.0099860348         3906 
 3521000   0.69742365   -9.2383147     464.8503  0.011001853 0.0099814351         3909 
 3522000   0.66976088   -9.2396627    464.79935  0.010997524 0.0099768492         3910 
 3523000   0.69725711   -9.2426192    464.72005  0.010992527 0.0099722644         3893 
 3524000    0.6901178   -9.2141289    464.93702  0.010994538 0.0099676854         3922 
 3525000    0.6759904   -9.2398846     464.2428  0.010975007 0.0099631099         3930 
 3526000   0.65529675   -9.2477958    463.28823  0.010949334 0.0099585307         3911 
 3527000   0.69376896   -9.2236847    465.06702  0.010988258 0.0099539576         3898 
 3528000   0.68872334   -9.2212701     463.9316  0.010958324 0.0099493911         3913 
 3529000   0.68242645   -9.2452523    464.16188  0.010960656  0.009944825         3917 
 3530000   0.69565023   -9.2472044    464.74461  0.010971308 0.0099402618         3919 
 3531000   0.68536778   -9.2417706    465.54102  0.010986997 0.0099356995         3907 
 3532000   0.67632143   -9.2357641     465.0016  0.010971159 0.0099311406         3933 
 3533000   0.69322332   -9.2488925    464.30988  0.010951738 0.0099265855         3917 
 3534000   0.67999457   -9.2507976    464.70539  0.010957965 0.0099220361         3915 
 3535000   0.68458632   -9.2433917    465.20729  0.010966697 0.0099174866         3932 
 3536000   0.67982105    -9.233685    464.88335  0.010955961 0.0099129353         3919 
 3537000    0.6812205   -9.2299282     464.7324  0.010949307   0.00990839         3924 
 3538000   0.68666758   -9.2486943    463.42124   0.01091533 0.0099038418         3917 
 3539000   0.69312759   -9.2325943    463.59058  0.010916233 0.0098992979         3909 
 3540000   0.67371472   -9.2352449    464.56441  0.010936074  0.009894761         3914 
 3541000   0.68236102   -9.2511815    464.55835  0.010932843 0.0098902222         3923 
 3542000   0.68188442    -9.245752    464.80985  0.010935673 0.0098856921         3917 
 3543000   0.69182475   -9.2352137     464.1019  0.010915935 0.0098811656         3924 
 3544000   0.69172486   -9.2492667    464.25319  0.010916412 0.0098766347         3917 
 3545000   0.68462508   -9.2602206    463.37518  0.010892693 0.0098721104         3911 
 3546000   0.68329254   -9.2382276    464.27575  0.010910786  0.009867589         3911 
 3547000   0.69398325   -9.2279864    464.98204  0.010924303  0.009863068         3920 
 3548000   0.69066766   -9.2498282    464.64967  0.010913418 0.0098585465         3928 
 3549000   0.67657671   -9.2312157    464.70525  0.010911648 0.0098540305         3919 
 3550000    0.6825275   -9.2189227     464.0794  0.010893883 0.0098495166         3909 
 3551000   0.68536648   -9.2125342    464.38626  0.010898016 0.0098450083         3906 
 3552000   0.67054671   -9.2614773    463.67013  0.010878147 0.0098404987         3925 
 3553000   0.67522515   -9.2253853    463.97283  0.010882185 0.0098359926         3918 
 3554000   0.68646734   -9.2288022    464.91636  0.010901246 0.0098314891         3926 
 3555000   0.68848597   -9.2403205    463.86393   0.01087351 0.0098269934         3908 
 3556000   0.69233319   -9.2362684    464.10371  0.010876071 0.0098224921         3927 
 3557000   0.68184258   -9.2488245    464.42957  0.010880648 0.0098179979         3919 
 3558000   0.69186226   -9.2260532     464.3492  0.010875707 0.0098135055         3932 
 3559000   0.68577191   -9.2367458    464.35659  0.010872824 0.0098090162         3927 
 3560000   0.69509222      -9.2538    463.20936  0.010842916 0.0098045292         3905 
 3561000   0.66513266   -9.2503223    464.77509  0.010876512 0.0098000497         3926 
 3562000   0.66671318   -9.2385256    464.52695  0.010867653 0.0097955691         3919 
 3563000   0.68453273   -9.2346395    463.93323  0.010850716 0.0097910916         3907 
 3564000   0.67939815   -9.2217273    464.49799  0.010860877 0.0097866185         3912 
 3565000   0.67763329     -9.26264    463.93629    0.0108447 0.0097821481         3894 
 3566000   0.67968957   -9.2458739    464.30624  0.010850305  0.009777676         3919 
 3567000   0.68027099   -9.2615361    464.45455  0.010850728 0.0097732084         3906 
 3568000    0.6829715    -9.255027     463.9146  0.010835076 0.0097687435         3918 
 3569000   0.66888512   -9.2485786    464.01553  0.010834396 0.0097642836         3935 
 3570000   0.67386607   -9.2454161    464.53613  0.010843514 0.0097598252         3910 
 3571000   0.68172792   -9.2531208    464.53721  0.010840502 0.0097553696         3911 
 3572000   0.68072982   -9.2244822    464.61443  0.010839269 0.0097509143         3911 
 3573000   0.67550867   -9.2184833    465.15951  0.010848948 0.0097464612         3904 
 3574000   0.67216186   -9.2355905    464.29952  0.010825861 0.0097420139         3910 
 3575000   0.66698395   -9.2380329      464.589   0.01082958 0.0097375674         3892 
 3576000   0.66177907   -9.2694648    463.56424  0.010802672 0.0097331214         3920 
 3577000   0.67795731   -9.2338584    464.15556  0.010813428 0.0097286758         3908 
 3578000   0.68513304   -9.2181479    465.32681  0.010837684 0.0097242372         3919 
 3579000   0.65645078   -9.2357072    464.01554  0.010804125 0.0097198033         3920 
 3580000   0.68259826   -9.2603595    463.87625  0.010797864 0.0097153666         3912 
 3581000   0.67589438   -9.2306987     464.8609  0.010817763 0.0097109387         3899 
 3582000   0.68087247   -9.2615103    464.78121  0.010812889 0.0097065104         3906 
 3583000   0.69368714   -9.2520642    464.72013   0.01080845 0.0097020847         3913 
 3584000   0.67776739   -9.2274647    464.36622  0.010797206 0.0096976613         3910 
 3585000   0.67847936   -9.2443521    463.83045   0.01078174  0.009693243         3900 
 3586000   0.67527703   -9.2648267    463.60316  0.010773451 0.0096888239         3901 
 3587000   0.68706503   -9.2487826    463.32912  0.010764081 0.0096844099         3900 
 3588000   0.66535514   -9.2680456    463.63745  0.010768242 0.0096800001         3920 
 3589000   0.68898064   -9.2680854    464.27473  0.010780039   0.00967559         3914 
 3590000   0.66994835   -9.2726578    463.47059   0.01075837 0.0096711796         3911 
 3591000   0.68173555    -9.231326    463.66988  0.010759999 0.0096667743         3890 
 3592000   0.67130324    -9.262023    463.17102   0.01074543 0.0096623675         3891 
 3593000   0.67712706   -9.2596698    463.03699  0.010739331 0.0096579661         3918 
 3594000   0.65729795    -9.252942    463.97249  0.010758034 0.0096535702         3917 
 3595000   0.68895144   -9.2676206    463.52318  0.010744626 0.0096491783         3901 
 3596000   0.68147671   -9.2683044    463.82392  0.010748608 0.0096447922         3911 
 3597000   0.67915197   -9.2523444    464.03017  0.010750398 0.0096404087         3910 
 3598000    0.6803308   -9.2475568    464.45448  0.010757237 0.0096360167         3909 
 3599000   0.65588382   -9.2697875     464.0182  0.010744146 0.0096316293         3911 
 3600000   0.68280425   -9.2659894    463.69495  0.010733679 0.0096272484         3897 
 3601000   0.66989292    -9.241963    464.37108  0.010746345  0.009622871         3916 
 3602000   0.68258565   -9.2542694    463.68453  0.010727479 0.0096184957         3915 
 3603000   0.67137178   -9.2405455    463.73695  0.010725714 0.0096141215         3901 
 3604000   0.67186532   -9.2696814    463.42285  0.010715475 0.0096097507         3909 
 3605000   0.67265577    -9.249309    463.64313  0.010717594 0.0096053841         3894 
 3606000   0.66687775   -9.2472295    464.43579   0.01073294 0.0096010162         3868 
 3607000   0.68244455   -9.2616546    464.21637  0.010724895 0.0095966523         3901 
 3608000   0.67009043   -9.2600074    464.34136   0.01072481 0.0095922928         3906 
 3609000   0.66549117   -9.2520233    464.57018  0.010727121  0.009587934         3904 
 3610000   0.66878394   -9.2485165    464.56698  0.010724076 0.0095835696         3923 
 3611000   0.66957031    -9.257163    464.35247  0.010716156 0.0095792184         3908 
 3612000   0.66346706    -9.245269    463.75966  0.010699512 0.0095748747         3899 
 3613000   0.66562362   -9.2514114    465.09642  0.010727383 0.0095705273         3906 
 3614000   0.68633159   -9.2445839    463.63662  0.010690754 0.0095661813         3921 
 3615000   0.66514936   -9.2597661    463.70565  0.010689388 0.0095618402         3892 
 3616000   0.67328504    -9.268155    464.24221  0.010698797 0.0095574985         3915 
 3617000     0.682582   -9.2526371    462.92802  0.010665561 0.0095531598         3893 
 3618000   0.67011361   -9.2543005    463.74514  0.010681434 0.0095488296         3920 
 3619000   0.66104773   -9.2692323    463.15885  0.010664982 0.0095444966         3921 
 3620000   0.66786901   -9.2745943    464.11022  0.010683937 0.0095401683         3917 
 3621000   0.67498113   -9.2636691     464.1693  0.010682346  0.009535841         3917 
 3622000   0.66851936   -9.2658917    463.83709  0.010671753 0.0095315135         3910 
 3623000   0.68589015   -9.2547208    464.22903  0.010677823 0.0095271984         3909 
 3624000    0.6672126   -9.2465996     464.3355  0.010677325 0.0095228814         3904 
 3625000   0.67521029   -9.2555535     464.5757  0.010679901 0.0095185644         3913 
 3626000   0.67309613   -9.2575847    464.18758  0.010668036 0.0095142541         3916 
 3627000   0.68099914   -9.2586726      463.801  0.010656213 0.0095099489         3922 
 3628000   0.67307208   -9.2603294    463.26089  0.010640869  0.009505645         3922 
 3629000   0.67635343   -9.2580042    462.98618  0.010631629 0.0095013388         3917 
 3630000   0.65795836   -9.2217024    464.41426  0.010661484 0.0094970366         3916 
 3631000   0.67071065    -9.270727    464.05445   0.01065029 0.0094927458         3924 
 3632000   0.67819875   -9.2596837    464.00513  0.010646226  0.009488447         3922 
 3633000   0.67498365    -9.254958    463.77454  0.010638007 0.0094841519         3922 
 3634000   0.67175839   -9.2556398    463.70256  0.010633429 0.0094798565         3897 
 3635000   0.68147976   -9.2726652    463.69011  0.010630218 0.0094755658         3901 
 3636000   0.68258988   -9.2678729      463.517  0.010623327 0.0094712816         3924 
 3637000   0.66901129   -9.2930385    462.54482  0.010598131 0.0094669935         3903 
 3638000   0.67358597   -9.2768487    463.15888  0.010609284 0.0094627111         3921 
 3639000   0.67307149   -9.2777844    463.98781  0.010625351 0.0094584359         3908 
 3640000   0.68054829   -9.2727177    463.99867   0.01062268 0.0094541585         3930 
 3641000   0.65371273   -9.2586306    464.29493  0.010626543 0.0094498854         3937 
 3642000   0.67344809   -9.2734576    463.91168  0.010614856 0.0094456114         3901 
 3643000   0.67454927   -9.2650648    463.74157  0.010608051 0.0094413402         3921 
 3644000   0.66479415   -9.2523157    464.28645  0.010617601 0.0094370703         3927 
 3645000   0.66458208   -9.2620249    464.58496  0.010621513 0.0094328018         3913 
 3646000   0.67622296   -9.2543038    463.88072  0.010602503 0.0094285407         3902 
 3647000   0.66935642   -9.2829347    464.16761  0.010606151 0.0094242802         3913 
 3648000   0.67497865   -9.2803686    464.21132  0.010604243 0.0094200246         3930 
 3649000   0.68125971   -9.2404392    464.35389  0.010604592 0.0094157678         3930 
 3650000   0.65291467   -9.2919363    464.11304  0.010596188 0.0094115147         3898 
 3651000      0.65775   -9.2588671    463.95509  0.010589681  0.009407269         3913 
 3652000   0.67781011   -9.2530925     463.8915   0.01058533 0.0094030213         3901 
 3653000   0.65709833    -9.269074    463.72366  0.010578603 0.0093987772         3906 
 3654000   0.65551464   -9.2482295    463.55689  0.010571905 0.0093945364         3932 
 3655000   0.68109612   -9.2557784    463.99895  0.010579091 0.0093903014         3924 
 3656000   0.66970206   -9.2652484    463.81937  0.010572105 0.0093860664         3925 
 3657000   0.67176149   -9.2630955     463.0653   0.01055203 0.0093818333         3919 
 3658000   0.66335702   -9.2658902    463.14429  0.010550945 0.0093776023         3937 
 3659000   0.66164189   -9.2648483    463.64485  0.010559462 0.0093733721         3906 
 3660000    0.6664184   -9.2668073    463.84669  0.010561172 0.0093691495         3922 
 3661000   0.67374332   -9.2753349    463.77146  0.010556575 0.0093649209         3924 
 3662000   0.65606215   -9.2645752    462.67656  0.010528777 0.0093607029         3917 
 3663000   0.66161881   -9.2953106    463.38426  0.010542003 0.0093564808         3920 
 3664000    0.6607804   -9.2738935     463.4796  0.010541294 0.0093522627         3915 
 3665000   0.67303453   -9.2839415    463.51889  0.010539311 0.0093480497         3922 
 3666000   0.66959935   -9.2606379    463.31001  0.010531688 0.0093438379         3913 
 3667000   0.66178907   -9.2663061    463.97609  0.010543953 0.0093396268         3905 
 3668000   0.65134034   -9.3007441    463.81619  0.010537445 0.0093354228         3914 
 3669000   0.66365117   -9.2650171    463.44308  0.010526099 0.0093312216         3891 
 3670000   0.66291277   -9.2704638    464.07994  0.010537692 0.0093270185         3915 
 3671000   0.65780615   -9.2736496    463.71403  0.010526515 0.0093228214         3912 
 3672000   0.66891746      -9.2734    462.86217  0.010504316  0.009318622         3917 
 3673000   0.67237015   -9.2751113    463.27083  0.010510728 0.0093144311         3903 
 3674000   0.65295711   -9.2564942    463.42209  0.010511298 0.0093102398         3907 
 3675000   0.67548545   -9.2777357     462.6673  0.010491322 0.0093060514         3925 
 3676000   0.65887411   -9.2878559     463.0833  0.010497898 0.0093018628         3932 
 3677000   0.65558754   -9.2827929    463.31488  0.010500292 0.0092976783         3919 
 3678000    0.6625474   -9.2707427    462.81503  0.010486112 0.0092934948         3918 
 3679000   0.66397542   -9.2493064    463.51576  0.010499134 0.0092893162         3920 
 3680000   0.68018431   -9.2742656    463.66771  0.010499722 0.0092851373         3944 
 3681000   0.64881253   -9.2833857    463.84075  0.010500787 0.0092809611         3919 
 3682000   0.65826842   -9.2768198    463.75955  0.010496097 0.0092767919         3920 
 3683000   0.65773105   -9.2793653    463.94159  0.010497366 0.0092726254         3915 
 3684000   0.66662456   -9.2549495    463.55768  0.010485833 0.0092684587         3912 
 3685000   0.66676259   -9.2824732    463.29661  0.010477083 0.0092643024         3921 
 3686000   0.66739971    -9.282694    463.38036  0.010476134 0.0092601439         3898 
 3687000   0.66170894   -9.2792534    462.83166  0.010460891 0.0092559857         3915 
 3688000   0.65163178   -9.2684435    463.55023  0.010474291 0.0092518332         3908 
 3689000   0.65820704   -9.2758455    462.58201   0.01044958 0.0092476774         3925 
 3690000   0.67405728   -9.2994598    463.51658  0.010467854 0.0092435283         3906 
 3691000   0.66369699   -9.2890108    463.49059  0.010464431 0.0092393813         3926 
 3692000   0.66467952   -9.2715159    463.76523  0.010467796 0.0092352362         3913 
 3693000   0.65660294   -9.2543996    463.42721  0.010457334 0.0092310922         3911 
 3694000    0.6581456   -9.2632086    463.45529  0.010455137 0.0092269529         3912 
 3695000   0.67514307   -9.2599996    463.25921  0.010447885  0.009222815         3937 
 3696000   0.65414143   -9.2601654    463.08486  0.010441127 0.0092186755         3917 
 3697000   0.66266602   -9.2727066    463.19886  0.010440872 0.0092145426         3918 
 3698000   0.66652874   -9.2816889    463.06253  0.010434977 0.0092104116         3917 
 3699000   0.66866113   -9.2541885    463.91117  0.010451274 0.0092062846         3933 
 3700000   0.66816059   -9.2754796    463.61019  0.010441671 0.0092021599         3942 
 3701000   0.65964711    -9.293209    463.45862  0.010435437 0.0091980338         3922 
 3702000   0.66399712   -9.2814048    463.16682   0.01042605 0.0091939092         3906 
 3703000    0.6631549   -9.2786734    464.14014  0.010445138 0.0091897923         3896 
 3704000   0.66067234    -9.262498    464.15635  0.010442682 0.0091856753         3926 
 3705000   0.66213456   -9.2776531    463.36473  0.010422059 0.0091815616         3910 
 3706000   0.65447586   -9.3013254    463.36444   0.01041924 0.0091774476         3895 
 3707000   0.66469651   -9.2691822    463.36814  0.010416513 0.0091733371         3897 
 3708000   0.65672898   -9.2861474     463.5397  0.010417559 0.0091692284         3913 
 3709000    0.6688196   -9.2745483    463.17243  0.010406498 0.0091651182         3914 
 3710000   0.67157151   -9.2890543    463.18508  0.010403977 0.0091610118         3916 
 3711000   0.64999333   -9.2652805    462.92971  0.010395439 0.0091569133         3927 
 3712000    0.6703766   -9.2869561    463.14006  0.010397361 0.0091528084         3902 
 3713000   0.64276085   -9.2600758    464.17195   0.01041772 0.0091487105         3935 
 3714000   0.65630577   -9.3086116     463.0097  0.010388837 0.0091446177         3927 
 3715000   0.65895055   -9.2685661    463.54152   0.01039797 0.0091405268         3935 
 3716000   0.66772226   -9.2970007    463.75661  0.010399996 0.0091364354         3929 
 3717000    0.6519746   -9.2693021    463.12086  0.010382945 0.0091323513         3921 
 3718000    0.6629828   -9.2580902    462.78354  0.010372591 0.0091282646         3922 
 3719000     0.650091   -9.2897129    463.08224  0.010376495 0.0091241864         3907 
 3720000    0.6613097   -9.2803566    463.72447  0.010388093 0.0091201095         3913 
 3721000   0.64828869   -9.2781869     462.9457   0.01036786 0.0091160277         3928 
 3722000   0.66266131   -9.2922906    463.15749  0.010369817 0.0091119485         3914 
 3723000   0.66121371   -9.2852062    463.57687  0.010376418 0.0091078763         3914 
 3724000   0.64550704   -9.2796817    463.87147  0.010380225 0.0091038046         3916 
 3725000    0.6627326   -9.2853379     463.3311  0.010365349 0.0090997344         3916 
 3726000   0.65753964   -9.2764451    463.32199  0.010362363 0.0090956657         3929 
 3727000   0.66988638   -9.2774765     463.8971  0.010372442 0.0090916046         3911 
 3728000   0.64977969   -9.2793729    463.23289  0.010354812 0.0090875428         3917 
 3729000   0.66419981    -9.297414     463.0697  0.010348389 0.0090834867         3933 
 3730000   0.65953742   -9.2898617    463.20759  0.010348695 0.0090794324         3912 
 3731000   0.66403466   -9.2875312    463.36868  0.010349519  0.009075377         3918 
 3732000   0.66051261    -9.304281    463.66443   0.01035335 0.0090713255         3915 
 3733000   0.65794782   -9.3002011    463.32147  0.010342921 0.0090672822         3919 
 3734000   0.65825654   -9.2807179    464.01037  0.010355525 0.0090632359         3916 
 3735000   0.66559997   -9.2985466     463.5466  0.010342405 0.0090591943         3911 
 3736000   0.65738449   -9.2682615    462.98116  0.010327024 0.0090551547         3939 
 3737000   0.66490248   -9.2855217    464.16301  0.010350616 0.0090511174         3909 
 3738000   0.67224912   -9.2989626     463.5389  0.010333933 0.0090470787         3940 
 3739000   0.66818838   -9.3048043     462.9736   0.01031857 0.0090430418         3924 
 3740000   0.65589232   -9.3003424    463.90541  0.010336573 0.0090390107         3914 
 3741000   0.65071321   -9.3073118    463.44907  0.010323645   0.00903498         3921 
 3742000   0.64737231    -9.307278    462.89169  0.010308474 0.0090309493         3899 
 3743000   0.65667708   -9.2859015    463.41418  0.010317352 0.0090269265         3904 
 3744000   0.65378011   -9.2954987    462.75501  0.010299925  0.009022906         3914 
 3745000   0.65361022   -9.2898482    462.95875  0.010301708 0.0090188884         3912 
 3746000    0.6536325   -9.2899095    464.12257  0.010324848 0.0090148711         3925 
 3747000   0.66954708   -9.2929052    463.02612  0.010297707  0.009010857         3910 
 3748000   0.64997635   -9.2765071     462.4004  0.010281048 0.0090068461         3923 
 3749000   0.65188257   -9.3024586    462.41139   0.01027855 0.0090028363         3910 
 3750000   0.66055596   -9.2557082    463.63165  0.010302925 0.0089988303         3906 
 3751000   0.65185118   -9.2850451    462.72044  0.010279935 0.0089948266         3905 
 3752000   0.65830124   -9.2908972     462.7346   0.01027751 0.0089908233         3920 
 3753000   0.63660851   -9.3017641    462.95632  0.010279695 0.0089868222         3932 
 3754000    0.6487921   -9.2866156    463.19981  0.010282361 0.0089828273         3914 
 3755000    0.6600701   -9.2828304     462.3323  0.010260371 0.0089788309         3922 
 3756000   0.64710284   -9.3151711    463.31721  0.010279491 0.0089748353         3939 
 3757000    0.6377165   -9.2745816    463.52968  0.010281468 0.0089708405         3906 
 3758000   0.64131674    -9.303919    463.62642  0.010280877 0.0089668532         3927 
 3759000   0.64732151   -9.2582914     463.9368  0.010285023 0.0089628707         3909 
 3760000   0.64704304   -9.2773617    463.12724  0.010264345 0.0089588888         3920 
 3761000   0.66186936   -9.2882629    464.17199  0.010284764 0.0089549068         3909 
 3762000   0.65484906   -9.2856965    463.88345  0.010275639 0.0089509283         3916 
 3763000   0.65395108   -9.2907131     463.7097  0.010269061 0.0089469495         3929 
 3764000   0.65148252   -9.2707324    463.29041   0.01025705 0.0089429731         3935 
 3765000   0.63103645   -9.2926105    462.92799  0.010246303 0.0089390019         3924 
 3766000   0.64179501   -9.2778828    463.53345   0.01025698 0.0089350322         3924 
 3767000   0.64570736   -9.2963972    463.42166  0.010251784 0.0089310652         3914 
 3768000   0.65875505    -9.284932    463.68568  0.010254903 0.0089271003         3911 
 3769000   0.64845771    -9.289969    463.23283  0.010242169  0.008923137         3914 
 3770000   0.64338006   -9.2783704    463.30521  0.010241052 0.0089191754         3916 
 3771000   0.63909024   -9.3060461    462.31139  0.010216375 0.0089152175         3913 
 3772000   0.65619905   -9.2915014    463.14307   0.01023204 0.0089112608         3922 
 3773000   0.65600865   -9.2801201    462.99242  0.010226001 0.0089073056         3915 
 3774000   0.63960258    -9.302592    462.92673  0.010221841  0.008903357         3904 
 3775000   0.65369136   -9.3124442    463.18085  0.010224743 0.0088994075         3917 
 3776000   0.64395937    -9.311472    462.77394  0.010213055 0.0088954573         3905 
 3777000   0.64800182   -9.2957426    463.36177   0.01022332 0.0088915087         3912 
 3778000   0.65881342   -9.2996809    463.50809  0.010223842 0.0088875672         3927 
 3779000   0.64216126   -9.2972219    463.57485  0.010222608 0.0088836243         3922 
 3780000   0.64643963   -9.3095972    462.76251  0.010201995 0.0088796893         3921 
 3781000   0.64906037   -9.2781281     463.0312  0.010205219 0.0088757541         3900 
 3782000   0.63724846   -9.2883142    463.25292  0.010207406 0.0088718236         3916 
 3783000   0.63766734   -9.2830372     463.0204  0.010199586 0.0088678922         3896 
 3784000   0.64867618     -9.30755    463.20056  0.010200858 0.0088639671         3905 
 3785000   0.64459709   -9.3223901    462.84365  0.010190305 0.0088600473         3932 
 3786000   0.65136212   -9.3018938    462.76308   0.01018584 0.0088561236         3934 
 3787000   0.64996745   -9.2834549    463.94947  0.010209257 0.0088522061         3922 
 3788000   0.64312755   -9.3058681    463.52557  0.010197236 0.0088482908         3925 
 3789000    0.6476943   -9.2976897    462.85083  0.010179705 0.0088443743         3919 
 3790000   0.64827781   -9.3096765    462.84493  0.010176889 0.0088404593         3931 
 3791000    0.6479094   -9.2833232    463.20929  0.010182214 0.0088365487         3933 
 3792000   0.65496167   -9.3154836    462.49632  0.010163861 0.0088326417         3924 
 3793000   0.64927874    -9.284902    463.68274  0.010187247 0.0088287371         3924 
 3794000   0.64450586   -9.2909517    462.96838  0.010168872 0.0088248332         3916 
 3795000   0.65509386   -9.3060164    463.18077  0.010170856 0.0088209324         3937 
 3796000   0.65744932   -9.3029463    463.63149  0.010178071 0.0088170353         3915 
 3797000   0.64154005   -9.3301669    462.88161  0.010158933 0.0088131385         3928 
 3798000   0.63674919   -9.2993287    462.61658  0.010150443 0.0088092404         3917 
 3799000   0.64946173   -9.2907828    462.39773   0.01014297 0.0088053481         3928 
 3800000   0.64248582   -9.3147573    462.22632  0.010136542 0.0088014566         3906 
 3801000   0.64334619   -9.3029068    462.98541  0.010150518 0.0087975651         3924 
 3802000   0.64826194   -9.2860698    462.59933  0.010139386 0.0087936766         3922 
 3803000   0.65518881   -9.2947544    463.00655  0.010145643 0.0087897938         3914 
 3804000   0.62321586    -9.290834    462.33078  0.010128172 0.0087859087         3898 
 3805000   0.64283825   -9.3170271    461.91971  0.010116507  0.008782027         3905 
 3806000   0.64927801   -9.3053128    463.22406  0.010142408  0.008778151         3904 
 3807000   0.64574575   -9.2846326    462.54196  0.010124813 0.0087742736         3909 
 3808000   0.63411744   -9.2924675    462.43221  0.010119753 0.0087703993         3902 
 3809000   0.64353239   -9.2811947    463.19841  0.010133859 0.0087665298         3911 
 3810000   0.65030365   -9.3111425    461.92069  0.010103252 0.0087626592         3910 
 3811000   0.61983213   -9.2988276    462.43352  0.010111815 0.0087587929         3900 
 3812000   0.63247336   -9.3288026    461.94506  0.010098484 0.0087549263         3916 
 3813000   0.63923945   -9.3088882    462.74704  0.010113363 0.0087510646         3909 
 3814000   0.64023891   -9.3006231    463.14741  0.010119459 0.0087472088         3925 
 3815000    0.6450609   -9.3051189    462.65864   0.01010613 0.0087433496         3921 
 3816000   0.64524868   -9.3101884    462.94839  0.010109809  0.008739497         3923 
 3817000   0.65124933   -9.2893097     463.3156  0.010115178 0.0087356441         3906 
 3818000   0.64271729   -9.3176385    462.83966   0.01010214 0.0087317917         3913 
 3819000   0.63530749   -9.2889434     463.7343  0.010119017 0.0087279467         3894 
 3820000   0.62904409   -9.2952753    462.93982  0.010099036 0.0087240978         3903 
 3821000   0.63440517   -9.3218161    462.90055  0.010095537 0.0087202493         3906 
 3822000   0.64972168   -9.2915385    463.14597  0.010098246 0.0087164071         3897 
 3823000   0.63325292   -9.3125241    462.85857   0.01008934 0.0087125655         3912 
 3824000   0.65331751   -9.3248083    461.94447  0.010066782 0.0087087276         3915 
 3825000   0.63694128   -9.3120018    462.07004  0.010066885 0.0087048932         3916 
 3826000   0.63590518   -9.3271352    462.13366   0.01006564 0.0087010561         3920 
 3827000    0.6379062   -9.3170644    462.50107   0.01007101 0.0086972265         3925 
 3828000   0.63221534   -9.3275491     461.5178  0.010046974 0.0086933927         3919 
 3829000    0.6457189   -9.3070757    462.51564  0.010066067 0.0086895652         3907 
 3830000   0.63114794   -9.3127052    463.32456  0.010081039 0.0086857365         3915 
 3831000   0.64054748   -9.3108778    462.50304  0.010060538 0.0086819169         3905 
 3832000   0.64640716   -9.3076022    462.49644  0.010057769  0.008678095         3889 
 3833000   0.63794127    -9.318627    462.55517  0.010056422 0.0086742777         3897 
 3834000   0.62954745   -9.3106474    462.80802  0.010059295 0.0086704617         3911 
 3835000   0.65002716   -9.3135481      462.622  0.010052629 0.0086666501         3916 
 3836000   0.63715637   -9.2998717    462.74412  0.010052662 0.0086628397         3913 
 3837000   0.63453701   -9.3085234      462.347  0.010041417 0.0086590307         3945 
 3838000   0.63897517   -9.3323271    462.55061  0.010043222 0.0086552248         3898 
 3839000   0.63220644   -9.3180685    462.42487  0.010037876 0.0086514232         3910 
 3840000   0.62410796   -9.3169805     462.3385  0.010033388 0.0086476232         3917 
 3841000   0.62634748   -9.3104192    463.01211   0.01004539 0.0086438234         3901 
 3842000    0.6337257   -9.3220099    462.61844  0.010034237 0.0086400229         3913 
 3843000   0.64523682   -9.3255494    463.19707  0.010044173 0.0086362323         3916 
 3844000   0.62305587   -9.3139348    462.50819  0.010026626 0.0086324393         3916 
 3845000   0.62283329   -9.3296493    462.35218  0.010020637 0.0086286488         3918 
 3846000   0.63478798   -9.3273569    462.43938  0.010019921 0.0086248583         3918 
 3847000     0.636604   -9.3239607    462.14904  0.010011027 0.0086210732         3914 
 3848000   0.62455816   -9.2974723    462.26463  0.010010928 0.0086172888         3911 
 3849000   0.63182087   -9.2944298    462.42156  0.010011725 0.0086135084         3903 
 3850000   0.62878681   -9.3338573    462.22059  0.010004775 0.0086097312         3915 
 3851000   0.63276893   -9.3204328    462.66153  0.010011718  0.008605953         3915 
 3852000   0.63383053   -9.3163575    462.19567  0.009999041 0.0086021787         3917 
 3853000   0.64071395   -9.2996817    462.21907 0.0099969519  0.008598411         3898 
 3854000   0.63459134   -9.3067312    462.35458  0.009997288 0.0085946417         3910 
 3855000    0.6310778   -9.3026061    463.35727   0.01001637 0.0085908735         3934 
 3856000   0.63573697   -9.3214672    463.09657  0.010008138 0.0085871085         3912 
 3857000   0.64498689   -9.3042267    463.69992  0.010018579 0.0085833456         3906 
 3858000   0.62334888   -9.3074229    462.45708 0.0099891368 0.0085795892         3911 
 3859000   0.63902462   -9.3183393    462.40144 0.0099853468 0.0085758309         3916 
 3860000   0.64058346   -9.3091211    463.36031  0.010003461 0.0085720706         3923 
 3861000   0.63631946   -9.3056203    462.83958  0.009989631 0.0085683162         3908 
 3862000   0.64287845   -9.3206533    462.87677 0.0099878468 0.0085645664         3909 
 3863000   0.63765298   -9.3215356    461.92469 0.0099647228 0.0085608158         3915 
 3864000   0.64283323   -9.3167654    462.06107 0.0099650853 0.0085570637         3925 
 3865000   0.63116237   -9.3076994    462.97295 0.0099821679 0.0085533142         3918 
 3866000   0.63753912    -9.304512    462.22744 0.0099635161  0.008549572         3917 
 3867000   0.63154776   -9.3237909    462.92479 0.0099759673   0.00854583         3908 
 3868000   0.62755766   -9.3085829    462.17957  0.009957333 0.0085420841         3925 
 3869000   0.64207323    -9.327634    461.93358 0.0099494611 0.0085383473         3911 
 3870000   0.64879671   -9.3289778    462.51155 0.0099593358 0.0085346106         3917 
 3871000   0.62471985   -9.3131657    463.07758 0.0099689481 0.0085308753         3898 
 3872000   0.61285414   -9.3087955     463.1104   0.00996708 0.0085271471         3911 
 3873000    0.6353088   -9.3333804    462.01509 0.0099409391 0.0085234177         3936 
 3874000   0.65038784    -9.345541    462.99873 0.0099595322 0.0085196882         3925 
 3875000   0.63334474   -9.3426489    462.47935 0.0099457924 0.0085159623         3937 
 3876000   0.61968439   -9.3075067    462.82401 0.0099506367 0.0085122357         3913 
 3877000   0.62765566   -9.3155991    462.40985 0.0099391681 0.0085085141         3926 
 3878000   0.63525611   -9.3313409    462.64034  0.009941558 0.0085047968         3915 
 3879000   0.63135899   -9.3197261    462.24247 0.0099304474 0.0085010757         3929 
 3880000   0.62840299   -9.3198251    462.75959 0.0099389946 0.0084973619         3923 
 3881000   0.63493807   -9.3223908    461.91277 0.0099182508 0.0084936523         3939 
 3882000   0.63708247   -9.3192457    463.05501 0.0099402156 0.0084899424         3930 
 3883000   0.62153196   -9.3125721    462.93784 0.0099351413 0.0084862367         3932 
 3884000   0.62796822   -9.3318777    461.84121 0.0099090545 0.0084825285         3927 
 3885000   0.61852549   -9.3349052    462.28466 0.0099160158 0.0084788278         3940 
 3886000    0.6398074   -9.3246752    462.90484 0.0099267635 0.0084751263         3915 
 3887000   0.63399927   -9.3258937    462.63953 0.0099185218 0.0084714236         3934 
 3888000   0.62768082   -9.3336542    462.11819 0.0099047965 0.0084677229         3924 
 3889000   0.63031057   -9.3286188    462.74302 0.0099156385 0.0084640279         3911 
 3890000   0.64021746   -9.3191972    462.72003  0.009912597 0.0084603366         3930 
 3891000   0.62481863   -9.3027805    463.12094 0.0099186357 0.0084566469         3916 
 3892000   0.61849812   -9.3226397    461.52781  0.009881976 0.0084529617         3936 
 3893000    0.6302032     -9.34434     461.9875 0.0098892778 0.0084492753         3921 
 3894000   0.61434757   -9.3445595    461.53346 0.0098770216 0.0084455886         3921 
 3895000   0.61762828   -9.3184421    462.19772 0.0098886974  0.008441903         3917 
 3896000   0.61330443   -9.3354029    462.06794 0.0098833834 0.0084382233         3943 
 3897000   0.64549567   -9.3459181    461.83843 0.0098759393 0.0084345437         3924 
 3898000   0.63604906   -9.3293548    461.98023 0.0098764374 0.0084308678         3890 
 3899000   0.63543833   -9.3473701    461.58721 0.0098655043 0.0084271935         3900 
 3900000   0.62382627      -9.3196    462.37747 0.0098798604 0.0084235229         3937 
 3901000   0.64065362   -9.3445578    461.44567 0.0098574226 0.0084198546         3913 
 3902000   0.63088722   -9.3430864    461.10988 0.0098477252 0.0084161871         3924 
 3903000   0.62448392   -9.3169373    462.53193 0.0098755643 0.0084125203         3904 
 3904000   0.63221209   -9.3143057    462.12705 0.0098643923 0.0084088563         3902 
 3905000   0.62514024   -9.3201263    463.76428 0.0098968049 0.0084051957         3923 
 3906000   0.62598793   -9.3293695    463.05813 0.0098792057 0.0084015361         3931 
 3907000   0.62582717   -9.3285682    461.26146 0.0098383554 0.0083978801         3916 
 3908000    0.6263934   -9.3435978    462.11863 0.0098541161 0.0083942279         3920 
 3909000   0.62024906   -9.3298926    461.79775 0.0098447546 0.0083905778         3912 
 3910000   0.62404611   -9.3242134    462.51962 0.0098576219 0.0083869264         3926 
 3911000   0.63789218   -9.3222365    462.66857 0.0098582752 0.0083832833         3931 
 3912000   0.63293224   -9.3175451    461.37825 0.0098282687 0.0083796404         3918 
 3913000   0.62153616   -9.3112883    462.20246 0.0098433099 0.0083759984         3913 
 3914000   0.62076125   -9.3386846    462.42409 0.0098455139 0.0083723588         3925 
 3915000   0.62301128   -9.3255258    462.12441 0.0098366201 0.0083687171         3930 
 3916000   0.60842852   -9.3332341    461.38139 0.0098182964 0.0083650746         3933 
 3917000   0.63505471   -9.3320758    462.11508 0.0098313991 0.0083614368         3933 
 3918000   0.62782087   -9.3407422    462.11972 0.0098289883 0.0083578031         3920 
 3919000   0.63158806   -9.3238935    461.48013 0.0098128801  0.008354169         3917 
 3920000   0.62617206   -9.3167059    461.88201 0.0098189203 0.0083505416         3913 
 3921000   0.62480614   -9.3342293    462.01978 0.0098193441 0.0083469159         3929 
 3922000   0.62656561    -9.357142    461.90663 0.0098144362 0.0083432905         3917 
 3923000    0.6170716   -9.3242211    461.75317 0.0098086748  0.008339667         3931 
 3924000   0.62589899   -9.3401094    461.68644 0.0098047579  0.008336045         3921 
 3925000   0.61559595   -9.3531308     461.7309 0.0098032037 0.0083324228         3921 
 3926000   0.61674213   -9.3353533    462.23746 0.0098114591 0.0083288064         3926 
 3927000   0.62917441   -9.3458581    461.94916 0.0098028426 0.0083251881         3921 
 3928000   0.62030568   -9.3321079    461.65601 0.0097941279 0.0083215765         3912 
 3929000   0.61395556   -9.3243549    461.59365 0.0097903124 0.0083179683         3916 
 3930000   0.64214842   -9.3295449     461.8061 0.0097923262 0.0083143593         3907 
 3931000    0.6203457   -9.3355479    462.43036 0.0098030687 0.0083107553         3916 
 3932000   0.61249812   -9.3355603    461.89598 0.0097892501 0.0083071497         3920 
 3933000   0.63138327   -9.3403758    461.89898 0.0097868248 0.0083035477         3915 
 3934000   0.61992252   -9.3552828    461.59361 0.0097778684  0.008299944         3921 
 3935000   0.62517384   -9.3276674    462.29744 0.0097902889 0.0082963447         3930 
 3936000   0.61204756   -9.3319578    461.91349 0.0097796724 0.0082927449         3922 
 3937000   0.61914609   -9.3178574     462.5392 0.0097904327 0.0082891478         3929 
 3938000   0.63432157   -9.3290732    461.77433 0.0097717609 0.0082855546         3920 
 3939000   0.62454394    -9.349496    462.54916 0.0097856723 0.0082819631         3907 
 3940000   0.62104703   -9.3195605    462.16669 0.0097750992 0.0082783753         3904 
 3941000   0.62272431   -9.3411392    462.37318 0.0097769852 0.0082747855         3923 
 3942000    0.6214746   -9.3484417    461.69667 0.0097602035 0.0082711993         3920 
 3943000   0.63241442   -9.3379223    462.06594 0.0097655326 0.0082676202         3920 
 3944000   0.62187298   -9.3213049    462.99727 0.0097827348 0.0082640383         3894 
 3945000   0.63118789   -9.3327482    462.72012 0.0097744006 0.0082604628         3902 
 3946000   0.61775473    -9.341854     462.5014 0.0097673045 0.0082568844         3909 
 3947000   0.60927702   -9.3557533    461.86365  0.009751365 0.0082533099         3909 
 3948000   0.61554915   -9.3531675    461.58208 0.0097429518 0.0082497358         3921 
 3949000   0.61773663   -9.3585162    462.45376  0.009758879 0.0082461656         3906 
 3950000   0.62197032   -9.3439173    462.19952 0.0097510447 0.0082425949         3922 
 3951000   0.61832583   -9.3370148    461.75846  0.009739274 0.0082390301         3918 
 3952000   0.62300417   -9.3417683    462.58323  0.009754201 0.0082354662         3920 
 3953000   0.63198635   -9.3349157    462.96047  0.009759686  0.008231906         3918 
 3954000   0.61669304   -9.3467309    461.75724 0.0097318588 0.0082283476         3921 
 3955000   0.61561874   -9.3597369    461.50458 0.0097240745 0.0082247881         3907 
 3956000   0.61977483   -9.3278332    461.88857 0.0097297054 0.0082212312         3919 
 3957000    0.6316969   -9.3360821    461.89621 0.0097274073 0.0082176805         3919 
 3958000   0.60904324   -9.3605874    461.61486  0.009719026 0.0082141268         3919 
 3959000   0.60379661   -9.3537965    461.50399 0.0097142374 0.0082105762         3933 
 3960000   0.62904264   -9.3387393     461.8293 0.0097186301 0.0082070273         3921 
 3961000   0.63018123   -9.3509194    461.82593 0.0097161055 0.0082034831         3905 
 3962000   0.61485648   -9.3490668    462.28234  0.009723253 0.0081999417         3917 
 3963000    0.6160074   -9.3314435    462.60003 0.0097274799 0.0081964005         3902 
 3964000    0.6046097   -9.3605492      462.058 0.0097136309 0.0081928614         3902 
 3965000   0.60786251   -9.3379339    462.51345 0.0097207535 0.0081893228         3916 
 3966000   0.60834069   -9.3432803    461.13177 0.0096892706 0.0081857866         3952 
 3967000   0.62055893   -9.3469967    461.65561 0.0096978323 0.0081822533         3910 
 3968000   0.60911598   -9.3596451    462.28329 0.0097085704 0.0081787204         3895 
 3969000   0.62450316    -9.351472    460.83126 0.0096756375 0.0081751927         3916 
 3970000   0.60989005    -9.328853    462.50492 0.0097083317 0.0081716669         3919 
 3971000   0.61168672   -9.3418641    461.89556 0.0096930992  0.008168141         3917 
 3972000   0.62193888   -9.3475379    460.86362 0.0096690085 0.0081646173         3927 
 3973000   0.62283638   -9.3577792    461.42539 0.0096783579 0.0081610969         3929 
 3974000   0.62678902   -9.3444601    462.25579 0.0096933356 0.0081575802         3908 
 3975000   0.60989044   -9.3469762    462.17377 0.0096891775 0.0081540634         3903 
 3976000   0.61027679   -9.3609816     462.0478 0.0096841004 0.0081505485         3911 
 3977000   0.61219192   -9.3395984    460.98807 0.0096594601 0.0081470334         3917 
 3978000   0.61362408   -9.3668897     461.7783 0.0096735859 0.0081435261         3918 
 3979000   0.61026064   -9.3605015    461.55866 0.0096665548 0.0081400143         3927 
 3980000   0.60040546   -9.3470131     461.3267 0.0096592693 0.0081365062         3915 
 3981000     0.633674   -9.3574569    461.50098  0.009660491 0.0081329983         3932 
 3982000   0.60930786   -9.3563574    463.15639 0.0096927086 0.0081294938         3922 
 3983000   0.62115414   -9.3597662    461.67483 0.0096592775 0.0081259942         3916 
 3984000   0.61655455   -9.3497649    461.12572 0.0096453673 0.0081224977         3914 
 3985000   0.61543927   -9.3499272    461.84849 0.0096580613  0.008118996         3928 
 3986000   0.62207015    -9.351571     461.3963 0.0096461846 0.0081155029         3920 
 3987000   0.62539672   -9.3404811    463.19734 0.0096814091 0.0081120106         3906 
 3988000   0.59211849   -9.3473713    461.16918  0.009636601 0.0081085178         3930 
 3989000   0.62642275   -9.3672005     461.8822 0.0096490807 0.0081050271         3918 
 3990000   0.62530425   -9.3456348    461.78998 0.0096447363 0.0081015411         3907 
 3991000   0.60655846   -9.3608618    461.22911 0.0096306086 0.0080980541         3933 
 3992000   0.62010551   -9.3541085     461.3916 0.0096315882  0.008094568         3929 
 3993000   0.61079099   -9.3641939    462.09605 0.0096438778 0.0080910861         3924 
 3994000    0.6138925   -9.3533086    461.24365 0.0096236781 0.0080876057         3921 
 3995000   0.59878755   -9.3669784    461.08748 0.0096180117 0.0080841274         3912 
 3996000   0.61103759   -9.3632292    462.02066 0.0096350654 0.0080806534         3917 
 3997000   0.60516497   -9.3687709    461.76202 0.0096272624 0.0080771768         3926 
 3998000   0.60955183     -9.36386    461.57199 0.0096208936  0.008073704         3932 
 3999000   0.61623308   -9.3454757    462.20643 0.0096317086 0.0080702341         3927 
 4000000   0.61682528   -9.3530114    461.54332 0.0096154858  0.008066765         3922 
 4001000   0.61067181   -9.3672602    461.51255 0.0096124417 0.0080633004         3931 
 4002000   0.60970663   -9.3570139    461.50092 0.0096097976 0.0080598386         3920 
 4003000   0.62105859   -9.3579627    461.43257  0.009605974 0.0080563757         3923 
 4004000   0.61929599   -9.3517206    461.39695 0.0096028337 0.0080529185         3923 
 4005000   0.60069924   -9.3646302    461.35338 0.0095995293 0.0080494605         3912 
 4006000   0.59585927   -9.3498966    461.25711 0.0095951304 0.0080460033         3911 
 4007000   0.61162332   -9.3429102    461.81806 0.0096044018 0.0080425495         3926 
 4008000   0.60575719   -9.3616119    461.86668 0.0096030165 0.0080390943         3910 
 4009000   0.62241491   -9.3460084    461.53967 0.0095938237  0.008035647         3928 
 4010000   0.61477164   -9.3506661    461.57686 0.0095922042 0.0080322009         3913 
 4011000   0.60783333   -9.3452184    461.09265 0.0095797525  0.008028758         3914 
 4012000   0.60654694   -9.3525126    461.36604 0.0095830433 0.0080253142         3919 
 4013000   0.59793107   -9.3677822    461.97947 0.0095933938 0.0080218726         3899 
 4014000   0.62282629   -9.3454916    461.58737 0.0095828635 0.0080184336         3904 
 4015000   0.61025528   -9.3526423    461.39725 0.0095765307 0.0080149958         3911 
 4016000   0.60561993   -9.3653413    461.23521 0.0095707836 0.0080115595         3930 
 4017000   0.61207214   -9.3574048    460.53938 0.0095539661 0.0080081239         3927 
 4018000   0.59804578   -9.3484992    460.88682 0.0095587941 0.0080046905         3928 
 4019000    0.6113717   -9.3490699    460.84393 0.0095555264 0.0080012595         3916 
 4020000   0.59892036   -9.3492174    461.86529  0.009574322 0.0079978323         3921 
 4021000   0.60803827   -9.3744743    461.58632 0.0095661593 0.0079944071         3915 
 4022000   0.60899592   -9.3513698    461.85706 0.0095693903 0.0079909876         3926 
 4023000   0.60716978   -9.3774508    461.35252 0.0095565605 0.0079875634         3934 
 4024000   0.62462982   -9.3610862    460.91707 0.0095451679 0.0079841413         3919 
 4025000    0.5966434   -9.3578838    461.87734 0.0095626778  0.007980725         3906 
 4026000   0.60808161   -9.3653631    461.62627 0.0095551058 0.0079773084         3929 
 4027000   0.61488663   -9.3551882    462.07997 0.0095621218 0.0079738971         3923 
 4028000   0.61318858   -9.3543918    461.55805 0.0095489501 0.0079704892         3916 
 4029000   0.60763595   -9.3617327    461.49952 0.0095453694 0.0079670792         3920 
 4030000   0.61634525   -9.3753847    461.14509 0.0095356718 0.0079636729         3930 
 4031000   0.60609038   -9.3617447    461.57278 0.0095421479 0.0079602665         3919 
 4032000   0.60085016     -9.34928    461.97814 0.0095481594 0.0079568635         3922 
 4033000     0.601785   -9.3719198    461.43136 0.0095344938 0.0079534617         3925 
 4034000   0.59805615   -9.3778239    460.75079 0.0095180713 0.0079500607         3914 
 4035000   0.61053164   -9.3716468    461.49545 0.0095310915 0.0079466612         3927 
 4036000   0.60348888   -9.3502771    461.51969 0.0095292305 0.0079432649         3929 
 4037000   0.59875939   -9.3719657    460.75666 0.0095111193  0.007939869         3938 
 4038000   0.59983863   -9.3709899    461.09083 0.0095156601 0.0079364803         3908 
 4039000   0.61636428   -9.3508347    461.11931 0.0095138919 0.0079330919         3928 
 4040000    0.5968799   -9.3503641    462.45341 0.0095390554 0.0079297028         3902 
 4041000   0.60238284   -9.3646111     461.0134 0.0095069992 0.0079263155         3920 
 4042000    0.6194014   -9.3621359    461.67708 0.0095183301 0.0079229306         3930 
 4043000   0.60392635    -9.373362    460.82836 0.0094984821 0.0079195499         3927 
 4044000   0.60903851   -9.3565794    460.97976 0.0094992532 0.0079161662         3923 
 4045000   0.60848177   -9.3642566    460.65988 0.0094903147 0.0079127875         3928 
 4046000   0.60347352   -9.3333977    461.87866 0.0095130718 0.0079094135         3933 
 4047000   0.60109606   -9.3701424    461.88576 0.0095108672 0.0079060395         3907 
 4048000   0.62392745   -9.3615942    461.82717 0.0095073117  0.007902667         3931 
 4049000   0.60963543   -9.3641376    460.64585 0.0094806506 0.0078992951         3921 
 4050000   0.60554536   -9.3778819     461.1824 0.0094893498 0.0078959247         3919 
 4051000   0.59783775   -9.3820503    460.72136 0.0094775232 0.0078925575         3918 
 4052000    0.6113069   -9.3525233    461.31264 0.0094873446 0.0078891933         3941 
 4053000   0.59746981   -9.3707331    461.15248 0.0094817107  0.007885831         3911 
 4054000   0.60214774   -9.3750978     461.1519 0.0094793598 0.0078824681         3921 
 4055000   0.60066415   -9.3716909    461.53383 0.0094848711 0.0078791074         3909 
 4056000   0.60701243   -9.3668766    461.11376  0.009473902 0.0078757488         3920 
 4057000    0.6042185    -9.368393    461.79218  0.009485502 0.0078723935         3914 
 4058000    0.6069928   -9.3545288    461.42258 0.0094755746 0.0078690387         3930 
 4059000   0.61323345   -9.3493925    461.25352 0.0094697692 0.0078656871         3931 
 4060000   0.60637494   -9.3375688    461.43001 0.0094710594 0.0078623382         3903 
 4061000   0.58786204   -9.3659903    460.79417 0.0094556794 0.0078589892         3925 
 4062000   0.60381577   -9.3531364    461.86364 0.0094752921 0.0078556442         3923 
 4063000    0.5933689   -9.3811133    461.26364 0.0094606538  0.007852303         3915 
 4064000   0.61029982   -9.3582007    461.59793 0.0094651806   0.00784896         3927 
 4065000   0.59967923   -9.3699634    462.30593 0.0094773664  0.007845622         3924 
 4066000   0.60936261   -9.3557192    461.21347 0.0094526453 0.0078422819         3938 
 4067000   0.60460925   -9.3777174     460.6599 0.0094389783 0.0078389474         3926 
 4068000   0.59629695   -9.3865727    459.89145 0.0094209163 0.0078356126         3924 
 4069000   0.61013193   -9.3598687    461.31816 0.0094478202 0.0078322803         3919 
 4070000   0.59561685   -9.3765732    461.53118 0.0094498603 0.0078289472         3939 
 4071000   0.59631916   -9.3691755    461.52239 0.0094473593 0.0078256215         3918 
 4072000   0.59238935   -9.3725062     460.8402  0.009431078 0.0078222943         3936 
 4073000   0.59154924   -9.3895938    461.34863 0.0094391649 0.0078189658         3912 
 4074000    0.5944564   -9.3752415    460.56781 0.0094208765 0.0078156424         3908 
 4075000   0.58905209   -9.3572546    462.48178  0.009457705 0.0078123174         3928 
 4076000    0.5926217   -9.3775206    461.48555 0.0094350169 0.0078089969         3912 
 4077000    0.6039985   -9.3873673    461.42286 0.0094314213 0.0078056788         3917 
 4078000   0.59495084   -9.3730337    460.76137 0.0094155912 0.0078023629         3926 
 4079000   0.59657229    -9.377472    461.52007 0.0094287829 0.0077990515         3919 
 4080000   0.59135236   -9.3787893    461.16684 0.0094192573 0.0077957399         3931 
 4081000   0.59260492   -9.3797698    460.98338  0.009413203 0.0077924281         3913 
 4082000    0.5946854   -9.3716961    460.67166 0.0094045334 0.0077891232         3923 
 4083000   0.59719519   -9.3924861     460.8525 0.0094059209 0.0077858151         3914 
 4084000   0.58829057   -9.3866664    460.37648 0.0093939046 0.0077825101         3908 
 4085000   0.59112804   -9.3811953    461.70655 0.0094187384 0.0077792042         3925 
 4086000   0.59937686   -9.3797126    460.58265 0.0093935113 0.0077759024         3923 
 4087000   0.61284694   -9.3589526    461.28267 0.0094054864  0.007772606         3918 
 4088000   0.60315134   -9.3686612    461.02626 0.0093979586 0.0077693109         3922 
 4089000   0.61321329   -9.3624047    461.40762 0.0094034323 0.0077660185         3927 
 4090000   0.61443781   -9.3898348    461.68886 0.0094068634 0.0077627284         3914 
 4091000   0.60105806   -9.3613363    460.94682 0.0093894487 0.0077594396         3923 
 4092000   0.59969455   -9.3762104    460.78032 0.0093837634 0.0077561519         3918 
 4093000   0.59171269   -9.3750857    461.81843 0.0094026067 0.0077528643         3901 
 4094000   0.59326041   -9.3775666    461.38709   0.00939153 0.0077495796         3925 
 4095000   0.59324654   -9.3799571    460.68232 0.0093748945 0.0077462935         3928 
 4096000   0.59214305   -9.3730058    460.86773  0.009376378 0.0077430124         3894 
 4097000    0.5870511   -9.3665018    461.36353  0.009384174  0.007739732         3928 
 4098000   0.58395755   -9.3718943    461.21949 0.0093789549 0.0077364526         3928 
 4099000   0.59212905   -9.3866759    460.83471 0.0093688441 0.0077331753         3936 
 4100000   0.59306499   -9.3868693    461.41842 0.0093784232 0.0077299007         3931 
 4101000    0.5858496   -9.3775051    461.09609 0.0093695865 0.0077266263         3922 
 4102000   0.60222677   -9.3733815     461.1355 0.0093681031 0.0077233535         3916 
 4103000    0.6027019   -9.3711035      461.295 0.0093690593 0.0077200825         3941 
 4104000   0.60157292   -9.3824485    461.01636 0.0093611184 0.0077168162         3932 
 4105000   0.60418826   -9.4002831    460.81976 0.0093548469 0.0077135515         3930 
 4106000   0.59680804   -9.3908731    461.35816 0.0093634957 0.0077102909         3931 
 4107000   0.59186065   -9.3840248    461.06667 0.0093553012  0.007707032         3924 
 4108000   0.59577116   -9.3827409    461.24218 0.0093565843 0.0077037703         3928 
 4109000   0.58587045   -9.3857509    459.79659 0.0093249896 0.0077005089         3940 
 4110000   0.59611364    -9.380047    461.32299 0.0093536696 0.0076972515         3927 
 4111000   0.59379904   -9.3662918    461.29598 0.0093508469  0.007693997         3928 
 4112000   0.59465572    -9.377458    461.14131 0.0093454384 0.0076907452         3906 
 4113000   0.59438968   -9.3770424    460.53291 0.0093308395 0.0076874928         3935 
 4114000   0.59719881   -9.3951843    460.72922 0.0093325479 0.0076842431         3930 
 4115000   0.60955832   -9.3893455    460.96006 0.0093349546 0.0076809931         3929 
 4116000    0.5990637   -9.3859515    460.74509 0.0093283344 0.0076777452         3929 
 4117000   0.61031267   -9.4087132    461.06215 0.0093324863 0.0076745037         3933 
 4118000   0.59210746   -9.3711036    460.26466 0.0093140817  0.007671261         3933 
 4119000   0.59614761   -9.4007225    460.60359 0.0093186775 0.0076680217         3927 
 4120000   0.57109157   -9.3758116    461.40843 0.0093326948 0.0076647846         3925 
 4121000   0.58524451   -9.3808027    460.88189 0.0093197826 0.0076615476         3921 
 4122000   0.57485286   -9.3823167    461.48008 0.0093296151 0.0076583122         3923 
 4123000    0.5777891   -9.3702552    460.77897 0.0093131816 0.0076550773         3930 
 4124000   0.58161653   -9.3860221    460.65833 0.0093084856 0.0076518439         3940 
 4125000     0.598523   -9.3973018    460.90012 0.0093111136 0.0076486136         3920 
 4126000    0.5886327   -9.3946579    460.10666 0.0092928312 0.0076453845         3917 
 4127000    0.5848627   -9.3931627    461.55587 0.0093198423 0.0076421569         3920 
 4128000   0.58687273   -9.3940844    459.58708   0.00927784 0.0076389344         3929 
 4129000   0.59141904   -9.3755303    460.94555 0.0093030102 0.0076357107         3910 
 4130000   0.59252186   -9.3897388    460.87144 0.0092992623 0.0076324941         3942 
 4131000   0.58674606   -9.3905707    460.91206 0.0092978306  0.007629278         3926 
 4132000   0.59087361   -9.3941884    460.97874 0.0092969251 0.0076260627         3918 
 4133000   0.58891268   -9.3994425    460.61551 0.0092873519 0.0076228459         3928 
 4134000   0.57854511   -9.4024659    460.54783 0.0092837411 0.0076196338         3943 
 4135000   0.58723981   -9.3802773    460.76897 0.0092859527 0.0076164233         3920 
 4136000   0.59518176   -9.3808163    460.72518 0.0092828253 0.0076132135         3922 
 4137000   0.58850587   -9.3709681    461.04078 0.0092869386 0.0076100079         3922 
 4138000   0.61014971   -9.3903568    461.63967  0.009296755 0.0076068071         3927 
 4139000   0.58871132   -9.3884839    460.46371 0.0092708326 0.0076036041         3935 
 4140000   0.60195275   -9.3876932    460.74609 0.0092742772 0.0076004035         3938 
 4141000   0.58613688   -9.3820989    460.30796 0.0092632207 0.0075972034         3922 
 4142000   0.59029577   -9.3754264    460.90775 0.0092730514 0.0075940051         3921 
 4143000   0.59259901   -9.3960039    460.50038 0.0092626192 0.0075908073         3931 
 4144000   0.58727636   -9.4010003    461.64887 0.0092834795 0.0075876146         3929 
 4145000   0.58594085   -9.4042003    460.45068 0.0092571508 0.0075844234         3933 
 4146000   0.58057905   -9.3831767    460.60358 0.0092579913 0.0075812321         3935 
 4147000   0.58870688    -9.377178    461.03523 0.0092644327 0.0075780453         3935 
 4148000   0.59666179   -9.3979418    460.44755 0.0092503927 0.0075748586         3927 
 4149000   0.59808999   -9.3941861    460.40126 0.0092472334 0.0075716719         3926 
 4150000    0.5846873   -9.3945105     459.9338 0.0092356185 0.0075684839         3938 
 4151000   0.59206974   -9.4018234    459.79423 0.0092305917  0.007565299         3922 
 4152000   0.57778042    -9.387075    460.47737 0.0092420795 0.0075621167         3930 
 4153000   0.60262651   -9.3903001    460.28767 0.0092360477 0.0075589385         3930 
 4154000   0.58706384   -9.3882386    460.80333 0.0092441689 0.0075557628         3912 
 4155000   0.59404958   -9.3763533    460.52408 0.0092363434 0.0075525884         3920 
 4156000   0.57313826   -9.3935615    461.67437 0.0092571859 0.0075494134         3921 
 4157000   0.58792071   -9.3979703    461.34715 0.0092483993 0.0075462395         3921 
 4158000   0.58499985   -9.4136393    460.54274 0.0092300534 0.0075430707         3936 
 4159000   0.58145175   -9.4011299    460.57173  0.009228415 0.0075399043         3922 
 4160000   0.59682691   -9.3795356    461.09365 0.0092366516 0.0075367404         3922 
 4161000   0.57524818   -9.3808934    460.35062  0.009219551 0.0075335764         3930 
 4162000   0.57153835   -9.3820347    460.42606 0.0092188464 0.0075304164         3923 
 4163000   0.58585491   -9.4032187    459.99225 0.0092079481 0.0075272538         3949 
 4164000   0.59189658   -9.3732421     460.6144 0.0092181877 0.0075240965         3915 
 4165000   0.59691178   -9.4005788    460.39033 0.0092114912 0.0075209384         3943 
 4166000   0.57858459   -9.3899405    460.85346 0.0092185443 0.0075177829         3915 
 4167000   0.59262468   -9.4004402    461.02858  0.009219834  0.007514631         3930 
 4168000   0.60210205   -9.3805733    461.38365 0.0092247211 0.0075114806         3922 
 4169000   0.60227004   -9.3948482    460.66797 0.0092082029 0.0075083316         3934 
 4170000   0.58802897   -9.3868353    460.94746   0.00921158  0.007505184         3928 
 4171000   0.58356215   -9.3944485    459.85033 0.0091874516 0.0075020382         3928 
 4172000   0.59380672   -9.3688512    460.92972 0.0092068097 0.0074988936         3923 
 4173000   0.59068291    -9.395865    460.70249 0.0092000658 0.0074957524         3922 
 4174000    0.5840597   -9.3930507     460.0582 0.0091849984 0.0074926128         3935 
 4175000    0.5730406   -9.3902024    460.79546 0.0091975141 0.0074894746         3935 
 4176000   0.58355509   -9.4036775    460.66648 0.0091927379 0.0074863371         3930 
 4177000   0.58480632   -9.3759271    461.36017 0.0092043766 0.0074832048         3930 
 4178000   0.59116926   -9.4091221    460.72345 0.0091894736 0.0074800702         3919 
 4179000   0.57792419    -9.408691     460.5822  0.009184458 0.0074769387         3942 
 4180000    0.5661843   -9.3934566    460.63068 0.0091832273 0.0074738085         3932 
 4181000   0.58601462   -9.4030764    460.63006 0.0091810185 0.0074706812         3934 
 4182000   0.59399878   -9.3840615    459.87666 0.0091638104 0.0074675561         3931 
 4183000   0.57611514   -9.3952042    460.45623 0.0091731659 0.0074644344         3922 
 4184000   0.57371399   -9.4093101    460.60958 0.0091740277 0.0074613121         3935 
 4185000    0.5843894   -9.3960306    460.49418 0.0091695377 0.0074581877         3931 
 4186000   0.57632837   -9.4206374    459.71474 0.0091518303  0.007455066         3929 
 4187000   0.58744742   -9.3849692    460.14581 0.0091582242  0.007451947         3928 
 4188000   0.58552616   -9.3974883    460.56961   0.00916447 0.0074488322         3939 
 4189000   0.57881766   -9.3917691    460.62294 0.0091633432 0.0074457189         3932 
 4190000   0.57524618   -9.4026448    461.17938 0.0091722231 0.0074426085         3923 
 4191000   0.57909854   -9.4186385    460.52131 0.0091569496 0.0074394969         3919 
 4192000   0.58529916   -9.3992154    461.09826 0.0091662344 0.0074363879         3934 
 4193000   0.57974774   -9.4097811    460.50812 0.0091523198 0.0074332814         3923 
 4194000   0.57633561    -9.406197    460.09565 0.0091419418 0.0074301769         3931 
 4195000   0.56007867   -9.4017703    460.41043 0.0091460157 0.0074270718         3939 
 4196000   0.58140167   -9.4049373    460.36907 0.0091430146 0.0074239703         3921 
 4197000   0.57677142   -9.4141843    460.45073 0.0091424576 0.0074208716         3931 
 4198000   0.57408574   -9.4165555    461.04601 0.0091520965 0.0074177721         3926 
 4199000   0.57800351    -9.380846    460.69317 0.0091429143 0.0074146719         3920 
 4200000   0.59625779   -9.4145327    461.00958 0.0091470155 0.0074115775         3927 
 4201000    0.5847649   -9.3943369    460.34171   0.00913159 0.0074084856         3930 
 4202000   0.57473337   -9.4014598    459.96327 0.0091219115 0.0074053921         3920 
 4203000   0.57337184   -9.4247077    459.65509  0.009113631 0.0074022993         3932 
 4204000   0.57009044   -9.3993937    460.88073 0.0091357581  0.007399211         3941 
 4205000   0.57645301   -9.3941533    460.66359 0.0091292823 0.0073961247         3942 
 4206000   0.57948275   -9.3965451    460.31685 0.0091202419 0.0073930386         3918 
 4207000   0.56641517   -9.4056681    460.25065 0.0091167628 0.0073899564         3912 
 4208000   0.58455528   -9.4080618    459.94728 0.0091085884 0.0073868769         3913 
 4209000   0.58762123   -9.4135991    459.95384 0.0091065542 0.0073837958         3918 
 4210000   0.58884543   -9.3838086    460.69372 0.0091190364 0.0073807192         3939 
 4211000   0.57648221   -9.3968631    459.99791 0.0091031012 0.0073776427         3935 
 4212000   0.56744922   -9.4167715    460.70954 0.0091150195 0.0073745705         3942 
 4213000   0.58344437    -9.415421    459.55938 0.0090901056 0.0073714987         3938 
 4214000   0.57775387   -9.4312469     460.0305  0.009097265 0.0073684278         3937 
 4215000   0.57965092   -9.3879155    461.33003 0.0091207993 0.0073653594         3925 
 4216000   0.57689659   -9.3943208    460.67138 0.0091056171 0.0073622936         3919 
 4217000   0.57143435   -9.4062594    460.33576 0.0090968256 0.0073592279         3938 
 4218000    0.5700409   -9.4011888    460.04469 0.0090889183 0.0073561662         3946 
 4219000   0.57466243   -9.4169168     460.5463 0.0090966718 0.0073531039         3939 
 4220000   0.57360921   -9.3967315    460.08664 0.0090854392 0.0073500432         3938 
 4221000   0.58195796   -9.3950958    461.12569 0.0091038002 0.0073469849         3928 
 4222000   0.58489533    -9.412246    459.74898 0.0090744707 0.0073439284         3919 
 4223000   0.57895156   -9.4107045    460.26896 0.0090825826 0.0073408745         3919 
 4224000   0.57097788   -9.3894177    460.99723 0.0090948001 0.0073378213         3937 
 4225000   0.58232735   -9.3910798    460.44964  0.009081847 0.0073347717         3934 
 4226000   0.57084627   -9.4049486    460.68034 0.0090842471  0.007331722         3942 
 4227000   0.57711643   -9.4114743    460.90844 0.0090865949 0.0073286751         3933 
 4228000    0.5653045   -9.4131389    460.38547  0.009074138  0.007325627         3927 
 4229000   0.58001429   -9.4085308    460.26604  0.009069639 0.0073225812         3933 
 4230000   0.58074242   -9.3965662    460.27887 0.0090677477 0.0073195384         3927 
 4231000   0.56888272   -9.4205765    459.68727 0.0090539524 0.0073164967         3942 
 4232000   0.56633979   -9.4009316    459.85448 0.0090551056 0.0073134573         3940 
 4233000   0.58628842   -9.4031006    459.99798 0.0090557913 0.0073104185         3942 
 4234000    0.5766562   -9.4028122    460.32368  0.009060063 0.0073073839         3938 
 4235000    0.5755632   -9.4203894     460.6808 0.0090649509 0.0073043504         3936 
 4236000   0.57296664     -9.40112    459.92979 0.0090480364 0.0073013171         3941 
 4237000   0.57130922   -9.4021182    460.36382 0.0090544376 0.0072982842         3924 
 4238000   0.57550204   -9.4019546    460.74778 0.0090598509  0.007295255         3921 
 4239000   0.58874577   -9.4210914    461.03367 0.0090633338 0.0072922277         3937 
 4240000   0.57808053   -9.4157219    460.96451 0.0090598371 0.0072891993         3940 
 4241000   0.57228438   -9.4037129    460.27334 0.0090441196 0.0072861731         3935 
 4242000   0.56784888   -9.4097988    460.36619 0.0090438116 0.0072831515         3930 
 4243000   0.56482551   -9.3982735    461.12972  0.009056676 0.0072801266         3936 
 4244000   0.57085339   -9.4051263    460.33745 0.0090389853 0.0072771063         3947 
 4245000   0.57331864   -9.4231777    460.49273 0.0090399043 0.0072740856         3935 
 4246000   0.57773223   -9.4192832    460.43346 0.0090366121 0.0072710693         3942 
 4247000   0.55877412   -9.4266468    460.22825 0.0090304578 0.0072680551         3938 
 4248000   0.57894672   -9.4156096     459.8772 0.0090214454 0.0072650425         3932 
 4249000   0.57179359   -9.4166546      459.942 0.0090205931 0.0072620306         3941 
 4250000   0.57830433   -9.4162394    459.38061  0.009007463  0.007259017         3937 
 4251000   0.56651133   -9.4311265    459.85648 0.0090146726 0.0072560082         3939 
 4252000   0.56997589   -9.4249056    460.14209   0.00901815 0.0072530021         3922 
 4253000   0.57599232   -9.4222632    460.73991 0.0090277434 0.0072499988         3932 
 4254000   0.58694638   -9.4260096     460.1882 0.0090148134 0.0072469943         3938 
 4255000   0.58530214   -9.4187041    460.33786 0.0090156259  0.007243993         3932 
 4256000    0.5659841   -9.4115616    460.44867 0.0090156773 0.0072409913         3939 
 4257000   0.56167522   -9.4090014    460.11064 0.0090069423 0.0072379923         3932 
 4258000   0.56790461   -9.4177479    460.66354 0.0090156478 0.0072349971         3950 
 4259000   0.57163762    -9.422689    460.25459 0.0090055293 0.0072320021         3929 
 4260000   0.56960099   -9.4166756     460.1992 0.0090023318 0.0072290088         3933 
 4261000   0.56800707    -9.437613    460.36215 0.0090034059 0.0072260198         3936 
 4262000   0.56912498   -9.3992889    460.80922 0.0090100348 0.0072230296         3926 
 4263000   0.56557625   -9.4229134    460.42969 0.0090005022 0.0072200442         3948 
 4264000   0.57756834   -9.4222723    460.16196  0.008993159 0.0072170595         3935 
 4265000   0.56688466   -9.4349546    459.40572 0.0089762742 0.0072140742         3933 
 4266000   0.57294107   -9.4135085    459.19218 0.0089699988 0.0072110918         3931 
 4267000   0.57001406   -9.4062797    459.65949 0.0089770231 0.0072081119         3945 
 4268000   0.56042647   -9.4194773    460.76666 0.0089965374  0.007205134         3921 
 4269000   0.56124735   -9.4115723     459.8254 0.0089760562 0.0072021576         3932 
 4270000   0.57627211   -9.4121663    460.44313 0.0089860096 0.0071991822         3924 
 4271000   0.57854958   -9.4110174    459.70892 0.0089695802 0.0071962097         3924 
 4272000    0.5780651   -9.4077609    460.72946  0.008987388 0.0071932398         3928 
 4273000   0.56636691   -9.4009047    459.55441 0.0089623685 0.0071902697         3943 
 4274000   0.57122678   -9.4318087    460.75104 0.0089836032 0.0071873005         3942 
 4275000   0.57719852   -9.4274296    459.62287 0.0089595101 0.0071843313         3935 
 4276000   0.56043146   -9.4415142    459.63942 0.0089577373 0.0071813646         3948 
 4277000   0.57606453    -9.431626    459.63852 0.0089556254 0.0071783992         3941 
 4278000   0.56798234   -9.4182678    459.78125 0.0089563122 0.0071754362         3918 
 4279000    0.5691811   -9.4221197     459.1734 0.0089423815 0.0071724732         3936 
 4280000   0.56920805   -9.4442039    459.45144 0.0089457057 0.0071695131         3939 
 4281000   0.55513967    -9.414112    459.72644 0.0089489691 0.0071665536         3950 
 4282000   0.55746734   -9.4116492    460.00318 0.0089522649 0.0071635975         3933 
 4283000   0.55636195   -9.4277402    460.29564 0.0089558651 0.0071606433         3947 
 4284000   0.56473228   -9.4209667    460.26173 0.0089531149 0.0071576898         3933 
 4285000   0.57669676   -9.4263508     459.9822 0.0089455892 0.0071547375         3934 
 4286000   0.56399994   -9.4244818    459.73575 0.0089387103  0.007151788         3935 
 4287000   0.57835659   -9.4271456    460.07098 0.0089431416 0.0071488402         3942 
 4288000   0.57737063    -9.426697    459.66731  0.008933211  0.007145893         3942 
 4289000    0.5714882    -9.408202    460.24392 0.0089423315 0.0071429464         3928 
 4290000   0.56627278   -9.4015925    460.25749 0.0089405107 0.0071400039         3934 
 4291000    0.5587854   -9.4321944    459.48806 0.0089234845 0.0071370621         3944 
 4292000   0.56617046   -9.4386192      459.751 0.0089265106 0.0071341213         3942 
 4293000   0.57069712    -9.430574    459.79185 0.0089252241 0.0071311828         3941 
 4294000   0.54288593    -9.426489    459.98638  0.008926921 0.0071282457         3938 
 4295000   0.56250483   -9.4367341    459.75967 0.0089204438 0.0071253088         3956 
 4296000   0.56670815   -9.4340423    458.58199 0.0088955228 0.0071223761         3945 
 4297000   0.56592852   -9.4311644    459.58668  0.008912937 0.0071194436         3940 
 4298000   0.55868204   -9.4252841    459.22521 0.0089038547  0.007116514         3942 
 4299000   0.55899363   -9.4352545    459.39306 0.0089050373 0.0071135852         3947 
 4300000    0.5668635   -9.4292469    460.05653 0.0089158242 0.0071106564         3948 
 4301000   0.56768953   -9.4374089    460.30562 0.0089185775  0.007107731         3934 
 4302000   0.55282345   -9.4170558    460.46108 0.0089195158 0.0071048077         3950 
 4303000   0.55170737   -9.4287753    460.24591 0.0089132758  0.007101885         3945 
 4304000   0.56323102   -9.4270844    459.80061  0.008902583 0.0070989633         3945 
 4305000    0.5497079   -9.4193841    459.72978 0.0088991439 0.0070960441         3934 
 4306000   0.56057504   -9.4357385    459.89775 0.0089003281  0.007093129         3938 
 4307000   0.57683105     -9.43384    459.58999  0.008892307  0.007090213         3938 
 4308000   0.55459677   -9.4227993    459.54221 0.0088893186 0.0070872996         3938 
 4309000   0.56022676   -9.4139595     459.7074 0.0088904503 0.0070843868         3941 
 4310000   0.55534001   -9.4328344    459.51346 0.0088846376 0.0070814735         3942 
 4311000     0.563607   -9.4380227    460.07598 0.0088934506 0.0070785641         3949 
 4312000   0.56002792   -9.4256562    460.40126 0.0088976742 0.0070756566         3941 
 4313000   0.55280351   -9.4333049    459.71844 0.0088824183 0.0070727513         3932 
 4314000   0.56787754   -9.4296779    459.48595 0.0088758683 0.0070698493         3945 
 4315000   0.55393426   -9.4222346    460.01202  0.008883971 0.0070669469         3949 
 4316000   0.55276893   -9.4297157     459.2389 0.0088669852 0.0070640447         3941 
 4317000   0.55649094   -9.4478911    459.75758 0.0088749436 0.0070611449         3934 
 4318000    0.5504552   -9.4433679    459.45718 0.0088670909 0.0070582431         3938 
 4319000   0.55152891   -9.4373997     460.3354 0.0088819828 0.0070553455         3945 
 4320000   0.57147624   -9.4282106    460.48094 0.0088827342 0.0070524491         3945 
 4321000   0.54826605     -9.44311    459.61329 0.0088639453 0.0070495557         3941 
 4322000   0.56925015   -9.4210655     459.7663 0.0088648445  0.007046665         3951 
 4323000   0.58242522   -9.4169099    460.04294 0.0088681268 0.0070437776         3939 
 4324000   0.55917741   -9.4294104    459.94048 0.0088641012 0.0070408882         3935 
 4325000   0.56658291   -9.4513273    458.99744 0.0088438813 0.0070380014         3947 
 4326000   0.54998669   -9.4129253    459.92326 0.0088596714 0.0070351143         3939 
 4327000   0.56091517   -9.4353165    460.36223  0.008866078 0.0070322304         3951 
 4328000   0.57073839   -9.4497612    459.66254 0.0088505572 0.0070293449         3934 
 4329000     0.558335   -9.4463808    460.24597 0.0088597438 0.0070264639         3940 
 4330000   0.56026758   -9.4331903    458.83239 0.0088304925 0.0070235856         3934 
 4331000   0.54496811   -9.4295909    459.69753 0.0088450998 0.0070207084         3946 
 4332000   0.54754198   -9.4251164    459.84915 0.0088459747 0.0070178333         3943 
 4333000   0.57065968   -9.4369491    460.36261 0.0088538082 0.0070149591         3931 
 4334000    0.5631757   -9.4270344    459.77781  0.008840521 0.0070120859         3927 
 4335000   0.55945906   -9.4403637    459.68773 0.0088367499 0.0070092167         3936 
 4336000   0.55364649   -9.4360787    460.42737  0.008848927 0.0070063471         3947 
 4337000   0.56767755   -9.4536675    460.00895 0.0088388469 0.0070034758         3934 
 4338000   0.55924082   -9.4385288    459.77927 0.0088323973 0.0070006122         3934 
 4339000   0.55392356   -9.4210034    459.70047 0.0088288481 0.0069977467         3943 
 4340000   0.55033882   -9.4310036     459.3528 0.0088201382 0.0069948838         3948 
 4341000   0.56251306   -9.4389745     459.5701  0.008822278 0.0069920228         3951 
 4342000   0.56057074   -9.4206356    459.71922  0.008823108 0.0069891629         3945 
 4343000   0.55296887   -9.4436895    459.86399 0.0088238544 0.0069863054         3941 
 4344000   0.55539931   -9.4282464    459.73762 0.0088193988 0.0069834496         3942 
 4345000   0.55886581   -9.4349641    459.92398 0.0088209432 0.0069805913         3941 
 4346000   0.54388935   -9.4438421    459.65036  0.008813667 0.0069777364         3940 
 4347000   0.56222537   -9.4436195    459.35106 0.0088059017 0.0069748825         3935 
 4348000    0.5575352   -9.4270177    460.17765 0.0088197188 0.0069720311         3941 
 4349000   0.54123568   -9.4298784    459.39721 0.0088027365 0.0069691824         3946 
 4350000   0.55287343   -9.4579974    458.87711 0.0087907492 0.0069663337         3949 
 4351000   0.55231508   -9.4425638    459.91222  0.008808554 0.0069634887         3934 
 4352000   0.54644473   -9.4462535    459.85581 0.0088054498 0.0069606466         3929 
 4353000   0.54329426   -9.4454326     459.7828 0.0088020292 0.0069578045         3947 
 4354000   0.56575791   -9.4341292    458.99121 0.0087848571 0.0069549635         3947 
 4355000   0.56900399   -9.4522479    459.48467 0.0087922822 0.0069521236         3938 
 4356000   0.56333308   -9.4485623    460.56922 0.0088110121 0.0069492837         3933 
 4357000   0.56614651   -9.4362457     460.0305 0.0087986859 0.0069464477         3936 
 4358000   0.55048049   -9.4362507    459.40594 0.0087847242 0.0069436137         3937 
 4359000   0.55250534   -9.4557822    459.51994 0.0087848884 0.0069407799         3941 
 4360000   0.55374869   -9.4359313    459.98429 0.0087917486 0.0069379475         3933 
 4361000    0.5498037   -9.4716833    460.12562 0.0087924332 0.0069351166         3946 
 4362000   0.55921496   -9.4401446    459.77607 0.0087837396  0.006932286         3942 
 4363000   0.55347248   -9.4721385    459.91711 0.0087844204 0.0069294577         3944 
 4364000   0.55542504   -9.4440988    459.48072 0.0087740742 0.0069266327         3940 
 4365000   0.54917163   -9.4378665    459.61117 0.0087745545 0.0069238105         3936 
 4366000    0.5550633   -9.4443367    459.03215 0.0087614932 0.0069209879         3932 
 4367000   0.56066907   -9.4441562    459.88278 0.0087757191 0.0069181656         3946 
 4368000    0.5521235   -9.4382758    460.20398 0.0087798379 0.0069153462         3943 
 4369000   0.55460047   -9.4554633    459.72451 0.0087686829 0.0069125307         3941 
 4370000   0.54292253   -9.4362711    460.00574 0.0087720392 0.0069097156         3945 
 4371000   0.55500277   -9.4512213    459.86123 0.0087672773 0.0069069001         3933 
 4372000   0.55280675   -9.4432747    460.00025 0.0087679218 0.0069040864         3939 
 4373000   0.55770604   -9.4363207    459.63068 0.0087588741  0.006901274         3944 
 4374000   0.56130816   -9.4432213    459.53089 0.0087549705 0.0068984625         3953 
 4375000   0.54918495   -9.4474211    460.25738 0.0087668072  0.006895654         3936 
 4376000   0.53992729   -9.4487606      459.594 0.0087521709 0.0068928469         3934 
 4377000   0.53887671   -9.4244979    459.74145 0.0087529787 0.0068900415         3944 
 4378000    0.5598481   -9.4337504    459.64165 0.0087490797 0.0068872382         3926 
 4379000   0.54893717   -9.4412809    459.19189 0.0087385227 0.0068844339         3955 
 4380000   0.54979039   -9.4603215    459.34661 0.0087394713 0.0068816327         3943 
 4381000   0.54457172   -9.4482569    459.59164 0.0087421372 0.0068788336         3936 
 4382000   0.54106956   -9.4495153     459.1611 0.0087319546 0.0068760375         3935 
 4383000   0.55253588   -9.4493174    458.98311 0.0087265783   0.00687324         3946 
 4384000   0.54808253   -9.4370498    459.61635 0.0087366247 0.0068704452         3938 
 4385000   0.55161464   -9.4482995    459.58718 0.0087340779 0.0068676504         3943 
 4386000   0.55234544   -9.4242358    459.43344 0.0087291655 0.0068648579         3943 
 4387000   0.55338109   -9.4551473     459.4566 0.0087276157 0.0068620694         3936 
 4388000   0.54276051    -9.451856    458.45021 0.0087065141 0.0068592806         3960 
 4389000   0.56297587    -9.441838    459.57439 0.0087258751  0.006856494         3942 
 4390000   0.55456209   -9.4433325    458.61165 0.0087056123 0.0068537093         3950 
 4391000   0.55700957   -9.4303244    460.47221 0.0087389396 0.0068509267         3944 
 4392000   0.54104292   -9.4468363    458.77905 0.0087048241 0.0068481457         3941 
 4393000    0.5475765   -9.4385745    459.58174 0.0087180692  0.006845365         3938 
 4394000   0.55327333   -9.4615055    458.63059 0.0086980465 0.0068425845         3937 
 4395000    0.5460343   -9.4644851     459.3016 0.0087087904 0.0068398069         3943 
 4396000   0.55239265   -9.4664666    458.91363 0.0086994546 0.0068370305         3942 
 4397000    0.5451146   -9.4575957     459.4656 0.0087079372 0.0068342563         3946 
 4398000   0.54783447   -9.4393369    459.32665 0.0087033244 0.0068314831         3933 
 4399000   0.55581356   -9.4393644     459.7364 0.0087091082 0.0068287125         3948 
 4400000   0.53598748   -9.4604208    459.45633 0.0087018244 0.0068259421         3937 
 4401000   0.54276659   -9.4577892    459.18604 0.0086947293 0.0068231734         3936 
 4402000   0.55247715   -9.4504638     459.2824 0.0086945781 0.0068204086         3948 
 4403000   0.55763934   -9.4738851    458.82938 0.0086840294 0.0068176443         3947 
 4404000   0.55002504   -9.4372973    459.30319 0.0086910232 0.0068148801         3938 
 4405000   0.54820487   -9.4424216    460.25516 0.0087070595 0.0068121187         3958 
 4406000   0.55314981   -9.4477835    459.79454 0.0086963712 0.0068093583         3956 
 4407000   0.55329269   -9.4437368    458.45029 0.0086689792 0.0068066014         3946 
 4408000   0.54442655   -9.4703923     459.5366 0.0086875491 0.0068038437         3946 
 4409000   0.55257644   -9.4683764    459.77706 0.0086901237 0.0068010864         3938 
 4410000   0.54718845   -9.4482525    459.51402 0.0086831825 0.0067983323         3941 
 4411000   0.55987266   -9.4503631    459.25033 0.0086762324 0.0067955817         3942 
 4412000   0.54677195   -9.4671879    459.14109 0.0086722026 0.0067928299         3943 
 4413000   0.54641999   -9.4494446    458.86887 0.0086650968 0.0067900803         3938 
 4414000   0.54687113   -9.4466325    459.11992 0.0086678733 0.0067873307         3946 
 4415000   0.54131913   -9.4607699    458.97877 0.0086632459 0.0067845805         3960 
 4416000   0.55329808   -9.4722281    459.13351 0.0086642042 0.0067818342         3936 
 4417000   0.55240226    -9.470052    457.74317 0.0086360117 0.0067790885         3951 
 4418000   0.53557472   -9.4723979    459.13739 0.0086603552 0.0067763445         3957 
 4419000   0.54936638   -9.4622011    457.98723 0.0086367057 0.0067736025         3945 
 4420000   0.53942404   -9.4666049    458.81393 0.0086503381 0.0067708637         3944 
 4421000   0.54004338   -9.4663088    458.63192 0.0086449506 0.0067681223         3953 
 4422000   0.52246681   -9.4512577    459.74646 0.0086639992 0.0067653826         3940 
 4423000   0.53631991   -9.4496465    459.00691 0.0086481066 0.0067626476         3954 
 4424000   0.53669894    -9.457436     459.0993 0.0086478922 0.0067599151         3943 
 4425000   0.54319802   -9.4844954    458.92234 0.0086426052  0.006757181         3940 
 4426000   0.54210101   -9.4575745    459.13849 0.0086447222 0.0067544499         3948 
 4427000   0.54774521   -9.4692867    459.19751 0.0086438806 0.0067517201         3946 
 4428000   0.55102983   -9.4607232    459.27693 0.0086434232 0.0067489941         3941 
 4429000   0.54807897   -9.4553758    459.67486 0.0086489588 0.0067462679         3958 
 4430000   0.53687089   -9.4561237    458.64089 0.0086275562 0.0067435411         3936 
 4431000   0.53397157   -9.4620116    458.68395  0.008626419 0.0067408165         3940 
 4432000   0.54566711   -9.4563321    459.91777 0.0086476716 0.0067380939         3946 
 4433000    0.5365434   -9.4647189    459.74414 0.0086424569  0.006735373         3941 
 4434000   0.55024734   -9.4442207    459.60477 0.0086378885 0.0067326558         3934 
 4435000   0.53252582   -9.4526286    459.85085 0.0086405647 0.0067299381         3956 
 4436000   0.55099098   -9.4575686     458.7329 0.0086176154 0.0067272227         3946 
 4437000    0.5314918   -9.4635829    459.32761 0.0086268427 0.0067245078         3947 
 4438000   0.54115926   -9.4542106    459.06598 0.0086199861 0.0067217943         3929 
 4439000   0.54105312   -9.4694219    460.09761 0.0086374109 0.0067190823         3951 
 4440000   0.54354498   -9.4571538    459.04364  0.008615684 0.0067163728         3931 
 4441000   0.54810678   -9.4773198    459.57002 0.0086236212 0.0067136654         3944 
 4442000   0.54244536   -9.4478411    459.04052 0.0086117463 0.0067109572         3941 
 4443000   0.53770983   -9.4639698    457.90264 0.0085884658 0.0067082524         3938 
 4444000    0.5551727   -9.4662363    459.54761 0.0086173794 0.0067055498         3945 
 4445000   0.53253017   -9.4347455    459.85959 0.0086212896 0.0067028482         3938 
 4446000   0.53525009   -9.4636111    459.31329  0.008609111 0.0067001481         3947 
 4447000    0.5404451   -9.4478127    460.07702 0.0086214868  0.006697448         3950 
 4448000   0.54565583   -9.4599155    458.97837 0.0085989653 0.0066947506         3944 
 4449000   0.53667827   -9.4599673    459.57158 0.0086081437 0.0066920546         3949 
 4450000   0.53891119    -9.454618    459.30928 0.0086012975 0.0066893598         3929 
 4451000   0.54805248   -9.4577239    459.28663 0.0085989409  0.006686667         3945 
 4452000   0.53904753   -9.4409752    458.96947 0.0085910726 0.0066839742         3925 
 4453000   0.53910879   -9.4649225    458.96717 0.0085891004 0.0066812829         3951 
 4454000   0.54874519   -9.4535169    458.14279  0.008571748 0.0066785925         3943 
 4455000   0.52761038   -9.4586296    459.05252 0.0085868409 0.0066759054         3922 
 4456000   0.53398834   -9.4783977    459.38103 0.0085910576 0.0066732193         3938 
 4457000   0.53250728   -9.4531079    459.27649 0.0085871753 0.0066705332         3943 
 4458000   0.53127313   -9.4507616    458.96548 0.0085794355 0.0066678508         3937 
 4459000   0.54741522   -9.4688768     459.1397 0.0085807673 0.0066651685         3934 
 4460000   0.53444284   -9.4545427    458.91491 0.0085746433 0.0066624885         3945 
 4461000    0.5335166   -9.4616157    459.82569  0.008589735 0.0066598084         3945 
 4462000   0.54091827   -9.4646678    459.53764 0.0085824302 0.0066571319         3960 
 4463000   0.53238667   -9.4610641    459.86678 0.0085866528 0.0066544573         3937 
 4464000   0.54232428    -9.478452    458.60126 0.0085611049 0.0066517831         3945 
 4465000   0.53932827   -9.4739301    458.72438 0.0085614853 0.0066491095         3948 
 4466000    0.5331135   -9.4563491     459.5982 0.0085758732 0.0066464367         3940 
 4467000   0.54307307   -9.4804976    458.65457 0.0085563497 0.0066437662         3953 
 4468000   0.51916981   -9.4540916    458.60663 0.0085535406 0.0066410974         3949 
 4469000   0.53320808   -9.4636488    459.26897 0.0085639772 0.0066384319         3936 
 4470000   0.54664961   -9.4631618    458.74526 0.0085522979 0.0066357648         3941 
 4471000   0.54372331   -9.4738533    458.20601 0.0085403343 0.0066330998         3937 
 4472000   0.53754557    -9.470863     458.8248 0.0085499552 0.0066304381         3930 
 4473000   0.53230826    -9.468309    458.87223 0.0085489275 0.0066277773         3931 
 4474000   0.54464046   -9.4639973    458.97387 0.0085489098 0.0066251168         3943 
 4475000   0.54434443   -9.4721219    459.80731 0.0085625197 0.0066224586         3945 
 4476000   0.53301031   -9.4578753    458.77558 0.0085413983 0.0066197997         3942 
 4477000   0.53563167   -9.4571939    459.37512 0.0085506499 0.0066171463         3944 
 4478000   0.54201266   -9.4954215    458.60277 0.0085343674 0.0066144924         3942 
 4479000   0.53739823     -9.47948    458.60787 0.0085325569 0.0066118379         3934 
 4480000   0.53096205   -9.4742658    457.91438 0.0085177526 0.0066091863         3949 
 4481000   0.54066185   -9.4808486    458.24795 0.0085220552 0.0066065353         3947 
 4482000    0.5168545   -9.4566287    459.32863 0.0085402467 0.0066038869         3941 
 4483000   0.54062211   -9.4831165    458.61103 0.0085250024 0.0066012402         3940 
 4484000   0.54315098   -9.4843524    458.82446 0.0085270677 0.0065985947         3950 
 4485000   0.53191564   -9.4826195     459.0679 0.0085296897 0.0065959507         3938 
 4486000   0.52477361   -9.4730212    458.63585 0.0085197625 0.0065933061         3944 
 4487000   0.53950164   -9.4737463    459.28135 0.0085298519 0.0065906644         3948 
 4488000   0.53429272   -9.4612495    458.43064 0.0085121553 0.0065880248         3936 
 4489000   0.54028413   -9.4819603    458.69405  0.008515149  0.006585387         3939 
 4490000   0.53994308   -9.4829073    458.70163 0.0085133932   0.00658275         3948 
 4491000   0.52285155   -9.4733927    459.31214  0.008522826 0.0065801154         3943 
 4492000   0.54031578   -9.4762819     458.9825 0.0085148134 0.0065774814         3942 
 4493000    0.5246805     -9.47329    458.99301 0.0085131132 0.0065748458         3945 
 4494000    0.5352414   -9.4663153    459.14936 0.0085141181 0.0065722129         3934 
 4495000   0.53374204   -9.4704595    459.05722 0.0085105158  0.006569585         3949 
 4496000   0.53955333   -9.4681253    458.90217 0.0085057489 0.0065669565         3943 
 4497000   0.53945716   -9.4688195    459.01617 0.0085059701 0.0065643301         3937 
 4498000   0.52876677    -9.469255    458.58794 0.0084961454 0.0065617027         3934 
 4499000   0.52865059    -9.476169    459.16388 0.0085049247 0.0065590778         3932 
 4500000   0.52037968   -9.4902812    458.18888 0.0084849793 0.0065564563         3941 
 4501000   0.53980117   -9.4794139    458.87976 0.0084958854 0.0065538335         3937 
 4502000   0.53500835   -9.4692429    459.12305 0.0084985016 0.0065512138         3943 
 4503000   0.52597911   -9.4563063    458.74763 0.0084896668 0.0065485949         3942 
 4504000   0.53210553   -9.4736147    458.31328 0.0084797454 0.0065459778         3951 
 4505000   0.54284816   -9.4793946    459.36043 0.0084972333 0.0065433601         3942 
 4506000   0.54014792   -9.4727021    459.28455 0.0084939442 0.0065407476         3941 
 4507000   0.55301227   -9.4987713    459.11314 0.0084888903 0.0065381344         3952 
 4508000   0.53256018   -9.4432646    457.98615  0.008466174 0.0065355232         3942 
 4509000    0.5326338     -9.48386    457.99925 0.0084645385 0.0065329133         3950 
 4510000   0.54038419   -9.4668812    459.34853 0.0084875929 0.0065303037         3951 
 4511000   0.52534839   -9.4813445    458.64139 0.0084726482 0.0065276974         3938 
 4512000    0.5232551   -9.4791396    458.65345 0.0084709931 0.0065250897         3939 
 4513000   0.53110895   -9.4713187    458.39861 0.0084644104 0.0065224846         3935 
 4514000   0.53642326   -9.4818751    459.08234 0.0084751577 0.0065198829         3930 
 4515000   0.53109218   -9.4768279    458.00359   0.00845337 0.0065172822         3939 
 4516000   0.52118164   -9.4717155    459.07401 0.0084712505 0.0065146819         3931 
 4517000   0.52781194   -9.4939726    458.77123 0.0084637891 0.0065120823         3951 
 4518000   0.53402359    -9.446828    458.73048 0.0084611642 0.0065094822         3942 
 4519000   0.51940345   -9.4854794    459.04737 0.0084651355 0.0065068859         3942 
 4520000   0.53134552   -9.4859178    458.08052 0.0084454374 0.0065042918         3942 
 4521000   0.51936097   -9.4652051    459.12785 0.0084628742 0.0065016967         3943 
 4522000   0.52892747    -9.474685     458.5269 0.0084499282  0.006499104         3949 
 4523000   0.53225147   -9.4841507    459.03079 0.0084573438 0.0064965147         3943 
 4524000   0.54139921   -9.4673929    458.63176  0.008448124  0.006493926         3949 
 4525000   0.53814642   -9.4719324    458.75605 0.0084485461  0.006491337         3941 
 4526000   0.53270963   -9.4943279    458.95498 0.0084503422 0.0064887501         3955 
 4527000    0.5307978   -9.4825396    458.38304 0.0084379471 0.0064861645         3933 
 4528000   0.51761047   -9.4834539    458.94165 0.0084463643 0.0064835831         3945 
 4529000   0.52649097    -9.474841    459.15283  0.008448385 0.0064810002         3945 
 4530000    0.5213779   -9.4790593     458.6777 0.0084377797 0.0064784194         3939 
 4531000   0.52295158   -9.4769701    458.75394 0.0084373196 0.0064758392         3940 
 4532000   0.52535324    -9.486675     459.0009 0.0084399989 0.0064732621         3936 
 4533000   0.52722979   -9.4766002    458.63926 0.0084314887 0.0064706856         3937 
 4534000   0.54938231   -9.4935508     458.8718  0.008433903 0.0064681105         3936 
 4535000   0.53623746   -9.4850436    458.36652 0.0084227585 0.0064655371         3940 
 4536000   0.50778257   -9.4829335    458.20807 0.0084179907 0.0064629652         3946 
 4537000   0.51477677   -9.4833344    459.07259 0.0084320144 0.0064603941         3938 
 4538000   0.51797949   -9.4730776    458.84609 0.0084259969  0.006457825         3939 
 4539000   0.52876434   -9.4835967     458.9576 0.0084261879 0.0064552552         3939 
 4540000   0.53500573   -9.4833322    459.23103 0.0084293508 0.0064526898         3955 
 4541000   0.52873331    -9.470105    458.94495 0.0084222445 0.0064501261         3945 
 4542000   0.51505437   -9.4559799     458.5223 0.0084126358 0.0064475629         3950 
 4543000   0.53232909   -9.4916538    458.63792 0.0084129048 0.0064449985         3944 
 4544000   0.52582806   -9.4851258    458.52015 0.0084088935 0.0064424368         3946 
 4545000   0.52827519   -9.4754653    458.51604 0.0084069681  0.006439877         3931 
 4546000    0.5193106   -9.4858154    458.94319 0.0084129488 0.0064373191         3948 
 4547000   0.53269366   -9.5000829    457.99914 0.0083937969 0.0064347616         3956 
 4548000   0.51528412    -9.479851    458.70725 0.0084049261 0.0064322045         3944 
 4549000   0.51659926   -9.4846969    458.92648 0.0084070946 0.0064296515         3931 
 4550000   0.53311573    -9.482518    459.08754 0.0084081966 0.0064271005         3956 
 4551000   0.52226571    -9.483931    458.68153 0.0083989147 0.0064245474         3942 
 4552000   0.51636857   -9.4662266    458.69298 0.0083972791 0.0064219963         3929 
 4553000   0.52630891   -9.4901793    458.41994 0.0083904374 0.0064194475         3945 
 4554000   0.52174863   -9.4909205    458.34594 0.0083872409    0.0064169         3943 
 4555000   0.53227014   -9.4830922    458.12349 0.0083813298 0.0064143536         3936 
 4556000   0.52844747   -9.4825566    458.67456 0.0083895697 0.0064118112         3936 
 4557000   0.53079887   -9.4873608    459.02345 0.0083941088 0.0064092688         3942 
 4558000    0.5163263    -9.493779    459.40219 0.0083991918 0.0064067278         3943 
 4559000   0.52199511   -9.4636941     458.4523 0.0083799865 0.0064041892         3943 
 4560000   0.51726965   -9.4923138    458.49002  0.008378838 0.0064016513         3946 
 4561000   0.52038682   -9.4817473    458.09568 0.0083697961 0.0063991152         3934 
 4562000   0.52538706    -9.502249    458.31853 0.0083720321 0.0063965782         3933 
 4563000    0.5251689   -9.4742454    458.34678 0.0083707134  0.006394045         3941 
 4564000   0.53553197   -9.4963293    459.22245  0.008384868 0.0063915125         3951 
 4565000   0.52397436   -9.4924475    458.84027 0.0083760546 0.0063889819         3944 
 4566000   0.52688658   -9.4843394    459.25747 0.0083818343 0.0063864511         3937 
 4567000    0.5266249   -9.4926053    458.80244 0.0083716963 0.0063839222         3939 
 4568000   0.52462789   -9.4838575    459.03799 0.0083741607 0.0063813945         3947 
 4569000   0.51888164   -9.4614938    458.37274 0.0083601945  0.006378868         3950 
 4570000    0.5268277   -9.4831392    459.33394 0.0083758924  0.006376342         3941 
 4571000     0.522801   -9.4861326    457.93743 0.0083486005 0.0063738185         3955 
 4572000   0.51176643   -9.4695823    458.50347 0.0083570916 0.0063712962         3932 
 4573000   0.52257573   -9.4974372    458.45311 0.0083543464 0.0063687736         3949 
 4574000   0.51120921   -9.4865492    458.45927 0.0083526321 0.0063662531         3942 
 4575000   0.52032315    -9.486156    458.25737 0.0083471288 0.0063637347         3940 
 4576000   0.51763084   -9.4996187    458.57463 0.0083510823 0.0063612175         3953 
 4577000    0.5274015   -9.4885003    458.58405 0.0083494292 0.0063586995         3952 
 4578000   0.52575774   -9.4824953    458.28649 0.0083421889 0.0063561859         3952 
 4579000   0.51351014   -9.4854303    458.32775  0.008341118 0.0063536733         3956 
 4580000   0.50881636   -9.5071177    458.17682 0.0083365505 0.0063511596         3946 
 4581000   0.51033838   -9.4946685    458.87986 0.0083475199 0.0063486486         3955 
 4582000   0.51615287   -9.5012622    458.39287 0.0083368411 0.0063461386         3940 
 4583000   0.51709473   -9.4907106    458.56611 0.0083381721   0.00634363         3938 
 4584000   0.52051323   -9.4953101     459.1228 0.0083464733 0.0063411242         3941 
 4585000   0.52093616   -9.4901455    458.41059 0.0083317082 0.0063386173         3950 
 4586000   0.51272354   -9.4914745    457.95847 0.0083216759 0.0063361135         3957 
 4587000   0.51412666   -9.4836737    459.19197  0.008342271   0.00633361         3939 
 4588000   0.51667582   -9.5008414    458.82484 0.0083337845 0.0063311094         3953 
 4589000   0.52012622   -9.5007843    458.19287 0.0083204922 0.0063286083         3949 
 4590000   0.52503355   -9.4961954    458.15437 0.0083179806 0.0063261107         3950 
 4591000   0.51819165   -9.4962696    458.53065 0.0083229988 0.0063236151         3955 
 4592000   0.50864724   -9.4923519    457.94765 0.0083106062 0.0063211203         3941 
 4593000   0.51575898   -9.5002506    458.14797 0.0083124314 0.0063186254         3954 
 4594000   0.52070361   -9.4889416    458.57366 0.0083183438 0.0063161319         3933 
 4595000   0.52516622   -9.4976062    458.09077  0.008307776 0.0063136408         3954 
 4596000   0.51162701   -9.5017873    458.80094 0.0083188451 0.0063111516         3942 
 4597000   0.52752148   -9.5080699    457.86579 0.0083000832 0.0063086606         3947 
 4598000   0.51167598    -9.507303    457.94101 0.0082996414 0.0063061754         3951 
 4599000    0.5312487   -9.4991799    458.08486 0.0083004433 0.0063036862         3936 
 4600000   0.52052796   -9.5003284    457.77822 0.0082930838 0.0063011999         3951 
 4601000    0.5137316   -9.5038848    458.34512 0.0083015489 0.0062987155         3941 
 4602000   0.50370111   -9.4910573    459.14696 0.0083142649 0.0062962346         3951 
 4603000   0.50792236    -9.493626    458.35882 0.0082981899 0.0062937533         3941 
 4604000   0.51839917   -9.5135977    457.99653 0.0082898301 0.0062912741         3947 
 4605000   0.51077488    -9.500737    458.19383 0.0082916003 0.0062887948         3935 
 4606000    0.5116658   -9.5090943     458.1618 0.0082892206 0.0062863169         3955 
 4607000   0.52574312   -9.5007598    457.96805 0.0082839167 0.0062838424         3937 
 4608000   0.51598692   -9.5037956    458.18595 0.0082860595 0.0062813686         3948 
 4609000   0.52632759   -9.5104454    457.69654  0.008275413 0.0062788972         3953 
 4610000   0.52097426   -9.5030657    458.86448 0.0082947303 0.0062764251         3931 
 4611000   0.51349864   -9.5025841     458.0493  0.008278199 0.0062739553         3944 
 4612000   0.51856768   -9.5072463     457.5304  0.008267028 0.0062714876         3938 
 4613000   0.51462815   -9.5109652    458.27934 0.0082787655 0.0062690203         3937 
 4614000   0.50045231   -9.5000551    458.27419 0.0082768781 0.0062665544         3951 
 4615000   0.51966233   -9.5020287    457.50184 0.0082611384 0.0062640893         3942 
 4616000   0.51679936   -9.4997844    458.34544 0.0082745782 0.0062616239         3956 
 4617000   0.50893179   -9.4970786    458.56218  0.008276698 0.0062591599         3947 
 4618000   0.50620228    -9.512191    457.87735 0.0082625478 0.0062566995         3943 
 4619000   0.51055706     -9.52124    458.23531 0.0082672171 0.0062542382         3947 
 4620000   0.49714254   -9.5186162    459.06213 0.0082803415 0.0062517779         3958 
 4621000   0.51232856   -9.5080412     458.4522 0.0082675502 0.0062493202         3947 
 4622000   0.51797753   -9.4889888    457.75597 0.0082532088 0.0062468627         3944 
 4623000   0.51567103   -9.5078146    458.14891 0.0082585066 0.0062444071         3947 
 4624000   0.51300975   -9.5041202    458.68719 0.0082664213 0.0062419528         3938 
 4625000   0.50149728   -9.5032787    458.07595 0.0082536208 0.0062394994         3944 
 4626000   0.50779771   -9.5099722    458.21249 0.0082542961 0.0062370489         3948 
 4627000   0.51133162   -9.5060142    458.10024 0.0082504906 0.0062345999         3948 
 4628000   0.51163947    -9.509413    457.91642 0.0082453979  0.006232151         3942 
 4629000   0.50283574   -9.5034396    457.86197 0.0082426365 0.0062297045         3942 
 4630000   0.50681788   -9.5124855    458.16741 0.0082463537 0.0062272569         3942 
 4631000   0.50962539   -9.4957488    458.58157 0.0082520257 0.0062248118         3953 
 4632000   0.52458496   -9.5012524    458.27018  0.008244642  0.006222368         3930 
 4633000   0.51210449   -9.5058649    458.29053 0.0082432284 0.0062199274         3950 
 4634000   0.50783589   -9.5028127     458.2892 0.0082414256 0.0062174874         3952 
 4635000   0.52049452   -9.5100358    458.24483 0.0082388499 0.0062150477         3946 
 4636000   0.49932589   -9.4957863    458.17339 0.0082357886 0.0062126088         3947 
 4637000   0.51934841    -9.510852    458.15477 0.0082336779 0.0062101738         3949 
 4638000   0.51413497   -9.5072041    457.99483 0.0082290289  0.006207739         3941 
 4639000   0.50547247   -9.5108227    457.95482 0.0082265363 0.0062053043         3949 
 4640000   0.51434013   -9.4854553    458.05425  0.008226549 0.0062028732         3947 
 4641000   0.51048616   -9.4995804    458.41307 0.0082312193 0.0062004437         3957 
 4642000   0.50213317   -9.5089559     458.2848 0.0082271435 0.0061980152         3946 
 4643000   0.49752197   -9.5088106    458.04936 0.0082211457 0.0061955851         3957 
 4644000   0.50810687   -9.4999718    458.81571 0.0082331271 0.0061931581         3951 
 4645000   0.50412976   -9.5143153    457.96127 0.0082160257 0.0061907305         3944 
 4646000   0.49661183    -9.512927    458.11492 0.0082170132 0.0061883045         3942 
 4647000   0.51807951   -9.4992323    457.70424 0.0082078803 0.0061858783         3945 
 4648000   0.50925121   -9.5103752    457.76227 0.0082071548 0.0061834534         3960 
 4649000   0.49563561   -9.5135955    457.94628 0.0082086879 0.0061810309         3944 
 4650000   0.51345507   -9.5138723    458.42654 0.0082155294 0.0061786114         3939 
 4651000   0.50961213    -9.513969     458.1554 0.0082089049 0.0061761894         3946 
 4652000   0.50875502   -9.5080625    458.50613  0.008213423 0.0061737719         3957 
 4653000   0.50934659    -9.512986    458.47041 0.0082110181 0.0061713522         3943 
 4654000   0.51925521   -9.5000039    458.12347 0.0082030416 0.0061689377         3957 
 4655000   0.50959081   -9.5089246    458.31512 0.0082047104 0.0061665242         3939 
 4656000   0.50389871   -9.5282883    458.66348 0.0082091832 0.0061641121         3954 
 4657000   0.50163483    -9.494657     458.8219 0.0082102552 0.0061616995         3952 
 4658000   0.51285206   -9.5027825    458.50579 0.0082028372 0.0061592895         3954 
 4659000   0.49870479   -9.5026828    457.48597 0.0081828356 0.0061568796         3956 
 4660000   0.50685138   -9.4942363    457.59723 0.0081830693 0.0061544731         3947 
 4661000   0.52525714   -9.5216789    458.85211 0.0082037494 0.0061520658         3956 
 4662000   0.49296843   -9.5030455    457.48014 0.0081774658 0.0061496602         3948 
 4663000   0.50503857   -9.5288851    458.13119  0.008187347 0.0061472546         3944 
 4664000    0.5064486   -9.5117222    458.08946 0.0081848459 0.0061448505         3949 
 4665000   0.50836196   -9.5096756    457.23627 0.0081678505 0.0061424476         3950 
 4666000   0.50098389   -9.5209143    457.71945 0.0081747294 0.0061400464         3948 
 4667000   0.51163011   -9.5199362    458.04237 0.0081787438 0.0061376473         3957 
 4668000   0.51616881    -9.534452     457.6422 0.0081698479 0.0061352477         3945 
 4669000   0.50351453    -9.534267    457.92853 0.0081732087  0.006132852         3952 
 4670000   0.50878553   -9.5159158    457.96372 0.0081720863 0.0061304568         3953 
 4671000   0.50986783   -9.5177214    458.35353 0.0081772913 0.0061280635         3960 
 4672000   0.50891706   -9.5169169    458.27082 0.0081740657 0.0061256694         3941 
 4673000   0.51233372   -9.5060408    457.91245 0.0081659256 0.0061232785         3944 
 4674000    0.4941665   -9.5227062    458.03683 0.0081663961 0.0061208883         3946 
 4675000    0.5103279   -9.5164847    457.31141 0.0081517186 0.0061184993         3947 
 4676000   0.49516124   -9.5097999    458.19382 0.0081657012   0.00611611         3949 
 4677000   0.49755774   -9.5231061    457.79564 0.0081568606 0.0061137223         3940 
 4678000   0.49916494   -9.5233417    457.50568 0.0081499516 0.0061113366         3952 
 4679000   0.50576222   -9.5124261    457.94485 0.0081560314  0.006108952         3955 
 4680000   0.50970688   -9.5251877    458.18388 0.0081585448 0.0061065684         3954 
 4681000    0.4998885   -9.5224149    458.15833 0.0081563471 0.0061041853         3949 
 4682000   0.50205517    -9.513935    457.84854 0.0081490912 0.0061018038         3952 
 4683000   0.49925408   -9.5153041    456.47625 0.0081229314  0.006099425         3944 
 4684000    0.5092077   -9.4992502    457.94505 0.0081473288 0.0060970463         3943 
 4685000   0.50173975   -9.5218165    457.60644 0.0081395667 0.0060946692         3954 
 4686000   0.50090674   -9.5151691    457.02021 0.0081274046 0.0060922952         3958 
 4687000    0.5059079   -9.5141428    457.46289 0.0081335412 0.0060899211         3960 
 4688000    0.4852344   -9.5041481    457.55754 0.0081334887 0.0060875469         3948 
 4689000   0.49689265   -9.5212404    458.21068 0.0081433618 0.0060851759         3944 
 4690000   0.50032967   -9.5162403    458.42964 0.0081455161 0.0060828059         3955 
 4691000   0.50043329   -9.5226315    457.68884 0.0081306197 0.0060804376         3954 
 4692000   0.49268015   -9.5077348    457.91707 0.0081329403 0.0060780711         3953 
 4693000   0.49951705    -9.517778    457.89798 0.0081308683 0.0060757028         3961 
 4694000   0.50572865   -9.5098211    458.22059 0.0081348634 0.0060733395         3945 
 4695000    0.5133165   -9.5353837    457.65412 0.0081230763 0.0060709761         3951 
 4696000   0.49379514   -9.5387906    457.72208 0.0081225525  0.006068614         3952 
 4697000   0.49172893   -9.5206122      458.049 0.0081266233 0.0060662525         3951 
 4698000   0.49700105   -9.5297308    457.85108 0.0081213828 0.0060638931         3949 
 4699000   0.50318734   -9.5216288    457.51074 0.0081136188 0.0060615335         3946 
 4700000   0.50549592   -9.5152745    457.59857 0.0081134499 0.0060591755         3949 
 4701000   0.50937067   -9.5197048    457.25092 0.0081055612 0.0060568185         3949 
 4702000   0.49422885    -9.520414    458.16298 0.0081200018 0.0060544625         3943 
 4703000   0.50435941   -9.5236047    457.12861 0.0080999471 0.0060521089         3941 
 4704000   0.50700253   -9.5289035    458.06788 0.0081148646 0.0060497549         3954 
 4705000   0.48910999   -9.5181559    457.71652 0.0081069167 0.0060474014         3956 
 4706000   0.50560997   -9.5185412    457.06193 0.0080936026 0.0060450503         3957 
 4707000   0.50581173   -9.5199015    457.63097 0.0081019576 0.0060427004         3955 
 4708000   0.50250096   -9.5128751    458.32089 0.0081124485 0.0060403531         3948 
 4709000   0.49613559   -9.5274995    457.88486 0.0081030095 0.0060380047         3965 
 4710000   0.50713822   -9.5153098    457.24864 0.0080900326 0.0060356594         3960 
 4711000   0.49544126   -9.5187471    457.59204 0.0080943896 0.0060333144         3949 
 4712000   0.50381894   -9.5087318     457.5911 0.0080926554 0.0060309705         3944 
 4713000   0.49384502   -9.5204234    458.37318 0.0081047667  0.006028629         3957 
 4714000   0.49095083   -9.5324743    457.47127 0.0080871036 0.0060262862         3962 
 4715000   0.50071519   -9.5250835    458.11983 0.0080968511 0.0060239467         3949 
 4716000   0.50623922   -9.5279672    457.29845 0.0080806201  0.006021609         3942 
 4717000   0.49340813   -9.5313932    458.53049  0.008100673 0.0060192703         3953 
 4718000   0.50683616   -9.5277862    457.98908 0.0080893931 0.0060169342         3957 
 4719000   0.49151228   -9.5321971    457.54226 0.0080797885 0.0060145991         3946 
 4720000   0.50260358   -9.5247854    458.52193 0.0080953731 0.0060122669         3951 
 4721000    0.4989375   -9.5369658    457.31088 0.0080722812 0.0060099356         3950 
 4722000   0.49321264   -9.5393612     457.5144 0.0080741635 0.0060076047         3954 
 4723000   0.49505682   -9.5276315     456.4774  0.008054157 0.0060052734         3948 
 4724000   0.49395389   -9.5292058    457.85277  0.008076714 0.0060029456         3948 
 4725000   0.50355104   -9.5291537    457.36241 0.0080663565 0.0060006174         3949 
 4726000   0.50285842   -9.5298942     457.6976   0.00807056 0.0059982905         3949 
 4727000   0.49761013   -9.5326905    457.24927  0.008060949 0.0059959645         3940 
 4728000   0.48835765   -9.5258946    457.68142 0.0080668609 0.0059936411         3950 
 4729000   0.49663489   -9.5238273    456.96818 0.0080525865 0.0059913206         3950 
 4730000   0.49898958   -9.5425134    457.82167 0.0080659209 0.0059889998         3958 
 4731000    0.4924883     -9.52648     457.1287 0.0080520098 0.0059866793         3960 
 4732000   0.49574882   -9.5413371    457.80303 0.0080621835  0.005984363         3940 
 4733000   0.50141346   -9.5291878    457.58454 0.0080566332 0.0059820455         3954 
 4734000   0.48948705   -9.5273174    458.15921 0.0080650473 0.0059797299         3960 
 4735000     0.486491   -9.5394078     457.5064  0.008051855 0.0059774158         3949 
 4736000    0.4967224   -9.5346027    457.71795 0.0080538772 0.0059751041         3948 
 4737000   0.49713015   -9.5094681    457.79627 0.0080535548 0.0059727923         3956 
 4738000   0.50075373   -9.5285025    457.23843 0.0080420436 0.0059704809         3947 
 4739000   0.48488207   -9.5212898    457.87396 0.0080515221 0.0059681717         3942 
 4740000   0.48728292   -9.5190284    458.15408 0.0080547482 0.0059658607         3949 
 4741000    0.4867627   -9.5405129    457.43159   0.00804035 0.0059635542         3955 
 4742000   0.49704486   -9.5421592    457.18011 0.0080342349 0.0059612474         3948 
 4743000   0.48371945   -9.5356395    457.70512 0.0080417654 0.0059589436         3945 
 4744000   0.48520742   -9.5288754    457.38915 0.0080345199  0.005956639         3944 
 4745000   0.49518662   -9.5262877    457.88547 0.0080415432 0.0059543353         3964 
 4746000   0.49530961   -9.5369892     457.6347 0.0080354457 0.0059520335         3943 
 4747000   0.49430508   -9.5296144    456.94624 0.0080216669 0.0059497343         3951 
 4748000   0.49824131   -9.5403654    457.53129 0.0080302458 0.0059474369         3956 
 4749000   0.48070693   -9.5303091    457.19704 0.0080226897 0.0059451396         3945 
 4750000   0.48728731   -9.5321211    457.57308 0.0080275979 0.0059428406         3948 
 4751000   0.48126658   -9.5311912    458.23614 0.0080375385 0.0059405473         3950 
 4752000    0.4934367   -9.5329218    457.27423 0.0080189785 0.0059382521         3950 
 4753000   0.49053387   -9.5420203    457.20564 0.0080160888 0.0059359585         3952 
 4754000   0.50340387   -9.5079629    457.69837 0.0080230397 0.0059336672         3933 
 4755000   0.49433037   -9.5213068    457.87145 0.0080243858 0.0059313785         3960 
 4756000    0.4924943   -9.5463505    457.30419 0.0080127591 0.0059290896         3949 
 4757000   0.49708907   -9.5199399    457.83407 0.0080203573  0.005926802         3956 
 4758000   0.49815966   -9.5364296    457.57214 0.0080140841 0.0059245152         3962 
 4759000    0.4874228    -9.544549     457.3087  0.008007787  0.005922228         3949 
 4760000   0.48391182   -9.5265143     457.1183 0.0080027713 0.0059199431         3948 
 4761000   0.49367009   -9.5430381    458.09166 0.0080181275 0.0059176597         3951 
 4762000    0.4893231   -9.5265826    457.22234  0.008001231 0.0059153767         3955 
 4763000   0.49946312   -9.5369594    457.46955 0.0080038763 0.0059130947         3956 
 4764000   0.49872159   -9.5304874    457.20772 0.0079976161 0.0059108144         3950 
 4765000   0.49115632   -9.5446136     457.8543 0.0080072455 0.0059085356         3945 
 4766000    0.4900366   -9.5566008     457.7966 0.0080045566 0.0059062575         3953 
 4767000   0.48690442   -9.5360404    457.37648 0.0079955331 0.0059039815         3948 
 4768000   0.49671292   -9.5293301    457.15357 0.0079899604 0.0059017063         3956 
 4769000   0.48421501    -9.554599     457.2629 0.0079901954 0.0058994317         3951 
 4770000   0.50149264   -9.5481967    457.12903 0.0079861816   0.00589716         3947 
 4771000   0.49117537   -9.5424302    457.99726 0.0079996727 0.0058948895         3951 
 4772000   0.49621605   -9.5359519    457.06207 0.0079816651 0.0058926182         3963 
 4773000   0.48846276   -9.5403055    458.13023 0.0079986422 0.0058903496         3955 
 4774000   0.48762112   -9.5293746    457.25361 0.0079816648 0.0058880821         3957 
 4775000   0.48455116   -9.5326219     457.8952 0.0079911903 0.0058858158         3940 
 4776000   0.48042793   -9.5366044    457.55889  0.007983649  0.005883551         3942 
 4777000   0.47563857   -9.5360118     457.4173 0.0079795077 0.0058812868         3962 
 4778000   0.49214138   -9.5313004    457.05847 0.0079715793 0.0058790219         3952 
 4779000   0.48941023   -9.5407213    457.69785 0.0079810604 0.0058767604         3958 
 4780000   0.48550312    -9.557623    457.07323 0.0079685012 0.0058744995         3954 
 4781000   0.50029516   -9.5172666    457.59639 0.0079759533 0.0058722396         3948 
 4782000   0.49318573   -9.5331906    457.46768 0.0079720424 0.0058699816         3958 
 4783000   0.49429728   -9.5459396    457.12004 0.0079643187 0.0058677244         3941 
 4784000   0.48482715   -9.5285968    457.16391 0.0079634182 0.0058654684         3958 
 4785000   0.49507156   -9.5465165    457.85123 0.0079737239 0.0058632125         3960 
 4786000   0.48587379   -9.5313171    456.91805 0.0079558095 0.0058609583         3952 
 4787000   0.48976824   -9.5385754    457.38683 0.0079623082 0.0058587043         3958 
 4788000   0.48500372   -9.5360166    457.44914 0.0079617297 0.0058564537         3948 
 4789000   0.48647791   -9.5361631    457.62528 0.0079631322 0.0058542037         3949 
 4790000   0.48136916   -9.5404229    457.23315 0.0079546477 0.0058519539         3944 
 4791000    0.4887853   -9.5503702    457.05974 0.0079499712 0.0058497058         3951 
 4792000    0.4801835   -9.5498677    458.14543 0.0079671923 0.0058474573         3957 
 4793000   0.48841469   -9.5316212     457.4337 0.0079531556 0.0058452134         3958 
 4794000   0.48360536   -9.5407794    457.08685 0.0079454674 0.0058429679         3950 
 4795000   0.47839101   -9.5554205     457.4375 0.0079499044 0.0058407251         3964 
 4796000   0.48144727   -9.5448656     457.3612  0.007946921 0.0058384827         3951 
 4797000   0.48492153   -9.5368438    457.28385 0.0079439207 0.0058362417         3956 
 4798000   0.48938832   -9.5440113    457.66153 0.0079488247 0.0058340009         3941 
 4799000   0.48247027   -9.5316096    457.60292 0.0079461506  0.005831763         3946 
 4800000    0.4852818   -9.5320812    457.46778 0.0079421489 0.0058295264         3944 
 4801000   0.47697709   -9.5451898    457.39188 0.0079391772 0.0058272909         3938 
 4802000   0.49315871   -9.5237093    457.00273 0.0079307708 0.0058250568         3938 
 4803000   0.48716452   -9.5381548    458.04809 0.0079472567 0.0058228251         3950 
 4804000   0.49372024   -9.5715271    457.32496 0.0079330585 0.0058205928         3953 
 4805000   0.48333172   -9.5468655    456.71262 0.0079207878 0.0058183625         3937 
 4806000   0.49516048   -9.5509529    457.85001 0.0079388614 0.0058161343         3942 
 4807000   0.49395404   -9.5437689    457.50482 0.0079312257 0.0058139062         3953 
 4808000    0.4713806   -9.5241228    457.64674 0.0079320359 0.0058116779         3954 
 4809000   0.48172969   -9.5392456    456.87602 0.0079170308 0.0058094511         3957 
 4810000   0.47700052   -9.5469318    456.60434  0.007910678 0.0058072254         3958 
 4811000   0.48005654   -9.5558977    457.09819  0.007917588 0.0058050012         3942 
 4812000   0.48064342   -9.5533377    457.52279 0.0079232957 0.0058027778         3952 
 4813000   0.48534977   -9.5539615    457.16956 0.0079155337 0.0058005569         3953 
 4814000   0.48373042    -9.547838    457.02302 0.0079113527 0.0057983343         3952 
 4815000   0.47468276   -9.5659626    457.05203 0.0079102117 0.0057961137         3953 
 4816000   0.48258361   -9.5379767    456.65497 0.0079016988 0.0057938953         3951 
 4817000   0.48069279    -9.542626    456.62145 0.0078994784 0.0057916783         3959 
 4818000   0.48075593   -9.5679147    457.28435 0.0079093045 0.0057894592         3963 
 4819000   0.48188563   -9.5533659    457.07668 0.0079040721 0.0057872436         3951 
 4820000   0.48577675   -9.5547175    457.25962 0.0079055951  0.005785029         3959 
 4821000   0.49402824    -9.542014     456.0079 0.0078823187 0.0057828162         3943 
 4822000   0.48588977   -9.5669389    457.31528 0.0079032781 0.0057806038         3954 
 4823000   0.48677847   -9.5500252    457.24679 0.0079004559 0.0057783937         3946 
 4824000   0.47861419   -9.5495366    457.20324 0.0078980659  0.005776183         3946 
 4825000   0.47904652   -9.5442468    457.02845 0.0078934102 0.0057739736         3961 
 4826000   0.48280099   -9.5427271    457.41712 0.0078984859 0.0057717658         3958 
 4827000   0.47739654   -9.5682576    456.96065 0.0078889692 0.0057695598         3956 
 4828000   0.47573144    -9.553394    456.90172 0.0078863179 0.0057673542         3958 
 4829000    0.4787346   -9.5741411    457.21388 0.0078900718 0.0057651508         3959 
 4830000   0.48524041   -9.5742117    456.56533 0.0078772487 0.0057629472         3946 
 4831000   0.48699111   -9.5602219      457.159 0.0078858586 0.0057607448         3944 
 4832000   0.47918825    -9.552183    456.82664 0.0078784947 0.0057585456         3960 
 4833000   0.48295561   -9.5676191    457.26019 0.0078843401 0.0057563468         3961 
 4834000   0.48224514   -9.5437496    456.98483 0.0078779622 0.0057541496         3964 
 4835000   0.47831516   -9.5471736    456.14707 0.0078618937 0.0057519522         3964 
 4836000   0.47314171    -9.553521     457.1198   0.00787703 0.0057497563         3951 
 4837000   0.46909598   -9.5491744    457.17461 0.0078763458 0.0057475618         3952 
 4838000   0.47284107   -9.5759641    456.74762 0.0078673628 0.0057453671         3959 
 4839000   0.48070247   -9.5761241    456.45961 0.0078607772 0.0057431733         3950 
 4840000   0.47272718    -9.554093    456.96234 0.0078678088 0.0057409815         3953 
 4841000   0.47688475   -9.5630393    457.25272 0.0078711823 0.0057387926         3955 
 4842000   0.48310319   -9.5501892    457.14221 0.0078676547 0.0057366016         3954 
 4843000    0.4741588   -9.5433647    457.00386 0.0078636496 0.0057344139         3949 
 4844000   0.47078391   -9.5496486    457.33315 0.0078676911 0.0057322258         3954 
 4845000   0.48043468   -9.5557983     457.6005 0.0078706657 0.0057300403         3953 
 4846000   0.47209647   -9.5611075    456.80583 0.0078553762  0.005727856         3954 
 4847000   0.47629898   -9.5614773    456.86949 0.0078548499 0.0057256719         3960 
 4848000   0.47692941   -9.5713269    456.72812 0.0078507997 0.0057234887         3944 
 4849000   0.49471562   -9.5694334    457.10877 0.0078557224 0.0057213078         3962 
 4850000   0.48150553   -9.5523368    457.11006 0.0078541247 0.0057191275         3955 
 4851000   0.46478614   -9.5517746    457.39726 0.0078574394 0.0057169486         3948 
 4852000   0.48220761   -9.5471268    457.14765 0.0078515328 0.0057147716         3958 
 4853000   0.47648343    -9.548636     457.3035 0.0078525912 0.0057125953         3951 
 4854000   0.47412576   -9.5503139     456.9401 0.0078447346 0.0057104188         3943 
 4855000   0.46680283   -9.5436191    457.25914  0.007848595 0.0057082429         3954 
 4856000   0.47147822   -9.5641191     457.3619 0.0078487421 0.0057060694         3947 
 4857000   0.48595099   -9.5619816    456.98468 0.0078406541 0.0057038984         3954 
 4858000   0.46144515   -9.5619711    457.50108 0.0078478983 0.0057017277         3961 
 4859000   0.47761338   -9.5701754    456.57935 0.0078304752 0.0056995571         3951 
 4860000   0.46159887   -9.5647231     457.1086  0.007837939 0.0056973888         3954 
 4861000   0.47542829   -9.5603599    456.37989  0.007823834 0.0056952202         3945 
 4862000   0.47606509   -9.5579764    456.50667 0.0078243979 0.0056930535         3959 
 4863000   0.47687329   -9.5516642    457.34903 0.0078372238 0.0056908888         3952 
 4864000   0.46772763   -9.5573246    456.70324 0.0078245484  0.005688724         3947 
 4865000   0.47287762   -9.5557361    456.54353 0.0078202043 0.0056865609         3948 
 4866000   0.48440986   -9.5558391    456.78634 0.0078227555 0.0056843985         3954 
 4867000   0.46976531   -9.5522532    456.76387 0.0078207635 0.0056822359         3942 
 4868000   0.48690222   -9.5522753    457.03223 0.0078237508 0.0056800751         3958 
 4869000   0.47417763    -9.560378    457.41079  0.007828623 0.0056779162         3951 
 4870000   0.47915524   -9.5742481    456.20627 0.0078064043 0.0056757565         3960 
 4871000   0.47230336    -9.570551    456.64257  0.007812266 0.0056735983         3954 
 4872000   0.47050472   -9.5603934    456.71768 0.0078119472 0.0056714416         3947 
 4873000   0.46953857   -9.5598976    456.88425 0.0078131926 0.0056692875         3962 
 4874000   0.48067867   -9.5544388    456.75067 0.0078093057 0.0056671323         3952 
 4875000   0.48244437   -9.5688668    456.97501 0.0078115386 0.0056649796         3949 
 4876000   0.48118844   -9.5750881    457.01055 0.0078105439 0.0056628272         3962 
 4877000    0.4734263    -9.563952    457.02818 0.0078092438 0.0056606768         3953 
 4878000   0.47472414   -9.5564544    456.48726 0.0077984019 0.0056585269         3940 
 4879000   0.45955979   -9.5667769    457.40224 0.0078124316 0.0056563781         3944 
 4880000   0.46658357   -9.5763633    457.15891 0.0078066753 0.0056542307         3962 
 4881000   0.47489276   -9.5703416    457.02985 0.0078028726 0.0056520838         3945 
 4882000   0.46812524   -9.5625779    456.82476 0.0077977735 0.0056499385         3946 
 4883000   0.47326909   -9.5607685    456.58656 0.0077921115 0.0056477952         3961 
 4884000   0.46433257   -9.5639826    457.05736  0.007798549 0.0056456528         3951 
 4885000    0.4587319   -9.5699209    456.75823 0.0077918496 0.0056435107         3955 
 4886000   0.47072301   -9.5686512    456.13109 0.0077795587 0.0056413688         3952 
 4887000   0.47426242   -9.5866835    456.46142 0.0077835997   0.00563923         3962 
 4888000   0.46945908    -9.577795    456.22177 0.0077779217 0.0056370913         3943 
 4889000    0.4680105   -9.5690309    456.47092 0.0077805775 0.0056349539         3958 
 4890000   0.47521057   -9.5705696    457.00566 0.0077880992  0.005632818         3958 
 4891000   0.46796693   -9.5589026    456.30958  0.007774647 0.0056306823         3958 
 4892000   0.47345512   -9.5801917    457.30907 0.0077900837 0.0056285484         3954 
 4893000   0.47550338   -9.5729919    456.90079 0.0077815381 0.0056264166         3951 
 4894000   0.47509625   -9.5650465    456.30819 0.0077698575 0.0056242847         3961 
 4895000   0.46728599   -9.5744266    457.34354 0.0077858961 0.0056221534         3952 
 4896000   0.48303217   -9.5612921    457.31147   0.00778376 0.0056200234         3965 
 4897000   0.47087226   -9.5643551    457.15868 0.0077795704 0.0056178956         3957 
 4898000   0.45988956   -9.5615131    456.33741 0.0077640093 0.0056157686         3943 
 4899000   0.47698298   -9.5708083    456.58997 0.0077667205  0.005613642         3947 
 4900000   0.46569422   -9.5647659    457.75619 0.0077849692 0.0056115178         3953 
 4901000   0.46861579   -9.5747655    456.53278 0.0077625787 0.0056093942         3954 
 4902000   0.46482934    -9.573994    456.27056 0.0077565374 0.0056072698         3960 
 4903000   0.46905678   -9.5749945    456.50455 0.0077589324 0.0056051488         3942 
 4904000   0.48078978   -9.5654862    456.37716 0.0077551855 0.0056030286         3943 
 4905000   0.47413415   -9.5793688    457.25247 0.0077684756 0.0056009084         3963 
 4906000    0.4640236    -9.572785    456.17375 0.0077485689 0.0055987899         3963 
 4907000   0.47377748   -9.5615727    457.15203 0.0077636035 0.0055966732         3954 
 4908000   0.47064194   -9.5698344    456.12449  0.007744575 0.0055945579         3948 
 4909000   0.46110085   -9.5869804    456.34769 0.0077467864 0.0055924422         3955 
 4910000   0.46110205   -9.5631095    456.39014 0.0077459291  0.005590328         3957 
 4911000   0.46000897   -9.5640762    456.19393 0.0077410224 0.0055882149         3955 
 4912000   0.46010924   -9.5559405     457.2051 0.0077566012 0.0055861034         3953 
 4913000   0.46933553   -9.5744309     456.7058 0.0077465533 0.0055839928         3948 
 4914000   0.46989103   -9.5760809    456.93408 0.0077488482 0.0055818826         3945 
 4915000   0.46100061   -9.5624441    456.89696 0.0077466422 0.0055797732         3964 
 4916000   0.46979452   -9.5681495    456.44742 0.0077374461 0.0055776663         3950 
 4917000   0.46266437   -9.5677775    457.22026 0.0077489705 0.0055755603         3959 
 4918000   0.46366891   -9.5740509    456.68483 0.0077383223 0.0055734543         3957 
 4919000   0.46790434   -9.5697058    456.43681 0.0077325474 0.0055713502         3955 
 4920000   0.44725015   -9.5636349    456.75681 0.0077363958 0.0055692472         3953 
 4921000   0.46433769   -9.5785563    456.51361 0.0077307053 0.0055671457         3962 
 4922000   0.46518086   -9.5706442    456.66714 0.0077317341 0.0055650438         3943 
 4923000   0.45651748   -9.5795626    457.01241  0.007736008 0.0055629433         3957 
 4924000   0.47050307   -9.5824133    456.67913 0.0077287965 0.0055608446         3952 
 4925000   0.46373575    -9.582115    456.71722 0.0077278718 0.0055587471         3959 
 4926000   0.46171303   -9.5750565    457.05198  0.007731966 0.0055566514         3949 
 4927000   0.46777157   -9.5803082    456.52146 0.0077214238 0.0055545553         3950 
 4928000   0.45457949   -9.5750658    456.51149 0.0077196883 0.0055524617         3946 
 4929000   0.45466801   -9.5774832    456.47456 0.0077174979 0.0055503688         3951 
 4930000   0.46833437   -9.5825886    456.31929 0.0077133079 0.0055482756         3958 
 4931000   0.45904537   -9.5753109    456.42086   0.00771346 0.0055461847         3955 
 4932000   0.45871615   -9.5800378    456.47925 0.0077128827 0.0055440946         3951 
 4933000   0.46313084   -9.5828711    455.87285 0.0077010753  0.005542005         3958 
 4934000   0.46220277   -9.5759943     456.8419 0.0077158814 0.0055399162         3958 
 4935000   0.46974577   -9.5688275    456.52964  0.007709045 0.0055378301         3954 
 4936000   0.45431859   -9.5637977    456.80909 0.0077122011 0.0055357444         3962 
 4937000   0.46453595   -9.5847781    455.97091  0.007696491 0.0055336588         3956 
 4938000   0.45687352   -9.5879909    456.21232 0.0076990063 0.0055315746         3952 
 4939000   0.45702219   -9.5796729    456.51002 0.0077024704 0.0055294919         3945 
 4940000   0.46175093   -9.5834021    456.57504 0.0077020081 0.0055274088         3951 
 4941000   0.45326977   -9.5779728    456.63145 0.0077014007 0.0055253283         3955 
 4942000   0.45563913   -9.5821959    456.12348 0.0076912768 0.0055232477         3954 
 4943000   0.45333912   -9.5825601    456.14198 0.0076900328 0.0055211687         3952 
 4944000   0.46589199   -9.5874717    456.17676 0.0076890634 0.0055190903         3959 
 4945000   0.46007692    -9.578087    456.80633 0.0076981182 0.0055170137         3948 
 4946000   0.45835994   -9.5949243    456.27107 0.0076875434 0.0055149364         3964 
 4947000   0.47300736    -9.572696    456.62425 0.0076919387 0.0055128616         3952 
 4948000   0.44884363   -9.5843771    456.53009 0.0076887984 0.0055107881         3960 
 4949000   0.46279748   -9.5886676    456.14159 0.0076807031 0.0055087157         3948 
 4950000    0.4532113   -9.5701755    456.83807 0.0076908767 0.0055066447         3958 
 4951000   0.46439842   -9.5811851    456.73967 0.0076876669 0.0055045756         3958 
 4952000   0.45056969   -9.5823076    456.53182 0.0076826167 0.0055025059         3954 
 4953000   0.44889034   -9.5704887    456.05279  0.007673006 0.0055004371         3953 
 4954000   0.46248398   -9.5804947     456.7043 0.0076824165 0.0054983722         3949 
 4955000   0.45703643   -9.5781136    456.47039 0.0076769322 0.0054963048         3956 
 4956000   0.45553367   -9.5873833    456.30341 0.0076725755 0.0054942392         3940 
 4957000   0.45942247    -9.574027    456.68422 0.0076774296  0.005492175         3959 
 4958000   0.45487471   -9.5784804    456.05643 0.0076653293 0.0054901112         3958 
 4959000   0.44995176   -9.5884154    456.80682 0.0076763934   0.00548805         3947 
 4960000   0.45398154   -9.5596406    456.39684 0.0076679577 0.0054859902         3956 
 4961000   0.45630144   -9.5944607    456.75455 0.0076724207 0.0054839318         3956 
 4962000   0.45665448   -9.5971374    456.65054 0.0076691278 0.0054818726         3961 
 4963000   0.45002584   -9.5834179     456.3043 0.0076617687  0.005479815         3960 
 4964000   0.45669206   -9.5849553    456.89032 0.0076700631 0.0054777584         3948 
 4965000   0.45302779   -9.5727969    456.47889 0.0076616129 0.0054757023         3950 
 4966000   0.45623437   -9.5940458    456.74156 0.0076644778 0.0054736476         3950 
 4967000   0.44891102   -9.5849529    455.73083 0.0076459772  0.005471593         3962 
 4968000   0.45944522   -9.5675092    456.61717 0.0076593057 0.0054695408         3957 
 4969000   0.45819678   -9.5824236    455.43348  0.007637913 0.0054674894         3951 
 4970000   0.45762391   -9.5855738    456.80891 0.0076594384 0.0054654395         3957 
 4971000   0.46934465   -9.5720809    456.08266 0.0076457228 0.0054633895         3955 
 4972000   0.45897917    -9.576324    456.14648 0.0076452548 0.0054613419         3953 
 4973000    0.4549089   -9.5843839    455.67084 0.0076357471 0.0054592956         3961 
 4974000   0.45386528   -9.6003287    456.56295 0.0076491581 0.0054572502         3949 
 4975000   0.45234545   -9.5770052    456.50336 0.0076466225 0.0054552047         3958 
 4976000   0.44939745   -9.5862018    455.82564  0.007633736 0.0054531592         3962 
 4977000   0.46102604   -9.5872149    456.08671 0.0076365734 0.0054511163         3948 
 4978000   0.45204921   -9.5906715    456.62934 0.0076441232  0.005449074         3952 
 4979000   0.45959966   -9.5826231    455.85672 0.0076296565 0.0054470339         3950 
 4980000   0.45634818   -9.5946856    455.86287 0.0076282275 0.0054449948         3961 
 4981000   0.45610709   -9.5840357    455.98528 0.0076287439 0.0054429572         3947 
 4982000    0.4597249   -9.5713025    456.30503  0.007632561 0.0054409204         3949 
 4983000   0.44771866   -9.5762706    456.47698  0.007633905 0.0054388842         3939 
 4984000   0.45472403   -9.5846142    456.07959 0.0076257289 0.0054368482         3944 
 4985000   0.45568021   -9.5794007    455.52597 0.0076149444 0.0054348122         3963 
 4986000   0.45214021   -9.5886927    456.57731 0.0076309886 0.0054327782         3953 
 4987000    0.4497886   -9.5877936    456.61476 0.0076300842 0.0054307466         3957 
 4988000   0.45368194   -9.5836347     456.9007 0.0076333316 0.0054287153         3945 
 4989000   0.44968782   -9.5993088    456.52637 0.0076255491 0.0054266849         3950 
 4990000   0.44997177   -9.5704213    456.61152 0.0076254429 0.0054246544         3956 
 4991000   0.45006282   -9.5906336    455.84352  0.007611092 0.0054226262         3959 
 4992000   0.45946211   -9.5859817    456.03486 0.0076127614 0.0054205988         3948 
 4993000    0.4562074   -9.5862097      456.379 0.0076169804 0.0054185726         3953 
 4994000   0.45136712   -9.5939758    456.14721 0.0076115873 0.0054165473         3954 
 4995000   0.43932869    -9.587345    456.48503 0.0076156995 0.0054145225         3951 
 4996000   0.45466151   -9.5900344    456.77179 0.0076189584 0.0054124993         3953 
 4997000   0.45269211   -9.5914616    455.85782 0.0076021916 0.0054104772         3961 
 4998000   0.44465572   -9.5914966    456.79191 0.0076162449 0.0054084562         3955 
 4999000   0.45881638   -9.6000746    455.75449 0.0075974276 0.0054064366         3949 
 5000000   0.45502817   -9.5975101    455.94696 0.0075991159 0.0054044175         3951 
 5001000   0.45026233   -9.5884733    456.67628 0.0076097494 0.0054024001         3946 
 5002000   0.44983592   -9.5857031    455.75907 0.0075929473 0.0054003808         3956 
 5003000   0.45526842   -9.6101255    456.11675 0.0075973873 0.0053983646         3948 
 5004000   0.44486479   -9.5898959    456.02687 0.0075943723 0.0053963496         3951 
 5005000   0.45073705   -9.6076444    456.00911 0.0075925593 0.0053943354         3952 
 5006000   0.45461948   -9.5839326      455.799 0.0075875449 0.0053923219         3942 
 5007000     0.455096    -9.598777    456.02338  0.007589764 0.0053903086         3962 
 5008000   0.46055813   -9.5963981     456.0389 0.0075885067 0.0053882973         3958 
 5009000   0.44734691   -9.5949336    456.38288 0.0075927144 0.0053862866         3941 
 5010000   0.45616115   -9.5971357    456.22305 0.0075885404 0.0053842781         3945 
 5011000   0.44350225   -9.6083186     456.0935 0.0075848716 0.0053822688         3957 
 5012000   0.45005858   -9.5929813    455.87252 0.0075796841 0.0053802622         3955 
Loop time of 13272.1 on 48 procs for 5000000 steps with 4000 atoms

Performance: 65099.020 tau/day, 376.730 timesteps/s
99.4% CPU use with 48 MPI tasks x no OpenMP threads

MPI task timing breakdown:
Section |  min time  |  avg time  |  max time  |%varavg| %total
---------------------------------------------------------------
Pair    | 967.91     | 1060.7     | 1172.4     | 172.8 |  7.99
Neigh   | 93.81      | 98.462     | 103.6      |  25.3 |  0.74
Comm    | 833.36     | 957.15     | 1069.9     | 209.5 |  7.21
Output  | 18.699     | 18.704     | 18.8       |   0.3 |  0.14
Modify  | 10938      | 11008      | 11068      |  28.7 | 82.94
Other   |            | 129.2      |            |       |  0.97

Nlocal:        83.3333 ave          90 max          76 min
Histogram: 1 2 5 5 5 14 5 7 1 3
Nghost:        2448.94 ave        2472 max        2426 min
Histogram: 4 1 6 4 5 13 7 4 2 2
Neighs:        16989.5 ave       19471 max       14760 min
Histogram: 5 5 5 5 8 4 3 4 4 5
FullNghs:      33979.3 ave       37225 max       30260 min
Histogram: 2 2 3 5 8 9 8 7 1 3

Total # of neighbors = 1631007
Ave neighs/atom = 407.75175
Neighbor list builds = 265838
Dangerous builds = 0

#clear
#
#next RN
#
#jump SELF
Total wall time: 3:41:15
