
units lj                  # Use reduced LJ style units
atom_style atomic         # Uncharged point particles
atom_modify map hash      # Needed for indexing of clusters etc
                          # Used to be able to find where atoms are in relation to each other.

lattice fcc 1.0 spacing 1 1 1
Lattice spacing in x,y,z = 1.5874011 1.5874011 1.5874011
region box block 0 10 0 10 0 10 units lattice
create_box 2 box
Created orthogonal box = (0.0000000 0.0000000 0.0000000) to (15.874011 15.874011 15.874011)
  3 by 4 by 4 MPI processor grid
create_atoms 1 box
Created 4000 atoms
  using lattice units in orthogonal box = (0.0000000 0.0000000 0.0000000) to (15.874011 15.874011 15.874011)
  create_atoms CPU = 0.003 seconds
set type 1 type/fraction 2 0.16 78393
Setting atom values ...
  677 settings made for type/fraction
mass 1 1.0
mass 2 1.0
pair_style lj/cut  3.5
pair_modify tail  yes
pair_coeff 1  1  1.0  1.0   # Intearaction between 1 and 1 set with epsilon = 1 and sigma = 1
pair_coeff 1  2  1.5  0.8
pair_coeff 2  2  0.5  0.88

write_data data.0
System init for write_data ...
Neighbor list info ...
  update every 1 steps, delay 10 steps, check yes
  max neighbors/atom: 2000, page size: 100000
  master list distance cutoff = 3.8
  ghost atom cutoff = 3.8
  binsize = 1.9, bins = 9 9 9
  1 neighbor lists, perpetual/occasional/extra = 1 0 0
  (1) pair lj/cut, perpetual
      attributes: half, newton on
      pair build: half/bin/atomonly/newton
      stencil: half/bin/3d
      bin: standard
WARNING: Not all mixed pair coeffs generated from mixing. Use write_data with 'pair ij' option to store all pair coeffs. (../write_data.cpp:312)


#############################
#   M E L T   S Y S T E M   #
#############################

velocity all create 2.4 1741580 mom yes dist gaussian # Assign velocities
                                                    # Temperature 2.4, random number seed, zero linear momentum
                                                                                # Gaussian distribution

timestep 0.002   # simulation timestep
thermo 1000       # output thermodynamic data every 1000 steps bf 100

# Define a fix  in this case with index 1 applied to all
# particles in the simulation. This fix is for simulations
# in the anisotropic NPT ensemble. Note that we use the MTK
# correction.
fix 1 all npt temp 2.4 2.4 0.1 iso 5.68 5.68 0.5 mtk yes tchain 5 pchain 5 # Use NPT ensemble
                                                                         # Set temperature and pressure and damping
                                                                         # Numbers of thermostats in chain and in barostat
run 10000          # run for 10000 steps
Per MPI rank memory allocation (min/avg/max) = 3.642 | 3.644 | 3.648 Mbytes
Step Temp E_pair E_mol TotEng Press Volume 
       0          2.4   -7.2871769            0   -3.6880769   -3.4159639         4000 
    1000    2.4149395   -4.7312006            0   -1.1096969    6.0131592    4586.9829 
    2000    2.4295624   -4.8003296            0   -1.1568971     5.441861    4610.5426 
    3000    2.3696078   -4.7586953            0   -1.2051721    5.7108555    4603.9037 
    4000    2.4027067   -4.7368231            0    -1.133664    5.4881588    4639.2171 
    5000    2.4128504   -4.7884541            0   -1.1700834    5.7158653    4586.1608 
    6000    2.3920829    -4.735804            0   -1.1485767    5.7351113    4609.2912 
    7000    2.3875969   -4.8064508            0   -1.2259508     5.547064    4593.8785 
    8000    2.4273416   -4.7746524            0   -1.1345502    5.6971002    4594.3305 
    9000    2.3921077   -4.8155616            0    -1.228297    5.5028854    4586.8726 
   10000     2.421236   -4.7561783            0   -1.1252322    5.3534134    4633.8031 
Loop time of 2.43231 on 48 procs for 10000 steps with 4000 atoms

Performance: 710435.966 tau/day, 4111.319 timesteps/s
99.4% CPU use with 48 MPI tasks x no OpenMP threads

MPI task timing breakdown:
Section |  min time  |  avg time  |  max time  |%varavg| %total
---------------------------------------------------------------
Pair    | 0.95127    | 1.0065     | 1.0966     |   3.1 | 41.38
Neigh   | 0.19269    | 0.20113    | 0.21109    |   1.0 |  8.27
Comm    | 0.67317    | 0.77736    | 0.85506    |   4.3 | 31.96
Output  | 0.00023792 | 0.00024299 | 0.00030885 |   0.0 |  0.01
Modify  | 0.39216    | 0.43266    | 0.47149    |   3.2 | 17.79
Other   |            | 0.01446    |            |       |  0.59

Nlocal:        83.3333 ave          93 max          69 min
Histogram: 1 0 0 2 8 17 9 4 3 4
Nghost:        1492.79 ave        1524 max        1465 min
Histogram: 2 3 2 11 9 9 3 6 2 1
Neighs:        8223.06 ave        9357 max        6585 min
Histogram: 1 0 0 4 10 13 8 5 4 3

Total # of neighbors = 394707
Ave neighs/atom = 98.676750
Neighbor list builds = 906
Dangerous builds = 184

# Equilibrate just above the melting temperature to avoid step fn in T

fix 1 all npt temp 1.25 1.25 0.1 iso 5.68 5.68 0.5 mtk yes tchain 5 pchain 5
run 2000
Per MPI rank memory allocation (min/avg/max) = 3.642 | 3.644 | 3.648 Mbytes
Step Temp E_pair E_mol TotEng Press Volume 
   10000     2.421236   -4.7561783            0   -1.1252322    5.3534134    4633.8031 
   11000    1.2672942   -6.4251281            0   -4.5246621    5.6653201    3775.7108 
   12000    1.2569307   -6.4467503            0   -4.5618257    5.8113486    3758.7009 
Loop time of 0.483571 on 48 procs for 2000 steps with 4000 atoms

Performance: 714683.096 tau/day, 4135.898 timesteps/s
99.6% CPU use with 48 MPI tasks x no OpenMP threads

MPI task timing breakdown:
Section |  min time  |  avg time  |  max time  |%varavg| %total
---------------------------------------------------------------
Pair    | 0.21731    | 0.23603    | 0.25826    |   1.8 | 48.81
Neigh   | 0.03212    | 0.033899   | 0.035952   |   0.5 |  7.01
Comm    | 0.13553    | 0.16219    | 0.18323    |   2.5 | 33.54
Output  | 4.9866e-05 | 5.1832e-05 | 6.5901e-05 |   0.0 |  0.01
Modify  | 0.041331   | 0.046911   | 0.051191   |   1.3 |  9.70
Other   |            | 0.004484   |            |       |  0.93

Nlocal:        83.3333 ave          90 max          75 min
Histogram: 2 1 3 6 9 3 10 5 3 6
Nghost:        1711.92 ave        1741 max        1694 min
Histogram: 2 8 11 7 9 2 3 4 1 1
Neighs:        10160.2 ave       11204 max        8926 min
Histogram: 3 1 4 6 7 7 7 4 5 4

Total # of neighbors = 487691
Ave neighs/atom = 121.92275
Neighbor list builds = 143
Dangerous builds = 7

#############################
# L I N E A R  Q U E N C H  #
#############################

# Define solid atoms. This closely follows ten Wolde  Ruiz-Montero and Frenkel  Faraday Discuss  1996  104  93-110
# Compute components of the per-atom q6 vector
compute q6 all orientorder/atom degrees 1 6 components 6 nnn NULL cutoff 1.3 # compute the Q6 parameter.
                                                                             # Use all neighbours within 1.3 unit cell.

# get number of connections
compute coord_number all coord/atom orientorder q6 0.5

# An atom is solid if it has 8 or more connections (of a possible 14)
variable is_solid atom c_coord_number>=8
group solid dynamic all var is_solid    # Must be dynamic to update
dynamic group solid defined

# do clustering
compute cluster solid cluster/atom 1.3 # Create a cluster where all atoms within are solid and max 1.3 units from another member

# define chunks one chunk per cluster
compute clus_chunks solid chunk/atom c_cluster nchunk every compress yes  # Says which atoms are in which chunk

# count the size of each chunk
compute size_chunks solid property/chunk clus_chunks count


# Find the maximum entry in the vector of chunk sizes
variable max_n equal max(c_size_chunks)


# Thermo style which includes this variable
# thermo_style custom step temp pe vol v_max_n

thermo ${N}  # Print the thermo information every 100 steps
thermo 1000  

# Reset the npt fix at a lower temperature (below freezing)
fix 1  all npt temp  ${temp} ${temp}  0.1  iso  5.68  5.68  0.5  mtk yes tchain  5  pchain  5
fix 1  all npt temp  0.45 ${temp}  0.1  iso  5.68  5.68  0.5  mtk yes tchain  5  pchain  5
fix 1  all npt temp  0.45 0.45  0.1  iso  5.68  5.68  0.5  mtk yes tchain  5  pchain  5

dump dmp2 all dcd ${N} traj.dcd
dump dmp2 all dcd 1000 traj.dcd


compute msd all msd com yes
variable twopoint equal c_msd[4]/6/(step*dt+1.0e-6)
fix 9 all vector 10 c_msd[4]
variable fit equal slope(f_9)/6/(10*dt)
thermo_style custom step temp pe c_msd[4] v_twopoint v_fit v_max_n

fix 1 all npt temp 1.25 ${temp} 0.1 iso 5.68 5.68 0.5 mtk yes tchain 5 pchain 5
fix 1 all npt temp 1.25 0.45 0.1 iso 5.68 5.68 0.5 mtk yes tchain 5 pchain 5
run 5000000 # 5000000  # Run for this many steps
Neighbor list info ...
  update every 1 steps, delay 10 steps, check yes
  max neighbors/atom: 2000, page size: 100000
  master list distance cutoff = 3.8
  ghost atom cutoff = 3.8
  binsize = 1.9, bins = 9 9 9
  4 neighbor lists, perpetual/occasional/extra = 1 3 0
  (1) pair lj/cut, perpetual
      attributes: half, newton on
      pair build: half/bin/atomonly/newton
      stencil: half/bin/3d
      bin: standard
  (2) compute orientorder/atom, occasional
      attributes: full, newton on
      pair build: full/bin/atomonly
      stencil: full/bin/3d
      bin: standard
  (3) compute coord/atom, occasional
      attributes: full, newton on
      pair build: full/bin/atomonly
      stencil: full/bin/3d
      bin: standard
  (4) compute cluster/atom, occasional
      attributes: full, newton on
      pair build: full/bin/atomonly
      stencil: full/bin/3d
      bin: standard
Per MPI rank memory allocation (min/avg/max) = 9.767 | 9.771 | 9.777 Mbytes
Step Temp PotEng c_msd[4] v_twopoint v_fit v_max_n 
   12000    1.2569307   -6.4467503 7.8000594e-30 5.4167077e-32 8.3333333e+20            1 
   13000    1.2659253   -6.4898064   0.55617327 0.0035652131  0.045267671            1 
   14000    1.2625429   -6.4559752    1.0722834 0.0063826389  0.045089947            1 
   15000    1.2590667   -6.4292361    1.6171709 0.0089842823  0.044164596            1 
   16000    1.2672824   -6.4155114    2.1404649  0.011148254  0.044172831            2 
   17000    1.2455538   -6.4517199    2.6319805  0.012901865  0.043729258            2 
   18000    1.2376728   -6.4425919    3.0800086  0.014259299  0.042833975            2 
   19000      1.20646   -6.4406252    3.5440389   0.01554403  0.042009626            3 
   20000    1.2126168   -6.4778115     3.993885  0.016641187  0.041378538            2 
   21000    1.2697838   -6.4549303     4.491221  0.017822305  0.041115234            3 
   22000    1.2513627   -6.4275804    5.0413988  0.019096207  0.040954876            2 
   23000    1.2621465   -6.4454766    5.5096201  0.019962391  0.040915715            4 
   24000    1.2318403   -6.4578341    6.1666035  0.021411817  0.041189442            2 
   25000    1.2484056   -6.4300623    6.6639306  0.022213102   0.04153794            2 
   26000    1.2709972   -6.3962391    7.1315329  0.022857477  0.041698115            2 
   27000    1.2177597   -6.4373671    7.6219772   0.02352462  0.041738345            1 
   28000     1.252278   -6.4558529    8.1683824  0.024310662  0.041863147            2 
   29000    1.2533152   -6.4434017    8.7686306  0.025197214  0.042052309            3 
   30000    1.2372603   -6.4522611    9.2671651  0.025742125   0.04225188            1 
   31000    1.2468423   -6.4162575    9.7454624  0.026197479  0.042377506            2 
   32000    1.2416945   -6.4481449    10.330626  0.026902671  0.042519456            3 
   33000    1.2691527   -6.4288146    10.943411  0.027634876  0.042706024            2 
   34000    1.2618958   -6.4651587    11.278232  0.027642724  0.042809851            1 
   35000    1.2503325   -6.4320813    11.758111  0.027995501  0.042808224            6 
   36000    1.2125718   -6.4631489    12.340844  0.028566769  0.042803471            4 
   37000    1.2432501   -6.4420771    12.828378  0.028892743  0.042796271            3 
   38000    1.2490663   -6.4192284    13.362118  0.029302889  0.042787137            2 
   39000    1.2388991   -6.4539916    13.814447   0.02951805  0.042773072            2 
   40000    1.2399134   -6.4501134    14.374088  0.029946016  0.042761568            1 
   41000    1.2460597   -6.4319751    14.699319  0.029876665  0.042709371            2 
   42000    1.2267628   -6.4335872    15.265177   0.03028805  0.042643823            2 
   43000    1.2272404   -6.4123371    15.827321  0.030673103  0.042600825            2 
   44000     1.248019   -6.4435217    16.192713  0.030668016    0.0425648            2 
   45000    1.2511827   -6.4302867    16.631133  0.030798395  0.042482221            2 
   46000    1.2632684   -6.4596304    17.132963  0.031037976  0.042401556            2 
   47000    1.2333175   -6.4182742    17.746379  0.031465211  0.042340594            2 
   48000     1.256107   -6.4621039    18.352346  0.031861711   0.04231784            2 
   49000     1.249679   -6.4457271    18.802243  0.031976604  0.042310809            2 
   50000    1.2674028   -6.4390819    19.196315  0.031993858  0.042279051            3 
   51000    1.2333239   -6.4098996    19.939039  0.032580129  0.042255013            3 
   52000    1.2525537   -6.4437407    20.421367   0.03272655  0.042262004            2 
   53000    1.2564639   -6.4399511    20.759231    0.0326403  0.042267842            3 
   54000    1.2379073   -6.4588671    21.237942  0.032774602  0.042241977            2 
   55000    1.2371199   -6.4139145    21.996575  0.033328144   0.04224231            3 
   56000    1.2545381   -6.4618704    22.429754  0.033377609  0.042266128            2 
   57000    1.2438513   -6.4239854    22.943182  0.033542663  0.042290607            2 
   58000    1.2526713   -6.4466123    23.344766   0.03354133  0.042316434            2 
   59000    1.2508262   -6.4461437    24.052061  0.033971837  0.042341904            6 
   60000    1.2493131   -6.4431686    24.604857  0.034173412  0.042387534            2 
   61000    1.2587658   -6.4273107    25.203525  0.034431045  0.042440907            2 
   62000    1.2373053   -6.4225523    25.608897   0.03442056  0.042473037            3 
   63000     1.260839   -6.4329044    26.194647  0.034649003    0.0424912            1 
   64000    1.2342146   -6.4587187    26.661692  0.034715745  0.042516923            3 
   65000    1.2379802   -6.4390474    27.138979  0.034793563  0.042545013            1 
   66000    1.2412664    -6.504555     27.70221  0.034977537  0.042555802            3 
   67000    1.1958422   -6.4461207    28.313883  0.035216272  0.042585266            1 
   68000    1.2398197   -6.4348858    28.813195  0.035310288  0.042612864            4 
   69000    1.2363684   -6.4309387    29.295274  0.035380765  0.042638013            3 
   70000    1.2413198   -6.3868104    29.877257  0.035568163  0.042668896            2 
   71000    1.2427224   -6.4502255    30.337658   0.03560758  0.042695068            1 
   72000      1.27604   -6.4516515    30.975715  0.035851522  0.042726126            1 
   73000    1.2803166   -6.4597009    31.334777  0.035770293  0.042749585            1 
   74000    1.2257453   -6.4687552    31.927149  0.035953997  0.042775474            1 
   75000    1.2444144   -6.4472249    32.679966  0.036311074  0.042808158            1 
   76000    1.2200588    -6.419861    33.243461  0.036451163  0.042846607            1 
   77000    1.2417059   -6.4300699    33.712085   0.03648494  0.042888734            1 
   78000    1.2347661   -6.4765474    34.088484   0.03641932  0.042921085            2 
   79000    1.2639489   -6.4280356    34.553742  0.036449095  0.042938817            2 
   80000    1.2094935   -6.4766484     35.05679  0.036517489  0.042949918            2 
   81000    1.2612447   -6.4087041    35.449768  0.036470955   0.04295538            2 
   82000    1.2555117   -6.4301281    36.095753  0.036682675  0.042951615            3 
   83000     1.264751   -6.4614016    36.610051  0.036757079  0.042956916            2 
   84000    1.2347222   -6.4098804    37.346472  0.037050072   0.04296967            3 
   85000    1.2502612   -6.4297107    38.196801  0.037447844  0.043000512            1 
   86000    1.2692483   -6.4602518    38.386225  0.037195954  0.043039141            2 
   87000    1.2405956   -6.4347249    38.820719  0.037184597  0.043061999            2 
   88000     1.206338   -6.4207652    39.339647  0.037253453  0.043071194            3 
   89000    1.2517195   -6.4437703    39.690112  0.037163026  0.043080755            3 
   90000    1.2374307    -6.411036    40.121801  0.037149815  0.043079773            1 
   91000    1.2390089   -6.4536215    40.895555  0.037450142  0.043089071            2 
   92000    1.2478922   -6.4684367    41.410848  0.037509826  0.043108295            8 
   93000    1.2663608   -6.4949406    41.926099  0.037568189  0.043121746            2 
   94000    1.2499393   -6.4385948    42.550871  0.037722404   0.04314063            2 
   95000    1.2474115   -6.4338396    42.939736  0.037666435  0.043151207            3 
   96000    1.2286461   -6.4187158    43.498016  0.037758694  0.043156175            4 
   97000    1.2619319   -6.4722438    43.753895  0.037589257  0.043155986            2 
   98000    1.2219895    -6.490226    44.442711  0.037791421  0.043161357            1 
   99000    1.2200428   -6.4435672     44.79581   0.03770691  0.043165987            2 
  100000    1.2226603   -6.4584771    45.349469  0.037791224  0.043164804            3 
  101000    1.2003166   -6.4728475     45.81359  0.037799992  0.043163337            2 
  102000    1.2340547   -6.4506541    46.306723   0.03783229  0.043150538            1 
  103000     1.250201   -6.4766955    46.540333  0.037653991  0.043136237            5 
  104000     1.247238   -6.4555262    47.091602  0.037733655  0.043115902            3 
  105000    1.2414146     -6.46592    47.383167  0.037605688  0.043092352            3 
  106000    1.2388447   -6.4858319     48.10812  0.037820849  0.043070257            2 
  107000    1.2042426   -6.4752683    48.903864  0.038087121  0.043057225            3 
  108000    1.2195732   -6.4673331    49.350505  0.038079093  0.043053915            2 
  109000     1.250672   -6.4495917    49.810723  0.038081593  0.043047984            2 
  110000    1.2538983   -6.4689027    50.422643  0.038198972   0.04303896            1 
  111000    1.2389948   -6.4955114     50.77415  0.038118731  0.043033511            3 
  112000    1.2481699   -6.4825934    51.354825  0.038210435  0.043027816            1 
  113000    1.2364222    -6.493783    52.045046  0.038381302  0.043025662            2 
  114000    1.2567982   -6.4681746    52.576534  0.038433139  0.043025956            1 
  115000    1.2233875   -6.4555331    53.040066   0.03843483  0.043027648            2 
  116000     1.245506   -6.4658109    53.943856   0.03875277  0.043032428            2 
  117000    1.2335782    -6.450823    54.124073  0.038549909  0.043040424            5 
  118000    1.2512943   -6.4574703    55.061186  0.038885018  0.043051271            1 
  119000    1.2561619   -6.5036982    55.198402  0.038654343  0.043059873            1 
  120000     1.213744   -6.4865722    55.862796  0.038793609  0.043067972            4 
  121000    1.2405758   -6.4263571    56.494484  0.038908047  0.043072566            2 
  122000    1.2449983   -6.4539239    56.940135  0.038893535     0.043079            1 
  123000    1.2028828   -6.4793561    57.310535  0.038828276  0.043087266            3 
  124000    1.2172216   -6.4324724    57.989931  0.038971727  0.043099051            5 
  125000     1.241499   -6.4365875    58.542302  0.039028201  0.043108153            1 
  126000    1.2371363   -6.4793262    58.878606  0.038940877  0.043114051            1 
  127000    1.2598752   -6.4950523    59.210819  0.038852243  0.043112954            3 
  128000    1.2213161   -6.4350408    60.084249   0.03911735  0.043115999            1 
  129000    1.1921211   -6.4669868     60.35939  0.038991854  0.043120687            2 
  130000    1.2068708    -6.432072    61.083592  0.039156148  0.043123196            1 
  131000    1.2297745    -6.459915    61.647636  0.039216053  0.043126684            1 
  132000     1.251362   -6.4506199    62.056182  0.039176883  0.043129092            3 
  133000    1.2355961   -6.4601615    62.371669  0.039079993  0.043129228            3 
  134000    1.2296372   -6.4404026    63.234622  0.039325014  0.043127608            1 
  135000    1.2443942    -6.409408    63.491904  0.039192533   0.04312718            2 
  136000    1.2437997   -6.4407066    63.566923   0.03895032  0.043122102            3 
  137000    1.2294067   -6.4250357    64.181052  0.039039569   0.04311172            2 
  138000    1.2154194   -6.5217062    64.370637  0.038871158  0.043096923            7 
  139000    1.2307794    -6.476324    65.142763  0.039054414  0.043081366            2 
  140000    1.2121632   -6.5053249    65.453417  0.038960367  0.043065544            2 
  141000    1.2478096   -6.4487231    66.332134  0.039203389  0.043053496            4 
  142000    1.2226608   -6.4760708    66.569852  0.039066814  0.043042957            4 
  143000    1.2358888   -6.4308999     67.02007  0.039055985  0.043029455            2 
  144000    1.2211605   -6.4977059    67.512129  0.039069519  0.043018644            2 
  145000    1.2043298   -6.4757653    68.112357  0.039145033  0.043002605            2 
  146000    1.2359211   -6.4991137     68.28135  0.038973373  0.042984599            3 
  147000     1.234989   -6.4962504    68.752699  0.038975453  0.042963808            2 
  148000    1.2445663   -6.4529607    69.261187  0.038998416   0.04294182            1 
  149000     1.240751    -6.490504    69.798963  0.039037451  0.042918613            1 
  150000    1.2177031   -6.4669058    70.389552  0.039105307  0.042901077            2 
  151000    1.2365354   -6.4352329    70.864976  0.039108706  0.042884792            1 
  152000    1.2511414   -6.4576116    71.285409  0.039081913  0.042867014            3 
  153000     1.223591    -6.471284    71.963652  0.039195889   0.04285291            1 
  154000    1.2169181   -6.4305807    72.583951   0.03927703  0.042845265            3 
  155000    1.2209066   -6.4705279    73.082434  0.039291631  0.042835714            4 
  156000    1.2135767   -6.3786818    73.968899  0.039513301  0.042827786            3 
  157000    1.2211554   -6.4604483     74.05733  0.039308562  0.042818745            2 
  158000    1.2337056   -6.4734595    74.594922  0.039343313  0.042811283            2 
  159000    1.2182196   -6.5010008     75.21938  0.039423155  0.042803405            2 
  160000    1.2046888   -6.4993763    75.448118  0.039295894  0.042793257            2 
  161000    1.2156037   -6.4328045    76.068953  0.039373164  0.042783696            3 
  162000    1.2190751   -6.4871061    76.580014  0.039393011    0.0427742            3 
  163000    1.2373905    -6.469578     77.12793  0.039431457  0.042766098            4 
  164000    1.2141687   -6.4863874    77.576191  0.039418796  0.042759025            1 
  165000    1.2170081    -6.456903    78.629904  0.039712073   0.04275029            2 
  166000    1.2364476   -6.4852873    78.692412  0.039504223  0.042739131            2 
  167000    1.2190468   -6.4582521    79.252821  0.039547316  0.042731438            3 
  168000    1.2142356   -6.4967179    79.842311  0.039604321  0.042722787            2 
  169000    1.2197533    -6.436302    80.390827  0.039640447   0.04271354            3 
  170000     1.219483   -6.4818123     80.40707   0.03941523  0.042701377            1 
  171000    1.2302495   -6.4471942    80.431624  0.039196698  0.042683831            4 
  172000    1.2514149   -6.5142788    80.979665  0.039234334  0.042666756            2 
  173000    1.2180543   -6.5052769    81.673085  0.039341563  0.042649483            5 
  174000    1.2495059   -6.4494028    81.931439  0.039239195  0.042630923            1 
  175000    1.2176708   -6.4420876    82.589857  0.039328503  0.042611197            4 
  176000    1.2319309    -6.450599    83.079443  0.039336857  0.042591592            2 
  177000    1.2130168   -6.4701429    83.259034  0.039199169   0.04257291            2 
  178000    1.2200412   -6.4696864    84.068824  0.039358064  0.042554269            1 
  179000    1.1986444   -6.4731391    84.225759  0.039211247  0.042534703            3 
  180000    1.2241089   -6.4715067    84.714548  0.039219698  0.042513897            3 
  181000    1.2497496    -6.471645    85.416627  0.039326255  0.042495086            1 
  182000    1.2227361   -6.4661809    85.733128  0.039255095  0.042474959            1 
  183000     1.224993   -6.4963866    86.066773   0.03919252  0.042451852            2 
  184000    1.2300971   -6.4544234    86.464124  0.039159476  0.042428806            3 
  185000    1.2214737   -6.5189128     86.95232  0.039167712  0.042404024            3 
  186000    1.2402618   -6.5134306    87.151832   0.03904652  0.042380226            1 
  187000    1.2060168   -6.4953435    87.638165  0.039054441  0.042355927            4 
  188000    1.2076058   -6.4707141      87.9502  0.038985018  0.042331765            4 
  189000    1.2007968   -6.4761934    88.650924  0.039087709   0.04230949            1 
  190000    1.2091208   -6.4950195    89.100762  0.039079281  0.042288885            2 
  191000     1.229445   -6.4857299    90.118314  0.039318636  0.042271814            2 
  192000    1.2034939   -6.4635224    90.704257  0.039368167  0.042256529            5 
  193000    1.2284777   -6.4918097    90.950585  0.039270546  0.042240435            2 
  194000    1.2190095   -6.5134852    91.549125  0.039325225  0.042222525            1 
  195000    1.2118119   -6.4700149    92.034251  0.039330876  0.042202622            2 
  196000    1.1979617   -6.4633119    92.396865  0.039284381  0.042183271            4 
  197000    1.2360986   -6.4859565    92.672706  0.039201652   0.04216575            2 
  198000    1.2171263   -6.4902479    93.252712  0.039247775  0.042144907            3 
  199000    1.2310449   -6.4456909    93.820864  0.039288469  0.042125371            1 
  200000    1.2162393     -6.46612    94.045959  0.039185816   0.04210449            3 
  201000    1.2302672   -6.4759308    94.371608  0.039125874  0.042082786            2 
  202000     1.203523   -6.4532324    95.158225  0.039256693  0.042059505            1 
  203000    1.2027976     -6.51314    95.307725  0.039124682  0.042037543            3 
  204000         1.21   -6.4921194    95.490362  0.039007501  0.042013442            2 
  205000    1.2240895   -6.4308635    96.474208  0.039217158  0.041990481            2 
  206000    1.2177351   -6.4794891    96.104541  0.038877242  0.041967947            3 
  207000    1.2211096    -6.484697    97.040522  0.039066233  0.041942798            3 
  208000    1.2359372   -6.4897743    97.722421  0.039151611  0.041918975            1 
  209000    1.2052881   -6.4335845    98.222796  0.039163794  0.041897191            3 
  210000    1.2355518   -6.4775237    98.269302  0.038995755  0.041874249            2 
  211000    1.2179639   -6.4868539    98.898876  0.039059587   0.04185224            3 
  212000    1.2019937   -6.4808267    99.888183  0.039264223  0.041834418            3 
  213000    1.2130384   -6.4840785    99.797611  0.039044448   0.04181719            2 
  214000    1.2482166   -6.5153758    101.03104  0.039342305  0.041799456            2 
  215000    1.2210753   -6.4840507     101.3033  0.039264845  0.041784498            3 
  216000    1.2119633   -6.5213073    101.55956  0.039181929  0.041768545            1 
  217000    1.2044506   -6.4703984    102.43441  0.039337329  0.041752865            2 
  218000    1.2124335   -6.5006433    102.77533  0.039287204  0.041739128            2 
  219000    1.2205212   -6.5023505      103.408  0.039348553  0.041725381            4 
  220000    1.1836451   -6.5079673    103.48944  0.039200546  0.041711973            2 
  221000    1.2065759   -6.4727124      104.287  0.039323907   0.04169946            4 
  222000    1.2080357   -6.5104479    104.32124  0.039159623  0.041685031            3 
  223000    1.2109278   -6.5182183    105.36978   0.03937585  0.041672322            2 
  224000    1.2282823   -6.4758126    105.44758   0.03922901  0.041659588            1 
  225000    1.2181991   -6.4539246    105.93286  0.039234392  0.041645895            2 
  226000    1.2290051   -6.4732712    106.48347  0.039263815  0.041633089            2 
  227000     1.214541   -6.5012829    107.69245  0.039534673  0.041622978            2 
  228000    1.1995411   -6.4761348    107.89828  0.039436506  0.041614283            2 
  229000    1.2025409   -6.4979563    108.35292  0.039429738  0.041605747            2 
  230000    1.2440341   -6.4751728    108.94881  0.039474206  0.041598112            2 
  231000     1.223448   -6.4977024    109.31877  0.039436786  0.041591501            4 
  232000    1.2318046   -6.4741627    109.69464  0.039401809  0.041583789            1 
  233000    1.1855439   -6.5138705    110.83992  0.039642318  0.041576253            1 
  234000    1.2243582   -6.4635003    111.33742  0.039650078   0.04157219            3 
  235000    1.2249929    -6.525144    111.75616  0.039629843    0.0415687            1 
  236000    1.2289749   -6.5061908    112.11808  0.039589719  0.041566161            3 
  237000    1.1995986   -6.4987752    112.55388  0.039575906  0.041563024            2 
  238000     1.206494   -6.5167724    112.80308  0.039496877  0.041557597            2 
  239000    1.2387663   -6.5232139    113.17094   0.03945988  0.041549283            4 
  240000    1.1849755   -6.5122447    113.69995  0.039479149  0.041539364            2 
  241000    1.2252174   -6.4926703    114.17898  0.039480975  0.041529455            2 
  242000    1.2235063   -6.5010647    114.78879  0.039527818  0.041519457            2 
  243000     1.180396   -6.4886969    114.95293  0.039421443  0.041510157            5 
  244000    1.2165396   -6.4822171    115.70147  0.039515531  0.041501031            2 
  245000    1.2114975   -6.4957369    116.37551  0.039583507  0.041492953            1 
  246000    1.2072554   -6.5109403    116.65372  0.039516843   0.04148565            1 
  247000    1.2087618   -6.4922788    117.34778   0.03959102    0.0414782            3 
  248000    1.2137677   -6.4655213    117.84566  0.039598676  0.041471807            3 
  249000    1.2511269   -6.5239802    118.04995  0.039508015  0.041464494            2 
  250000    1.2067538   -6.5020801    118.56462   0.03952154  0.041456697            2 
  251000    1.2175748   -6.4801289    119.19647   0.03957386  0.041448039            2 
  252000    1.2202557   -6.4968695    119.77598  0.039608461  0.041440991            2 
  253000    1.2105834   -6.4265057    120.50309  0.039691401  0.041436605            3 
  254000    1.2404587   -6.5392077    120.34137  0.039482078  0.041430344            2 
  255000    1.2352743   -6.4831436    120.97327  0.039533748   0.04142283            2 
  256000    1.2280745   -6.4980853    121.08288  0.039415001  0.041415277            2 
  257000    1.2362325   -6.4491224    121.84282  0.039508048  0.041405139            1 
  258000    1.2314468   -6.5151909    122.36656  0.039524082  0.041397935            3 
  259000     1.179804   -6.4989047    123.31006  0.039675052  0.041391251            2 
  260000    1.2043991   -6.5192104    123.58456  0.039610435  0.041386665            4 
  261000    1.2191115   -6.4860082    124.14601  0.039637934  0.041380384            1 
  262000    1.2010217   -6.4532242    125.05026  0.039774257  0.041375762            5 
  263000      1.21931    -6.525666    125.25218  0.039687003  0.041372419            2 
  264000    1.1857078    -6.461842    125.13001  0.039498108  0.041365883            3 
  265000    1.2321401   -6.5172544    125.37152  0.039425005    0.0413566            3 
  266000    1.2005667   -6.5025035    126.31749  0.039573147  0.041348552            2 
  267000    1.1839936   -6.5215364    126.36961  0.039441202  0.041340231            1 
  268000    1.2154219   -6.4969537    127.32892  0.039592327  0.041330971            1 
  269000    1.2022253   -6.4792832    127.08392  0.039369245  0.041320818            1 
  270000    1.2139956   -6.4911305    127.81063  0.039447726  0.041308909            1 
  271000     1.238281   -6.5259864    127.82668  0.039307097  0.041297567            3 
  272000    1.2389568    -6.538438    128.83843  0.039472559  0.041285495            2 
  273000    1.1977717   -6.4590916    129.34618  0.039482961  0.041273832            1 
  274000    1.2022175   -6.5189306    129.09871  0.039263598  0.041260831            2 
  275000    1.2204837    -6.471287    129.64569  0.039286573  0.041248166            1 
  276000    1.2111592   -6.5003286    129.97077  0.039242382  0.041235246            1 
  277000    1.1899041   -6.4965397    130.54693  0.039274045  0.041222433            3 
  278000    1.1916551   -6.4952182    130.87878  0.039232249  0.041209782            3 
  279000    1.2186269   -6.4932709    131.59818  0.039306506  0.041198583            3 
  280000    1.1858934   -6.5422222    131.99374   0.03928385  0.041187179            3 
  281000    1.2049525    -6.505596    132.85704  0.039400071  0.041175593            1 
  282000    1.1983428   -6.5067668    132.99573   0.03930134  0.041165836            3 
  283000    1.2105637   -6.5155882    133.91883  0.039434284   0.04115716            2 
  284000    1.2047962   -6.4987753    134.12468  0.039355835  0.041147113            3 
  285000    1.1729804   -6.4967818      134.834  0.039425145  0.041136187            3 
  286000    1.2011865   -6.5458421    134.59526  0.039217733   0.04112501            1 
  287000    1.1977378   -6.5139602    135.83482  0.039441004  0.041113876            1 
  288000    1.1976234   -6.4981668    135.56799  0.039226847  0.041102965            3 
  289000    1.1859266   -6.4604534    136.28847  0.039298866  0.041090866            2 
  290000    1.1961543   -6.5265101    136.41997  0.039201142  0.041078239            4 
  291000    1.2238797   -6.4851666    136.96344  0.039222061  0.041066231            1 
  292000    1.1972241   -6.5411018    137.09667  0.039125762  0.041054083            3 
  293000    1.2201718   -6.4907272    137.76082  0.039181119  0.041040779            3 
  294000    1.2000915   -6.5060587     138.4195  0.039234551  0.041026629            2 
  295000    1.1915846   -6.4984069    139.36983  0.039370008  0.041017057            2 
  296000    1.1972386   -6.5192929    139.09666  0.039160096   0.04100639            3 
  297000    1.2025819   -6.4995098    140.45363  0.039408988  0.040995788            3 
  298000    1.1925928   -6.5002163    140.78025  0.039368079  0.040986641            4 
  299000    1.2120349   -6.5113651     141.3668   0.03939989  0.040976548            3 
  300000     1.217442   -6.5308157    141.40861  0.039280169  0.040966906            3 
  301000    1.1616325   -6.5177063    142.19236  0.039366657  0.040958587            2 
  302000    1.2023738   -6.5065271      142.643   0.03936065  0.040950092            2 
  303000    1.2221782   -6.5136064    143.21125  0.039387031  0.040942715            3 
  304000    1.2194408   -6.5131659    144.01929  0.039478971  0.040935091            6 
  305000    1.2237493   -6.5212442    144.18624  0.039395147  0.040928029            1 
  306000    1.2015273   -6.5340341      144.429  0.039332518   0.04092056            3 
  307000     1.221718   -6.5155782     145.3009  0.039441069  0.040911932            3 
  308000    1.2016457   -6.5469868    145.52263  0.039373005  0.040903228            3 
  309000    1.1644322    -6.521365    145.68695  0.039289901  0.040894664            2 
  310000    1.2132671   -6.5315624     145.8546  0.039208226  0.040886019            2 
  311000    1.2206137   -6.5240925    146.79596  0.039334395  0.040876585            2 
  312000    1.1988751   -6.5524134    147.48564  0.039392533   0.04086879            2 
  313000    1.2119382     -6.51907    147.88713  0.039373569  0.040860643            2 
  314000    1.1830175   -6.5350047    148.05271  0.039292121  0.040853022            4 
  315000    1.2081584   -6.5235776    148.59128  0.039309863  0.040843825            2 
  316000    1.1811482   -6.5253784    148.70116  0.039214441  0.040833704            1 
  317000    1.2054106   -6.5173031    149.26494  0.039238944  0.040823059            2 
  318000     1.197733    -6.472002    149.97082  0.039300529  0.040813805            1 
  319000    1.2353241   -6.5502339    150.14407  0.039222589  0.040805392            1 
  320000    1.1964531   -6.4824285    151.19281  0.039373128  0.040797681            2 
  321000    1.1788295   -6.5457643    151.47143  0.039322801  0.040789167            1 
  322000      1.21298   -6.5069053    152.14433  0.039374827  0.040780338            2 
  323000    1.1994674   -6.5223493     151.9516  0.039203199  0.040771042            2 
  324000    1.1865508   -6.5430715    152.07497  0.039113932  0.040761913            1 
  325000    1.1810257   -6.4914099    152.91045  0.039207807  0.040750982            3 
  326000    1.1811271   -6.5263342    153.45763  0.039227411  0.040741191            2 
  327000    1.1873506   -6.5001543    153.95503  0.039234206  0.040731725            1 
  328000    1.2003486   -6.5152919    154.43483  0.039236492  0.040722306            2 
  329000    1.1988984   -6.4861399    154.85294  0.039223134  0.040712846            3 
  330000    1.1811493   -6.5199252    155.26257   0.03920772  0.040700932            1 
  331000    1.1931773   -6.5231853    155.58546   0.03917056  0.040689561            1 
  332000      1.18883   -6.5461384    156.29442  0.039230528  0.040679479            2 
  333000    1.2023581   -6.5465758    156.03899  0.039048796  0.040669899            3 
  334000    1.1731849   -6.5391115    156.58449  0.039067985  0.040659474            4 
  335000    1.2066485   -6.5084254    156.81012  0.039007494   0.04064733            1 
  336000    1.1798988   -6.5332528    157.38625  0.039034289   0.04063518            2 
  337000    1.2211987   -6.5746514    157.99561  0.039069141  0.040622483            1 
  338000    1.1859461   -6.5335446    157.92149  0.038935279  0.040610742            3 
  339000     1.197441   -6.5367502    159.08029  0.039105284  0.040598765            2 
  340000    1.1820768   -6.5122652    159.69083  0.039139908  0.040587804            1 
  341000     1.187768   -6.5450332    160.20015  0.039149596  0.040577172            2 
  342000     1.220895   -6.4836348    160.84563  0.039192406  0.040568622            2 
  343000    1.2044309   -6.5735783    161.14843  0.039151708  0.040559954            2 
  344000    1.2159302    -6.497412    161.99965    0.0392441  0.040551877            4 
  345000    1.2058669   -6.4857193    161.85265  0.039094844  0.040543728            2 
  346000    1.2098682   -6.5166217    162.33608  0.039098284  0.040534264            2 
  347000      1.18182   -6.5205145    162.86608  0.039112891  0.040524209            2 
  348000    1.2137948   -6.5176998    163.17777  0.039075135  0.040515197            1 
  349000    1.1867681   -6.5431187     163.7741  0.039105564  0.040506385            3 
  350000    1.1733995   -6.5181945     163.6043  0.038953405  0.040495968            4 
  351000    1.1852861   -6.5149403    164.68372  0.039098699    0.0404855            5 
  352000    1.2102307   -6.4921197    165.61039  0.039207006  0.040475121            3 
  353000    1.1994447   -6.5513356    164.77578  0.038898909  0.040464322            3 
  354000    1.1571733   -6.5697425    165.44313  0.038946123   0.04045294            2 
  355000    1.1993425   -6.5408792    166.38897  0.039058443  0.040441399            4 
  356000    1.2092402   -6.5187676    166.75146  0.039033582  0.040430466            3 
  357000    1.1929989   -6.4940579    166.88914  0.038956381  0.040420711            2 
  358000    1.1751257   -6.5332591    167.58932  0.039010549  0.040409428            1 
  359000    1.2308736   -6.5170303    167.90595  0.038975384  0.040398782            2 
  360000    1.1778229   -6.5708332    167.64925  0.038807697  0.040387497            5 
  361000    1.2091389   -6.5605318    168.36237  0.038864813  0.040375313            1 
  362000    1.2020228   -6.5325891    168.69961  0.038835085  0.040363978            2 
  363000    1.1965561   -6.5356485    168.93631   0.03878244  0.040351591            1 
  364000    1.1970504   -6.5526059    169.83488  0.038881611  0.040339565            3 
  365000     1.201578   -6.5655729    170.28804  0.038878548  0.040328623            2 
  366000    1.1914183   -6.5717359    170.62854   0.03884985  0.040316507            3 
  367000    1.1327073   -6.5376145    171.06593  0.038843308  0.040305358            5 
  368000    1.2097999   -6.5190857    171.54496  0.038846233  0.040294012            3 
  369000    1.1749629   -6.5323914    172.37944  0.038929414  0.040283257            3 
  370000    1.1610809   -6.5374359    173.14141  0.038995813  0.040272674            2 
  371000    1.2022041   -6.5234114    173.52058  0.038975871  0.040261152            3 
  372000    1.1803495   -6.4933944    174.21147  0.039025867  0.040249982            2 
  373000    1.1818602   -6.5399043    173.97205   0.03886775  0.040239915            1 
  374000    1.2092954   -6.5466129    174.79557   0.03894732  0.040229893            2 
  375000    1.1752852   -6.5439887    174.90785  0.038868412  0.040219638            2 
  376000     1.169561   -6.5371418    175.81916  0.038967012  0.040210092            1 
  377000    1.1579359   -6.5318267     176.2401  0.038956698  0.040200845            2 
  378000    1.1939022   -6.5128953     176.7648  0.038969313  0.040190637            5 
  379000    1.1682592   -6.5226971    177.00906  0.038920198   0.04018082            3 
  380000    1.1984076   -6.5414586    177.13419  0.038845217  0.040171209            1 
  381000    1.1634741   -6.5579756    177.96575  0.038925142  0.040161788            2 
  382000    1.2146799   -6.5205795    178.83711  0.039013331  0.040152868            1 
  383000    1.2153851   -6.5349076    179.00155  0.038947248  0.040144387            6 
  384000    1.1965641   -6.5133837    179.64439  0.038985327  0.040135939            1 
  385000    1.1772132   -6.5508546    179.89157  0.038937569   0.04012754            1 
  386000    1.1725467   -6.5574018     180.8032  0.039033506  0.040119702            1 
  387000    1.1853431   -6.5828626    180.84257  0.038941122  0.040111834            2 
  388000    1.2194927    -6.564415    181.39039  0.038958417  0.040104945            2 
  389000    1.1826708   -6.4992909    182.92459  0.039186929  0.040098393            3 
  390000    1.1881509   -6.5469168    182.58769  0.039014463  0.040091941            3 
  391000    1.1698396   -6.5852862    183.17453  0.039039756  0.040085134            1 
  392000    1.1989817   -6.4878062    183.78177  0.039069253  0.040078598            3 
  393000    1.1993193   -6.5488427    183.47804  0.038905436   0.04007125            2 
  394000    1.1668213   -6.5457051    183.36986  0.038783812  0.040063278            3 
  395000    1.1755851   -6.5500395     184.4471   0.03891289   0.04005489            3 
  396000     1.189582   -6.5350568    185.06052  0.038943712  0.040046389            2 
  397000    1.1968804   -6.5409647    185.00643  0.038834263  0.040037797            2 
  398000    1.1597363   -6.5606533    185.68343   0.03887844   0.04002784            2 
  399000    1.1896525   -6.5326381      185.274  0.038695488   0.04001895            3 
  400000    1.1905617   -6.5438291    185.68605  0.038684595  0.040009818            1 
  401000    1.1861416   -6.5393471    186.31598  0.038719031  0.040000467            3 
  402000    1.1616313   -6.5510357    187.43506  0.038854697  0.039990296            2 
  403000    1.1926896   -6.5369625    187.24756  0.038719513  0.039980823            2 
  404000    1.1945307   -6.5425283    187.46827  0.038669197  0.039971249            1 
  405000    1.2337773   -6.5056836    188.03725  0.038690793  0.039960561            1 
  406000    1.1653949    -6.527649    188.51662  0.038693887  0.039950361            1 
  407000    1.1793178   -6.5319037    189.86887  0.038875691  0.039941625            1 
  408000    1.1809773   -6.5729615    189.93479  0.038793871  0.039933205            3 
  409000    1.2034008   -6.5227717    190.50867  0.038815947  0.039924301            3 
  410000    1.1789002   -6.5561215    191.04923  0.038831144  0.039916223            2 
  411000    1.1883026     -6.53846    191.80057  0.038889005  0.039907797            2 
  412000    1.1662786   -6.5306953    191.98107  0.038831123  0.039899159            2 
  413000    1.1976717   -6.5316544    192.32166  0.038805824  0.039890817            4 
  414000    1.1754664   -6.5870954    193.01769  0.038852192  0.039882937            2 
  415000    1.1821435   -6.5401337    193.05695  0.038766455  0.039875021            3 
  416000    1.1878938   -6.5627579    193.59552  0.038781155   0.03986743            1 
  417000    1.1938791   -6.5844814     193.2353  0.038616166  0.039858349            2 
  418000    1.1586881   -6.5537487    194.10174   0.03869652  0.039849191            2 
  419000    1.1730371   -6.5280122    194.80412  0.038743858  0.039839843            2 
  420000    1.1670048   -6.5342419    195.03298   0.03869702  0.039830264            3 
  421000    1.1611213   -6.5802971    196.01932   0.03880034  0.039821264            3 
  422000    1.1927407    -6.539073    195.79076  0.038663263   0.03981287            1 
  423000    1.1707729   -6.5657717    196.65943  0.038742992  0.039803572            4 
  424000    1.1696903   -6.5403712    197.06201  0.038730741  0.039794212            4 
  425000    1.1819952   -6.5799673    197.73953  0.038772457  0.039784621            4 
  426000    1.1838279   -6.5589675    197.60794  0.038655701   0.03977591            2 
  427000    1.1841712   -6.5064529    198.18818   0.03867841   0.03976663            2 
  428000    1.1868052   -6.5664336    198.27377  0.038604707  0.039758181            4 
  429000    1.1761303    -6.559665    198.89133  0.038634679  0.039749208            6 
  430000    1.1868695   -6.5596395    199.81706  0.038724236  0.039740445            2 
  431000    1.1779606   -6.5581388    199.88668   0.03864785  0.039732572            2 
  432000     1.189212   -6.5482751    200.76385  0.038727594  0.039724733            1 
  433000    1.1857371   -6.5059266     200.8946  0.038663319  0.039716422            2 
  434000    1.1888555   -6.5598221    201.55016  0.038700107  0.039707605            2 
  435000    1.1636022   -6.5413481    202.12404  0.038721081  0.039698307            5 
  436000    1.1858606   -6.6051048    201.98191  0.038605105  0.039688388            1 
  437000     1.168913    -6.527434    203.16658  0.038742673  0.039679544            2 
  438000    1.1926902   -6.5528727    203.24914  0.038669927  0.039670884            5 
  439000    1.2005062   -6.5588447    203.20802  0.038574037  0.039662354            5 
  440000    1.1933785   -6.5593459    203.76591  0.038592028  0.039653885            3 
  441000    1.1981863   -6.5527207    204.57862  0.038658091  0.039645858            3 
  442000    1.1854912   -6.5403377    205.11616  0.038671976  0.039638449            2 
  443000    1.1937941   -6.5531096     205.2124  0.038602785  0.039631109            2 
  444000    1.1868383     -6.58367    205.42174  0.038555132   0.03962277            3 
  445000    1.1837782   -6.5490207    207.51279  0.038860074  0.039615653            3 
  446000    1.1824198   -6.5684251    207.58897  0.038787177  0.039609092            2 
  447000    1.1633876   -6.5968356    207.04368  0.038598747  0.039602449            1 
  448000     1.180399   -6.5621627    208.37916  0.038761004  0.039595667            1 
  449000    1.1904173   -6.5473082    208.55888  0.038708033  0.039588819            1 
  450000    1.1484804   -6.5455239    208.85076  0.038676066  0.039582254            3 
  451000    1.1754431   -6.5775042    210.27236  0.038852985  0.039575825            3 
  452000     1.173638   -6.5790593    209.49862  0.038624378  0.039569391            1 
  453000    1.1830407   -6.5253887    210.59429  0.038740671  0.039562762            8 
  454000    1.1593622   -6.5565108    210.79914  0.038692941  0.039554759            2 
  455000    1.1873364   -6.5566201    210.84505   0.03861631  0.039547175            4 
  456000    1.2010431   -6.5612188    210.99863  0.038559692  0.039539667            3 
  457000     1.181969   -6.5926567    211.61445  0.038587609  0.039532765            1 
  458000     1.178889   -6.5424645     211.8095  0.038538846   0.03952555            3 
  459000    1.1600158   -6.5934493    212.44797  0.038570801  0.039518021            2 
  460000    1.1847611   -6.5499956    212.51183  0.038498521  0.039510237            3 
  461000    1.1592696   -6.5605798    213.07161  0.038516198  0.039501448            3 
  462000    1.1938276   -6.5964357    213.69458  0.038545198  0.039492506            5 
  463000     1.175206   -6.5635223    214.57443  0.038620309   0.03948454            2 
  464000     1.180731   -6.5463751    214.57359  0.038536923  0.039477001            3 
  465000    1.2051768    -6.570314    214.93152  0.038518193  0.039469524            2 
  466000    1.1928217   -6.5831005    215.76716  0.038584972  0.039462285            2 
  467000    1.1826277   -6.5380968    216.54839  0.038641755  0.039455744            1 
  468000    1.1892919   -6.5374435    217.40622  0.038711934  0.039449319            3 
  469000    1.1872723   -6.5417138    217.22882  0.038597871  0.039442662            3 
  470000    1.1890647   -6.5540688    217.52056  0.038567475  0.039435804            6 
  471000    1.1723749   -6.5800495    217.45151  0.038473375   0.03942912            2 
  472000    1.1835613   -6.5783558    218.60309  0.038595178   0.03942268            2 
  473000    1.1741836   -6.5581243    219.76311  0.038717954  0.039416103            2 
  474000    1.1818172   -6.5446218    220.18196  0.038709908  0.039410188            1 
  475000    1.1748935   -6.5954689    220.33556  0.038655362  0.039403583            2 
  476000    1.1771849    -6.589131    220.48285  0.038599938  0.039397623            2 
  477000    1.1935208   -6.5809652    221.00003  0.038609369  0.039391741            3 
  478000    1.1630152   -6.5669815    220.83115  0.038499155  0.039385435            2 
  479000    1.2046363   -6.5814382    222.23559  0.038663116  0.039379096            4 
  480000    1.1628302   -6.5333078     222.4829  0.038625504  0.039373593            2 
  481000    1.1836652   -6.5739573    223.24884    0.0386779  0.039367909            2 
  482000    1.1564017   -6.5860594    222.54427  0.038475842  0.039361569            4 
  483000    1.1774078   -6.5586126     224.7809  0.038782074  0.039355747            2 
  484000    1.1885629   -6.5946902    224.40655  0.038637492  0.039350549            3 
  485000    1.1939955   -6.5567645    224.74096  0.038615286  0.039344647            3 
  486000    1.1952557   -6.5762891    225.28819  0.038629661  0.039338371            2 
  487000    1.1788363   -6.5754826    225.36098  0.038562796  0.039332554            2 
  488000    1.1588561   -6.5844546    225.68888  0.038539768  0.039326399            2 
  489000     1.141591    -6.595307    225.67182  0.038458046   0.03931998            2 
  490000     1.200577   -6.5865544    225.62337  0.038371321   0.03931323            1 
  491000    1.1542487   -6.6012927    226.89376  0.038508785  0.039306019            3 
  492000    1.1852104   -6.5632091    227.52031  0.038536637  0.039298999            2 
  493000    1.1648098   -6.5738006    226.83476  0.038342589  0.039292062            6 
  494000    1.1567367   -6.5622262    227.92524  0.038448927   0.03928467            2 
  495000    1.1716337   -6.5394132    228.57965  0.038481422  0.039278081            1 
  496000    1.1685376   -6.5572795    229.44511  0.038549245  0.039272051            1 
  497000    1.1647374   -6.5487265     229.7559  0.038523793  0.039265489            1 
  498000    1.1490024   -6.5802368    229.58629  0.038418053  0.039258913            1 
  499000    1.1617743   -6.5610013    230.53676  0.038499793  0.039251794            1 
  500000    1.1816508   -6.5494174    231.57966   0.03859661  0.039244747            1 
  501000    1.1454147    -6.562845    231.44197  0.038496669   0.03923745            3 
  502000    1.1834308   -6.5621889     231.9158  0.038498639  0.039230175            2 
  503000     1.190479   -6.5787721     231.8779  0.038415822  0.039222584            1 
  504000      1.16247   -6.5765862    232.06942  0.038371266  0.039214676            2 
  505000    1.1571306   -6.5822892    232.21535  0.038319365  0.039207188            2 
  506000    1.1894527   -6.5916231      233.085  0.038386858  0.039199803            4 
  507000    1.1641401   -6.5490067    234.05727  0.038470951  0.039192447            2 
  508000    1.1654297   -6.5855709    234.15797  0.038411741  0.039185231            3 
  509000    1.1794283   -6.6043502    233.49993  0.038228541  0.039177467            2 
  510000     1.181661   -6.5650909     234.9856  0.038396339  0.039170409            1 
  511000    1.1754386   -6.5748713    234.95498  0.038316207  0.039163334            2 
  512000    1.1775533   -6.5667873    236.24025  0.038450562  0.039156369            2 
  513000    1.1650484   -6.5675801    235.99562  0.038335871  0.039149186            2 
  514000    1.1828761   -6.5770064    237.52795  0.038509719  0.039142507            2 
  515000    1.1751387   -6.5570584    237.76708  0.038473638  0.039136002            4 
  516000    1.1702005   -6.5806937    237.26005  0.038317191  0.039129335            5 
  517000    1.1713894   -6.5456019    237.50799  0.038283042  0.039122412            2 
  518000    1.1899581   -6.5536025    239.10208  0.038465585   0.03911539            6 
  519000    1.1706024   -6.5750256    238.07921  0.038227233  0.039107801            2 
  520000    1.1632138   -6.6034717    238.71178  0.038255093  0.039100036            2 
  521000    1.1739892   -6.6054933    239.62938  0.038328436  0.039092378            5 
  522000    1.1879424   -6.5888596    240.17806  0.038342603  0.039084561            2 
  523000    1.1688554   -6.5700902    239.61137  0.038178994  0.039077397            4 
  524000    1.1867393   -6.5854341    240.18826  0.038197879  0.039069637            3 
  525000    1.1657098   -6.5656884    241.69057  0.038363583  0.039061595            1 
  526000    1.1546128   -6.5558355    242.28414  0.038384687  0.039053943            2 
  527000    1.2013824   -6.6037716    240.94332   0.03809983  0.039046498            2 
  528000    1.1481063   -6.5902538    242.15144  0.038218346  0.039039041            2 
  529000    1.1594185   -6.5947872    242.55782  0.038210116  0.039032426            1 
  530000    1.1718378   -6.5737405    243.56339  0.038296131  0.039025871            3 
  531000    1.1834666   -6.5714857    244.19585  0.038323265  0.039019321            2 
  532000    1.1567242   -6.5886126    243.78438  0.038186776   0.03901246            4 
  533000    1.1420096   -6.6023918     244.6061  0.038243605  0.039005769            2 
  534000    1.1731236   -6.5556648    244.99609  0.038232848  0.038998784            2 
  535000    1.1715129    -6.553672    246.75598   0.03843551  0.038992435            1 
  536000    1.1351858   -6.5738083    246.46044  0.038317854  0.038986111            3 
  537000    1.1898501   -6.5641857    246.62463  0.038271979  0.038979842            2 
  538000    1.1864531   -6.5801849    248.13361  0.038434573  0.038974357            3 
  539000    1.1300292   -6.5541937    248.72206  0.038454245  0.038969209            3 
  540000    1.1596897   -6.5853847    248.47519  0.038344936  0.038964274            2 
  541000    1.1529618   -6.5709459    249.94784    0.0385009  0.038958946            2 
  542000    1.1533909   -6.5783022    249.54003  0.038367163  0.038953095            2 
  543000    1.1713297   -6.5977324    249.07691  0.038225432  0.038946854            1 
  544000    1.1567894   -6.5857453    249.63395  0.038240495  0.038941329            2 
  545000    1.1452574   -6.5249907    251.45505  0.038448784  0.038936813            2 
  546000     1.153156   -6.5832092    252.38128  0.038519731  0.038933043            3 
  547000    1.1718369   -6.5996917    252.21023  0.038423253  0.038929213            2 
  548000    1.1447952   -6.5925882    253.53562  0.038554686  0.038925703            1 
  549000    1.1355061   -6.5983618     253.4283   0.03846817   0.03892174            4 
  550000    1.1656826   -6.5479136    253.62175  0.038427538  0.038917948            1 
  551000    1.1486247   -6.5921108    254.34524  0.038467217  0.038914382            3 
  552000    1.1857858   -6.5868492    254.14251  0.038366925  0.038910254            2 
  553000    1.1632763   -6.5762983    254.75536  0.038389897  0.038906782            3 
  554000    1.1467724   -6.5716427    256.43042  0.038572566  0.038903439            1 
  555000     1.157495   -6.5962788    256.75367  0.038551602  0.038900133            1 
  556000    1.1727945    -6.560197    256.81226  0.038491046  0.038896701            1 
  557000    1.1462191   -6.5823188    257.29943  0.038494828  0.038893117            2 
  558000    1.1706192   -6.5949671    257.08802  0.038394268  0.038889578            4 
  559000    1.1533491    -6.549584    258.86484  0.038590465  0.038886689            1 
  560000    1.1575844   -6.6046262    259.40482  0.038601907  0.038883675            2 
  561000    1.1536479   -6.5564035    258.59952  0.038413476  0.038880593            2 
  562000    1.1749966   -6.5984278    259.26053  0.038443139  0.038876622            3 
  563000    1.1678396   -6.6062372    259.51534  0.038412572  0.038872398            3 
  564000    1.1351608   -6.5764668    260.89369  0.038548122  0.038869055            3 
  565000    1.1427495   -6.6203077    260.77662  0.038462629  0.038865502            2 
  566000    1.1555186   -6.6202368    261.48709  0.038499277   0.03886237            3 
  567000    1.1534654   -6.5609659    261.80378  0.038477921  0.038859076            1 
  568000    1.1363533   -6.6037289    262.45817  0.038506186  0.038855264            2 
  569000    1.1689681   -6.5850816    262.40827  0.038431206  0.038851177            2 
  570000    1.1461674   -6.5908383    262.89865  0.038435475  0.038846674            3 
  571000    1.1804987   -6.5938577    261.87619  0.038218942   0.03884228            1 
  572000    1.1449257   -6.6151152    263.10803  0.038331589  0.038837662            3 
  573000    1.1714924   -6.5734239    262.76525  0.038214841  0.038832954            2 
  574000     1.168086   -6.5896683    264.54253  0.038406291  0.038828456            1 
  575000    1.1393728   -6.5747461    264.47353  0.038329497  0.038823866            3 
  576000    1.1408671   -6.6147391    264.35359  0.038245601  0.038818782            4 
  577000    1.1543993   -6.6168949    264.80595   0.03824465  0.038813847            4 
  578000    1.1714248   -6.5747166    266.19542  0.038378809  0.038808444            2 
  579000    1.1625969   -6.5853135    265.88374  0.038267665  0.038803104            3 
  580000    1.1578325   -6.5714908    264.74583  0.038038193   0.03879813            5 
  581000    1.1617361   -6.6190635    266.41584  0.038212255  0.038792251            2 
  582000    1.1806686   -6.6305429    267.60348   0.03831665    0.0387865            1 
  583000    1.1567247   -6.6760055    266.33306  0.038069334  0.038780192            2 
  584000    1.1667137   -6.6146312    267.26707  0.038137425  0.038773978            1 
  585000    1.1726819   -6.5848907    267.97732  0.038173407  0.038768126            4 
  586000    1.1521784   -6.5934467    268.45394  0.038176043  0.038762439            8 
  587000    1.1384695    -6.571572    269.08971  0.038201264  0.038756883            3 
  588000    1.1506216    -6.609035    269.59071  0.038207299  0.038750986            1 
  589000    1.1464929   -6.6282572    269.31961  0.038104077  0.038745312            3 
  590000    1.1658587   -6.6090894    270.01896  0.038138272  0.038739055            2 
  591000    1.1330115   -6.6017303     269.9947  0.038070319  0.038732944            1 
  592000    1.1564795   -6.5854658    270.90372   0.03813397  0.038727397            1 
  593000    1.1448347   -6.5545322     271.5566   0.03816141   0.03872144            3 
  594000    1.1269262   -6.6273715    271.69532  0.038116628   0.03871508            3 
  595000    1.1448797   -6.6203376    271.92137  0.038084226  0.038708906            4 
  596000    1.1731593   -6.6478867    271.74271  0.037995345  0.038703165            3 
  597000    1.1558491   -6.5892133    272.77975  0.038076459  0.038697865            2 
  598000     1.146053   -6.5958263    273.30184   0.03808554  0.038692687            1 
  599000    1.1311823   -6.6208336    274.12563  0.038136565  0.038686845            3 
  600000    1.1673034   -6.5865509    275.59693  0.038277351   0.03868176            2 
  601000     1.161246   -6.6181482    274.88339  0.038114724  0.038676157            3 
  602000    1.1878524   -6.5982599    275.17271   0.03809146  0.038670706            1 
  603000    1.1632657   -6.5682289    276.55568  0.038219414  0.038666072            2 
  604000    1.1535723   -6.5933982    277.63304   0.03830478  0.038661507            2 
  605000    1.1318744   -6.6125321    276.39079  0.038070357  0.038657046            3 
  606000    1.1659834   -6.6294168    277.12415  0.038108382  0.038651997            2 
  607000    1.1667002   -6.6264949    277.09296  0.038041319  0.038646285            1 
  608000    1.1624015   -6.6244487    277.20903  0.037994658  0.038639951            2 
  609000    1.1633708   -6.5770076     278.4801  0.038106199  0.038633728            2 
  610000    1.1450706   -6.6152142    278.28346  0.038016866   0.03862789            1 
  611000    1.1488232   -6.5973048    279.47272  0.038116847  0.038622451            2 
  612000    1.1616093   -6.5952798    279.05179  0.037997248  0.038616883            2 
  613000    1.1627974   -6.6338182    279.79503  0.038036301  0.038611204            1 
  614000    1.1549473    -6.572909    280.71182  0.038098781  0.038605924            2 
  615000    1.1527305   -6.5961058    281.11349  0.038091259  0.038600222            2 
  616000    1.1419004   -6.6034355    281.14036  0.038033057  0.038594336            2 
  617000    1.1396734   -6.6094073    280.73809  0.037917085  0.038588345            8 
  618000    1.1634159   -6.6261564    281.42734   0.03794867  0.038581869            2 
  619000    1.1467246   -6.5743688    281.94791  0.037957446  0.038574971            4 
  620000    1.1382564   -6.5959283    281.98348  0.037901006  0.038568252            1 
  621000    1.1640746   -6.6021926    282.88656  0.037961159  0.038561809            1 
  622000    1.1751271   -6.6059302    283.77465  0.038019112  0.038555098            4 
  623000    1.1439626   -6.6422357    284.05915  0.037996142   0.03854915            2 
  624000    1.1692997   -6.5996372    284.79583  0.038033631  0.038543152            2 
  625000     1.140134   -6.6056627    284.76916  0.037969221  0.038537224            2 
  626000     1.150016   -6.5965507    285.41532  0.037994585  0.038531023            2 
  627000    1.1727086   -6.6165005    285.96547  0.038007107  0.038525149            2 
  628000    1.1420924   -6.6316036    286.20667  0.037978592  0.038519127            6 
  629000    1.1553816   -6.6338373    285.65855  0.037845594  0.038512684            4 
  630000    1.1700913   -6.5895767    286.92724  0.037953339  0.038506683            1 
  631000    1.1321596   -6.6562361     285.9824   0.03776841   0.03850015            2 
  632000    1.1607474   -6.6282085    287.47522  0.037905488  0.038493712            2 
  633000    1.1306092   -6.5882782     287.1482  0.037802553  0.038487632            2 
  634000    1.1502377   -6.5892581    289.20413  0.038013161  0.038481509            4 
  635000    1.1251714   -6.6444619    288.31381  0.037836458  0.038475447            5 
  636000    1.1593164   -6.6262535    288.43629  0.037793015   0.03846949            2 
  637000    1.1435537   -6.6281911     289.2167   0.03783578  0.038463156            3 
  638000    1.1763297    -6.632901    288.89075  0.037733902  0.038456983            2 
  639000    1.1528096   -6.6036567    290.44333  0.037877325  0.038451107            4 
  640000    1.1607186   -6.6537581    290.08155  0.037771036  0.038445064            2 
  641000    1.1428625    -6.580445    291.56699  0.037905224  0.038438974            2 
  642000    1.1292353   -6.6008087    292.22247  0.037931265  0.038432587            3 
  643000    1.1277162   -6.6284278    292.18774  0.037867774  0.038426406            4 
  644000    1.1440631   -6.6559586    292.60064  0.037862402  0.038419787            1 
  645000    1.1483397    -6.670781    291.75233  0.037694099  0.038412994            2 
  646000    1.1491868   -6.6536694    291.59481  0.037615429  0.038406153            2 
  647000    1.1646565   -6.6235365    293.26801  0.037772798  0.038399202            2 
  648000    1.1394398   -6.6312502    294.41979  0.037862628    0.0383929            2 
  649000    1.1635258    -6.613722     294.6236  0.037830457  0.038386673            2 
  650000    1.1602023   -6.5980436    295.62652  0.037900835  0.038380958            3 
  651000    1.1486495   -6.6143241     294.9032  0.037750026  0.038375384            3 
  652000    1.1517394   -6.6194078    296.16564  0.037853482   0.03836953            4 
  653000    1.1342021   -6.6218401    296.46383  0.037833567  0.038364029            2 
  654000    1.1711862    -6.607588    296.72156  0.037808557  0.038358881            2 
  655000    1.1374233   -6.6318138    297.26037  0.037819385    0.0383533            2 
  656000    1.1461621   -6.6139752    296.94251  0.037721355  0.038347815            1 
  657000    1.1701781   -6.6060417    297.89043  0.037784174  0.038342182            2 
  658000    1.1453172   -6.5812901    298.83916  0.037846905  0.038336631            4 
  659000    1.1377638   -6.6020546    299.72541  0.037901544  0.038330799            2 
  660000    1.1506976   -6.6208682    300.64851   0.03796067  0.038325909            2 
  661000     1.144208   -6.6173335    300.54436  0.037890111  0.038320676            2 
  662000    1.1367006    -6.605278    301.46906  0.037949277   0.03831548            2 
  663000    1.1599563   -6.6050068    301.98168   0.03795647  0.038310743            4 
  664000    1.1358091   -6.6028463    300.50898   0.03771448  0.038305759            1 
  665000    1.1358715     -6.63182    302.06708  0.037853018  0.038300312            3 
  666000    1.1346157   -6.6074122    302.63068  0.037866701  0.038295194            1 
  667000    1.1328826   -6.6277883    302.84964  0.037837287  0.038290069            2 
  668000    1.1463412   -6.6140802    303.74368  0.037892176  0.038285213            1 
  669000    1.1589583   -6.6240048    303.49482  0.037804537  0.038280267            2 
  670000     1.152676   -6.6014668    304.49849  0.037872947  0.038275016            1 
  671000    1.1487781   -6.6270009    304.90534  0.037867032  0.038269722            5 
  672000    1.1632935   -6.6050145    304.68375  0.037783203  0.038264419            2 
  673000    1.1712234   -6.6641196    304.36149  0.037687158  0.038258891            3 
  674000    1.1680883   -6.6285088    306.88691  0.037943485  0.038253507            2 
  675000     1.142807   -6.6553955    306.28099  0.037812468  0.038248492            2 
  676000    1.1600118   -6.6020454    306.86226  0.037828187  0.038244131            1 
  677000    1.1550316   -6.6246696    308.63113  0.037990045  0.038239575            2 
  678000    1.1459132   -6.5952281    307.64425  0.037812715  0.038234533            3 
  679000    1.1201533   -6.6062179    308.01176   0.03780213  0.038229866            2 
  680000    1.1419396   -6.6012621    308.28128  0.037779569  0.038224926            3 
  681000    1.1296487   -6.6272149    309.15502   0.03783101  0.038219892            2 
  682000    1.1417916   -6.6053341    310.03081  0.037882553  0.038215272            3 
  683000    1.1406379   -6.6428817    309.69805  0.037786487  0.038210373            4 
  684000    1.1510626   -6.6290699     309.3241  0.037685685  0.038205366            1 
  685000    1.1556685   -6.6194987    310.43749  0.037766118  0.038199813            2 
  686000    1.1426292   -6.6377636      309.572  0.037605928  0.038193808            1 
  687000    1.1563981   -6.6257585    311.24685  0.037754349  0.038187596            2 
  688000    1.1345402   -6.6437159    310.96449  0.037665273  0.038181924            2 
  689000    1.1790916   -6.6151554    311.27264  0.037647876  0.038176023            4 
  690000    1.1414172   -6.6535475    310.00816  0.037440599   0.03816989            4 
  691000    1.1627958   -6.6293302    312.28118  0.037660538  0.038163436            2 
  692000    1.1370543   -6.6181183    312.65472  0.037651098  0.038156648            2 
  693000    1.1517423    -6.647653    312.93733  0.037630752  0.038149927            2 
  694000    1.1257517   -6.6294385    312.45094  0.037518124  0.038143086            2 
  695000    1.1333826   -6.6072321    312.33297  0.037449997   0.03813651            2 
  696000    1.1136711   -6.6071023    312.56714  0.037424226  0.038129812            2 
  697000    1.1446994   -6.6414649    314.39701  0.037589313  0.038123206            3 
  698000    1.1486123    -6.591323    314.35566  0.037530523  0.038116448            1 
  699000    1.1351339   -6.6639336    314.33041  0.037473821  0.038110156            1 
  700000    1.1344494   -6.6472191    315.01276  0.037501519  0.038102769            2 
  701000    1.1361716   -6.6470621    314.41102  0.037376489  0.038095425            2 
  702000    1.1350143   -6.6055849    315.98108  0.037509624  0.038088189            1 
  703000    1.1384156   -6.6304234    316.12054  0.037472799  0.038080942            2 
  704000    1.1466694   -6.6447571    315.85425  0.037388051  0.038074063            2 
  705000    1.1417386   -6.6377608    316.52583  0.037414401  0.038066999            2 
  706000    1.1610797   -6.6165321    317.43743  0.037469008  0.038059971            1 
  707000    1.1349313   -6.6247725    318.95836   0.03759528  0.038053227            2 
  708000    1.1399474   -6.6242037     319.1415  0.037563735   0.03804609            2 
  709000    1.1449911   -6.6372363    317.66355  0.037337042  0.038039185            1 
  710000    1.1690848   -6.6359703    318.54814   0.03738828  0.038032141            4 
  711000     1.155728   -6.6612178    318.38612  0.037316705  0.038024421            5 
  712000    1.1421903   -6.6427122    320.55261  0.037517862  0.038017394            2 
  713000    1.1247018   -6.6661441    319.12286  0.037298137  0.038010501            2 
  714000      1.14236   -6.6411329    319.57395  0.037298547  0.038003194            2 
  715000    1.1406902    -6.590451    320.42947  0.037346092  0.037995807            2 
  716000    1.1496971   -6.6375827     321.2072  0.037384451  0.037988153            3 
  717000    1.1469579   -6.6516873    320.92378   0.03729937  0.037980112            3 
  718000    1.1554379   -6.6257111    321.34815  0.037296674  0.037972318            3 
  719000    1.1473124   -6.6363463    321.50803  0.037263332  0.037964477            3 
  720000    1.1671249   -6.6253494    322.38093  0.037312607  0.037956578            3 
  721000    1.1507015   -6.6657405    322.31693  0.037253459  0.037948685            4 
  722000    1.1310757   -6.6403492    322.03252  0.037169035  0.037940303            2 
  723000    1.1298759   -6.6450634    323.54897  0.037292412  0.037932127            2 
  724000    1.1508022   -6.6589302    323.03991   0.03718231  0.037924048            2 
  725000    1.1217851   -6.6875936     324.7203  0.037324172  0.037915859            1 
  726000    1.1248979   -6.6447112    324.54846  0.037253037  0.037908348            2 
  727000    1.1295767   -6.6231031    325.74227  0.037338636  0.037901026            1 
  728000    1.1430865   -6.6193318    324.95372  0.037197084  0.037893335            3 
  729000     1.149994   -6.6373998    326.51267  0.037324264  0.037885878            2 
  730000    1.1421055   -6.6336886    326.16414   0.03723335  0.037878834            3 
  731000     1.138025   -6.6348516    327.61549  0.037347866  0.037871776            2 
  732000    1.1362937   -6.6578709    327.10957   0.03723925  0.037864637            2 
  733000    1.1491653   -6.6450953     328.3398  0.037328308   0.03785756            4 
  734000    1.1471993   -6.6591818    328.03926   0.03724333  0.037850202            1 
  735000    1.1654531   -6.6358185    328.16535  0.037206956  0.037842942            1 
  736000    1.1282842   -6.6137752    328.87192  0.037236404  0.037836001            2 
  737000    1.1639117   -6.6804572    328.61101  0.037156378  0.037828832            2 
  738000    1.1386173   -6.6184923       330.63  0.037334011  0.037821437            2 
  739000     1.152065   -6.6139636    330.10181   0.03722393  0.037814497            3 
  740000    1.1323824   -6.6312311    330.75428  0.037247103  0.037807406            3 
  741000    1.1124832     -6.66455    329.71855  0.037080359  0.037799523            2 
  742000    1.1697014   -6.6359822    330.93794  0.037167334  0.037791885            2 
  743000    1.1560174   -6.6195452     331.2456  0.037151817  0.037784139            4 
  744000    1.1465986   -6.6569763     332.0574  0.037192809  0.037776512            2 
  745000    1.1318376   -6.6098155     332.8498  0.037231521  0.037769093            2 
  746000    1.1300536   -6.6701023     332.2587  0.037115583  0.037761171            3 
  747000     1.109402   -6.6324812    331.65048  0.036998045  0.037753155            2 
  748000    1.1344952   -6.6694861    331.57397  0.036940059  0.037745021            3 
  749000    1.1203493   -6.6461102    332.84549  0.037032208  0.037736799            3 
  750000    1.1368136   -6.6367825    332.36346  0.036929274  0.037728767            2 
  751000    1.1195557   -6.6425248    333.38193  0.036993113  0.037720688            2 
  752000    1.1226062   -6.6783913    333.81716   0.03699215  0.037712643            1 
  753000    1.1365782   -6.6415624    333.86691  0.036948529  0.037704217            3 
  754000     1.135655   -6.6734092    334.88164  0.037011675   0.03769569            2 
  755000    1.1330593   -6.6403184    335.50883  0.037031879  0.037687146            3 
  756000    1.1112215   -6.6575938    335.59847  0.036992777  0.037678772            2 
  757000    1.1034444   -6.6240546    335.61596  0.036945834  0.037670598            3 
  758000    1.1131975   -6.6445156    334.34906  0.036757813  0.037662134            2 
  759000    1.1018199   -6.6730678    335.19668  0.036802446  0.037653453            4 
  760000    1.1474452   -6.6360695    335.95038  0.036836664  0.037644533            2 
  761000    1.1106951   -6.6378692    337.04846  0.036908504   0.03763549            2 
  762000     1.157962   -6.6695873     335.7526   0.03671835  0.037626548            2 
  763000     1.157496   -6.6144797    336.37084   0.03673775  0.037617557            2 
  764000    1.0970666   -6.6572873    337.06908  0.036765825  0.037608096            2 
  765000    1.1467457   -6.6110581    338.63521  0.036888367  0.037598943            3 
  766000    1.1378105   -6.6356116    338.95137  0.036874605   0.03759005            3 
  767000    1.1325801   -6.6461331    339.32311  0.036866918  0.037581767            4 
  768000    1.1388331   -6.6514613    339.33256  0.036819939  0.037573236            3 
  769000    1.1276567   -6.6491873    339.53483  0.036793978  0.037564686            2 
  770000    1.1174587   -6.6701088    340.67624  0.036869723  0.037556069            1 
  771000    1.1216389   -6.6590877    340.38402  0.036790318  0.037547424            1 
  772000    1.1096481   -6.6880415    342.15662  0.036934004  0.037539268            1 
  773000    1.1412347   -6.6387582    342.31186   0.03690296   0.03753133            2 
  774000    1.1192793   -6.6446949    343.09913  0.036940044  0.037523445            2 
  775000    1.1257647   -6.6840548    342.09856  0.036784791    0.0375154            5 
  776000    1.1130907   -6.6722622     342.6292  0.036794373  0.037507132            4 
  777000     1.122033   -6.6604765    343.23231  0.036811703  0.037498842            3 
  778000    1.1188547   -6.7147764    342.00861  0.036633313  0.037490241            3 
  779000     1.133711   -6.6947187    342.97297  0.036689449  0.037481594            2 
  780000    1.1291982   -6.6780245     343.6885  0.036718857  0.037472973            3 
  781000    1.1425428   -6.6643284    346.18845  0.036938588  0.037464869            2 
  782000    1.1234401   -6.6566511    345.18517  0.036784439  0.037456917            4 
  783000    1.1184399   -6.6352897    345.73856  0.036796356  0.037448877            4 
  784000    1.1573325   -6.6347823    345.76509  0.036752241  0.037440764            2 
  785000    1.1274167   -6.6769557    346.03782  0.036734376   0.03743265            1 
  786000    1.0987984   -6.6561558    345.74943  0.036657064  0.037424476            4 
  787000    1.1204549   -6.6582245    347.19683  0.036763747  0.037416369            2 
  788000    1.1320077   -6.6474724    346.65371  0.036659657  0.037408252            2 
  789000    1.1234296   -6.6755459    347.59355  0.036712457  0.037400083            2 
  790000    1.1203213   -6.6917215     346.7106  0.036572848  0.037392044            2 
  791000    1.1426774   -6.6760823    348.43363  0.036708136  0.037383764            2 
  792000    1.1039473   -6.6690199    348.95649  0.036716803  0.037375744            1 
  793000     1.152359   -6.6651562    349.31705  0.036708392  0.037367392            2 
  794000    1.1439087   -6.6897763     350.6018  0.036796999  0.037359157            1 
  795000    1.1218753   -6.6179338    351.64759  0.036860335  0.037351173            2 
  796000    1.1114333   -6.6603775    349.96196  0.036637558   0.03734304            2 
  797000    1.1122787   -6.6665188    350.10061  0.036606086  0.037333965            3 
  798000     1.126855   -6.6553793    350.41701  0.036593255  0.037324968            2 
  799000    1.1056262   -6.6399319    351.16212  0.036625169  0.037315953            2 
  800000    1.1044283   -6.6403486    351.21339  0.036584728  0.037307054            3 
  801000       1.1193   -6.6561743    351.72327    0.0365921  0.037297718            1 
  802000    1.1438431   -6.6726498    350.77313  0.036447748  0.037288878            3 
  803000     1.120742   -6.6666098    352.05854  0.036535755  0.037279599            1 
  804000    1.1085784   -6.7000195    352.16144  0.036500978  0.037270465            3 
  805000    1.1071303   -6.6701841     353.0499  0.036547609  0.037261246            2 
  806000    1.1434551   -6.7027297    352.67413  0.036463413  0.037251884            2 
  807000    1.1110871   -6.6527874    353.64801  0.036518795  0.037242811            2 
  808000    1.1421123   -6.6577931    353.42479  0.036450577  0.037233609            1 
  809000    1.1395831   -6.6842485    354.12057  0.036477191  0.037224257            4 
  810000    1.1434973   -6.6333352    353.65036  0.036383782  0.037214789            6 
  811000    1.1237562   -6.6651535     353.8894  0.036363481  0.037205473            3 
  812000      1.10858   -6.6028482     355.6164  0.036495936  0.037196415            1 
  813000    1.1216569   -6.6622095    355.82658  0.036472589  0.037187341            3 
  814000     1.120867   -6.6903693    355.57956  0.036402493  0.037178203            4 
  815000    1.1193458   -6.7115049    356.30984  0.036432499  0.037169201            6 
  816000    1.1324182   -6.6743194    356.22099  0.036378778  0.037160086            3 
  817000    1.0985576   -6.6726134    357.36645  0.036451086  0.037150921            3 
  818000     1.130661   -6.6833533    355.86472  0.036253537  0.037141751            2 
  819000    1.1310276   -6.6129175    357.95517  0.036421975   0.03713276            2 
  820000    1.1489873   -6.6797111    356.69026   0.03624901  0.037123671            3 
  821000     1.145074   -6.6754943    358.98205  0.036437479  0.037114916            1 
  822000    1.1229122   -6.6771873    359.03206  0.036398222  0.037106262            2 
  823000    1.1308651   -6.6985778    358.91798  0.036342444  0.037097445            2 
  824000    1.0948108   -6.6380477    359.93082   0.03640077  0.037088534            1 
  825000    1.1152183   -6.6629762    360.18003  0.036381821  0.037079642            3 
  826000    1.1303061    -6.689774     360.1526  0.036335008  0.037070892            1 
  827000    1.1142015   -6.6853191    361.34794  0.036411521  0.037062118            2 
  828000    1.0965361   -6.6546473     362.2817  0.036461524   0.03705353            5 
  829000    1.1250249   -6.6578603     362.5469    0.0364442  0.037045215            1 
  830000    1.1105087   -6.6467364    362.04589  0.036349989  0.037036886            3 
  831000    1.1062418    -6.690974    361.94538  0.036296168   0.03702829            3 
  832000    1.0818943   -6.6808717    362.38979  0.036297054  0.037019758            3 
  833000     1.101281   -6.6611918    362.33137  0.036247636  0.037011222            3 
  834000    1.0758964    -6.676221    364.05014  0.036375913  0.037002505            3 
  835000    1.1099309   -6.6885888     363.9013  0.036317495  0.036993726            1 
  836000    1.1089465   -6.6737631    364.00607  0.036284497  0.036985209            4 
  837000    1.1238068   -6.6535101    364.95698   0.03633582  0.036976776            2 
  838000    1.1324733   -6.6658921     365.2477  0.036321371  0.036968014            2 
  839000    1.1397583   -6.6726555    365.09966  0.036263375  0.036959702            1 
  840000    1.1069244   -6.6604422    364.94734  0.036205093  0.036951322            3 
  841000    1.1210387   -6.6871272    366.98048  0.036363504  0.036943046            2 
  842000     1.129445   -6.6946876    365.89238  0.036212626  0.036935016            4 
  843000    1.1152853   -6.6985632    367.49214  0.036327811  0.036926883            2 
  844000    1.1005944   -6.6831074    367.86513  0.036321596  0.036918968            3 
  845000    1.1194085    -6.678525    369.29924  0.036420044  0.036911167            1 
  846000    1.1159627    -6.668825     368.9934  0.036346868  0.036903392            1 
  847000    1.1021506   -6.7299921    369.45421  0.036349292  0.036895991            2 
  848000    1.1122417   -6.6800613    371.39107  0.036496764  0.036888455            3 
  849000    1.1375383   -6.6720021    369.79552  0.036297165  0.036881152            4 
  850000    1.1126363   -6.6876836    370.97254  0.036369857  0.036873558            1 
  851000    1.1176974   -6.6947086    371.46046  0.036374898  0.036866129            1 
  852000    1.0987212   -6.6927434    371.07357  0.036294363  0.036858866            2 
  853000    1.1329571   -6.6866362    371.77939  0.036320769  0.036851564            3 
  854000    1.1209237   -6.6994732    373.31019  0.036427614  0.036843917            2 
  855000     1.131547   -6.6758677    373.12023  0.036366494  0.036836172            1 
  856000    1.0902364   -6.6494096    373.18391  0.036330209  0.036828694            3 
  857000    1.1165629   -6.6824498    372.76534  0.036247116  0.036820665            3 
  858000    1.1169744   -6.6788306    373.48146  0.036274423  0.036812715            2 
  859000    1.1180506   -6.7186092    372.10035   0.03609821   0.03680464            4 
  860000    1.1340053   -6.6368028    373.96063  0.036236495  0.036796429            2 
  861000    1.1303669   -6.6705222    374.35799  0.036232868  0.036788273            3 
  862000    1.1093302   -6.6336056    374.59304  0.036213558  0.036780185            1 
  863000    1.1072246   -6.6693508    374.65562  0.036177638  0.036772037            3 
  864000     1.119641    -6.668653    375.63113  0.036229855   0.03676411            2 
  865000    1.1342688   -6.6758522    375.80282  0.036204511  0.036755997            4 
  866000    1.1234412   -6.7106288     375.1507  0.036099952  0.036747597            3 
  867000    1.1211178   -6.7207664    375.64824  0.036106136  0.036739472            2 
  868000    1.1144812   -6.6543874    374.97824  0.036000215  0.036731144            3 
  869000    1.1026731   -6.7159863    376.26389  0.036082076  0.036722722            3 
  870000    1.1104386   -6.6926574    377.32725  0.036142457  0.036714404            2 
  871000    1.1286601   -6.7021289    376.62548   0.03603382  0.036705932            1 
  872000    1.1297916   -6.6931031    377.28927  0.036055932  0.036697114            3 
  873000    1.1138661   -6.7024742     377.8698  0.036070045  0.036688622            4 
  874000    1.1142469   -6.6765434    378.69245  0.036107213  0.036680072            2 
  875000    1.0969383   -6.6799546    379.38414  0.036131823  0.036671894            4 
  876000    1.0959878   -6.6487858     379.9321  0.036142703  0.036663638            3 
  877000    1.1136649   -6.6965067    380.10378  0.036117805  0.036655487            2 
  878000    1.0991905   -6.6951253    379.30416  0.036000775  0.036647358            1 
  879000    1.1056993   -6.6644032    379.96086  0.036022077  0.036639089            2 
  880000    1.1351102   -6.6557619    380.75558  0.036056399  0.036630788            3 
  881000    1.1124446   -6.7053259    379.99101  0.035943153  0.036622577            3 
  882000    1.1224758   -6.6736253    380.68245  0.035967729   0.03661434            6 
  883000    1.1175933   -6.6984748    381.61581  0.036015082  0.036606207            3 
  884000    1.1306535   -6.6971283    381.61436  0.035974204  0.036597665            9 
  885000    1.1425936    -6.672389    381.91822  0.035962167  0.036589409            1 
  886000    1.0907473   -6.6882985    382.32383  0.035959728  0.036581048            4 
  887000    1.0911819   -6.6854776    383.31006  0.036011843  0.036572585            3 
  888000    1.0933965   -6.7019964     382.3937  0.035885295  0.036564056            2 
  889000    1.1291719   -6.7022588    381.75343  0.035784911  0.036555292            3 
  890000    1.1141156   -6.6967278    383.10842  0.035871575  0.036546719            2 
  891000    1.1167101   -6.6838383    383.08123  0.035828772  0.036537912            3 
  892000    1.1126678   -6.6886755    384.44482  0.035915996  0.036529283            2 
  893000    1.1253459   -6.6807787    385.43775  0.035968435  0.036520907            3 
  894000    1.1116476   -6.7064043    385.17151  0.035903385  0.036512398            4 
  895000    1.1109085   -6.7177071    386.63582   0.03599961   0.03650403            3 
  896000    1.1289021   -6.6956458    386.27176  0.035925573  0.036495586            3 
  897000    1.1113031   -6.6884526    386.17339  0.035876384  0.036487282            4 
  898000    1.1055416   -6.6972022    386.66755   0.03588229   0.03647913            5 
  899000    1.0886502   -6.6674134     387.8305  0.035950176  0.036471135            3 
  900000    1.1304739   -6.7087321    386.67005  0.035802783    0.0364626            1 
  901000     1.099589   -6.7185019    385.27816   0.03563431  0.036453906            2 
  902000    1.0941861   -6.7458808    387.78168  0.035826097  0.036444836            4 
  903000    1.1047666   -6.6657116    389.37887  0.035933819  0.036436037            2 
  904000    1.0940792   -6.6800336     388.6757  0.035829249  0.036427506            3 
  905000    1.0970785   -6.6910804    389.26727  0.035844131   0.03641874            4 
  906000    1.1041289   -6.7238773    389.08109  0.035787444  0.036409788            1 
  907000    1.0919607   -6.7304111    387.93941  0.035643092  0.036400974            2 
  908000    1.1019295   -6.7092356    389.99782  0.035792751   0.03639193            1 
  909000    1.1045202    -6.754318    388.98861  0.035660856  0.036383042            2 
  910000     1.091953   -6.7057146     390.0956  0.035723041  0.036374141            2 
  911000     1.079686   -6.7003359    390.75515  0.035744159  0.036365395            2 
  912000    1.0944365   -6.7623843    389.35729  0.035577238  0.036356104            3 
  913000    1.0930229   -6.7286434    391.96155  0.035775972  0.036347056            3 
  914000     1.102024   -6.6491908    393.16207  0.035846286  0.036338295            3 
  915000    1.1363436   -6.7162385    392.56169   0.03575243  0.036329666            4 
  916000    1.1242114   -6.6926543    393.13723  0.035765759  0.036321293            3 
  917000    1.1110787   -6.6650816    393.91757  0.035797671  0.036313091            3 
  918000    1.1115369   -6.7177588    393.52192   0.03572276  0.036304565            2 
  919000    1.0847067   -6.6835872    394.76553  0.035796656  0.036296238            2 
  920000    1.1035356   -6.7219976     394.1268  0.035699891  0.036287732            4 
  921000    1.1035738   -6.6816378    394.75973  0.035718397  0.036279326            2 
  922000    1.1168769   -6.6802353    394.88327  0.035690823  0.036270771            5 
  923000     1.098333   -6.7067296    395.35164  0.035694442  0.036262523            3 
  924000    1.0864992    -6.710785    395.61639  0.035679689  0.036254138            3 
  925000    1.1070257   -6.6600828    396.99679  0.035765477  0.036245702            2 
  926000    1.0928624   -6.7252006    395.90922  0.035628979  0.036237531            3 
  927000    1.0930864   -6.7116955    396.46088  0.035640136  0.036229351            4 
  928000    1.0984035   -6.6985249    397.50712  0.035695682  0.036221076            3 
  929000    1.0753293   -6.7100235    396.97352  0.035609394  0.036213203            6 
  930000    1.1233783   -6.7087891    399.73853  0.035818864  0.036205285            3 
  931000    1.0736874   -6.7276325    399.47681  0.035756965  0.036197469            2 
  932000    1.0893351   -6.7218318     400.1694  0.035780526  0.036189793            3 
  933000    1.0683301   -6.7185086    400.13454  0.035739062  0.036182251            2 
  934000    1.1252294   -6.6814186    399.71152  0.035663055  0.036174184            2 
  935000    1.1172249   -6.7358212    401.14922   0.03575305  0.036166168            2 
  936000    1.0933756   -6.7271891    400.35711  0.035644329  0.036158019            2 
  937000    1.0847395   -6.7247733    401.21525  0.035682609  0.036150177            6 
  938000    1.1078623   -6.7039197    401.63402  0.035681772  0.036142171            4 
  939000    1.1043549   -6.7340181    401.94109  0.035671023  0.036134113            3 
  940000    1.1214323   -6.7097843    401.86034  0.035625917  0.036126135            4 
  941000    1.0969405   -6.6896784    403.58227  0.035740548  0.036118503            2 
  942000    1.1097426   -6.7146866    403.03043  0.035653789   0.03611052            1 
  943000    1.0989309   -6.7097852    401.26138  0.035459648  0.036102741            2 
  944000    1.1039735   -6.7098382    402.51128  0.035532422  0.036094599            2 
  945000    1.1137193   -6.7227289    404.26142  0.035649155  0.036086652            3 
  946000    1.1034751   -6.7200011    405.87299  0.035753435  0.036078577            2 
  947000    1.0866887   -6.7237012    403.75477  0.035529283  0.036070657            8 
  948000    1.0945629   -6.7156533    404.10913  0.035522954   0.03606259            5 
  949000    1.0996482   -6.7510583    402.49651  0.035343916   0.03605417            3 
  950000    1.0833874   -6.7182535    404.00325  0.035438882  0.036045883            4 
  951000    1.0958511   -6.7027285    405.05956  0.035494178   0.03603767            1 
  952000    1.1083564   -6.7304021    405.49443   0.03549496  0.036029392            4 
  953000    1.1049974   -6.7321585    406.42938   0.03553947  0.036021204            5 
  954000    1.1161874   -6.7380801     406.5843   0.03551575  0.036013261            3 
  955000    1.1163725   -6.7159281    406.52774  0.035473625  0.036005268            4 
  956000     1.104132   -6.6697581    407.92739  0.035558524  0.035997456            2 
  957000    1.1082568   -6.6786117    406.87657  0.035429865  0.035989668            2 
  958000    1.1206268   -6.6927635    406.97009  0.035401017  0.035981435            3 
  959000    1.1172997   -6.7650648    407.58281  0.035417345   0.03597333            4 
  960000    1.0888464    -6.749935    407.95698  0.035412933  0.035965123            2 
  961000    1.1023364   -6.7301815    409.01649  0.035467958  0.035956797            4 
  962000     1.111073   -6.6875552    408.88349  0.035419568  0.035948422            9 
  963000    1.0769696   -6.7179155    409.23716  0.035413392  0.035940038            2 
  964000    1.0885599   -6.7255491    409.04414   0.03535997  0.035931845            2 
  965000    1.1010574   -6.6844997     410.3372  0.035434991  0.035923411            3 
  966000    1.0739267    -6.750811    409.88479  0.035359281  0.035915147            2 
  967000    1.1132114   -6.7456096    409.50352  0.035289859  0.035906755            2 
  968000    1.0919105   -6.7290284    411.38844  0.035415672  0.035898745            3 
  969000    1.1286608   -6.7515975    411.18216  0.035361382  0.035890663            5 
  970000    1.0671906    -6.689155    412.92027   0.03547425  0.035882793            2 
  971000    1.1000696   -6.7101291    412.10674  0.035367897  0.035874768            2 
  972000    1.0961763    -6.699566     412.5754   0.03537169  0.035866866            3 
  973000    1.0814918   -6.7472211    413.09547  0.035379879  0.035858906            4 
  974000    1.0650537   -6.7373314    411.50126  0.035207158  0.035850752            1 
  975000    1.1025805   -6.7255149    413.55678  0.035346734  0.035842765            5 
  976000    1.1120069   -6.6965267    414.50951  0.035391864  0.035834773            3 
  977000    1.0949416   -6.7166773    413.73786  0.035289821  0.035826705            2 
  978000    1.1007783   -6.7141037    415.51037  0.035404769  0.035818726            5 
  979000    1.0731046    -6.695123    416.72111  0.035471664  0.035810751            2 
  980000    1.1001906   -6.7275991    415.00323   0.03528939  0.035803159            4 
  981000    1.1044319   -6.7330078    415.78527  0.035319849  0.035795506            3 
  982000    1.0920574   -6.7561813    415.99176  0.035301405  0.035787973            5 
  983000    1.0951578    -6.689669      418.032  0.035438453  0.035780603            2 
  984000    1.0991956   -6.7232479      418.657  0.035455369  0.035773049            1 
  985000    1.0923029   -6.7240686    418.94004   0.03544332  0.035765537            1 
  986000    1.0881444   -6.7035031    418.46916  0.035367576  0.035758088            3 
  987000    1.0731015   -6.7302113    418.42265  0.035327816  0.035750143            2 
  988000    1.1090492   -6.7206663    418.90037  0.035332353  0.035742363            2 
  989000    1.0992685   -6.7664799      418.718   0.03528126  0.035734589            3 
  990000    1.0844818   -6.7120746    419.25079   0.03529047  0.035726793            2 
  991000    1.1074086   -6.6807741    420.79357  0.035384592  0.035719257            2 
  992000    1.1251268   -6.7334876    419.68043  0.035255413  0.035711759            2 
  993000    1.0774816   -6.7145666    419.84162  0.035233436  0.035703873            5 
  994000    1.0636977   -6.7209065     420.6594  0.035266549  0.035696002            4 
  995000    1.0775994   -6.7444889    420.60168  0.035226272  0.035687973            2 
  996000    1.0813543   -6.7249279    421.70735  0.035283413  0.035680249            4 
  997000    1.1156285   -6.7440593    420.44679   0.03514266  0.035672479            5 
  998000     1.109879   -6.6800363    422.69626  0.035295279  0.035664441            4 
  999000    1.0951772   -6.7195252     421.7689  0.035182591  0.035656363            6 
 1000000    1.0751315   -6.7641016    420.08683  0.035007236  0.035648014            3 
 1001000    1.0996132   -6.7288769    422.72247  0.035191681   0.03563951            3 
 1002000     1.082616   -6.7610337    421.67356  0.035069325  0.035631338            2 
 1003000    1.0833867    -6.698358    422.21701  0.035079513  0.035622926            2 
 1004000    1.0906549   -6.7179077    423.56309  0.035156299  0.035614739            2 
 1005000    1.0914488   -6.7184893    423.01984  0.035076272   0.03560664            2 
 1006000    1.0689168   -6.7116784    424.75618  0.035185237  0.035598353            1 
 1007000    1.0924476   -6.7231927    423.01673  0.035006349  0.035590071            2 
 1008000    1.0708218   -6.7160667     424.8625  0.035124214  0.035581901            5 
 1009000    1.0755431   -6.7498698    425.16264  0.035114192  0.035573719            2 
 1010000     1.106922   -6.7371864    425.90882  0.035140992   0.03556554            2 
 1011000    1.0912233   -6.7192672    425.32099   0.03505778  0.035557467            5 
 1012000    1.0959132   -6.7496931    425.51758  0.035039327  0.035549457            5 
 1013000    1.0841936   -6.7626677    425.53873  0.035006477  0.035541355            1 
 1014000    1.1096966   -6.6941975    428.49624   0.03521501  0.035533218            5 
 1015000    1.0941573   -6.7319857    427.61926  0.035108314  0.035525303            5 
 1016000     1.075177   -6.7132489    427.93841  0.035099935  0.035517508            3 
 1017000    1.0712983    -6.727012    427.47514  0.035027461  0.035509534            1 
 1018000    1.0922993   -6.7313058    427.91406  0.035028983  0.035501514            6 
 1019000    1.1124955   -6.7396816    427.46024  0.034957494  0.035493405            2 
 1020000    1.0718471   -6.7384864    428.76237  0.035029606  0.035485249            1 
 1021000    1.0820524   -6.7058993    428.84854  0.035002329  0.035477106            4 
 1022000    1.1031433   -6.7667369    428.00884  0.034899612  0.035468714            5 
 1023000    1.0869229   -6.6815837    430.48581   0.03506727  0.035460737            2 
 1024000     1.099835   -6.7292626    428.64198  0.034882973  0.035452603            4 
 1025000    1.1012837   -6.7261317    429.52735  0.034920923  0.035444667            2 
 1026000    1.1186903   -6.7691828    430.51869  0.034967405  0.035436627            2 
 1027000    1.1178071   -6.7114629     431.4154  0.035006118  0.035428642            2 
 1028000    1.0988735   -6.7436284     430.6761  0.034912135  0.035420854            2 
 1029000     1.094294   -6.7213658    431.76251   0.03496619  0.035413224            3 
 1030000    1.0860328   -6.7314328    434.36976  0.035143184  0.035405626            3 
 1031000    1.0877554   -6.7005976    432.98924  0.034997514  0.035397965            2 
 1032000    1.0755394   -6.7335705    433.26585  0.034985937  0.035390085            2 
 1033000    1.1059842    -6.779455    432.10917  0.034858758   0.03538201            2 
 1034000    1.0806328   -6.7275222    432.74752  0.034876493  0.035374141            2 
 1035000    1.0831207   -6.7378163    433.44271  0.034898769  0.035366125            7 
 1036000    1.0980333   -6.7311802    434.76512  0.034971455  0.035358299            4 
 1037000    1.1038598   -6.7371933    433.54267  0.034839494  0.035350109            2 
 1038000    1.1104685   -6.7309757      434.045  0.034846259  0.035341939            5 
 1039000    1.0695729   -6.7204808    434.33604  0.034836063  0.035333874            1 
 1040000    1.0764421   -6.7213731     434.5865  0.034822636  0.035325682            2 
 1041000    1.0706547   -6.7438447    434.70394  0.034798587  0.035317688            3 
 1042000    1.1231837   -6.7456251    435.41347  0.034821935  0.035309667            3 
 1043000    1.0860067   -6.7258748    436.33129   0.03486188  0.035301669            2 
 1044000    1.0835728   -6.6838538    438.78576  0.035024406  0.035293779            2 
 1045000    1.0622047   -6.7196997    437.39689  0.034880134  0.035286135            2 
 1046000    1.0671791   -6.7334473    437.99282  0.034894265   0.03527839            2 
 1047000    1.0972452    -6.791843    437.08381  0.034788587  0.035270569            5 
 1048000     1.064742   -6.7369644    438.42004  0.034861645  0.035262572            3 
 1049000    1.0650644   -6.7057316    438.69888  0.034850562  0.035254856            5 
 1050000    1.0934837   -6.7876078    438.90158  0.034833458  0.035247039            1 
 1051000    1.0778195   -6.7053584    440.08642  0.034894261   0.03523929            3 
 1052000    1.0891372   -6.7587082    440.50565    0.0348943  0.035231364            2 
 1053000    1.0995236   -6.7237474    439.52392   0.03478347  0.035223696            2 
 1054000    1.0789438    -6.736184      440.965  0.034864405  0.035215946            6 
 1055000    1.1096034    -6.762316     440.8812  0.034824739  0.035208126            3 
 1056000    1.0951993   -6.7199363     441.4317  0.034835203  0.035200178            5 
 1057000    1.0779099   -6.7619397    440.67962  0.034742953  0.035192367            3 
 1058000    1.0703595   -6.7670036    440.89381  0.034726985  0.035184394            2 
 1059000    1.0864274    -6.730835    441.85345  0.034769708  0.035176615            4 
 1060000    1.0770342   -6.7619201    442.23181  0.034766652  0.035168732            4 
 1061000    1.0702617   -6.7388434    442.22087  0.034733025  0.035161074            3 
 1062000    1.0713885   -6.7730492    443.16667  0.034774535  0.035153375            4 
 1063000    1.0954209   -6.7701684    442.75791  0.034709776  0.035145516            2 
 1064000      1.07738   -6.7412935    445.17204  0.034866231  0.035137525            2 
 1065000    1.0621695   -6.7436441     443.9772      0.03474  0.035129597            2 
 1066000     1.077304   -6.7560957    444.50533  0.034748697   0.03512179            4 
 1067000    1.0716776   -6.7086572     445.7852  0.034816088  0.035114233            3 
 1068000    1.0707772   -6.7358669    443.42054  0.034598981  0.035106727            2 
 1069000    1.0874762   -6.7729335    444.95901  0.034686546  0.035098934            2 
 1070000    1.0884118   -6.7538094    445.93708  0.034730302  0.035090964            3 
 1071000    1.0853261   -6.7507698    446.37173  0.034731694  0.035083444            3 
 1072000    1.0698422   -6.6978936    447.61568  0.034795995  0.035075929            2 
 1073000     1.078308   -6.7324218    445.40073  0.034591545  0.035068429            5 
 1074000    1.0900831   -6.7596735    447.26744  0.034704177  0.035060843            4 
 1075000    1.0770652   -6.7259934    448.87858  0.034796789  0.035053236            6 
 1076000    1.0818361   -6.7271396    448.34058  0.034722784  0.035045799            2 
 1077000     1.066116   -6.7945344    447.74185  0.034644216  0.035038027            2 
 1078000    1.0733696   -6.7447637    448.99705   0.03470911  0.035030296            3 
 1079000    1.0946031    -6.730091    448.53841  0.034641521  0.035022703            2 
 1080000    1.0714806   -6.7796091    448.38065  0.034597272  0.035015104            6 
 1081000    1.0877981   -6.7398133    449.55729  0.034655974  0.035007293            4 
 1082000    1.0586257   -6.7638694    448.61949  0.034551717  0.034999519            3 
 1083000     1.074979   -6.7432946    450.83694  0.034690438  0.034991756            3 
 1084000    1.0789949   -6.7228217    451.51811  0.034710802  0.034984335            4 
 1085000    1.0712387   -6.7572957    449.45575  0.034520411  0.034976909            3 
 1086000    1.0928445   -6.7512564    451.95581  0.034680464  0.034969429            2 
 1087000    1.0873007   -6.7340511    451.05519  0.034579515  0.034961953            3 
 1088000    1.0654649    -6.745235    453.65081  0.034746538  0.034954334            3 
 1089000    1.0704171   -6.7400812    453.58925  0.034709921  0.034946723            3 
 1090000    1.0763927   -6.7443149    452.13146  0.034566625  0.034939063            2 
 1091000    1.0743559   -6.7370905    452.84665   0.03458957   0.03493121            1 
 1092000    1.0512198   -6.7656188    453.49899  0.034607676  0.034923621           14 
 1093000    1.1032411   -6.7653263    454.15782  0.034626244  0.034916181            2 
 1094000    1.0481319   -6.7631268    452.39797   0.03446054  0.034908421            2 
 1095000    1.0923435   -6.7437413    456.21629  0.034719657  0.034900962            1 
 1096000    1.0655185   -6.7098753    455.08931   0.03460229  0.034893739            3 
 1097000    1.0894368    -6.740566     454.7349  0.034543824  0.034886313            2 
 1098000    1.0797975   -6.7817876    455.56525  0.034575383  0.034878599            3 
 1099000    1.0972455   -6.7851347    454.74089  0.034481414  0.034870992            1 
 1100000    1.0796569    -6.737687    456.83649  0.034608825  0.034863303            6 
 1101000    1.0734748    -6.751106    456.19986  0.034529205   0.03485595            3 
 1102000     1.046678   -6.7923455    455.76937  0.034465318  0.034848466            3 
 1103000    1.0678164   -6.7324419    457.55813  0.034569215  0.034840848            1 
 1104000    1.0404379   -6.7286079      457.527  0.034535552   0.03483339            2 
 1105000    1.0829907   -6.7468161    457.65093  0.034513645  0.034825894            8 
 1106000    1.0599285   -6.7387613    458.15857  0.034520688  0.034818426            2 
 1107000    1.0617313   -6.7996896    456.36638   0.03435459  0.034811026            3 
 1108000    1.0829497   -6.7928297    457.89513  0.034438562  0.034803618            3 
 1109000    1.0694137   -6.7687236    458.47091  0.034450775  0.034795904            1 
 1110000    1.0792885   -6.7657423    458.69538   0.03443659  0.034788409            2 
 1111000    1.0603323   -6.7995996    459.15492  0.034440063  0.034780817            2 
 1112000    1.0647304   -6.7780023    458.50114  0.034360097  0.034772996            2 
 1113000    1.0816008   -6.7663186    459.23127  0.034383893  0.034765156            1 
 1114000    1.0868851   -6.7494739    458.16095  0.034272961  0.034757231            2 
 1115000    1.0688423   -6.7726019    460.07809  0.034385508  0.034749215            4 
 1116000    1.0655229   -6.7820412     460.2823  0.034369945  0.034741259            4 
 1117000    1.1032451   -6.7676548    460.71172  0.034371212  0.034733647            2 
 1118000    1.0567194   -6.7901079    460.99769  0.034361784  0.034725986            3 
 1119000    1.0602056   -6.7105573    463.06026  0.034484678  0.034718276            3 
 1120000     1.064066   -6.7777129    460.97651  0.034298847  0.034710649            1 
 1121000    1.0929057   -6.7933683     461.6234   0.03431634  0.034702945            1 
 1122000    1.0802451   -6.7537174    461.31301  0.034262702  0.034695003            3 
 1123000    1.0758358   -6.7711745    463.01843  0.034358743  0.034687344            4 
 1124000    1.0515902   -6.7740881    463.33003  0.034351277  0.034679615            2 
 1125000    1.0565309   -6.7382146    463.12165  0.034305307   0.03467215            4 
 1126000    1.0598009   -6.8110171    463.31329  0.034289024  0.034664728            3 
 1127000    1.0769991   -6.7799251    463.17336  0.034248252  0.034657048            2 
 1128000    1.0843977   -6.7673686    464.28038  0.034299673  0.034649474            2 
 1129000    1.0745748   -6.7502542    466.13127   0.03440591  0.034641933            3 
 1130000    1.0741392   -6.7860314    465.61582   0.03433745  0.034634465            3 
 1131000    1.0651443   -6.7699617    465.02911   0.03426386  0.034627072            4 
 1132000    1.0660652   -6.7450195    465.24803  0.034249707  0.034619263            1 
 1133000    1.0806204   -6.7591761    466.43887  0.034307066  0.034611361            1 
 1134000    1.0658529   -6.7827449    464.54045  0.034137305  0.034603434            3 
 1135000    1.1059238   -6.8022126    464.18435  0.034081083   0.03459545            6 
 1136000    1.0433476   -6.7744588    467.37427  0.034285084  0.034587682            4 
 1137000    1.0862865   -6.7685055    467.31416  0.034250525  0.034579767            5 
 1138000    1.0846009   -6.7953849    466.85628  0.034186898  0.034571861            2 
 1139000    1.0755942   -6.7857994    466.60707   0.03413865  0.034563802            2 
 1140000    1.0827567   -6.7731408    466.43523  0.034096143  0.034555851            2 
 1141000    1.0603523   -6.8005377    467.45798  0.034140957  0.034547809            3 
 1142000    1.0809525   -6.7584001    468.14726  0.034161358  0.034540026            3 
 1143000    1.0728662   -6.8051583    466.35572  0.034000855  0.034531985            3 
 1144000     1.083475   -6.7865278    468.18425  0.034104331  0.034523823            3 
 1145000    1.0833638   -6.7769433    467.47449  0.034022889  0.034515898            3 
 1146000    1.0668379   -6.7499813    470.68453  0.034226624  0.034507971            3 
 1147000    1.0980553    -6.768096    470.39509  0.034175755  0.034500116            4 
 1148000    1.0667876   -6.7549087    470.21469   0.03413289    0.0344922            4 
 1149000    1.0634103   -6.7453813    471.17277  0.034172669  0.034484199            4 
 1150000    1.0743893   -6.7439522     470.5071  0.034094717  0.034476474            2 
 1151000    1.0554534   -6.7835132    469.89569  0.034020829  0.034468448            1 
 1152000    1.0832922    -6.735068    471.23806  0.034088401   0.03446059            2 
 1153000    1.0608507   -6.7272332    473.70824  0.034237369  0.034452612            1 
 1154000    1.0782754   -6.7844681    470.22126  0.033955897  0.034444644            6 
 1155000    1.0773517   -6.7948378    471.07623  0.033988184  0.034436344            2 
 1156000    1.0797797   -6.7760415    471.98286  0.034024139  0.034428147            3 
 1157000    1.0784023   -6.7961029    469.44189  0.033811718   0.03441967            4 
 1158000    1.0668535   -6.7583866    472.66062  0.034014149  0.034411284            2 
 1159000    1.0868333   -6.8055471    471.51335  0.033902312  0.034402921            2 
 1160000    1.0511796   -6.7635886     472.1118  0.033916078  0.034394315            1 
 1161000    1.0735838   -6.7849787    471.41807  0.033837071  0.034385919            2 
 1162000    1.0570024   -6.7867763    473.09924  0.033928517  0.034377529            2 
 1163000    1.0795294   -6.7761135     473.1028  0.033899599  0.034369006            7 
 1164000    1.0487899    -6.785337    473.18566  0.033876407  0.034360743            6 
 1165000     1.083648    -6.772334     474.9215  0.033971495  0.034352353            2 
 1166000    1.0682231   -6.7462247    473.39106   0.03383298  0.034343989            4 
 1167000    1.0767434   -6.7731855    475.18051   0.03393177  0.034335761            4 
 1168000    1.0647842    -6.780066    474.78725  0.033874661    0.0343274            2 
 1169000    1.0488464   -6.7570171    475.72124  0.033912264  0.034319253            2 
 1170000    1.0544444   -6.7678023    476.05139  0.033906794  0.034311092            2 
 1171000    1.0678653   -6.7588033    476.59469  0.033916503  0.034302916            4 
 1172000    1.0633614   -6.7757377    476.88853  0.033908457  0.034295194            3 
 1173000    1.0568088   -6.7553225     478.4438   0.03399004  0.034287399            2 
 1174000    1.0696193   -6.7889695    477.85244  0.033919111  0.034279496            2 
 1175000    1.0599518   -6.7747472     478.5095  0.033936844  0.034271611            2 
 1176000    1.0441244   -6.7762462    476.95984  0.033798174   0.03426385            8 
 1177000    1.0513331   -6.7871455    478.10877  0.033850805  0.034255952            5 
 1178000    1.0642991    -6.760639    479.85664  0.033945716  0.034247922            3 
 1179000    1.0560198   -6.7664077    478.35377  0.033810699  0.034239834            2 
 1180000    1.0707334   -6.7791658    479.30351  0.033849118   0.03423172            1 
 1181000    1.0556652   -6.7789024    479.53241  0.033836608  0.034223532            6 
 1182000    1.0800399   -6.8018195    478.69941  0.033749253  0.034215181            4 
 1183000    1.0733161   -6.8081823    479.28275  0.033761817  0.034206898            1 
 1184000    1.0696995   -6.8106544    479.63346  0.033757985  0.034198306            3 
 1185000    1.0629899   -6.7413204     479.8811  0.033746913  0.034189943            1 
 1186000    1.0877602   -6.7688178    479.95346  0.033723543    0.0341816            6 
 1187000    1.0852141   -6.7893642    480.30286  0.033719662   0.03417338            2 
 1188000    1.0618208   -6.7597383    482.46295    0.0338428  0.034165056            7 
 1189000    1.0457891   -6.7532307     481.6271  0.033755754  0.034157019            5 
 1190000    1.0591504   -6.8009787    480.70675  0.033662938  0.034149108            2 
 1191000    1.0811145   -6.7947021    482.84009  0.033783942  0.034141164            2 
 1192000    1.0793649   -6.7730944    483.08059  0.033772413  0.034133319            3 
 1193000    1.0548939   -6.7988061    485.13781  0.033887805  0.034125775            3 
 1194000    1.0709874   -6.7436325    485.28323  0.033869572  0.034118271            3 
 1195000    1.0552784   -6.7560178    485.59814   0.03386319  0.034110899            2 
 1196000    1.0494537   -6.7572243    485.67491  0.033840225  0.034103493            1 
 1197000    1.0698244   -6.7826752    486.62656  0.033878207  0.034096067            2 
 1198000    1.0501122   -6.8258024    484.74041  0.033718726  0.034088549            2 
 1199000     1.072287    -6.794527    486.10135  0.033785193  0.034080955            2 
 1200000    1.0445283   -6.7797886    486.49654  0.033784482  0.034073476            3 
 1201000    1.0510928   -6.7887647    488.07858  0.033866124   0.03406603            2 
 1202000    1.0515368   -6.7773028    487.93716  0.033828145  0.034058592            3 
 1203000    1.0356152   -6.7976308    487.25847  0.033753011   0.03405109            2 
 1204000    1.0522817   -6.8216102    487.18262  0.033719727  0.034043669            3 
 1205000    1.0578754   -6.8386764    488.18732  0.033761225  0.034036118            3 
 1206000    1.0776784   -6.7970573    489.49972  0.033823916  0.034028616            2 
 1207000    1.0742142   -6.7830474    487.65248  0.033668357  0.034021244            2 
 1208000    1.0969808   -6.7877079    487.25984    0.0336134  0.034013697            2 
 1209000    1.0670405   -6.7562466    490.52523  0.033810672  0.034006162            3 
 1210000    1.0841249    -6.799547    489.57739  0.033717451  0.033998483            2 
 1211000    1.0375518   -6.8096924    489.26944  0.033668417  0.033990972            3 
 1212000    1.0438359   -6.7766405    489.13596   0.03363146  0.033983437            3 
 1213000    1.0639833   -6.8036364    490.73526  0.033713607   0.03397602            3 
 1214000    1.0573619   -6.8187174    489.80376  0.033621894  0.033968431            3 
 1215000    1.0634377   -6.8038637    491.59582  0.033717134  0.033960991            2 
 1216000     1.038639   -6.8056665    491.74327  0.033699511  0.033953677            2 
 1217000    1.0656873    -6.806854    490.30781  0.033573529  0.033946229            2 
 1218000    1.0604481   -6.8226377    492.13464  0.033670953  0.033938947            4 
 1219000     1.055341   -6.7872961    491.77828  0.033618969  0.033931857            2 
 1220000    1.0347239   -6.7828068    491.78147   0.03359163  0.033924796            2 
 1221000    1.0491691   -6.7781815    494.38928  0.033742102  0.033917729            2 
 1222000    1.0383363   -6.7872061    494.85578  0.033746302  0.033910835            5 
 1223000    1.0816861   -6.8040853    496.04727  0.033799896  0.033903815            2 
 1224000    1.0241734   -6.8105604    495.93448  0.033764602  0.033896803            2 
 1225000    1.0489953   -6.7716655    495.50628   0.03370791  0.033889888            3 
 1226000    1.0662576   -6.7922869    496.84359  0.033771315  0.033883137            2 
 1227000    1.0587037   -6.8163667    496.14591  0.033696408  0.033876185            2 
 1228000    1.0681873   -6.7868455    497.69158  0.033773859  0.033869072            2 
 1229000    1.0502098   -6.7933965    497.91751  0.033761697  0.033862077            3 
 1230000    1.0720579   -6.8007148    496.62561  0.033646722  0.033855049            4 
 1231000    1.0503437   -6.8178603    495.79362  0.033563067  0.033847976            3 
 1232000    1.0573935   -6.8063504    498.07998  0.033690474  0.033840848            3 
 1233000    1.0524598   -6.7823078    496.89019  0.033582738  0.033833747            2 
 1234000     1.061491   -6.7960826    497.37513  0.033588272  0.033826576            2 
 1235000     1.074985   -6.7905217     499.5163  0.033705553  0.033819637            6 
 1236000    1.0688002   -6.8004372    500.31413  0.033732074  0.033812709            4 
 1237000    1.0404857   -6.8128418    498.54627  0.033585709  0.033805622            1 
 1238000    1.0756414   -6.7816149    499.32493  0.033610994  0.033798479            2 
 1239000    1.0620294   -6.7713278    500.46978  0.033660867  0.033791347            2 
 1240000    1.0466069   -6.7760591    500.11747  0.033610045  0.033784244            2 
 1241000    1.0434458   -6.7788796    500.98657  0.033641322  0.033777062            3 
 1242000    1.0617308   -6.7976413    499.09493  0.033487314  0.033769728            4 
 1243000     1.054747   -6.8036028    500.34778  0.033544367  0.033762478            3 
 1244000    1.0464494   -6.8227988    500.76207  0.033545155  0.033755295            2 
 1245000     1.064829   -6.7712384    500.15737  0.033477736  0.033748172            5 
 1246000    1.0501887   -6.7785467    502.24872  0.033590738  0.033741079            3 
 1247000    1.0423986   -6.8013428    501.28261  0.033499239  0.033734013            3 
 1248000    1.0546126   -6.8262509    500.90294  0.033447045  0.033726907            2 
 1249000    1.0600446   -6.8208478    501.75298   0.03347698  0.033719935            4 
 1250000     1.039508   -6.8149367    504.70715  0.033647143  0.033712918            3 
 1251000    1.0279119    -6.798447     504.6778  0.033618292  0.033706124            3 
 1252000    1.0640193   -6.8075948    504.34294  0.033569152  0.033699205            2 
 1253000    1.0708913   -6.8194629    504.53307  0.033555006  0.033692283            5 
 1254000    1.0548572   -6.8481354    503.44343  0.033455837  0.033685543            3 
 1255000    1.0306919   -6.7894868     507.0602  0.033669336  0.033678762            2 
 1256000    1.0615324   -6.8079774    505.32138  0.033527162  0.033672237            2 
 1257000    1.0410473   -6.8308514      506.896  0.033604879  0.033665856            3 
 1258000    1.0476506   -6.8126156    508.48502  0.033683427  0.033659386            2 
 1259000    1.0401206   -6.8075714     507.1479  0.033568169  0.033653116            2 
 1260000    1.0387919   -6.8066044    507.65222  0.033574882  0.033646847            5 
 1261000    1.0347304   -6.7951732    508.86673  0.033628517  0.033640563            2 
 1262000    1.0613551   -6.7908305    509.89331  0.033669659  0.033634527            3 
 1263000    1.0461909   -6.8196195    509.41636  0.033611531  0.033628278            3 
 1264000    1.0644404   -6.8094879    509.78885  0.033609497  0.033622023            4 
 1265000    1.0462961   -6.7817454    511.00642  0.033663137  0.033615795            3 
 1266000    1.0488527   -6.8141134    508.85477  0.033494916  0.033609417            3 
 1267000    1.0678596   -6.8230932    510.39363  0.033569694  0.033603171            5 
 1268000    1.0467167   -6.8273898    510.60078  0.033556834  0.033596902            1 
 1269000    1.0455622   -6.8339814    510.00374  0.033491184  0.033590555            2 
 1270000    1.0486074   -6.8140506    512.55045  0.033631919  0.033584284            3 
 1271000    1.0319653   -6.8148634    512.84176  0.033624558  0.033578236            4 
 1272000    1.0420482   -6.8253592     510.6337  0.033453465  0.033572033            2 
 1273000    1.0271676    -6.824142    512.43125  0.033544858  0.033565643            7 
 1274000    1.0365653   -6.8222838    511.96163  0.033487809  0.033559422            4 
 1275000    1.0508428   -6.7952346    514.26335  0.033611984  0.033553249            2 
 1276000    1.0304847   -6.8397681    512.51145  0.033471229  0.033546743            3 
 1277000    1.0629917   -6.7837862     514.1498  0.033551932  0.033540403            3 
 1278000    1.0516146   -6.8264883    515.01197  0.033581897  0.033534169            3 
 1279000     1.060884   -6.7884557     513.5693  0.033461643  0.033527885            2 
 1280000    1.0411332   -6.7876477     516.3051  0.033613613  0.033521609            2 
 1281000    1.0598736   -6.8096663    516.09094  0.033573441  0.033515241            2 
 1282000    1.0267172   -6.8167976    515.47717  0.033507356  0.033508915            2 
 1283000    1.0392402    -6.755599    517.90441  0.033638894  0.033502997            5 
 1284000    1.0262535   -6.8387482    514.68299  0.033403621  0.033496866            3 
 1285000    1.0472705   -6.8259834    516.41622  0.033490027  0.033490545            3 
 1286000     1.054389   -6.7970927     516.2682  0.033454393  0.033484323            3 
 1287000    1.0519103   -6.7904196     515.8277  0.033399877  0.033478106            4 
 1288000    1.0159632   -6.7955317    516.22703  0.033399782  0.033471901            4 
 1289000    1.0599503   -6.7910325    518.89337  0.033546249  0.033465542            7 
 1290000     1.051541    -6.815903    517.89603  0.033455816  0.033459368            3 
 1291000    1.0898907   -6.8209194    518.41929  0.033463677  0.033453233            2 
 1292000    1.0439936   -6.7913908    519.17254  0.033486361  0.033447202            7 
 1293000    1.0358835   -6.7934037    520.01552  0.033514793  0.033441098            2 
 1294000    1.0512194   -6.8302997    519.46988  0.033453753  0.033434943            3 
 1295000    1.0650553   -6.8388741    519.31873  0.033418194  0.033428655            5 
 1296000    1.0117113   -6.7870917    521.67077  0.033543645  0.033422564            1 
 1297000    1.0268307   -6.8292937    521.45259  0.033503764  0.033416507            3 
 1298000    1.0400606   -6.8075627    521.35163  0.033471471  0.033410363            5 
 1299000    1.0819587   -6.8488555    521.08812  0.033428799  0.033404316            3 
 1300000    1.0275741    -6.844573    521.28643  0.033415797  0.033398364            4 
 1301000    1.0436177   -6.8641558    520.41962   0.03333459  0.033392236            5 
 1302000    1.0662604   -6.8383218    519.93051  0.033277682  0.033386091            3 
 1303000    1.0402299   -6.8013185    523.23524  0.033463497  0.033379991            4 
 1304000    1.0271033   -6.7604339    522.98521  0.033421856  0.033373937            3 
 1305000    1.0523196   -6.8400301    522.70092  0.033378092   0.03336794            2 
 1306000    1.0510909   -6.7771563    523.70894  0.033416854  0.033361924            4 
 1307000    1.0335231   -6.8123783    522.58767  0.033319795  0.033355879            3 
 1308000    1.0406663    -6.826191    523.91988  0.033379197  0.033349843            5 
 1309000    1.0128305   -6.8273616    523.74898  0.033342818  0.033343571            3 
 1310000    1.0391414   -6.8383059    524.24821  0.033349123  0.033337465            2 
 1311000    1.0783973   -6.8544052    523.97544  0.033306346  0.033331351            3 
 1312000    1.0490034   -6.8143327    526.53307  0.033443411  0.033325334            2 
 1313000    1.0236026   -6.8131309    526.32837  0.033404948  0.033319195            5 
 1314000    1.0363585   -6.8131492    526.36784   0.03338203  0.033313297            3 
 1315000    1.0459161   -6.8428506    525.42045  0.033296606  0.033307094            2 
 1316000    1.0287287   -6.8197667    526.44608  0.033336252  0.033300894            2 
 1317000    1.0411335   -6.8347758    526.47722  0.033312909  0.033294719            2 
 1318000    1.0304984   -6.8040613    526.53133  0.033291055  0.033288674            2 
 1319000    1.0156369   -6.8236519    527.52383  0.033328521   0.03328244            5 
 1320000    1.0238107   -6.8104025    526.33122  0.033227981  0.033276374            2 
 1321000    1.0451708   -6.8288122    526.71424   0.03322699  0.033270265            2 
 1322000    1.0555538   -6.8078841    528.16618   0.03329338  0.033264048            4 
 1323000    1.0296137   -6.8270157    526.99375  0.033194365  0.033257804            4 
 1324000    1.0249161   -6.8189814    528.57371  0.033268738  0.033251477            6 
 1325000    1.0275167   -6.8333254    527.80055  0.033195003  0.033245221            3 
 1326000    1.0206856   -6.8491995    526.82178  0.033108458  0.033238921            2 
 1327000     1.046699   -6.8528406    528.55588  0.033192406  0.033232545            3 
 1328000    1.0443234   -6.8068395    529.49471  0.033226325  0.033226183            3 
 1329000    1.0508911   -6.8591234    529.27619  0.033187622  0.033220023            4 
 1330000    1.0443706   -6.8395328    529.95807  0.033205393  0.033213817            2 
 1331000    1.0369874   -6.8462459    531.33389  0.033266584  0.033207605            2 
 1332000    1.0318725   -6.8261682    530.87768  0.033213068   0.03320132            8 
 1333000    1.0488847   -6.8572199    530.87398  0.033187921  0.033195112            3 
 1334000    1.0060304   -6.8601928    529.78465  0.033094993  0.033188743            2 
 1335000    1.0573018   -6.8478579    532.09388   0.03321435  0.033182312            2 
 1336000    1.0357232   -6.8438017    530.09935  0.033065079     0.033176            2 
 1337000    1.0448464   -6.8198277    530.91692  0.033091306  0.033169566            2 
 1338000    1.0033564     -6.85147    530.99254  0.033071284  0.033162952            2 
 1339000    1.0220487   -6.8391292    531.79569   0.03309657  0.033156486            2 
 1340000    1.0313458   -6.8391283    531.60088  0.033059756   0.03314986            2 
 1341000    1.0253786   -6.8460722    532.35114  0.033081726  0.033143207            2 
 1342000    1.0323812   -6.8157927    532.08011  0.033040245  0.033136653            3 
 1343000    1.0321819   -6.8400028    531.97724  0.033009261   0.03313007            2 
 1344000    1.0418908   -6.8168407    531.90343  0.032980123  0.033123501            2 
 1345000    1.0330129   -6.8243361    532.92827  0.033019099  0.033116721            5 
 1346000    1.0321116   -6.8163065    533.11781  0.033006303   0.03311024            2 
 1347000    1.0257734   -6.8473653    533.35394  0.032996408  0.033103705            4 
 1348000    1.0311579   -6.8266415    534.59727  0.033048793  0.033097218            3 
 1349000    1.0416796   -6.8280514    533.08635  0.032930958  0.033090563            3 
 1350000    1.0450051    -6.818512    533.45142    0.0329291  0.033083847            4 
 1351000    1.0502047   -6.8298001    534.18791  0.032950155  0.033077218            2 
 1352000    1.0208424   -6.8355959    534.46757  0.032943021  0.033070563            3 
 1353000    1.0307548    -6.814784    534.72303  0.032934407  0.033063837            3 
 1354000     1.035521   -6.8989629    533.42283  0.032830061  0.033056898            4 
 1355000    1.0127405   -6.8443501    535.44321  0.032930087  0.033049806            1 
 1356000    1.0234678   -6.8326899    534.38606  0.032840835  0.033042878            2 
 1357000    1.0369982   -6.8530397    535.17135  0.032864858  0.033035802            2 
 1358000    1.0358885    -6.833115    536.46612   0.03292011  0.033028788            1 
 1359000    1.0288202   -6.8555635    535.24728  0.032821148  0.033021851            5 
 1360000    1.0299101    -6.843523    535.62999  0.032820465  0.033014755            7 
 1361000    1.0457981   -6.8616324    535.90777  0.032813359  0.033007768            2 
 1362000    1.0432858   -6.8281076     536.7044  0.032838008  0.033000706            2 
 1363000    1.0263173   -6.8195405    537.12799  0.032839813  0.032993875            3 
 1364000    1.0332007   -6.8444635     538.0162  0.032870003  0.032986862            2 
 1365000    1.0292608   -6.8337079    537.38215  0.032807213   0.03297992            2 
 1366000    1.0277903   -6.8159886    538.24723  0.032835971  0.032973134            3 
 1367000    1.0337583   -6.8392791    536.29453  0.032692912  0.032966139            2 
 1368000    1.0520795   -6.8044562    538.11568  0.032779951   0.03295907            2 
 1369000    1.0399345   -6.8796719    538.58038  0.032784294  0.032952064            3 
 1370000    1.0379233    -6.805907    539.98546  0.032845831  0.032945113            3 
 1371000    1.0452072   -6.8772445     539.9812  0.032821615  0.032938254            6 
 1372000    1.0053589   -6.8702084    539.26179  0.032753996  0.032931379            1 
 1373000    1.0518792   -6.8588411    539.73165  0.032758658  0.032924408            5 
 1374000    1.0212208    -6.845947    539.87032  0.032743227  0.032917354            2 
 1375000    1.0285835   -6.8727386    540.81925  0.032776924  0.032910356            3 
 1376000    1.0195791   -6.8717421    541.29475  0.032781901  0.032903389            3 
 1377000    1.0296267   -6.8549596    539.34957  0.032640376  0.032896376            6 
 1378000   0.98959815   -6.8505552    542.32527  0.032796642  0.032889513            4 
 1379000    1.0355847   -6.8423491    541.47221  0.032721308  0.032882743            3 
 1380000    1.0211405   -6.8465684    542.02751   0.03273113   0.03287585            4 
 1381000    1.0191421   -6.8217277    541.06616  0.032649418  0.032868729            3 
 1382000     1.036426   -6.8121486    542.74604  0.032727089  0.032861716            5 
 1383000    1.0217876   -6.8281097     542.3488  0.032679489  0.032854696            2 
 1384000    1.0395649   -6.8673535    541.79226  0.032622366  0.032847577            3 
 1385000    1.0308979   -6.8387395    543.52602   0.03270313  0.032840583            2 
 1386000    1.0175013   -6.8945493    542.53692  0.032620065  0.032833594            3 
 1387000    1.0293823   -6.8754345    544.76639  0.032730497  0.032826821            2 
 1388000    1.0162692   -6.8631987    545.48762  0.032750217  0.032819918            3 
 1389000    1.0262889    -6.876304    543.85137  0.032628472  0.032812819            2 
 1390000    1.0394075   -6.8671614    543.69365  0.032595542  0.032805761            5 
 1391000    1.0104037   -6.8737554    545.54837  0.032683223  0.032798676            4 
 1392000    1.0031695   -6.8569576    544.74169  0.032611452   0.03279176            6 
 1393000    1.0408514   -6.8370694    545.39815  0.032627312  0.032784789            2 
 1394000    1.0360064   -6.8750444    545.72997  0.032623743   0.03277779            6 
 1395000    1.0558413    -6.871093    545.23766  0.032570947   0.03277075            1 
 1396000    1.0265437   -6.8196067    546.81456  0.032641748   0.03276382           11 
 1397000    1.0452342   -6.8641683    547.54241    0.0326618  0.032756925            3 
 1398000    1.0204224   -6.8389267     547.0916  0.032611564  0.032750043            2 
 1399000    1.0249215   -6.8309013    544.86654  0.032455715  0.032743035            4 
 1400000    1.0097196   -6.8949053    547.02281  0.032560881  0.032736143            3 
 1401000     1.066159   -6.8497416    545.43278  0.032443063  0.032729136            2 
 1402000     1.044508   -6.8254731    548.15148  0.032581519  0.032722201            4 
 1403000    1.0489285    -6.896366    549.12164  0.032615921  0.032715191            2 
 1404000    1.0441791   -6.8549885    547.86503  0.032518105  0.032708253            5 
 1405000    1.0116223   -6.8725608    548.34022  0.032523145  0.032701207            2 
 1406000    1.0112213   -6.8647316    547.91552  0.032474841  0.032693976            3 
 1407000    1.0163954    -6.834893     549.4849  0.032544711  0.032686913            4 
 1408000    1.0044562   -6.8579181    548.02723  0.032435324  0.032679786            1 
 1409000    1.0250423   -6.8627832    548.62713  0.032447784  0.032672468            4 
 1410000    1.0375827   -6.8745009    549.00425   0.03244706  0.032665431            4 
 1411000    1.0476456    -6.878282    550.15121  0.032491803  0.032658474            1 
 1412000     1.022596   -6.8440474    549.11015  0.032407351  0.032651423            4 
 1413000    1.0381744   -6.8617937    549.80529  0.032425412  0.032644529            5 
 1414000     1.039336   -6.8818255    551.00493   0.03247318   0.03263764            3 
 1415000    1.0290398   -6.8298986    552.36191  0.032530148  0.032630885            5 
 1416000    1.0149726   -6.8146716    554.58384  0.032637938  0.032624258            3 
 1417000    1.0322998   -6.8795801     553.2515   0.03253655  0.032617511            3 
 1418000      1.03556   -6.8519534    553.73838  0.032542218  0.032610771            3 
 1419000    1.0274721   -6.8662501    553.22155  0.032488933  0.032603966            5 
 1420000    1.0351404    -6.880242    552.76145  0.032439052  0.032597276            6 
 1421000    1.0327702   -6.8382686    552.52422  0.032402312  0.032590462            2 
 1422000    1.0191384    -6.863713    553.00968  0.032407974  0.032583588            6 
 1423000    1.0433606   -6.8815646    553.71114  0.032426279  0.032576574            4 
 1424000     1.014238   -6.8579801    551.37422   0.03226675  0.032569468            2 
 1425000    1.0386918   -6.8226064    554.74951  0.032441492  0.032562478            3 
 1426000    1.0465001   -6.8425906    554.54978   0.03240707  0.032555581            2 
 1427000     1.025286   -6.8708932    555.40041  0.032434034  0.032548518            2 
 1428000    1.0362823    -6.849501     553.4863  0.032299621   0.03254148            3 
 1429000    1.0367062   -6.8734125    553.34684  0.032268885  0.032534346            3 
 1430000    1.0018982   -6.8544076    554.91645  0.032337788  0.032527131            3 
 1431000    1.0205405   -6.8821716    556.52334  0.032408766  0.032520153            3 
 1432000    1.0256291   -6.8586756    554.96115  0.032295225  0.032513127            3 
 1433000    1.0020465   -6.8709137    556.68666  0.032373032  0.032505963            3 
 1434000    1.0267016   -6.8285297    556.38591  0.032332979  0.032498758            3 
 1435000    1.0233886   -6.8533592    556.31363   0.03230625  0.032491617            2 
 1436000     1.022888   -6.8874027    554.34669  0.032169608  0.032484268            2 
 1437000    1.0087641   -6.9172944    555.51461  0.032214951  0.032476905            1 
 1438000    1.0267341   -6.8447624    556.53414  0.032251631  0.032469476            3 
 1439000    1.0086375   -6.9061103    555.25102  0.032154912  0.032461985            4 
 1440000    1.0106807   -6.8536168    556.07214  0.032180101   0.03245443            4 
 1441000    1.0133442   -6.8580637    556.65187  0.032191295  0.032446871            2 
 1442000    1.0467375   -6.8650182      556.104  0.032137309  0.032439253            3 
 1443000    1.0123514   -6.8404398    556.83424   0.03215721  0.032431735            1 
 1444000    1.0321307   -6.8922444    556.86276  0.032136586  0.032424178            1 
 1445000    1.0109134   -6.8694795    555.72103  0.032048502  0.032416515            3 
 1446000   0.99068157   -6.8575061     558.5496   0.03218935  0.032408978            2 
 1447000    1.0143764   -6.8689664    560.09216  0.032255941  0.032401637            2 
 1448000    1.0500492   -6.8495495    557.36889  0.032076939  0.032394099            6 
 1449000    1.0398954   -6.8641172     557.6275  0.032069674  0.032386567            2 
 1450000    1.0171824   -6.8707019    558.32985  0.032087922  0.032378944            3 
 1451000     1.008379   -6.8867533    559.47635  0.032131654  0.032371453            4 
 1452000    1.0145898   -6.8799634    558.37864  0.032046524  0.032363731            3 
 1453000    1.0567793   -6.8556395    558.95165  0.032057332  0.032356187            4 
 1454000    1.0209695   -6.8351717    559.83482  0.032085902  0.032348618            2 
 1455000     1.015009   -6.9134667    558.09623  0.031964274  0.032341061            4 
 1456000    1.0103371   -6.8486555    559.98779  0.032050583  0.032333406            8 
 1457000    1.0344565   -6.8354087    561.90199  0.032138068  0.032326005            3 
 1458000    1.0183744   -6.8851805    560.40653  0.032030551  0.032318703            1 
 1459000    1.0213365   -6.8675227    561.05388  0.032045572  0.032311317            5 
 1460000    1.0486816   -6.8917281    561.14826   0.03202901  0.032303823            3 
 1461000    1.0218003   -6.8784716    561.47497  0.032025722  0.032296518            3 
 1462000    1.0145445   -6.8523852    560.93315  0.031972933  0.032289243            5 
 1463000    1.0226502   -6.8961772    561.89899  0.032006094  0.032281727            2 
 1464000    1.0243873   -6.9145003    563.00957  0.032047448  0.032274149            2 
 1465000    1.0053256   -6.8927243    560.59502  0.031888226   0.03226661            2 
 1466000    1.0200718   -6.8560315     562.0898  0.031951444  0.032258949            2 
 1467000    1.0002377   -6.8648245    560.73892  0.031852927  0.032251375            3 
 1468000    1.0470079   -6.8692894    561.80229  0.031891592  0.032243668            3 
 1469000    1.0162318    -6.858885    563.85276  0.031986201  0.032235931            4 
 1470000    1.0106692   -6.8714331    564.24297  0.031986563  0.032228365            3 
 1471000    1.0185128   -6.8903226    563.90311  0.031945565  0.032220784            4 
 1472000    1.0198278    -6.871911    563.72512  0.031913786  0.032213131            1 
 1473000    1.0195071    -6.884963    562.55068  0.031825678  0.032205444            2 
 1474000    1.0111789   -6.8859117    565.94171    0.0319958    0.0321978            5 
 1475000   0.99266031   -6.8773176    565.77836  0.031964879  0.032190368            2 
 1476000    1.0225087   -6.9003311    565.13476  0.031906886  0.032183048            3 
 1477000     1.036529   -6.8612772    568.03305  0.032048807  0.032175567            3 
 1478000    1.0043387   -6.9006722    567.03768  0.031971001  0.032168298            3 
 1479000    1.0189007   -6.8948499    566.57675  0.031923414  0.032161062            1 
 1480000    1.0061951   -6.8662865    567.85618  0.031973884  0.032153889            5 
 1481000       1.0077    -6.908183    566.96019  0.031901879  0.032146654            3 
 1482000    1.0152134   -6.8610909    567.46114  0.031908521  0.032139436            3 
 1483000     1.022191   -6.8702145    569.53181  0.032003361  0.032132317            4 
 1484000    1.0152629   -6.8964187    569.69608   0.03199102  0.032125197            2 
 1485000    1.0266684   -6.8811572    567.75812  0.031860725  0.032118048            3 
 1486000    1.0161412   -6.8772145     567.5773  0.031829144  0.032110921            3 
 1487000   0.98726432   -6.8696846    569.30924  0.031904799  0.032103791            2 
 1488000    1.0257718   -6.8482719    570.39072  0.031943925   0.03209668            4 
 1489000    1.0140368   -6.8488879    569.53629  0.031874653  0.032089597            2 
 1490000   0.98778815   -6.9256543    569.49592  0.031851002  0.032082499            5 
 1491000    1.0224515   -6.8728558    571.21426  0.031925679   0.03207535            2 
 1492000    1.0244772   -6.8723495    571.84737  0.031939643  0.032068326            4 
 1493000    1.0266638   -6.8628194    570.66918  0.031852489  0.032061309            2 
 1494000    1.0136185   -6.8690944    572.80488  0.031950295  0.032054322            2 
 1495000    1.0318308    -6.866831    571.15289  0.031836839  0.032047375            3 
 1496000    1.0172892   -6.8779574    571.71254  0.031846733   0.03204039            5 
 1497000   0.99963872   -6.8928073    571.97691  0.031840175  0.032033313            3 
 1498000    1.0176492   -6.8793924    573.03436  0.031877746   0.03202617            4 
 1499000    1.0185604   -6.8751971    572.64991  0.031835107  0.032019044            6 
 1500000     1.012114   -6.8812874    571.55989  0.031753327  0.032011927            2 
 1501000    1.0116285    -6.852475    574.76142  0.031909917  0.032004879            3 
 1502000   0.98700947   -6.8685218    574.18031  0.031856431  0.031997848            3 
 1503000   0.99965295   -6.9133266     574.2754  0.031840508  0.031990736            7 
 1504000    1.0039603   -6.9013544    572.54229   0.03172331  0.031983525            3 
 1505000     1.015692   -6.9160282    573.75119  0.031769169   0.03197641            4 
 1506000    1.0319864   -6.9137368    572.66796  0.031688134  0.031969171            3 
 1507000    1.0006813   -6.8951032    574.79409  0.031784676  0.031961876            4 
 1508000   0.99045039   -6.8959515    573.74573  0.031705666  0.031954565            3 
 1509000    1.0011525   -6.9064259    574.65759  0.031735012   0.03194723            6 
 1510000    1.0008451   -6.9119517    573.18922  0.031632959  0.031939851            6 
 1511000    1.0063417   -6.8745088    573.79431  0.031645396  0.031932398            3 
 1512000   0.99844734    -6.893977    573.69004  0.031618719  0.031924893            3 
 1513000   0.98691446   -6.8819951    574.17664  0.031624622  0.031917324            3 
 1514000    1.0151695   -6.8929438    574.39892  0.031615969  0.031909883            2 
 1515000    1.0117951   -6.8894793    576.38213  0.031704187  0.031902392            2 
 1516000    1.0170602   -6.9413756    574.82203  0.031597517  0.031894833            3 
 1517000    1.0397457   -6.8806116    573.74464  0.031517504  0.031887242            3 
 1518000     1.019894   -6.8995506    576.89347  0.031669602  0.031879831            3 
 1519000   0.99436591   -6.9172037    576.49988   0.03162716  0.031872389            2 
 1520000     1.001603   -6.8925165    576.93198  0.031630043  0.031865002            3 
 1521000    1.0112301   -6.8909914    577.55356  0.031643303  0.031857603            2 
 1522000    1.0002935    -6.910203    577.34771  0.031611241  0.031850216            3 
 1523000   0.99941137   -6.9132187     578.0457  0.031628677  0.031842899            2 
 1524000    1.0063945   -6.8864526    578.14101  0.031613135  0.031835584            2 
 1525000    1.0198566   -6.9129609    580.60536  0.031727069  0.031828234            4 
 1526000    1.0281311   -6.8858219    579.90714  0.031668149  0.031820996            3 
 1527000    1.0213037   -6.8740495    580.89254  0.031701187  0.031813754            4 
 1528000    1.0006647   -6.9214213    578.27569  0.031537723  0.031806496            2 
 1529000   0.97926331   -6.9290637    577.47164  0.031473274  0.031799123            5 
 1530000    1.0191938    -6.906548    579.36146  0.031555635  0.031791769            2 
 1531000    1.0059923    -6.868166    581.39502  0.031645712  0.031784456            6 
 1532000    1.0232442   -6.8745367     581.3812  0.031624304   0.03177709            2 
 1533000    1.0436665   -6.8815434    580.90398  0.031577733  0.031769791            3 
 1534000    1.0325194   -6.8816373    579.45225  0.031478284   0.03176239            3 
 1535000    1.0089205   -6.8919627    581.77536  0.031583896  0.031754912            1 
 1536000   0.99826736   -6.8955669    581.13304  0.031528485  0.031747447            3 
 1537000   0.98515043   -6.8851054    581.13666  0.031508168  0.031739961            6 
 1538000   0.99798962   -6.9172239    580.21206  0.031437584  0.031732492            5 
 1539000   0.99212783   -6.9076175    580.93362  0.031456228  0.031724941            6 
 1540000   0.99586473   -6.8773431     580.5985  0.031417668  0.031717364            2 
 1541000    1.0132565   -6.8983694    582.91757  0.031522689  0.031709782            5 
 1542000    1.0032993    -6.904615     581.4064  0.031420579  0.031702129            1 
 1543000    1.0159055   -6.8788452    581.44793  0.031402459  0.031694444            5 
 1544000    1.0119016   -6.9028266    582.23338  0.031424513   0.03168696            4 
 1545000   0.97922447   -6.9033629    582.74242   0.03143163  0.031679429            3 
 1546000   0.99516717   -6.8761378    584.72528   0.03151818  0.031671955            2 
 1547000    1.0063939   -6.8968624    583.72408  0.031443874  0.031664645            2 
 1548000    1.0019057   -6.9361303    582.78224   0.03137286  0.031657128            4 
 1549000    1.0000655   -6.8787997    583.34135  0.031382685  0.031649621            3 
 1550000    1.0064136   -6.8955405    583.22122  0.031355979   0.03164212            4 
 1551000    1.0025379   -6.9138353    584.86895  0.031424293   0.03163472            2 
 1552000    1.0023079   -6.9087501     584.0698  0.031361136  0.031627219            3 
 1553000    1.0087696   -6.8762337    585.36602  0.031410497  0.031619821           12 
 1554000    1.0189427   -6.8885977    586.04646  0.031426773  0.031612536            2 
 1555000   0.99963985    -6.888947     585.6836  0.031387117  0.031605225            3 
 1556000    1.0034625    -6.899932    586.19749  0.031394467  0.031597923            2 
 1557000    1.0182127   -6.8874838    584.94561  0.031307301  0.031590454            2 
 1558000   0.99804859   -6.9075364    586.13438  0.031350791  0.031582982            1 
 1559000    1.0154705    -6.892928    587.82557   0.03142108   0.03157573            4 
 1560000   0.99863182   -6.9238325    586.33048  0.031321073  0.031568393            2 
 1561000   0.98715281   -6.9082273     587.7749  0.031378118  0.031560918            4 
 1562000    1.0271157   -6.8852841    588.04467  0.031372422  0.031553675            3 
 1563000   0.98112589   -6.8926764    587.26434  0.031310745  0.031546445            3 
 1564000   0.99475515   -6.8820988    587.78262  0.031318341  0.031539132            4 
 1565000    1.0043836   -6.8845014    590.11536  0.031422543  0.031531891            1 
 1566000   0.98484539   -6.9183866    589.71387  0.031381113  0.031524639            2 
 1567000    1.0105221   -6.9390125     588.4856  0.031295767  0.031517289            2 
 1568000    1.0048404   -6.8934456    590.36302  0.031375586  0.031509954            4 
 1569000    1.0184248   -6.8784713     588.6384   0.03126399  0.031502607            3 
 1570000    1.0144706   -6.9273305    589.90924  0.031311531    0.0314953            2 
 1571000    1.0029131    -6.931996    589.73218  0.031282208  0.031488131            7 
 1572000   0.98299947   -6.8787022    590.50139  0.031303085  0.031480909            4 
 1573000   0.97439493   -6.9150146    589.73779  0.031242731  0.031473715            2 
 1574000    1.0165531   -6.8987103     591.0364  0.031291635  0.031466615            2 
 1575000   0.98903308   -6.8770358    591.97507  0.031321432  0.031459551            2 
 1576000   0.99055175   -6.9132521    590.47675  0.031222333  0.031452396            2 
 1577000   0.99328408   -6.9073512    592.85085  0.031327988  0.031445389            1 
 1578000   0.99367245   -6.9018722     592.2011  0.031273823  0.031438306            2 
 1579000   0.99868588   -6.9112743    594.99248  0.031401334  0.031431182            2 
 1580000   0.99112195   -6.9204175    593.78577  0.031317815  0.031424021            5 
 1581000    1.0205329   -6.8786657    593.01636  0.031257451  0.031416962            3 
 1582000    1.0089609   -6.9345984     592.7372  0.031222988  0.031409699            4 
 1583000    0.9782098    -6.911232    593.43716  0.031240112  0.031402493            3 
 1584000   0.99552603    -6.922983    593.66414   0.03123233  0.031395302            3 
 1585000    1.0048225   -6.9257392    593.37017   0.03119717  0.031388077            3 
 1586000    1.0022374   -6.9151218    595.00321  0.031263305  0.031380949            4 
 1587000    1.0086741   -6.9409766    594.29139  0.031206227  0.031373888            5 
 1588000   0.98375408   -6.8872318    596.92519   0.03132479  0.031366754            3 
 1589000   0.99720151   -6.9075919    594.78647  0.031192913  0.031359653            4 
 1590000    1.0057666   -6.9226643    594.77094  0.031172481  0.031352541            2 
 1591000   0.98210361   -6.8760524    596.52565  0.031244796  0.031345528            3 
 1592000    1.0019917   -6.9273383    596.47371  0.031222451  0.031338522            2 
 1593000   0.99099003   -6.9262251    597.61097  0.031262344  0.031331486            4 
 1594000    1.0005124   -6.9168123    596.30793   0.03117461  0.031324533            2 
 1595000   0.98295988   -6.9067808    598.02323  0.031244683  0.031317643            4 
 1596000   0.98588869   -6.8768854    599.07431  0.031279987  0.031310797            3 
 1597000   0.98828861   -6.9386079    598.68121  0.031239888  0.031303898            2 
 1598000   0.98710862   -6.9275139    598.22444  0.031196519  0.031296897            2 
 1599000   0.99151506   -6.8953812    597.68238  0.031148759  0.031289876            1 
 1600000   0.97878079   -6.8997017    601.05688  0.031305046  0.031282864            4 
 1601000   0.98794193   -6.9027906    599.42867  0.031200743  0.031275953            2 
 1602000    1.0284355   -6.8908675    598.94886  0.031156308  0.031269051            2 
 1603000    1.0061726   -6.9262236    600.43196  0.031213972  0.031262063            3 
 1604000    1.0037968   -6.9087451    601.32275  0.031240791  0.031255067            6 
 1605000    1.0039884   -6.9044449    599.81639  0.031143115   0.03124809            5 
 1606000    0.9744419   -6.9490642    598.27566  0.031043777  0.031240947            4 
 1607000    1.0215526   -6.9192508    598.59716  0.031041131  0.031233818            3 
 1608000    1.0119128   -6.8994127    598.82921  0.031033852  0.031226711            3 
 1609000    1.0157309    -6.884218     601.4569  0.031150658  0.031219606            2 
 1610000    1.0234871    -6.927911    601.50532  0.031133816   0.03121255            3 
 1611000   0.97084259   -6.9284946    601.44665  0.031111455  0.031205504            4 
 1612000    1.0176429   -6.9224761    601.32879  0.031086062  0.031198447            5 
 1613000   0.99610419   -6.9390623    600.65052  0.031031748  0.031191366            5 
 1614000    1.0021097   -6.9567153    600.36167  0.030997608  0.031184203            4 
 1615000    1.0087194   -6.8724345    603.48294   0.03113947  0.031177175            2 
 1616000   0.99774357    -6.930286    602.30659   0.03105954  0.031170273            3 
 1617000   0.98608316   -6.8987087    602.41082  0.031045703   0.03116322            3 
 1618000   0.98179983   -6.8983057    603.98271  0.031107474   0.03115616            3 
 1619000    1.0179825   -6.9389288    602.24508   0.03099882  0.031149051            3 
 1620000   0.99295293    -6.931754    602.01944  0.030968078  0.031141718            3 
 1621000   0.97989423   -6.9227228    602.86677  0.030992534  0.031134457            3 
 1622000    1.0166196   -6.9655065    601.19566   0.03088757  0.031127093            3 
 1623000   0.99454947   -6.9379742    602.09966  0.030914955  0.031119773            2 
 1624000   0.99758694   -6.9264203    602.41504  0.030912102  0.031112377            4 
 1625000   0.99715435   -6.9000312    603.45277  0.030946296  0.031105144            2 
 1626000   0.97600889   -6.9109187    603.14163  0.030911318  0.031097947            4 
 1627000   0.99504975    -6.931038    603.46129  0.030908691    0.0310906            3 
 1628000   0.99864144   -6.9100193    603.06739  0.030869543  0.031083223            3 
 1629000   0.96020751    -6.955195    603.83676  0.030889951   0.03107591            5 
 1630000    1.0107287   -6.9585682    603.36508  0.030846886  0.031068537            6 
 1631000   0.98839922    -6.932292    603.46284  0.030832967  0.031061201            5 
 1632000    1.0032428   -6.9539229    605.54206  0.030920244  0.031054104            5 
 1633000    1.0011624   -6.9576235    604.29348  0.030837593  0.031046921            1 
 1634000   0.97679178   -6.9513597     605.1338  0.030861577  0.031039671            4 
 1635000   0.99211906   -6.9294819    605.07123  0.030839512  0.031032452            2 
 1636000    0.9942351   -6.9300139    606.84102   0.03091081  0.031025485            8 
 1637000   0.99084433   -6.9255784    605.72508  0.030835119  0.031018386            2 
 1638000   0.97727033   -6.9454838    605.96068   0.03082828  0.031011255            3 
 1639000   0.96264949   -6.9412675    604.98461  0.030759844  0.031004107            1 
 1640000    1.0068019   -6.9482483     606.7493  0.030830757  0.030996957            3 
 1641000   0.97371513   -6.9292927    605.93859    0.0307708  0.030989787           10 
 1642000   0.99181957   -6.9353704    605.66998  0.030738428   0.03098268            2 
 1643000   0.97422655   -6.9375244    608.94728  0.030885944    0.0309755            2 
 1644000    1.0033559   -6.9037502    608.49609  0.030844287  0.030968439            3 
 1645000   0.97203518   -6.9314818    607.58766  0.030779517  0.030961304            7 
 1646000   0.99044207   -6.9319036    610.55471  0.030911032  0.030954283            4 
 1647000   0.97726811   -6.9206557    610.53174  0.030891102  0.030947235            2 
 1648000    1.0034856   -6.9483191    610.77183  0.030884498   0.03094031            2 
 1649000   0.98521183   -6.9002885    609.39147  0.030796011  0.030933292            3 
 1650000   0.96672289   -6.9383363    610.94105  0.030855609  0.030926304            3 
 1651000    1.0041606   -6.9375245    609.79737  0.030779193  0.030919089            3 
 1652000   0.98940679   -6.9557301    609.00604  0.030720644  0.030911943            2 
 1653000    1.0071613   -6.9260173    609.89968   0.03074711   0.03090477            4 
 1654000   0.97492164   -6.9323147    609.93746  0.030730424  0.030897668            2 
 1655000   0.96281257   -6.9331471    611.66725  0.030798955  0.030890555            2 
 1656000   0.96666578   -6.9366132    611.12029  0.030752833  0.030883529            3 
 1657000   0.98148175   -6.9212458    609.44472  0.030650006  0.030876313            3 
 1658000    1.0024233   -6.9530626    611.82223  0.030751017   0.03086921            4 
 1659000   0.97755294   -6.9318467    610.99329  0.030690842  0.030861979            2 
 1660000   0.99449834   -6.9500018    612.24711  0.030735297  0.030854793            2 
 1661000   0.98256648   -6.9343262    612.33977  0.030721441  0.030847599            3 
 1662000    1.0059314   -6.9066257    611.48868  0.030660283  0.030840508            6 
 1663000    1.0136411   -6.9252648    613.38437  0.030736839  0.030833427            3 
 1664000    1.0103399   -6.9603633    612.97236  0.030697735   0.03082632            2 
 1665000   0.96279685   -6.9011275    612.32532  0.030646913  0.030819269            7 
 1666000   0.99871983   -6.9244268     613.2482   0.03067468  0.030812183            2 
 1667000   0.99548134   -6.9427339    612.79611  0.030633679  0.030805037            1 
 1668000   0.98557313   -6.9568014    613.72237  0.030661589  0.030797977            4 
 1669000   0.98644582   -6.9349784    614.98077   0.03070605  0.030790824            2 
 1670000   0.96894321   -6.9311942    613.76374  0.030626933    0.0307837            2 
 1671000   0.98584914   -6.9615306    613.33448  0.030587197  0.030776575            3 
 1672000   0.99167479   -6.9280746    615.12083  0.030657936  0.030769494            4 
 1673000   0.99298947   -6.9372069    615.69178  0.030668051  0.030762375            3 
 1674000   0.99635279   -6.9528619    614.00609  0.030565815  0.030755212            5 
 1675000    0.9801452   -6.9038351    613.28368  0.030511626  0.030748033            4 
 1676000   0.99897052   -6.9765336    613.24066  0.030491282  0.030740859            2 
 1677000   0.97972701   -6.9238717    616.14353  0.030617349  0.030733591            2 
 1678000   0.98092088   -6.9802566    615.96741  0.030590356  0.030726491            4 
 1679000   0.98292536   -6.9522077    616.82859  0.030614879  0.030719249            3 
 1680000    0.9920794   -6.9604659    615.72738  0.030542033  0.030712118            2 
 1681000   0.96418214   -6.9235032      614.725  0.030474172   0.03070489            1 
 1682000   0.99436242   -6.9575567     615.9908  0.030518767  0.030697739            5 
 1683000   0.99474481   -6.9723633    616.09236  0.030505662   0.03069055            3 
 1684000   0.98770503   -6.9601085    616.96216   0.03053059  0.030683284            2 
 1685000   0.98663728   -6.9239744    616.03392  0.030466564  0.030676071            5 
 1686000   0.98345294   -6.9245606    617.79754  0.030535663  0.030668847            2 
 1687000   0.97706858   -6.9838053    615.56253  0.030407159  0.030661587            3 
 1688000   0.97634127   -6.9261881    616.57112  0.030438938  0.030654295            3 
 1689000   0.97583108   -6.9519877    617.16229  0.030450083  0.030647039            5 
 1690000   0.97764513   -6.9603563    618.66149  0.030505991  0.030639777            3 
 1691000   0.96646137    -6.937807    619.78998  0.030543563   0.03063248            3 
 1692000   0.98201847   -6.9258365    616.96288  0.030386273  0.030625272            6 
 1693000   0.98374233   -6.9508216     619.2768  0.030482221  0.030618009            3 
 1694000     0.983325   -6.9406395    619.68218  0.030484168  0.030610833            5 
 1695000   0.97479999   -6.9356365    619.34742  0.030449726  0.030603609            3 
 1696000   0.98841567   -6.9465332    619.93962   0.03046087  0.030596477            3 
 1697000   0.98902858   -6.9719699    618.70771  0.030382425  0.030589379            4 
 1698000   0.96527691   -6.9396378    621.88127  0.030520282  0.030582296            3 
 1699000   0.95838608   -6.9537589    620.46137  0.030432675  0.030575194            2 
 1700000   0.97132172   -6.9614745    617.36199  0.030262843  0.030568016            2 
 1701000   0.98672328   -6.9879624    620.65025  0.030406146  0.030560871           10 
 1702000   0.97574259   -6.9943945    619.09547  0.030312156  0.030553619            2 
 1703000   0.99606022   -6.9524589     621.9947  0.030436225  0.030546415            2 
 1704000     1.000206   -6.9215555    621.77424  0.030407582  0.030539433            3 
 1705000   0.96435293   -6.9556798    620.65661  0.030335123  0.030532234            2 
 1706000   0.99595279   -6.9347313    621.57479  0.030362192  0.030524917            4 
 1707000   0.98948921   -6.9507028    622.41109  0.030385232  0.030517777            3 
 1708000    0.9635646   -6.9976528    621.92662  0.030343805  0.030510483            2 
 1709000   0.99503433   -6.9599061    621.94294  0.030326845   0.03050333            3 
 1710000   0.97303745   -6.9718699    622.54441  0.030338422  0.030496092            2 
 1711000   0.96949163   -6.9688376    622.68282  0.030327431  0.030488861            5 
 1712000   0.97883583   -6.9689341    622.78695  0.030314785    0.0304816            4 
 1713000   0.98233688   -6.9585461    622.33922  0.030275307  0.030474312            2 
 1714000    0.9620957   -6.9658078    622.68746  0.030274575  0.030466996            6 
 1715000    0.9925417   -6.9775154    622.42314  0.030244079   0.03045953            4 
 1716000    0.9734404   -6.9719324    623.26803  0.030267484  0.030452247            5 
 1717000   0.96644989   -6.9595748     623.3118   0.03025198  0.030444977            2 
 1718000   0.97926038   -6.9585656    622.72825  0.030206066  0.030437635            5 
 1719000   0.97406406   -6.9386609    623.10462  0.030206739  0.030430226            3 
 1720000   0.96263599   -6.9709233    624.69307  0.030266137  0.030422896            3 
 1721000   0.98653243    -6.944472    623.73644  0.030202229  0.030415645            4 
 1722000   0.98515176   -6.9437439    626.07816  0.030298014  0.030408498            2 
 1723000   0.97728275   -6.9312603     625.0759  0.030231955   0.03040129            4 
 1724000   0.98765535    -6.928409    626.50702  0.030283596  0.030394156            2 
 1725000   0.97787726   -6.9741955    625.28312  0.030206914  0.030387028            2 
 1726000    0.9888218   -6.9894914    626.48826  0.030247599  0.030379753            2 
 1727000   0.96356821    -6.930642    626.99907  0.030254732  0.030372533            3 
 1728000   0.94193317   -6.9515117    626.83054  0.030229096  0.030365347            4 
 1729000   0.98070067   -6.9755443    626.53534  0.030197385  0.030358139            2 
 1730000   0.98065465   -6.9795288    626.02596  0.030155393  0.030350807            3 
 1731000   0.97579783   -6.9626839    626.88184  0.030179176  0.030343388            2 
 1732000   0.99347684   -6.9442537    625.98497  0.030118599  0.030336122            2 
 1733000   0.97572392    -6.977966    627.96424  0.030196396  0.030328797            4 
 1734000   0.99228251   -6.9752401    628.34267  0.030197168   0.03032159            2 
 1735000    0.9671631   -6.9601944     627.8827  0.030157671   0.03031426            3 
 1736000   0.99011738   -6.9593492    627.04709  0.030100187  0.030307049            4 
 1737000   0.97472535   -6.9774194    627.05778  0.030083371  0.030299673            4 
 1738000   0.97169444   -6.9719699    628.49519  0.030134982  0.030292334            5 
 1739000   0.96883676    -6.985966    628.65464  0.030125294  0.030285053            4 
 1740000    1.0054771   -6.9588589    628.47232  0.030099249  0.030277829            1 
 1741000   0.96580825   -6.9290151    630.53236  0.030180565   0.03027069            4 
 1742000   0.96671076   -6.9322138    630.35221  0.030154622  0.030263663           10 
 1743000   0.95873166   -6.9618104    630.99135  0.030167879  0.030256649            3 
 1744000   0.98163601    -6.963027    630.30853  0.030117953  0.030249638            2 
 1745000   0.97943936    -6.983301    631.85602  0.030174595  0.030242608            3 
 1746000   0.98405402   -6.9245306     632.7558  0.030200258  0.030235653            2 
 1747000   0.97331581   -6.9722129    632.58643  0.030174892  0.030228556            5 
 1748000   0.96166629   -6.9463597    633.20076  0.030186916  0.030221545            3 
 1749000   0.98567286   -6.9671781    632.45973   0.03013435   0.03021451            5 
 1750000   0.97069281   -6.9816168    631.10201  0.030052477  0.030207482            2 
 1751000   0.97112105   -6.9459939    633.75323   0.03016149  0.030200366            2 
 1752000   0.97714368   -6.9384293    632.81106  0.030099461  0.030193323            3 
 1753000   0.96653934   -6.9893768      631.799  0.030034179  0.030186204            3 
 1754000   0.98594674   -6.9529466    631.55006  0.030005229  0.030179023            4 
 1755000   0.96706685   -6.9633205    632.70559  0.030043001  0.030171856            5 
 1756000   0.95939523   -6.9578827    632.93402  0.030036732  0.030164733            2 
 1757000   0.98004958   -6.9667763    633.37712  0.030040653  0.030157751            9 
 1758000   0.97660707   -6.9645795    632.82511  0.029997398  0.030150615            2 
 1759000   0.95732911   -6.9465932    634.05043  0.030038394  0.030143513            5 
 1760000   0.95183277   -6.9662104    633.72595  0.030005963  0.030136353            3 
 1761000   0.98959004   -6.9744768    634.17672  0.030010255  0.030129222            2 
 1762000   0.97836668    -6.997464    633.22406  0.029948168  0.030122085            7 
 1763000   0.97180726   -6.9684518    634.41769  0.029987601  0.030114866            4 
 1764000   0.96320088   -6.9672173    634.38789  0.029969194  0.030107724            3 
 1765000    0.9533204   -6.9942296    634.46521  0.029955865  0.030100515            4 
 1766000   0.96261523   -6.9544423    635.22069  0.029974551  0.030093325            3 
 1767000   0.97752934   -6.9762494    635.61411  0.029976142  0.030086113            9 
 1768000   0.95979167   -6.9770693    634.82007  0.029921761  0.030078878            5 
 1769000   0.97849027   -6.9858931    634.79093  0.029903473  0.030071641            2 
 1770000   0.97622834   -6.9890438    634.06021  0.029852176  0.030064326            4 
 1771000   0.97630111    -6.987481    635.44001  0.029900245  0.030057031            3 
 1772000   0.97086688   -6.9674919    637.53944  0.029982103  0.030049694            6 
 1773000   0.99113611     -6.95691    636.47842  0.029915323  0.030042447            2 
 1774000   0.96918701    -6.987539    635.20047  0.029838429  0.030035192            5 
 1775000   0.97759195   -6.9862581    636.96782  0.029904592   0.03002798            2 
 1776000    0.9772371   -6.9685346    636.86738  0.029883041  0.030020775            4 
 1777000   0.98173918   -6.9608769    637.47867  0.029894892  0.030013565            3 
 1778000   0.97386045   -7.0191098    637.83267  0.029894669  0.030006399            8 
 1779000   0.94429581   -6.9419689    636.37521  0.029809594  0.029999256            2 
 1780000   0.97008857   -6.9844178    637.03963  0.029823953  0.029991989            5 
 1781000   0.96490661   -7.0004928    636.27094   0.02977124  0.029984657            5 
 1782000   0.96636671   -6.9807417    639.53354  0.029907105  0.029977299            4 
 1783000   0.95781076   -6.9779342    635.81679  0.029716619   0.02996994            9 
 1784000   0.96032516    -6.975812    637.25799  0.029767283  0.029962454            2 
 1785000   0.97026741   -7.0139044     634.9136  0.029641158  0.029955003            4 
 1786000   0.97289648   -6.9605444     637.8328  0.029760769  0.029947443            3 
 1787000   0.94472508   -6.9678506    637.44545  0.029726052  0.029940061            2 
 1788000   0.95566815   -6.9818926    636.39808  0.029660612  0.029932647            6 
 1789000   0.97595607   -6.9782572    640.65746  0.029842438  0.029925233            3 
 1790000   0.94215318    -7.000907    636.45473  0.029630108  0.029917766            7 
 1791000   0.96320213   -7.0026989    638.18955  0.029694284  0.029910318            3 
 1792000   0.95594727   -6.9125486     640.5794  0.029788849   0.02990293            5 
 1793000   0.97294541   -6.9627978    638.38278  0.029670142  0.029895507            5 
 1794000   0.97107995    -6.972329    638.88911  0.029677123  0.029888053           12 
 1795000   0.97092486    -6.990249    640.23398  0.029723026  0.029880668            3 
 1796000     0.965694   -6.9959481    639.92046  0.029691929  0.029873136            3 
 1797000   0.96692688   -6.9669508    637.84647  0.029579228  0.029865587            4 
 1798000   0.96410403   -7.0292624    637.24773  0.029535026  0.029858096            2 
 1799000   0.96945416   -6.9880671    638.62092  0.029582218  0.029850539            3 
 1800000   0.94554548    -7.003703    639.60848  0.029611504  0.029843037            3 
 1801000   0.95621452   -6.9879622    638.97305   0.02956566  0.029835435            2 
 1802000   0.95190671   -6.9973654    638.72318  0.029537698  0.029827897            3 
 1803000   0.94841068   -6.9570455    641.16275   0.02963407  0.029820394            3 
 1804000   0.97100654   -6.9958341    639.77235  0.029553416  0.029813059            3 
 1805000     0.963607   -7.0040197    642.08141  0.029643648  0.029805662            4 
 1806000   0.96183696   -7.0320445    639.84601  0.029524087  0.029798205            3 
 1807000   0.97819516    -6.996646    641.41287  0.029580007  0.029790654            3 
 1808000   0.95331981   -6.9953278     641.2974  0.029558324   0.02978321            3 
 1809000   0.93735934     -6.98455    640.19933  0.029491401  0.029775782            3 
 1810000   0.96614781   -7.0141653    640.54423  0.029490986  0.029768346            3 
 1811000   0.94696814   -6.9839486    641.99201  0.029541322  0.029760873            7 
 1812000   0.97014806   -6.9964478    641.68232  0.029510776  0.029753521            3 
 1813000   0.95526853   -6.9991886    643.29708  0.029568721  0.029746092            2 
 1814000   0.95911276   -6.9597095    643.67058  0.029569578  0.029738794            4 
 1815000   0.95760166   -6.9516349    644.63513  0.029597573  0.029731497            2 
 1816000   0.98004283   -6.9452955    644.11456  0.029557386  0.029724247            3 
 1817000   0.96076219   -6.9022782    646.49042  0.029650083  0.029717022            2 
 1818000   0.94866516   -7.0121736    642.98346  0.029473022  0.029709671            5 
 1819000   0.95435991   -7.0104626    643.73702  0.029491342  0.029702252            3 
 1820000   0.95438943   -7.0356438    642.06867  0.029398749  0.029694765            3 
 1821000   0.94599711   -6.9755849    644.41578  0.029490014  0.029687305            4 
 1822000   0.96757035   -7.0112435     644.2652  0.029466941  0.029679776            4 
 1823000   0.93699426   -7.0083751    642.03133  0.029348662  0.029672252            4 
 1824000   0.98067627   -6.9972404    643.53268  0.029401164  0.029664741            9 
 1825000   0.96566099   -6.9987334    644.62115  0.029434756   0.02965729            2 
 1826000   0.96824556    -7.027947    644.45074  0.029410859  0.029649815            3 
 1827000   0.94532331    -6.983617    646.56242  0.029491079  0.029642381            3 
 1828000   0.94517382   -7.0009022    647.25617  0.029506572  0.029634985            3 
 1829000   0.96445816   -7.0133992    645.31781  0.029402124  0.029627582            5 
 1830000   0.95778507   -7.0059042    646.11381  0.029422305  0.029620123            7 
 1831000   0.95394589   -7.0146441    644.83559  0.029348061  0.029612705            4 
 1832000    0.9589566   -7.0066406     647.9278  0.029472698  0.029605286            3 
 1833000   0.97463144   -7.0184512    645.97717  0.029367938  0.029597889            3 
 1834000   0.94736341   -7.0181883     646.3771  0.029370097  0.029590406            2 
 1835000   0.93821661   -6.9702678    648.61324  0.029455642  0.029582969           10 
 1836000   0.94340826   -6.9927328    646.92602  0.029363018  0.029575669            4 
 1837000   0.98257294   -6.9963029    648.19059    0.0294044  0.029568296            3 
 1838000   0.96093076   -6.9745401    649.74336  0.029458803  0.029561036            6 
 1839000   0.95104201   -6.9634344    649.64209  0.029438195  0.029553761            6 
 1840000   0.95773775    -7.014357    646.81849  0.029294316  0.029546334            3 
 1841000     0.961185   -7.0155196    647.38655  0.029304117  0.029538787            5 
 1842000   0.95052579   -7.0103913    647.97765   0.02931495  0.029531297            2 
 1843000   0.96344587   -7.0113168    650.36551  0.029407013  0.029523785            2 
 1844000   0.93850408   -7.0146556    649.13083  0.029335269  0.029516335            3 
 1845000   0.97067267   -7.0013124    649.49344  0.029335747   0.02950892            7 
 1846000    0.9602597   -6.9989727    649.31675  0.029311879   0.02950155            4 
 1847000   0.94380886   -7.0129352    648.71839  0.029269012   0.02949413            2 
 1848000   0.96748781   -7.0140327    650.74604  0.029344609  0.029486802            4 
 1849000   0.94634337   -6.9961736    649.23664   0.02926071  0.029479463            3 
 1850000   0.96147483   -7.0135095    649.70717  0.029266089  0.029472097            3 
 1851000   0.94608194   -6.9977377    650.69831    0.0292949  0.029464773            3 
 1852000   0.95030561   -7.0033486     652.4342   0.02935719  0.029457517            2 
 1853000   0.94740213   -7.0331404    651.42815  0.029296103  0.029450219            4 
 1854000   0.97380355   -6.9628539    651.22945  0.029271371  0.029442898            3 
 1855000   0.94341961   -6.9878553    651.71471   0.02927739   0.02943552            4 
 1856000   0.97447535   -6.9962326    651.84612  0.029267516  0.029428111            4 
 1857000   0.94804229   -7.0027863    650.50311  0.029191488  0.029420738            3 
 1858000   0.94559621   -6.9804907    652.28594  0.029255738   0.02941345            4 
 1859000   0.94231636   -7.0051406    652.29876  0.029240576  0.029406055            3 
 1860000   0.96350005   -7.0039228    653.86422  0.029294992  0.029398668            2 
 1861000   0.95789927   -7.0335927    651.00935  0.029151413   0.02939126            2 
 1862000   0.95367793   -7.0139121    652.43975  0.029199774  0.029383826            4 
 1863000    0.9599479   -7.0004039    652.70644   0.02919603  0.029376369            7 
 1864000   0.95690993   -6.9934944      653.679  0.029223846  0.029368898            3 
 1865000    0.9493676   -7.0383969    651.58593  0.029114653  0.029361344            3 
 1866000   0.96506157    -6.985093    651.02366   0.02907394  0.029353798            2 
 1867000   0.95490519   -7.0258832    652.62821  0.029129986   0.02934626            3 
 1868000   0.95296443   -7.0057849    652.59667  0.029112985  0.029338663            8 
 1869000     0.963668   -6.9915472    653.06859   0.02911845  0.029331149            2 
 1870000   0.96692654   -7.0038026    652.56277  0.029080338  0.029323638            3 
 1871000    0.9520451   -7.0111047    651.47911  0.029016529  0.029316037            4 
 1872000   0.95730818   -7.0132173    652.63598  0.029052528  0.029308454            4 
 1873000   0.98537921   -7.0381317    653.78289  0.029088045  0.029300798            6 
 1874000   0.94741348    -6.973416    652.72414  0.029025442  0.029293259            4 
 1875000   0.95525956    -6.997096     653.9143  0.029062858  0.029285674            4 
 1876000   0.98051984   -7.0051979    652.11319  0.028967359  0.029278046            5 
 1877000   0.96821056   -7.0257998    653.73187  0.029023791  0.029270425            6 
 1878000   0.95984665   -7.0406395    654.17956  0.029028202  0.029262817            7 
 1879000   0.97917183   -7.0205721    654.22498  0.029014768  0.029255171            8 
 1880000   0.95688167   -7.0208383    654.68551  0.029019748  0.029247519            5 
 1881000    0.9321327   -7.0201441    653.37374  0.028946205   0.02923984            3 
 1882000   0.93457091   -6.9910368    655.55693  0.029027494  0.029232207            4 
 1883000   0.97216588   -7.0342769    655.88595   0.02902664  0.029224572            7 
 1884000   0.93824118   -7.0092392    654.32417  0.028942152   0.02921692           12 
 1885000   0.94914043   -7.0073561    653.70145  0.028899268  0.029209256            4 
 1886000   0.96067506   -6.9900859    656.82857  0.029022118  0.029201523            1 
 1887000   0.95895486   -7.0308335    654.31685  0.028895816  0.029193751            3 
 1888000   0.95008368   -6.9840588     655.7469  0.028943631  0.029186168            4 
 1889000   0.95306586    -6.994983    654.22496  0.028861168  0.029178538            5 
 1890000   0.94609662   -7.0224197    655.77963  0.028914446  0.029170923            4 
 1891000    0.9419142   -7.0189162    656.03783  0.028910534  0.029163311            5 
 1892000    0.9446833   -7.0133139    657.11737  0.028942801  0.029155747            1 
 1893000   0.93399198   -7.0320191    656.55058  0.028902561  0.029148216            3 
 1894000   0.94127805    -7.021035    656.45601   0.02888314  0.029140657            4 
 1895000   0.94144236   -6.9994115    656.49525  0.028869624  0.029133003            8 
 1896000   0.94621725   -6.9828933    655.94365  0.028830154  0.029125295            5 
 1897000     0.947922   -6.9978188    656.59516  0.028843576  0.029117624            4 
 1898000   0.92677273   -7.0279637    654.88296  0.028753203  0.029109937            4 
 1899000   0.93263324   -7.0103546    656.83779  0.028823845  0.029102201            3 
 1900000   0.94247578   -7.0124247    657.91159  0.028855771  0.029094525            2 
 1901000   0.96031671   -7.0139783    657.04335  0.028802532  0.029086846            4 
 1902000    0.9705779   -7.0254652    658.34932  0.028844607  0.029079204            5 
 1903000   0.96731179   -7.0247156    657.89852  0.028809709  0.029071512            3 
 1904000   0.94859895   -7.0017473    657.76492  0.028788731   0.02906384            3 
 1905000   0.93875013   -7.0037865    657.82166  0.028776101  0.029056228            3 
 1906000   0.93417869   -7.0378614    658.08907  0.028772694  0.029048547            3 
 1907000   0.94157367     -6.99528    658.44137  0.028773001  0.029040822            8 
 1908000   0.96078996   -7.0483671    658.65692  0.028767336  0.029033054            5 
 1909000   0.96972188   -7.0462589    656.58092  0.028661643   0.02902522            2 
 1910000   0.94774675   -7.0186416    656.78895  0.028655713  0.029017287            3 
 1911000   0.93054856   -7.0377668     657.9731  0.028692356  0.029009422            3 
 1912000   0.94682022   -7.0494066    658.23806  0.028688897  0.029001527            4 
 1913000   0.93218017   -7.0176511    657.10459  0.028624525  0.028993661            3 
 1914000   0.95390886   -7.0493108    658.72323  0.028680043  0.028985854            3 
 1915000    0.9443303   -7.0125928    655.80817  0.028538215  0.028977934            5 
 1916000   0.93374142   -7.0275511    656.77333  0.028565298      0.02897            2 
 1917000   0.95332268   -7.0324154    658.14186  0.028609888  0.028962043            2 
 1918000   0.94900531   -7.0182472    658.48265  0.028609778  0.028954066            3 
 1919000   0.95034331   -7.0113415    657.18235  0.028538403  0.028946085            2 
 1920000   0.92148137   -7.0265416    660.26242  0.028657223  0.028938156            6 
 1921000   0.95201394   -7.0120427    659.51636  0.028609941  0.028930194            2 
 1922000     0.948222    -6.992794    658.53722  0.028552602  0.028922205            5 
 1923000   0.93866835   -7.0012409    660.74608  0.028633475  0.028914247            2 
 1924000   0.95577806   -7.0181537    660.66071  0.028614896  0.028906309            3 
 1925000   0.92808935   -7.0302293    658.76029  0.028517761  0.028898354            4 
 1926000   0.94180796   -7.0300089    658.07406  0.028473263  0.028890344            6 
 1927000   0.95845108   -7.0496543    658.61003  0.028481665  0.028882321            1 
 1928000   0.95024183   -7.0608681    658.92695  0.028480591  0.028874251            3 
 1929000   0.96032185   -7.0486426    656.20935  0.028348425   0.02886607            4 
 1930000   0.94274818   -7.0680566    658.72191  0.028442224  0.028857877            4 
 1931000   0.93199151   -7.0379664    658.64533   0.02842419  0.028849781            2 
 1932000   0.94760845   -7.0184062    660.42704  0.028486328  0.028841722            4 
 1933000     0.938127   -7.0333502    658.85918     0.028404  0.028833693            2 
 1934000   0.94470453   -7.0280956    660.46454  0.028458486  0.028825602            5 
 1935000   0.95196194   -7.0425455      657.916  0.028334022  0.028817516            4 
 1936000   0.95218029   -7.0378275    660.45636  0.028428734  0.028809353            6 
 1937000   0.93027857   -7.0245888    659.03486  0.028352902  0.028801206            3 
 1938000   0.95666343   -7.0423964    662.04957  0.028467904  0.028793171            8 
 1939000   0.94038473   -7.0111684    661.69993  0.028438195  0.028785083            3 
 1940000   0.92703051    -7.030463    661.64196  0.028421046  0.028777023            3 
 1941000   0.92994581   -7.0268849    662.68938  0.028451373  0.028769101            4 
 1942000   0.93545673   -7.0075177    663.70295  0.028480216  0.028761191            3 
 1943000   0.92492253   -7.0129967    661.78899   0.02838347  0.028753282            3 
 1944000   0.94587417   -7.0090897     662.2682  0.028389412  0.028745279            3 
 1945000   0.94827874   -7.0523267    662.17885  0.028370988  0.028737283            2 
 1946000   0.94549957   -7.0350913    661.68181  0.028335124  0.028729299            6 
 1947000   0.94956234   -7.0064008    664.40246  0.028437017  0.028721388            2 
 1948000    0.9449146   -7.0402713     662.9036  0.028358299  0.028713482            3 
 1949000   0.93337302    -6.993356    663.02536  0.028348955  0.028705561            8 
 1950000   0.93027537   -7.0421645    664.03266  0.028377464  0.028697685            7 
 1951000   0.95502097   -7.0135575    663.71729  0.028349449  0.028689761            4 
 1952000   0.93369128   -7.0340457    664.45909  0.028366594  0.028681821            2 
 1953000   0.94786754   -7.0334443    664.83271  0.028368011  0.028673923            5 
 1954000     0.938074   -7.0530722     665.7286  0.028391701  0.028666027            3 
 1955000   0.93941903   -7.0454297    664.56238  0.028327467  0.028658157            3 
 1956000   0.93997701   -7.0373114    665.27259  0.028343242  0.028650243            4 
 1957000   0.93436226   -7.0363905    666.67626  0.028388531  0.028642445            4 
 1958000   0.95441837   -7.0002236    666.39561  0.028362088  0.028634655            3 
 1959000   0.94302875   -7.0367341    666.42825  0.028348998  0.028626882            4 
 1960000     0.927955   -7.0398229    665.53715  0.028296648  0.028619062            3 
 1961000   0.92758505    -7.032158    667.41222  0.028361899  0.028611232            3 
 1962000   0.95494925   -7.0383464    665.02432  0.028246021  0.028603378            4 
 1963000   0.94836762   -7.0451157     666.8246  0.028308057  0.028595513            3 
 1964000   0.94958523   -7.0581944    667.67974  0.028329928  0.028587604            1 
 1965000   0.94492154   -7.0303046    667.22987  0.028296432  0.028579702            5 
 1966000   0.91819882   -7.0388075    665.63917  0.028214614  0.028571758            3 
 1967000   0.91874426   -7.0202873    667.10618  0.028262421  0.028563903            3 
 1968000   0.92137347   -7.0511307    667.37607  0.028259488  0.028555949            2 
 1969000   0.91569276   -7.0028732    666.48409  0.028207385  0.028548104            3 
 1970000   0.91367459   -7.0536702    667.17977  0.028222494   0.02854034            3 
 1971000   0.93274968   -7.0575811    667.71562  0.028230831  0.028532547            4 
 1972000   0.95105413   -7.0686531    667.36938  0.028201884  0.028524676            3 
 1973000   0.94496924   -7.0661142    670.30142   0.02831143  0.028516806            5 
 1974000   0.92172115   -7.0451285    668.98662  0.028241583  0.028509013            4 
 1975000   0.94899173    -7.066454    668.73029  0.028216468  0.028501224            3 
 1976000   0.93864779   -7.0021373    669.92354  0.028252511  0.028493601            5 
 1977000    0.9377332   -7.0161088    669.18452  0.028207069  0.028485904            3 
 1978000   0.95989359    -7.062039     668.6799   0.02817155  0.028478134            4 
 1979000   0.94162828   -7.0558409    670.15409   0.02821939  0.028470297            2 
 1980000   0.91130504   -7.0505877    669.55265  0.028179825  0.028462594            3 
 1981000   0.92632643   -7.0393817    670.53341  0.028206857  0.028454879            4 
 1982000   0.93197276   -7.0302028    670.48756  0.028190698  0.028447152            3 
 1983000   0.94571546   -7.0686266    670.42337  0.028173784  0.028439464            4 
 1984000   0.93618139   -7.0660785    669.90177  0.028137675  0.028431706            3 
 1985000   0.92794624   -7.0500768    671.23912  0.028179644  0.028424052            3 
 1986000   0.92716817   -7.0524652    671.67462  0.028183728  0.028416368            6 
 1987000   0.91974373    -7.028295    673.39677   0.02824177  0.028408709            3 
 1988000   0.92428245   -7.0602893    672.15114   0.02817535  0.028401086            3 
 1989000   0.94985706   -7.0512529    672.38296  0.028170896  0.028393437            1 
 1990000   0.93697201   -7.0296308    671.60254  0.028124059  0.028385815            5 
 1991000   0.92164798   -7.0258492    673.91656  0.028206787  0.028378251            3 
 1992000   0.91333434     -7.03542    672.97775  0.028153353  0.028370648            3 
 1993000   0.94909629   -7.0443143      673.369  0.028155586  0.028362989            5 
 1994000    0.9497059   -7.0439355    672.58325  0.028108628  0.028355306            8 
 1995000   0.93365591   -7.0577946    671.79909  0.028061783   0.02834761            4 
 1996000   0.92824247   -7.0238357    672.26822  0.028067311  0.028339908            5 
 1997000   0.94364805   -7.0434473    670.93767  0.027997733  0.028332302            3 
 1998000   0.93522836   -7.0389462    675.23467  0.028162941  0.028324532            7 
 1999000   0.92575821   -7.0706482    672.69939  0.028043163  0.028316925            6 
 2000000   0.93290476   -7.0355315    673.93497  0.028080624  0.028309316            6 
 2001000   0.92466312   -7.0489347    673.62002  0.028053474   0.02830176            2 
 2002000   0.94012321   -7.0641334    675.60224  0.028121971  0.028294179            7 
 2003000   0.94171033   -7.0517441    674.61162  0.028066717  0.028286635            3 
 2004000   0.94114797   -7.0703991    673.36403  0.028000833   0.02827901            3 
 2005000   0.92538101    -7.051636    674.83983  0.028048206  0.028271397            5 
 2006000   0.93892332   -7.0386207    676.19083  0.028090347  0.028263829            1 
 2007000   0.94289439   -7.0136306    675.83666  0.028061645  0.028256332            5 
 2008000   0.95036708   -7.0423277    675.70089  0.028042035  0.028248759            4 
 2009000   0.91631014   -7.0334553     675.5913  0.028023532  0.028241163            5 
 2010000   0.91815075    -7.026873    675.42793  0.028002816  0.028233557            2 
 2011000   0.91012961   -7.0686644    676.01651  0.028013282  0.028225987            4 
 2012000   0.94870226   -7.0569858    674.30794  0.027928593  0.028218371            3 
 2013000   0.91779483   -7.0791491    676.40741  0.028001632  0.028210706            4 
 2014000   0.94818877   -7.0644805    675.21538  0.027938405  0.028203072            5 
 2015000   0.92121622   -7.0572145    676.77841  0.027989181  0.028195513            3 
 2016000    0.9236521   -7.0495815     674.6109  0.027885702  0.028187833            6 
 2017000   0.91401023   -7.0867149    676.02985  0.027930501  0.028180215            5 
 2018000   0.95335157   -7.0699825    675.43617  0.027892144  0.028172492            3 
 2019000   0.92312259   -7.0644472    675.96743  0.027900257  0.028164875            3 
 2020000   0.94281804   -7.0708734    676.91071  0.027925359  0.028157293            3 
 2021000   0.92785187   -7.0538431    677.66135  0.027942493  0.028149764            5 
 2022000    0.9367041   -7.0499766    678.82118  0.027976475  0.028142235            2 
 2023000   0.93828659   -7.0266326    678.12529   0.02793398  0.028134623            5 
 2024000    0.9492916   -7.0647585    679.00845   0.02795654  0.028126987            5 
 2025000   0.92149054   -7.0468787    679.16777  0.027949291  0.028119414            5 
 2026000    0.9344759   -7.0404777    679.89229  0.027965296   0.02811192            4 
 2027000   0.91975059   -7.0780466    678.81055  0.027907028  0.028104345            6 
 2028000   0.92157442   -7.0617766    679.84768  0.027935884  0.028096826            2 
 2029000   0.93260605   -7.0341356     679.2019  0.027895593  0.028089274            8 
 2030000   0.93414658   -7.0654479    679.75898   0.02790472  0.028081774            6 
 2031000   0.93411904   -7.0887364    678.27841  0.027830232   0.02807429            3 
 2032000   0.92192748   -7.0499383    679.97394   0.02788607  0.028066847            3 
 2033000   0.93008582   -7.0558711    680.55072  0.027895996  0.028059367            4 
 2034000   0.90659357   -7.0697044    678.38888   0.02779371  0.028051806            3 
 2035000   0.92754672   -7.0611215    679.40517  0.027821669  0.028044189            2 
 2036000   0.91178203   -7.0597087     679.6635  0.027818578  0.028036624            2 
 2037000   0.91715434   -7.0703032    679.86948  0.027813348  0.028029042            6 
 2038000   0.90715147   -7.0808248    680.78841  0.027837275  0.028021555            9 
 2039000   0.93188847   -7.0496583    682.19433  0.027881083  0.028014037            6 
 2040000   0.93337793   -7.0464987    682.25585  0.027869928  0.028006536            4 
 2041000   0.91946698   -7.0535406    681.61766  0.027830216  0.027998947            3 
 2042000   0.91795508   -7.0600371    682.04365  0.027833972   0.02799143            3 
 2043000   0.91434344   -7.0561449    681.68999  0.027805922  0.027983916            6 
 2044000   0.93571491   -7.0724956    681.62581  0.027789702  0.027976385            5 
 2045000   0.91494228   -7.0726013    682.94569  0.027829898    0.0279689            6 
 2046000   0.93700007   -7.0971889    681.76746  0.027768307  0.027961469            8 
 2047000   0.93446829   -7.0775708    680.74424  0.027713086  0.027953944            7 
 2048000   0.93559298   -7.0737782    681.54267  0.027732042  0.027946453            5 
 2049000   0.92411775   -7.0716538    681.28995   0.02770823  0.027938997            2 
 2050000    0.9071795   -7.1027597    682.68657  0.027751487   0.02793155            2 
 2051000   0.93666323   -7.0496052    683.72846  0.027780289  0.027924107            4 
 2052000   0.94290133   -7.0602589    684.75333  0.027808371  0.027916757            2 
 2053000   0.94574495    -7.048242    684.04828  0.027766207  0.027909435            6 
 2054000   0.91141589   -7.0655563    683.42253  0.027727302  0.027902035            3 
 2055000   0.91553377   -7.0690534    684.88298  0.027773032  0.027894601            4 
 2056000   0.93307914   -7.0389927     685.6661  0.027791265  0.027887208            2 
 2057000   0.90751541   -7.0348731    686.43853  0.027809047  0.027880002            4 
 2058000    0.9318318   -7.0817349    685.51417  0.027758105  0.027872724            6 
 2059000   0.91365816   -7.0747457    687.35604  0.027819169  0.027865417            3 
 2060000   0.90874171   -7.0703113    685.50862  0.027730931  0.027858064            2 
 2061000   0.91661821   -7.0689608    684.05599  0.027658741  0.027850671            2 
 2062000   0.94182393   -7.0645172    684.87852  0.027678569  0.027843262            3 
 2063000   0.92334421   -7.0601322    686.61503  0.027735298  0.027835853            8 
 2064000    0.9180195   -7.0612957    686.11579  0.027701703  0.027828519           15 
 2065000   0.92244618    -7.105789    684.84203  0.027636886  0.027821117            4 
 2066000   0.90409335    -7.068972    686.62049  0.027695244  0.027813733            6 
 2067000   0.93590993   -7.0654893    687.85085  0.027731448  0.027806382            7 
 2068000   0.91414808   -7.0635793    687.70795   0.02771228  0.027799049            6 
 2069000   0.92158488   -7.0428996    687.69531  0.027698377  0.027791787            3 
 2070000   0.91427866   -7.0862425    688.00237  0.027697358  0.027784419            4 
 2071000   0.93651061   -7.0749497    687.89396  0.027679622  0.027777112            5 
 2072000   0.89941877   -7.0493996     688.2702  0.027681395  0.027769851            2 
 2073000   0.90765147   -7.0716708     687.8103  0.027649554  0.027762622            3 
 2074000   0.89961245   -7.0604766    688.47701  0.027663011  0.027755302            4 
 2075000   0.91180456   -7.0555519    687.19378  0.027598144   0.02774794            2 
 2076000   0.92107494   -7.0884595    687.15549  0.027583313  0.027740615            4 
 2077000   0.93893059   -7.0780644    687.92207  0.027600789  0.027733231            4 
 2078000   0.91888627   -7.0726206    689.00834  0.027631069  0.027725899            5 
 2079000   0.91783885   -7.0711614    690.01157  0.027657991  0.027718525            3 
 2080000   0.92998446   -7.1025325    686.44001  0.027501603  0.027711076            3 
 2081000   0.91208739   -7.0439559     688.3734   0.02756581  0.027703639            3 
 2082000   0.91726749   -7.0959454    689.39033  0.027593273  0.027696238            4 
 2083000   0.91670439   -7.0708575    689.01874   0.02756516  0.027688871            2 
 2084000   0.92664808   -7.0372984    687.59849  0.027495141  0.027681562            3 
 2085000   0.90798142   -7.0761826    689.59614  0.027561796  0.027674184            4 
 2086000   0.93423591   -7.0710338    689.20068  0.027532785  0.027666746            6 
 2087000   0.93181701   -7.0860586    688.48158  0.027490879  0.027659306            4 
 2088000   0.91919522   -7.1064172    689.63742  0.027523843  0.027651837            5 
 2089000   0.90289594   -7.0549837    690.62467  0.027550051  0.027644459            5 
 2090000   0.90668284   -7.0771426    690.66945  0.027538654  0.027637038            2 
 2091000   0.91838354   -7.1186552    689.89363  0.027494565  0.027629659            3 
 2092000   0.90448299   -7.0843889    689.84722  0.027479574  0.027622182            3 
 2093000   0.91441672   -7.0769664     690.6919  0.027500076  0.027614774            7 
 2094000   0.90274669   -7.0796461     690.5154  0.027479919  0.027607403            4 
 2095000   0.92262662   -7.0402173    690.76177  0.027476602  0.027600055            6 
 2096000   0.90023429   -7.0376815    691.45985  0.027491247  0.027592762            4 
 2097000   0.90821864   -7.0840607    691.69936  0.027487655  0.027585419            3 
 2098000    0.9071443   -7.1038482    690.55909  0.027429262  0.027578102            9 
 2099000   0.90655052   -7.0806468    692.62528  0.027498225  0.027570724            2 
 2100000   0.93560854   -7.0590242    691.65938  0.027446801  0.027563373            6 
 2101000   0.91601206   -7.1324483    691.70075  0.027435378  0.027555934            2 
 2102000   0.93143226   -7.0974578    692.54021  0.027455606   0.02754854            4 
 2103000   0.92797671   -7.0850208    692.50329  0.027441088  0.027541132            2 
 2104000   0.93573107   -7.0851966    690.86359  0.027363102  0.027533713            2 
 2105000   0.93017808   -7.1244112    691.30463  0.027367562  0.027526346            3 
 2106000   0.92484238   -7.0756085     692.4555  0.027400107   0.02751896            3 
 2107000    0.9369915   -7.1036397    692.64297  0.027394517  0.027511612            8 
 2108000   0.91555904   -7.0754791    693.31633  0.027408141   0.02750424            4 
 2109000    0.9015425   -7.1057196    691.88463  0.027338574  0.027496895            3 
 2110000   0.90998078   -7.0968622    691.39763  0.027306383  0.027489497            4 
 2111000   0.93463449   -7.0654954    693.74353  0.027386054  0.027482174            3 
 2112000   0.91409937   -7.1482314    691.92884  0.027301485  0.027474788            3 
 2113000   0.89600864   -7.0838462    692.73621  0.027320406  0.027467406            3 
 2114000   0.91066074    -7.116401    693.27513  0.027328726  0.027460022            3 
 2115000   0.90536399   -7.0833628    692.36335   0.02727988  0.027452653            6 
 2116000   0.91625303   -7.0622468    693.72125  0.027320465  0.027445219            5 
 2117000   0.89641995   -7.0863888    694.17989  0.027325614  0.027437829            4 
 2118000   0.91560337   -7.0913391    693.21611  0.027274792  0.027430497            3 
 2119000   0.92575084   -7.0892396    694.20774  0.027300918  0.027423112            7 
 2120000   0.93293209    -7.079908    694.13869  0.027285326  0.027415709            4 
 2121000   0.91231706   -7.1146954    692.48703  0.027207568  0.027408276            3 
 2122000   0.90986536    -7.075447    693.31514  0.027227268  0.027400737            4 
 2123000   0.92837046   -7.0729474    694.79726   0.02727262  0.027393299            3 
 2124000   0.88985592   -7.0954997    693.87566  0.027223621  0.027385946            4 
 2125000     0.897802   -7.0755061    695.82356  0.027287198  0.027378613            4 
 2126000    0.9115527   -7.1051668    693.88207  0.027198263  0.027371192            6 
 2127000   0.89826891   -7.0949945    693.21091   0.02715918  0.027363751            7 
 2128000   0.93447099   -7.1153429    694.52338  0.027197814  0.027356285            3 
 2129000   0.91121615   -7.1025549    694.47204   0.02718303  0.027348829            5 
 2130000   0.92399627   -7.0912479    694.56749  0.027174002  0.027341345            4 
 2131000   0.90933773   -7.0902294    694.57172  0.027161416  0.027333923            3 
 2132000   0.90799443   -7.1113262    695.53677  0.027186397   0.02732653            5 
 2133000   0.92003753    -7.069575    697.41443  0.027247008  0.027319168            5 
 2134000   0.92983905   -7.0764742    695.64748  0.027165241   0.02731178            4 
 2135000   0.91863006   -7.0941856     695.0775  0.027130269  0.027304345            3 
 2136000   0.91787464   -7.1203156    694.68982  0.027102443  0.027296805            4 
 2137000   0.90031891   -7.0769771     696.4096  0.027156824  0.027289291            4 
 2138000   0.91074028   -7.1216534    696.14189  0.027133687  0.027281814            2 
 2139000   0.89862928   -7.0815921    697.23759   0.02716369  0.027274338            3 
 2140000   0.90800278   -7.1039077    695.04121  0.027065468  0.027266881            3 
 2141000   0.90643646   -7.0632953    696.32391  0.027102752  0.027259485            3 
 2142000   0.92967151   -7.1028282     696.5743  0.027099841  0.027251984            3 
 2143000   0.90600526   -7.0738054     695.8762  0.027060048  0.027244507            3 
 2144000   0.90388232   -7.1117635    695.49395  0.027032569  0.027237045            6 
 2145000   0.92783678     -7.12177    695.63598  0.027025485  0.027229533            6 
 2146000   0.91795032   -7.0602887    697.13022  0.027070916  0.027222125            6 
 2147000   0.92181573   -7.0970037    697.56227  0.027075076  0.027214736            4 
 2148000   0.88748386   -7.0409999    695.90216  0.026998066  0.027207262            3 
 2149000    0.8911836   -7.1138877    697.06206  0.027030482  0.027199806            9 
 2150000   0.92212133    -7.097991     696.2988  0.026988326  0.027192328            6 
 2151000   0.91310911   -7.0910321    698.01229  0.027042162  0.027184843            3 
 2152000   0.91059476   -7.0848082    697.26213  0.027000547  0.027177424            2 
 2153000   0.88955889   -7.1017195    698.82258  0.027048404  0.027169977            5 
 2154000   0.88965795   -7.1121968    697.79629  0.026996143  0.027162564            5 
 2155000   0.90111034   -7.1061783    698.04661  0.026993295  0.027155117            6 
 2156000   0.90594189   -7.1318441    698.41533  0.026995027  0.027147714            5 
 2157000   0.89541356   -7.0949669    698.59061  0.026989283  0.027140283            6 
 2158000   0.91537279   -7.0987863    700.63841  0.027055854  0.027132831            3 
 2159000   0.90320391   -7.1153829    698.41004  0.026957312  0.027125441            5 
 2160000   0.87976301    -7.103138    699.77788  0.026997603  0.027118041            2 
 2161000   0.91986546   -7.1060588    700.63448  0.027018143  0.027110635            7 
 2162000   0.91026901   -7.0972001    699.19386  0.026950118  0.027103258            6 
 2163000   0.88245555   -7.1154273    698.14315  0.026897178   0.02709586            3 
 2164000   0.88989405   -7.1146747    698.89064  0.026913533  0.027088427            1 
 2165000    0.9128897   -7.1088673    699.03395  0.026906619  0.027080953            2 
 2166000   0.88331501   -7.1076388    700.24331  0.026940724  0.027073505            4 
 2167000   0.89143837   -7.0906128     700.1619  0.026925161  0.027066141            2 
 2168000   0.91806145   -7.0917376    701.11234  0.026949275  0.027058864            4 
 2169000   0.90131168   -7.1240865    701.05489  0.026934643  0.027051487            4 
 2170000   0.90800967   -7.0969885    701.17993  0.026927032  0.027044179            3 
 2171000   0.89424429   -7.1075708    701.11139  0.026911999  0.027036917            3 
 2172000   0.91883772   -7.1043706    700.87949  0.026890711  0.027029675            4 
 2173000   0.89004069   -7.1058427    701.76741  0.026912387   0.02702243            4 
 2174000   0.90362812   -7.1382348    701.40115  0.026885969  0.027015219            3 
 2175000   0.90699631   -7.1112468    704.02365  0.026974086  0.027008027            6 
 2176000    0.9054191    -7.120786    703.46561  0.026940319  0.027000856            7 
 2177000   0.90067665   -7.1096832    703.43606  0.026926813  0.026993695            7 
 2178000   0.89401418   -7.1508429    702.96765  0.026896528  0.026986445            3 
 2179000   0.90026456    -7.101436    704.70289  0.026950547   0.02697924            3 
 2180000   0.91284308   -7.1122384    703.55346  0.026894245  0.026972036            6 
 2181000   0.91367366    -7.121065     702.7756  0.026852193  0.026964805            4 
 2182000   0.90556795   -7.1253921      702.902  0.026844714  0.026957533            7 
 2183000   0.88937842   -7.1206416    701.96426   0.02679662  0.026950242            3 
 2184000   0.90150137   -7.1050968    703.86893  0.026857026  0.026942924            3 
 2185000   0.90088327   -7.1284454    704.55136  0.026870761  0.026935667            5 
 2186000   0.89360379   -7.1074831    704.51209  0.026856972  0.026928409            8 
 2187000   0.89258639   -7.0911222    705.13064  0.026868261  0.026921176            3 
 2188000   0.89103257   -7.0949652     704.4087  0.026828485   0.02691391            3 
 2189000   0.88563999   -7.0751504    704.86098  0.026833447  0.026906681            2 
 2190000   0.90173826   -7.1047632    703.78106  0.026780101  0.026899381            3 
 2191000   0.89379297   -7.1521897    702.68186  0.026726071  0.026892018            4 
 2192000   0.91404764   -7.1349871    702.69416  0.026714346  0.026884578            9 
 2193000   0.89652269   -7.1061846    703.54177  0.026734373  0.026877171            4 
 2194000   0.90842455   -7.1444493    703.34756  0.026714812  0.026869742            4 
 2195000   0.90109911   -7.1299532    704.76746  0.026756548  0.026862353            9 
 2196000   0.91459858   -7.1478672    702.34702  0.026652513  0.026854941            4 
 2197000     0.920098   -7.1152766    703.59409  0.026687684  0.026847578            3 
 2198000   0.88459273   -7.1318018    704.20337  0.026698642  0.026840198            2 
 2199000   0.91435562   -7.1543795    704.80527   0.02670931  0.026832839            2 
 2200000   0.90410413   -7.1167123    705.92339  0.026739522  0.026825527            4 
 2201000   0.89935739     -7.10784    705.53789  0.026712778  0.026818183            4 
 2202000   0.90987622   -7.1227758    704.29869   0.02665375  0.026810787            7 
 2203000   0.90333446   -7.1344431    705.81116  0.026698864  0.026803414            2 
 2204000   0.91733094   -7.1265906    705.01314  0.026656577   0.02679604           12 
 2205000   0.88910388   -7.1450334    705.85397  0.026676265  0.026788611            3 
 2206000    0.8999597   -7.1182702    704.55849  0.026615235  0.026781195            7 
 2207000   0.90034728   -7.1124925    704.71302   0.02660901  0.026773731            5 
 2208000   0.90228007   -7.1259044    706.46472  0.026663071  0.026766329            2 
 2209000   0.91832214   -7.1390195    705.32527  0.026608015  0.026758915            6 
 2210000   0.88477133     -7.11928    706.00715  0.026621687   0.02675153            4 
 2211000   0.89401924   -7.1364863    706.40783  0.026624748  0.026744164            4 
 2212000   0.91172792   -7.1388858    705.67982  0.026585285  0.026736755            8 
 2213000   0.88731671   -7.1491064    704.26919  0.026520153  0.026729359            4 
 2214000   0.89836156   -7.1248601    705.20864  0.026543535  0.026721913            2 
 2215000   0.92863219   -7.1069435    708.32108  0.026648649   0.02671447            2 
 2216000   0.90755927   -7.1289539    706.11598    0.0265537  0.026707084            7 
 2217000   0.88393382   -7.1122266     705.7589    0.0265283   0.02669968            5 
 2218000   0.91202878   -7.1008382     708.1533  0.026606301  0.026692295            4 
 2219000   0.90931406   -7.1171235    708.07495  0.026591368  0.026684898            2 
 2220000   0.91286716   -7.1364831    706.37913  0.026515733  0.026677487            5 
 2221000   0.89784115   -7.1261754    706.68387  0.026515229  0.026670048            7 
 2222000   0.89951391    -7.151922    706.32048  0.026489667  0.026662564            3 
 2223000   0.90052018   -7.1485442    706.81055  0.026496122  0.026655072            2 
 2224000   0.89493618   -7.1671071     707.1448  0.026496733  0.026647592            4 
 2225000   0.91480544   -7.1289451    708.91965  0.026551298  0.026640095            3 
 2226000   0.89264989   -7.1372171    707.61804  0.026490643   0.02663265            4 
 2227000   0.90271782   -7.1430446    709.41546  0.026546006  0.026625213            6 
 2228000   0.90702031   -7.1889439    705.85316  0.026400851  0.026617705            3 
 2229000   0.88446148   -7.1132238    709.19096  0.026513794  0.026610296            3 
 2230000   0.91474594   -7.1208568    710.91368  0.026566281   0.02660292            7 
 2231000   0.91162404   -7.1158136    707.93034  0.026442938  0.026595469            5 
 2232000   0.87914059   -7.1141787    707.44484  0.026412964  0.026587982            5 
 2233000   0.90369858   -7.1335174    708.31277  0.026433526  0.026580518            3 
 2234000   0.88056396    -7.123271    709.45843  0.026464429  0.026573081            5 
 2235000   0.88759255   -7.1459509    709.79324  0.026465072  0.026565653            3 
 2236000   0.90163401   -7.1182517    709.12014  0.026428151  0.026558277            3 
 2237000   0.89645077   -7.1204124    709.27016  0.026421925  0.026550881            4 
 2238000   0.90374616   -7.1149622    708.43202  0.026378911  0.026543464            4 
 2239000    0.8940706   -7.1057459      709.019  0.026388976  0.026536068            5 
 2240000   0.89125938   -7.1066539    711.21878  0.026459032  0.026528704           11 
 2241000   0.89395212   -7.1463773    708.51471  0.026346672  0.026521281            2 
 2242000   0.88180108   -7.1346632    709.09942  0.026356654  0.026513785            8 
 2243000   0.89353319   -7.1362956    708.68842  0.026329634  0.026506303            2 
 2244000   0.88415925   -7.1057305     709.4221  0.026345146  0.026498883            2 
 2245000   0.86987482   -7.1552522    708.74755  0.026308372  0.026491502            5 
 2246000   0.87597636   -7.1031471    710.90488  0.026376702  0.026484148            3 
 2247000   0.87978823   -7.1100861     711.0322  0.026369686  0.026476871            4 
 2248000   0.88733715   -7.1280928    712.90444  0.026427359  0.026469543            4 
 2249000   0.90357352   -7.1318503    710.55444  0.026328533  0.026462216            4 
 2250000   0.88881303   -7.0960826    711.50189  0.026351922   0.02645484            3 
 2251000   0.90491962   -7.1297298    711.34764  0.026334505  0.026447511            5 
 2252000   0.87832188   -7.1297487    713.02501  0.026384881  0.026440231            6 
 2253000   0.88759899   -7.1210228    714.09428  0.026412719  0.026432971            4 
 2254000   0.89635923    -7.106176    712.27761  0.026333837  0.026425673            3 
 2255000   0.89748763   -7.1564523     712.4721  0.026329346  0.026418293            3 
 2256000   0.89359734   -7.1421803    711.64352  0.026287069  0.026411029            6 
 2257000   0.87634992   -7.1163247    711.89461  0.026284692  0.026403731            4 
 2258000   0.90728532   -7.1085205    713.86086  0.026345618  0.026396507            2 
 2259000   0.90494727   -7.1490549    712.88209  0.026297849   0.02638929            5 
 2260000    0.8762598   -7.1466719    713.89365  0.026323512  0.026382107            5 
 2261000   0.87518871   -7.1475394    715.81058  0.026382522  0.026374863            3 
 2262000   0.88992175   -7.1456531    713.43171  0.026283219  0.026367543            3 
 2263000   0.89748692   -7.1774851    713.99845  0.026292475  0.026360207            6 
 2264000   0.89382584   -7.1523491    713.87838  0.026276442  0.026352852            5 
 2265000   0.89183858   -7.1314976    713.52227  0.026251739  0.026345563            4 
 2266000   0.86942278   -7.1139774    714.16303  0.026263718  0.026338285            4 
 2267000   0.89083589   -7.1169368    713.86618  0.026241221  0.026330988            4 
 2268000   0.87827534   -7.1643372    712.69405  0.026186583  0.026323642            4 
 2269000   0.88333228   -7.1327573    716.73478  0.026323446  0.026316279            5 
 2270000   0.88071906    -7.149247    714.17424   0.02621785   0.02630895            5 
 2271000   0.89996731   -7.1401656    714.82874  0.026230322  0.026301658            4 
 2272000   0.90488993   -7.1452198     714.2108  0.026196112  0.026294413            3 
 2273000     0.879199   -7.1304187    715.50732  0.026232121  0.026287133            6 
 2274000   0.87637994    -7.130476    715.81125  0.026231723  0.026279898            3 
 2275000   0.85559447   -7.1071151    716.73105  0.026253885  0.026272708            3 
 2276000   0.89535675   -7.1386834    715.21552   0.02618686  0.026265444            2 
 2277000   0.89951935    -7.142367    715.47642  0.026184908  0.026258187            2 
 2278000   0.88032634    -7.143529    716.31829   0.02620421  0.026250955            4 
 2279000   0.87044016   -7.1431609    715.68147  0.026169426  0.026243699            5 
 2280000   0.88757721   -7.1270877    715.23575  0.026141657  0.026236457            4 
 2281000   0.87611656   -7.1320492    717.47451  0.026211987   0.02622923            3 
 2282000    0.8964884   -7.1405935    716.95956  0.026181696  0.026222023            6 
 2283000   0.88983566    -7.118252    717.57437  0.026192669  0.026214816            3 
 2284000   0.87347792   -7.1224617    719.24904  0.026242303  0.026207645            4 
 2285000   0.88201279   -7.1596649    716.88138   0.02614447  0.026200488            4 
 2286000   0.88097834   -7.1819903    717.20898  0.026144976  0.026193273            3 
 2287000   0.89150033   -7.1340801    718.31443  0.026173824  0.026186089            4 
 2288000   0.89177777   -7.1563058    718.12528  0.026155495  0.026178871            3 
 2289000   0.88500777   -7.1407292    718.47569  0.026156826  0.026171656            3 
 2290000   0.88295094   -7.1873932    717.62844  0.026114572  0.026164495            7 
 2291000   0.87677998   -7.1526249    718.16543  0.026122706  0.026157355            3 
 2292000   0.88889262    -7.166557    718.35309  0.026118131  0.026150167            2 
 2293000   0.88086151   -7.1541932    717.78615  0.026086137  0.026142976            8 
 2294000   0.88940384   -7.1623004    718.38814  0.026096634  0.026135765            3 
 2295000   0.88538481   -7.1259924    718.41538  0.026086252  0.026128636            4 
 2296000   0.87117429   -7.1500148    716.68387  0.026012045  0.026121481            5 
 2297000   0.88908187   -7.1595625    716.50762  0.025994327  0.026114277            4 
 2298000   0.88863299   -7.1515775    720.24472  0.026118535  0.026107064            4 
 2299000   0.87931177   -7.1884795    719.23239  0.026070479  0.026099899            3 
 2300000    0.8646129   -7.1292054    719.62647  0.026073423  0.026092778            3 
 2301000   0.90727964   -7.1460471    718.60211  0.026024993  0.026085682            8 
 2302000   0.88624251   -7.1341114    718.52535  0.026010909  0.026078441            8 
 2303000   0.87654721   -7.1915028    717.02209   0.02594522  0.026071219            2 
 2304000   0.87284596    -7.132534    720.04332  0.026043233  0.026063978            5 
 2305000   0.88108786   -7.1518252    718.42144  0.025973299  0.026056766            4 
 2306000   0.89428614   -7.1571988    719.53091  0.026002129   0.02604954            6 
 2307000   0.87737267   -7.1276428    721.17308  0.026050176  0.026042388            4 
 2308000    0.8985587   -7.1404832    719.57915  0.025981338  0.026035196            5 
 2309000   0.89713497   -7.1450808    720.29716     0.025996  0.026028005            6 
 2310000   0.87132071   -7.1451268     719.2954  0.025948607  0.026020814            5 
 2311000   0.88248001   -7.1584786    720.74494  0.025989649  0.026013586            5 
 2312000    0.8871097   -7.1799771    719.00475  0.025915685  0.026006366            6 
 2313000   0.89464219   -7.1560811    720.83226  0.025970322  0.025999133            2 
 2314000   0.88115817   -7.1851556    720.52308  0.025947964    0.0259919            4 
 2315000   0.87884078   -7.1547447    721.20759  0.025961396  0.025984697            6 
 2316000   0.86345908   -7.1383532    721.21137  0.025950323  0.025977506            4 
 2317000   0.86285082   -7.1945253    720.06832  0.025898012  0.025970272            4 
 2318000   0.86355363   -7.1426442    720.22876  0.025892607   0.02596299            3 
 2319000   0.86867927   -7.1482204    721.54958  0.025928905  0.025955797            2 
 2320000   0.87206638   -7.1357876    721.32769  0.025909759  0.025948584            5 
 2321000    0.8750692   -7.1474713    718.22874  0.025787331  0.025941332            3 
 2322000   0.88652159   -7.1841979    718.86369  0.025799013   0.02593408            4 
 2323000   0.88122927   -7.1826472    718.66462  0.025780765  0.025926782            2 
 2324000   0.88124447   -7.1858743    720.39897  0.025831862  0.025919491            4 
 2325000   0.86408164   -7.1558774    722.03005  0.025879213  0.025912198            3 
 2326000   0.87127673   -7.1545225    720.67165   0.02581942  0.025904947            3 
 2327000   0.88163014   -7.1535222    722.69894  0.025880925  0.025897725            8 
 2328000   0.87843352   -7.1377494    721.73962  0.025835467  0.025890493            5 
 2329000   0.86929583   -7.1633229     722.1547  0.025839227  0.025883285            4 
 2330000   0.89191505   -7.1528534    721.86714  0.025817852  0.025876063            1 
 2331000   0.87526688   -7.1439972    722.15109  0.025816927  0.025868906            4 
 2332000   0.88402309   -7.1513623     721.6347  0.025787404  0.025861761            3 
 2333000   0.87507931   -7.1747305     724.5194   0.02587939  0.025854638            4 
 2334000   0.87780545   -7.1741574    722.33681  0.025790374  0.025847489            5 
 2335000   0.86408066   -7.1741572    723.29022  0.025813355  0.025840356            3 
 2336000    0.8629239   -7.1369458    723.88469  0.025823512   0.02583322            4 
 2337000   0.87413836   -7.1374523    723.76061  0.025808038  0.025826151            3 
 2338000   0.86437767   -7.1635612     724.6367  0.025828226  0.025819034            4 
 2339000   0.88411193   -7.1659007    724.60522  0.025816062   0.02581199            6 
 2340000   0.87951886   -7.1622345    722.61717   0.02573423  0.025804998            6 
 2341000   0.87027616   -7.1745932    724.68965  0.025797012  0.025797924            2 
 2342000   0.87319334    -7.138178     722.1724  0.025696428  0.025790886            5 
 2343000   0.86753456   -7.1826651    725.69336   0.02581069  0.025783827            5 
 2344000   0.88454754   -7.1740464    727.19201  0.025852958   0.02577675            3 
 2345000   0.85826583   -7.1703861    724.32404  0.025740015  0.025769706            3 
 2346000    0.8991484    -7.166895    727.43512  0.025839554  0.025762746            4 
 2347000   0.87566491   -7.1622571    726.11403  0.025781637  0.025755769            5 
 2348000   0.88932788   -7.1433191    725.82918  0.025760547  0.025748703            7 
 2349000   0.89696934   -7.1807225    725.95794  0.025754148  0.025741658            4 
 2350000   0.86801568   -7.1534604    725.04173    0.0257107  0.025734587            4 
 2351000   0.88074628   -7.1925865    726.13908   0.02573866  0.025727561            5 
 2352000   0.87057583   -7.1673207    728.30363  0.025804409  0.025720536            5 
 2353000   0.87631587   -7.1956255    726.27311   0.02572153  0.025713469            3 
 2354000   0.85523966   -7.1603193     726.8374  0.025730579   0.02570641            8 
 2355000   0.87252994   -7.1662464     725.0467  0.025656288  0.025699315            4 
 2356000    0.8778374   -7.1734335    726.63949  0.025701736  0.025692258            3 
 2357000   0.87778443    -7.145478    725.94902   0.02566642  0.025685188            3 
 2358000    0.8757382   -7.1652962    726.48756  0.025674567  0.025678106            4 
 2359000   0.86283502    -7.146072    727.55591  0.025701424  0.025671092            4 
 2360000   0.88851176   -7.1452652    725.31207  0.025611302  0.025663999            4 
 2361000   0.85460784   -7.1599685    726.01698  0.025625335  0.025656928            5 
 2362000   0.87029247   -7.1609451    725.71647  0.025603883  0.025649786            7 
 2363000   0.85937423   -7.1882953    725.73123  0.025593569  0.025642605            3 
 2364000    0.8867693   -7.1844436     729.1459  0.025703113  0.025635489            4 
 2365000   0.87518407    -7.176765    727.03715   0.02561794  0.025628415            2 
 2366000   0.86878001   -7.2058591    724.96954  0.025534289  0.025621235            5 
 2367000   0.86984086   -7.2116085    727.48413  0.025612031  0.025614112            4 
 2368000   0.87807012   -7.1712102    726.26758  0.025558403  0.025607004            4 
 2369000   0.88821735   -7.1699773    724.95148  0.025501318  0.025599927            6 
 2370000   0.85736077   -7.1602682    726.94564  0.025560677  0.025592803            4 
 2371000   0.86135601   -7.1855774     728.4093  0.025601339  0.025585731            5 
 2372000   0.87215655   -7.1607909    728.35906  0.025588781  0.025578606            3 
 2373000   0.88317142   -7.1811757    727.53272  0.025548979  0.025571445            3 
 2374000   0.87967199   -7.1994398    727.78969  0.025547237  0.025564369            6 
 2375000    0.8728946   -7.1581937    727.58592  0.025529331  0.025557251            7 
 2376000   0.86654849   -7.2118457     727.2815  0.025507909   0.02555013            5 
 2377000   0.87463746   -7.1690287    730.30191  0.025603068  0.025543034            3 
 2378000   0.85599169   -7.1877927    728.17179  0.025517655  0.025535967            3 
 2379000   0.87078463   -7.1700902    728.07729  0.025503618  0.025528876            5 
 2380000   0.86519437   -7.1904018    728.33102  0.025501786   0.02552175            4 
 2381000   0.85661725   -7.1969173    727.90028     0.025476   0.02551464            4 
 2382000   0.88323955   -7.2159734    728.00469  0.025468958  0.025507451            4 
 2383000    0.8535092    -7.187592    729.86636  0.025523373  0.025500272            4 
 2384000   0.88268793   -7.1927293    728.65768  0.025470417    0.0254931            4 
 2385000   0.86802732   -7.1851075    728.25437  0.025445645  0.025485944            6 
 2386000   0.86493902   -7.2032549    727.59389  0.025411913  0.025478737            6 
 2387000   0.86654319   -7.1651528    727.94106  0.025413387  0.025471561            3 
 2388000   0.86742364   -7.1843523    728.16989   0.02541073  0.025464394            4 
 2389000   0.86839912   -7.1841594    729.75431  0.025455362  0.025457177            5 
 2390000   0.84944869   -7.1421397    729.67289  0.025441872  0.025449992            7 
 2391000   0.88275154   -7.1907531    729.48154  0.025424562  0.025442874            4 
 2392000   0.88529993   -7.1693334    729.03089  0.025398233  0.025435719            6 
 2393000   0.87015005   -7.1905245    729.72939  0.025411944  0.025428599            3 
 2394000   0.86249233   -7.1863981    730.48258  0.025427547  0.025421484            3 
 2395000   0.87566286   -7.2185505    729.90445  0.025396815  0.025414311            3 
 2396000   0.84398375   -7.1586431    729.65329   0.02537748  0.025407182            5 
 2397000   0.87861563   -7.1871487    728.92852  0.025341695  0.025400085            4 
 2398000   0.87497945   -7.1770186    730.46917  0.025384667  0.025392983            4 
 2399000   0.84945526     -7.20366    732.21449  0.025434712  0.025385907            3 
 2400000   0.86631217   -7.1926882    730.06885  0.025349613  0.025378818            5 
 2401000   0.86261392   -7.2006207    730.98958  0.025371012  0.025371729            6 
 2402000    0.8674493   -7.1782178    730.02763  0.025327076  0.025364659            6 
 2403000   0.87276248   -7.1821727    731.97366  0.025384022  0.025357629           10 
 2404000   0.85699087   -7.1772595    732.09969  0.025377832  0.025350568            3 
 2405000   0.87055586   -7.1756143    731.32291  0.025340364  0.025343492            3 
 2406000   0.86781679   -7.1573093    731.79655  0.025346237  0.025336425            4 
 2407000   0.85633453   -7.2043476    732.51059  0.025360427  0.025329377            8 
 2408000   0.86862544   -7.1845699    731.24521  0.025306105  0.025322273            2 
 2409000   0.86587656    -7.177536    733.25236  0.025365033  0.025315219            3 
 2410000   0.85614408   -7.1617481    731.91125  0.025308134  0.025308145            4 
 2411000   0.85658664    -7.189749    731.80605  0.025294001  0.025301064            5 
 2412000   0.87068082   -7.1851399    734.20468  0.025366386  0.025293945            6 
 2413000   0.84947824   -7.1675719    733.71978  0.025339128  0.025286875            2 
 2414000   0.84562376   -7.2167723    730.36394  0.025212784  0.025279777            6 
 2415000   0.86789113   -7.1746573    732.22223  0.025266468  0.025272676            3 
 2416000   0.85610202   -7.1652142    734.10463  0.025320938  0.025265621            4 
 2417000   0.85844025   -7.1797734    735.53206  0.025359676  0.025258573            5 
 2418000   0.86613685   -7.1930483     731.3865  0.025206317  0.025251471            3 
 2419000   0.89766927   -7.1511106    732.79961  0.025244578  0.025244362            8 
 2420000   0.85618527   -7.1531342    732.48142   0.02522319  0.025237293            4 
 2421000   0.87666401    -7.188375    730.09432  0.025130604  0.025230226            6 
 2422000   0.86655836   -7.1837253    731.82694  0.025179842  0.025223103            6 
 2423000   0.86238951   -7.1959961    732.59573  0.025195891  0.025215946            3 
 2424000   0.87117912   -7.2403435    732.13602  0.025169693  0.025208791            5 
 2425000   0.85796778   -7.1924667    733.35948  0.025201357  0.025201639            4 
 2426000   0.86444683    -7.213963    733.13537  0.025183271  0.025194525            5 
 2427000   0.87271494   -7.1945229    733.78252  0.025195115  0.025187444            4 
 2428000   0.85722548   -7.2191794    732.82251  0.025151788  0.025180313            4 
 2429000   0.88308586   -7.2016224    733.97361  0.025180925  0.025173204            5 
 2430000   0.88833963   -7.1759561    734.66288    0.0251942  0.025166086            4 
 2431000   0.84309482   -7.1788755    735.21345   0.02520271  0.025158983            5 
 2432000   0.86203661   -7.1923303    734.51827  0.025168526  0.025151886            6 
 2433000   0.85021972   -7.1909313    734.30816  0.025150985  0.025144771            5 
 2434000    0.8615004   -7.2006194    735.00716  0.025164584  0.025137651            2 
 2435000   0.86253892   -7.2354124    732.90896  0.025082442  0.025130507            6 
 2436000    0.8643686   -7.2266437    732.78896  0.025068041  0.025123418            5 
 2437000   0.86570154   -7.1830797    735.63059  0.025154924  0.025116307            4 
 2438000   0.87139804     -7.19144    734.07317  0.025091372  0.025109293            4 
 2439000   0.85865242   -7.1972714      735.279  0.025122284  0.025102254            7 
 2440000   0.87425121   -7.1497116    736.75411  0.025162367  0.025095264            3 
 2441000   0.84914458   -7.1900947    735.26491  0.025101219  0.025088286            5 
 2442000   0.86947185   -7.2089193    736.41438  0.025130166  0.025081285            6 
 2443000   0.86712397   -7.2218219    735.94324  0.025103808  0.025074293            4 
 2444000   0.86303253   -7.2000501    733.56155  0.025012328  0.025067268            4 
 2445000   0.87045737   -7.2060531    736.61794  0.025106269  0.025060212            7 
 2446000   0.86399935   -7.1975726    736.31327  0.025085625  0.025053175            4 
 2447000   0.87626346   -7.2336539     736.0362  0.025065938  0.025046148            5 
 2448000   0.86720891   -7.2075116    736.76749  0.025080593  0.025039102            4 
 2449000   0.85605865   -7.1966065    735.03217  0.025011303  0.025032033            4 
 2450000   0.85082306   -7.2025681    735.91251  0.025031038  0.025025052            3 
 2451000   0.86419459   -7.1922553    737.76666  0.025083866  0.025018063            3 
 2452000   0.85244736   -7.2064083     734.6729  0.024968492  0.025011066            2 
 2453000   0.85065627   -7.2076371    736.72922   0.02502817  0.025004084            4 
 2454000   0.87047324   -7.2033242    736.61895  0.025014227  0.024997054            9 
 2455000   0.86504993   -7.2066567    738.55761  0.025069844  0.024990024            4 
 2456000    0.8582936    -7.210954    737.07985  0.025009496  0.024983016            5 
 2457000   0.84301478   -7.1573084    739.17943  0.025070527  0.024975983            3 
 2458000   0.86301321   -7.1731134    738.80686  0.025047697   0.02496902            3 
 2459000   0.84151389   -7.1946213    736.81747  0.024970092  0.024961995            5 
 2460000   0.86885627   -7.1903782    736.81758  0.024959945  0.024954939            3 
 2461000   0.86337407   -7.1917163    737.05054  0.024957691  0.024947799            6 
 2462000   0.85311892   -7.2111428    735.93156  0.024909679   0.02494068            7 
 2463000   0.85252628   -7.2180966    737.60507  0.024956187  0.024933597            5 
 2464000   0.85422273   -7.2134732    737.39181  0.024938846  0.024926473            5 
 2465000   0.86892821   -7.2308276    735.81367  0.024875378  0.024919388            5 
 2466000   0.83490222   -7.2194852    736.37858   0.02488438  0.024912287           14 
 2467000   0.86400535   -7.2180499    736.38467  0.024874499  0.024905253            4 
 2468000   0.87772419   -7.2002721     736.0671  0.024853697   0.02489815            7 
 2469000   0.84329123   -7.1925088    739.71492  0.024966752  0.024891093            3 
 2470000   0.85779518   -7.1615303    738.04181  0.024900196  0.024884055            3 
 2471000   0.86355565   -7.2019141    738.31976  0.024899493  0.024876963           11 
 2472000   0.85163123   -7.2101624    737.93084  0.024876309  0.024869836            2 
 2473000   0.86593155   -7.2310803    738.61017  0.024889142  0.024862677            3 
 2474000   0.83808649   -7.1897918    737.98343  0.024857971  0.024855546            5 
 2475000   0.86312534   -7.1634256     738.7977  0.024875343  0.024848446            4 
 2476000   0.86323963   -7.2128561    738.87839  0.024868013  0.024841354            5 
 2477000   0.84816019   -7.2072179    736.85147  0.024789782  0.024834238            4 
 2478000   0.86001873    -7.159904    737.44719  0.024799811  0.024827151            4 
 2479000   0.86723739   -7.2064211    736.79142  0.024767763  0.024820003            5 
 2480000   0.84626606   -7.2028356    735.90614  0.024728029  0.024812819            4 
 2481000   0.86077936    -7.210701    736.86478  0.024750261  0.024805661            3 
 2482000   0.83095467    -7.222631    737.43696    0.0247595  0.024798498            6 
 2483000   0.85394534   -7.1904563    740.74548  0.024860568  0.024791371           12 
 2484000   0.85482364   -7.2321548    738.47888  0.024774519  0.024784305            3 
 2485000   0.84765282   -7.2284017    739.68073  0.024804853  0.024777196            8 
 2486000   0.86288797   -7.2310769    739.18323  0.024778199   0.02477012            4 
 2487000    0.8532131   -7.2310232    739.34768  0.024773746  0.024763035            8 
 2488000   0.84988873   -7.1857509    737.19601  0.024691721  0.024755938            5 
 2489000   0.84698645   -7.1939171    740.01005  0.024776016  0.024748853            7 
 2490000   0.86403489   -7.2268795    736.33157  0.024642958  0.024741702            4 
 2491000   0.83245927   -7.2185015    737.73869  0.024680138  0.024734529            4 
 2492000   0.85940128   -7.1947621     738.7715  0.024704772   0.02472733            3 
 2493000   0.82938476   -7.2281982    737.27031  0.024644682  0.024720154            4 
 2494000   0.87709221   -7.1987704    740.17478  0.024731849  0.024712961            8 
 2495000   0.82779869   -7.1739299    738.40039  0.024662672  0.024705804            4 
 2496000   0.86196341   -7.2257625    739.53313  0.024690609  0.024698586            5 
 2497000   0.86528314   -7.1801794    739.37157  0.024675329  0.024691373            4 
 2498000   0.84189873   -7.2347719    738.36266  0.024631794  0.024684224            3 
 2499000   0.84083655    -7.238968    739.71727  0.024667109  0.024677061            3 
 2500000   0.84507963   -7.2015936    739.58159   0.02465272  0.024669908            4 
 2501000   0.84055167   -7.2176304    740.06096  0.024658835  0.024662799            6 
 2502000   0.86049055   -7.2346912    739.84255  0.024641705    0.0246557            4 
 2503000   0.83963068   -7.2134138    739.85666   0.02463233  0.024648506            4 
 2504000   0.86348092   -7.2431463    739.19946  0.024600621  0.024641295            2 
 2505000   0.86126583    -7.216335    739.37703  0.024596708  0.024634117            4 
 2506000   0.85834739   -7.2394749    738.93401  0.024572161  0.024626985            5 
 2507000   0.84352747   -7.2131948    739.87211  0.024593542  0.024619826            6 
 2508000   0.85629323   -7.2120229     740.0541  0.024589783  0.024612651            8 
 2509000   0.86352337   -7.2276146    740.68352  0.024600887  0.024605515            6 
 2510000   0.83747691    -7.214905    741.29172  0.024611279  0.024598386            4 
 2511000   0.86975885    -7.232481     740.0901  0.024561599  0.024591245            6 
 2512000   0.86103001   -7.2599629    740.70894  0.024572351  0.024584112            6 
 2513000   0.86267165   -7.2500076    740.38774  0.024551921  0.024577003            5 
 2514000    0.8505958   -7.1991914    740.71073  0.024552862  0.024569922            4 
 2515000   0.84356728   -7.2178274    742.44949  0.024600712  0.024562798            4 
 2516000    0.8391046   -7.2096847    740.70632  0.024533198  0.024555673            6 
 2517000   0.84320067   -7.2015786    739.88057  0.024496112  0.024548545            4 
 2518000   0.84694287   -7.2107973    741.12909  0.024527703  0.024541409            5 
 2519000   0.85838466    -7.221747    742.49201  0.024563054  0.024534324            6 
 2520000   0.84805318   -7.2335231     741.2591  0.024512536  0.024527202            6 
 2521000   0.86570956   -7.2498008     741.6931  0.024517159  0.024520077            5 
 2522000   0.85530026    -7.280552    742.37598  0.024530002  0.024512946            3 
 2523000   0.84061454   -7.2149773    743.12155  0.024544905  0.024505867            5 
 2524000    0.8260458    -7.248049    742.74339  0.024522695  0.024498768            3 
 2525000   0.84989608   -7.2451541     743.2443  0.024529515  0.024491699            4 
 2526000   0.83318992   -7.1920284    745.13498  0.024582178  0.024484648            5 
 2527000     0.860388   -7.2305099    743.13241  0.024506411  0.024477623            3 
 2528000   0.86251854   -7.2192061    745.44744   0.02457303  0.024470572            6 
 2529000   0.85615995   -7.2173469    743.71176  0.024506121   0.02446353            8 
 2530000   0.83841401   -7.2079326    742.50576  0.024456712  0.024456454            3 
 2531000   0.85167232    -7.243192    741.71033  0.024420859  0.024449285            2 
 2532000   0.85666807   -7.2367012    742.61143  0.024440871  0.024442149            4 
 2533000   0.85421283   -7.2405532    743.17741  0.024449842  0.024435016            2 
 2534000   0.85438045   -7.2573009    742.30584  0.024411531  0.024427891            4 
 2535000   0.85702896   -7.2395327    741.96495  0.024390695  0.024420814            4 
 2536000    0.8721202   -7.2448734    742.45932  0.024397322  0.024413724            3 
 2537000   0.84152033   -7.2356841    740.56561  0.024325503  0.024406592            4 
 2538000   0.84195537   -7.2650983    742.41986  0.024376801  0.024399474            4 
 2539000   0.85682104   -7.2093934    743.53122  0.024403677   0.02439237            4 
 2540000   0.84161095   -7.2342029    743.57059  0.024395361  0.024385276            5 
 2541000   0.84764897   -7.2376102    741.93176  0.024332014   0.02437819           12 
 2542000   0.83167851   -7.2357841     743.7969  0.024383586  0.024371094            9 
 2543000   0.83273948   -7.2518666    743.15195  0.024352862  0.024363958            8 
 2544000   0.84137653   -7.2277785    744.73031  0.024394992  0.024356854            7 
 2545000   0.84929673   -7.2427605    743.51311  0.024345551  0.024349773            3 
 2546000   0.84242094   -7.2299622    742.66913  0.024308364  0.024342718            3 
 2547000    0.8381024   -7.2229425    743.99663  0.024342253  0.024335663            8 
 2548000   0.83928348   -7.2390905    745.01388  0.024365969  0.024328614            2 
 2549000   0.84763951   -7.2437105    744.45727  0.024338213  0.024321542            6 
 2550000   0.85407722   -7.2350461    743.56316   0.02429945  0.024314468            3 
 2551000   0.81866107   -7.2488172    745.50736  0.024353435  0.024307459            3 
 2552000   0.85791898   -7.2252649    744.55506  0.024312796  0.024300411            6 
 2553000    0.8300203   -7.2295258    745.82543  0.024344739  0.024293385            8 
 2554000   0.82872712   -7.2500788    744.15333  0.024280649  0.024286308            2 
 2555000   0.82781437   -7.2279507    745.11867  0.024302631  0.024279244            3 
 2556000    0.8400069   -7.2555501    745.50122  0.024305595  0.024272242            5 
 2557000   0.83501204   -7.2652565    746.36583  0.024324268  0.024265231            5 
 2558000   0.82498224   -7.2554876    746.95037  0.024333802  0.024258179            3 
 2559000   0.84038884   -7.2271209    745.51843  0.024277662  0.024251135            4 
 2560000   0.83808148    -7.232054    744.99835  0.024251248  0.024244069            5 
 2561000   0.84042623   -7.2335218    745.51333  0.024258536  0.024237066            7 
 2562000   0.83798322   -7.2365009    745.92813  0.024262559  0.024230086            7 
 2563000   0.84877278   -7.2571867     745.6072  0.024242658  0.024223033            4 
 2564000   0.83565996   -7.2372535     746.0194    0.0242466  0.024215972            4 
 2565000   0.84527979   -7.2390865    745.77033  0.024229055  0.024208939            4 
 2566000   0.82956568   -7.2810698    746.73358  0.024250896  0.024201935            5 
 2567000   0.85288991    -7.216341    746.57026  0.024236147  0.024194907            6 
 2568000   0.85176544   -7.2389547    746.88028  0.024236769  0.024187928            7 
 2569000   0.83648604    -7.250222    748.03833    0.0242649  0.024180967            3 
 2570000   0.84499409   -7.2447431    747.51936   0.02423863  0.024173986            8 
 2571000   0.83846043   -7.2135392    747.37523  0.024224531  0.024167021            4 
 2572000   0.83029211   -7.2718528    746.44593  0.024185003   0.02416005            4 
 2573000   0.82955014   -7.2225171    746.86629  0.024189218  0.024153076            6 
 2574000   0.84765789   -7.2813046    746.49299  0.024167735  0.024146081            2 
 2575000   0.83098558    -7.271272    747.65337  0.024195902  0.024139067            3 
 2576000   0.83775666   -7.2768386     747.5746  0.024183961  0.024132022            3 
 2577000   0.83190064   -7.2218555    746.25136  0.024131786  0.024125028            6 
 2578000   0.83492919   -7.2452296    747.02247  0.024147352  0.024118062            5 
 2579000   0.82184029   -7.2152702    746.43732  0.024119081  0.024111067            2 
 2580000   0.82557627   -7.2453405    745.70682  0.024086138   0.02410403            6 
 2581000   0.82627819   -7.2451923    747.07731  0.024121055  0.024097033            4 
 2582000   0.84204577   -7.2540867     747.7036  0.024131926  0.024090007            4 
 2583000   0.84179352   -7.2543567    748.30581  0.024142012  0.024083013           13 
 2584000    0.8401008   -7.2742162    747.02839  0.024091473  0.024076015            7 
 2585000   0.84128798   -7.2267583    748.48677  0.024129167   0.02406904            6 
 2586000   0.83823218   -7.2807872     746.5036  0.024055929  0.024062022            5 
 2587000   0.83371873   -7.2652104    747.59023  0.024081633  0.024055021            6 
 2588000   0.84269199   -7.2573482    746.40006  0.024034005     0.024048            3 
 2589000   0.84001514   -7.2683852    749.57589  0.024126944  0.024041034           17 
 2590000   0.84807261   -7.2557293     749.0106   0.02409944  0.024034015            2 
 2591000    0.8401816   -7.2563098    749.58997  0.024108773  0.024027064            5 
 2592000     0.812445   -7.2577817    749.86278  0.024108243  0.024020064            4 
 2593000   0.85265691   -7.2496724    748.56617  0.024057275  0.024013079            3 
 2594000   0.82808079   -7.2811318    748.11753  0.024033588  0.024006119           21 
 2595000     0.838824   -7.2613337    749.64889  0.024073503  0.023999104            6 
 2596000   0.83724632   -7.2455817    750.69452  0.024097795  0.023992127            8 
 2597000   0.83470071   -7.2470759    751.02781  0.024099211    0.0239852            4 
 2598000   0.84191883   -7.2757529    748.18365  0.023998706  0.023978305            4 
 2599000   0.83263861   -7.2672285     750.4999  0.024063739  0.023971352            3 
 2600000   0.84050806   -7.2299577    750.91654  0.024067838  0.023964399            5 
 2601000   0.83643959   -7.2648199    748.85447  0.023992518  0.023957514            6 
 2602000   0.81263503   -7.2552815    752.50482  0.024100206  0.023950591            8 
 2603000   0.84614514   -7.2400573    750.18544  0.024016694  0.023943707            9 
 2604000   0.83606689    -7.263729    749.14844  0.023974285  0.023936755            5 
 2605000   0.85544841    -7.257158    750.66723  0.024013667  0.023929804            5 
 2606000   0.83880958   -7.2326988    751.71421  0.024037932  0.023922861            3 
 2607000   0.84237972   -7.2821324    748.71996     0.023933  0.023915934            6 
 2608000   0.83992384   -7.2558924    750.95519  0.023995245  0.023908959           10 
 2609000   0.84231099   -7.2691109    750.86458  0.023983154  0.023901947            7 
 2610000   0.82485494   -7.2718626    750.95287  0.023976784  0.023894946            3 
 2611000   0.84411082   -7.2790133    748.88801  0.023901698  0.023887905            7 
 2612000   0.83682036   -7.2716464    752.16948   0.02399724  0.023880923            6 
 2613000   0.84910813   -7.2727507    749.57023  0.023905161  0.023873945            3 
 2614000   0.82312057    -7.266949    749.67566  0.023899377  0.023867082            6 
 2615000   0.83385271   -7.2816576    750.43099  0.023914308  0.023860184            9 
 2616000   0.84002051   -7.2747854    751.64775  0.023943927  0.023853242            5 
 2617000   0.82175977    -7.233284    750.67014  0.023903647   0.02384632            6 
 2618000   0.82628607   -7.2756217    749.53473  0.023858376  0.023839399            5 
 2619000   0.83263538   -7.2705347    750.10674  0.023867467  0.023832478            6 
 2620000   0.84069005   -7.2486826    752.18956  0.023924604  0.023825514            4 
 2621000   0.83808193   -7.2450534    751.19726  0.023883927  0.023818582            6 
 2622000   0.82125092   -7.2710723    750.35239  0.023847966  0.023811592            5 
 2623000   0.84115533    -7.238181    750.74581  0.023851373  0.023804634            6 
 2624000   0.81663427   -7.2600541    751.27925  0.023859224  0.023797634            6 
 2625000   0.83801886   -7.2885619     751.1121  0.023844829  0.023790618            3 
 2626000   0.84257741   -7.2790275    751.04444  0.023833601  0.023783601            3 
 2627000   0.82742335    -7.283504    749.25009  0.023767608  0.023776576            5 
 2628000   0.84196461   -7.2903753    752.11726  0.023849482  0.023769601            4 
 2629000   0.80955683   -7.2473579    753.21853  0.023875318  0.023762667            3 
 2630000   0.83640977   -7.2663071    752.63356  0.023847705  0.023755741           10 
 2631000   0.83516865   -7.2621064    751.24025  0.023794509  0.023748785            4 
 2632000     0.827155   -7.2619928    752.33302  0.023820068  0.023741878            6 
 2633000    0.8300722    -7.230558    753.55111  0.023849573  0.023734984            3 
 2634000   0.84087218   -7.2987777    752.42636  0.023804934  0.023728087            9 
 2635000   0.82369321   -7.2869423    752.70507  0.023804714  0.023721203           16 
 2636000   0.81484804    -7.240436    752.32357  0.023783623  0.023714315           11 
 2637000   0.81934218   -7.2539491     752.1254  0.023768341  0.023707443            4 
 2638000   0.83932254   -7.2505904    752.70919  0.023777773  0.023700549            7 
 2639000    0.8331846   -7.2597196    752.13549  0.023750647  0.023693676           12 
 2640000   0.80733355   -7.2410107    754.22628  0.023807648  0.023686767            6 
 2641000   0.83703341   -7.2776168    752.29788  0.023737785    0.0236799            3 
 2642000    0.8291259   -7.2594172    754.04354  0.023783861  0.023673041            5 
 2643000   0.82641375    -7.278652    753.18944  0.023747933  0.023666178            3 
 2644000   0.82003356   -7.2830236    754.35231  0.023775602  0.023659311            4 
 2645000   0.83842475   -7.2476246    754.47748  0.023770557  0.023652455            4 
 2646000   0.82011529   -7.2819156    753.36682  0.023726594  0.023645587            4 
 2647000   0.82679269   -7.3024095    753.75405  0.023729822  0.023638682            5 
 2648000   0.83176795   -7.2453812    751.95516  0.023664249  0.023631751            3 
 2649000   0.82385534   -7.2539358    754.37556  0.023731457  0.023624841            3 
 2650000   0.82075462   -7.2508691    754.95829  0.023740827  0.023618021            4 
 2651000   0.81246189   -7.2801911    753.47314  0.023685186  0.023611171            8 
 2652000   0.82061085   -7.2725914    754.19307  0.023698877  0.023604307            2 
 2653000   0.85239948   -7.2627801    756.17254  0.023752121  0.023597404            4 
 2654000   0.81292378   -7.2722865    754.76114  0.023698855  0.023590569            8 
 2655000   0.84287594   -7.3057908    754.14024  0.023670441  0.023583696            4 
 2656000   0.84491308   -7.2771803    755.99885  0.023719844  0.023576821            4 
 2657000   0.84295329   -7.2877044    754.15559  0.023653105  0.023569962            6 
 2658000   0.82734419   -7.2538265    755.25198   0.02367858  0.023563094            6 
 2659000   0.81609084   -7.2828034    754.70376  0.023652494  0.023556289            5 
 2660000   0.84114203   -7.3089794     754.1879  0.023627441  0.023549416            7 
 2661000   0.82215626   -7.2494415    755.13873  0.023648338   0.02354255            4 
 2662000   0.82806402    -7.286953    755.64681   0.02365536  0.023535707           11 
 2663000   0.83660595   -7.2938941    756.17923  0.023663138  0.023528828            5 
 2664000   0.82497017    -7.271467    755.18791  0.023623246  0.023521921            3 
 2665000   0.84509757   -7.2611698    755.69174  0.023630136  0.023515069            8 
 2666000   0.82574547   -7.2829567    754.35264  0.023579415  0.023508192           15 
 2667000   0.82468156   -7.2863475    756.17132    0.0236274  0.023501319            9 
 2668000   0.82357895   -7.3004389    755.84509  0.023608355  0.023494476            5 
 2669000   0.83689686   -7.2940067    756.94699  0.023633914  0.023487626            5 
 2670000   0.85359027   -7.2430804    757.35372  0.023637756    0.0234808            7 
 2671000   0.83475292   -7.2809593     755.9991  0.023586644  0.023474023            6 
 2672000    0.8113527      -7.2926    755.89489  0.023574566   0.02346717            3 
 2673000   0.83236309   -7.2490145    755.73303    0.0235607  0.023460332            5 
 2674000   0.82239465   -7.2623842    755.49874  0.023544588  0.023453507            5 
 2675000   0.80935248   -7.2573618    758.00716   0.02361393  0.023446719            3 
 2676000   0.82690688   -7.2613338    756.83542  0.023568617  0.023439956            5 
 2677000   0.81781871   -7.2922038    755.49585  0.023518112  0.023433164            5 
 2678000   0.82189723    -7.249809    757.16153  0.023561163  0.023426366            7 
 2679000   0.83161723   -7.2952418    757.14768  0.023551937  0.023419611            5 
 2680000   0.80066331   -7.2747517    756.52843  0.023523894  0.023412806            4 
 2681000   0.83959683   -7.3202355    757.49218  0.023545076  0.023406003            3 
 2682000    0.8300691   -7.2650347    757.97196  0.023551204  0.023399218            8 
 2683000    0.8593526     -7.25954      756.822  0.023506709  0.023392453            2 
 2684000   0.82647273   -7.2789489    758.24506  0.023542134  0.023385676            5 
 2685000   0.82197745   -7.2880611    759.11286    0.0235603  0.023378878            8 
 2686000   0.81497871    -7.241891    757.47479  0.023500707  0.023372065            9 
 2687000   0.81641391    -7.263302    755.74043  0.023438172   0.02336527            5 
 2688000    0.8302827   -7.2563997     757.4174  0.023481442  0.023358463            3 
 2689000   0.82093281   -7.2933996    756.93513  0.023457764  0.023351675            6 
 2690000   0.83142123   -7.2885584    758.19581  0.023488098  0.023344895            5 
 2691000   0.81499222    -7.269532    758.24656  0.023480941  0.023338176            3 
 2692000   0.80970262   -7.2910186    759.07265  0.023497791   0.02333142            7 
 2693000   0.82851897   -7.2737496     758.9384  0.023484911  0.023324694            3 
 2694000   0.84008874   -7.2673322     758.4891  0.023462296  0.023317993            3 
 2695000   0.81200415   -7.2772295    759.19129  0.023475303  0.023311333            8 
 2696000   0.83048785   -7.2806098    758.68952  0.023451086  0.023304635            3 
 2697000   0.82530891   -7.3103987    757.44576   0.02340396  0.023297903            3 
 2698000   0.83142017   -7.2933249    759.79094  0.023467721   0.02329119            3 
 2699000   0.80858288   -7.2720117    759.15257  0.023439316  0.023284525            3 
 2700000   0.81768607   -7.2898774    760.93055  0.023485511  0.023277865            6 
 2701000   0.83778333    -7.289769    759.66551  0.023437786  0.023271201            5 
 2702000   0.82209891   -7.2678237    761.02477  0.023471033  0.023264491            2 
 2703000   0.80533544   -7.2962683    760.34794  0.023441483  0.023257866           10 
 2704000   0.81581034   -7.2409014    762.96123  0.023513351  0.023251174            3 
 2705000   0.83104706   -7.2716883    760.00594  0.023413615    0.0232445            3 
 2706000   0.84183494   -7.2919372    760.11828  0.023408422  0.023237814            5 
 2707000   0.82654279   -7.2811444    759.93925  0.023394263  0.023231109            6 
 2708000   0.80415317   -7.2779095     760.3674    0.0233988  0.023224452            5 
 2709000     0.831403   -7.2949483    759.64328  0.023367887  0.023217789            4 
 2710000   0.83990555   -7.2831308    761.95091  0.023430225  0.023211095            4 
 2711000   0.81945501   -7.3173711    762.17708  0.023428534  0.023204415            5 
 2712000   0.81955388   -7.2832834    761.24099  0.023391132  0.023197717            5 
 2713000   0.80536438   -7.2716942    762.21011  0.023412278  0.023191072            8 
 2714000   0.82487487   -7.3013894    761.45708  0.023380529  0.023184448            6 
 2715000   0.81476246   -7.3098224      761.213  0.023364426  0.023177753            3 
 2716000   0.82569027   -7.3144787    761.31933  0.023359086  0.023171037            5 
 2717000   0.81660041   -7.2993372    761.75809  0.023363946  0.023164359            4 
 2718000   0.80873077   -7.2758583    762.23725  0.023370041  0.023157694            5 
 2719000   0.81207488   -7.3180378    760.50943   0.02330849  0.023151007            5 
 2720000   0.81932935   -7.2836642    763.14152  0.023380561  0.023144317            7 
 2721000    0.8261694   -7.2973082    760.92342  0.023304037  0.023137658            7 
 2722000   0.80938378   -7.2840084     761.5627  0.023315047  0.023130967            5 
 2723000   0.82161697   -7.3185443    759.60942  0.023246708  0.023124284           13 
 2724000   0.80915398   -7.2882462    762.15055  0.023315913  0.023117581            4 
 2725000   0.83239081   -7.2838202    762.56562   0.02332005  0.023110904            5 
 2726000   0.79592451   -7.2981819    762.21227  0.023300693  0.023104226           15 
 2727000   0.80894153    -7.305542    761.58111  0.023272861  0.023097543            2 
 2728000    0.8227701   -7.3123214    761.85116  0.023272579  0.023090876            4 
 2729000   0.81575953   -7.3361357    762.47481  0.023283096  0.023084216            5 
 2730000   0.80314412   -7.3454278    762.05202  0.023261661  0.023077556            3 
 2731000   0.81186956   -7.2804507    763.79147  0.023306221  0.023070903            3 
 2732000   0.82178515   -7.3134355    763.81089  0.023298282  0.023064299            7 
 2733000   0.81041195   -7.3063933    762.99427  0.023264857   0.02305766            7 
 2734000   0.80743758   -7.2858896    762.64787   0.02324579  0.023051049            3 
 2735000   0.83026979   -7.2962672    762.58382  0.023235339  0.023044445            3 
 2736000   0.80380126   -7.2935036    764.55116  0.023286768  0.023037888            3 
 2737000   0.82523925   -7.2956117    763.55577  0.023247953  0.023031278            2 
 2738000   0.81621512   -7.3263178    763.50308  0.023237859  0.023024674            5 
 2739000    0.8207617   -7.3038836    764.31545   0.02325409  0.023018082            6 
 2740000   0.80733188   -7.3100802    765.67913  0.023287078  0.023011493           12 
 2741000   0.81842662   -7.3090782    764.72992  0.023249724  0.023004904            6 
 2742000   0.82382513   -7.3413841     764.3441  0.023229519   0.02299828            3 
 2743000   0.82026558   -7.3020577    765.24184  0.023248324  0.022991668            5 
 2744000   0.81273086   -7.3038102    764.49113  0.023217053  0.022985132            4 
 2745000    0.8099478   -7.2648197    764.52399  0.023209593  0.022978635            5 
 2746000    0.8157624    -7.271497    764.27362  0.023193543  0.022972097            4 
 2747000   0.81457736   -7.2986447    764.04372  0.023178125  0.022965537            3 
 2748000   0.80950814   -7.3240337    765.12698  0.023202541  0.022958964            7 
 2749000   0.81108403   -7.2969106    764.32303  0.023169729  0.022952414            4 
 2750000   0.80706643   -7.3036539    764.43825  0.023164796  0.022945856            3 
 2751000   0.80713196    -7.307111    765.15104  0.023177967  0.022939333            2 
 2752000   0.81623782   -7.3189016    765.22284  0.023171719  0.022932794            8 
 2753000      0.81892   -7.3364286     764.3257  0.023136146  0.022926202            3 
 2754000   0.81444603   -7.3159156    765.89511  0.023175233  0.022919629            7 
 2755000    0.7964901   -7.3051804    763.96035  0.023108299  0.022913073            4 
 2756000   0.81801467    -7.291977    766.18195  0.023167088  0.022906525           12 
 2757000   0.82585718   -7.3170284    765.47194  0.023137225  0.022899954            2 
 2758000   0.81504988   -7.3531996    766.18698  0.023150441  0.022893403            9 
 2759000   0.82648032   -7.2943358    764.61405  0.023094541  0.022886839            6 
 2760000   0.81100721   -7.3153271    767.16056   0.02316306  0.022880314            3 
 2761000   0.79193527   -7.2906927    767.22092  0.023156493  0.022873788            4 
 2762000   0.81338901   -7.3167535    767.24842  0.023148939   0.02286727            5 
 2763000    0.7966929   -7.3388987    766.82611  0.023127823  0.022860767            3 
 2764000   0.80311298   -7.3327428    766.49819  0.023109569   0.02285426            3 
 2765000    0.8160915   -7.2979815    767.98637  0.023146063  0.022847741            5 
 2766000   0.80584565   -7.3072517    767.13272  0.023111976  0.022841271           13 
 2767000   0.80629315   -7.3185131    766.42572  0.023082331  0.022834754            4 
 2768000   0.81644947   -7.3160688    767.58725  0.023108961  0.022828268            8 
 2769000   0.80215974   -7.3029408    767.16486  0.023087904  0.022821819            5 
 2770000   0.81785703   -7.2888131    766.80475  0.023068735  0.022815321            5 
 2771000   0.82079664   -7.3218095    766.28838  0.023044881  0.022808814            9 
 2772000   0.81968732   -7.3327217    766.76387  0.023050862  0.022802298            3 
 2773000   0.80172333    -7.324729     766.7265  0.023041426  0.022795778            6 
 2774000   0.80707144   -7.3086048    767.04303  0.023042629  0.022789293           10 
 2775000   0.80000923   -7.3299573    767.80735  0.023057278  0.022782776            3 
 2776000   0.81589046   -7.3066922    767.39969  0.023036734  0.022776238            9 
 2777000   0.82081145   -7.3344101    766.59712  0.023004355  0.022769755           10 
 2778000   0.80370013    -7.292225    770.28409  0.023106674  0.022763291            3 
 2779000   0.80330518   -7.2963812     766.9674  0.022998903  0.022756826            5 
 2780000   0.79390406   -7.3192143     768.5696  0.023038657  0.022750388            4 
 2781000   0.80812167   -7.3022135    769.69919  0.023064221  0.022743943            2 
 2782000   0.81357203    -7.323348    767.43354  0.022988064  0.022737473            7 
 2783000   0.80510837   -7.3465567    767.23619  0.022973895  0.022730969            4 
 2784000   0.81016407    -7.342014    767.76175  0.022981374  0.022724508            6 
 2785000   0.81599055    -7.312022    769.48728  0.023024754  0.022718093            5 
 2786000   0.80105304   -7.3180186    770.00936  0.023032106  0.022711688            3 
 2787000   0.80838472   -7.3015489    770.04188  0.023024814  0.022705253            7 
 2788000   0.80876433   -7.3085251    770.34115  0.023025501  0.022698813            4 
 2789000   0.79036678   -7.3233851    769.47706  0.022991426  0.022692431            4 
 2790000   0.78506165   -7.2984832    770.26525  0.023006728  0.022686036            4 
 2791000   0.79742367   -7.3264502    769.34817  0.022971103   0.02267965            4 
 2792000   0.79972331   -7.3033394    770.23902  0.022989464  0.022673283            3 
 2793000   0.82442131   -7.3366772    769.40765  0.022956428  0.022666911            5 
 2794000   0.81639526   -7.3267601    770.06153  0.022967714  0.022660522            9 
 2795000   0.78915677   -7.3278099    771.69693  0.023008257  0.022654133            4 
 2796000   0.79851936   -7.3320699    772.36869  0.023020049  0.022647751            5 
 2797000    0.7968307    -7.323631    771.09625  0.022973908  0.022641362            3 
 2798000   0.80975932   -7.3207703    770.05461  0.022934674  0.022634983            5 
 2799000    0.8053773     -7.33524    771.30738  0.022963778  0.022628571            3 
 2800000   0.81406119   -7.3458915    768.94822  0.022885364  0.022622116            4 
 2801000   0.80912623   -7.3435087    770.26569   0.02291639  0.022615654            8 
 2802000   0.80760128   -7.3375092    771.24434  0.022937317  0.022609193            5 
 2803000   0.80897502   -7.3241867     770.8423  0.022917181  0.022602748            2 
 2804000   0.80832744   -7.3590403    768.72949  0.022846216  0.022596305            4 
 2805000   0.81941592   -7.3530709    770.39007  0.022887406  0.022589859            6 
 2806000    0.7895541    -7.327454    770.97858  0.022896727  0.022583433            3 
 2807000   0.79927393    -7.323009    771.90227  0.022915992   0.02257703            5 
 2808000   0.80309292   -7.3166349     773.1175  0.022943895  0.022570635            2 
 2809000   0.80648888    -7.307882    771.15985  0.022877651  0.022564259            6 
 2810000   0.80772219   -7.3287425    770.20184  0.022841098  0.022557862            6 
 2811000   0.80770917    -7.347127    770.73584  0.022848803  0.022551442            3 
 2812000   0.81980445   -7.3493379    770.27565   0.02282704  0.022545037            6 
 2813000   0.80586826    -7.341175    771.94868  0.022868488  0.022538601            5 
 2814000   0.81212779   -7.3015642        771.6  0.022850035  0.022532192           16 
 2815000   0.79271969   -7.3404023    769.84694  0.022790022  0.022525803            9 
 2816000   0.78966539   -7.3273277    770.69071  0.022806898  0.022519393           15 
 2817000   0.79913518   -7.3099948    772.97393  0.022866345  0.022512982            7 
 2818000   0.78936704   -7.3221517    773.23579  0.022865974  0.022506609            7 
 2819000   0.79122572   -7.3087164    770.69574  0.022782776  0.022500211            3 
 2820000   0.79496892   -7.3355226    769.76501  0.022747193  0.022493776            5 
 2821000   0.79560786   -7.3172974    770.96896  0.022774694  0.022487331            6 
 2822000   0.79635369   -7.3152401    771.32813   0.02277723  0.022480924            5 
 2823000   0.79592352   -7.3292402     771.9364  0.022787118  0.022474515            8 
 2824000    0.7998186    -7.367304    770.62766  0.022740429  0.022468082            5 
 2825000   0.77519427   -7.3497416    771.97514  0.022772128  0.022461629            5 
 2826000   0.81725448   -7.3370567    770.28203  0.022714143  0.022455166            3 
 2827000   0.79372149   -7.3493699    770.65652  0.022717148    0.0224487            4 
 2828000   0.80095874   -7.3478638    771.91362  0.022746158  0.022442258            4 
 2829000   0.80975488   -7.3411827    772.01272  0.022741037  0.022435806            4 
 2830000   0.79706182   -7.3122423    774.54607  0.022807599  0.022429383            4 
 2831000   0.79835759   -7.3249935    770.92238  0.022692876  0.022422997           11 
 2832000   0.80119783   -7.3550308    771.21736  0.022693543  0.022416573            4 
 2833000   0.79391876    -7.370749    770.70535  0.022670472  0.022410137            4 
 2834000   0.80530764    -7.367211    770.93723   0.02266929  0.022403663            6 
 2835000   0.80830034   -7.3320819    770.65279  0.022652933  0.022397243           10 
 2836000   0.78024815   -7.3269173    771.37387  0.022666134  0.022390833            7 
 2837000   0.81156259   -7.3278153     771.5304  0.022662742  0.022384449            9 
 2838000   0.80510666    -7.333911    772.03923  0.022669698  0.022378076            6 
 2839000   0.80283643   -7.3538415    772.77711  0.022683372  0.022371697            2 
 2840000     0.801658    -7.340374    773.06642  0.022683874  0.022365352            4 
 2841000   0.79579703   -7.3422899    773.34675  0.022684112  0.022358999            2 
 2842000   0.78432702   -7.3316387    774.49999  0.022709946  0.022352668            3 
 2843000   0.81125224   -7.3334663    773.59873   0.02267554  0.022346325            5 
 2844000   0.79541166    -7.330955    774.09845  0.022682209  0.022339962            5 
 2845000   0.80153734   -7.3555538     773.1411  0.022646195  0.022333627            6 
 2846000   0.80519757   -7.3364658    773.46064  0.022647594  0.022327247            6 
 2847000   0.79101269   -7.3860116    772.90184  0.022623283   0.02232082            5 
 2848000   0.79748958   -7.3725286    771.59502  0.022577101   0.02231442           15 
 2849000   0.78957326   -7.3335001    773.76029  0.022632511  0.022308045            8 
 2850000   0.79539837   -7.3142432    772.99634  0.022602232  0.022301658            2 
 2851000   0.78614709   -7.3307254    774.21388  0.022629892  0.022295315            3 
 2852000   0.78858546   -7.3415407    773.42915  0.022599028  0.022288961            7 
 2853000   0.79754378   -7.3097655    774.63367   0.02262629  0.022282572            5 
 2854000   0.80731307   -7.3362771    774.44814  0.022612945  0.022276239            4 
 2855000   0.79313576   -7.3535131    771.60799  0.022522125  0.022269856            7 
 2856000   0.78722954   -7.3565514    772.61374  0.022543585  0.022263474            4 
 2857000   0.79785632   -7.3486469    774.08819  0.022578701  0.022257118            9 
 2858000   0.80346894   -7.3535286    772.76634  0.022532259  0.022250751            9 
 2859000    0.7866938   -7.3458011    772.40697  0.022513903  0.022244357            5 
 2860000   0.77937639   -7.3444153    774.79495   0.02257561  0.022238007            6 
 2861000   0.79067275   -7.3491395    773.77238  0.022537935   0.02223167            4 
 2862000   0.79913173   -7.3275902    774.20079  0.022542534  0.022225373            5 
 2863000   0.80195732   -7.3076754    778.28019  0.022653399  0.022219111            6 
 2864000   0.79209998   -7.3692093     774.9998  0.022550041  0.022212826            5 
 2865000    0.7939434   -7.3272159     773.9422  0.022511408  0.022206567            4 
 2866000   0.79500526   -7.3547484    775.13475  0.022538228   0.02220029            8 
 2867000   0.79306882   -7.3544636    775.34368   0.02253644  0.022194008           17 
 2868000   0.79531348   -7.3344623    776.14743  0.022551936  0.022187726            5 
 2869000   0.79033401   -7.3376267     775.3573  0.022521125  0.022181455            4 
 2870000   0.78058577   -7.3635986    775.01317  0.022503286  0.022175163            3 
 2871000   0.79170327   -7.3424468    775.72413  0.022516084  0.022168867            7 
 2872000   0.79956134   -7.3716599     775.9415  0.022514551  0.022162557            5 
 2873000   0.79610402   -7.3463432    774.24363  0.022457467  0.022156276            6 
 2874000   0.77999358    -7.381327    775.93993  0.022498838  0.022149988            7 
 2875000   0.79750075   -7.3308483    775.10207  0.022466727  0.022143701            8 
 2876000   0.79570282    -7.362495    775.34429  0.022465933  0.022137427           10 
 2877000   0.78715786   -7.3542111    776.02875   0.02247795  0.022131151            5 
 2878000   0.80377787   -7.3727307    776.35581   0.02247961   0.02212487            4 
 2879000   0.80269441   -7.3584927    777.31504  0.022499567  0.022118572            5 
 2880000   0.79764225   -7.3402509    777.72298  0.022503558  0.022112315            6 
 2881000   0.79150497   -7.3367411    777.44513  0.022487711  0.022106069            5 
 2882000   0.79346206   -7.3497308    777.20504  0.022472965  0.022099789            7 
 2883000   0.78473121   -7.3403098    777.55481  0.022475281  0.022093573            9 
 2884000   0.79725755   -7.3517593      775.346  0.022403664  0.022087267            5 
 2885000   0.78273314   -7.3502886    775.17234  0.022390882  0.022080936            4 
 2886000    0.7864886   -7.3546619    776.32338   0.02241636  0.022074627            6 
 2887000   0.78602219   -7.3564648    777.15548  0.022432614  0.022068278            4 
 2888000   0.78052281   -7.3129675    776.62422  0.022409517  0.022061953            2 
 2889000     0.768735   -7.3486964    774.46024   0.02233934  0.022055643           13 
 2890000   0.77511661   -7.3494023    774.86441  0.022343264  0.022049311            6 
 2891000   0.79800592   -7.3643319    775.68068  0.022359065  0.022042987            5 
 2892000   0.79611169   -7.3404885     776.5827  0.022377325  0.022036654            9 
 2893000   0.75860242   -7.3411147    777.10002  0.022384492  0.022030354            7 
 2894000   0.78213867   -7.3290672    778.73811  0.022423926   0.02202409            3 
 2895000   0.77816055   -7.3463766    775.89554  0.022334356  0.022017823            4 
 2896000   0.79331317    -7.341706     778.0392  0.022388329  0.022011546            4 
 2897000   0.78272659   -7.3344778    778.00227  0.022379538  0.022005279            9 
 2898000   0.78266408   -7.3613586    776.73418  0.022335351  0.021998996            6 
 2899000   0.77863846   -7.3423269    777.19866  0.022340999  0.021992725            5 
 2900000   0.78396629   -7.3353228    778.98435  0.022384608  0.021986447            8 
 2901000   0.77852198   -7.3521074    778.17788  0.022353725  0.021980198            6 
 2902000   0.79227706   -7.3524873     777.6602  0.022331157  0.021973969            8 
 2903000   0.77041873   -7.3277084    777.60296  0.022321821  0.021967717            7 
 2904000   0.79833527   -7.3181361    777.70485  0.022317058  0.021961459            6 
 2905000   0.80762382   -7.3608298     776.7982  0.022283368  0.021955169            7 
 2906000   0.77391423   -7.3626076    777.29307  0.022289891  0.021948877            6 
 2907000   0.79291753   -7.3611004    776.94004  0.022272103   0.02194259            6 
 2908000   0.77379069   -7.3328847    778.99149  0.022323231  0.021936312            3 
 2909000   0.79892849   -7.3668171    777.62238  0.022276337  0.021930025            9 
 2910000   0.77661148   -7.3612403    778.23162  0.022286129  0.021923759            6 
 2911000   0.78460037    -7.372251    778.10559  0.022274865  0.021917474            5 
 2912000   0.78130861   -7.3510653     776.7447  0.022228271  0.021911193            5 
 2913000   0.77027812   -7.3624409    778.03849  0.022257652   0.02190491            3 
 2914000   0.78770042   -7.3498447    779.12624  0.022281121  0.021898635            3 
 2915000   0.78620783   -7.3615516    776.75268  0.022205623  0.021892319            6 
 2916000   0.79164779   -7.3851911    776.27074  0.022184235  0.021886009            4 
 2917000   0.77922166   -7.3631025    781.13144  0.022315491  0.021879694            7 
 2918000   0.79174301   -7.3640467     778.4519   0.02223132  0.021873431            8 
 2919000   0.77292424   -7.3616487    777.64846  0.022200767   0.02186716            3 
 2920000   0.77663566   -7.3049066    777.19555  0.022180238  0.021860893            5 
 2921000   0.77412589   -7.3565278    777.87931  0.022192152  0.021854634            5 
 2922000    0.7691671   -7.3366167    780.40567  0.022256607  0.021848368            4 
 2923000   0.78602198   -7.3751573    777.63679  0.022170053  0.021842082            5 
 2924000   0.78225633   -7.3864879    778.85239  0.022197115  0.021835814            5 
 2925000   0.78720767   -7.3371154    776.82683  0.022131819  0.021829523            2 
 2926000   0.78483353    -7.348733    778.92827  0.022184104  0.021823249            6 
 2927000   0.77461924     -7.39838    777.06048  0.022123348  0.021816953            7 
 2928000   0.77174316   -7.3887092     775.7365  0.022078111  0.021810622            2 
 2929000   0.78515506   -7.3811931    777.08303  0.022108883  0.021804301            5 
 2930000   0.76836973   -7.3706377    778.74529  0.022148615  0.021797989            2 
 2931000   0.78337779   -7.3733616    779.16466  0.022152981  0.021791695            5 
 2932000   0.77038093   -7.3469787    778.38109  0.022123155  0.021785402            6 
 2933000   0.77825336   -7.3588697    778.09981  0.022107621  0.021779125           10 
 2934000   0.77561394   -7.3720167      778.783   0.02211949  0.021772845            2 
 2935000   0.78019427   -7.3752014    778.03783  0.022090796   0.02176654            4 
 2936000   0.77652027   -7.3520922    779.02518  0.022111296  0.021760207            4 
 2937000   0.78091524    -7.348907    778.42879  0.022086846  0.021753913            5 
 2938000   0.76328302   -7.3761933    778.70614  0.022087195   0.02174763            6 
 2939000   0.79208581   -7.3486204    778.93436  0.022086151  0.021741327            5 
 2940000   0.77938317    -7.366268    778.22439  0.022058514  0.021735038            4 
 2941000   0.79847466   -7.3577751    779.09426  0.022075662  0.021728765            7 
 2942000   0.78678541   -7.3769111      779.512  0.022079991  0.021722508            8 
 2943000   0.78481129   -7.3666747    779.94646   0.02208479  0.021716268           10 
 2944000   0.79420487   -7.4226971     778.3483  0.022032051  0.021709975            6 
 2945000    0.7796902    -7.378195    780.08917  0.022073831  0.021703659            3 
 2946000   0.78011325   -7.3814844    778.80105  0.022029901   0.02169738            9 
 2947000   0.78706723    -7.340541    780.57321  0.022072537  0.021691137            6 
 2948000   0.79436744   -7.3624514    777.03563  0.021965051  0.021684911            4 
 2949000   0.78532393   -7.3707207    779.34397  0.022022832  0.021678669            3 
 2950000   0.77775563   -7.3546152    780.89555  0.022059196  0.021672453            3 
 2951000   0.77203553   -7.3815416    780.52253  0.022041188   0.02166622            5 
 2952000   0.78125202   -7.3687445    781.41255  0.022058846  0.021659983            7 
 2953000   0.77970398   -7.3629753    778.60682  0.021972198  0.021653692            3 
 2954000   0.76547333   -7.3817993    781.04955   0.02203367  0.021647456            7 
 2955000    0.7616639   -7.3805179    781.65623  0.022043323  0.021641195            7 
 2956000   0.79764478   -7.3833394    779.38705  0.021971895  0.021634906            8 
 2957000   0.76649538   -7.4331193    777.67205  0.021916133  0.021628582            7 
 2958000   0.78154355   -7.4160845    778.42352  0.021929894  0.021622257            8 
 2959000   0.79654836   -7.3919588    780.55815    0.0219826  0.021615943            7 
 2960000   0.77692101   -7.3942653    780.19077   0.02196483   0.02160963           10 
 2961000   0.76855662   -7.3692099    778.78727  0.021917912  0.021603342            3 
 2962000   0.78706972   -7.3775335      779.869  0.021940947  0.021597068            6 
 2963000   0.78982681   -7.3770225    780.10641  0.021940219  0.021590797            4 
 2964000   0.77938153   -7.4012524    780.82346  0.021952976  0.021584491            4 
 2965000   0.76823136   -7.3815361     779.4753  0.021907681    0.0215782            7 
 2966000   0.76336032    -7.384441    781.34314  0.021952774  0.021571901            6 
 2967000   0.77444309   -7.4246167     779.8364  0.021903056  0.021565647            4 
 2968000   0.76143799   -7.4098579    779.40871  0.021883668   0.02155938            4 
 2969000   0.76586896   -7.3470341    780.31403  0.021901707   0.02155312            7 
 2970000   0.77651626   -7.3622833    780.48268  0.021899065  0.021546878            6 
 2971000   0.78003011   -7.3656085    779.35001  0.021859924  0.021540593            8 
 2972000   0.77420676   -7.4019392    779.49806   0.02185672  0.021534337            6 
 2973000   0.78342096   -7.4045365    779.72932  0.021855851   0.02152807            6 
 2974000   0.75842239   -7.4091214    781.69242  0.021903509  0.021521806            6 
 2975000   0.77169646     -7.37062    780.73067  0.021869206  0.021515543            5 
 2976000   0.78747988   -7.3682523    780.12742  0.021844966  0.021509292            8 
 2977000   0.77416072   -7.3774034     780.9716  0.021861258  0.021503027            6 
 2978000    0.7789646    -7.386779    779.94017  0.021825055  0.021496756            4 
 2979000   0.78389048   -7.4025134    779.80106  0.021813837  0.021490474            6 
 2980000   0.77390588   -7.3811307     781.7588  0.021861264  0.021484234            6 
 2981000   0.78152312   -7.3976807    780.69775  0.021824269  0.021477991            7 
 2982000   0.76397724   -7.3710425    781.81087  0.021848057  0.021471741            6 
 2983000   0.78667728   -7.3936089    782.32387  0.021855064  0.021465483            3 
 2984000   0.77443534   -7.3801209    782.87798  0.021863214   0.02145925            4 
 2985000   0.78504702   -7.3928896    781.89854  0.021828547  0.021453015            4 
 2986000   0.77222728   -7.3671179    782.15587  0.021828418  0.021446768            3 
 2987000   0.78265921   -7.3705143    781.85598  0.021812744  0.021440532            5 
 2988000   0.76859257   -7.3839127    781.90839  0.021806905  0.021434296            6 
 2989000   0.78151772   -7.3651452    782.16943  0.021806887  0.021428071            7 
 2990000   0.77220686   -7.3879757    780.47748  0.021752438  0.021421851            5 
 2991000   0.77471463   -7.3749113    780.92548  0.021757647  0.021415612            5 
 2992000   0.75877817   -7.3972758    782.58177  0.021796507  0.021409373            2 
 2993000   0.78328671   -7.3993828    783.54663  0.021816088  0.021403154            4 
 2994000   0.77133295   -7.3697236    781.75705  0.021758992  0.021396935            3 
 2995000   0.78437562   -7.3856456    781.28969  0.021738723  0.021390739            6 
 2996000   0.78972217   -7.3906801    781.86665  0.021747515  0.021384514            8 
 2997000   0.75033368   -7.4028745    783.40259  0.021782966  0.021378284            6 
 2998000   0.76607599   -7.4063193    781.16251  0.021713434   0.02137205            3 
 2999000   0.78273833   -7.3885348    784.60903  0.021801963  0.021365819            3 
 3000000   0.76143675   -7.3676775    782.95289  0.021748691  0.021359618            5 
 3001000   0.77661679   -7.3864494    783.52325  0.021757282  0.021353443            7 
 3002000   0.76021762   -7.3958673     780.9088  0.021677459  0.021347249           14 
 3003000   0.79349317   -7.3804506    781.56394  0.021688421  0.021341052            4 
 3004000   0.76072193   -7.4003539    782.85788  0.021717096  0.021334841            5 
 3005000   0.76974421   -7.3910699    782.23047   0.02169247  0.021328647            4 
 3006000   0.78887994   -7.3814813    781.18336  0.021656225  0.021322435            4 
 3007000   0.76251135   -7.4195722    781.71536  0.021663767  0.021316228            4 
 3008000   0.76331027   -7.3893055    783.56812  0.021707893  0.021310007            7 
 3009000   0.77083551   -7.3986125    783.49304    0.0216986    0.0213038            5 
 3010000   0.80919381   -7.4075843    782.93988  0.021676076  0.021297609           14 
 3011000   0.75319723   -7.4142597    783.81228  0.021693022   0.02129142            4 
 3012000   0.77491909   -7.4093505    782.43401  0.021647687  0.021285233            7 
 3013000   0.77476842   -7.4295118    783.10703  0.021659117  0.021279034            7 
 3014000   0.76486169   -7.4010219    782.07671  0.021623444  0.021272827            4 
 3015000   0.77763508   -7.3809447    785.31792  0.021705857  0.021266665            5 
 3016000   0.74825364   -7.3942927     784.2945  0.021670383  0.021260552            8 
 3017000   0.76783256   -7.4082132    783.80543  0.021649691  0.021254377           11 
 3018000   0.76312054   -7.4028816    786.03057  0.021703959  0.021248216            8 
 3019000    0.7754465   -7.3824555    785.11646  0.021671538  0.021242059            8 
 3020000   0.76585529   -7.3745753    784.80233  0.021655693   0.02123591            7 
 3021000   0.76514912   -7.4058077    785.28557  0.021661855  0.021229787            7 
 3022000   0.75737546   -7.3883215    786.65248   0.02169238  0.021223679            5 
 3023000   0.76710964   -7.3956107    784.35825  0.021621961  0.021217556            7 
 3024000   0.78784987   -7.3922359    784.70719  0.021624426  0.021211424            8 
 3025000    0.7860195   -7.4035781     783.8384  0.021593344  0.021205303            7 
 3026000   0.75026754   -7.4351894    784.07894  0.021592833  0.021199166            4 
 3027000   0.77549522   -7.4179093    785.38057  0.021621533  0.021192998            3 
 3028000   0.76205016   -7.4219023    783.05096   0.02155028  0.021186837            5 
 3029000   0.77476387   -7.4157181    784.57476  0.021585088  0.021180687            4 
 3030000   0.76613769   -7.4180914      785.281  0.021597387  0.021174522           14 
 3031000   0.77031172   -7.4294718    783.81555  0.021549971  0.021168372            7 
 3032000   0.75782259   -7.4316946    784.21657  0.021553885  0.021162221            8 
 3033000   0.76656205   -7.3848221    784.48814  0.021554241  0.021156048            5 
 3034000   0.76017846   -7.4108357    784.29196  0.021541748  0.021149885           10 
 3035000    0.7545091   -7.4025477    784.40272  0.021537691  0.021143745            5 
 3036000   0.77377637   -7.3753018    785.39422  0.021557812  0.021137616            3 
 3037000   0.75710261   -7.4102639     786.8345  0.021590234  0.021131506            6 
 3038000   0.77192953   -7.3751093     784.1468  0.021509403  0.021125426            6 
 3039000   0.77606639   -7.4265314    786.26965  0.021560537  0.021119334            8 
 3040000   0.77684511   -7.3907774    785.93383  0.021544239  0.021113233            5 
 3041000   0.76042818   -7.3800307    785.02924  0.021512366  0.021107102            6 
 3042000   0.76945539     -7.40342    786.25986  0.021539006  0.021100958            2 
 3043000   0.78180303   -7.4121696     783.7488  0.021463161  0.021094813            4 
 3044000   0.77590526   -7.4120744    783.66132  0.021453716  0.021088643            7 
 3045000   0.77717778   -7.4395324    785.64565  0.021500976  0.021082491            3 
 3046000   0.75214162   -7.4209449    785.41502  0.021487607  0.021076318            5 
 3047000   0.75220772   -7.4277285    785.74117  0.021489475  0.021070152           11 
 3048000   0.75826473   -7.4324125    784.57734  0.021450605  0.021063989            6 
 3049000   0.76703119   -7.4182335    782.67139  0.021391478  0.021057779            4 
 3050000   0.75644502    -7.390419    786.08973  0.021477861  0.021051622            9 
 3051000   0.75651387   -7.4223627    784.32377  0.021422588  0.021045463            8 
 3052000   0.77912808   -7.3824851     786.1227  0.021464687  0.021039314            4 
 3053000   0.76301198   -7.4027286    785.16477  0.021431509  0.021033159            7 
 3054000   0.77424182   -7.4183257    786.82134  0.021469694  0.021026984            5 
 3055000   0.77699837   -7.4067917    787.02474  0.021468214  0.021020861            4 
 3056000   0.77427637   -7.4012021    786.99746  0.021460446  0.021014744            7 
 3057000   0.76567933   -7.4216721    785.81113  0.021421086   0.02100863            5 
 3058000    0.7602866   -7.4222928    784.89127  0.021389014   0.02100251            6 
 3059000   0.77588329   -7.4441599     785.5486  0.021399929  0.020996394            8 
 3060000   0.75128833   -7.4054054    786.20214  0.021410734  0.020990237            5 
 3061000   0.76733367   -7.4373039    785.30065  0.021379197  0.020984109            4 
 3062000   0.76969578    -7.411792    784.05094  0.021338203  0.020977983            5 
 3063000   0.76343128   -7.4135557    786.81267  0.021406374  0.020971836           11 
 3064000   0.74940877   -7.4286981    785.69189  0.021368905  0.020965692            9 
 3065000   0.77977576   -7.4254713    785.78613  0.021364495  0.020959518            6 
 3066000   0.73734572   -7.4402817    785.18875   0.02134129   0.02095334            6 
 3067000    0.7652659   -7.4178507    784.86119  0.021325432  0.020947181            3 
 3068000   0.76608293   -7.4441371    786.06062   0.02135106  0.020941015            3 
 3069000   0.76281517   -7.4037945    785.22674   0.02132146  0.020934866            5 
 3070000   0.76998422   -7.4025779     786.3006  0.021343665  0.020928765           10 
 3071000    0.7562821   -7.4188111    784.90894  0.021298951  0.020922661            5 
 3072000   0.75502454   -7.4185191    786.18424  0.021326612  0.020916531            3 
 3073000   0.76026616   -7.4432087     785.3877  0.021298072  0.020910419           11 
 3074000   0.75558249   -7.4463551    785.37268  0.021290736  0.020904276            6 
 3075000   0.76885353   -7.3984773    785.73518  0.021293636  0.020898149            8 
 3076000   0.76839339   -7.4220263    786.44097  0.021305835  0.020892062            4 
 3077000    0.7468511   -7.4234027    786.67975  0.021305377  0.020885988            7 
 3078000    0.7542312   -7.3907785    787.63413  0.021324294  0.020879912            7 
 3079000   0.75745076   -7.4239361     788.2768  0.021334762  0.020873805            4 
 3080000   0.73911111   -7.4435956    785.69823  0.021258069  0.020867675            9 
 3081000   0.77181697   -7.4422552    788.14699  0.021317402  0.020861563            9 
 3082000   0.76439745   -7.4427577    787.30799    0.0212878  0.020855445            9 
 3083000   0.75572981   -7.4391234    784.45188  0.021203694  0.020849331            5 
 3084000   0.76359339   -7.4561308    786.57028  0.021254061  0.020843213           11 
 3085000   0.75524842   -7.4415585    785.58856  0.021220653  0.020837096            5 
 3086000   0.76392903   -7.4369476    787.84026   0.02127458  0.020830983            5 
 3087000   0.74360091   -7.4420196     788.0367  0.021272992  0.020824894            4 
 3088000   0.75808653   -7.4141765    787.41269  0.021249263  0.020818824            4 
 3089000   0.74899664   -7.4266327     786.0511  0.021205652   0.02081275            6 
 3090000   0.74902514   -7.4464703    787.85514  0.021247442  0.020806668           11 
 3091000   0.76828616   -7.4188003      787.548  0.021232287  0.020800582            5 
 3092000   0.76126677   -7.4298723    790.73389  0.021311284  0.020794517            4 
 3093000   0.76220243   -7.4312619    786.33537  0.021185887  0.020788428            4 
 3094000   0.73797326   -7.4734193    786.92336  0.021194876  0.020782354            9 
 3095000   0.73750917   -7.4461813     787.6877  0.021208608  0.020776282            5 
 3096000   0.76049524   -7.4331958    786.96124  0.021182204  0.020770225           10 
 3097000   0.74026113   -7.4328337    787.25375  0.021183235  0.020764201            9 
 3098000   0.77119941   -7.4263538    787.34913  0.021178963  0.020758155            4 
 3099000     0.762943   -7.4156757    790.17916   0.02124823  0.020752143            3 
 3100000   0.75863503   -7.4531695    788.00698  0.021182983  0.020746097            4 
 3101000   0.75321918   -7.4354266    787.91264  0.021173617  0.020740056            5 
 3102000   0.76470344   -7.4296474    790.11403   0.02122593  0.020734035            2 
 3103000   0.74883438   -7.4216502    788.01685  0.021162769   0.02072799            3 
 3104000   0.76553933   -7.4229594    789.17474  0.021187037  0.020721936            4 
 3105000   0.74211264   -7.4386235    788.31666  0.021157184   0.02071587           10 
 3106000   0.75403141   -7.4471591    787.34151  0.021124209  0.020709783            9 
 3107000   0.76032063   -7.4184415    788.76652   0.02115563  0.020703695            6 
 3108000   0.76150986   -7.4276656    790.24642  0.021188503  0.020697634            3 
 3109000   0.76546648   -7.4351911    788.90325  0.021145686  0.020691593            5 
 3110000   0.77195662   -7.4260857    788.80369  0.021136219  0.020685518            8 
 3111000   0.74469344   -7.4043957    787.81174  0.021102854  0.020679431            5 
 3112000   0.75390227    -7.422275    790.12836  0.021158107  0.020673363            5 
 3113000   0.74458039   -7.4031907    788.92843  0.021119189  0.020667326            3 
 3114000   0.75982439   -7.4200359    790.69386  0.021159652  0.020661313            3 
 3115000    0.7587149   -7.4315757    788.33171  0.021089666  0.020655272            4 
 3116000   0.74716978   -7.4396614    788.80227  0.021095482  0.020649236            7 
 3117000   0.75018752   -7.4447147    789.47521  0.021106705  0.020643197           11 
 3118000   0.74960963   -7.4225239    788.52712  0.021074597  0.020637169            8 
 3119000   0.74293471   -7.4558808    789.56764  0.021095641  0.020631132            7 
 3120000   0.75522254   -7.4426285    788.98335  0.021073273  0.020625103            3 
 3121000   0.74222264   -7.4597813    788.60032  0.021056294  0.020619072            3 
 3122000   0.75814785    -7.435113    790.12271  0.021090186   0.02061302            5 
 3123000   0.74830596   -7.4244067    789.24807  0.021060094  0.020606976            4 
 3124000   0.75377939   -7.4711563     788.7145  0.021039119  0.020600935            5 
 3125000   0.75680366   -7.4555377    789.45259  0.021052069  0.020594872            8 
 3126000   0.75137195   -7.4477399    789.12195   0.02103652  0.020588806            7 
 3127000   0.73232576   -7.4656355      788.208  0.021005437  0.020582747            6 
 3128000   0.73671637   -7.4470329    788.31985  0.021001701  0.020576696            4 
 3129000   0.75226162   -7.4284601    790.00627  0.021039903  0.020570647           16 
 3130000    0.7512352   -7.4526367    788.91552  0.021004141  0.020564602            4 
 3131000   0.75608786   -7.4324441    788.48529  0.020985981  0.020558547            6 
 3132000     0.746315   -7.4458149    788.34093   0.02097544  0.020552535            4 
 3133000   0.76780162   -7.4669494    788.70089  0.020978319   0.02054649            3 
 3134000   0.74938176   -7.4654029    786.72091  0.020918978  0.020540453            5 
 3135000   0.74085536   -7.4577684    788.82933   0.02096835  0.020534412            7 
 3136000   0.75901941   -7.4264411    790.50142  0.021006096  0.020528386            5 
 3137000   0.75001641   -7.4355721    792.09628  0.021041767  0.020522388            9 
 3138000   0.75133227   -7.4393175    791.68917   0.02102425  0.020516391            9 
 3139000   0.74577765    -7.456681    791.01525  0.020999662  0.020510383            8 
 3140000   0.74683784   -7.4485269    790.47065  0.020978521  0.020504337            6 
 3141000   0.75914694   -7.4653281    788.21385  0.020911967  0.020498307            7 
 3142000   0.73746646   -7.4587383    788.88561  0.020923128  0.020492252            6 
 3143000   0.76674539   -7.4858589    788.52557  0.020906925  0.020486195            9 
 3144000   0.75380528   -7.4458476    788.81466  0.020907937  0.020480146            7 
 3145000   0.75395293   -7.4775637    788.84851  0.020902186   0.02047411            5 
 3146000    0.7559165   -7.4394403    789.94492  0.020924585  0.020468084            6 
 3147000   0.74185847   -7.4604773    788.35377  0.020875801  0.020462043            8 
 3148000   0.74300884   -7.4524233    788.93755  0.020884624  0.020455996            6 
 3149000    0.7511626   -7.4533915    791.09531  0.020935093  0.020449952            5 
 3150000   0.75388897    -7.452826    790.77343  0.020919932   0.02044389            7 
 3151000   0.75933246   -7.4554828    789.16248  0.020870689  0.020437844            5 
 3152000   0.74573993    -7.463633    789.63726  0.020876619  0.020431811           11 
 3153000   0.75307068    -7.450684    790.39133  0.020889928  0.020425763            3 
 3154000   0.75586764   -7.4442304    789.87152  0.020869571   0.02041974            3 
 3155000    0.7491331   -7.4650198    789.20744  0.020845416  0.020413739            8 
 3156000   0.74853452   -7.4527444    791.03354  0.020887028  0.020407716            9 
 3157000   0.74190461   -7.4371722    789.60947  0.020842822  0.020401689            8 
 3158000    0.7349523    -7.427016    789.21879  0.020825913   0.02039567            7 
 3159000   0.74377493   -7.4340101    791.72452   0.02088542  0.020389681            6 
 3160000   0.75423059   -7.4621847    791.12211  0.020862925  0.020383676            8 
 3161000   0.74737207   -7.4697675    792.53833   0.02089366  0.020377658            7 
 3162000   0.74487341   -7.4150952    790.60012  0.020835972  0.020371613           13 
 3163000    0.7395138   -7.4627708    788.87612  0.020783963  0.020365587            6 
 3164000   0.74350987   -7.4883115    788.81375  0.020775752   0.02035952            6 
 3165000   0.73685896     -7.46223    788.82022  0.020769358  0.020353476           17 
 3166000   0.73728374   -7.4601226    790.54819   0.02080828  0.020347441            5 
 3167000   0.72774649   -7.4219459    790.74475  0.020806882  0.020341415            3 
 3168000    0.7617138   -7.4496256    790.06053  0.020782316   0.02033541            3 
 3169000   0.75184389   -7.4348644    790.74487  0.020793754   0.02032942            6 
 3170000   0.74804451   -7.4443376    791.17005  0.020798372  0.020323415            8 
 3171000    0.7321658   -7.4567843    791.87248  0.020810272  0.020317408            6 
 3172000   0.74883605   -7.4833319    789.32625  0.020736818  0.020311389            7 
 3173000   0.75406854   -7.4869855    789.41283  0.020732557  0.020305334            8 
 3174000   0.74591133    -7.462886    791.11832  0.020770802   0.02029929           16 
 3175000   0.74702748    -7.461686    789.78075  0.020729153  0.020293251            6 
 3176000   0.75047729   -7.4782604    789.39486  0.020712502  0.020287217            5 
 3177000   0.74860111   -7.4994631    789.54021  0.020709795  0.020281182            9 
 3178000   0.75460472   -7.4769055    790.11834  0.020718438  0.020275117            7 
 3179000   0.73390474   -7.5069893    790.40955  0.020719554  0.020269056            6 
 3180000   0.72125785   -7.4681128    789.92462  0.020700331  0.020263031           12 
 3181000   0.74309522   -7.4615582    790.88536  0.020718992  0.020257016            5 
 3182000   0.74755381   -7.4604156     791.2711  0.020722583  0.020251005            5 
 3183000   0.75736822   -7.4656717    791.23058  0.020715012  0.020244999            3 
 3184000   0.73883722   -7.4718674    789.80494  0.020671193  0.020238988            9 
 3185000   0.73543997   -7.4513136    791.78627  0.020716543  0.020232994            8 
 3186000   0.73606904   -7.4522459     792.1393  0.020719274  0.020227021            7 
 3187000   0.75499702   -7.4560913    790.42425  0.020667928  0.020221047            5 
 3188000    0.7449002   -7.4667428    793.51184  0.020742154   0.02021508            6 
 3189000   0.74343398   -7.4984064    791.43513  0.020681382  0.020209093           14 
 3190000   0.75620657   -7.4647352    789.36846  0.020620911  0.020203083            5 
 3191000   0.74426202   -7.4904508    790.63174  0.020647439  0.020197064            7 
 3192000   0.74022677    -7.486681    790.32237  0.020632894  0.020191037            8 
 3193000    0.7411288   -7.4824431    791.82345  0.020665608  0.020184992            6 
 3194000   0.73644491   -7.4808732    791.11825  0.020640739  0.020178951           13 
 3195000   0.76084697   -7.5172059    790.10821  0.020607935  0.020172912            7 
 3196000   0.71723043    -7.498097    789.40817  0.020583234  0.020166872            5 
 3197000    0.7327172   -7.4739764    790.51982  0.020605771  0.020160854            4 
 3198000   0.74334971   -7.4749937     791.7669  0.020631824  0.020154862            7 
 3199000   0.72462212   -7.4637822    792.67634  0.020649066  0.020148866            4 
 3200000   0.73593069   -7.4363501    791.74632  0.020618394  0.020142913            3 
 3201000   0.75185852   -7.4486941    792.66755  0.020635935  0.020136964            3 
 3202000   0.73598456    -7.458674    793.23304  0.020644208  0.020131028            7 
 3203000   0.75195346   -7.4522094     794.9128  0.020681465  0.020125096            6 
 3204000   0.74944311    -7.479382    791.38147  0.020583163  0.020119142            7 
 3205000   0.76816108   -7.4958323     790.6316  0.020557244  0.020113184            5 
 3206000   0.72632948   -7.4713791    791.51166  0.020573707  0.020107212            7 
 3207000   0.73134524   -7.4647262    793.84934  0.020628036   0.02010125            6 
 3208000   0.74240321   -7.5004533    793.12858  0.020602883  0.020095323            8 
 3209000   0.73667429   -7.5015898    792.89411  0.020590374  0.020089374            5 
 3210000   0.75353578   -7.4750629    793.82349  0.020608087  0.020083429            5 
 3211000   0.75613504   -7.4871961    792.49609  0.020567219  0.020077504            3 
 3212000   0.75825159   -7.4697979    792.08695  0.020550201  0.020071577            7 
 3213000    0.7494971   -7.4689678    793.65512  0.020584478  0.020065658           10 
 3214000   0.72048676   -7.4460847    792.93573   0.02055942  0.020059763            6 
 3215000   0.73277588   -7.4533578    793.89121  0.020577792  0.020053858            4 
 3216000   0.72396801   -7.4654937    793.77336   0.02056834  0.020047961            4 
 3217000   0.71325413   -7.4529596    794.72144  0.020586505  0.020042087            4 
 3218000     0.728148   -7.4662647    794.24672  0.020567814  0.020036229           16 
 3219000   0.72677139   -7.4475376    795.17611  0.020585485  0.020030332            9 
 3220000   0.72124008   -7.4725918    793.48721  0.020535383   0.02002445            8 
 3221000   0.73576599   -7.4797394    793.84352  0.020538226  0.020018563            9 
 3222000   0.73856586   -7.4748552    794.28169  0.020543185  0.020012659            9 
 3223000   0.74527417   -7.4621036    793.97867  0.020528976  0.020006786            6 
 3224000   0.74368556   -7.4747095    793.57942  0.020512289  0.020000907           12 
 3225000   0.72456616   -7.4544544    794.42304  0.020527727  0.019995036            9 
 3226000   0.73712041   -7.4623586    795.44721   0.02054782  0.019989205            4 
 3227000   0.74518903   -7.4600049    793.42787  0.020489306  0.019983375            7 
 3228000   0.75415238   -7.4581418    795.35191  0.020532629  0.019977531            4 
 3229000   0.72807968    -7.477694    794.90404  0.020514711  0.019971692            3 
 3230000   0.72678992   -7.4869559     794.8167  0.020506107  0.019965834            4 
 3231000   0.74609592   -7.4794722     795.1337  0.020507936  0.019959975            5 
 3232000   0.74300706   -7.4713398     793.4534  0.020458266  0.019954096            7 
 3233000   0.72729955   -7.4505346    793.45312  0.020451931  0.019948246            6 
 3234000   0.71408702   -7.4797758    796.78296   0.02053141  0.019942409           12 
 3235000   0.73921756   -7.4814393    796.23773  0.020511018  0.019936555            6 
 3236000   0.73010557   -7.4698757    794.10182  0.020449676  0.019930707            5 
 3237000   0.73322483   -7.4555726    796.23738  0.020498336  0.019924858            5 
 3238000   0.73366065   -7.4802767    795.45631  0.020471904  0.019919027            8 
 3239000    0.7381577   -7.4886082    793.74032  0.020421434  0.019913181            3 
 3240000   0.72651053   -7.4972736    793.56949  0.020410738  0.019907341            6 
 3241000   0.73759825   -7.4888434     795.5242    0.0204547  0.019901469            9 
 3242000   0.72312264   -7.5075223    794.05362  0.020410591  0.019895597            7 
 3243000   0.72306446   -7.4949253    795.03223  0.020429444   0.01988974            6 
 3244000   0.73662457   -7.4860494    793.83117  0.020392293   0.01988391           10 
 3245000   0.74373505   -7.4842637    794.52593   0.02040385  0.019878071            4 
 3246000   0.74183823   -7.5030537    794.30659  0.020391933  0.019872235           10 
 3247000   0.72564459   -7.4926512     794.8004  0.020398327  0.019866387            9 
 3248000    0.7475367   -7.4605898    795.52024  0.020410515  0.019860548            5 
 3249000   0.72496888   -7.4649678    795.43068  0.020401936  0.019854711            7 
 3250000   0.72326523   -7.5176197    795.42335   0.02039547  0.019848889           10 
 3251000   0.72778653   -7.4900371    796.34199  0.020412745  0.019843056           10 
 3252000   0.71740749    -7.495157     795.7057  0.020390163  0.019837223            5 
 3253000   0.72636039   -7.4288536     795.3694  0.020375279  0.019831396            7 
 3254000   0.72143144   -7.4860986    795.36724  0.020368962   0.01982558            7 
 3255000   0.72887142   -7.4982011    795.23611  0.020359347  0.019819759            5 
 3256000   0.74040769   -7.4971984    794.58714  0.020336485  0.019813909           12 
 3257000   0.72673939   -7.4794648    795.10627  0.020343523  0.019808081            5 
 3258000   0.72514498   -7.4983842    794.02436  0.020309606  0.019802259            5 
 3259000   0.72204084   -7.4531807    793.53526  0.020290868  0.019796444            5 
 3260000   0.73305492   -7.4770517    797.21012  0.020378582   0.01979063            6 
 3261000    0.7416225   -7.4641708    794.91963    0.0203138  0.019784816            7 
 3262000   0.74201222    -7.491337    796.78833  0.020355312  0.019779021            4 
 3263000   0.71577335   -7.4788259    794.91336  0.020301189  0.019773222            8 
 3264000   0.73994925   -7.4606716    795.78724   0.02031728  0.019767437            6 
 3265000    0.7300412   -7.5135563    796.45664  0.020328143  0.019761642            5 
 3266000   0.72519196   -7.5093063    795.71105  0.020302895  0.019755819            4 
 3267000   0.72043627   -7.5289502    794.79673  0.020273358   0.01975001            7 
 3268000   0.72973848   -7.5325727    797.39319  0.020333364  0.019744207           12 
 3269000   0.73752965   -7.5014012    796.48195  0.020303914  0.019738428           10 
 3270000   0.74042914   -7.5102568    795.66343  0.020276846  0.019732657            5 
 3271000   0.72167815   -7.4771194    797.10019   0.02030725  0.019726883            4 
 3272000   0.71306366   -7.5019063    797.99933  0.020323944  0.019721129            3 
 3273000   0.73961427   -7.4855408    797.08744  0.020294517  0.019715365            6 
 3274000   0.73034284   -7.4988051    795.93779  0.020259056  0.019709603            5 
 3275000   0.72952559   -7.4993859    797.50344  0.020292708  0.019703848            6 
 3276000   0.73723418   -7.5046556     796.6902  0.020265827  0.019698093            5 
 3277000   0.74097717   -7.4931846    798.12222  0.020296059  0.019692361            6 
 3278000    0.7340642   -7.5070246    798.51719  0.020299908  0.019686598           10 
 3279000   0.71819548   -7.5044804    797.39325  0.020265153  0.019680828            7 
 3280000   0.74144164    -7.468164     796.2019  0.020228707  0.019675087           14 
 3281000   0.73004305   -7.5090562    795.86435  0.020213968  0.019669343            8 
 3282000   0.72855915   -7.4905363    796.42273  0.020221987    0.0196636           12 
 3283000   0.73099377   -7.4775184    798.82647  0.020276842  0.019657874            5 
 3284000   0.73915224   -7.5054122    798.04694  0.020250887  0.019652149           14 
 3285000   0.73975917   -7.5016655    797.57031  0.020232631  0.019646406            6 
 3286000   0.72316759   -7.5026144    798.52447  0.020250671  0.019640675            6 
 3287000   0.72561802   -7.4891857    798.50333  0.020243974   0.01963495            8 
 3288000   0.72310848   -7.4912099    796.59909  0.020189555  0.019629235            8 
 3289000   0.74037029   -7.4836182    799.18735  0.020248995   0.01962352            6 
 3290000   0.71383909   -7.4793649    798.64925  0.020229211  0.019617809           16 
 3291000   0.73673997   -7.4946697    796.73931  0.020174702  0.019612103            6 
 3292000   0.72906599   -7.4996806    797.47144  0.020187106  0.019606384            5 
 3293000   0.72578695   -7.4936933     796.8452  0.020165128  0.019600671            3 
 3294000   0.73614171   -7.4908766    798.34594  0.020196973  0.019594941            8 
 3295000   0.73500975   -7.5021273    799.11598  0.020210318  0.019589216           13 
 3296000   0.71091828   -7.5134261    796.85296   0.02014697  0.019583496            5 
 3297000   0.72829602    -7.532392    797.29139  0.020151941   0.01957776            4 
 3298000   0.70575727   -7.4941208     798.5973  0.020178828  0.019572017            4 
 3299000   0.71616073   -7.5236889    797.06543  0.020134016  0.019566274            6 
 3300000   0.72095124   -7.4968031    798.57498  0.020166035  0.019560561            7 
 3301000   0.71427213   -7.5144285    799.16162  0.020174735  0.019554854            6 
 3302000   0.73151376   -7.5068664    799.81876   0.02018521  0.019549133            4 
 3303000     0.713164    -7.523109    797.82995  0.020128922   0.01954339            8 
 3304000   0.70953109   -7.5318649    798.46241  0.020138782   0.01953766            6 
 3305000   0.71419597   -7.5182968    797.04029   0.02009683   0.01953192            6 
 3306000   0.73634216   -7.4973831    798.66619  0.020131735  0.019526193           11 
 3307000   0.72546991   -7.5094081    798.07774  0.020110819   0.01952049            7 
 3308000   0.72510314   -7.4931508    798.54779  0.020116581   0.01951479           10 
 3309000   0.72417297    -7.486527    797.48665  0.020083778  0.019509092            8 
 3310000   0.73916012    -7.472471     798.7159  0.020108658  0.019503371            9 
 3311000   0.71714558   -7.4968835    798.10139  0.020087119  0.019497668            9 
 3312000   0.73116432   -7.5055177    799.66643  0.020120432  0.019491984            7 
 3313000   0.72704672   -7.5028154    797.93396  0.020070781  0.019486292            9 
 3314000   0.73377716   -7.5377752    797.91479  0.020064242  0.019480598            4 
 3315000   0.73521159   -7.5016242    800.68656  0.020127867  0.019474903            3 
 3316000   0.72559414    -7.496273    798.41598  0.020064736  0.019469211            6 
 3317000   0.71088318   -7.5075619    799.90729  0.020096153  0.019463527            7 
 3318000   0.74056071   -7.5222349    799.49435  0.020079725  0.019457849            7 
 3319000   0.73584692   -7.5034418    798.57825  0.020050674  0.019452162            5 
 3320000   0.71791753   -7.5021463    798.71448  0.020048054  0.019446481            6 
 3321000   0.72164283    -7.486835     798.3731  0.020033451  0.019440818            4 
 3322000    0.7279816   -7.5067834    800.78735  0.020087983  0.019435186           11 
 3323000   0.71794035   -7.5161294    798.05125  0.020013323  0.019429538           10 
 3324000   0.71449047   -7.5023032    799.47675  0.020043039  0.019423874            5 
 3325000   0.72359519    -7.512525    800.62256  0.020065728  0.019418216            9 
 3326000   0.72534869   -7.5395738    799.26975  0.020025801  0.019412561            5 
 3327000   0.73118662   -7.5378653    800.90356  0.020060704  0.019406916            5 
 3328000   0.71699178   -7.5097714    800.03121  0.020032833  0.019401259            5 
 3329000   0.74213512   -7.5297833    798.73889  0.019994465  0.019395605            5 
 3330000   0.72515325    -7.524133    801.08291   0.02004712  0.019389951            7 
 3331000   0.71704682   -7.5055906    800.79814  0.020033977  0.019384299            6 
 3332000    0.7109157   -7.4948114    802.24553  0.020064164  0.019378643            7 
 3333000   0.71516235   -7.4970095    800.58465  0.020016618  0.019373005            8 
 3334000   0.71874341   -7.5155241    799.56498  0.019985128  0.019367356            4 
 3335000   0.71959228   -7.5023196    799.20036  0.019970024  0.019361697           10 
 3336000   0.71296773   -7.5220989    799.54798  0.019972721  0.019356015            9 
 3337000   0.71895318   -7.5284808    799.74368  0.019971623  0.019350351            5 
 3338000   0.69462595     -7.49725    800.60765  0.019987209  0.019344716            4 
 3339000   0.71098895   -7.5403721    797.99801  0.019916093  0.019339068            6 
 3340000   0.72073317   -7.5130185    798.80373  0.019930233  0.019333396            8 
 3341000   0.72631247   -7.5069275     800.0616  0.019955642  0.019327756            8 
 3342000   0.72277558   -7.5245245    800.87936  0.019970062  0.019322134           12 
 3343000    0.7346732   -7.5203494    799.42339  0.019927794    0.0193165            4 
 3344000   0.72591964   -7.5293769    800.10247  0.019938758   0.01931086            9 
 3345000   0.70568755   -7.5067992    801.59496  0.019969979  0.019305209            5 
 3346000   0.71452921   -7.5375991     799.6967  0.019916734  0.019299558            9 
 3347000   0.70333045   -7.5157268    800.81762  0.019938692  0.019293901            2 
 3348000   0.71144818   -7.5310025    798.46704  0.019874229  0.019288249            7 
 3349000   0.71837162   -7.5108423    799.57345  0.019895826  0.019282605            7 
 3350000   0.72459984   -7.5270096    799.46071  0.019887082  0.019276971            8 
 3351000   0.71255124   -7.5316402    800.41571  0.019904897  0.019271331            9 
 3352000   0.71187794   -7.5249218    800.36449  0.019897685  0.019265704            3 
 3353000   0.69760213   -7.5052718     800.2708  0.019889423  0.019260086            5 
 3354000   0.70817083   -7.5176297    801.84995  0.019922728  0.019254454            5 
 3355000   0.71050124    -7.531198    800.18321   0.01987539  0.019248833            6 
 3356000   0.72959662   -7.5141398     801.3484  0.019898401  0.019243215            9 
 3357000   0.69689941   -7.5441829     801.1188  0.019886774  0.019237583           13 
 3358000    0.7264046   -7.5059354    801.64147  0.019893823  0.019231968            3 
 3359000   0.72119839   -7.5051304     801.2248  0.019877563  0.019226348            8 
 3360000   0.71626242   -7.5358678    799.97931  0.019840757  0.019220746           12 
 3361000    0.7045387   -7.5169266    802.36175  0.019893924   0.01921514            3 
 3362000   0.70751638   -7.5376059    799.72703    0.0198227  0.019209535            5 
 3363000   0.71209964   -7.5200848    800.94293  0.019846936  0.019203915            5 
 3364000   0.71163276   -7.5302213    801.68802  0.019859493   0.01919831           10 
 3365000    0.7095539   -7.5193184    801.99965  0.019861309  0.019192734            9 
 3366000   0.72110075   -7.5237954    802.63969  0.019871254  0.019187158            3 
 3367000   0.71400615   -7.5223824     799.8394  0.019796045  0.019181547            7 
 3368000    0.7152412   -7.5265754    801.80622  0.019838832  0.019175956            8 
 3369000   0.72666751   -7.5497213    802.14637  0.019841357  0.019170377            6 
 3370000   0.72222858   -7.5296954    801.42295   0.01981758  0.019164787            8 
 3371000   0.70333364   -7.5131214    802.50103  0.019838352  0.019159197            5 
 3372000    0.7107188   -7.5217604    801.93005  0.019818358  0.019153626            7 
 3373000   0.70822647   -7.5233969    802.42525  0.019824717  0.019148036           11 
 3374000   0.71059834   -7.5374916    800.53842  0.019772239  0.019142477            8 
 3375000   0.71527305   -7.5309233    801.10196  0.019780295  0.019136888            5 
 3376000   0.72149236   -7.5157854     800.9687  0.019771147  0.019131303            8 
 3377000   0.70450437   -7.5289808    802.52808  0.019803773  0.019125734            8 
 3378000   0.72140321   -7.5487635     802.7479  0.019803333   0.01912017            5 
 3379000   0.70952078   -7.5468755    801.52354  0.019767277  0.019114598            5 
 3380000   0.71529316   -7.5028624    803.03157  0.019798609  0.019109028            6 
 3381000   0.71746415    -7.563784    800.25446  0.019724304  0.019103482           11 
 3382000   0.70368804   -7.5128958    802.91933  0.019784135   0.01909795            5 
 3383000   0.70116907    -7.508471    803.27376  0.019787018  0.019092421            7 
 3384000   0.70667372   -7.4923284    804.49247  0.019811182  0.019086919           11 
 3385000   0.70923876   -7.5230157     803.6346   0.01978421  0.019081405            4 
 3386000   0.70810954   -7.5412092    801.64095  0.019729301  0.019075875            7 
 3387000   0.72813638   -7.5200965    802.28659  0.019739361  0.019070355            5 
 3388000   0.70638322   -7.5358221    803.12925  0.019754261  0.019064821            4 
 3389000   0.70671648   -7.5177033    802.22316  0.019726152  0.019059287            9 
 3390000   0.68780994   -7.5328463    802.89569  0.019736866   0.01905375            5 
 3391000   0.71288178   -7.5425025     802.5711  0.019723068  0.019048229            6 
 3392000   0.71937356   -7.5266706     803.2019  0.019732751  0.019042705            7 
 3393000   0.70347977   -7.5037165    803.30686  0.019729513  0.019037177           12 
 3394000   0.72062235    -7.542686    803.93884  0.019739217  0.019031664           12 
 3395000   0.70587594   -7.5279336    804.21738   0.01974024   0.01902616            9 
 3396000   0.71349914   -7.5522103    802.51327  0.019692611  0.019020658            4 
 3397000   0.70134479   -7.5242323    803.23914   0.01970462  0.019015147            5 
 3398000   0.71528998   -7.5564568    803.40133  0.019702799  0.019009638           12 
 3399000   0.70842098   -7.5224226    802.14974  0.019666317  0.019004117            8 
 3400000   0.69322422   -7.5633502    802.49565  0.019669011  0.018998558            9 
 3401000    0.7056457   -7.5259269     802.9853  0.019675226  0.018993021            6 
 3402000   0.71458124   -7.5673216    801.17491  0.019625096  0.018987464            4 
 3403000   0.72039166   -7.5265662    802.49934  0.019651762  0.018981919            8 
 3404000   0.70794672   -7.5289234    803.57626  0.019672353  0.018976398            8 
 3405000   0.70659489   -7.5538046    803.44466  0.019663354  0.018970868            4 
 3406000   0.70168762   -7.5250977    802.76238  0.019640888   0.01896534            5 
 3407000   0.70574201   -7.5178503    803.65572  0.019656974  0.018959806            3 
 3408000   0.69956305   -7.5401724    803.51982  0.019647883  0.018954271            5 
 3409000   0.69868641   -7.5434845    804.33651  0.019662083  0.018948728            8 
 3410000   0.71939566    -7.551713     802.9982  0.019623612  0.018943179            6 
 3411000   0.69499676   -7.5525516    802.68918  0.019610309   0.01893762            4 
 3412000   0.73162695   -7.5737772     803.1187  0.019615052  0.018932082            7 
 3413000    0.7049352   -7.5483205    802.43463  0.019592603  0.018926519            9 
 3414000    0.7106944   -7.5499363    802.57771  0.019590356  0.018920953           10 
 3415000   0.70242648   -7.5532963    801.85175  0.019566905  0.018915418            6 
 3416000   0.71258115   -7.5470904    802.79789  0.019584258  0.018909891            4 
 3417000   0.70294786   -7.5484884    805.91143  0.019654459   0.01890438            9 
 3418000   0.71417227   -7.5081285    804.20464  0.019607096  0.018898889            9 
 3419000   0.70824951   -7.5746994    800.76496  0.019517524  0.018893354            2 
 3420000   0.71360796   -7.5619673    802.58633  0.019556197  0.018887805            7 
 3421000   0.70605652   -7.5495678    803.73784  0.019578531  0.018882259            6 
 3422000   0.71315408   -7.5513464    804.19521  0.019583947  0.018876729            5 
 3423000   0.71203874   -7.5506937    805.32971  0.019605846  0.018871215            5 
 3424000   0.70658127    -7.552334      804.781  0.019586765  0.018865709            5 
 3425000   0.68684602   -7.5357367    803.05939  0.019539158  0.018860202            6 
 3426000   0.70929614    -7.590013    805.72563  0.019598308  0.018854688            4 
 3427000   0.70570601   -7.5252184    805.37097  0.019583965  0.018849194            9 
 3428000   0.72936663   -7.5538018    803.76568  0.019539228  0.018843695           10 
 3429000   0.71612787   -7.5492467    805.13757   0.01956687  0.018838195            4 
 3430000   0.71056845   -7.5551287    803.62975  0.019524532  0.018832696            4 
 3431000   0.70438418    -7.571942    803.10341  0.019506058  0.018827188            6 
 3432000   0.70986984   -7.5444033     802.4695  0.019484982  0.018821683            8 
 3433000   0.70555068   -7.5478758    803.14866  0.019495792  0.018816181            6 
 3434000   0.70844593   -7.5581585    803.86816  0.019507575  0.018810679            9 
 3435000   0.70826951   -7.5393162    804.76169  0.019523573   0.01880519            7 
 3436000   0.71251226   -7.5561442    805.58277  0.019537805  0.018799706           12 
 3437000   0.70606375   -7.5612581    803.62114  0.019484559  0.018794211            8 
 3438000   0.68987923   -7.5486232    804.95286  0.019511171  0.018788741           11 
 3439000   0.70202372   -7.5493114     804.3408  0.019490666  0.018783274           11 
 3440000   0.69892392   -7.5621141    801.74107  0.019422022  0.018777807           17 
 3441000   0.69690593   -7.5618422    802.24526  0.019428588  0.018772328           22 
 3442000   0.69477678   -7.5382543     805.2379  0.019495397   0.01876683           14 
 3443000   0.70143694   -7.5788169    804.00248  0.019459833  0.018761333           12 
 3444000   0.70069942   -7.5883368    804.21482  0.019459321  0.018755833           12 
 3445000   0.70102747   -7.5562663    803.77405   0.01944301  0.018750317           21 
 3446000   0.71944875   -7.5871576    803.46211  0.019429825  0.018744819           11 
 3447000    0.6976738   -7.5630271    802.31759  0.019396518  0.018739334            6 
 3448000   0.69310181   -7.5559079    802.30894  0.019390684  0.018733842           26 
 3449000   0.68640951   -7.5577645    802.54761  0.019390829  0.018728352           15 
 3450000   0.70488172   -7.5518144    803.94866   0.01941905  0.018722871            9 
 3451000   0.69304218   -7.5843359    803.71552  0.019407793   0.01871738            9 
 3452000   0.70587386   -7.5504928    804.55454  0.019422425  0.018711879           10 
 3453000   0.69805252   -7.5443519    804.49705  0.019415413  0.018706381            9 
 3454000   0.69842144   -7.5651518    804.56521  0.019411436   0.01870088            4 
 3455000    0.7080755   -7.5756268    803.78258  0.019386941  0.018695391           11 
 3456000   0.69504999   -7.5520098    806.24763   0.01944077  0.018689926           11 
 3457000   0.69961341   -7.5646348    805.78363  0.019423962  0.018684453            6 
 3458000   0.70582794   -7.5518187    802.91972  0.019349328  0.018678971            5 
 3459000   0.68845429   -7.5769418      802.928  0.019343934  0.018673479            4 
 3460000   0.68632917   -7.5905681    801.50601  0.019304095  0.018667963           10 
 3461000   0.68083601   -7.5624187    802.60432  0.019324962  0.018662457           11 
 3462000   0.69737857   -7.6106177    802.20626  0.019309798  0.018656941            7 
 3463000    0.7067889   -7.5772264    803.38593   0.01933261  0.018651425            7 
 3464000   0.69001632   -7.5575258     803.7289   0.01933528   0.01864592           14 
 3465000   0.68425575   -7.5426313    804.90686  0.019358029  0.018640455            5 
 3466000     0.693966   -7.5961861    804.46275  0.019341767  0.018634961            7 
 3467000   0.68462404   -7.5728356    804.25076  0.019331092  0.018629466            5 
 3468000   0.68997948   -7.5501735    804.30076  0.019326719  0.018623986           12 
 3469000    0.6914171    -7.558379    802.91765  0.019287923  0.018618493           16 
 3470000   0.69504424   -7.5576631    803.74562  0.019302248  0.018612997           12 
 3471000   0.69913828   -7.5788119    802.98202  0.019278355  0.018607519            5 
 3472000   0.69205088   -7.5676506    803.28146  0.019279989  0.018602035            7 
 3473000   0.68111803   -7.5669787    802.16826  0.019247727  0.018596545           11 
 3474000   0.68513736   -7.5631225    802.38737  0.019247442  0.018591049            4 
 3475000   0.68234434   -7.5867671    802.65044  0.019248212  0.018585552            6 
 3476000   0.70228554   -7.5690447    804.00886  0.019275241  0.018580059            7 
 3477000   0.71478557   -7.5790064    804.40286   0.01927914   0.01857455           13 
 3478000   0.67615829   -7.5622589    803.01605  0.019240369  0.018569029           14 
 3479000   0.67697089   -7.5687243    801.35351  0.019195016   0.01856353            4 
 3480000   0.68984043   -7.5950941    803.57634  0.019242728  0.018558022            6 
 3481000   0.70517495   -7.5536693    805.39794  0.019280809  0.018552529            7 
 3482000   0.67545709   -7.5599368    799.86563  0.019142869  0.018547033            9 
 3483000   0.69481453   -7.5659644    804.12323  0.019239239  0.018541542            7 
 3484000    0.7034318   -7.5811138    802.31228  0.019190401   0.01853603            5 
 3485000   0.69483669   -7.5851853    802.68482  0.019193802  0.018530513            5 
 3486000   0.68669445    -7.582142    802.33206  0.019179864  0.018524975            6 
 3487000   0.69513496   -7.5596446    802.49921  0.019178358  0.018519461            6 
 3488000   0.68922914    -7.559149    802.49265  0.019172703  0.018513943            6 
 3489000   0.68200928   -7.5834549    802.03775  0.019156343   0.01850842            2 
 3490000   0.69461643   -7.5710546    802.19657  0.019154646  0.018502913           11 
 3491000   0.68467454   -7.5942868    802.55531  0.019157723  0.018497391            5 
 3492000   0.69635637   -7.5778834    801.37224  0.019124003  0.018491866           10 
 3493000   0.70970824    -7.622768    802.10848  0.019136093  0.018486324            7 
 3494000    0.6917597   -7.6069658    802.45581    0.0191389  0.018480775            6 
 3495000    0.7033736   -7.6052655    803.32059  0.019154044  0.018475245            8 
 3496000   0.69039159   -7.6174953    800.89839  0.019090827  0.018469709            5 
 3497000    0.6776448    -7.612831    802.78218  0.019130259  0.018464153            5 
 3498000   0.68673194   -7.6083743     802.9179  0.019128023  0.018458611            6 
 3499000   0.70142298    -7.582792    802.97988  0.019124033  0.018453076            7 
 3500000   0.66960132   -7.5756603    802.42706  0.019105406  0.018447538            4 
 3501000   0.69941865   -7.5815495    801.38057   0.01907504  0.018441986            9 
 3502000   0.69490708   -7.5752883    804.20857  0.019136888  0.018436438            2 
 3503000   0.69539453   -7.5965858    801.95839  0.019077895  0.018430894            6 
 3504000   0.70909336   -7.6041586    801.83091  0.019069418  0.018425361           11 
 3505000   0.70529045   -7.5575358    802.47316  0.019079248  0.018419848           10 
 3506000   0.69245707   -7.5684513    804.27242  0.019116572  0.018414337            6 
 3507000    0.6831542   -7.5718868    803.16946  0.019084913  0.018408817            7 
 3508000   0.69882962   -7.5971951    801.90968  0.019049546  0.018403298           19 
 3509000   0.69992961   -7.5842099     802.5468  0.019059248  0.018397789            8 
 3510000   0.68396557    -7.579231    803.49589  0.019076351  0.018392286            7 
 3511000   0.67274769   -7.5917022    802.74949  0.019053202  0.018386771            8 
 3512000   0.68424267   -7.5789965    802.59342  0.019044073  0.018381258           11 
 3513000   0.69747161   -7.5883792    801.96614  0.019023772   0.01837575           14 
 3514000   0.68109204   -7.5761992    803.57702   0.01905656   0.01837026           10 
 3515000   0.71252185   -7.5735997    803.02924  0.019038152  0.018364787           14 
 3516000   0.68297964   -7.6020112    803.66917  0.019047904   0.01835929           16 
 3517000   0.67944599   -7.5539838    803.60881  0.019041058  0.018353808            9 
 3518000   0.69572573   -7.5729396    802.43242   0.01900778  0.018348327            7 
 3519000   0.70566177   -7.5938517    801.88811  0.018989488  0.018342842           11 
 3520000   0.68311629   -7.5625784    804.52268  0.019046465  0.018337359            8 
 3521000   0.68243083     -7.59979    806.05782  0.019077388  0.018331889            7 
 3522000   0.69892718   -7.5761177    803.97549  0.019022702  0.018326425           10 
 3523000   0.69157693   -7.6070759    803.92723  0.019016161  0.018320972            7 
 3524000   0.68409519   -7.5845509    804.07933  0.019014362  0.018315515            4 
 3525000   0.70708721   -7.5805839    803.78667  0.019002049  0.018310041           16 
 3526000   0.70014462   -7.5628228    803.07215  0.018979773  0.018304584            4 
 3527000   0.68908939   -7.5917162    804.72116  0.019013353  0.018299127            9 
 3528000   0.70832782   -7.5888323    802.92387  0.018965511  0.018293664            6 
 3529000   0.68735112   -7.5836256    804.17482  0.018989676  0.018288202            5 
 3530000   0.69023356   -7.5791668    803.79118   0.01897524  0.018282742           11 
 3531000   0.68963023   -7.5771366    804.21769  0.018979932  0.018277282           11 
 3532000   0.68595749   -7.6139485    803.06396  0.018947338  0.018271804           25 
 3533000   0.67518634   -7.5706196    803.55318  0.018953514  0.018266331           11 
 3534000   0.66735387   -7.5896381    803.91959  0.018956791  0.018260859           19 
 3535000   0.67752138   -7.5957276    803.28444  0.018936455  0.018255387            6 
 3536000   0.68217716    -7.585198    804.73012  0.018965171  0.018249938            7 
 3537000   0.69392948   -7.5803965    804.99708  0.018966098  0.018244498            6 
 3538000   0.69170147   -7.5829877     804.0565  0.018938583  0.018239062           12 
 3539000   0.68378353   -7.5754624    803.85552    0.0189285  0.018233611           15 
 3540000   0.69482525   -7.5714896    804.61915  0.018941129  0.018228161            9 
 3541000    0.6884961    -7.604104    803.31938  0.018905191  0.018222704           13 
 3542000   0.66936326    -7.579703    805.48957  0.018950912  0.018217246            4 
 3543000   0.67914049   -7.5923226    803.06994  0.018888652  0.018211788           10 
 3544000   0.68231081   -7.6073615    803.05816  0.018883045  0.018206315           15 
 3545000    0.6976986   -7.5906954    804.99933   0.01892335  0.018200857            3 
 3546000    0.6672328   -7.6147513    804.95191  0.018916899  0.018195407            3 
 3547000   0.68314145   -7.6057112    803.85374  0.018885766  0.018189957            7 
 3548000   0.68197457   -7.5979536    804.56815  0.018897223  0.018184509            4 
 3549000   0.67099636   -7.5886004    804.76494  0.018896519  0.018179075            8 
 3550000   0.67594079    -7.600315    804.73731  0.018890547  0.018173634            6 
 3551000   0.68720555   -7.5768628    804.29058  0.018874744  0.018168198           10 
 3552000   0.68865031   -7.5810309    803.28868  0.018845924  0.018162772            8 
 3553000   0.69311801   -7.5607583    803.67844  0.018849762  0.018157335            7 
 3554000   0.69258826   -7.6050302    802.19327  0.018809634  0.018151896            8 
 3555000   0.67935554   -7.5909557    804.41145   0.01885634  0.018146439            9 
 3556000   0.68381211   -7.6047576     805.0377  0.018865713  0.018140988            6 
 3557000   0.69909483   -7.6009661    803.83616  0.018832259  0.018135535            8 
 3558000   0.68684397   -7.5904314    805.53538  0.018866765    0.0181301            5 
 3559000   0.68164243   -7.6049685    803.89913  0.018823151   0.01812466            9 
 3560000   0.67860651   -7.5961375     803.4945  0.018808392  0.018119208           15 
 3561000   0.68713542   -7.6128498    802.40775  0.018777678  0.018113742            6 
 3562000   0.66336436   -7.6128087     803.2418  0.018791919  0.018108271            6 
 3563000   0.67889473   -7.5974588    803.52019  0.018793156    0.0181028            6 
 3564000   0.66264015   -7.6120352    803.51508  0.018787764  0.018097321            5 
 3565000   0.68780541   -7.5813631    802.69177  0.018763248  0.018091856            4 
 3566000   0.69701349    -7.618634    802.87994  0.018762384   0.01808639            8 
 3567000   0.68383549   -7.6183783    803.82243  0.018779143   0.01808092            7 
 3568000   0.67261052   -7.6117386    802.94302   0.01875334   0.01807544           16 
 3569000   0.69324516   -7.6023972    802.77061   0.01874406  0.018069963            9 
 3570000    0.6626097   -7.6120422    804.02781  0.018768156  0.018064503            9 
 3571000   0.68010465   -7.5989634    804.76729  0.018780157  0.018059053            9 
 3572000   0.66720895   -7.5949919    805.51802  0.018792414  0.018053606           11 
 3573000    0.6729804   -7.5947516    804.75903  0.018769452  0.018048158            9 
 3574000   0.68956896   -7.6116409    803.97648  0.018745954  0.018042725            4 
 3575000   0.66276343   -7.6074724    804.00011  0.018741261  0.018037294            8 
 3576000   0.68662489   -7.6082686     805.1899  0.018763747  0.018031851           11 
 3577000   0.67280576    -7.586336    805.65459  0.018769327  0.018026422            7 
 3578000   0.69233472   -7.6070925    802.71247  0.018695558  0.018021014           21 
 3579000   0.67816399   -7.6036035    804.00828  0.018720506  0.018015597            6 
 3580000   0.68999144   -7.6137132    804.61845   0.01872948  0.018010171            8 
 3581000   0.67812687   -7.6264808    804.81505  0.018728825  0.018004755           11 
 3582000   0.67212903   -7.6303142    804.30177  0.018711655  0.017999326            4 
 3583000   0.68997036   -7.6082499    805.50481  0.018734413    0.0179939           12 
 3584000   0.69428936   -7.5898251    804.05779   0.01869554   0.01798849            4 
 3585000    0.6834614   -7.5852406    803.13519  0.018668879  0.017983078           12 
 3586000   0.67045527   -7.5908535    806.11893  0.018733011  0.017977697           19 
 3587000   0.67960062   -7.5904101    803.28376  0.018661922  0.017972296            4 
 3588000    0.6843352   -7.5899874    805.88924  0.018717234  0.017966919            5 
 3589000   0.68358664   -7.5922629    804.51148  0.018680029  0.017961514            8 
 3590000   0.68358188   -7.6077809    804.57268  0.018676246   0.01795612            4 
 3591000   0.66376135   -7.6141315    805.85262  0.018700748  0.017950721            6 
 3592000   0.66543033    -7.585239    805.14387  0.018679099  0.017945343            7 
 3593000   0.67857208   -7.5730699    805.75436  0.018688059  0.017939969            4 
 3594000   0.68256711   -7.5667973    806.61043  0.018702709  0.017934613            6 
 3595000    0.6738936   -7.5680185    804.91818   0.01865828   0.01792925            8 
 3596000   0.66920202   -7.5918771    805.77068  0.018672847  0.017923876            4 
 3597000   0.67518178   -7.6114309    804.26588  0.018632793  0.017918508            3 
 3598000   0.67638983   -7.6096967    806.56711  0.018680913  0.017913125            7 
 3599000   0.68382609   -7.6168676    805.42566  0.018649293  0.017907751            7 
 3600000   0.66072037   -7.5912377    806.11513  0.018660072  0.017902357            6 
 3601000    0.6621089   -7.6381046    804.76095  0.018623553  0.017896962           12 
 3602000    0.6664594    -7.613106    805.62568  0.018638388  0.017891563            7 
 3603000   0.66717959   -7.6020237    805.70325  0.018635009  0.017886191            6 
 3604000   0.66299343   -7.6256233     805.1204  0.018616361  0.017880805            9 
 3605000   0.66413522   -7.6205199    803.52239  0.018574258  0.017875425            7 
 3606000   0.66813574   -7.6267582    805.80549  0.018621868  0.017870071            5 
 3607000   0.68282568   -7.6094496    806.64787  0.018636168  0.017864718            6 
 3608000   0.68273033   -7.6153739     805.5153  0.018604843  0.017859343            5 
 3609000   0.66276848    -7.618154    805.18242  0.018592002  0.017853964            8 
 3610000   0.68685615   -7.6064548    805.73349  0.018599573   0.01784858            9 
 3611000   0.68528138   -7.5920581    804.03321  0.018555183  0.017843195            9 
 3612000   0.65904865   -7.6126911    806.13876  0.018598624  0.017837818            6 
 3613000   0.68328681   -7.5958601    804.46147   0.01855479  0.017832443           13 
 3614000   0.68354418   -7.6170292     802.3514  0.018501001  0.017827049           10 
 3615000   0.67641245   -7.6255273    804.59806  0.018547673  0.017821639           13 
 3616000   0.67196189   -7.6280226    804.70029    0.0185449  0.017816241           17 
 3617000   0.67418263     -7.62117    803.93903  0.018522234  0.017810852           23 
 3618000   0.67266505   -7.6307074    804.73895  0.018535539  0.017805457            9 
 3619000   0.67193932   -7.6220832    804.28246  0.018519906  0.017800073           12 
 3620000   0.66753005   -7.6465389     804.7536  0.018525635  0.017794691           10 
 3621000   0.66151197   -7.6141623    803.59605  0.018493879   0.01778931           10 
 3622000   0.67732803   -7.5957895    806.67818  0.018559686  0.017783946           15 
 3623000   0.68762783   -7.6270735     803.4354  0.018479975  0.017778568           16 
 3624000   0.68398671   -7.5991421    805.37955  0.018519581  0.017773203           14 
 3625000   0.66501241   -7.5943146    805.37619  0.018514395  0.017767833            8 
 3626000   0.66877525    -7.623071    806.06831  0.018525196  0.017762465           15 
 3627000   0.67861288   -7.6335869    805.87178  0.018515573  0.017757087            7 
 3628000   0.68508199   -7.6232425    804.94658  0.018489218  0.017751704            9 
 3629000   0.67773794   -7.6427164    805.47932  0.018496356  0.017746317           21 
 3630000   0.67026443   -7.6269727    806.00632  0.018503359  0.017740938            6 
 3631000   0.66560531   -7.6394667    803.52086   0.01844122  0.017735572            8 
 3632000   0.66427668   -7.6316267     804.7998  0.018465487  0.017730205           14 
 3633000   0.67738691   -7.6352521    803.55837  0.018431929  0.017724826            7 
 3634000   0.67216564   -7.6306949     805.1236   0.01846275  0.017719453            5 
 3635000   0.67720159   -7.6368934    804.40587  0.018441217  0.017714092            7 
 3636000    0.6733265   -7.6445273    803.19396  0.018408369  0.017708718           18 
 3637000   0.66916321   -7.6478468    804.40943  0.018431157   0.01770334           10 
 3638000   0.68365785   -7.6375056    805.66111  0.018454763  0.017697965           19 
 3639000   0.66327088    -7.614555    803.83231  0.018407811  0.017692596           16 
 3640000   0.65444187   -7.6553651    804.95403  0.018428435  0.017687229            8 
 3641000   0.66995807   -7.6366367    804.73246  0.018418302  0.017681841           12 
 3642000   0.66845809    -7.662313    805.63137  0.018433813  0.017676461           14 
 3643000   0.67344211   -7.6600377    803.98349  0.018391058  0.017671086            5 
 3644000    0.6797366   -7.6505585    804.45398   0.01839677  0.017665709           12 
 3645000   0.66241632   -7.6371875    806.47278  0.018437878   0.01766034           21 
 3646000   0.67319278   -7.6300738    805.63401   0.01841365   0.01765499           12 
 3647000   0.66176609   -7.6299548    805.03082  0.018394818  0.017649632           14 
 3648000   0.66765458   -7.6356893    804.93189  0.018387516  0.017644274            9 
 3649000   0.65651708   -7.6455427    804.52979  0.018373294  0.017638928           10 
 3650000   0.66488704   -7.6189484    805.80802  0.018397443  0.017633578           13 
 3651000   0.66989268   -7.6468271    803.91416  0.018349177  0.017628227           12 
 3652000   0.67067676   -7.6310003    805.90795  0.018389648   0.01762288            8 
 3653000     0.671974   -7.6274584    805.35535  0.018372008  0.017617528           13 
 3654000   0.67875582   -7.6436296    804.13009  0.018339037  0.017612177           12 
 3655000    0.6723908   -7.6471758    805.01992  0.018354307  0.017606831           13 
 3656000   0.66830964    -7.654732    804.67324  0.018341385  0.017601489           11 
 3657000   0.66355661   -7.6473966    804.03304  0.018321781  0.017596138            7 
 3658000    0.6674762   -7.6541664    804.78693  0.018333947  0.017590792           11 
 3659000   0.67046879   -7.6399059    802.66509  0.018280612  0.017585445            9 
 3660000   0.67407696   -7.6040026    804.57146  0.018319022  0.017580112            8 
 3661000    0.6687423   -7.6253845    806.19889  0.018351063  0.017574776            5 
 3662000   0.65971382   -7.6451993    803.31029  0.018280318  0.017569417            7 
 3663000   0.67362747   -7.6216167    805.37703  0.018322346  0.017564074            6 
 3664000   0.67902326   -7.6390871    804.87367  0.018305897  0.017558738            8 
 3665000   0.66585797    -7.632952    804.72142   0.01829744  0.017553404            9 
 3666000   0.67024714   -7.6364633    805.71703  0.018315081  0.017548074            7 
 3667000    0.6577176   -7.6104292    805.09615  0.018295977   0.01754276            6 
 3668000   0.66305676   -7.6195853    805.23645  0.018294176  0.017537436            7 
 3669000   0.66364647   -7.6194467    807.08663  0.018331213  0.017532116            7 
 3670000   0.65877422   -7.6286243    806.76333  0.018318877  0.017526816            9 
 3671000   0.66103123    -7.646937    804.87345  0.018270985  0.017521516            8 
 3672000   0.66066412   -7.6148488    805.90956  0.018289523  0.017516217            6 
 3673000   0.66719091   -7.6136461    805.51282  0.018275543  0.017510915            9 
 3674000   0.66337273   -7.6148405    805.40392  0.018268098  0.017505615           14 
 3675000   0.65222186   -7.6238916    805.78962  0.018271874   0.01750032            5 
 3676000   0.67270921    -7.625503    806.14189  0.018274889  0.017495024            4 
 3677000    0.6626717   -7.6400124    807.65019  0.018304102  0.017489741            7 
 3678000   0.65482056   -7.6725713    805.82812  0.018257842  0.017484453            5 
 3679000   0.65436885    -7.645336    805.26131   0.01824004   0.01747916            5 
 3680000   0.67022666   -7.6214199    805.95589  0.018250813  0.017473878            5 
 3681000   0.65997941   -7.6647988    806.20879   0.01825158  0.017468581            9 
 3682000   0.65092817   -7.6348697    806.46491   0.01825242  0.017463288            4 
 3683000   0.67312613   -7.6478073    805.73515  0.018230952  0.017457991            5 
 3684000   0.66668001   -7.6374478    807.03991  0.018255517  0.017452697            4 
 3685000   0.64364534   -7.6685467    803.13764  0.018162317  0.017447395           16 
 3686000   0.66730136   -7.6584586    805.10776   0.01820193  0.017442092           12 
 3687000   0.66212012   -7.6462641    804.55035  0.018184394  0.017436766           12 
 3688000   0.66056031   -7.6697803     804.3421  0.018174758  0.017431451           12 
 3689000   0.66286432   -7.6687561    805.50583   0.01819612  0.017426139            7 
 3690000   0.65701383   -7.6497658    804.84627  0.018176293   0.01742083           10 
 3691000   0.66443729   -7.6597203    804.35758  0.018160335  0.017415519           10 
 3692000   0.65783154   -7.6582346    806.30702  0.018199418  0.017410207            8 
 3693000   0.65894773   -7.6552666    805.55146  0.018177441  0.017404888            6 
 3694000   0.67189714    -7.668277    804.20866  0.018142227   0.01739957            8 
 3695000   0.65002688    -7.651495    805.46995  0.018165763  0.017394256            5 
 3696000   0.65965558   -7.6315801    805.14298  0.018153476  0.017388953            9 
 3697000   0.66878181    -7.660259    805.04695  0.018146401  0.017383663            4 
 3698000   0.65291644   -7.6439214    805.82042  0.018158924  0.017378379            4 
 3699000   0.66260934   -7.6368014    805.80723  0.018153718  0.017373101           12 
 3700000   0.66522606   -7.6287156    806.69624  0.018168834  0.017367824            5 
 3701000   0.67197618   -7.6592356     805.2362   0.01813105  0.017362543           16 
 3702000    0.6591113   -7.6426594    806.88251  0.018163212  0.017357262            9 
 3703000   0.64728153   -7.6521014    805.45184   0.01812611  0.017351972           10 
 3704000   0.66537775   -7.6496205    805.18147  0.018115134  0.017346673            6 
 3705000   0.66123333   -7.6719125    803.90042  0.018081431  0.017341371           10 
 3706000   0.65477325   -7.6569209    805.39797  0.018110226  0.017336074           12 
 3707000   0.67090756    -7.660836    806.59156  0.018132173  0.017330792           22 
 3708000   0.65970391   -7.6748176    805.31983  0.018098702  0.017325496           13 
 3709000   0.65472458   -7.6725226    805.16846  0.018090421  0.017320197           18 
 3710000   0.66221681   -7.6606464    802.81574  0.018032698  0.017314879           10 
 3711000   0.66308888   -7.6747437     807.1029  0.018124111  0.017309576           16 
 3712000   0.66613213   -7.6654437    804.29509  0.018056194  0.017304275           19 
 3713000   0.65467858   -7.6615062    803.83744  0.018041059  0.017298978           17 
 3714000   0.65016862   -7.6868623    804.21799   0.01804474  0.017293668           13 
 3715000   0.66438865   -7.6704349    803.09263  0.018014639  0.017288343           18 
 3716000   0.64422834   -7.6623533    805.48263  0.018063389   0.01728303            9 
 3717000   0.65315677   -7.6615814    805.64688  0.018062211  0.017277729            9 
 3718000   0.66211781   -7.6792077    806.08271  0.018067122  0.017272435           10 
 3719000   0.67123409   -7.6708273    804.09811  0.018017794  0.017267134           10 
 3720000   0.66195786   -7.6750434    806.03661  0.018056376  0.017261826            7 
 3721000    0.6483355    -7.663431    804.70958  0.018021804  0.017256524           12 
 3722000   0.65989479   -7.6630328     804.4781  0.018011779  0.017251235           12 
 3723000   0.66800188   -7.6629718    803.87602  0.017993464  0.017245938           10 
 3724000   0.65192461   -7.6715132     803.9205  0.017989628  0.017240644            9 
 3725000   0.65181206   -7.6808756    803.82322  0.017982622  0.017235349           16 
 3726000    0.6596728   -7.6606483    805.30179  0.018010865  0.017230057           15 
 3727000    0.6570843   -7.6847184     804.3064  0.017983776  0.017224774           12 
 3728000   0.65035244   -7.6695232    806.70901  0.018032659   0.01721949            8 
 3729000   0.66043139    -7.671106    806.72137  0.018028099  0.017214211            6 
 3730000   0.66362216   -7.6731396    804.71005   0.01797833  0.017208937            7 
 3731000   0.65346362   -7.6698825     804.5847  0.017970712  0.017203664           10 
 3732000     0.655201   -7.6812252    804.01939  0.017953273  0.017198404           13 
 3733000   0.64602748    -7.645322    805.09802  0.017972543  0.017193137           11 
 3734000   0.66445982   -7.6755511    804.31756  0.017950312  0.017187863           19 
 3735000   0.63655488   -7.6607547    805.19819  0.017965154  0.017182587           17 
 3736000   0.65747213   -7.6475042    805.49396  0.017966942  0.017177326           10 
 3737000   0.66105659   -7.6774099    805.72453  0.017967276  0.017172066           12 
 3738000   0.64192531    -7.669587    803.95516  0.017923024   0.01716682           11 
 3739000   0.66046182   -7.6529691     806.3663  0.017971969  0.017161574           14 
 3740000   0.64941162   -7.6645961    806.09028  0.017961013  0.017156321            7 
 3741000   0.65650702   -7.6528099    804.82493  0.017928026  0.017151063           14 
 3742000    0.6489917   -7.6768906     805.0296  0.017927793  0.017145817           13 
 3743000   0.65768224   -7.6599784    805.89366   0.01794224  0.017140586           10 
 3744000   0.65719715   -7.6774078    805.58588  0.017930597   0.01713534            9 
 3745000    0.6533823    -7.627462    806.35656  0.017942959  0.017130101           16 
 3746000   0.64552266    -7.638021    805.51576  0.017919464  0.017124881           10 
 3747000   0.67070571   -7.6573457    805.79353   0.01792086   0.01711965            8 
 3748000   0.66261856   -7.6545723    806.61808  0.017934411  0.017114437            7 
 3749000   0.65612322   -7.6527555    805.87793  0.017913175  0.017109228            7 
 3750000   0.63802697   -7.6490126    806.29979  0.017917773  0.017104006           26 
 3751000   0.65284378   -7.6262488    807.03708  0.017929376  0.017098802           11 
 3752000   0.64950032   -7.6646956     807.3259  0.017931012  0.017093602           13 
 3753000   0.65646516   -7.6576142    804.80476  0.017870254  0.017088397           22 
 3754000   0.64698701   -7.6539115    805.54281  0.017881877   0.01708317           19 
 3755000   0.65385371   -7.6719504    804.74378  0.017859383   0.01707795           19 
 3756000   0.64309697   -7.6688165    804.97017   0.01785965  0.017072727           13 
 3757000   0.64224871    -7.675858    805.45787  0.017865714  0.017067503           17 
 3758000   0.64865256   -7.6581608    805.90539  0.017870884  0.017062278           17 
 3759000   0.64900617   -7.6703363    806.41884  0.017877513  0.017057059           16 
 3760000   0.63961139   -7.6721805    805.77147   0.01785841  0.017051848           11 
 3761000    0.6606071   -7.6617171    806.45536  0.017868815  0.017046633           13 
 3762000   0.64652693   -7.6567415    805.48237  0.017842512  0.017041431           14 
 3763000   0.65294042   -7.6715027    805.57641  0.017839853   0.01703622           19 
 3764000   0.63941361     -7.66946    804.99636  0.017822271  0.017031005            7 
 3765000    0.6511632   -7.6953533    804.79429  0.017813065  0.017025776            9 
 3766000   0.65535466   -7.6686781    805.90358  0.017832882  0.017020544           11 
 3767000   0.66147738    -7.707462    806.69546  0.017845666  0.017015314            8 
 3768000   0.64655399    -7.680918    805.85974  0.017822447  0.017010086            7 
 3769000   0.65707817     -7.65433    805.08853  0.017800666  0.017004862            7 
 3770000   0.64309178   -7.6936712    803.82125  0.017767932  0.016999636            8 
 3771000   0.63572605   -7.6980152    806.20076  0.017815804  0.016994399            9 
 3772000    0.6481617   -7.6956937    804.55177   0.01777465  0.016989177            6 
 3773000   0.65319022   -7.7107479    805.50932  0.017791088  0.016983963           15 
 3774000   0.65183004   -7.6842399     805.3879  0.017783693   0.01697875           12 
 3775000   0.65132361   -7.6902584    805.83891  0.017788938  0.016973536           10 
 3776000   0.63848902   -7.6634998    806.94384  0.017808612  0.016968333            8 
 3777000   0.63935889   -7.6753003    805.75432  0.017777652  0.016963136            6 
 3778000   0.63981633   -7.6438785    805.97984  0.017777921  0.016957938            6 
 3779000   0.65184023   -7.6950281    805.28062  0.017757798  0.016952745           17 
 3780000   0.65291833   -7.7055094    805.43601  0.017756526  0.016947542            8 
 3781000   0.64693191   -7.6897724    805.93942  0.017762925  0.016942336            6 
 3782000     0.646846   -7.6828121    803.69051  0.017708675  0.016937122            6 
 3783000   0.64453509   -7.6876484    805.89436  0.017752541  0.016931926            6 
 3784000   0.65264556   -7.6868751    807.02134  0.017772669  0.016926734            7 
 3785000   0.63722984   -7.6788104    805.19484   0.01772776  0.016921543            8 
 3786000   0.65242512    -7.672466    806.10764  0.017743169  0.016916352           11 
 3787000   0.64989859   -7.6693222      805.389   0.01772267  0.016911179           20 
 3788000   0.65590108   -7.6743714    806.31487  0.017738359   0.01690602            6 
 3789000   0.64745044   -7.6753366    806.33848  0.017734197  0.016900859            9 
 3790000   0.64328362   -7.6728705     806.8269  0.017740257  0.016895694            7 
 3791000    0.6425139   -7.6599329     809.7841  0.017800583  0.016890537            9 
 3792000   0.64434891    -7.661796    808.20072  0.017761092  0.016885396           20 
 3793000   0.64409859   -7.6768604     805.8624  0.017705036  0.016880238            8 
 3794000   0.64630992   -7.6825479    805.04826  0.017682487  0.016875081           12 
 3795000   0.64852999   -7.6857195     807.6016  0.017733896  0.016869933           12 
 3796000   0.66018889   -7.6809271    806.37868  0.017702377  0.016864773            9 
 3797000   0.64861662    -7.681722    805.80077  0.017685031  0.016859615            5 
 3798000   0.64594882   -7.6838771    805.67868  0.017677696  0.016854452            8 
 3799000   0.64197802   -7.6914848    806.38977  0.017688641  0.016849305            9 
 3800000   0.63961465   -7.6893217    807.41218  0.017706407  0.016844155            8 
 3801000   0.65522309   -7.6735747    807.52884  0.017704307  0.016839018           11 
 3802000     0.644145   -7.7062278    806.18889  0.017670281  0.016833873            4 
 3803000   0.64314305   -7.6914964    805.02049  0.017640032   0.01682872           14 
 3804000   0.63824606   -7.6826982    806.03002   0.01765751  0.016823581           15 
 3805000   0.64458021   -7.6800346     806.3507  0.017659893  0.016818444           15 
 3806000    0.6429346   -7.6856481    807.85189  0.017688122  0.016813316           10 
 3807000   0.63896443   -7.6904851    807.51565  0.017676115  0.016808182            9 
 3808000   0.64748464   -7.6777286    806.56603  0.017650692  0.016803065           13 
 3809000   0.64197381   -7.6943515    807.21967  0.017660358  0.016797939            9 
 3810000    0.6495695   -7.6703246    806.49834  0.017639946  0.016792815            8 
 3811000   0.65139074   -7.6885331    805.70479  0.017617965  0.016787695            7 
 3812000    0.6443328   -7.6852962    805.85405  0.017616607  0.016782572           11 
 3813000    0.6378652   -7.6818962    808.33897  0.017666295  0.016777457            4 
 3814000   0.63698704   -7.6763396    807.61193  0.017645777  0.016772328            4 
 3815000   0.64084209   -7.6823876    807.38605  0.017636218   0.01676721           10 
 3816000   0.64352195   -7.6871549    806.95544  0.017622192  0.016762074            9 
 3817000   0.64986333   -7.6951267    805.75353  0.017591336  0.016756948            8 
 3818000   0.65985092   -7.7006714     808.1662  0.017639388   0.01675182            5 
 3819000   0.64309487   -7.6940019    805.87625  0.017584801  0.016746687            6 
 3820000   0.64193693   -7.6933579    805.75928  0.017577646  0.016741552            7 
 3821000   0.65433452   -7.6783371    806.78632  0.017595444  0.016736414            9 
 3822000   0.64516531   -7.7028862    806.88389  0.017592968  0.016731274            9 
 3823000   0.64871715    -7.709859    805.67953  0.017562114  0.016726134            8 
 3824000    0.6305891   -7.6751161    806.10358  0.017566762  0.016720988           11 
 3825000   0.63577081   -7.6990021    806.74452  0.017576133  0.016715834            5 
 3826000   0.63741101   -7.6925952    806.50808   0.01756639  0.016710685            6 
 3827000   0.65484178   -7.6858317    806.04671  0.017551753  0.016705543            6 
 3828000   0.63457254   -7.6880925    806.05671  0.017547386  0.016700396            6 
 3829000   0.64375276    -7.693773    805.53693  0.017531491  0.016695264            7 
 3830000   0.65050493   -7.7145464    805.96489  0.017536225  0.016690122            7 
 3831000   0.64834298   -7.7084692    803.52295  0.017478529  0.016684974            7 
 3832000    0.6403838   -7.6917663    805.75015  0.017522402  0.016679818           11 
 3833000   0.63248463   -7.7070692    804.62695  0.017493411  0.016674671            5 
 3834000   0.63650989   -7.6612001    806.07802  0.017520388  0.016669534            5 
 3835000   0.64804886   -7.7018235     805.9098  0.017512164  0.016664399            5 
 3836000   0.64503451   -7.7100075    805.72365  0.017503555  0.016659253            7 
 3837000   0.64136813   -7.6995686    806.12974  0.017507813  0.016654115            6 
 3838000   0.63765321   -7.6969905    804.09502  0.017459072  0.016648981            5 
 3839000   0.62584861   -7.6806309    805.71706  0.017489734  0.016643849            7 
 3840000   0.63421306   -7.6996688    805.85813  0.017488241  0.016638715           13 
 3841000   0.64557975   -7.6927593    804.41036  0.017452277  0.016633587            7 
 3842000   0.64558062   -7.7025788    806.35543  0.017489923  0.016628468           10 
 3843000   0.62449654   -7.6904679     805.8526  0.017474469  0.016623347            7 
 3844000   0.64050077   -7.6939282    805.19619  0.017455693  0.016618219           11 
 3845000   0.63212453    -7.718133    804.41917  0.017434312  0.016613101            8 
 3846000   0.64903438   -7.7027019     805.7833  0.017459337  0.016607979            6 
 3847000   0.65525052   -7.7032113    805.85852  0.017456428  0.016602861           10 
 3848000   0.62865617   -7.7175223    804.88837  0.017430881  0.016597746            9 
 3849000   0.63432597   -7.7124928    805.43358  0.017438157  0.016592632            9 
 3850000   0.62892333   -7.7030026    804.71624    0.0174181  0.016587526            7 
 3851000   0.63998798   -7.7003638    804.93229  0.017418253   0.01658242            7 
 3852000    0.6333518   -7.7287711    805.63138  0.017428855  0.016577301            5 
 3853000   0.62913401   -7.7000241    806.90458  0.017451868  0.016572188           14 
 3854000   0.63748203   -7.7208545    805.32083  0.017413095  0.016567077            4 
 3855000   0.62891252   -7.7037735     805.9598  0.017422391  0.016561948           19 
 3856000   0.62876416   -7.7126818    805.32012  0.017404048   0.01655683           15 
 3857000   0.63345859   -7.7249575    805.20393  0.017397025  0.016551704           18 
 3858000   0.64154164    -7.724394    804.56672  0.017378752  0.016546581           12 
 3859000   0.63507271   -7.7210987    807.09578  0.017428863  0.016541469           20 
 3860000   0.62228014   -7.6982354    806.14848  0.017403896  0.016536362           14 
 3861000   0.62551972   -7.7266488    804.23693  0.017358131  0.016531254           10 
 3862000   0.64367797   -7.7070032    804.62999  0.017362118  0.016526146           18 
 3863000   0.63565105   -7.7343546    806.35167  0.017394764  0.016521043           11 
 3864000   0.62378499    -7.720314    806.51016   0.01739368  0.016515938           16 
 3865000   0.63937152   -7.7108897    805.16948  0.017360273   0.01651084           22 
 3866000   0.64050326   -7.7091983    804.29785  0.017336995  0.016505728           21 
 3867000   0.65047091   -7.7151736    805.53092  0.017359084  0.016500624           14 
 3868000   0.63062789   -7.7056676    804.25702   0.01732715  0.016495522           15 
 3869000   0.63610502   -7.7408025    805.11204  0.017341088  0.016490422           10 
 3870000   0.63606811   -7.7273221    807.09339  0.017379272  0.016485324           17 
 3871000   0.64899757   -7.7208526    807.67142  0.017387226  0.016480239           15 
 3872000   0.62969606   -7.7199313    804.80017   0.01732094  0.016475148           10 
 3873000   0.63064982   -7.7416608    806.09895  0.017344413   0.01647006            8 
 3874000   0.62100416   -7.7107753    804.33336  0.017301957  0.016464968            7 
 3875000   0.62892941   -7.7335239    804.83766  0.017308337  0.016459877            6 
 3876000   0.62908615   -7.7242891     806.4073  0.017337618  0.016454784            7 
 3877000    0.6189788   -7.7442852    805.71356  0.017318235  0.016449693            4 
 3878000   0.62540844   -7.7246992     805.1834  0.017302377  0.016444603           10 
 3879000   0.63560759   -7.7244316    804.97431  0.017293424  0.016439516           16 
 3880000   0.60804882   -7.7159488    803.76734  0.017263044  0.016434429           13 
 3881000   0.61876959   -7.7222155    806.35788  0.017314221  0.016429342           14 
 3882000   0.62420748   -7.7209893    804.68711  0.017273895  0.016424247           13 
 3883000   0.62461719   -7.7458909    805.17592  0.017279937  0.016419156           10 
 3884000   0.63048739   -7.7491654    806.05661  0.017294383   0.01641407           13 
 3885000   0.63140764   -7.7443649    805.65204  0.017281253  0.016408974            9 
 3886000   0.63295219   -7.7488512    805.58291  0.017275324   0.01640388            9 
 3887000    0.6239573    -7.729697    806.20257  0.017284165  0.016398799           15 
 3888000   0.62325121   -7.7145513    803.55785  0.017223033  0.016393726           13 
 3889000   0.64511127   -7.7245858     804.8807  0.017246951  0.016388658           20 
 3890000   0.64612759   -7.7450422    806.35593   0.01727412   0.01638358            7 
 3891000   0.64231602   -7.7166107    803.78643   0.01721465  0.016378502            8 
 3892000    0.6149616   -7.7108287     803.8347   0.01721126  0.016373429            8 
 3893000    0.6262414   -7.7367894    805.28472  0.017237878  0.016368354           11 
 3894000   0.64675733   -7.7318464    804.62688  0.017219373  0.016363271           10 
 3895000   0.63438673   -7.7255734    803.61819  0.017193372   0.01635819            7 
 3896000   0.62896269   -7.7461743    806.63591  0.017253506  0.016353112           12 
 3897000   0.62646992   -7.7258995    804.08416  0.017194512  0.016348032           11 
 3898000   0.62794794   -7.7307249    804.44409  0.017197796  0.016342956            8 
 3899000   0.64101881   -7.7509442    805.64878  0.017219133  0.016337882           13 
 3900000   0.62989744   -7.7412739     804.8177  0.017196959  0.016332816           14 
 3901000   0.63526272   -7.7517867    805.49815  0.017207087  0.016327737           11 
 3902000    0.6245062   -7.7217756    805.51291  0.017202992  0.016322653           22 
 3903000   0.62593859   -7.7160942    803.09783   0.01714702  0.016317583           17 
 3904000   0.62136725   -7.7389456    805.59627  0.017195959  0.016312511           14 
 3905000   0.61381868   -7.7518952    803.75466  0.017152255  0.016307426           24 
 3906000   0.62889436   -7.7353894    805.02571  0.017174981  0.016302354           24 
 3907000   0.64580323   -7.7396051    804.42109  0.017157689  0.016297291           11 
 3908000   0.63932787   -7.7343642    804.87496  0.017162977   0.01629221           18 
 3909000   0.63014421   -7.7241546    804.01935  0.017140346  0.016287147           19 
 3910000   0.62875877    -7.717058    806.35926  0.017185833  0.016282088           14 
 3911000   0.63006036   -7.7389736    805.23937  0.017157576  0.016277031           16 
 3912000   0.63383149   -7.7359799    806.03242  0.017170084   0.01627197           18 
 3913000   0.63216598   -7.7315572    804.26632  0.017128084  0.016266911           14 
 3914000   0.62207904   -7.7363922    805.48943  0.017149749  0.016261845           12 
 3915000   0.63201307   -7.7418895     804.8066  0.017130834  0.016256786           12 
 3916000   0.61743282   -7.7146816    805.78662  0.017147315  0.016251732            8 
 3917000   0.62911606   -7.7304552    804.22418  0.017109697  0.016246685           14 
 3918000   0.62477854   -7.7295976    805.54165  0.017133351  0.016241649           19 
 3919000   0.63616124   -7.7329045    804.34685  0.017103573  0.016236601           33 
 3920000   0.63514673   -7.7585214    804.31022  0.017098432  0.016231558           25 
 3921000   0.62172564   -7.7542904    805.29014  0.017114897  0.016226509           15 
 3922000   0.61951098   -7.7333777    805.68992  0.017119028  0.016221459           17 
 3923000    0.6293165    -7.757529    806.07702  0.017122887  0.016216421           20 
 3924000   0.62334304   -7.7381042    805.53382  0.017106987  0.016211382           13 
 3925000   0.62451626   -7.7563826    804.07798  0.017071719  0.016206337           13 
 3926000   0.62758442   -7.7240194    805.07661  0.017088568  0.016201291           13 
 3927000   0.62626395   -7.7465508    805.18726  0.017086564  0.016196254           12 
 3928000   0.60992494   -7.7333931     805.3007  0.017084621  0.016191227           15 
 3929000   0.62000948   -7.7582767    804.74625  0.017068513  0.016186187           11 
 3930000   0.63430501    -7.754536    806.43256  0.017099927  0.016181152           24 
 3931000    0.6226956   -7.7296086    804.58778  0.017056469  0.016176125           11 
 3932000   0.62327262   -7.7461241    804.74795  0.017055526  0.016171098            8 
 3933000   0.60718048   -7.7603236    804.80187  0.017052332  0.016166072           11 
 3934000   0.61867979   -7.7596482    805.96988  0.017072739  0.016161053            8 
 3935000   0.62741715   -7.7459157    805.23731  0.017052887  0.016156015           23 
 3936000   0.62300755   -7.7202701     804.7713  0.017038688  0.016150983            7 
 3937000   0.61842098    -7.744137    802.46048  0.016985447  0.016145947           10 
 3938000   0.62375063   -7.7632623    804.36401  0.017021415  0.016140913           15 
 3939000   0.62740141   -7.7501457    803.15134  0.016991439   0.01613588            9 
 3940000   0.61227775   -7.7527845    804.41154  0.017013781  0.016130841            8 
 3941000   0.62448124   -7.7745729    805.73831  0.017037518  0.016125803           10 
 3942000   0.63030772   -7.7613215    805.05621  0.017018777  0.016120763            4 
 3943000   0.61680075   -7.7421954    804.39122  0.017000406   0.01611572            4 
 3944000   0.61674098   -7.7554002    803.23676  0.016971703  0.016110681            6 
 3945000   0.61095612   -7.7639778    804.38499  0.016991656  0.016105643            7 
 3946000   0.62900472   -7.7334783    802.84144  0.016954753  0.016100599           14 
 3947000   0.63709758   -7.7370014    804.76732  0.016991118  0.016095564            8 
 3948000   0.61589295   -7.7441017    804.50927  0.016981368  0.016090527           13 
 3949000   0.61072316   -7.7706356    802.50497  0.016934772  0.016085493           11 
 3950000   0.61760514   -7.7503502    803.95982  0.016961178  0.016080466           10 
 3951000   0.62045178   -7.7410219    802.74725   0.01693131  0.016075446            8 
 3952000    0.6190939   -7.7534652    803.99272  0.016953288  0.016070418            9 
 3953000    0.6152427   -7.7361899     805.0291  0.016970847  0.016065398           12 
 3954000   0.62467342   -7.7510551    804.68035  0.016959205  0.016060372           17 
 3955000   0.62692471   -7.7527424    803.23502  0.016924463  0.016055347            6 
 3956000   0.62974188   -7.7403479    802.68008  0.016908495  0.016050327           13 
 3957000   0.62024377   -7.7346146    804.31633  0.016938681  0.016045319            6 
 3958000   0.61740268   -7.7276634    803.82043  0.016923961  0.016040299           12 
 3959000   0.61245241   -7.7593345    806.32705  0.016972448  0.016035283            7 
 3960000    0.6199318   -7.7510509    804.39513  0.016927507  0.016030265            7 
 3961000   0.63100481   -7.7492845    805.58369  0.016948239  0.016025254            4 
 3962000    0.6179954   -7.7552971    802.70842  0.016883485  0.016020241            5 
 3963000   0.60838604   -7.7395935    805.30779  0.016933884  0.016015232           10 
 3964000   0.60759857    -7.762414    802.97536  0.016880579  0.016010221           10 
 3965000   0.61022892   -7.7396574    803.77432  0.016893113  0.016005217           17 
 3966000   0.61324572   -7.7496134    803.25249  0.016877889  0.016000206           20 
 3967000      0.62038   -7.7634093    802.85819  0.016865351  0.015995198           19 
 3968000   0.60958035   -7.7567397     803.6888  0.016878545  0.015990188            9 
 3969000   0.61642111   -7.7448029    801.96727  0.016838147  0.015985178           23 
 3970000   0.62099268   -7.7460884    805.02384  0.016898065  0.015980175           24 
 3971000   0.62243379   -7.7430082     803.3246  0.016858151  0.015975169           17 
 3972000   0.59384083   -7.7686166    803.28039  0.016852979  0.015970166           29 
 3973000   0.61821895   -7.7731822    803.90947  0.016861932  0.015965162           18 
 3974000   0.62274433   -7.7455801    802.76879  0.016833769  0.015960153           11 
 3975000   0.61548184   -7.7435296    804.01462  0.016855652  0.015955143           10 
 3976000   0.62147856   -7.7523897    804.04867  0.016852127  0.015950137           12 
 3977000   0.62021316   -7.7493614    802.99014  0.016825709  0.015945138           11 
 3978000   0.61062449   -7.7621913    804.05477  0.016843782  0.015940138            7 
 3979000   0.59913011   -7.7551498    803.97563  0.016837891  0.015935131           11 
 3980000   0.62397836   -7.7483172    805.24504   0.01686024  0.015930145           20 
 3981000   0.63965538   -7.7546288    804.45563   0.01683948  0.015925156           14 
 3982000   0.62758362   -7.7676259    803.68911   0.01681921  0.015920161           23 
 3983000   0.61321872   -7.7478843    804.12549  0.016824117  0.015915168            9 
 3984000    0.6226134   -7.7785461    803.52095  0.016807249  0.015910174           24 
 3985000   0.61647035   -7.7703306    804.61069   0.01682582  0.015905188           20 
 3986000   0.61455044   -7.7437927    802.91725  0.016786194  0.015900201           15 
 3987000   0.61566843   -7.7495859    803.27385  0.016789437  0.015895209           23 
 3988000   0.60100998   -7.7767217    804.07879  0.016802048  0.015890228           15 
 3989000   0.58968881    -7.768149    804.72485  0.016811332  0.015885245           12 
 3990000   0.60024486   -7.7620906    805.10002  0.016814954   0.01588027            8 
 3991000   0.60771987   -7.7486736     803.8612  0.016784874  0.015875282           23 
 3992000   0.61626089   -7.7624113    802.47528  0.016751738  0.015870298           17 
 3993000   0.62144907   -7.7615881    803.27075  0.016764144   0.01586531           13 
 3994000   0.60378228   -7.7723488    804.07657   0.01677676  0.015860338           13 
 3995000   0.61087911   -7.7868248    803.01314  0.016750378  0.015855356           15 
 3996000   0.61089071   -7.7638908    803.25497   0.01675123  0.015850377           11 
 3997000   0.62390414   -7.7736681    803.54572  0.016753101  0.015845395            8 
 3998000   0.61756074   -7.7527865    803.91467  0.016756601  0.015840422           17 
 3999000   0.61054399   -7.7872257    803.73657  0.016748699  0.015835454           15 
 4000000   0.62056889   -7.7785047    803.32897   0.01673602  0.015830477           20 
 4001000   0.60495741   -7.7686709    802.38329   0.01671214    0.0158255           18 
 4002000    0.6190966   -7.7721952    803.83161  0.016738123   0.01582052           27 
 4003000   0.60713496   -7.7847586    802.22381  0.016700471  0.015815544            9 
 4004000   0.60887826   -7.7803719    803.72661  0.016727577  0.015810576           25 
 4005000    0.6109418   -7.7707287    803.38427  0.016716277  0.015805613           25 
 4006000   0.60450088   -7.7639055    802.58006  0.016695375  0.015800651           23 
 4007000   0.61214621   -7.7497556    803.22164  0.016704551  0.015795683           25 
 4008000    0.6086742   -7.7527342    802.90267  0.016693751  0.015790723           13 
 4009000    0.6100555   -7.7364086    805.35284  0.016740518  0.015785781           11 
 4010000   0.60193626   -7.7492458    802.56679  0.016678445  0.015780834           23 
 4011000   0.60620781   -7.7716685    803.57664  0.016695268  0.015775893           13 
 4012000   0.60958753   -7.7725895    803.70093  0.016693688  0.015770947           22 
 4013000    0.6049337   -7.7784955    804.19993  0.016699891  0.015765992           24 
 4014000   0.61435993   -7.7392897    803.78387  0.016687092   0.01576105           24 
 4015000   0.60114783   -7.7562877    804.14156   0.01669036  0.015756107           11 
 4016000   0.60575658   -7.7558876    803.18265  0.016666307  0.015751161           13 
 4017000   0.61481656   -7.7737564    804.31306  0.016685608  0.015746222            8 
 4018000   0.60860451   -7.7748391    804.53788  0.016686118   0.01574128            8 
 4019000   0.61843795   -7.7631669     805.0057  0.016691667  0.015736335            9 
 4020000   0.61010851   -7.7633972    803.57772  0.016657913  0.015731399           25 
 4021000   0.61011781    -7.759957    803.74739  0.016657287   0.01572646            8 
 4022000   0.59988855    -7.767252    803.49502  0.016647916  0.015721529           11 
 4023000   0.60885573   -7.7447628    803.74124  0.016648878  0.015716611           17 
 4024000   0.59721728   -7.7571891    804.17265  0.016653675  0.015711685           11 
 4025000   0.60543921   -7.7661428    803.78828  0.016641579   0.01570676            9 
 4026000   0.63136166   -7.7771845     802.7935  0.016616855  0.015701836            7 
 4027000   0.59383228   -7.7722678    805.06731  0.016659782  0.015696907           13 
 4028000   0.61608844   -7.7773913    805.07074  0.016655717  0.015691977           23 
 4029000   0.62063269   -7.7737487    803.89051  0.016627172  0.015687047           25 
 4030000   0.61197924    -7.776521    803.79942  0.016621162  0.015682113           19 
 4031000   0.60078504    -7.778762    802.25562  0.016585124  0.015677179           18 
 4032000   0.61184424   -7.7727151     803.1396  0.016599281  0.015672244           20 
 4033000   0.60767518   -7.7695834    802.68063  0.016585681  0.015667314           17 
 4034000   0.60000727   -7.7908742     803.9689  0.016608183  0.015662386           16 
 4035000   0.60977267   -7.7938764     804.5986  0.016617071  0.015657446           14 
 4036000   0.61618369   -7.7673074    803.84433   0.01659738  0.015652518           13 
 4037000   0.61182922    -7.785392    802.67188  0.016569067  0.015647597           20 
 4038000    0.6209873   -7.7778217    803.08116   0.01657341  0.015642676           22 
 4039000   0.60085217   -7.7781502    803.87975  0.016585783  0.015637753           22 
 4040000   0.61603716   -7.7769961    802.62071  0.016555708  0.015632835           18 
 4041000    0.6117711   -7.7932263    802.81736  0.016555666   0.01562791           24 
 4042000   0.60296428   -7.7837939    803.30226  0.016561567  0.015622986           19 
 4043000   0.61164338   -7.7896644    803.26427  0.016556688   0.01561808           10 
 4044000   0.59414002   -7.7840689    804.32025  0.016574354  0.015613173           20 
 4045000   0.58824137   -7.7747691    805.11836  0.016586699  0.015608272           14 
 4046000    0.6044997   -7.7688737    805.06033  0.016581404  0.015603367           28 
 4047000   0.59874342   -7.7792238    803.65706  0.016548412  0.015598465           25 
 4048000   0.60147922   -7.7703632    802.71047  0.016524837  0.015593568           16 
 4049000   0.61321722   -7.7518993    805.03558  0.016568609  0.015588674           24 
 4050000   0.60167272   -7.7753961    803.63674  0.016535735  0.015583773           14 
 4051000   0.59013682    -7.771873     803.8907  0.016536878  0.015578881           21 
 4052000   0.59881526   -7.7621526    802.84101  0.016511209  0.015573988           29 
 4053000   0.60884516   -7.7705514    804.38643   0.01653891  0.015569095           25 
 4054000   0.60473313   -7.7944223    803.72197  0.016521172   0.01556422           34 
 4055000   0.60631833    -7.774501    803.62976  0.016515203  0.015559341           10 
 4056000   0.60323494   -7.7769016    803.86103  0.016515882  0.015554461           15 
 4057000   0.60630064   -7.7734113    804.98863  0.016534973  0.015549592           25 
 4058000   0.59746873   -7.7791252    804.16941  0.016514075  0.015544718           16 
 4059000   0.60189591   -7.7720095    803.74541  0.016501302  0.015539851           24 
 4060000   0.59896084   -7.7732157     803.8132  0.016498629  0.015534994           21 
 4061000   0.59256225   -7.7791209    802.80198  0.016473815  0.015530128           11 
 4062000   0.59470894   -7.7466553    804.34883  0.016501494  0.015525259           13 
 4063000   0.60998678   -7.7424388    804.27819  0.016495984  0.015520396           14 
 4064000   0.60187705   -7.7740192    803.71484  0.016480373  0.015515544           12 
 4065000   0.59518923   -7.7827541    804.04948  0.016483179  0.015510681            5 
 4066000   0.60916863   -7.7482133    802.94851  0.016456561  0.015505825           14 
 4067000   0.60480066   -7.7658879     803.8288  0.016470552   0.01550096           21 
 4068000   0.58550372   -7.7779385    804.62328  0.016482778  0.015496107            9 
 4069000    0.6032248   -7.7753808    804.67769  0.016479841  0.015491242            7 
 4070000   0.59847275   -7.7667244    804.09107  0.016463781  0.015486379           11 
 4071000   0.60841517    -7.769696    803.76662  0.016453095  0.015481523           15 
 4072000   0.59588121    -7.780849    803.54587  0.016444537  0.015476656           10 
 4073000   0.60654436   -7.7761458    803.54225  0.016440426  0.015471787            9 
 4074000   0.59942268   -7.7604215    802.79791  0.016421165   0.01546691           18 
 4075000   0.59984072   -7.7849199     803.3145  0.016427699  0.015462048            9 
 4076000   0.60253024   -7.7845433    802.36806  0.016404319  0.015457182           13 
 4077000   0.61168501   -7.7735595    803.97327  0.016433106  0.015452326           10 
 4078000   0.59771193   -7.7942204    803.24257  0.016414144  0.015447464            9 
 4079000   0.58775587   -7.7865204    802.07726  0.016386313  0.015442604            7 
 4080000   0.61082174   -7.7856428    803.78414   0.01641716  0.015437742           12 
 4081000    0.5972603   -7.7883494    802.85367  0.016394137  0.015432872           12 
 4082000   0.60093323   -7.8078643    802.31924   0.01637921  0.015427998           11 
 4083000   0.58698336   -7.8323089    803.28626  0.016394935  0.015423129           11 
 4084000   0.59012476   -7.8019385    802.49704  0.016374817  0.015418257            6 
 4085000   0.58691388   -7.7935793    803.44339  0.016390114  0.015413397           11 
 4086000   0.60357203    -7.785016    803.56203  0.016388522  0.015408546           10 
 4087000   0.59210946    -7.792749    803.43778  0.016381979   0.01540369           14 
 4088000   0.58653327    -7.798323    803.41368   0.01637748  0.015398839            7 
 4089000   0.59316589   -7.8052918    803.62764  0.016377836  0.015393992            7 
 4090000   0.59636756   -7.7681431    802.24894  0.016345741  0.015389142           11 
 4091000   0.59527659   -7.7712524    802.96944  0.016356421  0.015384297           14 
 4092000   0.60748577   -7.7867788    802.52179  0.016343308  0.015379441            8 
 4093000   0.59990283   -7.8035096    802.42264  0.016337296  0.015374591           13 
 4094000   0.60114234   -7.8091636    802.24885  0.016329768   0.01536974           15 
 4095000   0.59634641   -7.7891999    803.88807  0.016359139  0.015364887            4 
 4096000   0.60577501   -7.7890025    803.17295  0.016340595  0.015360032           13 
 4097000    0.5963001   -7.7920697    802.17829  0.016316376  0.015355182            6 
 4098000   0.59505812   -7.8103603     802.8252  0.016325549  0.015350334            4 
 4099000   0.60373437   -7.7742675    803.52884  0.016335871   0.01534549            5 
 4100000   0.60398068   -7.8014881    803.07251  0.016322612  0.015340651           12 
 4101000   0.62178334   -7.8282256    803.22097  0.016321649  0.015335809            8 
 4102000   0.59656959   -7.7945611    803.90597  0.016331586  0.015330973            7 
 4103000   0.58674099   -7.7879613    801.50594   0.01627886  0.015326144           13 
 4104000   0.58689601   -7.8073753    802.34336  0.016291897  0.015321307           11 
 4105000   0.59380458   -7.8108783    803.21577  0.016305639  0.015316472            9 
 4106000   0.59884963   -7.8096971    802.21094  0.016281274  0.015311642            7 
 4107000   0.60318295   -7.8023236    802.18132  0.016276709  0.015306805            8 
 4108000   0.57592806    -7.807612    801.48304  0.016258582  0.015301969           14 
 4109000   0.59651158   -7.8112407    802.13898  0.016267928  0.015297132           15 
 4110000   0.60607491   -7.8129752    802.70071  0.016275359  0.015292293           13 
 4111000   0.59311889   -7.8040148    802.62461  0.016269857  0.015287462            6 
 4112000   0.59213023   -7.8149331    803.33119   0.01628022  0.015282628           11 
 4113000   0.59087707   -7.8149208    803.28309  0.016275288  0.015277793            6 
 4114000   0.58424867   -7.7966591    801.81369  0.016241567  0.015272962           13 
 4115000   0.59199158   -7.7846002    803.34555  0.016268642  0.015268154            6 
 4116000   0.59319851   -7.8033116    803.99773  0.016277894  0.015263346            7 
 4117000   0.60062994   -7.8002309    802.48406  0.016243301  0.015258529           12 
 4118000   0.60082422    -7.801368    802.51583      0.01624  0.015253715           11 
 4119000   0.58262364   -7.7779836    802.94525  0.016244745  0.015248905            9 
 4120000   0.60050854   -7.8172357    802.78395   0.01623754  0.015244093            8 
 4121000   0.59465714   -7.8047798    802.56477  0.016229167   0.01523929            9 
 4122000   0.59244354   -7.8033464    802.71331  0.016228233  0.015234486           14 
 4123000   0.58828648   -7.8021643    802.92666  0.016228609  0.015229687            4 
 4124000   0.59621796   -7.8092544    803.24603  0.016231127  0.015224887           10 
 4125000   0.60479687   -7.8005299    804.84555  0.016259506  0.015220099            9 
 4126000   0.58257942   -7.7987502     803.8427  0.016235311   0.01521531            7 
 4127000   0.60243201   -7.7922787    802.06295   0.01619544  0.015210524           11 
 4128000   0.58959758   -7.7980624    802.34459  0.016197202  0.015205738           10 
 4129000   0.58660908   -7.8046504    803.67816  0.016220194  0.015200952            6 
 4130000   0.58818782   -7.8001911     802.9439  0.016201451  0.015196163           26 
 4131000   0.58828174   -7.8033839    804.54736  0.016229875  0.015191375           10 
 4132000   0.59383567    -7.809794    802.42648  0.016183174  0.015186592           10 
 4133000   0.59296007   -7.8086928    803.81983  0.016207352   0.01518181           12 
 4134000   0.59985665   -7.8258009     802.9326  0.016185547  0.015177025           12 
 4135000   0.57718547   -7.8112499    803.26924  0.016188417  0.015172241           13 
 4136000   0.58305595   -7.8337274    803.00842  0.016179248  0.015167464           11 
 4137000   0.59523993    -7.797228    803.75225   0.01619032  0.015162688           17 
 4138000   0.58183567   -7.7963603    802.52677  0.016161728  0.015157916            9 
 4139000   0.59219608    -7.824442    803.09822  0.016169329  0.015153137           13 
 4140000   0.58411778    -7.784173    802.50124  0.016153407  0.015148364           10 
 4141000   0.59285404   -7.8216302    804.31565  0.016186019  0.015143595           19 
 4142000   0.57893485   -7.8131325    805.24082  0.016200725  0.015138819           12 
 4143000   0.58606795   -7.8094826    801.75818  0.016126764   0.01513405            7 
 4144000    0.6009979   -7.8160299    803.17099  0.016151283  0.015129282           11 
 4145000   0.57666979   -7.8030721    803.17328  0.016147432  0.015124513            6 
 4146000   0.57928002   -7.7978796    803.95595  0.016159269  0.015119745            9 
 4147000   0.58692141   -7.8137246    803.42975  0.016144798  0.015114983           13 
 4148000   0.57802658   -7.8000518     802.3148  0.016118507  0.015110214           13 
 4149000   0.57957907   -7.8295999    802.16833   0.01611168  0.015105453            7 
 4150000   0.60515973   -7.8247281    803.43917  0.016133317    0.0151007           10 
 4151000   0.59813323   -7.8075675     802.3989  0.016108546  0.015095951           11 
 4152000   0.57552022   -7.8147954    804.14992  0.016139811  0.015091199            8 
 4153000    0.5901063   -7.8056655    802.98061  0.016112461  0.015086456            7 
 4154000   0.59491199   -7.8125898    803.93154  0.016127659  0.015081711           13 
 4155000   0.58005703   -7.7962181    801.60163  0.016077048  0.015076958            8 
 4156000   0.60111082   -7.8243039    803.38069  0.016108853  0.015072212            6 
 4157000   0.58224456   -7.8073765    803.26455  0.016102649  0.015067473            9 
 4158000   0.58803572   -7.8100549    802.40756  0.016081601  0.015062732            7 
 4159000   0.58959404   -7.7976271    802.07422  0.016071055  0.015057991            7 
 4160000    0.5845159   -7.7998031    803.21218  0.016089988  0.015053254            8 
 4161000   0.60612645   -7.8197266    802.57693  0.016073398  0.015048512            7 
 4162000   0.58967906    -7.805353    801.99518  0.016057888  0.015043766           10 
 4163000   0.59858552   -7.8232231    804.29636  0.016100095  0.015039025            7 
 4164000    0.5836503   -7.8252526    802.60904  0.016062461  0.015034297            8 
 4165000   0.57895728   -7.8000724    803.45715  0.016075573  0.015029574            5 
 4166000   0.58471973    -7.813295    803.61719  0.016074916  0.015024858           10 
 4167000   0.59096154   -7.8291884    803.22921  0.016063299  0.015020132            7 
 4168000   0.58063517   -7.7978269    803.51354   0.01606513   0.01501541            6 
 4169000   0.58964346   -7.8077851    803.77447  0.016066492  0.015010685            5 
 4170000   0.58589399   -7.8262014    802.97119  0.016046586   0.01500596            5 
 4171000    0.5890965   -7.8202186    805.08137  0.016084899   0.01500124            5 
 4172000   0.59885223   -7.8221185     804.4832  0.016069096  0.014996522            7 
 4173000   0.57560577   -7.7949109    803.59664  0.016047541  0.014991806            8 
 4174000   0.59885621   -7.8171443    802.99659  0.016031716  0.014987093            5 
 4175000   0.58471813   -7.8196756    802.75558  0.016023066  0.014982388           11 
 4176000   0.59189735   -7.8273718      802.261  0.016009359  0.014977682            6 
 4177000    0.5773665   -7.8086511    802.69462  0.016014177   0.01497297            5 
 4178000   0.58275958   -7.8153597    802.35367  0.016003544  0.014968261           13 
 4179000   0.58136779    -7.813757    802.61785  0.016004982  0.014963551           11 
 4180000   0.58690729   -7.8110957    803.23737  0.016013504  0.014958848            4 
 4181000   0.57145069   -7.8044007    802.32938  0.015991577  0.014954144            6 
 4182000   0.58812041   -7.8047358    802.48642  0.015990882  0.014949441            6 
 4183000   0.58869687   -7.8290959    804.42831  0.016025745  0.014944737            8 
 4184000    0.5887011   -7.7972329    803.62281  0.016005872   0.01494003           11 
 4185000   0.58282871   -7.8331187    803.45234  0.015998653  0.014935332            9 
 4186000   0.58158719   -7.8192048    803.48601  0.015995501  0.014930625            8 
 4187000   0.58313348    -7.824842    802.50983  0.015972252  0.014925923           24 
 4188000   0.57690228   -7.7935976    802.56769  0.015969589  0.014921222           15 
 4189000   0.57323166   -7.8474019    803.03102  0.015974994  0.014916523            9 
 4190000   0.58711426   -7.8185064    803.36174  0.015977759  0.014911826            7 
 4191000   0.58944286    -7.829307    801.83082  0.015943506  0.014907129           10 
 4192000   0.58141595   -7.8202759    803.25594  0.015968033  0.014902425            9 
 4193000   0.57065003   -7.8108459    803.67428  0.015972539  0.014897731           13 
 4194000    0.5750151   -7.8177515    803.63195   0.01596789  0.014893042            5 
 4195000    0.5862135   -7.8339949    803.08643  0.015953246  0.014888348           13 
 4196000   0.57921165   -7.8293722    804.10272  0.015969628  0.014883655           12 
 4197000   0.56608023   -7.8136445    801.12135  0.015906627  0.014878959           14 
 4198000   0.57841903   -7.8387038    802.68235  0.015933825  0.014874264            7 
 4199000   0.57920426    -7.845502    803.27439   0.01594178  0.014869576            8 
 4200000   0.57530776   -7.8350481    802.95191  0.015931586   0.01486489            8 
 4201000   0.57385888   -7.8316783    801.99403  0.015908792  0.014860203           15 
 4202000   0.59817819   -7.8255833    803.02266  0.015925406  0.014855527            8 
 4203000   0.58007495   -7.8285883    803.06385  0.015922433  0.014850842           19 
 4204000   0.58498434   -7.8108611    802.14036   0.01590034  0.014846163           19 
 4205000   0.58191125   -7.8230745    803.16295  0.015916824  0.014841481           18 
 4206000   0.56278264    -7.820007    803.47098  0.015919143  0.014836803           12 
 4207000    0.5866178   -7.8276026    802.48193  0.015895768   0.01483212            8 
 4208000   0.57340069    -7.847508     802.6148  0.015894621  0.014827439            9 
 4209000   0.58023386   -7.8214529    801.56751   0.01587011  0.014822763           14 
 4210000   0.57357011   -7.8328589    803.56788  0.015905936  0.014818093           10 
 4211000   0.57176225   -7.8422609    802.63176  0.015883633  0.014813429            8 
 4212000   0.57012922      -7.8294     802.0571  0.015868493  0.014808762           13 
 4213000   0.56592929   -7.8145494    802.74343  0.015878302  0.014804102            9 
 4214000   0.57620739    -7.835473     803.4779  0.015889058  0.014799447           11 
 4215000   0.57069021   -7.8324575    803.75062   0.01589068  0.014794789           11 
 4216000   0.58716378   -7.8154895     802.0411  0.015853121  0.014790141            7 
 4217000   0.57992712   -7.8494172    801.98296  0.015848213  0.014785487           11 
 4218000   0.58793845   -7.8349437    803.87103  0.015881757  0.014780841           22 
 4219000   0.57502178   -7.8330141    802.91798  0.015859168  0.014776193           15 
 4220000   0.57730427   -7.8264968    804.06642  0.015878089  0.014771546           11 
 4221000   0.57169331   -7.8334884    803.72491  0.015867585  0.014766904           11 
 4222000    0.5797655   -7.8477223    802.65073  0.015842625  0.014762267           10 
 4223000   0.57272537   -7.8045595    803.01378  0.015846037  0.014757626           10 
 4224000   0.57391743   -7.8500407    802.80215  0.015838111   0.01475298           19 
 4225000   0.57828849   -7.8199581    803.04602  0.015839172  0.014748341           11 
 4226000   0.57834276   -7.8359851     802.8508  0.015831574  0.014743703           13 
 4227000   0.56861714     -7.82388    801.89227  0.015808932  0.014739063            9 
 4228000    0.5739227   -7.8305378    802.85975  0.015824262  0.014734428           12 
 4229000   0.57900495    -7.810181     803.0867  0.015824992  0.014729798           30 
 4230000   0.58554421    -7.846631     804.2778  0.015844716  0.014725168            9 
 4231000   0.56940484   -7.8201405    802.57516  0.015807436  0.014720539           15 
 4232000   0.57395319    -7.826149     802.3517  0.015799301  0.014715915           14 
 4233000    0.5704116   -7.8378289     802.5397   0.01579927  0.014711284           14 
 4234000   0.57171939   -7.8416849    803.58248  0.015816062  0.014706663           11 
 4235000   0.55742911   -7.8508683    803.66515  0.015813954  0.014702044           11 
 4236000    0.5688403   -7.8266842    803.16231  0.015800329  0.014697419            8 
 4237000     0.582595   -7.8508973      802.325  0.015780131  0.014692806           11 
 4238000   0.58292291   -7.8291311    802.46442  0.015779149  0.014688186           10 
 4239000   0.57847362   -7.8302547    802.12088  0.015768673  0.014683569           10 
 4240000   0.57312329   -7.8451714    803.69759  0.015795943  0.014678957           10 
 4241000   0.56799526   -7.8199787      803.544  0.015789201  0.014674341            5 
 4242000   0.55851696   -7.8413556    803.17831  0.015778295   0.01466973           12 
 4243000   0.57667567   -7.8441958    803.25613  0.015776104  0.014665117            9 
 4244000   0.57628667   -7.8292958    803.32328  0.015773706  0.014660504           19 
 4245000   0.58201019   -7.8492215    803.55885  0.015774614  0.014655899            9 
 4246000   0.58201105   -7.8375213    803.19108  0.015763681  0.014651287           11 
 4247000   0.57914225   -7.8410573    802.66518   0.01574965   0.01464668           12 
 4248000   0.59085251   -7.8660524    802.23637  0.015737531  0.014642073           11 
 4249000   0.57497278   -7.8472047    802.79551  0.015744793  0.014637461           17 
 4250000   0.55570375   -7.8461051    801.47446  0.015715186  0.014632852           22 
 4251000   0.57853364   -7.8379165     802.5121   0.01573183  0.014628243           12 
 4252000   0.55515497   -7.8238634     802.8454  0.015734662  0.014623637            8 
 4253000   0.57067485   -7.8513176    802.11929  0.015716735  0.014619034           15 
 4254000   0.58389351   -7.8235299    801.97613  0.015710236  0.014614435           13 
 4255000   0.57124025   -7.8449409    803.25049  0.015731502  0.014609834           12 
 4256000   0.57418301   -7.8488059    802.54958  0.015714082  0.014605236           23 
 4257000   0.57097204   -7.8449784     803.7471  0.015733833  0.014600634           15 
 4258000   0.56672796   -7.8494406    801.26974  0.015681653  0.014596037           19 
 4259000   0.56439974   -7.8316906     801.6364  0.015685145  0.014591436           17 
 4260000   0.57818014   -7.8518984    802.72893  0.015702835   0.01458683           18 
 4261000   0.55809631   -7.8528667    803.08827  0.015706178  0.014582232           12 
 4262000    0.5533045   -7.8538674    803.30188  0.015706669  0.014577632           11 
 4263000   0.56638146   -7.8412877    801.20197  0.015661935  0.014573034           16 
 4264000   0.57016222    -7.834502     801.3102  0.015660378  0.014568442           21 
 4265000   0.56465441   -7.8292222    802.18039  0.015673708  0.014563843           19 
 4266000   0.55798519   -7.8409256     799.9269  0.015626014  0.014559245           22 
 4267000   0.56375107   -7.8363888    802.46147  0.015671851  0.014554647           25 
 4268000   0.55673802   -7.8399625    802.33609  0.015665731  0.014550054           15 
 4269000   0.56337342   -7.8611007    802.21487  0.015659695  0.014545469           23 
 4270000   0.56706638   -7.8564759    802.25834  0.015656876  0.014540885           16 
 4271000    0.5646415   -7.8611499    803.24595   0.01567248  0.014536297           14 
 4272000    0.5605287   -7.8502875    802.23533  0.015649098   0.01453171           13 
 4273000   0.56406342   -7.8366225    802.04018  0.015641629  0.014527128           16 
 4274000   0.56764366   -7.8530729    802.17465  0.015640591  0.014522537           27 
 4275000    0.5742018    -7.860938    801.66798  0.015627056  0.014517947           21 
 4276000   0.54890148   -7.8410843    803.01513  0.015649656  0.014513362           12 
 4277000   0.56933027   -7.8717092    802.30667  0.015632193  0.014508768           16 
 4278000   0.56472801   -7.8776394    801.38423   0.01561057  0.014504182           17 
 4279000   0.55363618   -7.8391338    802.45478  0.015627771  0.014499594           19 
 4280000   0.57329976   -7.8600818    801.16243  0.015598957  0.014495004           20 
 4281000   0.57541385   -7.8537029    802.83847  0.015627939  0.014490421           22 
 4282000   0.55970137   -7.8700215    801.17613  0.015591938  0.014485838           16 
 4283000   0.55354161   -7.8318643    801.64609  0.015597441  0.014481255           21 
 4284000   0.56679636   -7.8678244    803.73548  0.015634444  0.014476678           20 
 4285000   0.56013527   -7.8601808    801.89449  0.015594992  0.014472095           25 
 4286000   0.56519453   -7.8620933    801.64244  0.015586453  0.014467515           20 
 4287000   0.56906954   -7.8458216    801.43655  0.015578815  0.014462935           30 
 4288000   0.54665508   -7.8421622    802.77677  0.015601228  0.014458357           33 
 4289000   0.57529079   -7.8533351    802.36513  0.015589592  0.014453779           22 
 4290000    0.5585076   -7.8706336    800.70125  0.015553637  0.014449202           11 
 4291000   0.58122091   -7.8714489    801.25541  0.015560775   0.01444462           28 
 4292000   0.57142236   -7.8518746    800.16677  0.015536012  0.014440047           20 
 4293000   0.57343615    -7.875129    801.50036   0.01555828  0.014435472           13 
 4294000   0.56254858   -7.8887244    800.66666  0.015538477  0.014430893           16 
 4295000   0.55757806   -7.8538049    802.78814  0.015576021  0.014426315           17 
 4296000    0.5812091   -7.8787282    801.52122   0.01554782  0.014421739           15 
 4297000    0.5672038   -7.8951624    801.30054  0.015539922  0.014417163           13 
 4298000   0.56165632   -7.8499992    801.92465  0.015548407  0.014412593           20 
 4299000   0.56508972    -7.864781    800.42129  0.015515649  0.014408016           32 
 4300000   0.56079619   -7.8752526    802.22595  0.015547014  0.014403438           16 
 4301000   0.55475971    -7.882473    800.21419  0.015504421  0.014398867           17 
 4302000   0.56612485   -7.8802732    799.09056  0.015479052  0.014394299           18 
 4303000    0.5533285    -7.877543    801.45651  0.015521274  0.014389733           14 
 4304000   0.55997792   -7.8746384    801.93935  0.015527017  0.014385174           26 
 4305000   0.56239235   -7.8635933     799.5832  0.015477801  0.014380614           16 
 4306000    0.5585089   -7.8550573    800.56339  0.015493176  0.014376058           21 
 4307000   0.55506156    -7.879015     801.9683  0.015516762  0.014371499           20 
 4308000   0.57182268   -7.8710375    800.89628  0.015492423  0.014366939           17 
 4309000    0.5624363   -7.8654638    800.77704  0.015486521  0.014362382           20 
 4310000   0.55764762   -7.8741123    800.05229  0.015468915  0.014357823           19 
 4311000   0.55318484    -7.890673    801.89684  0.015500983  0.014353271           23 
 4312000   0.57484994   -7.8737767    800.53153  0.015471002  0.014348713           14 
 4313000   0.55835682   -7.8744953    801.46664  0.015485483  0.014344158           22 
 4314000   0.55565908     -7.86738    801.09532   0.01547472  0.014339603           29 
 4315000   0.55632158   -7.8509574    800.85933  0.015466576  0.014335059           31 
 4316000   0.55415453   -7.8683033    801.56123  0.015476545  0.014330512           15 
 4317000   0.56622323    -7.875758    800.39829  0.015450511  0.014325974           26 
 4318000   0.55834411   -7.8681589    801.12539  0.015460966  0.014321439           15 
 4319000   0.55932948   -7.8642052     801.7264  0.015468982  0.014316902           19 
 4320000   0.55965898   -7.8482288    801.22558   0.01545574  0.014312364           21 
 4321000   0.56110967   -7.8886582    800.76382  0.015443258  0.014307831           21 
 4322000   0.55101834   -7.8677212    801.71794  0.015458082  0.014303294           14 
 4323000   0.55500941   -7.8709776    802.48747   0.01546934  0.014298763           21 
 4324000   0.56735814   -7.8638485    801.89454  0.015454335  0.014294231           27 
 4325000   0.55668636   -7.8739581    800.88528  0.015431316  0.014289699           38 
 4326000   0.56481693   -7.8850481    800.36251  0.015417678  0.014285167           22 
 4327000   0.57694802   -7.8683292     799.9191  0.015405575   0.01428064           32 
 4328000   0.55198572   -7.8613955    801.45825  0.015431651  0.014276121           21 
 4329000   0.57413598   -7.8777707    800.82226  0.015415844    0.0142716           35 
 4330000   0.56451751   -7.8722739    800.51856  0.015406439  0.014267075           24 
 4331000   0.54890341   -7.8636138     801.2194  0.015416366  0.014262553           22 
 4332000    0.5585664   -7.8799877    801.05759  0.015409695  0.014258032           30 
 4333000   0.54226717    -7.865755    800.10745  0.015387865   0.01425351           31 
 4334000   0.55002337    -7.874987    801.31951   0.01540762  0.014248998           23 
 4335000    0.5625557    -7.858498    801.40271  0.015405665  0.014244486           25 
 4336000    0.5576731   -7.8932199    799.51429  0.015365819   0.01423997           21 
 4337000   0.54524902   -7.8743237    800.35954  0.015378517  0.014235456           24 
 4338000   0.57030754   -7.8838468     802.3609  0.015413418  0.014230947           21 
 4339000   0.56388799     -7.88717    801.78771  0.015398857   0.01422644           16 
 4340000   0.56446149   -7.8790703    801.63164  0.015392313   0.01422194           12 
 4341000   0.55094096   -7.8783427    800.50999  0.015367235   0.01421744           31 
 4342000   0.55004972   -7.8761824    800.47432  0.015363011  0.014212937           29 
 4343000   0.57108036   -7.8838781    800.58196  0.015361539  0.014208437           21 
 4344000   0.55940364   -7.8897793    799.61094  0.015339375  0.014203932           22 
 4345000   0.55449794   -7.9007787    800.92149   0.01536098  0.014199426           20 
 4346000   0.55489381   -7.8957141     801.1406  0.015361647  0.014194925           31 
 4347000   0.55959865   -7.8772289    800.44981   0.01534487  0.014190426           24 
 4348000   0.54305768   -7.9023254    800.55221  0.015343304  0.014185931           35 
 4349000   0.56252558   -7.8675951    799.92373  0.015327733  0.014181433           19 
 4350000   0.54280441   -7.8769168    800.95218  0.015343912  0.014176936           27 
 4351000   0.55002095   -7.8728263    801.01042    0.0153415  0.014172443           26 
 4352000   0.56321591   -7.8979615    799.87724  0.015316277  0.014167949           21 
 4353000   0.55475097   -7.8905499     800.7224  0.015328938  0.014163459           13 
 4354000   0.55941124   -7.8772678    800.48049  0.015320787  0.014158974           15 
 4355000   0.54698904   -7.8861365    800.96507  0.015326542  0.014154484           22 
 4356000   0.56507175   -7.8816161    801.27863  0.015329022  0.014150002           20 
 4357000   0.55737008   -7.8899153    800.62268  0.015312958  0.014145513           20 
 4358000   0.55384097   -7.8970861     800.9456  0.015315619  0.014141033           28 
 4359000   0.55309135     -7.86627    800.27444  0.015299274  0.014136552           47 
 4360000     0.553346   -7.8806527    799.59246  0.015282731   0.01413207           32 
 4361000   0.56032116   -7.8950531    801.05994  0.015307268  0.014127594           25 
 4362000   0.55784354   -7.8918362    800.26607  0.015288592  0.014123118           23 
 4363000   0.55534283   -7.8672343    799.97886  0.015279602  0.014118646           16 
 4364000     0.539333   -7.8771078    800.21508  0.015280612  0.014114171           28 
 4365000   0.56128681   -7.8970165    800.30184  0.015278767  0.014109696           19 
 4366000   0.55549791   -7.8935711     799.8526  0.015266693   0.01410522           35 
 4367000    0.5407588   -7.8793816    801.36197     0.015292  0.014100753           28 
 4368000   0.56110382    -7.880579    800.58212  0.015273621   0.01409628           20 
 4369000   0.55454207   -7.8943205    798.98772  0.015239714  0.014091814           19 
 4370000   0.55732962   -7.9002877    802.07425  0.015295085  0.014087351           17 
 4371000   0.55632864   -7.8947609    799.59029  0.015244229   0.01408289           21 
 4372000   0.55517325   -7.8947777    800.78209  0.015263459  0.014078432           17 
 4373000   0.55221545   -7.9126959    800.19151  0.015248714  0.014073968           16 
 4374000   0.55705346   -7.8905014    799.63147  0.015234558  0.014069505           15 
 4375000   0.55636177   -7.9077418    800.63902  0.015250267   0.01406505           14 
 4376000   0.55462048   -7.8826465    800.67754  0.015247516  0.014060593           14 
 4377000   0.54000706   -7.8901481     801.5395  0.015260443  0.014056138           17 
 4378000   0.54825879    -7.894228    799.99724  0.015227601  0.014051688           14 
 4379000   0.56178929   -7.8927037    801.03254  0.015243825  0.014047233           21 
 4380000   0.55552946   -7.9107004     800.5148  0.015230495  0.014042786           16 
 4381000   0.55376252   -7.8862035     800.4526  0.015225835  0.014038343           17 
 4382000   0.54841658   -7.8865737    802.41473  0.015259675    0.0140339           24 
 4383000   0.55262967   -7.8980738    800.72269  0.015224023  0.014029457           14 
 4384000   0.54908981   -7.8817545     801.1558  0.015228783  0.014025015           22 
 4385000   0.56120094   -7.8978348     800.6474  0.015215648  0.014020568           16 
 4386000   0.54650379   -7.8935422    799.98749  0.015199641  0.014016129           20 
 4387000   0.53671101   -7.8882285     799.7115  0.015190933   0.01401169           27 
 4388000   0.54092803   -7.8871806    800.53963  0.015203199  0.014007255           17 
 4389000   0.54974863   -7.9073087     800.7587  0.015203894  0.014002821           21 
 4390000   0.54049697   -7.8914724    800.60701  0.015197551  0.013998385           24 
 4391000   0.56034502    -7.901149    800.34906  0.015189195   0.01399395           18 
 4392000   0.56374378   -7.8829618    800.90287  0.015196244  0.013989522           28 
 4393000   0.54421166   -7.8922775    799.93082  0.015174346  0.013985094           21 
 4394000   0.54278901   -7.8884179    800.94368  0.015190102  0.013980665           27 
 4395000   0.54927163   -7.9081116     800.0904  0.015170466  0.013976247           21 
 4396000   0.55113921   -7.8906035    800.42912  0.015173436   0.01397182           15 
 4397000   0.53635951    -7.911022    800.06054     0.015163  0.013967397           21 
 4398000   0.53604568    -7.909012    800.64656  0.015170656  0.013962975           29 
 4399000   0.55804583    -7.884912    800.51098  0.015164639  0.013958551           24 
 4400000   0.55643682   -7.8907822    799.39264  0.015140012  0.013954132           24 
 4401000   0.56000332   -7.9021272    799.66605  0.015141749  0.013949717           25 
 4402000   0.53715292   -7.9108636    801.52987  0.015173593  0.013945299           27 
 4403000   0.54427613   -7.8913007    799.84819  0.015138318  0.013940883           22 
 4404000   0.54434301   -7.9085282    800.49433  0.015147107   0.01393647           21 
 4405000   0.55200623   -7.9152805    800.79864  0.015149426  0.013932054           27 
 4406000   0.54259162   -7.9138213    799.62916  0.015123868  0.013927633           19 
 4407000      0.54441   -7.9014162     800.6937  0.015140566  0.013923218           30 
 4408000   0.55196348   -7.9066534    799.64851  0.015117372  0.013918806           33 
 4409000   0.54125834   -7.8873208    799.34839  0.015108271  0.013914395           15 
 4410000   0.54160243   -7.9079634    801.10467  0.015138032  0.013909986           28 
 4411000    0.5479647   -7.8918377    799.92329  0.015112282  0.013905578           19 
 4412000   0.54781037   -7.8882433    800.57705  0.015121204  0.013901178           19 
 4413000   0.55529397   -7.9147411    799.65396  0.015100347  0.013896777           25 
 4414000   0.53757595   -7.8801499    800.77672  0.015118123  0.013892376           34 
 4415000   0.54264096   -7.8943073    799.84818  0.015097172  0.013887975           19 
 4416000   0.53937396   -7.9039339    799.84718  0.015093735  0.013883574           17 
 4417000   0.55545713   -7.9042953    800.98882  0.015111856  0.013879172           22 
 4418000   0.54343443   -7.8980446     799.4226  0.015078893  0.013874778           18 
 4419000   0.53858816   -7.8956751    799.77965  0.015082214  0.013870385           20 
 4420000   0.55061927   -7.8972059    799.87085  0.015080521  0.013865997           23 
 4421000   0.54620604   -7.9048917    800.51324  0.015089219  0.013861609           17 
 4422000   0.54736616   -7.8775607    800.23536   0.01508057  0.013857222           18 
 4423000   0.55672779   -7.8943857    800.23087  0.015077076  0.013852834           19 
 4424000   0.54389558   -7.8996274     800.0974  0.015071154  0.013848445           16 
 4425000   0.54777255   -7.8997902     799.8035  0.015062213  0.013844053           12 
 4426000   0.54236908   -7.9099355    800.09318  0.015064264  0.013839668           17 
 4427000    0.5487847   -7.8821736    800.06377  0.015060307  0.013835291           17 
 4428000   0.55124624   -7.9074586    800.73812  0.015069597  0.013830913           18 
 4429000   0.54320639   -7.9182971    799.69049  0.015046483  0.013826533           21 
 4430000   0.54005126   -7.9128115    799.52634  0.015039999  0.013822154           16 
 4431000   0.53292273   -7.8983095    799.78954  0.015041555  0.013817773           19 
 4432000   0.54555502   -7.9087895    800.47976  0.015051139  0.013813399           12 
 4433000   0.54934503   -7.8929511    800.54342   0.01504894  0.013809029           22 
 4434000   0.53969425   -7.9095582     800.0918  0.015037058  0.013804658           16 
 4435000   0.53710391   -7.9054905    800.35737  0.015038658   0.01380029           18 
 4436000   0.55294405    -7.904938     801.3955   0.01505477  0.013795924           12 
 4437000   0.53119469    -7.892329    799.38347  0.015013588  0.013791564           13 
 4438000    0.5414457    -7.905078    800.71545  0.015035216    0.0137872           18 
 4439000   0.54687139   -7.9179064    799.90896  0.015016688  0.013782839           17 
 4440000    0.5366677   -7.8953349    800.28208  0.015020309  0.013778484           17 
 4441000   0.53317019   -7.9041298    801.56572  0.015041014  0.013774126           16 
 4442000   0.54011788    -7.902685    799.82925  0.015005051  0.013769774           10 
 4443000    0.5301865   -7.9094168    801.92544   0.01504099  0.013765419           19 
 4444000   0.54547982   -7.9102989    800.19625   0.01500518  0.013761064           22 
 4445000   0.53727048    -7.894916     799.9853   0.01499785  0.013756711           17 
 4446000     0.549578   -7.8933428    799.19035  0.014979576  0.013752358           13 
 4447000    0.5426874   -7.9059067    800.35089  0.014997955  0.013748008           11 
 4448000   0.53947072   -7.9035589    800.35853  0.014994727  0.013743659           13 
 4449000   0.54340325   -7.9069945    799.47167  0.014974745  0.013739305           17 
 4450000   0.54039993   -7.9011214    800.10956  0.014983325   0.01373496           13 
 4451000   0.53676829   -7.8888224    798.80045  0.014955449  0.013730616           24 
 4452000   0.54852048   -7.9051917    798.99767  0.014955782   0.01372627           18 
 4453000   0.54473573   -7.9142037    800.73531  0.014984941  0.013721928           10 
 4454000    0.5350002   -7.9007148    800.38192  0.014974965   0.01371759           14 
 4455000   0.53459567   -7.9096537    799.51171  0.014955326  0.013713254           15 
 4456000   0.53162472   -7.8890582    799.29369  0.014947892  0.013708913           17 
 4457000   0.54448754   -7.9087839    800.93878  0.014975297  0.013704581           20 
 4458000   0.55251984   -7.9373968    800.52781  0.014964255  0.013700246           18 
 4459000   0.52916281   -7.9151221    799.18365  0.014935779  0.013695909           16 
 4460000    0.5405637   -7.9256093    799.02222  0.014929414  0.013691574           14 
 4461000    0.5467775   -7.8976246    798.45069  0.014915391  0.013687237           17 
 4462000   0.55470931   -7.9125284    799.23514  0.014926698  0.013682907           16 
 4463000    0.5446456   -7.9025594    798.45292  0.014908748  0.013678574            9 
 4464000    0.5315696   -7.9047779    799.69256   0.01492855   0.01367424           17 
 4465000   0.54390873   -7.8846277    799.86983  0.014928515  0.013669911           16 
 4466000   0.53130074   -7.9086454    798.19021  0.014893831  0.013665582           23 
 4467000   0.52958024   -7.9181271    800.09082  0.014925954  0.013661259           14 
 4468000   0.55047128    -7.891553    800.19779  0.014924608  0.013656936           12 
 4469000    0.5523721   -7.9271694    799.78694  0.014913607  0.013652615           24 
 4470000   0.53826754   -7.9171157    798.75001   0.01489094  0.013648285           12 
 4471000   0.53236888   -7.9151297    799.13588  0.014894801  0.013643968           23 
 4472000   0.53466908   -7.9239524    799.22699  0.014893168  0.013639645           22 
 4473000   0.54110311   -7.9185165    800.26639  0.014909203  0.013635322           14 
 4474000   0.53746559   -7.9155648    799.34521  0.014888713  0.013631006           21 
 4475000    0.5402875   -7.9246457    798.15273  0.014863179  0.013626694           17 
 4476000   0.53584456    -7.921371    799.31067  0.014881417  0.013622377           28 
 4477000   0.52855819   -7.9019108    799.46592  0.014880983  0.013618059           26 
 4478000   0.52779567    -7.918609    800.99239  0.014906067  0.013613749           21 
 4479000   0.52583884   -7.9206895    799.08407  0.014867234  0.013609431           14 
 4480000   0.53502109   -7.9083693    798.52763  0.014853564  0.013605119           25 
 4481000   0.54576675   -7.9011464    798.44868  0.014848781  0.013600806           15 
 4482000   0.53703202   -7.9196653    798.90744  0.014853998  0.013596497           31 
 4483000   0.54225392    -7.916424    799.59175  0.014863405  0.013592187           19 
 4484000    0.5296416   -7.9139585    800.46056  0.014876237  0.013587877           16 
 4485000     0.530737   -7.9127086    799.93542  0.014863163  0.013583572           25 
 4486000   0.53617355   -7.9075503     798.4046  0.014831413  0.013579268           22 
 4487000   0.52890398   -7.9083061    797.79156  0.014816722  0.013574959           27 
 4488000   0.52227378   -7.9215647    798.67629  0.014829848  0.013570653           18 
 4489000   0.52295882   -7.9074066     798.9065  0.014830818  0.013566349           28 
 4490000   0.52972389    -7.925977    800.95511  0.014865537  0.013562048           15 
 4491000   0.52768084   -7.9271536    798.66366  0.014819707  0.013557748           31 
 4492000   0.52253587   -7.9120415    798.40721  0.014811651  0.013553445           59 
 4493000   0.54251786   -7.9142914    798.41562   0.01480851  0.013549144           21 
 4494000   0.52658364   -7.9352481    798.58227  0.014808305  0.013544844           19 
 4495000   0.52966944   -7.9204128    799.71243  0.014825963  0.013540543           23 
 4496000   0.53345001   -7.9281341    797.85092  0.014788162  0.013536247           29 
 4497000   0.54731737   -7.9322351    800.34917  0.014831168   0.01353195           41 
 4498000   0.52334963    -7.926893    800.10871  0.014823416  0.013527648           20 
 4499000   0.53928016   -7.9244459    798.30324  0.014786679  0.013523352           15 
 4500000    0.5269838   -7.9241653    797.93456  0.014776566  0.013519053           28 
 4501000   0.54291559   -7.9262546    798.03324   0.01477511  0.013514769           33 
 4502000   0.53724126   -7.9245229    797.87196  0.014768843  0.013510482           19 
 4503000   0.53589761   -7.9180483    798.91023  0.014784777  0.013506198           21 
 4504000   0.53221937   -7.9067714    798.65721  0.014776813  0.013501912           19 
 4505000   0.52255251   -7.9363815    798.74994  0.014775249  0.013497634           30 
 4506000   0.53666297   -7.9258792    799.50109  0.014785861  0.013493353           19 
 4507000   0.53791889   -7.9204011     800.2242  0.014795951  0.013489074           25 
 4508000   0.52582019   -7.9037979    799.62176  0.014781532  0.013484798           31 
 4509000   0.53344014    -7.954221    799.93583  0.014784058  0.013480521           39 
 4510000   0.52956468   -7.9242894    798.61141  0.014756308  0.013476244           31 
 4511000   0.53927338   -7.9182916    799.18627  0.014763657  0.013471969           39 
 4512000   0.53216098   -7.9290982    800.06899  0.014776688  0.013467696           35 
 4513000   0.52887275   -7.9304306    797.97483  0.014734745  0.013463426           28 
 4514000   0.52471518   -7.9330607    798.24436  0.014736456  0.013459159           32 
 4515000   0.53385458    -7.912041     797.2883  0.014715546  0.013454884           30 
 4516000   0.53338709   -7.9324875    799.63694  0.014755627  0.013450613           28 
 4517000   0.53763037   -7.9179183    798.83297  0.014737528  0.013446345           31 
 4518000   0.52651493   -7.9218122    798.73805  0.014732515  0.013442077           27 
 4519000   0.52172611    -7.909629    799.00472  0.014734173  0.013437813           31 
 4520000   0.53534335   -7.9134228    797.00364   0.01469402  0.013433547           26 
 4521000    0.5254839   -7.9277942    798.30131  0.014714689  0.013429282           29 
 4522000    0.5244821    -7.942376    797.61562  0.014698799  0.013425019           25 
 4523000   0.52472519   -7.9260798    797.94915  0.014701694  0.013420759           16 
 4524000   0.52439682   -7.9336571    796.55555  0.014672774    0.0134165           29 
 4525000   0.53488487     -7.92917    798.02206  0.014696539  0.013412241           24 
 4526000    0.5329042   -7.9316911    798.38741  0.014700019  0.013407989           24 
 4527000    0.5268946   -7.9166623    798.07101  0.014690947   0.01340374           25 
 4528000   0.53505268   -7.9185668    798.42691  0.014694253  0.013399485           20 
 4529000   0.52897066   -7.9291715    796.78421  0.014660783  0.013395234           22 
 4530000   0.52815716   -7.9341354    799.18218  0.014701659  0.013390986           28 
 4531000   0.52759708   -7.9271136     797.4953   0.01466739  0.013386741           20 
 4532000   0.51735775   -7.9429595    798.87851  0.014689587  0.013382495           23 
 4533000   0.52558885   -7.9253427    798.41525   0.01467783  0.013378249           22 
 4534000   0.52377345   -7.9224495    798.79249  0.014681526  0.013374003           29 
 4535000   0.51342364   -7.9268864    798.12892  0.014666096  0.013369761           21 
 4536000   0.52255307    -7.929675    798.34869    0.0146669  0.013365525           17 
 4537000    0.5318709   -7.9238266    799.06553  0.014676834  0.013361287           28 
 4538000   0.52298429   -7.9228365    797.85305  0.014651334  0.013357052           32 
 4539000   0.51067704   -7.9338258    797.44434  0.014640603  0.013352817           30 
 4540000   0.52892147   -7.9446597      799.029  0.014666465  0.013348583           29 
 4541000   0.51492854   -7.9344099    798.53597  0.014654187  0.013344355           21 
 4542000   0.52239988   -7.9336204    799.14463  0.014662128  0.013340126           24 
 4543000   0.53532199   -7.9329171    798.42143  0.014645635  0.013335897           28 
 4544000    0.5320889   -7.9471037    798.34375  0.014640987  0.013331674           26 
 4545000   0.51246164   -7.9265801    798.91426  0.014648226  0.013327446           24 
 4546000   0.51447102   -7.9476166    797.93361  0.014627028   0.01332322           16 
 4547000   0.52687951   -7.9212797    798.66399  0.014637196  0.013318997           24 
 4548000   0.52694592    -7.933693    798.78003  0.014636104   0.01331478           23 
 4549000   0.52438642   -7.9380593    799.11906  0.014639098  0.013310562           24 
 4550000   0.50385091   -7.9414415    797.89301  0.014613425  0.013306344           22 
 4551000   0.51936263   -7.9206657    797.50102  0.014603036  0.013302121           31 
 4552000   0.52419026   -7.9438808    798.04785  0.014609839  0.013297906           27 
 4553000   0.51869104   -7.9310409    796.90686  0.014585747  0.013293687           27 
 4554000   0.52052625   -7.9314005     798.4175  0.014610187  0.013289471           25 
 4555000   0.52598138   -7.9178295    797.61448  0.014592288  0.013285262           24 
 4556000   0.51105804   -7.9485193    797.30655  0.014583453  0.013281051           31 
 4557000    0.5199046   -7.9426134    798.13534  0.014595409   0.01327684           24 
 4558000   0.53545995   -7.9308115    798.96806  0.014607431  0.013272635           34 
 4559000   0.52775013   -7.9159114    797.86998  0.014584155   0.01326843           36 
 4560000   0.53088569   -7.9481813    798.44428  0.014591453  0.013264226           27 
 4561000   0.52362671   -7.9319186    798.02009  0.014580503  0.013260023           25 
 4562000   0.52139463   -7.9683835    798.29338  0.014582299  0.013255821           18 
 4563000   0.52237952   -7.9390911    798.46999  0.014582329   0.01325162           35 
 4564000   0.52276498    -7.942906    797.89529   0.01456864  0.013247417           13 
 4565000   0.51661773   -7.9332205     797.3271  0.014555077  0.013243217           15 
 4566000    0.5146391   -7.9443299    798.71743  0.014577264  0.013239017           20 
 4567000   0.51833839   -7.9563669    796.16781  0.014527549  0.013234814           28 
 4568000   0.52513133   -7.9579762    797.42358  0.014547278  0.013230614           39 
 4569000   0.51984438   -7.9482462    798.83744  0.014569881  0.013226422           23 
 4570000   0.52444131   -7.9258753    797.59753  0.014544083  0.013222228           33 
 4571000   0.52319958   -7.9440805    796.90805  0.014528332  0.013218032           18 
 4572000   0.51857208   -7.9451579    797.43857  0.014534824  0.013213842           31 
 4573000   0.52136651   -7.9229404    798.45363  0.014550143  0.013209655           29 
 4574000   0.51173801   -7.9447571    798.94986  0.014556002  0.013205465           24 
 4575000   0.52194978   -7.9399636    795.55191  0.014490927  0.013201278           34 
 4576000   0.51692461   -7.9482518     798.4961  0.014541377  0.013197091           23 
 4577000   0.52492362   -7.9450124     796.3689   0.01449947  0.013192908           19 
 4578000   0.52399966   -7.9497755    797.63043  0.014519267  0.013188728           27 
 4579000   0.53153368   -7.9536445    798.37222  0.014529596  0.013184548           24 
 4580000   0.52066802   -7.9536974    796.07163  0.014484564   0.01318037           19 
 4581000   0.52694427   -7.9571255    797.24351   0.01450272  0.013176192           25 
 4582000   0.51313318   -7.9517733    797.97694  0.014512894  0.013172014           29 
 4583000   0.51801384   -7.9577014     797.0978  0.014493741  0.013167827           23 
 4584000   0.52110278   -7.9431958    797.44724  0.014496932  0.013163647           37 
 4585000   0.51954201   -7.9434658    797.95384  0.014502978  0.013159474           30 
 4586000   0.53154885   -7.9517471    798.33281  0.014506702  0.013155299           35 
 4587000   0.52111659   -7.9497042    796.49639  0.014470176  0.013151128           37 
 4588000   0.52895764   -7.9589111    796.75757  0.014471766  0.013146962           24 
 4589000   0.51227903   -7.9515532    797.07643  0.014474403  0.013142793           32 
 4590000   0.51792166   -7.9670578    797.11221  0.014471899  0.013138628           28 
 4591000   0.52051422    -7.956626     796.5549  0.014458631  0.013134464           25 
 4592000     0.516625   -7.9471587    797.07392  0.014464901  0.013130302           18 
 4593000   0.51796095   -7.9323555    798.14198   0.01448113   0.01312614           32 
 4594000   0.50962984   -7.9420433    796.89259  0.014455315  0.013121977           26 
 4595000   0.50331526   -7.9522783    797.74302  0.014467592  0.013117819           26 
 4596000    0.5138075   -7.9576984    797.15274  0.014453741  0.013113658           16 
 4597000   0.51822077    -7.966069     796.5836   0.01444028  0.013109499           21 
 4598000   0.51905434   -7.9557818    796.92373  0.014443304  0.013105342           21 
 4599000   0.52039166   -7.9551726    796.51353  0.014432731  0.013101183           22 
 4600000    0.5168364   -7.9707164    796.62386  0.014431592   0.01309703           31 
 4601000   0.50811706   -7.9541384    797.56049  0.014445419  0.013092878           34 
 4602000   0.52755858   -7.9522171    797.52781  0.014441689   0.01308873           22 
 4603000   0.51257773    -7.955155    798.83711  0.014462255  0.013084585           13 
 4604000   0.50923086   -7.9608714    797.21726  0.014429794  0.013080436           31 
 4605000   0.51058303    -7.961608     797.9964   0.01444076  0.013076289           25 
 4606000   0.50381898   -7.9663713    797.36484  0.014426198  0.013072145           27 
 4607000    0.5120714   -7.9539312    797.46495  0.014424878  0.013067998           26 
 4608000   0.51754353   -7.9582233    797.75349  0.014426966  0.013063855           36 
 4609000   0.51543457   -7.9565289    797.18776  0.014413607  0.013059716           33 
 4610000   0.51099308   -7.9800378    797.11383  0.014409144  0.013055579           29 
 4611000   0.50738825   -7.9509207    797.63918  0.014415513  0.013051437           44 
 4612000   0.51197288   -7.9554334    796.31535  0.014388468  0.013047302           24 
 4613000   0.52211224   -7.9601348    797.10621  0.014399635  0.013043168           20 
 4614000   0.52335819   -7.9467191    797.96955  0.014412107  0.013039034           31 
 4615000   0.51325578    -7.955748    796.63336  0.014384857  0.013034904           24 
 4616000   0.51772658   -7.9419553    796.42158  0.014377917  0.013030776           35 
 4617000    0.5054764   -7.9574061    797.52561   0.01439473   0.01302665           28 
 4618000   0.51045332   -7.9688613    797.27622  0.014387112   0.01302252           29 
 4619000   0.51792071   -7.9860314    797.67589  0.014391208  0.013018392           31 
 4620000   0.51692968   -7.9618274     797.6395  0.014387437   0.01301427           20 
 4621000   0.51777982   -7.9693508     797.9594  0.014390092   0.01301015           30 
 4622000     0.517137   -7.9521404    797.41057  0.014377084  0.013006034           31 
 4623000   0.51400439   -7.9551655    795.89397  0.014346636  0.013001916           37 
 4624000   0.50859493   -7.9693911    796.89652  0.014361601  0.012997801           36 
 4625000   0.51156479   -7.9706123    797.06006  0.014361443  0.012993688           30 
 4626000   0.50844327   -7.9581152     796.4504  0.014347355  0.012989572           29 
 4627000   0.51694848   -7.9621723     796.9465   0.01435319  0.012985459           30 
 4628000   0.51252408   -7.9545227    796.66922  0.014345095  0.012981343           33 
 4629000   0.52035538   -7.9607487    797.28015  0.014352995  0.012977233           54 
 4630000   0.50543869    -7.959939    797.26231  0.014349574  0.012973125           29 
 4631000   0.50152667   -7.9654573    797.45386  0.014349922  0.012969014           29 
 4632000   0.51096173   -7.9624811    797.88731  0.014354622  0.012964907           34 
 4633000     0.510791   -7.9596275    796.67741  0.014329761  0.012960806           30 
 4634000   0.51615619   -7.9658816    797.88289  0.014348347  0.012956702           32 
 4635000   0.50282517    -7.980886    799.42646  0.014373004  0.012952605           12 
 4636000   0.50568109   -7.9595237    795.90788  0.014306656  0.012948507           36 
 4637000   0.50783754   -7.9647167    796.53612  0.014314861   0.01294441           27 
 4638000   0.50480773   -7.9551252    795.85923  0.014299612  0.012940315           18 
 4639000   0.51682762   -7.9754877     796.5661  0.014309228  0.012936219           22 
 4640000   0.51772222   -7.9681611    797.09795  0.014315696  0.012932126           18 
 4641000   0.51799797   -7.9590743    796.30067  0.014298295  0.012928035           23 
 4642000   0.50642884    -7.979439    797.57621  0.014318114  0.012923943           29 
 4643000   0.49538662   -7.9742634    795.41312  0.014276206  0.012919853           21 
 4644000   0.50540711    -7.959351     796.5971  0.014294378   0.01291577           19 
 4645000   0.49955535   -7.9644835    795.39276  0.014269694  0.012911689           13 
 4646000   0.50111301   -7.9818021    797.13198  0.014297819  0.012907601           22 
 4647000   0.51617367   -7.9705021    797.06483  0.014293538  0.012903519           15 
 4648000   0.51239826   -7.9534342     795.7112  0.014266193  0.012899436           14 
 4649000   0.50722634   -7.9624506    795.60545  0.014261229  0.012895355           27 
 4650000    0.5008006   -7.9649273    797.84245  0.014298252  0.012891274           16 
 4651000   0.49909238   -7.9700303    795.60799  0.014255142  0.012887195           17 
 4652000   0.50888173   -7.9648134    798.40324   0.01430215  0.012883119           19 
 4653000    0.5086925   -7.9855815    796.51486  0.014265257  0.012879045           14 
 4654000   0.49817469   -7.9759599    796.50982  0.014262101  0.012874973           18 
 4655000   0.50934114   -7.9687352    796.02594  0.014250375    0.0128709           20 
 4656000   0.49867076   -7.9682013    797.57924  0.014275115   0.01286683           18 
 4657000   0.49729848   -7.9638937    797.19741  0.014265217   0.01286276           26 
 4658000   0.50093526   -7.9598634    798.19815  0.014280058  0.012858694           22 
 4659000   0.50399288   -7.9689549    796.76472  0.014251354  0.012854625           23 
 4660000   0.51112146   -7.9742726    795.71997  0.014229613   0.01285056           23 
 4661000   0.50869862   -7.9821444    796.68772  0.014243863  0.012846494           21 
 4662000   0.50408097   -7.9804581    795.68952  0.014222964  0.012842426           17 
 4663000   0.49322935   -7.9873796    797.50854  0.014252422  0.012838363           32 
 4664000   0.50396324   -7.9700285    796.75706  0.014235939  0.012834301           23 
 4665000   0.50557335    -7.979741    796.14362   0.01422193  0.012830242           18 
 4666000   0.50012103   -7.9892157    797.08315  0.014235661  0.012826186           17 
 4667000    0.5130619   -7.9750432    796.63195  0.014224555  0.012822128           18 
 4668000   0.50862454   -7.9799759    796.90912  0.014226455  0.012818069           20 
 4669000   0.51450103    -7.959085    796.05054  0.014208084  0.012814014           21 
 4670000   0.50234144   -7.9674349    796.58985  0.014214665  0.012809959           30 
 4671000   0.49803615   -7.9723199    795.15488  0.014186022  0.012805908           17 
 4672000   0.50197904   -7.9987045     796.1442  0.014200631  0.012801856           28 
 4673000   0.49570542   -7.9622514    795.46134  0.014185415  0.012797803           18 
 4674000    0.5021094   -7.9860651     795.7377  0.014187307  0.012793754           23 
 4675000   0.50495018   -7.9770152    796.45296  0.014197022  0.012789704           29 
 4676000   0.49662917   -7.9784055    797.12025  0.014205878   0.01278566           17 
 4677000   0.49961556    -7.979613    796.50551  0.014191888   0.01278162           19 
 4678000   0.50880092   -7.9653747    795.78463  0.014176012  0.012777577           14 
 4679000   0.50088829   -7.9745617    797.15098  0.014197318  0.012773539           20 
 4680000   0.50061245   -7.9899209    796.41123  0.014181112  0.012769502           21 
 4681000   0.49383327    -7.968634    795.89201  0.014168839  0.012765464           14 
 4682000    0.4990405    -7.975382    795.65331  0.014161564   0.01276143           20 
 4683000   0.50305613   -7.9866253     797.5045  0.014191482  0.012757399           19 
 4684000    0.5065494   -7.9889083    795.44609  0.014151831  0.012753364           18 
 4685000   0.50258367   -7.9703706    797.39274  0.014183436  0.012749336           16 
 4686000   0.51764137    -7.983255    796.35768  0.014162002  0.012745302           31 
 4687000   0.49470571   -7.9950251    796.06875  0.014153843  0.012741277           20 
 4688000   0.49453593   -7.9792965    796.57239  0.014159777   0.01273725           19 
 4689000   0.49184856   -7.9887386    796.76697  0.014160215  0.012733227           24 
 4690000   0.49260204   -7.9729711    795.94977  0.014142675  0.012729206           26 
 4691000   0.49701819    -7.969711    797.28734  0.014163422  0.012725181           20 
 4692000   0.51025452   -7.9735394    796.28019  0.014142515  0.012721161           13 
 4693000   0.50093321   -7.9828075    797.38471  0.014159115  0.012717144           15 
 4694000   0.50019856   -7.9809356    795.39237  0.014120728  0.012713125           22 
 4695000   0.50239075   -7.9856725    796.32213  0.014134223   0.01270911           23 
 4696000   0.49896385   -7.9896505    797.15898  0.014146064  0.012705096           24 
 4697000   0.50281918   -7.9724098    796.45712    0.0141306  0.012701082           31 
 4698000   0.50020313   -7.9999983    795.17767  0.014104897   0.01269707           29 
 4699000   0.50175201   -7.9874564    796.12667  0.014118725  0.012693057           21 
 4700000   0.50858518   -7.9796377    795.64139  0.014107117  0.012689046           21 
 4701000   0.50684559   -7.9836755    796.11158  0.014112451  0.012685037           24 
 4702000   0.49840494   -7.9849785    796.61704  0.014118408  0.012681031           10 
 4703000   0.49858474   -7.9927602    796.27367  0.014109322  0.012677026           28 
 4704000   0.50890838   -7.9942132    795.93441  0.014100312  0.012673023           31 
 4705000   0.49007648   -7.9978302     795.0162  0.014081052  0.012669017           29 
 4706000   0.50662432   -7.9947868    795.40507  0.014084946  0.012665012           23 
 4707000   0.50794929   -7.9848315    796.23056  0.014096568  0.012661009           23 
 4708000   0.49188702   -7.9747737    796.12233  0.014091658  0.012657013           30 
 4709000   0.50758236   -7.9949338    796.79526  0.014100575  0.012653017           31 
 4710000   0.50043901   -7.9924707    795.44351  0.014073664  0.012649019           29 
 4711000   0.49728363   -7.9892948    795.98693   0.01408029  0.012645021           28 
 4712000   0.50624274   -8.0031849    795.91318  0.014075997   0.01264103           20 
 4713000   0.50344718   -7.9925011    797.40162  0.014099329  0.012637032           24 
 4714000   0.50026813   -8.0024821    795.10493  0.014055737  0.012633036           21 
 4715000   0.49550224    -7.984787    795.34266  0.014056958  0.012629045           24 
 4716000   0.50416311   -7.9753702    796.70951   0.01407813  0.012625055           21 
 4717000   0.51138807   -7.9989555    796.41618  0.014069963  0.012621069           35 
 4718000   0.50283082   -7.9984762    795.55396  0.014051751  0.012617084           28 
 4719000   0.50055261   -7.9895782    795.73181  0.014051914  0.012613101           38 
 4720000    0.5058369   -7.9826283     796.3519  0.014059885  0.012609118           40 
 4721000   0.49214686    -7.986151    796.09402  0.014052355  0.012605134           33 
 4722000   0.50107194   -7.9866389    795.14752  0.014032675  0.012601154           31 
 4723000   0.48753237   -7.9882863    795.79681   0.01404116  0.012597174           31 
 4724000   0.49400911   -7.9937147    796.42105    0.0140492  0.012593197           24 
 4725000   0.48156547   -7.9921982    795.17611   0.01402427  0.012589221           32 
 4726000   0.49930066    -7.988034     795.4068   0.01402537  0.012585243           31 
 4727000    0.4846948   -7.9972554    796.43922  0.014040604  0.012581267           23 
 4728000   0.49872672   -7.9927019    795.88161  0.014027806  0.012577295           36 
 4729000   0.49431063   -7.9935804    795.67326  0.014021168  0.012573328           27 
 4730000    0.4919434   -7.9904731    794.03152   0.01398928  0.012569359           23 
 4731000   0.49557095   -8.0010671    795.25277  0.014007834   0.01256539           34 
 4732000   0.49914982   -8.0023621    794.66772  0.013994571  0.012561426           30 
 4733000   0.48143002   -7.9818678    796.79354  0.014029043  0.012557464           37 
 4734000   0.49363065   -7.9931071     796.6129    0.0140229  0.012553496           26 
 4735000   0.49033625   -7.9982233    795.04863  0.013992408  0.012549532           33 
 4736000    0.4916813   -7.9919913    795.27331  0.013993407  0.012545571           45 
 4737000   0.49387476   -7.9932644    795.30223  0.013990962  0.012541615           33 
 4738000   0.49959353   -8.0013406    795.36463  0.013989106  0.012537658           33 
 4739000   0.49468342   -7.9974463    794.59415  0.013972606    0.0125337           35 
 4740000   0.49791105   -7.9838373     795.8286  0.013991361  0.012529743           31 
 4741000   0.49052209   -7.9984479     796.0851  0.013992918  0.012525786           37 
 4742000   0.49694039   -7.9968588    797.10346  0.014007863  0.012521833           30 
 4743000   0.50530204   -8.0035923    795.63676   0.01397914  0.012517883           17 
 4744000   0.50152395   -7.9854316    795.38733  0.013971812  0.012513935           38 
 4745000   0.48918615   -7.9974647    794.66306  0.013956148  0.012509987           34 
 4746000    0.5088147   -7.9955542    795.40758   0.01396628   0.01250604           43 
 4747000   0.48872706   -7.9896124    794.36934  0.013945112  0.012502098           21 
 4748000   0.49583374   -8.0004128    794.99304  0.013953121  0.012498152           40 
 4749000   0.47849909   -8.0031126    796.89041  0.013983477  0.012494208           42 
 4750000   0.49198942   -7.9968085     796.2027  0.013968468  0.012490269           23 
 4751000   0.49599729     -8.01293    795.57611  0.013954538  0.012486328           26 
 4752000   0.49609837   -7.9974588    794.82499  0.013938429  0.012482392           38 
 4753000   0.49681629   -8.0114414    794.83102  0.013935602  0.012478456           44 
 4754000   0.49015234   -7.9995123    796.15873  0.013955945  0.012474521           42 
 4755000   0.49427274   -7.9901432    796.33517  0.013956102  0.012470586           40 
 4756000   0.48667247   -8.0003349    795.11488  0.013931786  0.012466654           27 
 4757000   0.49232628   -8.0048127    794.55965  0.013919131  0.012462721           19 
 4758000   0.49239355   -8.0008776    795.70199  0.013936213   0.01245879           18 
 4759000   0.48981338   -8.0175444    795.22305  0.013924897   0.01245486           39 
 4760000   0.48416564   -8.0054513    796.34779  0.013941663   0.01245093           32 
 4761000   0.49328757   -8.0133461    795.53348  0.013924482  0.012447006           23 
 4762000    0.4951878   -8.0038242    795.05196  0.013913131   0.01244308           40 
 4763000   0.48952635   -8.0071987    795.36464  0.013915681  0.012439155           34 
 4764000   0.50193408    -8.016151     795.7455  0.013919422  0.012435231           34 
 4765000   0.48252622   -8.0033353    795.86026  0.013918507   0.01243131           25 
 4766000   0.48919305   -8.0104634    796.00972    0.0139182  0.012427389           41 
 4767000   0.48654832   -8.0135281    794.89961  0.013895875  0.012423465           33 
 4768000   0.49117507    -7.995586    795.83511  0.013909311  0.012419548           38 
 4769000   0.47615604   -7.9906329    794.57405  0.013884358  0.012415632           24 
 4770000   0.48201921   -7.9975853    795.35763  0.013895137  0.012411717           24 
 4771000   0.48836239   -7.9948932    794.93697  0.013884877  0.012407803           30 
 4772000    0.4832285    -8.009054    795.64122  0.013894266  0.012403891           30 
 4773000    0.4868243   -8.0084884    794.86363  0.013877778  0.012399984           35 
 4774000   0.48625958   -8.0014808    795.43331  0.013884815  0.012396077           36 
 4775000   0.49291866   -7.9993455    795.28836  0.013879378  0.012392168           35 
 4776000   0.48732046   -8.0200859    795.05961  0.013872481  0.012388261           38 
 4777000   0.47801883   -8.0051483    795.47227  0.013876775   0.01238436           42 
 4778000   0.49884305   -8.0016539    795.40376  0.013872676  0.012380459           19 
 4779000    0.4946768   -7.9976377    795.13383  0.013865066  0.012376558           33 
 4780000    0.4834415    -7.994485    794.76413  0.013855721  0.012372659           29 
 4781000   0.48113408   -8.0163211    794.59403  0.013849858  0.012368762           46 
 4782000   0.49554176   -7.9965482     796.2675  0.013876124  0.012364865           22 
 4783000   0.48804721   -8.0133288    795.03026  0.013851667  0.012360972           38 
 4784000   0.47867518   -8.0075371    795.32055  0.013853828  0.012357077           44 
 4785000   0.48454114   -8.0003129    795.18351  0.013848546  0.012353184           36 
 4786000   0.49228164   -8.0060603    793.29635  0.013812793  0.012349293           45 
 4787000     0.478366   -8.0012821    795.91212  0.013855444  0.012345403           30 
 4788000   0.47623887   -8.0019979    795.87416   0.01385189  0.012341516           45 
 4789000   0.49436162   -8.0014226    794.60939  0.013826989  0.012337629           34 
 4790000   0.49411691   -8.0074646    793.36921  0.013802526  0.012333746           43 
 4791000   0.49901701   -8.0034085    793.76627  0.013806552  0.012329865           38 
 4792000   0.48031462     -8.01223    794.40961  0.013814858  0.012325988           32 
 4793000   0.48559357   -8.0209527    796.12193  0.013841747  0.012322109           43 
 4794000   0.47740608   -8.0112279    794.46562  0.013810068  0.012318227           37 
 4795000   0.48428562   -8.0164314    794.02743  0.013799573  0.012314348           35 
 4796000   0.47843305   -7.9955721    794.62856  0.013807141  0.012310473           30 
 4797000   0.48861143   -8.0259051      795.057  0.013811705  0.012306598           39 
 4798000   0.48571768   -8.0129392    794.58375  0.013800607  0.012302721           44 
 4799000   0.48744781   -7.9872516    794.84228  0.013802221  0.012298847           34 
 4800000   0.48208957   -8.0105059    795.96231   0.01381879  0.012294976           40 
 4801000   0.47780938   -8.0166709    793.97195  0.013781364  0.012291106           37 
 4802000   0.48760192    -8.011163    795.62049  0.013807103  0.012287235           39 
 4803000   0.47527645   -7.9979697    795.22407   0.01379735  0.012283366           32 
 4804000   0.48506081   -8.0067454    794.03309  0.013773819    0.0122795           38 
 4805000   0.49167556   -8.0177521    795.32366  0.013793334  0.012275636           40 
 4806000   0.47626479    -8.032946    794.60629  0.013778026  0.012271769           23 
 4807000   0.47855104   -7.9988723    794.41914  0.013771915  0.012267906           32 
 4808000   0.49518981   -8.0104301     794.7126  0.013774137  0.012264047           26 
 4809000   0.48709891   -8.0110715     794.1758  0.013761971  0.012260186           44 
 4810000   0.49486785   -8.0210432    795.01369  0.013773626  0.012256327           36 
 4811000   0.49085212     -8.02485    793.78124  0.013749415  0.012252467           35 
 4812000   0.48290967    -8.015046    794.54156  0.013759725  0.012248611           27 
 4813000   0.47428075    -8.038284    795.35637  0.013770974  0.012244757           39 
 4814000   0.47331904    -8.029111    794.15378  0.013747296  0.012240902           35 
 4815000   0.48249254   -8.0199749    795.57472  0.013769033  0.012237048           37 
 4816000   0.48566692   -8.0189422    794.96411  0.013755608  0.012233198           28 
 4817000   0.48592544   -8.0179313    795.05341  0.013754298   0.01222935           36 
 4818000   0.47285624   -8.0108053     793.5822  0.013725996  0.012225503           27 
 4819000   0.47845315   -8.0451788    795.01813  0.013747979  0.012221659           54 
 4820000   0.47642311   -8.0335427    795.98681  0.013761874  0.012217815           37 
 4821000   0.47460925   -8.0293714       794.36    0.0137309  0.012213973           38 
 4822000   0.47598378   -8.0325902    795.01048  0.013739293  0.012210129           38 
 4823000   0.48284715   -8.0092687    794.34695   0.01372498  0.012206288           47 
 4824000   0.48834847   -8.0215003    795.18552  0.013736621  0.012202452           28 
 4825000   0.48818925    -8.024395    795.54463  0.013739976  0.012198617           26 
 4826000   0.47995084   -8.0188035     793.7486  0.013706116   0.01219478           35 
 4827000   0.47090576   -8.0204011    795.44745  0.013732606  0.012190947           34 
 4828000   0.48577882   -8.0272456    795.24209  0.013726217  0.012187114           36 
 4829000   0.48469401   -8.0302387    794.28023  0.013706776  0.012183278           37 
 4830000   0.48328101   -8.0182639    793.48576   0.01369023  0.012179447           33 
 4831000   0.47681375   -8.0299556     794.7049  0.013708427  0.012175617           41 
 4832000   0.47472882   -8.0163667    794.59569  0.013703706  0.012171786           36 
 4833000   0.48313086   -8.0272745    794.83969  0.013705078  0.012167958           37 
 4834000   0.47046855   -8.0153056    795.61793  0.013715659  0.012164134           33 
 4835000   0.46837944   -8.0375505    795.20807  0.013705758  0.012160308           36 
 4836000   0.47672921   -8.0179165    794.70274  0.013694216  0.012156486           30 
 4837000   0.47307863   -8.0140087    795.19577  0.013699879  0.012152667           31 
 4838000   0.48146625   -8.0419243    794.47377  0.013684611  0.012148848           34 
 4839000    0.4799085   -8.0346351    794.26666  0.013678216  0.012145029           26 
 4840000   0.47624799   -8.0294723    793.74052  0.013666331  0.012141213           37 
 4841000   0.48559787   -8.0159632    795.05209  0.013686086    0.0121374           57 
 4842000   0.48645938   -8.0252864    794.45107  0.013672915  0.012133589           31 
 4843000   0.48018893   -8.0208578     794.1236  0.013664457  0.012129779           38 
 4844000   0.48140533   -8.0099823    794.83178  0.013673819  0.012125972           30 
 4845000   0.48646346   -8.0172253    793.15608  0.013642175  0.012122165           41 
 4846000   0.48699637   -8.0204597    795.10635  0.013672898  0.012118359           37 
 4847000   0.49065716   -8.0293087    793.64157  0.013644893  0.012114555           23 
 4848000   0.46964613   -8.0239832    794.46585  0.013656247  0.012110752           43 
 4849000   0.48005493   -8.0185757    795.09874  0.013664308  0.012106949           36 
 4850000   0.48333499   -8.0244113     795.0448  0.013660564  0.012103149           41 
 4851000    0.4759226   -8.0199628    793.66266  0.013634004  0.012099348           38 
 4852000   0.47342513   -8.0406744    795.20673  0.013657714   0.01209555           40 
 4853000   0.47185131   -8.0188206    793.09694  0.013618671  0.012091755           34 
 4854000    0.4654271   -8.0197898    793.22012   0.01361798  0.012087961           35 
 4855000   0.46571752   -8.0375696    794.46724  0.013636581  0.012084166           38 
 4856000   0.46803127   -8.0344768    794.88315  0.013640911  0.012080374           38 
 4857000    0.4759526    -8.023924     794.0309   0.01362348  0.012076586           39 
 4858000    0.4744446   -8.0410484    793.88388  0.013618154  0.012072796           30 
 4859000   0.47163863   -8.0232569    795.75592  0.013647457  0.012069007           37 
 4860000   0.46636771   -8.0431264    795.14742  0.013634215   0.01206522           27 
 4861000    0.4726949    -8.042275    795.15351  0.013631515  0.012061431           34 
 4862000   0.47391442   -8.0300826    794.25496   0.01361331  0.012057646           38 
 4863000   0.48289122   -8.0090341    794.36324  0.013612366  0.012053864           24 
 4864000   0.47452276   -8.0279829    795.19882  0.013623883  0.012050083           21 
 4865000   0.47882648   -8.0162756    794.56529  0.013610231  0.012046303           30 
 4866000   0.46514301   -8.0191564    794.28577  0.013602647  0.012042523           30 
 4867000   0.47867895    -8.014632    794.93881  0.013611034  0.012038747           18 
 4868000   0.47717696   -8.0125095    793.49066  0.013583447  0.012034973           31 
 4869000   0.48288523   -8.0303099    793.64349  0.013583273  0.012031196           24 
 4870000   0.46331313    -8.025264    793.78479  0.013582902  0.012027423           36 
 4871000   0.46268038   -8.0323135    794.18844  0.013587019  0.012023652           25 
 4872000   0.47111494   -8.0270296    794.68031  0.013592644  0.012019886           24 
 4873000    0.4582496   -8.0228753    794.61118  0.013588672  0.012016118           29 
 4874000   0.46919433   -8.0243868    795.47522  0.013600657  0.012012354           29 
 4875000   0.46942582   -8.0328062    795.07343  0.013590999  0.012008589           38 
 4876000   0.46927461   -8.0253072    793.40453  0.013559689  0.012004828           24 
 4877000   0.46878513   -8.0186891    793.03198  0.013550543  0.012001071           23 
 4878000   0.47912162   -8.0387908    794.63411  0.013575135  0.011997313           40 
 4879000   0.47561049   -8.0259008    794.91032  0.013577071  0.011993556           25 
 4880000   0.46324838   -8.0342648    794.11938  0.013560782  0.011989798           30 
 4881000   0.46372889    -8.027197    793.55954  0.013548445  0.011986042           36 
 4882000   0.47109998   -8.0222045    794.62312  0.013563825  0.011982287           39 
 4883000   0.47159409   -8.0345914    794.10714  0.013552242  0.011978533           37 
 4884000   0.47218383   -8.0369219    794.43223  0.013555013  0.011974785           36 
 4885000     0.464767   -8.0285708    793.59704  0.013537991  0.011971034           26 
 4886000   0.46511083    -8.041616    794.15622  0.013544757  0.011967285           37 
 4887000   0.47138769   -8.0403572    793.29756  0.013527344  0.011963534           37 
 4888000   0.46643185   -8.0459662    794.14029  0.013538944  0.011959785           34 
 4889000    0.4704031   -8.0348057    792.57773  0.013509541  0.011956036           29 
 4890000   0.47179164   -8.0275316    794.04972  0.013531863  0.011952288           27 
 4891000   0.46269793   -8.0452786    794.96941  0.013544766  0.011948546           33 
 4892000   0.46036495   -8.0283541    794.34238  0.013531316  0.011944803           37 
 4893000   0.47619905    -8.044201    793.08061  0.013507061  0.011941061           30 
 4894000     0.467236   -8.0405081    794.07563  0.013521244  0.011937321           32 
 4895000   0.46206274   -8.0368151    793.91783  0.013515796  0.011933581           31 
 4896000   0.46454104   -8.0285802    793.59253  0.013507498  0.011929842           34 
 4897000   0.46696897   -8.0415812    794.06736   0.01351282  0.011926105           39 
 4898000   0.47675443   -8.0378657     794.6619  0.013520177  0.011922369           31 
 4899000   0.46269241   -8.0338651    793.29431  0.013494154  0.011918634           37 
 4900000   0.48102512   -8.0331636    794.75776  0.013516288  0.011914902           25 
 4901000     0.473944   -8.0222411    793.51954  0.013492477  0.011911172           29 
 4902000   0.46886529   -8.0431081    794.48228  0.013506091  0.011907442           32 
 4903000   0.46334893   -8.0281602    794.42612  0.013502382  0.011903715           35 
 4904000   0.46508771   -8.0495281    794.42631  0.013499631  0.011899989           41 
 4905000   0.46163158    -8.034303    793.53356  0.013481712  0.011896262           38 
 4906000   0.45508789   -8.0423928    794.15826  0.013489575  0.011892539           34 
 4907000   0.46928592   -8.0475194    794.10897  0.013485989  0.011888815           40 
 4908000   0.47023007   -8.0490989     794.3339   0.01348706  0.011885089           30 
 4909000   0.47357341   -8.0335784    793.49513  0.013470074   0.01188137           27 
 4910000   0.46450812   -8.0367665    794.68295  0.013487491  0.011877649           32 
 4911000   0.47065927   -8.0398957    794.04817  0.013473973  0.011873932           28 
 4912000   0.45638778   -8.0450676    793.49044  0.013461768  0.011870215           32 
 4913000   0.46321588    -8.041043    794.39778  0.013474418  0.011866499           33 
 4914000   0.47378869   -8.0367107    794.35504  0.013470951  0.011862785           29 
 4915000   0.47189984   -8.0392734    794.73106  0.013474586  0.011859071           37 
 4916000    0.4550016   -8.0378096    794.08852  0.013460953   0.01185536           29 
 4917000   0.46106808   -8.0400738    793.83458  0.013453911   0.01185165           33 
 4918000   0.47374515   -8.0503631    794.61732  0.013464439  0.011847942           30 
 4919000   0.46235679   -8.0398064    793.75765  0.013447138  0.011844235           32 
 4920000   0.46297616   -8.0564277    794.46745  0.013456427  0.011840528           43 
 4921000   0.45985478   -8.0467633    793.76607  0.013441815  0.011836823           36 
 4922000   0.47173583   -8.0518762    793.99158  0.013442902  0.011833121           32 
 4923000   0.46597512   -8.0417471    794.82213  0.013454231  0.011829423           29 
 4924000   0.47811892   -8.0313971    793.95186   0.01343677  0.011825722           42 
 4925000   0.46421925   -8.0509509    793.27001  0.013422504  0.011822026           37 
 4926000    0.4632927   -8.0452431    794.15212  0.013434702  0.011818328           32 
 4927000   0.46178439    -8.049126    794.69444  0.013441148   0.01181463           31 
 4928000   0.45859781   -8.0420223    794.16233  0.013429422  0.011810935           30 
 4929000   0.47029379   -8.0343632    793.67091   0.01341839  0.011807243           32 
 4930000   0.45984832   -8.0300513    792.41594  0.013394455   0.01180355           37 
 4931000   0.45739527   -8.0617334    793.65756  0.013412721  0.011799859           47 
 4932000   0.46020498   -8.0540937    795.04665  0.013433473   0.01179617           41 
 4933000    0.4674329   -8.0484249    793.89316  0.013411264  0.011792481           25 
 4934000   0.46108778   -8.0526514    793.64292  0.013404319  0.011788797           32 
 4935000   0.45587813   -8.0445314    793.82418  0.013404664  0.011785112           46 
 4936000   0.46438881   -8.0540805    793.87758  0.013402849  0.011781429           20 
 4937000   0.44440524   -8.0270111    794.01574  0.013402467   0.01177775           36 
 4938000   0.47033673   -8.0462748    793.55339   0.01339195  0.011774071           40 
 4939000   0.45505995   -8.0465435     793.5914   0.01338988  0.011770394           34 
 4940000   0.46844218   -8.0359733    793.67386   0.01338856  0.011766717           25 
 4941000    0.4558945   -8.0480756    794.65716  0.013402435  0.011763039           37 
 4942000   0.45503359   -8.0361914    792.86058  0.013369428  0.011759365           31 
 4943000   0.45805475   -8.0514749    792.29124  0.013357125  0.011755688           37 
 4944000   0.46362571   -8.0456611    792.95783  0.013365659  0.011752016           32 
 4945000   0.45523054   -8.0401756    793.59802  0.013373745  0.011748344           25 
 4946000   0.46530329   -8.0434334    793.44662   0.01336849  0.011744678           29 
 4947000   0.46185054   -8.0346219    793.28331  0.013363037   0.01174101           24 
 4948000   0.46227445   -8.0536135    792.92874  0.013354364  0.011737342           32 
 4949000   0.46433108   -8.0355055     794.1985  0.013373047  0.011733678           40 
 4950000   0.45198048   -8.0421817    793.36514  0.013356315  0.011730015           33 
 4951000   0.45210244   -8.0509927    793.36643  0.013353639   0.01172635           27 
 4952000   0.45375033   -8.0496258    793.35255  0.013350709  0.011722688           28 
 4953000   0.45231054   -8.0458295    793.41401  0.013349048  0.011719027           40 
 4954000   0.46019672   -8.0380551    793.39441  0.013346024   0.01171537           44 
 4955000   0.46142298   -8.0583236    793.83053  0.013350665  0.011711714           26 
 4956000    0.4635933   -8.0589472    793.24845  0.013338183  0.011708057           35 
 4957000   0.46843918   -8.0440523    793.86055  0.013345783  0.011704403           27 
 4958000   0.45655204   -8.0461124    793.00428  0.013328699  0.011700751           44 
 4959000   0.45439889    -8.047385    794.03563  0.013343343  0.011697101           38 
 4960000   0.45656505   -8.0584793    792.69025  0.013318049  0.011693451           31 
 4961000   0.45588789   -8.0414873    793.96001  0.013336693  0.011689804           34 
 4962000   0.45611399   -8.0706867    793.58268  0.013327668  0.011686155           31 
 4963000   0.45137455   -8.0585259    792.56121  0.013307831  0.011682506           31 
 4964000   0.44910916   -8.0490183    793.39913  0.013319217  0.011678862           38 
 4965000   0.46734379    -8.048066    793.12908  0.013312002  0.011675218           27 
 4966000   0.45388481   -8.0429279    792.89936  0.013305466  0.011671577           42 
 4967000   0.45543814   -8.0439102    792.76373  0.013300512  0.011667935           30 
 4968000   0.45703915   -8.0542261    793.51335  0.013310409  0.011664296           29 
 4969000   0.45264693   -8.0526136    792.71233  0.013294297  0.011660656           30 
 4970000   0.45692046   -8.0474983    793.96386  0.013312607  0.011657018           40 
 4971000   0.45933917   -8.0591924    793.22324  0.013297513  0.011653386           17 
 4972000   0.45531122   -8.0490864    793.67787  0.013302458  0.011649751           28 
 4973000   0.45212886   -8.0452646    793.52185  0.013297169  0.011646123           35 
 4974000   0.45815064   -8.0467073    793.06719  0.013286878  0.011642492           32 
 4975000   0.44957042    -8.036053    793.13669  0.013285372  0.011638866           37 
 4976000    0.4530011    -8.052015    794.01147  0.013297352  0.011635239           32 
 4977000   0.45613845   -8.0608951    793.58344  0.013287513  0.011631612           27 
 4978000   0.45804871   -8.0504635    793.35319  0.013280989   0.01162799           41 
 4979000   0.45563168   -8.0542284    792.67292  0.013266937  0.011624366           35 
 4980000   0.44738952   -8.0488928    792.17713  0.013255976  0.011620745           33 
 4981000    0.4507574   -8.0492854    792.98803  0.013266881  0.011617127           35 
 4982000   0.45832409   -8.0509528    793.99255  0.013281021  0.011613512           32 
 4983000   0.44626191   -8.0646357    793.13726  0.013264052  0.011609895           34 
 4984000   0.44252745    -8.042243    793.29838  0.013264085   0.01160628           18 
 4985000   0.45637696   -8.0470292    792.60421   0.01324982  0.011602665           41 
 4986000   0.44865497   -8.0414768    792.98114  0.013253462   0.01159905           25 
 4987000   0.45127361   -8.0432099    793.45594  0.013258738   0.01159544           18 
 4988000     0.457308   -8.0478299     793.2248  0.013252219  0.011591835           21 
 4989000   0.45230667   -8.0607808    794.15195  0.013265049   0.01158823           34 
 4990000   0.45103895   -8.0558678    794.47735  0.013267825  0.011584627           25 
 4991000   0.44436673   -8.0577337    793.55992  0.013249848  0.011581023           41 
 4992000   0.45764374   -8.0550122    793.39843  0.013244498  0.011577421           32 
 4993000   0.45456792   -8.0453103    792.56828  0.013227991  0.011573823           28 
 4994000    0.4606973   -8.0434282    793.49177  0.013240752  0.011570221           47 
 4995000   0.44086338   -8.0498751    792.80606  0.013226661  0.011566622           28 
 4996000   0.46611292   -8.0603314     793.2054  0.013230675  0.011563024           26 
 4997000   0.45361226   -8.0540127    791.91727  0.013206545  0.011559427           43 
 4998000   0.44440045   -8.0575187     792.9696  0.013221449  0.011555832           27 
 4999000   0.45491676   -8.0616329    793.91974  0.013234643  0.011552237           38 
 5000000     0.460733   -8.0579159    793.67495  0.013227916  0.011548647           35 
 5001000   0.45125338   -8.0614269    792.02806  0.013197828  0.011545052           33 
 5002000   0.44242962   -8.0798023     793.5106  0.013219889  0.011541461           34 
 5003000   0.45580298   -8.0565645     792.6133    0.0132023  0.011537869           35 
 5004000   0.45099764   -8.0389227    792.82649  0.013203212   0.01153428           33 
 5005000   0.44879457   -8.0563901    792.34607  0.013192575  0.011530691           29 
 5006000   0.46116621   -8.0731382    794.37228   0.01322367  0.011527104           28 
 5007000     0.457616   -8.0747388    793.93637  0.013213774  0.011523519           22 
 5008000   0.45815436   -8.0593654    793.04819  0.013196356  0.011519938           34 
 5009000   0.45170116   -8.0671994    792.28325  0.013180995  0.011516354           26 
 5010000   0.46274185   -8.0600731    792.65138  0.013184487  0.011512775           30 
 5011000   0.45977255   -8.0657289    793.86484  0.013202036  0.011509195           19 
 5012000   0.44957603   -8.0776846     791.6034  0.013161802  0.011505617           32 
Loop time of 11272.4 on 48 procs for 5000000 steps with 4000 atoms

Performance: 76647.142 tau/day, 443.560 timesteps/s
99.4% CPU use with 48 MPI tasks x no OpenMP threads

MPI task timing breakdown:
Section |  min time  |  avg time  |  max time  |%varavg| %total
---------------------------------------------------------------
Pair    | 727.43     | 747.1      | 770.94     |  38.7 |  6.63
Neigh   | 72.212     | 73.715     | 75.47      |   8.0 |  0.65
Comm    | 663.26     | 690.72     | 718.7      |  41.7 |  6.13
Output  | 13.571     | 13.575     | 13.665     |   0.4 |  0.12
Modify  | 9616.4     | 9635.5     | 9666.5     |  12.7 | 85.48
Other   |            | 111.9      |            |       |  0.99

Nlocal:        83.3333 ave          90 max          77 min
Histogram: 2 1 4 10 8 11 5 4 2 1
Nghost:        1881.62 ave        1902 max        1862 min
Histogram: 2 7 4 5 4 9 4 6 5 2
Neighs:        11831.7 ave       13133 max       10587 min
Histogram: 1 3 6 5 11 8 4 7 2 1
FullNghs:      23664.5 ave       25887 max       21730 min
Histogram: 2 2 7 5 16 5 3 6 1 1

Total # of neighbors = 1135895
Ave neighs/atom = 283.97375
Neighbor list builds = 268957
Dangerous builds = 0

#clear
#
#next RN
#
#jump SELF
Total wall time: 3:07:55
