
units lj                  # Use reduced LJ style units
atom_style atomic         # Uncharged point particles
atom_modify map hash      # Needed for indexing of clusters etc
                          # Used to be able to find where atoms are in relation to each other.

lattice fcc 1.0 spacing 1 1 1
Lattice spacing in x,y,z = 1.5874011 1.5874011 1.5874011
region box block 0 10 0 10 0 10 units lattice
create_box 2 box
Created orthogonal box = (0.0000000 0.0000000 0.0000000) to (15.874011 15.874011 15.874011)
  3 by 4 by 4 MPI processor grid
create_atoms 1 box
Created 4000 atoms
  using lattice units in orthogonal box = (0.0000000 0.0000000 0.0000000) to (15.874011 15.874011 15.874011)
  create_atoms CPU = 0.009 seconds
set type 1 type/fraction 2 0.95 78393
Setting atom values ...
  3802 settings made for type/fraction
mass 1 1.0
mass 2 1.0
pair_style lj/cut  3.5
pair_modify tail  yes
pair_coeff 1  1  1.0  1.0   # Intearaction between 1 and 1 set with epsilon = 1 and sigma = 1
pair_coeff 1  2  1.5  0.8
pair_coeff 2  2  0.5  0.88

write_data data.0
System init for write_data ...
Neighbor list info ...
  update every 1 steps, delay 10 steps, check yes
  max neighbors/atom: 2000, page size: 100000
  master list distance cutoff = 3.8
  ghost atom cutoff = 3.8
  binsize = 1.9, bins = 9 9 9
  1 neighbor lists, perpetual/occasional/extra = 1 0 0
  (1) pair lj/cut, perpetual
      attributes: half, newton on
      pair build: half/bin/atomonly/newton
      stencil: half/bin/3d
      bin: standard
WARNING: Not all mixed pair coeffs generated from mixing. Use write_data with 'pair ij' option to store all pair coeffs. (../write_data.cpp:312)


#############################
#   M E L T   S Y S T E M   #
#############################

velocity all create 2.4 5833274 mom yes dist gaussian # Assign velocities
                                                    # Temperature 2.4, random number seed, zero linear momentum
                                                                                # Gaussian distribution

timestep 0.002   # simulation timestep
thermo 1000       # output thermodynamic data every 1000 steps bf 100

# Define a fix  in this case with index 1 applied to all
# particles in the simulation. This fix is for simulations
# in the anisotropic NPT ensemble. Note that we use the MTK
# correction.
fix 1 all npt temp 2.4 2.4 0.1 iso 5.68 5.68 0.5 mtk yes tchain 5 pchain 5 # Use NPT ensemble
                                                                         # Set temperature and pressure and damping
                                                                         # Numbers of thermostats in chain and in barostat
run 10000          # run for 10000 steps
Per MPI rank memory allocation (min/avg/max) = 3.642 | 3.644 | 3.648 Mbytes
Step Temp E_pair E_mol TotEng Press Volume 
       0          2.4   -2.9371918            0   0.66190816   -2.1469233         4000 
    1000    2.4698269   -1.8040149            0    1.8997993    5.6551159    4164.4291 
    2000    2.4082911    -1.816504            0    1.7950296    5.7790059     4110.344 
    3000    2.4085451   -1.8256725            0    1.7862419    5.6292889    4144.6315 
    4000    2.3618798   -1.8580419            0    1.6838921     5.498909    4115.2818 
    5000    2.3705058   -1.8406629            0    1.7142068    5.2692451    4194.5304 
    6000    2.3595708   -1.8171148            0    1.7213565    5.6168352     4139.459 
    7000    2.3370043    -1.820456            0     1.684174     5.902446    4082.8975 
    8000    2.4130866    -1.820382            0     1.798343    5.6430714    4134.9351 
    9000    2.3063651   -1.8213496            0    1.6373331     5.522245    4143.6735 
   10000    2.3680617   -1.8303001            0    1.7209044    5.5726279    4137.7498 
Loop time of 2.40888 on 48 procs for 10000 steps with 4000 atoms

Performance: 717346.919 tau/day, 4151.313 timesteps/s
99.6% CPU use with 48 MPI tasks x no OpenMP threads

MPI task timing breakdown:
Section |  min time  |  avg time  |  max time  |%varavg| %total
---------------------------------------------------------------
Pair    | 1.064      | 1.1144     | 1.1911     |   2.7 | 46.26
Neigh   | 0.20517    | 0.21287    | 0.2339     |   1.2 |  8.84
Comm    | 0.71481    | 0.82616    | 0.90282    |   4.1 | 34.30
Output  | 0.00024448 | 0.00024914 | 0.00030985 |   0.0 |  0.01
Modify  | 0.2121     | 0.24024    | 0.26866    |   3.2 |  9.97
Other   |            | 0.01492    |            |       |  0.62

Nlocal:        83.3333 ave          94 max          75 min
Histogram: 3 6 6 4 9 8 5 3 3 1
Nghost:        1599.65 ave        1628 max        1571 min
Histogram: 2 4 5 7 6 8 3 8 4 1
Neighs:        9225.98 ave       10599 max        8012 min
Histogram: 3 8 3 2 8 10 4 6 2 2

Total # of neighbors = 442847
Ave neighs/atom = 110.71175
Neighbor list builds = 910
Dangerous builds = 227

# Equilibrate just above the melting temperature to avoid step fn in T

fix 1 all npt temp 1.25 1.25 0.1 iso 5.68 5.68 0.5 mtk yes tchain 5 pchain 5
run 2000
Per MPI rank memory allocation (min/avg/max) = 3.643 | 3.645 | 3.649 Mbytes
Step Temp E_pair E_mol TotEng Press Volume 
   10000    2.3680617   -1.8303001            0    1.7209044    5.5726279    4137.7498 
   11000     1.269092   -2.7554865            0  -0.85232437    5.5879853    3236.9193 
   12000     1.269292   -2.7687895            0   -0.8653275    5.8317396     3198.269 
Loop time of 0.584469 on 48 procs for 2000 steps with 4000 atoms

Performance: 591306.116 tau/day, 3421.910 timesteps/s
99.6% CPU use with 48 MPI tasks x no OpenMP threads

MPI task timing breakdown:
Section |  min time  |  avg time  |  max time  |%varavg| %total
---------------------------------------------------------------
Pair    | 0.25918    | 0.28067    | 0.31136    |   2.3 | 48.02
Neigh   | 0.037437   | 0.040278   | 0.042935   |   0.6 |  6.89
Comm    | 0.18142    | 0.21401    | 0.23989    |   2.9 | 36.62
Output  | 5.0992e-05 | 5.3175e-05 | 6.7946e-05 |   0.0 |  0.01
Modify  | 0.042382   | 0.044701   | 0.048047   |   0.8 |  7.65
Other   |            | 0.004759   |            |       |  0.81

Nlocal:        83.3333 ave          94 max          76 min
Histogram: 4 3 8 13 5 6 3 3 2 1
Nghost:        1908.75 ave        1925 max        1878 min
Histogram: 2 0 1 4 6 5 7 8 6 9
Neighs:        11953.7 ave       13858 max       10290 min
Histogram: 3 3 7 5 10 6 7 3 1 3

Total # of neighbors = 573779
Ave neighs/atom = 143.44475
Neighbor list builds = 142
Dangerous builds = 16

#############################
# L I N E A R  Q U E N C H  #
#############################

# Define solid atoms. This closely follows ten Wolde  Ruiz-Montero and Frenkel  Faraday Discuss  1996  104  93-110
# Compute components of the per-atom q6 vector
compute q6 all orientorder/atom degrees 1 6 components 6 nnn NULL cutoff 1.3 # compute the Q6 parameter.
                                                                             # Use all neighbours within 1.3 unit cell.

# get number of connections
compute coord_number all coord/atom orientorder q6 0.5

# An atom is solid if it has 8 or more connections (of a possible 14)
variable is_solid atom c_coord_number>=8
group solid dynamic all var is_solid    # Must be dynamic to update
dynamic group solid defined

# do clustering
compute cluster solid cluster/atom 1.3 # Create a cluster where all atoms within are solid and max 1.3 units from another member

# define chunks one chunk per cluster
compute clus_chunks solid chunk/atom c_cluster nchunk every compress yes  # Says which atoms are in which chunk

# count the size of each chunk
compute size_chunks solid property/chunk clus_chunks count


# Find the maximum entry in the vector of chunk sizes
variable max_n equal max(c_size_chunks)


# Thermo style which includes this variable
# thermo_style custom step temp pe vol v_max_n

thermo ${N}  # Print the thermo information every 100 steps
thermo 1000  

# Reset the npt fix at a lower temperature (below freezing)
fix 1  all npt temp  ${temp} ${temp}  0.1  iso  5.68  5.68  0.5  mtk yes tchain  5  pchain  5
fix 1  all npt temp  0.45 ${temp}  0.1  iso  5.68  5.68  0.5  mtk yes tchain  5  pchain  5
fix 1  all npt temp  0.45 0.45  0.1  iso  5.68  5.68  0.5  mtk yes tchain  5  pchain  5

dump dmp2 all dcd ${N} traj.dcd
dump dmp2 all dcd 1000 traj.dcd


compute msd all msd com yes
variable twopoint equal c_msd[4]/6/(step*dt+1.0e-6)
fix 9 all vector 10 c_msd[4]
variable fit equal slope(f_9)/6/(10*dt)
thermo_style custom step temp pe c_msd[4] v_twopoint v_fit v_max_n

fix 1 all npt temp 1.25 ${temp} 0.1 iso 5.68 5.68 0.5 mtk yes tchain 5 pchain 5
fix 1 all npt temp 1.25 0.45 0.1 iso 5.68 5.68 0.5 mtk yes tchain 5 pchain 5
run 500000 # 5000000  # Run for this many steps
Neighbor list info ...
  update every 1 steps, delay 10 steps, check yes
  max neighbors/atom: 2000, page size: 100000
  master list distance cutoff = 3.8
  ghost atom cutoff = 3.8
  binsize = 1.9, bins = 8 8 8
  4 neighbor lists, perpetual/occasional/extra = 1 3 0
  (1) pair lj/cut, perpetual
      attributes: half, newton on
      pair build: half/bin/atomonly/newton
      stencil: half/bin/3d
      bin: standard
  (2) compute orientorder/atom, occasional
      attributes: full, newton on
      pair build: full/bin/atomonly
      stencil: full/bin/3d
      bin: standard
  (3) compute coord/atom, occasional
      attributes: full, newton on
      pair build: full/bin/atomonly
      stencil: full/bin/3d
      bin: standard
  (4) compute cluster/atom, occasional
      attributes: full, newton on
      pair build: full/bin/atomonly
      stencil: full/bin/3d
      bin: standard
Per MPI rank memory allocation (min/avg/max) = 9.816 | 9.822 | 9.827 Mbytes
Step Temp PotEng c_msd[4] v_twopoint v_fit v_max_n 
   12000     1.269292   -2.7687895 1.0744286e-30 7.4613091e-33 8.3333333e+20            3 
   13000    1.2728192   -2.7705484    1.1354094 0.0072782651  0.097560093            2 
   14000    1.2226826   -2.7694077    2.2828543  0.013588418   0.09735472            1 
   15000    1.2504343   -2.7459049    3.4671271  0.019261817   0.09741133            1 
   16000    1.2474155    -2.717558    4.7429299  0.024702759  0.098902398            1 
   17000    1.2281661    -2.749709    5.9367023  0.029101481  0.099750371            2 
   18000    1.2171435   -2.7392332    7.1643585  0.033168325   0.10030715            1 
   19000    1.2475235   -2.7529552    8.4976777  0.037270515   0.10117188            2 
   20000    1.2319837   -2.7741369    9.7296714  0.040540296   0.10203559            1 
   21000    1.1971527   -2.7729835     10.96827  0.043524881   0.10246302            1 
   22000    1.2145136   -2.7518264    12.337241  0.046731974   0.10293522       -1e+20 
   23000     1.210746    -2.770598    13.587173  0.049228885   0.10343834            2 
   24000    1.2510872    -2.829946     14.70493  0.051058784   0.10352006            2 
   25000    1.2202824   -2.7893015    15.964033  0.053213443   0.10340763            1 
   26000    1.2334962   -2.7242369    17.168723  0.055027957   0.10333102            2 
   27000    1.2229737    -2.743429    18.340959  0.056607897   0.10319064            1 
   28000    1.2273903   -2.7654566    19.647437  0.058474513   0.10317845            1 
   29000     1.249233   -2.7717834    20.935082  0.060158281   0.10323154            1 
   30000    1.2291803   -2.7753642     21.91652  0.060879222    0.1031053            1 
   31000    1.2102721   -2.7918726     23.00686  0.061846397   0.10277411            2 
   32000    1.2400825   -2.8044515    23.974163  0.062432715     0.102292            2 
   33000    1.2118731   -2.7915661    25.241433  0.063740993   0.10184883            3 
   34000    1.2373079   -2.7688776    26.276405  0.064402951   0.10135944            2 
   35000    1.2054007   -2.7810281    27.427159   0.06530276   0.10086163            2 
   36000    1.1680925   -2.8016285    28.586043  0.066171394   0.10045829            1 
   37000    1.2083994   -2.8333601    29.719726  0.066936319   0.10017933            2 
   38000     1.201431   -2.7870384     30.88061  0.067720634  0.099871619            1 
   39000    1.2269744   -2.8207948    31.962181  0.068295259  0.099578865            2 
   40000    1.1991506   -2.7919809    32.901155  0.068544072   0.09921052            1 
   41000    1.1884331   -2.7756266    33.794228  0.068687455  0.098783018            1 
   42000    1.1679344   -2.8041958    35.082057  0.069607255   0.09836388            2 
   43000    1.1937681   -2.8052232    36.143072  0.070044712  0.097982762            2 
   44000    1.2110665   -2.8255445    37.149846  0.070359556  0.097593588            3 
   45000    1.2098728   -2.8244116    38.345726  0.071010603  0.097280196            3 
   46000    1.1527257    -2.821034    39.379779  0.071340178  0.097006304            3 
   47000    1.1917424   -2.7969865    41.028928  0.072746326  0.096857672            2 
   48000    1.1742881   -2.8161746     42.13335  0.073148176  0.096778357            3 
   49000     1.195501   -2.8121295    43.242746  0.073542084  0.096715243            2 
   50000    1.1835991   -2.8570296    44.300057  0.073833427  0.096688235            1 
   51000     1.183787   -2.8085216    45.527446   0.07439125  0.096645581            2 
   52000    1.1660066   -2.8261342    46.723285  0.074877058  0.096599701            3 
   53000    1.1954588   -2.8317587    47.719284  0.075030319  0.096580088            2 
   54000    1.2096882   -2.8363083    48.505082  0.074853521  0.096465584            2 
   55000    1.1693641   -2.8424119    49.665792  0.075251199  0.096326079            1 
   56000    1.1917677   -2.8332122    51.008256  0.075905142  0.096203813            1 
   57000    1.1776697   -2.8726403    51.981964  0.075997023  0.096082577            1 
   58000    1.1611271   -2.8406083    52.923285  0.076039202  0.095978544            1 
   59000    1.1850792   -2.8131589    54.148772  0.076481315   0.09585325            2 
   60000    1.1896936   -2.8391842    54.660087  0.075916787  0.095714128            2 
   61000    1.1731159   -2.8494808    56.001934  0.076505373  0.095522658            3 
   62000    1.1545239    -2.841736    57.084528  0.076726515  0.095365166            1 
   63000     1.200417   -2.8161702    58.324355  0.077148617  0.095201763            1 
   64000    1.1439573   -2.8412477    59.137791  0.077002331  0.095072766            1 
   65000    1.1667586   -2.8666573    60.070993  0.077014094  0.094902852            2 
   66000    1.1623113   -2.8549693    61.217936  0.077295373  0.094725284            2 
   67000    1.1775277   -2.8211916     62.18758  0.077347735  0.094532524            2 
   68000    1.1657191   -2.8694395    62.976689  0.077177314  0.094313262            2 
   69000    1.1679722   -2.8542631    63.904555  0.077179414  0.094105497            1 
   70000    1.1430139   -2.8557694    65.209963  0.077630907  0.093891853            2 
   71000    1.1739132   -2.8605064    65.721566  0.077137987  0.093665524            1 
   72000    1.1610209   -2.8972016    66.650281  0.077141529  0.093412412            2 
   73000    1.1577029   -2.8588193    67.239055  0.076756912  0.093130184            2 
   74000    1.1421082   -2.8549579    68.498998  0.077138511  0.092864859            1 
   75000    1.1513163   -2.8748557    69.357875  0.077064305  0.092604253            2 
   76000    1.1684478   -2.8718923    70.347961  0.077135922  0.092350278            3 
   77000    1.1506353   -2.8666777    71.274218  0.077136599  0.092111999            2 
   78000    1.1449309   -2.8656247    72.495801  0.077452779  0.091879899            1 
   79000    1.1494328    -2.874761    73.213992  0.077229949   0.09165525            2 
   80000    1.1502291   -2.8836467     74.02239  0.077106656  0.091433779            1 
   81000    1.1508664   -2.8774595    75.373785  0.077545046  0.091217151            2 
   82000    1.1380811   -2.8895035    76.364793  0.077606496  0.091008131            1 
   83000    1.1374722   -2.8815069     77.13887  0.077448664  0.090814199            3 
   84000    1.1525591   -2.8785865    77.917482  0.077299089  0.090603124            1 
   85000    1.1259317    -2.885347    78.773989    0.0772294  0.090384067            2 
   86000     1.135985   -2.9267369    79.635927  0.077166596  0.090177374            1 
   87000     1.132448   -2.9013213    80.668879  0.077269041  0.089949594            2 
   88000     1.144227   -2.8567177    81.820572  0.077481602  0.089749369            2 
   89000    1.1239808   -2.9030527    82.850427  0.077575306  0.089559594            1 
   90000    1.1532666   -2.8915097    83.504838  0.077319294   0.08937414            1 
   91000    1.1008275      -2.8966    84.381673  0.077272594  0.089189323            1 
   92000    1.1233942   -2.9182789    85.305151  0.077269158  0.088991633            3 
   93000    1.0958835   -2.9072419    86.698714  0.077687019    0.0888147            2 
   94000    1.1152314   -2.9187199    87.593984  0.077654241  0.088649425            1 
   95000    1.0990859   -2.9037574    88.906581  0.077988229  0.088500264            1 
   96000    1.1394713   -2.9107214     89.47684  0.077670868  0.088358517            2 
   97000    1.0963413   -2.8808918    90.690977   0.07791321  0.088220042            2 
   98000    1.1105193   -2.9248614    91.612626  0.077901892  0.088079024            2 
   99000    1.0980048     -2.95717      92.5882  0.077936195  0.087967383            2 
  100000    1.1018092   -2.9056105    93.787086  0.078155905   0.08784373            2 
  101000    1.1227079    -2.917888     94.21996  0.077739241  0.087729546            2 
  102000    1.1044554    -2.933981     95.28124   0.07784415  0.087616761            2 
  103000    1.0891701    -2.930159    96.585893  0.078143926  0.087507044            4 
  104000    1.0991323   -2.9503749    96.741283  0.077517053  0.087386963            3 
  105000    1.1138225   -2.9430774     98.35943  0.078063039  0.087255027            1 
  106000    1.1131064   -2.9322685    99.003485  0.077832928  0.087137516            2 
  107000     1.108158   -2.9847363    99.910173  0.077811661  0.087013443            1 
  108000    1.1135423   -2.9221247    100.95164  0.077894785  0.086883004            1 
  109000    1.0778838   -2.9465437    101.95281  0.077945576  0.086759063            1 
  110000    1.0884291    -2.959439    102.14413  0.077381914  0.086628892            2 
  111000    1.0867735   -2.9404816    103.27744  0.077535615  0.086479328            1 
  112000    1.0889228   -2.9565642    103.86099  0.077277519  0.086321586            2 
  113000    1.0886552   -2.9689335    105.03775  0.077461466  0.086173097            3 
  114000    1.0943147   -2.9462605    106.13926  0.077587178  0.086033631            1 
  115000    1.0571473   -2.9566655    106.65875  0.077288951  0.085898527            4 
  116000    1.0870299   -2.9337958    107.58733   0.07728975  0.085756468            3 
  117000    1.0996662   -2.9570081    108.75299  0.077459397  0.085622712            1 
  118000    1.0744931   -2.9632882    109.10543  0.077051859   0.08548586            1 
  119000    1.0787367   -2.9433057    109.78917  0.076883171  0.085353125            2 
  120000    1.0924276   -2.9605662    111.00367   0.07708588  0.085218207            4 
  121000    1.0883999    -2.939062    111.90476  0.077069393  0.085085886            2 
  122000    1.0520103   -2.9450718     112.8956  0.077114478  0.084947893            1 
  123000    1.0854915   -2.9742293     114.0686  0.077282248  0.084815173            3 
  124000    1.0821741   -2.9612641    114.80293  0.077152504  0.084685684            1 
  125000    1.0696857   -2.9939837    115.27762   0.07685175  0.084558675            2 
  126000    1.0346985   -2.9476543    116.73707  0.077207057  0.084436634            4 
  127000    1.0746402   -2.9610719    116.99624  0.076769188  0.084301833            2 
  128000    1.0353109    -2.953984    118.17478  0.076936706  0.084171701            2 
  129000    1.0763695   -2.9598116    118.78674  0.076735623  0.084035172            1 
  130000    1.0775295   -2.9818291     119.5757  0.076651087  0.083909674            2 
  131000    1.0709788    -2.994622    120.40238  0.076591847   0.08377763            3 
  132000     1.055072    -2.951979    121.33253  0.076598819   0.08364028            3 
  133000    1.0509911   -2.9580651    122.05115   0.07647315  0.083516908            3 
  134000    1.0653467    -2.974223    122.86209   0.07640677  0.083387018            1 
  135000    1.0419135   -2.9959357    124.12538  0.076620602  0.083269167            1 
  136000    1.0287026    -2.988126     125.3634  0.076815811  0.083160211            7 
  137000    1.0609216   -2.9888492    126.26507  0.076803568   0.08305672            4 
  138000    1.0523619   -2.9768331      127.365  0.076911233    0.0829579            1 
  139000    1.0530857   -2.9704779    128.00325  0.076740558  0.082859156            2 
  140000    1.0706122      -2.9961    129.31679  0.076974279  0.082765961            3 
  141000    1.0532276   -2.9839328    130.08052  0.076879738  0.082678628            2 
  142000    1.0359356   -2.9968944     131.2508  0.077025117  0.082598288            1 
  143000    1.0248557   -3.0169759    131.00013  0.076340399  0.082510559            3 
  144000    1.0351128   -2.9990932    132.49079  0.076672913   0.08241617            1 
  145000    1.0353659   -3.0319196    133.77788   0.07688384  0.082328137            1 
  146000    1.0383412   -2.9860929    134.51242  0.076776497  0.082239709            2 
  147000     1.021972   -3.0011362    135.29694  0.076698944  0.082150872            1 
  148000    1.0037149   -2.9978399    135.52241  0.076307664  0.082054855            3 
  149000    1.0239725   -2.9957829    136.16602  0.076155493  0.081949514            1 
  150000    1.0113942   -3.0292421    136.50517  0.075836205  0.081833187            2 
  151000    1.0129282   -3.0413482    137.07323  0.075647479  0.081718944            1 
  152000    1.0141915   -3.0393354    137.82023  0.075559335   0.08159846            1 
  153000    1.0158225    -3.014651    138.26984   0.07531037  0.081473665            4 
  154000    0.9900332   -3.0166244    138.97676  0.075203876  0.081344492            2 
  155000     1.038532   -3.0381728    139.65853  0.075085233  0.081205837            2 
  156000    1.0106274   -3.0303908    140.31597  0.074955111  0.081065931            4 
  157000    1.0304213   -3.0318827    140.85805  0.074765418  0.080936115            5 
  158000    1.0167642   -3.0184611    141.92337  0.074854096  0.080800253            1 
  159000    1.0130409   -3.0079759    142.83112  0.074859078  0.080671877            2 
  160000    1.0169067   -3.0563703    143.03586  0.074497845  0.080541111            5 
  161000    1.0037395   -3.0231545    144.37129  0.074726338  0.080408084            2 
  162000   0.99599733   -2.9983791    145.17669  0.074679369  0.080276038            2 
  163000    1.0127821   -3.0579189     145.4025  0.074336658  0.080146803            3 
  164000    1.0063939   -3.0495894    146.77456  0.074580568  0.080013218            2 
  165000      1.01857   -3.0662912     147.8383   0.07466581  0.079886715            2 
  166000    1.0027329   -3.0463596    147.94426  0.074269207     0.079769            3 
  167000   0.95619828   -3.0457259    150.30058  0.075000287   0.07965403            1 
  168000    1.0201313   -3.0662247    150.61466  0.074709653  0.079541033            2 
  169000   0.99673375   -3.0572761    151.41085  0.074660183  0.079431527            3 
  170000    1.0004596   -3.0739204    151.84915  0.074435856  0.079320544            6 
  171000    1.0053173   -3.0818758    152.31354  0.074226869  0.079206965            5 
  172000    1.0073753   -3.0187649    153.86246  0.074545766  0.079097228            1 
  173000   0.99904551   -3.0733898    153.60681  0.073991719  0.078983787            2 
  174000   0.97618078   -3.0921327    155.19656  0.074327856  0.078873309            3 
  175000   0.99491929   -3.0731226    155.42886  0.074013743  0.078761929            3 
  176000   0.99736284   -3.0870627    156.49442  0.074097736  0.078651781            3 
  177000   0.98088418   -3.0583806     156.4305  0.073649011  0.078540193            2 
  178000   0.98255527   -3.0613594    156.97327  0.073489358  0.078424021            3 
  179000    0.9839731   -3.0599684    157.79851  0.073462994  0.078294536            2 
  180000   0.98205269    -3.082089    157.99626  0.073146416  0.078166414            3 
  181000    0.9801753   -3.0948391    158.15333  0.072814609  0.078042227            2 
  182000   0.99343651   -3.0650089    159.17779  0.072883603  0.077912037            4 
  183000   0.97662275   -3.0896392    159.55395  0.072656626  0.077776311            4 
  184000   0.97998063     -3.07819    160.06418  0.072492835  0.077640035            3 
  185000   0.96761754   -3.0756412    161.04291   0.07254185  0.077508848            2 
  186000   0.96465972   -3.0874954    161.51818  0.072364776  0.077375082            2 
  187000   0.95571351   -3.0983857    162.51559  0.072422278  0.077241689            3 
  188000   0.97152873   -3.0819332    162.67794  0.072109017  0.077103758            4 
  189000   0.97567261   -3.0667474    163.26877  0.071987995  0.076965359            3 
  190000   0.95945997   -3.0927741    164.16002  0.072000007  0.076827622            5 
  191000   0.97740443   -3.1025169    164.05859   0.07157879  0.076681253            6 
  192000   0.96034113   -3.1030402    165.55516  0.071855538  0.076542505            3 
  193000   0.98187762   -3.1172895    166.35264  0.071827565  0.076401303            3 
  194000   0.97173723   -3.1070978     165.9806   0.07129751  0.076258323            4 
  195000   0.93516709   -3.1033815    166.48866  0.071148998  0.076114723            2 
  196000   0.95462615    -3.117168    167.05652  0.071027433  0.075969815            3 
  197000   0.96139556    -3.111633    167.90336   0.07102511  0.075820806            2 
  198000   0.96809462   -3.1164974    168.80816  0.071047207  0.075675577            3 
  199000   0.95983413   -3.1334594    168.80224  0.070687703   0.07552525            2 
  200000     0.934021   -3.1154994    168.98082  0.070408675  0.075374799            6 
  201000   0.95614668   -3.1178193    169.47479  0.070263182  0.075225334            1 
  202000   0.93680774   -3.0977237    170.58076  0.070371602  0.075071977            1 
  203000   0.94734083   -3.1312397     170.9666  0.070183331  0.074920639            4 
  204000   0.94634705   -3.1029704    171.04096  0.069869674  0.074769198            8 
  205000   0.91620865   -3.1332384    172.02029  0.069926945  0.074615296            4 
  206000   0.93376808   -3.1481236    172.20872  0.069663723  0.074463159            3 
  207000   0.93357314   -3.1347083     172.8365   0.06957991   0.07431015            4 
  208000   0.93459553   -3.1390654    173.36748  0.069458123  0.074158759            1 
  209000   0.93461039   -3.1350649    174.46389  0.069562954  0.074013618            2 
  210000   0.94980897   -3.1473828    174.53141  0.069258496   0.07386625            5 
  211000   0.92884768   -3.1229528    175.28212  0.069226745  0.073716498            2 
  212000   0.93637367   -3.1629368    175.92133  0.069151467  0.073567142            6 
  213000   0.94011167   -3.1603788    175.31741  0.068590535  0.073416065            4 
  214000   0.91186835   -3.1736833    176.73705  0.068822837  0.073266451            3 
  215000   0.92511169   -3.1484058    177.65484  0.068858465   0.07312055            4 
  216000   0.93033235   -3.1424182    178.64219  0.068920599  0.072974504            3 
  217000    0.9181658   -3.1543448    178.73039  0.068636864  0.072831312            4 
  218000   0.93664422   -3.1849877    179.35306  0.068560037  0.072689323            3 
  219000   0.92497697   -3.1660316    180.36248  0.068631079  0.072548821            3 
  220000   0.90367392   -3.1667375    180.35455  0.068316117   0.07240759            3 
  221000    0.8991065   -3.1576284    181.85042  0.068571047  0.072271205            3 
  222000   0.93373079   -3.1921303    181.59559  0.068166513  0.072136552            4 
  223000   0.88459344   -3.1519154     183.3673  0.068522907  0.072001673            8 
  224000   0.89537502   -3.1901563    183.15298  0.068137269  0.071865252            3 
  225000   0.88770501   -3.1772005    183.12097  0.067822581    0.0717262            3 
  226000   0.92314472   -3.1467158    183.66879   0.06772448  0.071586316            3 
  227000   0.90948885   -3.1872806    184.57089  0.067757301  0.071450714            2 
  228000   0.91052171   -3.1638811    185.14597   0.06767031     0.071311            4 
  229000   0.92314004   -3.1818932    184.80412  0.067250409   0.07117141            2 
  230000   0.88371199   -3.1589978    186.65844  0.067629871  0.071035114            3 
  231000   0.90022587   -3.1818848      186.213  0.067176405  0.070901355            1 
  232000   0.87794745   -3.1999789    186.62812  0.067035963  0.070764244            6 
  233000   0.89260278   -3.1872694    188.23944  0.067324551   0.07062991            4 
  234000   0.89595077     -3.21551     188.1552  0.067006837  0.070496857            3 
  235000   0.88721218   -3.2068345    188.84259  0.066965458  0.070362262            2 
  236000   0.89264856   -3.1966958    188.90771    0.0667047  0.070225497            3 
  237000    0.8914347   -3.1923612    190.33497  0.066925094  0.070091188            2 
  238000   0.89178784   -3.2090909    190.09037  0.066558252  0.069959937            7 
  239000   0.87831437   -3.1770634    191.35463  0.066720582  0.069831181            2 
  240000    0.8921172   -3.2046909    192.40678  0.066807908  0.069704471            2 
  241000    0.8906941   -3.1977615    192.66107  0.066618626  0.069578954            4 
  242000   0.88790895   -3.2337913    192.55642  0.066307308  0.069451985            5 
  243000   0.87624933   -3.2163873    193.78452  0.066455598  0.069322265            3 
  244000   0.89064826   -3.2323161    193.36722  0.066040718  0.069193729            3 
  245000   0.88713309   -3.2151696    194.25023  0.066071506  0.069063711            9 
  246000    0.8805124    -3.223518    194.75417  0.065973634  0.068931837            7 
  247000   0.88785547   -3.2055973     194.5026  0.065621661  0.068801092            4 
  248000   0.88179107   -3.2034075    194.91633  0.065496078  0.068669119            3 
  249000   0.85234364   -3.2351244    195.73608  0.065507388  0.068536996            2 
  250000   0.87437615   -3.2349184    196.12693  0.065375642  0.068407606            4 
  251000   0.86081195   -3.2403219    196.84351  0.065353091  0.068278429            4 
  252000   0.85206672   -3.2123251    196.94555  0.065127498  0.068148472            2 
  253000   0.87040376   -3.2395744    197.84966  0.065167872  0.068020684            6 
  254000   0.85120833   -3.2538222    198.43194  0.065102343  0.067890822            4 
  255000   0.86228674    -3.271497    198.31285  0.064808122  0.067760666            2 
  256000   0.87418749   -3.2340691     198.5829  0.064642871  0.067632221            3 
  257000   0.84301211   -3.2103377     199.9039  0.064819681   0.06750477            3 
  258000   0.83989101   -3.2545467    199.89105  0.064564293  0.067376677            3 
  259000   0.84023061   -3.2571461    200.36011  0.064465931    0.0672474            2 
  260000   0.85324493   -3.2632882    201.03378  0.064433903    0.0671177            2 
  261000   0.86472563   -3.2673924    200.89593  0.064143017  0.066988965            3 
  262000   0.86335191   -3.2482364    201.19107   0.06399207  0.066858991            3 
  263000   0.84436506    -3.258805    201.69398  0.063908104  0.066728419            2 
  264000   0.84194535     -3.26897    202.40034  0.063888995  0.066599339            2 
  265000   0.82602247   -3.2687025    202.85249  0.063790091  0.066471387            3 
  266000   0.84724571    -3.264298    203.01582  0.063601448  0.066344176            2 
  267000   0.84662405   -3.2856807    203.49708  0.063513445   0.06621664            5 
  268000   0.85049682   -3.2460782    204.30546  0.063527818   0.06609105            5 
  269000   0.85864007    -3.277211    205.33448  0.063610433  0.065967614            6 
  270000   0.84962124   -3.2399025    205.24303  0.063346613  0.065843951            6 
  271000    0.8522235   -3.2724299    206.41058  0.063471889  0.065721836            5 
  272000   0.84645194   -3.2892605    206.11503  0.063147988   0.06560028            4 
  273000    0.8141867   -3.2998778    207.00484  0.063188292  0.065480535            3 
  274000   0.82170568   -3.2882871    208.32198  0.063358265  0.065361028            4 
  275000   0.82143487   -3.2721925    208.76838  0.063263146   0.06524354            7 
  276000   0.82090039   -3.3005616    207.76339  0.062730492  0.065123686            3 
  277000   0.83673966   -3.2614332    209.39465  0.062994782  0.065004998            3 
  278000   0.80475638   -3.3207605    209.76026  0.062877775  0.064887197            4 
  279000   0.80674123   -3.2991836    210.57342  0.062895288  0.064768382            4 
  280000   0.82405136   -3.2805453    210.76602  0.062727981  0.064652477            5 
  281000   0.80724372   -3.3101994    211.05241  0.062589682  0.064537253            2 
  282000   0.82810513   -3.3060909    211.71399  0.062563237  0.064420698            3 
  283000   0.79949767   -3.2955351    211.63921  0.062320144  0.064304173            1 
  284000   0.81077801   -3.3214391    212.03002  0.062215382  0.064188807            4 
  285000    0.7953506   -3.3230171    212.16451  0.062036405  0.064072614            9 
  286000   0.79480635   -3.3133959     213.4226  0.062186071  0.063957496            4 
  287000   0.82359358   -3.3283341    213.21551  0.061909265  0.063842197            3 
  288000    0.8099729   -3.3274769    213.85875  0.061880425  0.063728316            4 
  289000   0.79431223   -3.3051839    214.28858  0.061790247   0.06361507            3 
  290000   0.80287329   -3.3282909    215.28921  0.061864714  0.063503785            3 
  291000   0.80082993   -3.2989925    215.50453  0.061713783  0.063390933            3 
  292000   0.81832396   -3.3283715    216.29184  0.061727124  0.063279091            4 
  293000   0.78747755   -3.3083619    216.79595  0.061659828   0.06316676            2 
  294000   0.81352301   -3.3613702    216.37238   0.06133004  0.063056139            5 
  295000   0.79886324   -3.3621273    216.46155  0.061147331  0.062944058            5 
  296000   0.79758422   -3.3314287    218.05448  0.061389212  0.062832268            7 
  297000   0.81911744   -3.3521849    217.19034  0.060940049  0.062718619            2 
  298000   0.80242866   -3.3463558    217.76179  0.060895355  0.062603212            4 
  299000   0.78729092    -3.360238    217.83443  0.060711936  0.062487329            6 
  300000   0.77468962   -3.3647702    217.96075  0.060544654  0.062370093            2 
  301000   0.81558203   -3.3604771    218.38506  0.060460981  0.062252527            5 
  302000   0.78213706   -3.3286822    218.71205  0.060351006  0.062135984            5 
  303000   0.79699138   -3.3504063    219.27933  0.060307846    0.0620188            2 
  304000   0.79204988   -3.3510248    218.89145  0.060003138  0.061900458            6 
  305000   0.77893021   -3.3767969    219.54721  0.059985576  0.061784215            2 
  306000   0.78111371   -3.3418314     220.5293  0.060056997  0.061668059            5 
  307000   0.78703169   -3.3726824    220.80754    0.0599369  0.061553706            5 
  308000   0.77692495   -3.3596937    220.52443    0.0596657  0.061437485            5 
  309000   0.77884865   -3.3624674    221.75584  0.059804703  0.061323481            5 
  310000   0.77820228   -3.3746751    221.85216  0.059637677  0.061208047            2 
  311000   0.77165927   -3.3756668    222.24328  0.059550718  0.061093593            6 
  312000   0.76587133   -3.3742139    222.15583  0.059336493  0.060978328            4 
  313000   0.77870655    -3.374775    221.72316  0.059031726   0.06086128            5 
  314000   0.75855438   -3.3955371    222.82156  0.059135234  0.060745149            7 
  315000   0.75560102    -3.385438    222.56521  0.058879685   0.06062803            2 
  316000   0.75737628   -3.3987097    223.61443   0.05897005  0.060511141            7 
  317000   0.74862498   -3.4006444    223.63388  0.058789137  0.060392809            6 
  318000   0.75292912   -3.3847652    223.74187  0.058632566  0.060276101            9 
  319000   0.75405746   -3.3965902    223.62268  0.058417628  0.060158282            4 
  320000   0.77684469   -3.4077142    224.33552  0.058420707  0.060040306            4 
  321000   0.76497189   -3.4081935    224.70123  0.058333652  0.059923026            5 
  322000   0.74196477   -3.3911593    225.31557  0.058311484  0.059805286            4 
  323000    0.7514962   -3.4181116     224.6692   0.05796419  0.059686159            4 
  324000    0.7365249   -3.4033124    224.56196  0.057757706  0.059566111            3 
  325000   0.73968998   -3.4018484    225.32973  0.057776854   0.05944656            5 
  326000    0.7418959   -3.4022162    225.68386  0.057690147  0.059327548            6 
  327000   0.76697904   -3.4275679    225.88331  0.057564555  0.059208013            2 
  328000   0.73926481    -3.427126    226.31735  0.057499326  0.059089104            7 
  329000   0.73575343   -3.4319955    226.19428  0.057293385  0.058970803            5 
  330000   0.74183189   -3.4275613    226.78342   0.05726854  0.058854277            4 
  331000   0.73798089   -3.4317087    228.47062  0.057520296  0.058738265            3 
  332000   0.73187662   -3.4556056    227.61404  0.057132039  0.058622648            9 
  333000   0.72586051   -3.4375138    228.88721  0.057279082  0.058507191            4 
  334000   0.73878103   -3.4444295     226.9516  0.056624651  0.058391927            6 
  335000   0.74736416   -3.4316858     228.5862  0.056862238  0.058275119            8 
  336000   0.74532893   -3.4440261    228.80021  0.056746083  0.058158188            9 
  337000   0.73523402   -3.4436447    228.93541  0.056611129  0.058041476            5 
  338000   0.73327297   -3.4350814    229.50176  0.056583275  0.057925267            7 
  339000   0.73657713   -3.4430671     229.9333  0.056522443  0.057809361            5 
  340000   0.70974366   -3.4416927    229.63338   0.05628269  0.057692653            8 
  341000   0.73466894   -3.4400256    229.99592  0.056206236  0.057575875            4 
  342000   0.72779624    -3.464114    230.66887  0.056205866  0.057461541            2 
  343000   0.73030695   -3.4567907    230.15939   0.05591822  0.057345869            3 
  344000   0.71979029   -3.4605172    230.54114  0.055848144   0.05723048            9 
  345000   0.71050375   -3.4970065    230.57003  0.055693245  0.057113226            2 
  346000   0.72400491   -3.4709597    230.95453  0.055624887  0.056995426            3 
  347000   0.71473893   -3.4672325    231.30595  0.055548979  0.056880585            6 
  348000   0.70699882   -3.4833739    230.80708  0.055269894  0.056764406           15 
  349000   0.70945358   -3.4837575    231.90069  0.055372657  0.056647994            4 
  350000   0.71510797    -3.476273    231.69947   0.05516654  0.056530497            2 
  351000   0.69458372   -3.4509109    231.69558  0.055008447  0.056413957            8 
  352000   0.69077179   -3.4701061    232.44556  0.055029726  0.056296668            3 
  353000    0.7061895   -3.4933301    232.14222  0.054802223  0.056178785            5 
  354000   0.70658668   -3.4809493    232.94338  0.054836013  0.056061518           11 
  355000   0.70652143    -3.467766    233.30556  0.054766563  0.055944861            6 
  356000   0.70795807   -3.4719494    233.22704  0.054594346   0.05582916            9 
  357000   0.71092511   -3.4822566    233.31747  0.054462528  0.055713548            6 
  358000   0.71114279   -3.5429314    233.63636  0.054384627   0.05559854            3 
  359000   0.69884758    -3.495599    233.96684  0.054309851  0.055483715            5 
  360000    0.6919589   -3.5075668    234.24791  0.054224053  0.055369223            7 
  361000    0.6879326   -3.4867352    235.07079  0.054263803  0.055257373            6 
  362000   0.67799299   -3.4877034    235.22215  0.054148745  0.055144888            3 
  363000   0.67799864   -3.4974434    235.84985  0.054143676  0.055033132            4 
  364000   0.67014632   -3.5007132    235.48259   0.05391085  0.054921006            5 
  365000   0.67915978   -3.5241908     235.5861  0.053786781  0.054809278            8 
  366000    0.6875764   -3.5221988    235.97398  0.053728138  0.054697266            8 
  367000   0.66767353    -3.505291    236.78894   0.05376679  0.054586295           10 
  368000    0.6884733   -3.5106616    236.45339  0.053544699  0.054475724            3 
  369000   0.68971886   -3.4966043    237.42634  0.053619317  0.054365677           10 
  370000   0.69343307   -3.5037222    237.40729   0.05347011  0.054256996            9 
  371000   0.67523499   -3.5361491    237.53037  0.053353633   0.05414733            9 
  372000   0.67868007   -3.5285608    237.39063  0.053178904  0.054037538            4 
  373000   0.67421797   -3.5193405    237.78896  0.053125326  0.053927831            5 
  374000   0.66746878   -3.5268106     238.1165  0.053056261  0.053819126            6 
  375000   0.66956862   -3.5540865    237.80836  0.052846302  0.053708666            4 
  376000   0.66951994   -3.5636797    237.70782  0.052683472  0.053598336            8 
  377000   0.65525575   -3.5306333    238.76902  0.052778297  0.053488474            9 
  378000   0.65871679   -3.5520499    238.36107  0.052548736  0.053378679            8 
  379000   0.66804309   -3.5418284    238.99552  0.052549586  0.053268329            6 
  380000   0.67331876   -3.5712831    238.05282  0.052204565  0.053157664            4 
  381000   0.65479676   -3.5441725    239.41563  0.052365622  0.053047067            4 
  382000   0.65044801   -3.5629876    238.74423  0.052082073  0.052936836            4 
  383000   0.65282832   -3.5662229    239.27567  0.052061722  0.052825559            9 
  384000   0.65176085   -3.5558076    239.77838  0.052035239  0.052715227            6 
  385000   0.65209618   -3.5765315    239.99322  0.051946585   0.05260588            6 
  386000   0.65084267   -3.5798939    239.71238  0.051751377  0.052496098            7 
  387000   0.63556505   -3.5677014    239.71719  0.051618689  0.052387109            4 
  388000   0.63317278    -3.590055    239.93161  0.051531702  0.052276337            6 
  389000   0.63489648   -3.5782796    240.04959  0.051424505  0.052167019            6 
  390000   0.64924012   -3.5579399    240.97405  0.051490182  0.052057628           10 
  391000   0.64061021   -3.5888126    240.97205  0.051358067  0.051948687            6 
  392000   0.64265514    -3.581018    240.90279  0.051212328  0.051839801            6 
  393000   0.63650439   -3.5892363    240.85227  0.051071303  0.051730617           15 
  394000   0.63494133   -3.5952168    241.15386   0.05100547  0.051621125           10 
  395000    0.6503171   -3.5856507    240.89475  0.050821678  0.051511244            2 
  396000   0.63282032   -3.5914593    240.87595  0.050689383  0.051400098           10 
  397000   0.62662028   -3.6085258    241.21513  0.050632899  0.051289854            6 
  398000   0.62413027   -3.6216587    240.72886  0.050403865  0.051178701            3 
  399000   0.62564132   -3.6079056    241.32456  0.050401955  0.051069058            7 
  400000   0.63596294   -3.6223873    241.51129  0.050314851   0.05095946            7 
  401000   0.63712687   -3.5881101    242.23029  0.050338797  0.050850626            6 
  402000   0.63710026   -3.6060468    241.06886  0.049972814  0.050741828           14 
  403000   0.62092649   -3.6185505    241.37146  0.049911385  0.050632472           13 
  404000   0.62985656   -3.6077907    242.12427  0.049943126  0.050522534           12 
  405000   0.61682184   -3.6085551    242.23672  0.049842947  0.050412787            9 
  406000   0.61896176   -3.6218603    241.65185  0.049600133  0.050302816            8 
  407000   0.62737282   -3.6349709    242.16865  0.049584081  0.050194053           11 
  408000   0.61925628   -3.6267767    243.24749  0.049682903  0.050086128            8 
  409000   0.61806905   -3.6163609    243.03094  0.049517307  0.049978515            3 
  410000   0.60736913    -3.647075    242.43805  0.049276026  0.049870048           12 
  411000   0.60231581   -3.6304312    242.70506  0.049210271  0.049761573            6 
  412000   0.59834559   -3.6536734    242.80422  0.049110885  0.049653024            9 
  413000    0.6120277   -3.6540263    242.53262  0.048937172  0.049544378            7 
  414000   0.61461139   -3.6460044    242.57795  0.048828091  0.049435495            9 
  415000   0.60169347   -3.6422675    243.31322  0.048858077  0.049326866            6 
  416000   0.59133388   -3.6452899    244.14733  0.048907718  0.049219849           23 
  417000   0.61183823   -3.6627614    243.75925  0.048712879  0.049113829            8 
  418000   0.60386698   -3.6540516    243.47332  0.048539338  0.049006861           10 
  419000   0.59613329   -3.6510125    244.61774  0.048651102  0.048899317           12 
  420000   0.59408243   -3.6697549    244.16211  0.048444863  0.048792862            8 
  421000   0.59247136   -3.6755283    243.44036  0.048186928  0.048685549           12 
  422000   0.59544201   -3.6817718    243.61189  0.048106613  0.048577899           23 
  423000   0.57614716   -3.6618473    244.57339  0.048182308  0.048471055           23 
  424000   0.58714016   -3.6947109    243.97481  0.047951024  0.048363578            7 
  425000   0.59487031   -3.6548025    244.22934  0.047888107  0.048256545           17 
  426000   0.59641853   -3.6903332    244.22309   0.04777447  0.048148927            9 
  427000   0.59299532   -3.6769645    244.20934  0.047659903  0.048041483           19 
  428000    0.6032166   -3.6727323    244.34436  0.047574836  0.047934164           10 
  429000   0.59467187   -3.6824237    245.11118  0.047612894  0.047826736           14 
  430000    0.5865191   -3.6747375    244.66503  0.047415704  0.047720111            4 
  431000   0.57651287    -3.706439    244.85525  0.047342468   0.04761278            5 
  432000   0.57842575   -3.6886277      245.214  0.047302084  0.047505722           13 
  433000   0.58169832   -3.6623455     245.4139  0.047231313   0.04739941            5 
  434000   0.57734612   -3.6989656     244.6945   0.04698435  0.047293197           12 
  435000   0.57715422   -3.7062607     245.1806  0.046969463  0.047186821           12 
  436000   0.56418729   -3.6900182    245.18344  0.046862278  0.047080541           12 
  437000   0.55287651   -3.7121888    245.83451  0.046879196  0.046974994           17 
  438000   0.57573286   -3.7175991    245.51727   0.04671181  0.046869432           11 
  439000    0.5643318   -3.7218492    245.39274  0.046581766  0.046763783            8 
  440000   0.56090717    -3.725451    245.14787  0.046429521  0.046657675           20 
  441000   0.56012205   -3.7094534    245.89107  0.046464676  0.046553009           19 
  442000   0.56760237   -3.7133695    244.76916  0.046148031  0.046447877           20 
  443000   0.55676233    -3.717631    245.46341  0.046174456  0.046342506           11 
  444000   0.55719734    -3.722995    246.09403  0.046188819  0.046237426           16 
  445000   0.55715331   -3.7287598    245.56245  0.045985478  0.046132265           12 
  446000   0.56059094   -3.7379632    245.46463  0.045864094  0.046026851            3 
  447000   0.55166109   -3.7388476    245.56056  0.045779374  0.045921509            7 
  448000   0.55296758   -3.7370168    245.51004   0.04566779  0.045816016            8 
  449000   0.55737927   -3.7424968    245.90844  0.045640022  0.045710781            9 
  450000   0.53968769   -3.7551058    245.54636  0.045471549  0.045605345           13 
  451000   0.54461232   -3.7264872    245.70741  0.045400483  0.045500369            6 
  452000   0.54303219   -3.7438712    245.46736  0.045255782  0.045395731            8 
  453000   0.57033187   -3.7487705    245.76353  0.045210362  0.045291055            8 
  454000    0.5468793    -3.749852    245.80045  0.045117557  0.045187248            7 
  455000    0.5429132   -3.7461981    245.78328  0.045015252  0.045082799           10 
  456000   0.53416855   -3.7591356    246.12631  0.044979224  0.044979033           10 
  457000   0.54304522   -3.7885331    246.37566   0.04492627  0.044876159            9 
  458000   0.53634503   -3.7513791    246.50149  0.044851072  0.044772812            6 
  459000   0.54073422   -3.7625279    246.46764  0.044747211  0.044669585            9 
  460000   0.54074465   -3.7681341    246.47366  0.044651025  0.044566689            9 
  461000   0.54271967     -3.78867    246.68412  0.044592213  0.044464325            9 
  462000   0.52394689   -3.7700988     246.3266  0.044431204  0.044362335           14 
  463000   0.53066067    -3.775244    246.50472    0.0443673  0.044260129           12 
  464000   0.52830374   -3.7810039    247.04466  0.044368654  0.044157664           10 
  465000   0.53405236   -3.8074866    246.43881  0.044164661  0.044054882           18 
  466000   0.52079852   -3.7966031    246.35782  0.044055405  0.043952733            7 
  467000   0.50676832   -3.7937216    246.76282  0.044033337  0.043850645           17 
  468000   0.51539333   -3.8141516     246.7125  0.043930288  0.043748894           11 
  469000   0.50467067   -3.8106518    246.34331  0.043771021  0.043646677           13 
  470000   0.51530085   -3.8031164    246.60353   0.04372403  0.043544313           24 
  471000   0.50918406   -3.8196492    246.16519  0.043553643  0.043441692           17 
  472000   0.50473948   -3.8048262     246.7074  0.043557097  0.043339183           13 
  473000   0.49903606   -3.8271905    246.19281  0.043374349  0.043236762           17 
  474000    0.5083731   -3.8020323    246.52568  0.043341364  0.043134762            8 
  475000   0.52325222   -3.8265216     245.2351  0.043023702  0.043032755           13 
  476000   0.50288816   -3.8183277    245.76268  0.043025679  0.042930725           10 
  477000   0.50565046   -3.8177855    245.73738  0.042931058  0.042828782           12 
  478000   0.49684155   -3.8223025     246.1092  0.042906067  0.042726944            7 
  479000   0.50338808   -3.8403713    246.67188  0.042914384  0.042625223           17 
  480000   0.50343463   -3.8300209     246.3993  0.042777656  0.042524226           14 
  481000   0.50070656   -3.8230061     246.4867  0.042703864  0.042423482           18 
  482000   0.50100878   -3.8476136    246.48092  0.042614266   0.04232243           19 
  483000    0.4907593   -3.8488954    246.29238  0.042493509  0.042221646           14 
  484000   0.49533136   -3.8621502    246.51899  0.042444729  0.042121296           22 
  485000   0.48959279   -3.8647031    246.04804  0.042276295  0.042020525           15 
  486000   0.48517466   -3.8515494    246.40908  0.042251214  0.041919986           28 
  487000   0.49633668   -3.8332429    246.61839  0.042200272  0.041819901           16 
  488000   0.48477234   -3.8552997    245.72464  0.041961174  0.041720131            7 
  489000    0.4775678   -3.8394303    246.12574  0.041943718  0.041620435           23 
  490000   0.47980806   -3.8638034    246.13336  0.041859414  0.041520738           13 
  491000   0.48151959   -3.8357389    245.73396  0.041706375   0.04142119           10 
  492000   0.47169223   -3.8734323    246.03924  0.041673313  0.041321601           26 
  493000   0.47883252   -3.8745889    246.33973  0.041639575  0.041222104           20 
  494000   0.47735686   -3.8573216    246.39691  0.041564931   0.04112319           14 
  495000   0.48534867   -3.8669687    246.17446  0.041443512  0.041024576           14 
  496000   0.48872174   -3.8890005    246.29807  0.041380723   0.04092592           32 
  497000   0.47173384   -3.8876131    246.65447  0.041357221  0.040827167           11 
  498000   0.47263196   -3.8868723    246.30854  0.041216288  0.040729126           12 
  499000   0.46926081   -3.8827779    246.30936  0.041133828  0.040631358           11 
  500000   0.47370761   -3.8971716     246.4574  0.041076233   0.04053334           47 
  501000   0.45011097   -3.8950462    246.60126  0.041018174  0.040435654           27 
  502000   0.47130544    -3.900286    246.42219  0.040906738  0.040337693           27 
  503000     0.458327   -3.9084639    246.56093  0.040848398  0.040239833           36 
  504000    0.4541932   -3.8948666    246.17974  0.040704322  0.040141909           15 
  505000   0.45530661   -3.8848751    246.28567    0.0406412  0.040044287           11 
  506000    0.4608204   -3.9130841    246.14196  0.040537213  0.039947169           14 
  507000   0.45779027   -3.9199237    245.90599  0.040418474  0.039850001           29 
  508000   0.46358921   -3.9175947    245.82405  0.040325467  0.039752876           25 
  509000   0.45927925   -3.9295079    246.10851  0.040292815   0.03965598           18 
  510000   0.45387247   -3.9259784    246.00757  0.040197316    0.0395594           21 
  511000   0.45157989   -3.9309257    245.59123  0.040050755  0.039462477           53 
  512000   0.44681705   -3.9353214    245.98565  0.040036727  0.039366133           14 
Loop time of 1216.47 on 48 procs for 500000 steps with 4000 atoms

Performance: 71025.442 tau/day, 411.027 timesteps/s
99.4% CPU use with 48 MPI tasks x no OpenMP threads

MPI task timing breakdown:
Section |  min time  |  avg time  |  max time  |%varavg| %total
---------------------------------------------------------------
Pair    | 78.672     | 84.015     | 88.19      |  27.2 |  6.91
Neigh   | 8.16       | 8.5316     | 8.9093     |   5.7 |  0.70
Comm    | 79.732     | 84.563     | 90.575     |  29.1 |  6.95
Output  | 0.87997    | 0.88054    | 0.88852    |   0.1 |  0.07
Modify  | 1024.7     | 1027       | 1028.9     |   3.2 | 84.42
Other   |            | 11.51      |            |       |  0.95

Nlocal:        83.3333 ave          90 max          76 min
Histogram: 2 0 8 2 5 16 5 6 1 3
Nghost:        2214.56 ave        2230 max        2195 min
Histogram: 1 2 3 8 3 7 9 6 7 2
Neighs:        14679.0 ave       15972 max       12806 min
Histogram: 2 0 3 6 8 5 6 9 3 6
FullNghs:      29358.5 ave       31825 max       26667 min
Histogram: 2 1 4 7 7 11 8 3 2 3

Total # of neighbors = 1409207
Ave neighs/atom = 352.30175
Neighbor list builds = 27123
Dangerous builds = 0

#clear
#
#next RN
#
#jump SELF
Total wall time: 0:20:19
