
units lj                  # Use reduced LJ style units
atom_style atomic         # Uncharged point particles
atom_modify map hash      # Needed for indexing of clusters etc
                          # Used to be able to find where atoms are in relation to each other.

lattice fcc 1.0 spacing 1 1 1
Lattice spacing in x,y,z = 1.5874011 1.5874011 1.5874011
region box block 0 10 0 10 0 10 units lattice
create_box 2 box
Created orthogonal box = (0.0000000 0.0000000 0.0000000) to (15.874011 15.874011 15.874011)
  3 by 4 by 4 MPI processor grid
create_atoms 1 box
Created 4000 atoms
  using lattice units in orthogonal box = (0.0000000 0.0000000 0.0000000) to (15.874011 15.874011 15.874011)
  create_atoms CPU = 0.037 seconds
set type 1 type/fraction 2 0.7 78393
Setting atom values ...
  2825 settings made for type/fraction
mass 1 1.0
mass 2 1.0
pair_style lj/cut  3.5
pair_modify tail  yes
pair_coeff 1  1  1.0  1.0   # Intearaction between 1 and 1 set with epsilon = 1 and sigma = 1
pair_coeff 1  2  1.5  0.8
pair_coeff 2  2  0.5  0.88

write_data data.0
System init for write_data ...
Neighbor list info ...
  update every 1 steps, delay 10 steps, check yes
  max neighbors/atom: 2000, page size: 100000
  master list distance cutoff = 3.8
  ghost atom cutoff = 3.8
  binsize = 1.9, bins = 9 9 9
  1 neighbor lists, perpetual/occasional/extra = 1 0 0
  (1) pair lj/cut, perpetual
      attributes: half, newton on
      pair build: half/bin/atomonly/newton
      stencil: half/bin/3d
      bin: standard
WARNING: Not all mixed pair coeffs generated from mixing. Use write_data with 'pair ij' option to store all pair coeffs. (../write_data.cpp:312)


#############################
#   M E L T   S Y S T E M   #
#############################

velocity all create 2.4 6583654 mom yes dist gaussian # Assign velocities
                                                    # Temperature 2.4, random number seed, zero linear momentum
                                                                                # Gaussian distribution

timestep 0.002   # simulation timestep
thermo 1000       # output thermodynamic data every 1000 steps bf 100

# Define a fix  in this case with index 1 applied to all
# particles in the simulation. This fix is for simulations
# in the anisotropic NPT ensemble. Note that we use the MTK
# correction.
fix 1 all npt temp 2.4 2.4 0.1 iso 5.68 5.68 0.5 mtk yes tchain 5 pchain 5 # Use NPT ensemble
                                                                         # Set temperature and pressure and damping
                                                                         # Numbers of thermostats in chain and in barostat
run 10000          # run for 10000 steps
Per MPI rank memory allocation (min/avg/max) = 3.642 | 3.644 | 3.648 Mbytes
Step Temp E_pair E_mol TotEng Press Volume 
       0          2.4   -4.1690742            0  -0.56997417    -3.744831         4000 
    1000    2.4388742   -3.7698131            0  -0.11241631    5.7143584    3662.8312 
    2000    2.4122519    -3.775912            0  -0.15843872    5.6009616    3669.1844 
    3000    2.4003578   -3.8242848            0  -0.22464815    5.6145863    3646.2125 
    4000     2.404816   -3.7736096            0  -0.16728745    5.5474073    3675.5529 
    5000    2.4182287   -3.6954925            0 -0.069056395    5.8589891    3699.0621 
    6000    2.4130275   -3.7629758            0  -0.14433947    5.8869123    3646.2362 
    7000    2.4183406   -3.8092746            0  -0.18267054    5.5896875    3662.9938 
    8000     2.396582   -3.8239157            0  -0.22994141     5.681929    3637.0671 
    9000    2.3884034   -3.8026945            0  -0.22098504    5.5295589    3671.1096 
   10000    2.3758925   -3.7611092            0  -0.19816135    5.2791637     3708.964 
Loop time of 2.63259 on 48 procs for 10000 steps with 4000 atoms

Performance: 656388.159 tau/day, 3798.543 timesteps/s
99.6% CPU use with 48 MPI tasks x no OpenMP threads

MPI task timing breakdown:
Section |  min time  |  avg time  |  max time  |%varavg| %total
---------------------------------------------------------------
Pair    | 1.2015     | 1.268      | 1.3644     |   2.8 | 48.17
Neigh   | 0.21799    | 0.22474    | 0.23304    |   0.6 |  8.54
Comm    | 0.77345    | 0.88113    | 0.9563     |   3.5 | 33.47
Output  | 0.00027303 | 0.00027744 | 0.00033908 |   0.0 |  0.01
Modify  | 0.22719    | 0.24261    | 0.25643    |   1.8 |  9.22
Other   |            | 0.0158     |            |       |  0.60

Nlocal:        83.3333 ave          92 max          73 min
Histogram: 1 1 2 7 9 10 7 7 3 1
Nghost:        1724.58 ave        1753 max        1700 min
Histogram: 5 3 6 6 10 2 5 5 5 1
Neighs:        10288.5 ave       11660 max        8888 min
Histogram: 2 2 6 5 8 9 8 3 2 3

Total # of neighbors = 493847
Ave neighs/atom = 123.46175
Neighbor list builds = 906
Dangerous builds = 199

# Equilibrate just above the melting temperature to avoid step fn in T

fix 1 all npt temp 1.25 1.25 0.1 iso 5.68 5.68 0.5 mtk yes tchain 5 pchain 5
run 2000
Per MPI rank memory allocation (min/avg/max) = 3.644 | 3.646 | 3.650 Mbytes
Step Temp E_pair E_mol TotEng Press Volume 
   10000    2.3758925   -3.7611092            0  -0.19816135    5.2791637     3708.964 
   11000    1.2450348   -5.5938448            0   -3.7267594    5.5928481    2791.7787 
   12000     1.286761   -5.6403851            0   -3.7107262    5.2415438    2791.8939 
Loop time of 0.66922 on 48 procs for 2000 steps with 4000 atoms

Performance: 516422.340 tau/day, 2988.555 timesteps/s
99.6% CPU use with 48 MPI tasks x no OpenMP threads

MPI task timing breakdown:
Section |  min time  |  avg time  |  max time  |%varavg| %total
---------------------------------------------------------------
Pair    | 0.2921     | 0.32822    | 0.36228    |   2.0 | 49.05
Neigh   | 0.04276    | 0.044691   | 0.048224   |   0.6 |  6.68
Comm    | 0.20957    | 0.24542    | 0.28762    |   2.7 | 36.67
Output  | 5.5474e-05 | 5.8892e-05 | 0.00015994 |   0.0 |  0.01
Modify  | 0.040384   | 0.045738   | 0.050842   |   1.5 |  6.83
Other   |            | 0.005097   |            |       |  0.76

Nlocal:        83.3333 ave          90 max          73 min
Histogram: 1 2 1 1 7 13 2 15 2 4
Nghost:        2097.83 ave        2112 max        2081 min
Histogram: 1 1 8 5 8 6 5 4 7 3
Neighs:        13676.5 ave       15481 max       11750 min
Histogram: 1 0 6 6 10 10 6 4 4 1

Total # of neighbors = 656471
Ave neighs/atom = 164.11775
Neighbor list builds = 144
Dangerous builds = 14

#############################
# L I N E A R  Q U E N C H  #
#############################

# Define solid atoms. This closely follows ten Wolde  Ruiz-Montero and Frenkel  Faraday Discuss  1996  104  93-110
# Compute components of the per-atom q6 vector
compute q6 all orientorder/atom degrees 1 6 components 6 nnn NULL cutoff 1.3 # compute the Q6 parameter.
                                                                             # Use all neighbours within 1.3 unit cell.

# get number of connections
compute coord_number all coord/atom orientorder q6 0.5

# An atom is solid if it has 8 or more connections (of a possible 14)
variable is_solid atom c_coord_number>=8
group solid dynamic all var is_solid    # Must be dynamic to update
dynamic group solid defined

# do clustering
compute cluster solid cluster/atom 1.3 # Create a cluster where all atoms within are solid and max 1.3 units from another member

# define chunks one chunk per cluster
compute clus_chunks solid chunk/atom c_cluster nchunk every compress yes  # Says which atoms are in which chunk

# count the size of each chunk
compute size_chunks solid property/chunk clus_chunks count


# Find the maximum entry in the vector of chunk sizes
variable max_n equal max(c_size_chunks)


# Thermo style which includes this variable
# thermo_style custom step temp pe vol v_max_n

thermo ${N}  # Print the thermo information every 100 steps
thermo 1000  

# Reset the npt fix at a lower temperature (below freezing)
fix 1  all npt temp  ${temp} ${temp}  0.1  iso  5.68  5.68  0.5  mtk yes tchain  5  pchain  5
fix 1  all npt temp  0.45 ${temp}  0.1  iso  5.68  5.68  0.5  mtk yes tchain  5  pchain  5
fix 1  all npt temp  0.45 0.45  0.1  iso  5.68  5.68  0.5  mtk yes tchain  5  pchain  5

dump dmp2 all dcd ${N} traj.dcd
dump dmp2 all dcd 1000 traj.dcd


compute msd all msd com yes
variable twopoint equal c_msd[4]/6/(step*dt+1.0e-6)
fix 9 all vector 10 c_msd[4]
variable fit equal slope(f_9)/6/(10*dt)
thermo_style custom step temp pe c_msd[4] v_twopoint v_fit v_max_n

fix 1 all npt temp 1.25 ${temp} 0.1 iso 5.68 5.68 0.5 mtk yes tchain 5 pchain 5
fix 1 all npt temp 1.25 0.45 0.1 iso 5.68 5.68 0.5 mtk yes tchain 5 pchain 5
run 5000000 # 5000000  # Run for this many steps
Neighbor list info ...
  update every 1 steps, delay 10 steps, check yes
  max neighbors/atom: 2000, page size: 100000
  master list distance cutoff = 3.8
  ghost atom cutoff = 3.8
  binsize = 1.9, bins = 8 8 8
  4 neighbor lists, perpetual/occasional/extra = 1 3 0
  (1) pair lj/cut, perpetual
      attributes: half, newton on
      pair build: half/bin/atomonly/newton
      stencil: half/bin/3d
      bin: standard
  (2) compute orientorder/atom, occasional
      attributes: full, newton on
      pair build: full/bin/atomonly
      stencil: full/bin/3d
      bin: standard
  (3) compute coord/atom, occasional
      attributes: full, newton on
      pair build: full/bin/atomonly
      stencil: full/bin/3d
      bin: standard
  (4) compute cluster/atom, occasional
      attributes: full, newton on
      pair build: full/bin/atomonly
      stencil: full/bin/3d
      bin: standard
Per MPI rank memory allocation (min/avg/max) = 9.845 | 9.850 | 9.855 Mbytes
Step Temp PotEng c_msd[4] v_twopoint v_fit v_max_n 
   12000     1.286761   -5.6403851 7.6342014e-31 5.3015285e-33 8.3333333e+20            2 
   13000    1.2564131   -5.6534702   0.60992316 0.0039097637  0.050829502            1 
   14000    1.2110533   -5.6088824    1.2083838 0.0071927605  0.050236853            1 
   15000     1.270382   -5.6504026    1.8153152  0.010085084  0.049861705            2 
   16000    1.2656864   -5.6117195    2.4433593  0.012725829  0.050474414            2 
   17000    1.2468532   -5.6580823    2.9917857  0.014665616   0.05031979            3 
   18000    1.2256144    -5.610285    3.5610611  0.016486393  0.049932747            4 
   19000     1.261716   -5.6366788    4.1492307   0.01819838  0.049327277            2 
   20000    1.2423452   -5.6072807    4.7822114   0.01992588  0.049284503            2 
   21000    1.2431665   -5.6164029     5.365053  0.021289892   0.04943144            3 
   22000    1.2080356   -5.6321874    5.9267924  0.022449971   0.04935269            2 
   23000    1.2583274   -5.6071513    6.6650156  0.024148607   0.04950397            2 
   24000    1.2515899   -5.6438809    7.3163728  0.025404072   0.05003744            4 
   25000    1.2597225   -5.6268151    7.8886565  0.026295521  0.050278443            1 
   26000    1.2325783   -5.6283913    8.4768201  0.027169295  0.050424897            4 
   27000     1.273459   -5.6676673    8.9721138  0.027691709  0.050349373            4 
   28000    1.2265201   -5.6131442    9.5605715  0.028454081  0.050231763            2 
   29000    1.2268016   -5.5811235    10.176813  0.029243715  0.050128238            2 
   30000    1.2684531   -5.6089713    10.925088  0.030347465   0.05016909            3 
   31000     1.266853   -5.6236831    11.556758  0.031066552  0.050303615            3 
   32000    1.2635907   -5.5851398    12.067517  0.031425825  0.050372958            2 
   33000     1.255229   -5.6281014    12.794474  0.032309278  0.050433076            4 
   34000    1.2520921   -5.6053799    13.343863  0.032705547  0.050513754            2 
   35000    1.2569556   -5.6530791    13.946776  0.033206608  0.050584888            2 
   36000    1.2474478   -5.6283716     14.55342  0.033688471    0.0506229            2 
   37000    1.2484557   -5.5952075    15.151208  0.034124343  0.050609381            2 
   38000    1.2575729    -5.609239    15.687242  0.034401845  0.050581799            1 
   39000    1.2279853   -5.6174542     16.15884  0.034527435  0.050530063            3 
   40000    1.2329473   -5.6191084    16.816368  0.035034099  0.050478362            1 
   41000     1.241535   -5.6518925    17.513726  0.035597003  0.050435603            2 
   42000    1.2342745   -5.6231619    18.065962  0.035845162  0.050401318            2 
   43000    1.2379762   -5.6365825    18.778319  0.036392091   0.05041413            4 
   44000     1.254046   -5.6316067    19.469416  0.036873894  0.050442329            1 
   45000    1.2399991   -5.6580144    20.073385  0.037172935  0.050494808            2 
   46000    1.2712846   -5.6688763    20.560202  0.037246743   0.05051976            2 
   47000     1.268521    -5.638882    21.356354  0.037865876  0.050559611            3 
   48000    1.2727565   -5.6148924    21.871636   0.03797159  0.050597008            1 
   49000    1.2496895   -5.7171287    22.434798  0.038154419  0.050607832            4 
   50000    1.2655345   -5.6248851     23.10108    0.0385018  0.050623683            1 
   51000    1.2288821   -5.6917276    23.666031  0.038669985  0.050650658            1 
   52000    1.2162376   -5.6303778    24.173543  0.038739653  0.050627248            2 
   53000    1.2794239   -5.6174421     24.60323  0.038684324  0.050554186            2 
   54000    1.2302758   -5.6777193    25.027188  0.038622204  0.050460533            2 
   55000    1.2654262   -5.5900502    25.678842  0.038907336  0.050357642            4 
   56000    1.2440423   -5.6346221     26.31043  0.039152425  0.050284994            1 
   57000    1.2231675   -5.6490742    26.844018   0.03924564  0.050215052            2 
   58000    1.2328123   -5.5858784     27.51688  0.039535747  0.050157081            4 
   59000    1.2717742   -5.6196796     28.24938  0.039900254  0.050124539            3 
   60000    1.2474022   -5.6605454    28.811927  0.040016565  0.050125355            2 
   61000    1.2517247   -5.6732186    29.472957  0.040263602   0.05010726            3 
   62000    1.2613963   -5.6406957    30.154708  0.040530521   0.05012015            2 
   63000    1.2492405   -5.6618028    30.640952  0.040530359  0.050118501            4 
   64000    1.2447625    -5.615628    31.310251  0.040768556  0.050109545            2 
   65000      1.25063   -5.6390402    31.885452  0.040878785  0.050095989            2 
   66000    1.2065321   -5.6320488    32.217573  0.040678753  0.050068734            2 
   67000    1.2529899   -5.6339073    32.830054  0.040833401  0.050023419            5 
   68000    1.2535907   -5.6566407    33.583254  0.041155948  0.050008829            1 
   69000    1.2492034    -5.660668    34.325947  0.041456458  0.050015185            3 
   70000    1.2458239   -5.6740766     35.23132  0.041942047  0.050044514            5 
   71000    1.2317664   -5.6149203    35.787728  0.042004375  0.050089338            2 
   72000    1.2202755   -5.6559781    36.376468  0.042102394  0.050133992            5 
   73000    1.2548962   -5.6406269    36.638059  0.041824269  0.050142865            1 
   74000    1.2337799   -5.6295175    37.239533  0.041936411  0.050131041            1 
   75000    1.2500291   -5.6395913    37.752825  0.041947583   0.05012576            2 
   76000    1.2666791   -5.6400195    38.452302  0.042162611  0.050120603            3 
   77000     1.236654   -5.6327517    38.996139  0.042203614  0.050117548            2 
   78000    1.2051208    -5.662052    39.446864  0.042144085  0.050091004            2 
   79000    1.2392989   -5.6485319    39.740391  0.041920244  0.050057432            2 
   80000    1.2344406   -5.6519174    40.471733  0.042158055  0.050019126            1 
   81000    1.2522846   -5.6804402    41.003863  0.042185044  0.049984534            2 
   82000    1.2356069   -5.6294216    41.661984  0.042339414  0.049942816            4 
   83000    1.2234569   -5.6385847    42.035898  0.042204717  0.049886701            2 
   84000    1.2425911   -5.6210508    42.765153  0.042425747  0.049837074            2 
   85000    1.2081545   -5.6444151    43.148566  0.042302516  0.049796291            8 
   86000    1.2413226   -5.6884085    43.810159  0.042451704  0.049752984            5 
   87000     1.228607   -5.6272181    44.723704  0.042838797  0.049719887            3 
   88000    1.2325797   -5.6224265    45.303464  0.042901007  0.049695412            2 
   89000    1.2284313   -5.6422799    45.773087  0.042858695   0.04967164            2 
   90000    1.2433692   -5.6790946    46.393339  0.042956796  0.049643242            4 
   91000    1.2535732   -5.6550292      46.7996  0.042856776  0.049616128            4 
   92000    1.2231912   -5.6951273    47.316799  0.042859419  0.049582994            4 
   93000    1.2377469   -5.6528824    48.172872  0.043165656  0.049548991            2 
   94000    1.2330392   -5.6426025    48.825304  0.043284844  0.049521562            3 
   95000    1.2143745   -5.6859182    49.327024  0.043269319  0.049504533            2 
   96000    1.2333041   -5.6599128    50.190751   0.04356836   0.04949912            2 
   97000    1.2409754    -5.650874    50.865174  0.043698603  0.049505603            1 
   98000    1.2302718   -5.6363527    51.625915  0.043899587  0.049508636            2 
   99000    1.2439285   -5.6837422    51.967848   0.04374398  0.049521817            3 
  100000    1.2434366      -5.6205    52.656279  0.043880232   0.04952982            2 
  101000    1.2659275   -5.6959479    53.324341  0.043996981  0.049536608            1 
  102000    1.2313249   -5.6936239    53.302844  0.043548075  0.049540087            3 
  103000    1.2297242   -5.6590507    54.165497  0.043823217  0.049536156            2 
  104000    1.2121657   -5.6217892    54.882057  0.043976007  0.049522246            2 
  105000    1.2480022    -5.633219    55.079988  0.043714276  0.049509954            1 
  106000    1.2335516   -5.6358392    55.816248  0.043880698  0.049495673            2 
  107000    1.2313398   -5.5982857    56.385116  0.043913642  0.049480417            2 
  108000    1.2277381   -5.6572689    57.239911  0.044166598  0.049464219            4 
  109000    1.2327393   -5.6935008    57.306181  0.043812065  0.049450019            2 
  110000    1.2463166   -5.6168907    58.375754  0.044224056  0.049437923            3 
  111000    1.2462539   -5.6517695    58.490858  0.043912056  0.049423302            2 
  112000    1.2129707   -5.6628574    59.135175  0.043999386  0.049401932            3 
  113000    1.2503512   -5.6803277     59.31459  0.043742323  0.049379679            3 
  114000    1.1910105   -5.6718487    59.988893   0.04385153  0.049351499            8 
  115000    1.2508791   -5.6552807    60.722498   0.04400181  0.049327304            3 
  116000    1.2072596   -5.6039202    61.331623  0.044060074  0.049305073            2 
  117000    1.2577834   -5.6384714    61.674618  0.043927791  0.049278565            3 
  118000    1.2211608   -5.6678701    62.379738  0.044053487  0.049248862            3 
  119000    1.2092058   -5.6574294    63.106918   0.04419252  0.049224532            2 
  120000    1.2216446   -5.6851788    63.464461  0.044072542  0.049201169            4 
  121000    1.2090824    -5.656697    64.030889  0.044098409  0.049173845            4 
  122000    1.1884521   -5.6469786     64.78727  0.044253599  0.049152842            3 
  123000    1.2286248   -5.6660268     65.20147  0.044174437  0.049131149            3 
  124000    1.2360264   -5.6937923    66.121279  0.044436343  0.049114834            3 
  125000    1.2450478   -5.6925378    66.567371  0.044378247  0.049096735            3 
  126000    1.2234539   -5.6889363    67.187795  0.044436372   0.04908096            5 
  127000    1.2059046   -5.6497146    67.631075  0.044377346  0.049067123            1 
  128000    1.2560138   -5.6935828    68.176218  0.044385558  0.049049208            1 
  129000    1.2125147   -5.6444656    69.073521  0.044621138  0.049032622            4 
  130000    1.2254007   -5.6663249    69.587835  0.044607587  0.049017826            5 
  131000    1.2549314     -5.65935    70.161216  0.044631817  0.049005953            2 
  132000    1.2074099   -5.6723524    70.743167   0.04466109  0.049000813            4 
  133000    1.2560488   -5.6815304     71.49239  0.044794731  0.048997535            3 
  134000    1.2269364   -5.6644012    72.101874  0.044839474  0.048996632            5 
  135000    1.2387474   -5.6798471    72.278138  0.044616134  0.048994879            1 
  136000    1.2025118   -5.7221301    72.945015    0.0446967  0.048987912            1 
  137000    1.2324831   -5.6855419    73.983297  0.045002005  0.048988296            5 
  138000    1.2086713   -5.6971606    74.506794  0.044992025  0.048992156            1 
  139000    1.2275688   -5.6806724    75.001734  0.044965068  0.048991017            2 
  140000    1.2270266   -5.6502528    75.862747  0.045156397   0.04899199            2 
  141000    1.2091584   -5.6774538    76.455254   0.04518632  0.048993011            4 
  142000     1.227101   -5.6910882    76.675244  0.044997209  0.048996477            2 
  143000    1.2136966    -5.668488    77.526923  0.045178859  0.048992168            2 
  144000    1.2053599   -5.6820225    77.828906  0.045039876  0.048992394            2 
  145000    1.2285515   -5.7118829    78.201901  0.044943621  0.048984449            2 
  146000    1.2433938   -5.6787751    78.514733  0.044814345   0.04897442            2 
  147000    1.2016689   -5.7014927    79.104053  0.044843568  0.048957953            1 
  148000    1.2533945   -5.6752143    79.888555  0.044982295  0.048945739            3 
  149000    1.2405603   -5.6642509    80.599014  0.045077748  0.048932346            2 
  150000    1.2131784   -5.6712714    81.210721  0.045117067  0.048922486            3 
  151000    1.2259997   -5.6529724    81.986154  0.045246222  0.048911613            3 
  152000    1.2285438   -5.6899991    82.137264  0.045031395  0.048906021            2 
  153000    1.2304843   -5.7109762      82.6957  0.045041231  0.048893485            7 
  154000     1.225703   -5.6293611    83.645751  0.045262852  0.048882965            2 
  155000     1.234656   -5.7222115    84.046027  0.045186036  0.048875306            3 
  156000    1.2177279   -5.6734206    84.784006  0.045290601   0.04887123            2 
  157000    1.2152571   -5.6546868    85.097802  0.045168684  0.048864276            1 
  158000    1.2051025   -5.6598624    85.499148  0.045094487  0.048856099            3 
  159000    1.2261384   -5.6779852    86.353115  0.045258446  0.048844542            2 
  160000    1.2460904    -5.695895    86.900993  0.045260934  0.048832488            2 
  161000    1.2715936   -5.6565552    87.765638  0.045427349  0.048829826            2 
  162000    1.2268489   -5.7080664    87.699839  0.045113086  0.048820015            2 
  163000    1.2098804   -5.6663799     88.40901   0.04519888  0.048802969            4 
  164000    1.2453924   -5.6525868    88.695537  0.045068871  0.048784457            3 
  165000     1.203072   -5.6818517    88.994329   0.04494663  0.048763203            2 
  166000    1.2430769    -5.678186    89.893563   0.04512729  0.048741372            4 
  167000    1.2374249   -5.6754718    90.361411  0.045090524  0.048723927            3 
  168000    1.2016748   -5.6601026    90.990343  0.045134098  0.048704085            2 
  169000    1.2388106   -5.6775059    91.304926  0.045022153   0.04868801            1 
  170000    1.2682264   -5.6975959    91.895414  0.045046772  0.048673763            3 
  171000    1.2302218   -5.6636211    92.366291  0.045012812  0.048658342            2 
  172000    1.2145353   -5.6420557    93.281722  0.045194633  0.048638237            2 
  173000    1.2407628   -5.6873065    93.481028  0.045029397  0.048619041            2 
  174000    1.2281107   -5.6691978    94.467932  0.045243263  0.048601595            2 
  175000    1.2105116   -5.6603173    94.785928  0.045136156   0.04858239            6 
  176000    1.2055238   -5.6851669    95.153833  0.045053898  0.048567496            6 
  177000    1.2269583     -5.67081    95.975298   0.04518611  0.048552621            3 
  178000    1.2059572   -5.6725669    96.267977  0.045069277  0.048531984            2 
  179000     1.216029   -5.6558726    96.958406  0.045138922  0.048513133            3 
  180000    1.2230649   -5.6648094    97.554128  0.045163948  0.048494618            4 
  181000    1.2040193   -5.6622098    98.317333  0.045265807  0.048478402            5 
  182000    1.2179771   -5.6560186    98.373383  0.045042758  0.048464887            2 
  183000    1.2303161   -5.6844364    99.317548   0.04522657  0.048449262            1 
  184000     1.218698   -5.7094508    99.353581  0.044997093  0.048434465            5 
  185000    1.2318561   -5.6740375    100.43056  0.045238991  0.048414283            4 
  186000    1.2024471   -5.7282021    100.11543  0.044854585  0.048396678            3 
  187000    1.2304246   -5.6869522    101.50383  0.045233437   0.04837837            2 
  188000    1.2106184    -5.677716    101.95855  0.045194391  0.048368927            2 
  189000    1.2050063   -5.6899347    102.52981  0.045207149  0.048355513            2 
  190000    1.2337807   -5.6894951    102.93372  0.045146368  0.048341002            3 
  191000    1.2117913   -5.6901345     103.4561  0.045137913  0.048326287            1 
  192000    1.2095046   -5.6482893    104.40236  0.045313525  0.048312348            1 
  193000    1.2157627   -5.6827211    104.95151  0.045315849  0.048296589            4 
  194000    1.1985606   -5.6561444    105.13667    0.0451618  0.048282258            1 
  195000    1.2046616   -5.6581261    106.02458   0.04530965   0.04826593            2 
  196000    1.2115547   -5.7260389    105.87086  0.045013119   0.04824929            3 
  197000    1.2214829   -5.6606204    106.93705  0.045235641  0.048228791            1 
  198000    1.2091231   -5.7287317    106.74517  0.044926418  0.048208795            1 
  199000    1.2307183   -5.6677733    107.74865  0.045120874  0.048190743            5 
  200000    1.2353027   -5.6765142     108.6195  0.045258125  0.048174344            2 
  201000    1.2196848   -5.6446367    109.34913   0.04533546   0.04815831            1 
  202000    1.2162553    -5.673158    109.67137  0.045243963  0.048143141            5 
  203000     1.234568   -5.6975316    109.78132  0.045066223  0.048124467            2 
  204000    1.2364479   -5.6575694    110.72547  0.045230994  0.048106351            2 
  205000    1.2208806   -5.7383741    110.94722  0.045100496  0.048087832            2 
  206000     1.221015   -5.6468484    112.10305  0.045349132  0.048072574            2 
  207000    1.2013438   -5.7012071    112.33263  0.045222475  0.048058419            1 
  208000    1.1998266   -5.6873964    112.93597  0.045246782  0.048042276            3 
  209000    1.2218185   -5.7058775    113.89456  0.045412504  0.048028571            1 
  210000    1.2068518   -5.6703001    113.80986  0.045162642  0.048016381            3 
  211000    1.1844119   -5.6735186    115.13931   0.04547366  0.048004601            3 
  212000     1.244977   -5.7206611     115.5091   0.04540452   0.04799812            4 
  213000    1.2021992   -5.6513278    116.33852  0.045515852  0.047991857            3 
  214000    1.2192303   -5.6850834    117.26857  0.045665329   0.04798558            3 
  215000    1.2184166   -5.7111929    117.00245  0.045349787  0.047978669            2 
  216000     1.205344   -5.7318688    117.80689  0.045450189  0.047968075            4 
  217000    1.2082724   -5.7248683    118.00677    0.0453175  0.047960838            3 
  218000    1.2235126   -5.6816973    119.43514  0.045655633  0.047955051            3 
  219000    1.2057858   -5.6820473    119.76712  0.045573485  0.047950999            2 
  220000    1.2152552   -5.6785112    119.87704   0.04540797   0.04794545            3 
  221000    1.2107109   -5.6932634    120.83557   0.04556394  0.047939774            2 
  222000    1.2329039   -5.6414717     121.7594  0.045705482   0.04793765            2 
  223000    1.2030133   -5.6907781    122.23956  0.045679956  0.047934756            2 
  224000     1.202124   -5.6743746    122.62892  0.045620877    0.0479259            3 
  225000    1.2112591   -5.7116669    122.01308  0.045190029  0.047914232            3 
  226000    1.2194705   -5.6683662    123.08426  0.045385053  0.047901263            5 
  227000    1.2032799   -5.7092531    123.48602  0.045332606  0.047887738            8 
  228000    1.1997198   -5.6723472    124.00188  0.045322326  0.047873512            3 
  229000    1.2261225    -5.709769    124.34742  0.045250151   0.04785811            2 
  230000     1.224002   -5.6716445    125.22532  0.045371493  0.047841764            2 
  231000     1.222964   -5.7191876    125.64852  0.045327749  0.047828788            2 
  232000    1.2296732   -5.6701626     126.3785  0.045394577  0.047815892            3 
  233000    1.2148025   -5.7159425    126.91168  0.045390443   0.04780369            2 
  234000    1.2241485   -5.7147397    127.19498  0.045297357  0.047787609            2 
  235000    1.2196819   -5.7207832     127.6953   0.04528202  0.047771483            1 
  236000    1.2199275    -5.734275    128.17421  0.045259254   0.04775569            4 
  237000    1.2096135   -5.7069166    128.83904  0.045302052  0.047737616            5 
  238000    1.2311876   -5.6968485    129.41613   0.04531377  0.047723738            3 
  239000    1.2246534   -5.6847656    130.15745  0.045382652  0.047714475            2 
  240000    1.2227722   -5.7096447    130.34867  0.045259955  0.047700839            2 
  241000    1.2310498    -5.654795    131.33055  0.045411672  0.047688417            6 
  242000    1.2107425   -5.7113711    131.56957  0.045306326  0.047678323            2 
  243000    1.2162959   -5.7314094    132.16058  0.045322559    0.0476653            1 
  244000    1.1974985    -5.725982    132.33793  0.045197381  0.047650276            3 
  245000    1.2216396   -5.6630496    133.16714  0.045294945   0.04763507            3 
  246000    1.2231132   -5.7022068    133.53754  0.045236294  0.047620838            3 
  247000    1.2195719    -5.651284    134.07846  0.045235649  0.047605408            3 
  248000      1.22459   -5.7298963    134.64661  0.045244157  0.047592166            3 
  249000    1.2044839   -5.7210918    135.66334  0.045402723  0.047578856            7 
  250000    1.2305009   -5.6630592    136.45155   0.04548385  0.047566032            2 
  251000    1.2106175   -5.7086844    136.87225  0.045442314  0.047558304            5 
  252000    1.2125237   -5.7097766    137.38189  0.045430518  0.047548698            2 
  253000    1.2061349   -5.7512578    137.61594  0.045328043   0.04753807            2 
  254000    1.1959065   -5.7325095    138.50549  0.045441435  0.047529058            6 
  255000    1.2379399   -5.6886961    138.84872  0.045375397  0.047519062            2 
  256000    1.2142788   -5.7317636    139.41484  0.045382435  0.047509762            2 
  257000    1.2074636   -5.7258735    140.08567   0.04542337  0.047499158            2 
  258000    1.2176161   -5.7251278    140.44392  0.045363022  0.047488653            3 
  259000    1.2254766   -5.7321194    141.36547  0.045484386  0.047480006            2 
  260000    1.2153728   -5.6839826       142.42  0.045647435  0.047473508            2 
  261000    1.2117818   -5.7094541     142.4551  0.045483748  0.047466958            5 
  262000    1.2174928   -5.7090792    143.58109  0.045668286  0.047462015            2 
  263000    1.2116744   -5.6939438    144.63699  0.045829212  0.047458795            3 
  264000    1.1911082    -5.742791    144.62019  0.045650311  0.047457378            4 
  265000    1.2028407    -5.695545    145.73861  0.045829752  0.047454489            4 
  266000    1.2106273   -5.7334418    145.51155  0.045586324   0.04745014            3 
  267000    1.2365489   -5.6946962    146.56086   0.04574309  0.047447296            4 
  268000    1.2028973   -5.7140116    146.51999  0.045559699  0.047443011            4 
  269000    1.2310775   -5.6622457    148.11454  0.045884307   0.04744186            4 
  270000    1.2398456    -5.733273    147.82018  0.045623514  0.047438288            5 
  271000      1.21729   -5.6787001    148.74135  0.045738424  0.047433712            1 
  272000    1.1930604   -5.7154646    149.11813  0.045685702  0.047430201            2 
  273000    1.2137574   -5.7074612     149.4324  0.045614284  0.047423369            5 
  274000    1.2081922   -5.7165302    149.90813  0.045592497  0.047417829            1 
  275000    1.1983786   -5.7272385    150.66381    0.0456557  0.047412711            3 
  276000    1.2012206   -5.7095976    151.09816  0.045621424  0.047405898            2 
  277000    1.2018317   -5.6634734    152.05228  0.045743767  0.047399692            2 
  278000     1.217139   -5.7265258    151.88399  0.045528774  0.047394644            2 
  279000    1.2177396   -5.7066911    152.54922  0.045564283  0.047387203            2 
  280000    1.1664263   -5.7320501    153.11108  0.045568774  0.047381119            2 
  281000    1.1923124   -5.6519781    153.45809  0.045509518  0.047375601            3 
  282000    1.1818699   -5.6960077    154.22271  0.045574088  0.047371655            3 
  283000    1.2100352   -5.6922433    155.37205  0.045751486  0.047365752            3 
  284000    1.2218658   -5.6585559    156.44579  0.045905456  0.047361218            4 
  285000    1.1942525   -5.7123831    156.18658  0.045668592     0.047357            3 
  286000    1.2229611   -5.7398486    156.30704  0.045544008  0.047351155            3 
  287000    1.1839134     -5.71451    156.33493  0.045393417  0.047343491            3 
  288000    1.2188353   -5.6932114    157.99939  0.045717416  0.047336341            5 
  289000    1.2021679   -5.7722514    156.95601  0.045258365  0.047328151            4 
  290000    1.1946704   -5.7202556    158.20655  0.045461651   0.04731829            2 
  291000     1.204576   -5.7284006    159.10291  0.045562115  0.047308156            6 
  292000    1.2291981   -5.7159499    159.48329  0.045514637  0.047299491            5 
  293000    1.1957591   -5.7099549    159.74722  0.045434364  0.047289284            2 
  294000    1.2042911   -5.7221108    160.37361  0.045457373  0.047278897            4 
  295000    1.2209464    -5.671331    161.36654  0.045583767  0.047268954            1 
  296000    1.1927046    -5.749126     161.2497  0.045396874  0.047259019            4 
  297000    1.2019264   -5.6933732    161.87488  0.045419439  0.047248271            2 
  298000     1.212729   -5.7258591    162.04004   0.04531321  0.047238301            1 
  299000    1.2228753   -5.7438211    162.63842  0.045328434  0.047226476            3 
  300000    1.2276268   -5.7463409    162.04094  0.045011372  0.047214379            3 
  301000    1.2025109   -5.7321963    163.21847  0.045187837  0.047200029            3 
  302000    1.2047027   -5.7348389    164.17929  0.045303335  0.047186251            2 
  303000    1.2018455   -5.7455306    164.38149   0.04520943  0.047172485            2 
  304000    1.2199094   -5.7351206     165.2102  0.045287884  0.047159595            4 
  305000    1.2141737   -5.7353575    165.50564  0.045220119  0.047147625            3 
  306000    1.1901794   -5.6944363    166.41744  0.045320654  0.047135666            3 
  307000    1.2035948   -5.7314101    166.61284  0.045226069  0.047125186            2 
  308000    1.1928278   -5.7182968    167.73086  0.045381727  0.047113586            2 
  309000    1.2003629   -5.7335929    168.55204  0.045456322  0.047104378            4 
  310000    1.1988588   -5.6908554    169.65512  0.045606216  0.047094857            4 
  311000    1.1741401   -5.7443206     169.0349  0.045293381  0.047086641            2 
  312000    1.1993936    -5.763318     169.6592  0.045314956   0.04707725            3 
  313000    1.2046656   -5.7389515    170.15726  0.045302785  0.047067551            3 
  314000    1.1854467   -5.7354577    170.52862  0.045257065  0.047057513            6 
  315000    1.1845793   -5.7737458    170.79581  0.045184077  0.047047561            4 
  316000     1.195144   -5.7067091    171.68443   0.04527543  0.047038018            6 
  317000    1.2155764   -5.7116704    171.97183  0.045208156   0.04702749            2 
  318000     1.192651   -5.7363585    173.07476   0.04535502  0.047017062            2 
  319000    1.2149362   -5.7534504     172.7396  0.045125286  0.047005464            2 
  320000    1.2384773   -5.7643231    173.13816  0.045088062  0.046992775            5 
  321000    1.1855871   -5.7373085    173.34159  0.045000413  0.046980683            5 
  322000    1.1965612   -5.7445523    174.74366  0.045223516  0.046969682            4 
  323000    1.2165249   -5.7373038    175.12409  0.045181652  0.046958144            3 
  324000    1.1912979   -5.7249062    176.32118  0.045350097  0.046947303            2 
  325000      1.20949   -5.7693614    176.57904  0.045276678   0.04693689            2 
  326000    1.1845232   -5.7128177      177.463  0.045363753  0.046926902            4 
  327000    1.2082627   -5.7307084    177.37428  0.045202417  0.046918304            3 
  328000    1.1959432   -5.7206303    177.96942  0.045215808  0.046908731            2 
  329000    1.2206206   -5.7464017    178.21815  0.045141374  0.046898245            3 
  330000    1.2086042   -5.7391385    178.83249  0.045159719  0.046886531            2 
  331000    1.2054685   -5.7384191    179.81191  0.045269867  0.046876276            1 
  332000    1.2192075    -5.779611    180.26564  0.045247399  0.046866089            5 
  333000     1.206735    -5.742296    180.71942   0.04522508  0.046858218            1 
  334000     1.194691   -5.7020569    181.63695    0.0453186  0.046849401            2 
  335000    1.1956036   -5.6978941    182.30576  0.045349691  0.046840433            2 
  336000    1.1979861   -5.7004561    182.35892  0.045227907  0.046831285            4 
  337000    1.1973853   -5.7224349    182.98978  0.045249699  0.046821087            2 
  338000    1.1787519   -5.7626874    182.93632  0.045102642  0.046810397            1 
  339000    1.1963051   -5.7405699    183.50172  0.045108585  0.046798233            3 
  340000     1.211016    -5.729687    184.09417  0.045121121  0.046785853            2 
  341000    1.1828383   -5.7082621    184.83468  0.045169765  0.046774569            3 
  342000    1.2142792     -5.70709    185.29446  0.045149722  0.046763605            4 
  343000    1.1700831   -5.7255029     185.9575  0.045179178  0.046752826            1 
  344000    1.2167509    -5.741184    186.33188  0.045138537  0.046742362            6 
  345000    1.1947873   -5.7132887    186.75716  0.045110425   0.04673137            3 
  346000     1.228445   -5.7841251    186.53229  0.044925888  0.046719113            2 
  347000    1.2044176   -5.7344073    187.25129  0.044969089  0.046706528            2 
  348000     1.210318   -5.7629674    187.61192  0.044926226  0.046693071            2 
  349000    1.1943575   -5.7547357    187.14231  0.044685365  0.046678596            3 
  350000    1.1868025   -5.7577568    188.49556  0.044879895   0.04666475            5 
  351000    1.1842131   -5.7382712    188.34701  0.044716763  0.046649819            3 
  352000    1.1784807    -5.726925    190.16879   0.04502102  0.046634652            1 
  353000    1.1832631   -5.7443739     189.9576  0.044843626  0.046620052            6 
  354000    1.1969067   -5.7717545    190.39258  0.044819344  0.046604895            8 
  355000    1.1989846   -5.7158158    191.79152  0.045021484   0.04659089            4 
  356000    1.2168998   -5.7514067    191.86748  0.044912799  0.046577899            3 
  357000    1.1863583    -5.733255    192.73217  0.044988835  0.046564698            3 
  358000     1.176923    -5.720146     193.4397  0.045027863  0.046551966            2 
  359000    1.1634941   -5.7549656    192.98493  0.044796873  0.046539369            4 
  360000    1.1865667   -5.7155272    194.21066  0.044956171   0.04652633            3 
  361000    1.2182653   -5.7589554    193.73561  0.044721978  0.046513233            2 
  362000    1.1810283   -5.7269261    195.22131  0.044940449  0.046498251            1 
  363000    1.2119962    -5.760566      195.042  0.044775481  0.046485497            2 
  364000    1.1932981   -5.7428768    195.07876  0.044660889  0.046470823            3 
  365000    1.1929396   -5.7084147    195.86566  0.044718186  0.046455732            2 
  366000      1.19116   -5.7595013    196.26104   0.04468603  0.046440567            6 
  367000    1.1837245   -5.7025815    197.53921  0.044854499  0.046425518            3 
  368000    1.2227253   -5.7317288    196.97877  0.044605701   0.04641085            3 
  369000    1.1998192   -5.7385994    197.52775  0.044608797  0.046393364            2 
  370000    1.1813125   -5.6692698    198.67399  0.044746395  0.046377958            2 
  371000    1.2087051   -5.7211233    199.56616  0.044826181  0.046364585            2 
  372000    1.1769956   -5.7196723    199.42962  0.044675094  0.046349259            3 
  373000    1.1809251   -5.7111376    200.66989  0.044832416  0.046335528            2 
  374000    1.2128634   -5.7987369    199.55451  0.044464018  0.046320716            2 
  375000    1.1843849   -5.7474981    200.73822  0.044608494  0.046306681            1 
  376000     1.198808   -5.7517739    201.31136   0.04461688  0.046291618            4 
  377000    1.1941429   -5.7566102    201.95241  0.044640232  0.046275958            3 
  378000    1.2030698   -5.7129999    202.40734  0.044622429  0.046260905            4 
  379000    1.1897232   -5.7552055    202.35872  0.044494002  0.046243285            2 
  380000     1.162087   -5.7354133    203.31239   0.04458605  0.046227336            3 
  381000    1.1976821    -5.789094    202.65548  0.044325345  0.046211836            2 
  382000    1.1936829    -5.751437     203.1306  0.044312958  0.046193386            2 
  383000    1.1950914   -5.7624374    203.94387  0.044374211  0.046176008            3 
  384000    1.1885083   -5.7553773    203.46224  0.044154131  0.046157195            3 
  385000    1.2131507   -5.7250488    205.39541   0.04445788  0.046138716            6 
  386000    1.1963131   -5.7588486    204.97016  0.044250898  0.046121212            5 
  387000    1.1979426   -5.7620608    205.28403  0.044204141  0.046103071            4 
  388000    1.1836612   -5.7427315    206.12994  0.044271894  0.046085529            1 
  389000    1.1922943   -5.7258348    207.02242  0.044349276  0.046068336            1 
  390000    1.1744752   -5.7451872    207.67474  0.044374944  0.046049058            2 
  391000    1.1697171   -5.7857324    206.98062  0.044113517  0.046029682            2 
  392000    1.1939807   -5.8083892    206.62784  0.043925987  0.046009631            5 
  393000    1.1914046   -5.7639942    208.51342  0.044214042  0.045991074            3 
  394000    1.1892188   -5.7365515    209.20604  0.044248317  0.045972579            3 
  395000     1.185549   -5.7164579    209.70052  0.044240615  0.045955396            1 
  396000    1.1923765   -5.7625019    209.65078  0.044118431  0.045937274            3 
  397000    1.1883873   -5.7289829    210.66965  0.044221169   0.04591918            2 
  398000    1.1972608   -5.7522283    210.02784  0.043975679  0.045900526            3 
  399000     1.200963   -5.7580861    210.62219  0.043989596  0.045882728            2 
  400000    1.1848789   -5.7666435    211.42298  0.044046454  0.045862581            2 
  401000     1.175485   -5.7397489    211.87499  0.044030546  0.045842442            2 
  402000    1.1786831   -5.7864085    212.48865  0.044048228  0.045823574            1 
  403000    1.1933208   -5.7491068    212.85496  0.044014674   0.04580622            2 
  404000    1.2000525   -5.7839662    213.23135  0.043983363   0.04578909            3 
  405000    1.2231969   -5.8029663    212.89094  0.043804721   0.04576914            2 
  406000    1.2030245   -5.7559069    214.18327  0.043962083  0.045748671            5 
  407000     1.172593   -5.8086354    214.55618  0.043930421  0.045729143            7 
  408000    1.2045999   -5.7834225    215.22974  0.043960323  0.045709259            2 
  409000    1.2046533   -5.7720468    215.93371  0.043996273  0.045689963            2 
  410000    1.1963819   -5.8117011    215.83299  0.043868493  0.045669971            2 
  411000    1.1639362   -5.7655522    216.99799  0.043997971  0.045650113            2 
  412000    1.1879219   -5.7733754    216.73114  0.043837205  0.045630002            2 
  413000    1.1596264   -5.7617289    216.80672  0.043746312  0.045610859            3 
  414000    1.2017637   -5.8020343    217.11781  0.043703263  0.045590909            3 
  415000    1.2097568   -5.7528469     219.0497  0.043985884  0.045571072            3 
  416000    1.1893799   -5.7902342    218.00478  0.043670829  0.045551082            2 
  417000     1.208942   -5.7893513    219.10621  0.043786213  0.045531626            6 
  418000    1.1674669   -5.8030563    219.39453  0.043738941  0.045511381            4 
  419000    1.2178012   -5.7563438    220.08626  0.043772129  0.045492139            5 
  420000     1.201383   -5.7709764    220.73251  0.043796133   0.04547245            5 
  421000     1.168403   -5.7389337    221.45344  0.043834807  0.045453403            5 
  422000    1.1951129    -5.740033    221.67639  0.043774959  0.045435386            2 
  423000    1.2001504   -5.7531811    221.37539  0.043612173  0.045416296            1 
  424000    1.1936414   -5.7352962     222.4646  0.043723388  0.045396715            4 
  425000    1.1813345   -5.7795289    222.63654  0.043654224  0.045376329            3 
  426000    1.1947425   -5.7748577    222.78183   0.04358017  0.045356437            2 
  427000    1.1968253   -5.7712369     223.2298  0.043565536  0.045337403            6 
  428000    1.1950041   -5.7574662    223.98182  0.043610167  0.045318648            2 
  429000    1.1822988   -5.7748307    224.27252  0.043564981  0.045299468            2 
  430000    1.1985981   -5.7509083     225.4421  0.043690329  0.045280521            5 
  431000    1.1832999   -5.7708416     226.2441  0.043744026  0.045262676            3 
  432000    1.1981703   -5.7529475    226.65013   0.04372109  0.045244476            3 
  433000    1.1595999   -5.7591859    226.57009  0.043604713  0.045226864            3 
  434000    1.1727675   -5.7708699    227.11128  0.043608157  0.045208768            4 
  435000    1.1753709   -5.7396257    227.69055   0.04361888  0.045190515            2 
  436000     1.169898   -5.8011934    227.82815  0.043545136  0.045171244            2 
  437000    1.1898894   -5.7752439    228.26529   0.04352885  0.045152309            1 
  438000    1.1955952   -5.7662375    228.92415  0.043554823  0.045133896            3 
  439000    1.1584784   -5.7771853     229.1743  0.043503095  0.045115312            3 
  440000    1.1905161   -5.7852413    229.07647  0.043385695  0.045095918            5 
  441000    1.1909709   -5.7620995    229.07861  0.043287718  0.045077414            6 
  442000    1.1718438   -5.7775844    230.31089  0.043422113  0.045057746            2 
  443000    1.1967319   -5.7374108    230.98677  0.043451235  0.045038773            2 
  444000    1.1767649    -5.779888    231.24224  0.043401322  0.045020697            5 
  445000    1.2033471    -5.790356    232.07872  0.043460434  0.045002947            3 
  446000    1.2161126   -5.7534917    232.78987  0.043495866   0.04498554            3 
  447000     1.193541   -5.7851257    232.50608  0.043345652  0.044967843            3 
  448000     1.206511   -5.7744341     233.7568  0.043481548  0.044950089            3 
  449000    1.1933922   -5.7655138    234.30731  0.043486881  0.044933819            2 
  450000    1.1805903   -5.7676543    234.85485  0.043491638  0.044915899            3 
  451000    1.1861032   -5.7855403    235.66795  0.043545446  0.044898725            8 
  452000    1.1499521   -5.7887236    235.53208  0.043424056  0.044881037            3 
  453000     1.178488   -5.7747003    236.76054  0.043554183  0.044864472            3 
  454000    1.1908453   -5.7693229    237.77865  0.043645126  0.044848511            3 
  455000    1.1806772   -5.8000905    237.38988     0.043478  0.044831203            3 
  456000    1.1664363   -5.7852303    238.20941  0.043532421  0.044815784            2 
  457000    1.1653515   -5.7497251    239.42808  0.043659387  0.044800681            5 
  458000    1.1837127   -5.8013959    238.30779  0.043360224  0.044785367            5 
  459000    1.2008935   -5.7726715    239.92366  0.043559125  0.044769567            4 
  460000    1.1713426   -5.7823096     239.8544  0.043451885  0.044754178            2 
  461000    1.1880446   -5.7982465    240.77428  0.043523912  0.044738273            4 
  462000    1.1840653   -5.7769526    239.66435  0.043229501  0.044722155            2 
  463000    1.1833883   -5.7779924    241.45267  0.043458004  0.044706516            2 
  464000    1.1718288   -5.7860905     240.8774  0.043261027  0.044689942            3 
  465000    1.1901704   -5.8124659    240.61188  0.043120409   0.04467318            5 
  466000    1.1886317   -5.7763022    242.39293  0.043346375  0.044656627            4 
  467000    1.1752195   -5.8066504    242.72844  0.043313427  0.044640441            3 
  468000    1.1822908   -5.7760926    243.94819  0.043438068  0.044624114            2 
  469000     1.157397   -5.7887001    244.16528  0.043384023  0.044607829            3 
  470000    1.1823105   -5.7827524    244.03231   0.04326814   0.04459139            5 
  471000    1.1593071   -5.7361928    245.36309  0.043411729  0.044575159            2 
  472000    1.1664689   -5.8007041    245.23059  0.043296362  0.044559336            3 
  473000    1.1456467   -5.8264605    245.28382  0.043214203  0.044542997            4 
  474000    1.1582339   -5.7593313    245.76897  0.043208328   0.04452617            2 
  475000    1.1793754   -5.7645545    246.99783  0.043332952  0.044510103            3 
  476000    1.1649669   -5.8227147    245.83598  0.043038512  0.044493476            2 
  477000    1.1675776   -5.7594191    247.01478  0.043154224  0.044477208            4 
  478000    1.1733936   -5.7440725    246.81174  0.043028545   0.04446134            2 
  479000    1.1731262   -5.7743806    246.94285  0.042961526  0.044443905            2 
  480000    1.1708513   -5.7742396    248.64111  0.043166859  0.044426851            1 
  481000    1.1660287   -5.7617093    249.19734  0.043173482  0.044409764            5 
  482000    1.1611543   -5.7541438     249.0494  0.043058334  0.044393449            3 
  483000    1.1693481   -5.7648057    250.97525  0.043301458  0.044376585            3 
  484000    1.1985941    -5.762716    250.24412  0.043086109  0.044360279            5 
  485000    1.1598074   -5.7716513    250.94523  0.043117738  0.044344001            2 
  486000    1.1596973   -5.7693956    251.53385  0.043129947  0.044328603            2 
  487000    1.1785441    -5.773127    253.18816  0.043324463  0.044313449            1 
  488000    1.1774463   -5.8070333    252.35778  0.043093882  0.044298493            3 
  489000    1.1615472   -5.8138902    253.36126  0.043176766   0.04428364            4 
  490000    1.1613857   -5.7930204    253.87079  0.043175304  0.044269546            4 
  491000    1.1776664   -5.7838721    254.81758  0.043248062  0.044255536            7 
  492000    1.1772685   -5.7717098    255.20007  0.043224943  0.044241929            2 
  493000    1.1669369   -5.8536522    254.59884  0.043035639  0.044228821            2 
  494000    1.1768554   -5.8045545    256.12382  0.043205772  0.044215654            3 
  495000    1.1858334   -5.7940351    257.42581  0.043337678  0.044202334            2 
  496000    1.1728399   -5.8208096     256.1281  0.043032275  0.044190129            3 
  497000    1.1762643   -5.7837234    257.73359  0.043214888  0.044177651            4 
  498000    1.1543146   -5.7663345    258.62072   0.04327656  0.044165559            2 
  499000    1.1583777   -5.7836764    257.60392  0.043020026  0.044153667            6 
  500000     1.178835   -5.7814629     260.5577  0.043426283  0.044141954            4 
  501000    1.1848503   -5.8256235    259.82983  0.043218534  0.044129751            5 
  502000    1.1596397   -5.7785455    260.71289  0.043279032  0.044118931            3 
  503000    1.1704314   -5.7716797    261.16464  0.043267832  0.044107587            2 
  504000    1.1724025   -5.7862924    261.45345  0.043229737  0.044097682            1 
  505000    1.1908769   -5.8082003    262.68237  0.043346926  0.044087277            2 
  506000    1.1656251   -5.7595314    264.21456  0.043513597  0.044077706            2 
  507000    1.1626741   -5.8136743     264.4571  0.043467637  0.044068681            2 
  508000     1.182376   -5.7676963    264.99605  0.043470481  0.044061126            2 
  509000    1.1806617   -5.7855015     266.0626  0.043559692  0.044054063            2 
  510000    1.1712976    -5.759714    266.55642  0.043554971  0.044046093            2 
  511000    1.1870742   -5.7739746    266.26681  0.043422507  0.044038382            3 
  512000     1.163888   -5.8215531    266.87251  0.043436281  0.044030293            3 
  513000    1.1897796   -5.7959151     267.3889  0.043435494  0.044021805            2 
  514000    1.1504956   -5.8026234    267.63123  0.043390277  0.044012967            4 
  515000    1.1645605   -5.8210782    267.78007  0.043330108  0.044004956            3 
  516000    1.1704616   -5.8103756    269.11537  0.043461785  0.043996568            5 
  517000    1.1603243   -5.7878864    270.08746  0.043534407  0.043987318            2 
  518000    1.1797187   -5.8194226    269.82657  0.043408393   0.04398009            4 
  519000    1.1799018    -5.811916    270.88182   0.04349419  0.043973621            2 
  520000    1.1907402   -5.8110572    272.18986  0.043620169  0.043966999            3 
  521000    1.1500584   -5.7963301    272.46374  0.043580253  0.043960995            3 
  522000    1.1707155    -5.783266    273.85043   0.04371814  0.043955592            3 
  523000    1.1834745   -5.8021008     272.9566  0.043492128  0.043949008            3 
  524000    1.1904467   -5.7850038    273.87745  0.043555573  0.043942653            2 
  525000    1.1683498    -5.781092    274.68149  0.043600237  0.043936065            2 
  526000    1.1648382   -5.8120514     274.3692  0.043467871  0.043927986            2 
  527000    1.1620062     -5.79821    275.36691  0.043543155  0.043921638            2 
  528000    1.1716785    -5.807568    275.35691  0.043459108  0.043915652            2 
  529000    1.1803038   -5.8044981    275.46222  0.043393544  0.043909043            2 
  530000    1.1518449   -5.7495191    277.50985  0.043633624  0.043903013            2 
  531000    1.1584036   -5.8250858    275.68177  0.043264559  0.043896104            1 
  532000    1.1719573   -5.7935368     276.9885  0.043387923  0.043888787            2 
  533000    1.1914955   -5.7671702    278.11358  0.043482423  0.043880997            2 
  534000    1.1400184    -5.741402    278.49061  0.043459833  0.043873409            2 
  535000    1.1593474   -5.8381521    277.29553  0.043192449  0.043865068            2 
  536000    1.1512152   -5.7957006    279.23906  0.043414033  0.043856126            2 
  537000    1.1727145   -5.7955107    277.99771   0.04314055  0.043847607            2 
  538000    1.1658874   -5.7909599     279.1606  0.043240489  0.043838471            2 
  539000    1.1624062   -5.7723902    279.03968   0.04314157  0.043829495            2 
  540000    1.1523754   -5.8411464    279.19949   0.04308634  0.043819682            4 
  541000    1.1650397     -5.80268    280.51706  0.043209652  0.043809733            2 
  542000    1.1567925   -5.7970022    280.38622  0.043109813  0.043800307            3 
  543000    1.1628527   -5.8012369     281.4414  0.043192357  0.043790357            3 
  544000    1.1769876   -5.8096988    280.11793  0.042910222  0.043779875            2 
  545000    1.1785857   -5.8091811    281.07762   0.04297823  0.043768986            2 
  546000    1.1342786   -5.8090276     281.4085  0.042950015   0.04375737            2 
  547000    1.1704255   -5.8148576    281.96433  0.042956174  0.043747375            2 
  548000    1.1755312   -5.8204363    283.19349  0.043064704  0.043736594            2 
  549000    1.1518655   -5.8007905    283.15197  0.042979959  0.043726225            2 
  550000    1.1520545   -5.7926478    285.07436  0.043193085  0.043716317            3 
  551000    1.1671334   -5.8382485    284.97338  0.043099423  0.043706556            2 
  552000    1.1911025   -5.8264305    284.12423  0.042893151  0.043697066            3 
  553000    1.1715173   -5.7785706    286.30263  0.043143856  0.043687753            2 
  554000    1.1748132   -5.7902077    285.83884  0.042996216  0.043678543            2 
  555000    1.1809603   -5.7858324    287.08893  0.043106446  0.043669012            3 
  556000    1.1546031   -5.8510535    285.62495  0.042809495  0.043658635            3 
  557000    1.1709441   -5.8095374    286.38423  0.042846235   0.04364793            3 
  558000    1.1738815   -5.7685544    288.49908  0.043085286  0.043638635            2 
  559000    1.1493854   -5.8352415    288.54676  0.043015319  0.043629127            5 
  560000    1.1649867    -5.789292    289.07589  0.043017246  0.043619278            5 
  561000    1.1684455   -5.8098455    289.24023  0.042964978   0.04361006            6 
  562000     1.169322   -5.8118024    289.09326  0.042866735  0.043600672            4 
  563000    1.1674831   -5.8096629    291.31999  0.043120187  0.043591979            2 
  564000    1.1759028   -5.8250257    290.09227  0.042862333  0.043582937            4 
  565000    1.1498993   -5.8062739    291.78463  0.043036081  0.043573855            5 
  566000    1.1748197   -5.8419648    291.57986  0.042929897  0.043564706            2 
  567000    1.1502749   -5.7962351    292.64755  0.043011103  0.043555476            2 
  568000    1.1722724    -5.806875     291.9752  0.042836737  0.043545903            2 
  569000     1.182232    -5.846461    293.59729  0.042999017   0.04353659            2 
  570000    1.1601666   -5.7853666    293.94873   0.04297496  0.043526901            4 
  571000    1.1543349   -5.8337006     293.6003  0.042848846  0.043517717            2 
  572000    1.1612713   -5.8140787      294.605  0.042920309  0.043508301            5 
  573000    1.1925209   -5.8064996    295.35527  0.042954518  0.043498954            1 
  574000    1.1373451   -5.7916977    296.16816    0.0429977   0.04348981            2 
  575000    1.1722742   -5.8435522    295.37631  0.042808161  0.043480303            1 
  576000    1.1503364    -5.814034    296.93281   0.04295903  0.043471035            2 
  577000    1.1481704   -5.8140246    297.09546  0.042908068  0.043461359            3 
  578000    1.1429152   -5.8204468    296.89486   0.04280491  0.043451598            8 
  579000    1.1610788   -5.8624506    297.63679  0.042837765  0.043441329            4 
  580000    1.1683672   -5.8564335    297.88748  0.042799925  0.043431064            1 
  581000    1.1574172   -5.8292869    298.10964  0.042758124   0.04342127            4 
  582000     1.176364   -5.7986264    300.27698  0.042994985  0.043413049            4 
  583000    1.1584317   -5.7974278    300.61554  0.042969631  0.043405272            2 
  584000    1.1881574   -5.8204691    300.39792     0.042865   0.04339686            4 
  585000     1.135733   -5.8429774    299.43778  0.042654954  0.043387144            4 
  586000    1.1787331    -5.798696    301.56766  0.042885048  0.043377868            5 
  587000    1.1781798   -5.8365368    300.99012      0.04273   0.04336841            2 
  588000    1.1672543     -5.82495    301.84981  0.042779168  0.043358656            3 
  589000    1.1631312   -5.8542771    302.24811   0.04276289  0.043349166            3 
  590000    1.1740403   -5.8692864    300.38387  0.042427101  0.043339248            5 
  591000    1.1551817    -5.810393    304.15247  0.042886699  0.043329197            6 
  592000    1.1815088    -5.848433    303.02453   0.04265548  0.043320075            8 
  593000    1.1571668   -5.7905253    304.38356   0.04277453  0.043310677            2 
  594000    1.1678074    -5.839575    303.41616  0.042566802  0.043300974            8 
  595000    1.1505152   -5.8490782    304.78425   0.04268687  0.043290791            3 
  596000    1.1644815    -5.863945    303.86304  0.042486443  0.043280521            2 
  597000      1.14825   -5.8777565    304.61281  0.042519934  0.043269293            4 
  598000    1.1472587   -5.8347874    305.14647  0.042523199  0.043257834            3 
  599000    1.1370671   -5.8506611    305.73062  0.042533475  0.043246871            2 
  600000    1.1300049   -5.7926773    307.14887  0.042659565  0.043236828            2 
  601000    1.1561942   -5.8392375    307.18658  0.042593813  0.043226856            3 
  602000    1.1428108   -5.8510209    306.91087  0.042484893  0.043216519            2 
  603000    1.1294168   -5.8323108    308.46124  0.042628696  0.043206693            4 
  604000     1.159381   -5.8163704    309.05813  0.042640471  0.043196788            4 
  605000    1.1729109     -5.80987    309.13367  0.042580395  0.043187055            4 
  606000    1.1484402   -5.8218202    309.90874  0.042616714   0.04317808            2 
  607000    1.1405162    -5.832781    310.87493   0.04267915   0.04316852            1 
  608000    1.1563299   -5.8077687    310.93035  0.042616549  0.043159507            2 
  609000    1.1586993     -5.80101    311.95722  0.042687086  0.043150217            6 
  610000    1.1543242    -5.840157    312.04836  0.042629557  0.043141127            5 
  611000    1.1346103   -5.8242264    311.78183  0.042523436  0.043132763            3 
  612000    1.1377234   -5.8444081    312.79227   0.04259154   0.04312391            2 
  613000    1.1773326   -5.8509477    313.26202   0.04258592  0.043115222            2 
  614000    1.1662432    -5.824343    314.90485  0.042739529  0.043107297            3 
  615000    1.1692065   -5.8524988    315.05778  0.042690756    0.0430996            3 
  616000    1.1401874   -5.8562678    315.01078  0.042615095  0.043090848            3 
  617000    1.1454419   -5.8326193    315.66304  0.042634123  0.043082144            3 
  618000    1.1568154   -5.7977568    315.47628  0.042539951  0.043073626            2 
  619000    1.1795924   -5.8527637    315.91339  0.042530073  0.043065242            3 
  620000    1.1547676   -5.8306698    317.14477  0.042626986  0.043056393            5 
  621000    1.1567049   -5.8334118    316.74853   0.04250517  0.043048049            1 
  622000    1.1626688    -5.863983    317.55367  0.042544704  0.043039098           13 
  623000    1.1438204   -5.8278002    317.41781  0.042458241  0.043030328            2 
  624000    1.1203034   -5.8420078    317.94862  0.042461087    0.0430222            2 
  625000    1.1510194   -5.8094581    318.41655   0.04245554   0.04301304            2 
  626000    1.1652322   -5.8491509    320.03296  0.042602897   0.04300442            3 
  627000     1.138093   -5.8627055    319.46542  0.042459519  0.042995395            2 
  628000    1.1656116   -5.8868099    319.40104  0.042383365  0.042985977            3 
  629000    1.1376259   -5.8387084     321.7097  0.042621847  0.042976667            4 
  630000    1.1380523   -5.8058861     322.4378  0.042650502  0.042968206            2 
  631000    1.1856394   -5.8839405    320.42729  0.042317392  0.042959366            2 
  632000    1.1349622   -5.8730356    321.16243  0.042347367  0.042950418            5 
  633000    1.1659894   -5.8919839    321.92874   0.04238135   0.04294074            6 
  634000    1.1804838   -5.8571319    322.69072  0.042414658  0.042931783            3 
  635000    1.1504774    -5.862471    322.21962   0.04228604  0.042923122            2 
  636000    1.1537429    -5.807822    324.75188  0.042551347  0.042914935            2 
  637000    1.1313133   -5.8262321    324.49701  0.042451205  0.042906687            3 
  638000    1.1442406    -5.853579    325.25902  0.042484197    0.0428984            5 
  639000    1.1587255   -5.8629262    326.21252   0.04254206  0.042889842            2 
  640000    1.1745404    -5.815888    327.44007  0.042635426   0.04288197            3 
  641000    1.1456386    -5.810327    327.97541  0.042638509  0.042874477            2 
  642000    1.1549909   -5.8320666    328.35577  0.042621465  0.042867473            2 
  643000    1.1603744   -5.8351288    327.63128  0.042461286  0.042859246            2 
  644000    1.1280199   -5.8604951    328.54447  0.042513519  0.042851351            4 
  645000    1.1569482   -5.8457343    328.73925  0.042472772  0.042843016            3 
  646000    1.1595458   -5.8576525    328.05926  0.042319306  0.042835278            2 
  647000    1.1445412   -5.8232189    330.41603  0.042557448   0.04282673            1 
  648000    1.1497851   -5.8332896    328.83201  0.042288068  0.042817998            3 
  649000    1.1430384   -5.8022393    331.14051  0.042519326  0.042809616            2 
  650000    1.1688034   -5.8711643    329.94387  0.042300496  0.042800754            3 
  651000    1.1476679   -5.8277588    330.64726  0.042325558  0.042791661            3 
  652000    1.1496436   -5.8513424    331.49772  0.042369341  0.042783256            4 
  653000    1.1252604   -5.8453198    333.04331  0.042501698   0.04277501            1 
  654000    1.1472851   -5.8771243    331.30492  0.042215204  0.042766833            3 
  655000    1.1466971   -5.8192041    333.08602  0.042377357  0.042758216            4 
  656000    1.1294028   -5.8641866    333.18203  0.042324952   0.04275027            4 
  657000    1.1392683   -5.8746252    333.30313  0.042275892  0.042742202            1 
  658000    1.1362653    -5.855021    334.72814  0.042392114  0.042734772            3 
  659000    1.1430826   -5.8806722    333.90349  0.042223507  0.042727864            3 
  660000    1.1766952   -5.8564133    336.62032  0.042502565  0.042719995            2 
  661000    1.1231759   -5.8812225    336.05391  0.042366857   0.04271305            3 
  662000    1.1333388   -5.8641089    336.40935  0.042347602  0.042705362            5 
  663000    1.1464395   -5.8581711    337.45578  0.042415256  0.042698418            3 
  664000    1.1633001   -5.8744631    337.23927  0.042324205  0.042690293            4 
  665000    1.1445911   -5.8362753    338.05909  0.042363295  0.042682653            2 
  666000    1.1458118    -5.834664    339.04646  0.042423231  0.042675459            2 
  667000    1.1576436   -5.8675366    338.29343  0.042265546  0.042667584            3 
  668000    1.1488226   -5.8332312    338.97476  0.042287271  0.042659754            4 
  669000    1.1534328   -5.7781887    339.54639  0.042295265  0.042652227            4 
  670000     1.152805   -5.8323316    339.75745  0.042258389  0.042644442            4 
  671000    1.1442014   -5.7668962    341.67999  0.042434176  0.042636652            5 
  672000    1.1393893   -5.8897632    339.44928  0.042094405    0.0426291            3 
  673000    1.1453693   -5.8262047    341.29256  0.042260099  0.042620971            8 
  674000    1.1158234   -5.8624952    340.91899  0.042151211  0.042612645            3 
  675000    1.1101358    -5.826477    342.23465  0.042251191  0.042604096            6 
  676000    1.1469975   -5.8789938    341.04494  0.042042029  0.042596061            2 
  677000    1.1647669   -5.8745239    342.29983  0.042134396  0.042587346            2 
  678000    1.1328145   -5.8814147    341.77042  0.042007181  0.042578679            5 
  679000     1.126599   -5.8243598    343.06137  0.042103752  0.042570542            4 
  680000    1.1241915   -5.8588887    344.69523  0.042242062   0.04256237            3 
  681000    1.1540058   -5.8529157    344.37575  0.042140938  0.042554322            2 
  682000     1.186588   -5.8355047    345.09936  0.042167566   0.04254548            2 
  683000    1.1372794   -5.8329572    344.11615  0.041985865   0.04253621            2 
  684000    1.1301345   -5.9002115    343.65646  0.041868477  0.042526834            1 
  685000    1.1568892   -5.8169366     344.5619  0.041917506   0.04251715            3 
  686000    1.1254352   -5.8823634    346.37146  0.042076222   0.04250807            2 
  687000    1.1229986   -5.8615454     345.7525  0.041939896   0.04249866            3 
  688000    1.1097514   -5.8442584    346.23211  0.041937029  0.042489491            2 
  689000    1.1471317     -5.87633     346.4034   0.04189688   0.04247995            5 
  690000    1.1336793   -5.9009256     347.5067  0.041969408  0.042470179            4 
  691000    1.1274776   -5.8481522    347.67174  0.041928575  0.042460168            3 
  692000     1.134699    -5.847625    348.53201  0.041971581  0.042450843            3 
  693000     1.137211   -5.8679639    348.34581  0.041888625  0.042441576            5 
  694000    1.1735583   -5.8687249    349.78837  0.042001485  0.042432391            2 
  695000    1.1226352   -5.8642024    350.03601  0.041970745  0.042423426            3 
  696000    1.1692099   -5.9311031    349.02708  0.041789641  0.042413769            5 
  697000    1.1507238   -5.8413947     350.2442  0.041875203  0.042404068            5 
  698000    1.1489221   -5.8581472    352.14226  0.042041817  0.042394766            3 
  699000    1.1463984   -5.8577346    352.49126  0.042023279  0.042386062            3 
  700000    1.1416674   -5.8406771    353.52785  0.042086649   0.04237767            3 
  701000    1.1430488   -5.9014599    353.02533  0.041966872  0.042369055            2 
  702000    1.1532595    -5.900524    353.19293  0.041926986  0.042359742            4 
  703000    1.1442011    -5.880338    353.50449  0.041904278  0.042350867            2 
  704000     1.115506   -5.9058716    353.09022  0.041795718   0.04234163            4 
  705000    1.1410049   -5.8605892    354.37981  0.041888867  0.042331982            2 
  706000     1.127972   -5.8640013    354.72383  0.041870141  0.042323061            3 
  707000    1.1287728   -5.8425885    356.43832  0.042013003  0.042314506            4 
  708000    1.1512585   -5.8771235       355.83  0.041882062  0.042305588            3 
  709000    1.1518199   -5.8835153    355.09491   0.04173659  0.042297176            3 
  710000    1.1211218   -5.8896673    356.18688  0.041805972  0.042288389            1 
  711000    1.1231865   -5.8357478    358.49057  0.042017179  0.042279712            3 
  712000    1.1513352   -5.8185364     360.1134  0.042148104   0.04227132            2 
  713000     1.144585   -5.8534856    358.16476  0.041861239  0.042263447            2 
  714000    1.1325099   -5.8494314    358.16836   0.04180303  0.042254134            3 
  715000    1.1286614   -5.8877262    358.13074  0.041740179  0.042244846            2 
  716000    1.1576863   -5.8882862    358.67946  0.041745747  0.042235724            3 
  717000    1.1000013    -5.912608    358.64551  0.041683578  0.042226493            5 
  718000    1.1455869   -5.8596003    359.93116   0.04177474  0.042217297            2 
  719000    1.1309081   -5.8812742    359.46417  0.041662514  0.042207962            5 
  720000    1.1404189   -5.8546044    361.70045  0.041863478  0.042199035            4 
  721000    1.1282599   -5.8607987    362.45897  0.041893085  0.042190067            2 
  722000    1.1239132   -5.8672799    361.27052   0.04169789  0.042181472            4 
  723000    1.1019913   -5.9029084    362.26818  0.041755207   0.04217218            3 
  724000    1.1206873   -5.7966702    363.22855  0.041808074  0.042162962            3 
  725000    1.1549152   -5.8444185    362.92108  0.041715066  0.042154397            6 
  726000    1.1377645   -5.8871248    362.81142  0.041645021  0.042145501            2 
  727000    1.1200178   -5.8730218    363.49511  0.041666106   0.04213646            2 
  728000    1.1092922   -5.8670722    364.32791  0.041704202  0.042127029            6 
  729000    1.1549137   -5.8627807    364.94471  0.041717502   0.04211815            2 
  730000    1.1329535   -5.8826863     365.6305  0.041738642  0.042109378            2 
  731000    1.1381753   -5.8654547    365.93477   0.04171623  0.042100604            4 
  732000    1.1392014   -5.8850586    365.68306  0.041630585  0.042092145            4 
  733000    1.1464544   -5.8674537    366.79488  0.041700191  0.042084184            2 
  734000    1.1292994   -5.8956019    366.64821  0.041626727  0.042075479            2 
  735000    1.1281173   -5.8882115    368.75677  0.041809158  0.042066724            2 
  736000    1.1416956   -5.8772025    366.77448  0.041527908   0.04205786            3 
  737000    1.1084865   -5.8833206    368.63317  0.041681724  0.042049474            5 
  738000    1.1225182   -5.9159349    367.13678  0.041456276  0.042040496            3 
  739000    1.1271397   -5.8622976    368.78895  0.041586485  0.042032106            2 
  740000    1.1150852   -5.8162591    370.76931  0.041753301  0.042023823            2 
  741000    1.1466383   -5.8501161     371.6133  0.041791869  0.042015171            3 
  742000    1.1057338   -5.8544571    370.91952  0.041657628  0.042006532            2 
  743000    1.1122231   -5.9134881    370.22615  0.041523794  0.041997948            6 
  744000    1.1445704   -5.9065943    370.21707  0.041466966  0.041989288            2 
  745000    1.1314765   -5.8978484    370.87591  0.041485001  0.041980295            5 
  746000    1.1182511   -5.8495159    373.18728  0.041687587  0.041971477            3 
  747000    1.1460573   -5.8648277    372.40395  0.041544395  0.041962342            3 
  748000    1.1263418   -5.8677319    373.22681  0.041580527  0.041953846            2 
  749000    1.1110965   -5.8909972    372.65828  0.041461758  0.041944581            4 
  750000    1.1497864   -5.8744076    373.65049  0.041516721  0.041935295            2 
  751000    1.1501451   -5.9098692    373.73723  0.041471064  0.041926195            1 
  752000    1.1610701   -5.8558798    374.74312  0.041527385  0.041917572            4 
  753000    1.1179574   -5.8314691    375.65266  0.041572893  0.041908812            5 
  754000    1.1263634   -5.8754681    374.92714  0.041437571  0.041899875            2 
  755000    1.1349042   -5.8898475    375.42172  0.041437276  0.041890513            6 
  756000    1.1341266    -5.890235    376.39398  0.041489637  0.041881416            2 
  757000    1.1384601   -5.8773581    376.04522  0.041396436  0.041873359            4 
  758000    1.1231496   -5.8997521    376.94102  0.041440305  0.041864915            4 
  759000     1.122647   -5.8674021    377.89856  0.041490838  0.041856234            3 
  760000    1.1449136   -5.8933413    377.93837  0.041440611  0.041847353            7 
  761000    1.1288648   -5.8938752    378.00414  0.041393357  0.041837857            3 
  762000     1.124305   -5.9066325    378.56267  0.041400117  0.041828742            5 
  763000    1.1108937   -5.8856183    379.85101  0.041486567  0.041819711            2 
  764000    1.1222527   -5.8535071    380.28009  0.041479067  0.041810974            2 
  765000    1.1276216   -5.9542647    378.95076   0.04128004  0.041801689            6 
  766000    1.1310998   -5.8759647    381.17508  0.041468134  0.041793077            2 
  767000    1.1355835   -5.9156934    381.54204  0.041453937  0.041784146            3 
  768000    1.1461045   -5.9190717    379.96196  0.041228511   0.04177515            3 
  769000    1.1300844   -5.9015433    381.40488  0.041331261  0.041766022            2 
  770000     1.111449   -5.8962865    381.26975   0.04126296   0.04175651            2 
  771000    1.1141944   -5.8842934    382.13769  0.041303252  0.041747188            3 
  772000    1.1393327   -5.8953179     383.1223  0.041356034  0.041737648            2 
  773000    1.1375522   -5.8519292    383.46361  0.041339328  0.041728208            5 
  774000    1.1126115   -5.9238624    384.31836  0.041377946  0.041718867            4 
  775000    1.1472699   -5.8976877    384.69661  0.041365227  0.041709712            3 
  776000    1.0876079    -5.891452    383.12889  0.041143566  0.041700383            4 
  777000    1.1279373   -5.9232854    384.58948  0.041247263  0.041691087            3 
  778000    1.1027229   -5.8837632    384.61339  0.041196807  0.041681914            3 
  779000    1.1288221   -5.8597694    387.45821  0.041448247  0.041672731            2 
  780000    1.1083269   -5.8459386    386.67811  0.041311764   0.04166386            4 
  781000    1.1378082   -5.8971602     385.3994  0.041122428  0.041654798            3 
  782000    1.1590365   -5.8860023     387.6279  0.041307321  0.041646063            5 
  783000    1.1368808    -5.849976    389.71044  0.041476207  0.041637201            3 
  784000    1.1353917   -5.8745245    388.95461  0.041342964  0.041628972            2 
  785000    1.1403499   -5.8705226    388.40793  0.041232265  0.041620028            1 
  786000      1.11941   -5.8774618    389.41741  0.041286833  0.041611295            1 
  787000    1.1535921   -5.8655863    390.78189  0.041378853   0.04160302            2 
  788000    1.1184377   -5.8677642    391.53807   0.04140631  0.041594387            2 
  789000    1.1316467   -5.8491892    392.14816  0.041418268  0.041585987            2 
  790000    1.1271017   -5.8732436    391.94251  0.041344147   0.04157799            4 
  791000    1.1290864   -5.8661126    392.14792  0.041313519  0.041569872            2 
  792000    1.1487374   -5.9234445    391.61872  0.041205674  0.041561717            5 
  793000    1.1379053   -5.8874074    393.47651   0.04134894   0.04155329            7 
  794000    1.1421131   -5.9218546    392.89788  0.041236134  0.041545529            2 
  795000    1.1109097   -5.8864539    392.69834  0.041163348  0.041537531            2 
  796000     1.130629   -5.8949966    393.75103  0.041221841  0.041529311            3 
  797000    1.1439097   -5.8804361    395.86103  0.041390739  0.041521253            2 
  798000    1.1347489   -5.9654776    393.12714  0.041053378  0.041513194            5 
  799000    1.1150458   -5.9100772     394.7549  0.041171767  0.041505463            4 
  800000    1.1483118   -5.9160201    395.60541  0.041208897   0.04149774            3 
  801000     1.132077   -5.8707401    395.82765  0.041180571  0.041489563            4 
  802000    1.1173338   -5.8772984    397.51494  0.041304545  0.041481307            4 
  803000    1.1074838   -5.9214905    397.06984  0.041206916  0.041473325            2 
  804000    1.1062703   -5.9147496    398.10986   0.04126346  0.041465298            3 
  805000      1.14925   -5.8793667    397.73353  0.041173243  0.041457205            2 
  806000    1.1329377   -5.8989203     398.0463  0.041154498  0.041449203           12 
  807000      1.09578   -5.8494957    399.17976  0.041220545  0.041441022            2 
  808000    1.1351826   -5.9140695    398.50092  0.041099517  0.041433189            3 
  809000    1.1103279   -5.8825786    400.12622  0.041216133  0.041424982            2 
  810000    1.1408757   -5.9142998    397.42831  0.040887686  0.041416259            3 
  811000    1.1221604   -5.9063299    399.16591  0.041015815   0.04140707            3 
  812000    1.1226206   -5.8825667    398.65235  0.040912597  0.041397673           11 
  813000    1.1358364   -5.8904657    399.56411  0.040955731  0.041388321            5 
  814000    1.1178357   -5.8871684    399.44188  0.040892903  0.041378843            5 
  815000    1.1259237   -5.8984533     401.3482  0.041037649  0.041369618            2 
  816000    1.1473955   -5.9010578    401.92699  0.041046465  0.041360403            2 
  817000    1.1253331   -5.8913091    402.94965  0.041100536  0.041351248            2 
  818000    1.1207781   -5.9001603    402.12379  0.040966157   0.04134237            3 
  819000    1.1410361   -5.8507112    404.84595  0.041193117  0.041333648            5 
  820000    1.1360404   -5.8932899    403.58922  0.041015165  0.041325504            4 
  821000     1.134695   -5.9244083    402.93818  0.040899125  0.041317125            3 
  822000    1.1194064   -5.8837438    405.15647  0.041074257  0.041308128            3 
  823000    1.1035075   -5.8882593    404.72298  0.040980456  0.041299301            4 
  824000    1.0988092   -5.9002781    405.10721  0.040969581  0.041290808            3 
  825000    1.1283548   -5.8915034    405.03119  0.040912242  0.041282373            2 
  826000    1.1227659   -5.9254692    405.40482  0.040900406  0.041273479            1 
  827000    1.1057567   -5.8883333    406.58701  0.040970073  0.041264664            3 
  828000    1.1386276   -5.9023075    406.76965  0.040938974  0.041256229            4 
  829000    1.1188372   -5.8948493    406.36872  0.040849288  0.041247351            2 
  830000    1.1159644   -5.9048243    406.23901  0.040787049  0.041238542            4 
  831000    1.1310397   -5.9289965     406.2259  0.040736653  0.041229347            4 
  832000    1.1242952   -5.9100169    407.52147  0.040817454  0.041220377            2 
  833000    1.1257899   -5.9181051    409.09634  0.040926005  0.041211318            3 
  834000    1.1120242   -5.8882729     408.8029  0.040847612  0.041202662            2 
  835000    1.0958278   -5.9083429    409.53504   0.04087176   0.04119387            3 
  836000    1.1265759   -5.9065283    411.50687  0.041019425  0.041185225            3 
  837000    1.1296695   -5.9030425    411.41841   0.04096161  0.041176883            4 
  838000    1.1382762   -5.9092889     410.8016  0.040851393  0.041168111            2 
  839000     1.110118   -5.9019305    411.11109  0.040833441  0.041159434            3 
  840000    1.1251017   -5.8940004    413.61845  0.041033576  0.041151021            3 
  841000    1.1051224   -5.9040911    413.17191  0.040940538  0.041142749            3 
  842000    1.1309132    -5.888867    412.22026   0.04079773   0.04113426            1 
  843000    1.1003251   -5.9111421    414.87282  0.041011548  0.041125638            3 
  844000    1.1260801    -5.924818    412.80256  0.040758547  0.041116805            3 
  845000     1.107079   -5.9266539    412.00308  0.040631468   0.04110785            3 
  846000    1.1317297   -5.9324085    413.73264  0.040753806  0.041098709            2 
  847000    1.1335058    -5.917921    413.79751  0.040712073   0.04108968            6 
  848000    1.1107643   -5.9202462     415.5031  0.040831672  0.041080828            2 
  849000     1.106428   -5.9081641    414.01236  0.040637255  0.041071676            4 
  850000    1.0947061   -5.9589256    413.83053   0.04057162   0.04106261            4 
  851000    1.1102467   -5.9251835     414.6628  0.040605445  0.041053243            2 
  852000    1.1210267   -5.9460769    415.70712   0.04065993  0.041044282            4 
  853000    1.1055668   -5.9348612    415.70109  0.040611673  0.041035094            3 
  854000    1.1306003   -5.9421823    416.75693  0.040667148  0.041025804            4 
  855000     1.116243    -5.942928    416.42801  0.040587525  0.041016787            2 
  856000    1.0986553   -5.9120595    418.01382  0.040694492  0.041007484            3 
  857000    1.1023009   -5.9128392    418.52093  0.040696317  0.040998251            4 
  858000    1.1236662    -5.928906    418.10582  0.040608568  0.040989003            5 
  859000    1.1046466   -5.9126942    418.79536  0.040628188  0.040979637            3 
  860000    1.0996576   -5.9283828     419.0645  0.040607025  0.040970359            3 
  861000    1.1310008   -5.9044265    420.33508  0.040682838  0.040961032            3 
  862000    1.1176921   -5.8973206    419.91387  0.040594922  0.040951699            3 
  863000    1.1048827   -5.8936091    420.83091  0.040636434  0.040942825            4 
  864000    1.1298121   -5.9149459    420.33702  0.040541765  0.040933803            7 
  865000    1.1114344   -5.9079053     422.0708  0.040661926  0.040924682            5 
  866000    1.1113573     -5.93133    420.14901  0.040430044  0.040915165            2 
  867000    1.1257412   -5.8956291    421.06323  0.040471283  0.040905693            2 
  868000    1.1430066   -5.9524056    421.83837  0.040499076  0.040896365            2 
  869000    1.1103707   -5.9141319    424.02752  0.040662402  0.040887106            6 
  870000    1.0891513   -5.9294104    423.05089  0.040522116  0.040878297            4 
  871000    1.1169291    -5.901915    422.73965  0.040445814   0.04086919            3 
  872000    1.0924312   -5.8955383    424.22544  0.040541422   0.04086007            1 
  873000    1.1290816   -5.9291115    422.24219  0.040305669  0.040850715            2 
  874000    1.1041855   -5.9440818    422.62427  0.040295983    0.0408413            1 
  875000    1.1268886   -5.9581061    423.18064  0.040302918  0.040831402            2 
  876000    1.1051414    -5.981122     422.4119   0.04018378   0.04082184            3 
  877000    1.1291897   -5.9324787    425.66946  0.040447497  0.040812169            3 
  878000    1.1304676   -5.9303333    425.20692  0.040357528   0.04080304            6 
  879000    1.0972538   -5.9273836    425.42979  0.040332745   0.04079354            4 
  880000    1.1130843   -5.9275405     426.4822  0.040386572  0.040783551            5 
  881000    1.1082463   -5.9044422    427.51108  0.040438051  0.040774182            6 
  882000    1.1247284   -5.9291985    425.42984  0.040195563  0.040764415            2 
  883000    1.1130077   -5.9319531    427.14846  0.040312236  0.040754357            5 
  884000    1.0803183   -5.9122595     428.5675  0.040400405  0.040744734            2 
  885000    1.0774395   -5.9344892    426.61268  0.040170685  0.040734758            5 
  886000    1.1023552   -5.9110043    428.24392  0.040278773  0.040724717            4 
  887000    1.1109905   -5.9173696    428.83406  0.040288807  0.040714728            2 
  888000    1.1144876   -6.0026141    427.32665  0.040101975  0.040704701            3 
  889000    1.1393247   -5.9213399    429.21823   0.04023418  0.040695116            2 
  890000    1.1458387   -5.8927528    431.44119  0.040397115  0.040685683            1 
  891000    1.1066986   -5.9780259    429.48677  0.040168983  0.040676229            2 
  892000    1.0949272   -5.9075671    432.10915  0.040368941  0.040666424            4 
  893000    1.1078372   -5.9302371    431.35975  0.040253803  0.040657117            3 
  894000    1.1158243   -5.8878452    431.89978  0.040259115   0.04064751            2 
  895000    1.0850228   -5.9398188    431.51667  0.040178461  0.040638213            4 
  896000    1.1172235   -5.9462828    431.94119  0.040173101  0.040628595            3 
  897000    1.1183751   -5.9376727    432.60382  0.040189876  0.040618975            2 
  898000    1.0811395   -5.9027402    433.40854  0.040219798  0.040609563            1 
  899000    1.0992894   -5.9317656    434.70581  0.040295311  0.040600038            3 
  900000    1.1162486   -5.9487756    433.24656  0.040115423  0.040590519            4 
  901000    1.1307261   -5.9540178    434.93814  0.040227353  0.040581229            6 
  902000    1.1214182   -5.9320635     434.4698  0.040139486  0.040571998            5 
  903000    1.1057899   -5.9249443    434.26534  0.040076166  0.040562193            2 
  904000    1.0914889    -5.951752    434.08842  0.040015526  0.040552174            4 
  905000    1.1341659   -5.9495791    435.53414  0.040104433  0.040542401            3 
  906000    1.1099895   -5.8700277    436.78973  0.040175656  0.040532815            8 
  907000    1.1102781   -5.9451641    435.38765   0.04000254   0.04052316            2 
  908000     1.123027   -5.9469463    437.00774  0.040107172   0.04051329            3 
  909000    1.1057023   -5.9294157    437.15949  0.040076961  0.040503249            2 
  910000    1.1301537    -5.906919    438.50104  0.040155773  0.040493391            2 
  911000    1.0940299   -5.9687071    437.11898  0.039985271  0.040483627            2 
  912000    1.1069315   -5.9465842    437.38608  0.039965833  0.040473731            5 
  913000    1.0896409   -5.9566892    438.75911  0.040047381  0.040463428            2 
  914000    1.0836499   -5.9449779    439.45361  0.040066886  0.040453281            3 
  915000    1.1041802   -5.9589791    439.36407  0.040014943  0.040443429            3 
  916000    1.1091275   -5.9636472    437.47264  0.039799185  0.040433379            4 
  917000    1.0913587   -5.9451233    440.18592  0.040002356  0.040423486            3 
  918000    1.0996233   -5.9443498    441.35547  0.040064948  0.040413731            2 
  919000    1.1161636   -5.9280747    440.34424  0.039929656  0.040404062            2 
  920000     1.080133   -5.9311962    442.15715  0.040050467  0.040394217            3 
  921000    1.1063889   -5.9356599    441.42176  0.039940442  0.040384521            2 
  922000    1.0728446   -5.9636474    442.12978  0.039961115  0.040374886            5 
  923000    1.1396509   -5.9818553    442.45455  0.039947142  0.040364767            4 
  924000    1.1044417   -5.9442271    442.04581  0.039867046  0.040354404            4 
  925000     1.115207   -5.9236479    441.80928  0.039802638   0.04034434            6 
  926000    1.0991953   -5.9615344    443.48618  0.039910563  0.040334333            2 
  927000    1.1024298   -5.9382139    443.33787  0.039854177  0.040323911            5 
  928000    1.0893701   -5.9641065    442.29667  0.039717732  0.040313121            2 
  929000    1.1025483   -5.9476379     443.1047  0.039747462  0.040302518            3 
  930000    1.1245022   -5.9291837    443.38301   0.03972966  0.040292185            6 
  931000    1.1092026   -5.9503144    444.74285  0.039808705  0.040281895            1 
  932000    1.0883162   -5.9438741     443.9555  0.039695592  0.040271271            5 
  933000    1.1154691   -5.9775528    444.25914  0.039680166  0.040261089            2 
  934000    1.0847309   -5.9161793    445.94949  0.039788499  0.040250471            3 
  935000    1.1055296   -5.9580336    446.66339  0.039809571  0.040240296            3 
  936000    1.0897253   -5.9094837    448.01871  0.039887705  0.040230193            1 
  937000    1.1026441   -5.9434711    447.06749  0.039760538  0.040220186            4 
  938000    1.1072953    -5.943153    446.17102  0.039638505  0.040210004            4 
  939000    1.1080496   -5.9970247    446.01308  0.039582276  0.040199652            2 
  940000    1.0908104   -5.9492741    447.44264    0.0396669  0.040189422            3 
  941000    1.1185934   -5.9254353    448.79343   0.03974437  0.040179012            4 
  942000    1.0915226   -5.9908012    447.17328  0.039558854   0.04016821            7 
  943000    1.1100917    -5.977905    448.10022  0.039598818  0.040157498            3 
  944000    1.1221999   -5.9374372    449.49506  0.039680002  0.040147361            2 
  945000    1.0783374   -5.9304341    449.94661  0.039677831  0.040137109            2 
  946000    1.0913018   -5.9312087     450.8797  0.039718085  0.040127106            2 
  947000    1.1339774   -5.9911404    448.36483  0.039454843  0.040116729            3 
  948000    1.0867935   -5.9437305    452.19137  0.039749593  0.040106182            8 
  949000    1.0797426   -5.9038162    451.39867  0.039638099  0.040095943            2 
  950000    1.1194926    -5.955546    449.91147  0.039465918  0.040085728            2 
  951000    1.1260996   -5.9680435    450.78329  0.039500814  0.040075216            3 
  952000     1.126908   -5.9718976    452.54176  0.039613249  0.040064797            3 
  953000    1.0982702   -5.9471632    452.91748  0.039604536  0.040054531            3 
  954000    1.1037676   -5.9648009     452.5616  0.039531936  0.040044356            4 
  955000    1.0759984   -5.9669344    453.46123  0.039569043  0.040034157            3 
  956000    1.0989411   -5.9667048    452.27505  0.039424254  0.040023717            1 
  957000    1.0880109   -5.9229405    453.57283  0.039496067  0.040013426            5 
  958000    1.0907963   -5.9736846    454.06996  0.039498083  0.040003065            4 
  959000    1.1035011   -5.9238068    457.88046  0.039788013  0.039993003            2 
  960000    1.1252366   -5.9143529    456.31466  0.039610647  0.039982852            3 
  961000    1.1140821   -5.9766548    455.81491  0.039526093  0.039972856            3 
  962000    1.1030998   -5.9268073    457.08337  0.039594887  0.039962821            4 
  963000     1.076006   -5.9499124    455.49041  0.039415923  0.039952864            4 
  964000    1.0922797   -5.9499261    457.74451  0.039569892  0.039943046            3 
  965000     1.105403   -5.9442676    457.36268  0.039495914  0.039933179            3 
  966000     1.113466   -5.9693854    457.32998  0.039452207  0.039922933            4 
  967000    1.0893225    -5.951718    457.85443  0.039456604  0.039912805            4 
  968000     1.075049    -5.925046     457.3326  0.039370919  0.039902701            2 
  969000    1.1245822   -5.9854893    457.04584  0.039305627  0.039892308            4 
  970000    1.0977434   -5.9796454    459.20607  0.039450693  0.039881908            2 
  971000    1.0971252    -5.948517    459.01008  0.039393244  0.039871386            7 
  972000    1.1093592   -5.9614456    458.74789  0.039330237   0.03986086            2 
  973000    1.0997932   -5.9738214    458.66954  0.039283105  0.039850425            3 
  974000    1.1040582   -5.9529044    460.94784    0.0394377  0.039839714            5 
  975000    1.1219616   -5.9641287    459.58441  0.039280719  0.039828873            1 
  976000     1.090256   -5.9709458    459.63866  0.039245104  0.039818389            2 
  977000    1.0929641   -5.9853302     458.0551  0.039069865  0.039807964            2 
  978000    1.0823811   -5.9696012    460.14217  0.039207751  0.039796949            2 
  979000    1.0832459   -5.9718063    460.60479  0.039207081  0.039786021            2 
  980000    1.0960196   -5.9407448    459.99223  0.039114985   0.03977507            6 
  981000    1.0882724   -5.9451936    462.14543  0.039258022  0.039764503            4 
  982000    1.0964363   -5.9642556     461.7934   0.03918817  0.039753121            3 
  983000    1.1119873   -5.9777977    460.98633  0.039079886   0.03974188            6 
  984000    1.1003743   -5.9097208    463.60013  0.039261529  0.039731092            3 
  985000    1.0824059   -5.9393597    464.27876  0.039279083   0.03972061            4 
  986000     1.095019   -5.9680704    461.80278  0.039029985  0.039709813            3 
  987000    1.1024257   -5.9579546    464.58961  0.039225736  0.039698917            3 
  988000    1.1007676   -5.9755652    465.23134  0.039240161  0.039688055            2 
  989000    1.1258322   -5.9310237     464.6653  0.039152789  0.039677573            2 
  990000    1.0955835   -5.9644706    464.90934  0.039133783  0.039666982            2 
  991000    1.1231639   -5.9663224    464.89027   0.03909269  0.039656034            2 
  992000    1.0872535   -5.9882755    466.68243  0.039203834  0.039645318            4 
  993000    1.0873728   -5.9758119    465.87292  0.039096418  0.039634292            2 
  994000    1.1084148   -5.9560379    467.35885  0.039181661  0.039623838            2 
  995000    1.0827047   -5.9861168    467.27515  0.039135272  0.039613315            5 
  996000    1.0798932   -5.9796613    466.68706  0.039046775  0.039602683            3 
  997000    1.0918116   -5.9942767     467.1614  0.039047258  0.039592149            5 
  998000    1.1098199   -5.9748485    468.38858  0.039110603  0.039581385            3 
  999000    1.0936551    -5.961728    469.27395  0.039145308  0.039571093            5 
 1000000    1.0791692   -5.9926564     467.1399  0.038928325  0.039560824            2 
 1001000    1.0819285   -6.0059296    469.28826  0.039068287  0.039550771            6 
 1002000    1.0937921    -5.970044    470.78574  0.039153837  0.039540776            3 
 1003000    1.0721036   -5.9667837     471.5308  0.039176704  0.039530544            2 
 1004000    1.0945627   -5.9740658    470.95062  0.039089527  0.039520021            3 
 1005000    1.0764151   -5.9419854     471.6637   0.03910976  0.039509524            5 
 1006000    1.0757583   -5.9897343    470.36219   0.03896307  0.039498813            2 
 1007000    1.0812108   -5.9441549     471.5166  0.039019911  0.039487959            3 
 1008000    1.0889275   -5.9751918    471.38448  0.038970278  0.039477017            3 
 1009000    1.1079761   -5.9900491    471.25266  0.038920768  0.039466284            3 
 1010000    1.0808286   -5.9608104    472.29389  0.038968143  0.039455578            3 
 1011000    1.0941493   -5.9800136    472.09879  0.038913517  0.039445044            3 
 1012000    1.1059164   -5.9840355    472.05382  0.038871362  0.039434615            4 
 1013000    1.0871392   -5.9776942    471.90672  0.038820888  0.039423711            2 
 1014000    1.0862186   -5.9800403    475.40793  0.039070342  0.039413277            5 
 1015000    1.0717208   -6.0179313    472.70259  0.038809737  0.039402879            5 
 1016000    1.0857271   -5.9888422    473.82584  0.038863668  0.039392641            6 
 1017000    1.0618774   -5.9694968    475.46055  0.038959402   0.03938249            3 
 1018000    1.1141513    -5.998106    475.98847  0.038964347  0.039372247            3 
 1019000    1.0964987   -5.9838282    477.20728  0.039025784  0.039362367            6 
 1020000    1.1151686   -5.9270292    479.04898  0.039137988  0.039352133            3 
 1021000    1.1192982    -5.999024    475.71172   0.03882727  0.039342286            6 
 1022000    1.0722049   -5.9696915    478.45233  0.039012747  0.039332221            5 
 1023000    1.0628169   -5.9990105     476.2885  0.038798346  0.039322184            3 
 1024000    1.0809101   -6.0171661    477.56383  0.038864244  0.039311992            2 
 1025000     1.072907   -6.0123515    476.63845  0.038751093  0.039301838            2 
 1026000    1.1196044   -5.9455444    479.00077  0.038905195  0.039291469            4 
 1027000    1.1017333   -5.9841739    478.08758  0.038793215  0.039281129            2 
 1028000     1.092917    -6.022963    478.64912  0.038800998  0.039270554            8 
 1029000    1.1134609   -5.9297591    479.43027  0.038826552   0.03926015            3 
 1030000    1.0888023   -5.9948901    480.29723  0.038858999  0.039250271            5 
 1031000    1.1039234   -6.0025067    481.09691  0.038885944  0.039240336            4 
 1032000    1.0857751   -5.9750542      481.329  0.038867006  0.039230155            5 
 1033000    1.0930296   -5.9681567    481.49465  0.038842744  0.039219978            2 
 1034000    1.1116255    -5.946659    481.77932  0.038828121  0.039209901            3 
 1035000    1.0915727   -5.9753411     482.5339   0.03885136  0.039199677            1 
 1036000     1.091779   -5.9958126    482.11274  0.038779982   0.03918924            4 
 1037000    1.0972127   -6.0025201    482.61336  0.038782816  0.039178858           10 
 1038000    1.1163184   -5.9898158    484.19276  0.038872251  0.039168922            4 
 1039000    1.0783845   -5.9996535    483.94492   0.03881496   0.03915917            3 
 1040000    1.1071659   -5.9889215    484.61081  0.038830995   0.03914894            2 
 1041000    1.0727686   -5.9989475    484.45958  0.038781586  0.039138745            5 
 1042000     1.094918   -5.9776463    485.20647    0.0388041  0.039128463            2 
 1043000    1.0623594   -5.9749298    484.81497  0.038735616  0.039118221            3 
 1044000    1.0920182   -5.9772552    483.61243  0.038602524  0.039107832            2 
 1045000    1.0924582   -5.9837161    484.64507  0.038647932  0.039097358            4 
 1046000    1.0873647    -6.013329    483.16725  0.038493248  0.039087174            5 
 1047000    1.0968093   -5.9981028    486.14397  0.038693407  0.039076697            4 
 1048000    1.0982889   -6.0101504    484.98991  0.038564719  0.039066211            4 
 1049000    1.0808613    -5.961544    487.34292  0.038714881  0.039055567            2 
 1050000    1.0825338   -5.9692205    487.38113  0.038681042  0.039044742            5 
 1051000    1.0812468   -5.9473613    487.75143  0.038673599   0.03903409            2 
 1052000    1.0899326   -5.9879321    486.54267  0.038541086  0.039023476            4 
 1053000    1.0835113   -5.9937352    486.15561  0.038473853  0.039012412            4 
 1054000    1.1121126   -5.9804912    487.21668  0.038521243   0.03900157            4 
 1055000    1.0892353   -6.0365432    485.86774  0.038378179  0.038990587            2 
 1056000    1.0717101   -5.9650358    486.33406  0.038378635  0.038979309            2 
 1057000    1.0924684   -5.9923354    486.35541  0.038344009  0.038968152            3 
 1058000    1.0865789   -5.9846549    486.62996  0.038329392   0.03895724            3 
 1059000    1.0868449   -5.9937167    486.89967  0.038314421  0.038946309            3 
 1060000    1.0790424   -5.9918312    488.10129  0.038372743  0.038935251            1 
 1061000    1.0863549   -5.9442536    488.91374  0.038400388    0.0389244            3 
 1062000    1.0912474    -5.999101    490.17328  0.038463063   0.03891352            4 
 1063000     1.095119   -5.9733541    490.86525  0.038481126  0.038902748            3 
 1064000    1.0765176   -5.9740559    489.84632  0.038365157  0.038891915            5 
 1065000    1.0914795   -5.9610132    491.81381  0.038483083  0.038881348            5 
 1066000    1.0684493   -6.0109861    491.37309  0.038412531  0.038870788            2 
 1067000    1.0750032    -6.005761    491.54048  0.038389603  0.038860147            3 
 1068000      1.08945   -6.0064554    490.79548  0.038295527  0.038849395            1 
 1069000    1.0921004   -6.0008058    492.41129  0.038385663  0.038838519            4 
 1070000    1.0784718   -6.0008511    491.33486  0.038265955  0.038827511            2 
 1071000    1.0906779   -5.9994752    493.79996  0.038422032  0.038817018            5 
 1072000    1.1010628   -6.0154636    492.56234  0.038289983  0.038806152            3 
 1073000    1.0884863   -5.9509662    493.64683  0.038338524  0.038795715            5 
 1074000    1.0570994   -5.9998566    493.45004  0.038287558   0.03878474            3 
 1075000    1.0864707   -5.9766104    494.15724  0.038306763  0.038773904            2 
 1076000    1.0547898   -5.9869387    493.30398  0.038205079  0.038763296            4 
 1077000     1.090471   -6.0025051    494.22242   0.03824067   0.03875281            2 
 1078000    1.0734109   -6.0138243    496.92665  0.038414243  0.038742316            7 
 1079000     1.089543   -6.0163245     495.5521  0.038272482  0.038731787            2 
 1080000    1.0680696   -6.0036636    495.14074  0.038205304  0.038721348            6 
 1081000    1.0699152   -6.0072908    496.23922  0.038254643  0.038710715            2 
 1082000    1.0729428   -6.0246078    497.40377  0.038308978  0.038700138            3 
 1083000    1.0668941   -5.9787303     496.6899  0.038218675  0.038689593            2 
 1084000    1.0951687   -5.9848254    499.71875  0.038416263  0.038679304            2 
 1085000     1.093859   -6.0465003    495.23912  0.038036799  0.038668891            4 
 1086000     1.075418       -5.985    498.69802   0.03826719  0.038658175            2 
 1087000    1.1044782   -5.9951631    497.95178  0.038174776  0.038647326            3 
 1088000    1.0640581   -6.0256913     498.3093  0.038167073    0.0386367            4 
 1089000    1.0816462   -6.0269392    497.63663   0.03808055  0.038626333            5 
 1090000    1.0753645    -6.027141    498.02663  0.038075431  0.038615621            3 
 1091000    1.0820815   -5.9934864    499.60599  0.038161167  0.038604936            2 
 1092000    1.0886605   -6.0457982     498.6666  0.038054533  0.038594043            6 
 1093000    1.0738863   -6.0120675    499.48028  0.038081754    0.0385834            4 
 1094000    1.0775693   -6.0156208    499.18459   0.03802442  0.038572623            3 
 1095000    1.0788295   -6.0228622    498.20896  0.037915446  0.038561654            2 
 1096000     1.060202   -6.0162108    501.67758  0.038144585  0.038551016            5 
 1097000    1.0917681    -6.023202    499.67308  0.037957542   0.03854043            5 
 1098000    1.0697366    -6.000703    501.96465  0.038096892  0.038529525            1 
 1099000     1.084395    -5.991963    501.28556  0.038010734  0.038518917            4 
 1100000     1.089129   -5.9926935    502.05552  0.038034509  0.038508345            3 
 1101000    1.0683836   -6.0105176    500.72689  0.037899401  0.038497293            5 
 1102000    1.0831951   -6.0700137    500.50954  0.037848574   0.03848615            2 
 1103000    1.0509587   -6.0126098     500.9593   0.03784824  0.038475154            3 
 1104000    1.0617224   -6.0251037    501.74932   0.03787359  0.038463935            4 
 1105000    1.0890795   -6.0290135    500.18329  0.037721213  0.038452466            3 
 1106000    1.0434813   -6.0035622    502.72043  0.037878272  0.038441009            4 
 1107000    1.0737291   -5.9799523    503.04077   0.03786817  0.038430037            3 
 1108000    1.0644737   -6.0329592    503.25231  0.037849903  0.038419103            3 
 1109000    1.0714477   -5.9854815    504.74153  0.037927677  0.038407629            1 
 1110000    1.0768139   -5.9992459    504.81912  0.037899333   0.03839641            9 
 1111000    1.0977446   -6.0405069    502.96681  0.037726283  0.038385078            2 
 1112000    1.0669836   -6.0410185    504.58308   0.03781348  0.038373957            4 
 1113000    1.0818492   -6.0507283    505.03485  0.037813331  0.038362896            5 
 1114000    1.0846137    -5.957054    508.36588  0.038028566  0.038351927            1 
 1115000    1.0591538   -5.9929233    506.57239  0.037860418  0.038340951            2 
 1116000    1.0681949   -6.0218251    506.01255  0.037784689  0.038329874            6 
 1117000    1.0950922   -6.0426932    504.37212  0.037628478  0.038318695            4 
 1118000    1.0672064   -6.0673249    506.33722  0.037741295  0.038307212            4 
 1119000    1.0699374   -6.0445819    506.46953  0.037717421  0.038295903            3 
 1120000    1.0562958    -6.036865    505.07311  0.037579844  0.038284525            3 
 1121000     1.060025   -6.0211628    507.47201  0.037724651  0.038273127            3 
 1122000    1.0584821   -5.9665535    508.70619  0.037782694  0.038262011            2 
 1123000    1.0675413   -5.9828176    508.59473  0.037740779  0.038250631            3 
 1124000    1.0740727   -6.0195825     508.5157  0.037701342  0.038239036            4 
 1125000    1.0671028   -6.0150331    507.55538  0.037596695  0.038227286            6 
 1126000    1.0534318    -6.031671    508.67186  0.037645934  0.038215807            4 
 1127000    1.0826418   -5.9863067    509.48259  0.037672478  0.038204272            3 
 1128000    1.0754959    -6.040108    508.26952  0.037549462  0.038193076            4 
 1129000    1.0602292    -6.021104    509.09355  0.037577026  0.038181581            2 
 1130000    1.0653277   -6.0242785    508.43679  0.037495338  0.038170078            2 
 1131000    1.1048697    -6.085341    507.66882  0.037405601  0.038158379            4 
 1132000    1.0505553   -5.9957526    509.91956  0.037538248  0.038146771            8 
 1133000    1.0819225   -6.0043794    511.00108  0.037584663  0.038135349            3 
 1134000    1.0722985     -5.96907    510.93163  0.037546416  0.038123726            5 
 1135000    1.0372718   -5.9899591    511.45516  0.037551774  0.038112103            3 
 1136000    1.0737762   -6.0001278     511.1263  0.037494594  0.038100712            2 
 1137000    1.0309471   -6.0481841    511.74329  0.037506837  0.038089277            3 
 1138000    1.0577101   -6.0331964    512.03986  0.037495596  0.038077622            7 
 1139000    1.0775232   -6.0236591    513.44333  0.037565359  0.038066204            3 
 1140000     1.081252   -6.0409006    512.17173  0.037439454  0.038054757           10 
 1141000     1.090033   -6.0097836    513.74866  0.037521813  0.038043409            8 
 1142000    1.0546275   -6.0355673    512.85856  0.037424004  0.038031862            2 
 1143000    1.0792081   -6.0262244    512.80038  0.037387021  0.038020376            3 
 1144000     1.087852   -6.0279171    513.52614  0.037407207  0.038008959            4 
 1145000     1.084497   -5.9954687    513.46905  0.037370382  0.037997806            2 
 1146000    1.1045582   -6.0226702    515.07028  0.037454209  0.037986505            5 
 1147000    1.0427787    -6.020107    513.65844   0.03731898  0.037975327            3 
 1148000    1.0588347   -6.0189682    514.94869  0.037380131  0.037963714            7 
 1149000    1.0683365   -6.0046487    516.80556  0.037482272  0.037952371            3 
 1150000     1.052405   -6.0368475     517.4297  0.037494906  0.037941283            3 
 1151000    1.0634355   -6.0237958    517.19097  0.037445046  0.037930063            6 
 1152000    1.0717901   -6.0438646    515.99323  0.037325899  0.037918916            6 
 1153000    1.0533633    -6.013698    517.77995  0.037422662  0.037907617            3 
 1154000    1.0596517   -6.0689712     517.3576  0.037359734  0.037895914            4 
 1155000    1.1022115   -6.0323257    519.87887  0.037509298  0.037884893            2 
 1156000    1.0430545   -6.0074793    521.06622  0.037562444   0.03787396            6 
 1157000    1.0677392   -5.9895367     521.7398  0.037578493  0.037863578            2 
 1158000    1.0418839   -6.0564367    519.55598  0.037388887  0.037852892            3 
 1159000    1.0795725   -6.0337851    519.72814  0.037369006  0.037842201            3 
 1160000    1.0542644   -6.0255508    520.26846  0.037375608  0.037831383            5 
 1161000    1.0529627   -6.0741528    519.78011  0.037308363  0.037820349            5 
 1162000    1.0681493   -6.0662185    519.29067  0.037241155   0.03780938            4 
 1163000    1.0668544   -6.0060839    522.55691  0.037443172  0.037798348            4 
 1164000    1.0877803   -6.0311481    523.21744  0.037458293  0.037787761            4 
 1165000    1.0808625   -6.0218987    521.95287  0.037335684   0.03777708            2 
 1166000    1.0692367   -6.0728049    521.52591  0.037273149  0.037766707            4 
 1167000    1.0558904   -6.0188136    523.34994  0.037371461   0.03775604            3 
 1168000    1.0527122   -6.0418096    523.56036  0.037354478  0.037745425            3 
 1169000    1.0661162   -6.0564575    521.20638  0.037154717  0.037734564            5 
 1170000    1.0766286   -6.0569402     523.1553  0.037261774  0.037723596            3 
 1171000    1.0773719   -6.0462283    523.47013  0.037252358  0.037712848            3 
 1172000    1.0689474   -6.0640756    523.22107  0.037202863  0.037701976            3 
 1173000    1.0576442   -6.0373583    525.45739  0.037330022  0.037690866            3 
 1174000     1.073922   -6.0406108    524.38196  0.037221888  0.037679824            3 
 1175000     1.073039    -6.009137    524.75328  0.037216545  0.037668817            3 
 1176000    1.0598961    -6.019243    525.32606  0.037225486  0.037657969            4 
 1177000    1.0623793   -6.0252983    525.69135  0.037219722  0.037646993            3 
 1178000    1.0676893   -6.0475046    528.02249  0.037353034  0.037636291            4 
 1179000    1.0595376   -6.0278728    526.64381  0.037223905  0.037625186            5 
 1180000    1.0579635   -6.0605577    526.21744  0.037162249  0.037614207            3 
 1181000    1.0670737   -6.0504138    524.10446  0.036981686   0.03760302            5 
 1182000    1.0669295   -6.0333485    527.23442  0.037171068  0.037591761            3 
 1183000    1.0543955   -6.0309287    527.36062  0.037148536  0.037580608            4 
 1184000    1.0407111   -6.0607306    527.51712  0.037128176  0.037569849            5 
 1185000    1.0455733   -6.0533538    527.08527  0.037066475  0.037558679            7 
 1186000     1.071202    -5.998009    529.05463  0.037173597  0.037547922            9 
 1187000    1.0726066   -6.0342392    528.80874  0.037125017  0.037537231            3 
 1188000    1.0590718    -6.058534    527.54591  0.037005184  0.037526302            5 
 1189000    1.0798197   -6.0254989    529.04475   0.03707911  0.037515198            7 
 1190000    1.0625757   -6.0421015    528.39876  0.037002715  0.037504017            2 
 1191000    1.0743513   -6.0645941    529.53816  0.037051368   0.03749298            3 
 1192000    1.0494366   -6.0288657    530.53393    0.0370899  0.037482002            2 
 1193000    1.0763992    -5.973426    533.15535  0.037241922  0.037471463            2 
 1194000    1.0652018   -6.0290042    530.72139  0.037040856  0.037461028            6 
 1195000    1.0423891   -6.0411082    530.80805  0.037015903  0.037450532            3 
 1196000    1.0724819   -6.0299284    531.39499  0.037025849   0.03743989            3 
 1197000    1.0662137   -6.0405424    531.07749  0.036972813  0.037429142            3 
 1198000    1.0570933    -6.019821    532.29178  0.037026417  0.037418523            3 
 1199000    1.0681641   -6.0124936    533.42455  0.037074267   0.03740771            6 
 1200000    1.0649897   -6.0260156    531.66179  0.036920958  0.037397093            7 
 1201000    1.0615497    -6.053772     532.0179  0.036914925  0.037386161            3 
 1202000    1.0498438   -6.0935489    531.10768  0.036821109  0.037375217            4 
 1203000    1.0677331   -6.0287964    534.32324  0.037013248  0.037364392            5 
 1204000    1.0615439   -6.0713185    531.76388  0.036805363  0.037353836            1 
 1205000    1.0769992   -6.0317289    532.71403  0.036840528  0.037342903            3 
 1206000    1.0726992   -6.0555032    533.12526  0.036838396  0.037331797            2 
 1207000    1.0418686   -6.0507358    534.59749   0.03690952  0.037320836            3 
 1208000    1.0511052   -6.0649699    535.37722  0.036932756  0.037309848            9 
 1209000    1.0496192   -6.0299461    534.89046  0.036868656  0.037298722            2 
 1210000    1.0646288   -6.0656487    535.65726  0.036890996  0.037287629            3 
 1211000    1.0655135   -6.0776407    535.09233  0.036821657  0.037276862            4 
 1212000    1.0620422   -6.0460601    538.23188  0.037007143  0.037265995            2 
 1213000    1.0531712   -6.0355769    536.71768  0.036872608  0.037255457            4 
 1214000    1.0716493   -6.0503569     535.9183  0.036787363  0.037244771            5 
 1215000    1.0689021   -6.0317389    537.53093   0.03686769  0.037233988            4 
 1216000    1.0531494   -6.0838813    536.43765  0.036762449  0.037223097            3 
 1217000    1.0473006   -6.0509974    537.05985  0.036774846  0.037212427            5 
 1218000     1.034769   -6.0583553    537.74043  0.036791217   0.03720196            3 
 1219000    1.0611684   -6.0540932    540.98822  0.036983061  0.037191448            3 
 1220000    1.0884441   -6.0847801    538.29347   0.03676868  0.037181334            2 
 1221000    1.0412909   -6.1070607    538.45736  0.036749752  0.037170914            9 
 1222000    1.0947161   -6.0588224    538.86665  0.036747589  0.037160496            4 
 1223000    1.0572797   -6.0635341     540.0684  0.036799428  0.037150411            2 
 1224000    1.0682861   -6.0471323    541.44548  0.036863118   0.03714005            4 
 1225000    1.0490265   -6.0386736    541.12362  0.036811131  0.037129876            6 
 1226000     1.038377   -6.0640669    541.51966  0.036808025  0.037119683            4 
 1227000     1.066112   -6.0670788    540.45839  0.036705949  0.037109721            3 
 1228000    1.0615139   -6.0875673    542.23936  0.036796917  0.037099407            4 
 1229000    1.0473127   -6.0688684    542.39378  0.036777446   0.03708883            3 
 1230000      1.07259   -6.0436387    543.29414  0.036808546   0.03707846            2 
 1231000    1.0657486   -6.0878344    542.44394   0.03672109  0.037068314            3 
 1232000    1.0416137   -6.0574039    545.23718   0.03688022  0.037058214            3 
 1233000    1.0590082    -6.053009    543.86615  0.036757647  0.037048007            4 
 1234000    1.0205242   -6.0906497    543.07673  0.036674549  0.037037664            3 
 1235000    1.0492604   -6.0495782     546.1797  0.036854231  0.037027223            4 
 1236000    1.0730098   -6.0262058    547.99221  0.036946616  0.037017078            2 
 1237000    1.0638345   -6.0425802    547.02516  0.036851601  0.037007057            3 
 1238000     1.077476   -6.0676208    543.91394  0.036612409  0.036997023            3 
 1239000    1.0662422   -6.0789976    543.87434  0.036580195  0.036986688            4 
 1240000    1.0758404   -6.0723211     544.6879   0.03660537  0.036976308            3 
 1241000    1.0518127   -6.0665781    547.22106  0.036745975   0.03696598            4 
 1242000    1.0530385   -6.0701877    548.27817  0.036787317  0.036955559           15 
 1243000    1.0579796   -6.0832936     546.1013   0.03661178  0.036945456            2 
 1244000     1.024934   -6.0488049    548.38616  0.036735407  0.036935245            4 
 1245000    1.0765886   -6.0912642    547.04238  0.036615956  0.036925269            3 
 1246000    1.0573853   -6.0698799    547.01325  0.036584621  0.036915111            4 
 1247000    1.0499128   -6.0406464    548.59638  0.036661079  0.036905074            4 
 1248000    1.0438619   -6.0607338    547.01522  0.036526123  0.036895116           12 
 1249000    1.0554768   -6.0482551    547.96188   0.03656004  0.036885062            5 
 1250000    1.0363348   -6.0751684    547.74212  0.036516142   0.03687486            5 
 1251000    1.0165344   -6.0964021    547.96904  0.036502068  0.036864497            5 
 1252000    1.0677684   -6.0199672       550.88  0.036666667  0.036854262            4 
 1253000    1.0494001   -6.1190503    547.21441  0.036393616  0.036843894            2 
 1254000     1.054596   -6.0659468    548.60062  0.036456713  0.036833292            3 
 1255000    1.0480583   -6.0708639    549.88667  0.036513059  0.036822906            3 
 1256000    1.0668901   -6.0665752     549.5011  0.036458407  0.036812716            4 
 1257000    1.0406257   -6.0779746    550.21145  0.036476495  0.036802536            2 
 1258000    1.0410525   -6.0672611    550.34749  0.036456511  0.036792307            6 
 1259000    1.0537886   -6.1044786    551.32901  0.036492521  0.036782038            7 
 1260000    1.0646696   -6.0748065    551.96522  0.036505636  0.036771525            3 
 1261000    1.0903729   -6.1087016    550.63133  0.036388536  0.036761044            6 
 1262000    1.0588654   -6.0682051    552.54859  0.036486304  0.036750499            4 
 1263000    1.0678842   -6.0489577     552.9848  0.036486197  0.036740124            4 
 1264000    1.0568789   -6.0669206    552.63957  0.036434571  0.036729881            5 
 1265000     1.067418   -6.0798962    552.93483   0.03642522  0.036719943            4 
 1266000    1.0502804   -6.1058404    552.42219  0.036362703  0.036709716            2 
 1267000    1.0408236   -6.0770589    554.24149  0.036453663  0.036699725           13 
 1268000    1.0320363   -6.0860096    554.20803  0.036422715  0.036689642            6 
 1269000    1.0411062   -6.0797232    553.80927  0.036367827  0.036679753            4 
 1270000    1.0566822   -6.0746238    553.79976  0.036338567  0.036669803            5 
 1271000    1.0465014   -6.0366875    556.55021   0.03649031  0.036659767            4 
 1272000    1.0477681   -6.0599415    558.27466  0.036574598  0.036649968            4 
 1273000    1.0594098   -6.0678829    555.33057   0.03635314  0.036640217            4 
 1274000    1.0524661   -6.0654541    556.18699  0.036380625  0.036630409            7 
 1275000    1.0490311   -6.0547775    559.00481  0.036536262  0.036620674            6 
 1276000    1.0541047   -6.0066178    559.14712  0.036516922  0.036610832            2 
 1277000     1.037743   -6.0812701    555.76781  0.036267803  0.036601141            5 
 1278000    1.0548666   -6.0848496    557.78603  0.036371025  0.036591375            2 
 1279000    1.0404872   -6.0915921    559.11939  0.036429462  0.036581401            7 
 1280000     1.032088   -6.0725581    558.77861  0.036378816  0.036571928            3 
 1281000    1.0427339   -6.0713128     557.9665  0.036297586  0.036562389            3 
 1282000    1.0411114   -6.0844736    559.26587  0.036353736   0.03655263            3 
 1283000    1.0431244    -6.095016    560.21899  0.036387308  0.036542859            4 
 1284000    1.0404159    -6.041203     560.7744  0.036395016  0.036533402            3 
 1285000    1.0261913    -6.037905    562.40469  0.036472418  0.036523807            2 
 1286000    1.0479312   -6.0516524    563.22602   0.03649728  0.036514251            4 
 1287000    1.0601603   -6.0561067    562.43584  0.036417757  0.036504548            3 
 1288000    1.0456838   -6.0473741    562.95453  0.036423042  0.036494866            5 
 1289000     1.063352   -6.0606423    564.39975  0.036488218  0.036485308            2 
 1290000    1.0657824    -6.086356    562.74419  0.036352984  0.036475692           10 
 1291000    1.0284429   -6.1214617    560.19842  0.036160497  0.036465765           13 
 1292000    1.0528246   -6.0840183     563.2207  0.036327444  0.036455964            2 
 1293000    1.0512967   -6.0673385    565.36619  0.036437625   0.03644638            4 
 1294000    1.0395629   -6.1316634    562.17337  0.036203849  0.036436496            5 
 1295000     1.053546   -6.0833971    563.98897  0.036292727  0.036426806            3 
 1296000    1.0695787   -6.0541052    565.85827   0.03638492  0.036417226            4 
 1297000    1.0647212   -6.0878111    564.52932   0.03627148  0.036407627            4 
 1298000     1.057354   -6.1033463    563.71393  0.036191187  0.036397925            3 
 1299000    1.0653708   -6.0583657    565.65172  0.036287639  0.036388412            6 
 1300000    1.0553137   -6.0765324     565.6983  0.036262711  0.036379041            2 
 1301000    1.0486731   -6.0985719    564.45197  0.036155007  0.036369431            4 
 1302000    1.0505262   -6.0673423    565.70882  0.036207682  0.036360007            5 
 1303000    1.0211151   -6.0802967    567.60946  0.036301449  0.036350632            2 
 1304000    1.0616756   -6.0431112    566.90118  0.036228347   0.03634118            4 
 1305000    1.0271624   -6.0957631    565.75105  0.036127143  0.036331791            4 
 1306000    1.0356118   -6.0391764    568.51871  0.036276079  0.036322219            4 
 1307000     1.027855   -6.0855491    566.71013   0.03613301  0.036312605            7 
 1308000    1.0210176   -6.0797367    569.31302  0.036271217  0.036303312            2 
 1309000    1.0595336   -6.0825788     568.4012   0.03618546  0.036293966            3 
 1310000    1.0522381   -6.0718453    569.10488    0.0362026  0.036284347            3 
 1311000    1.0412829   -6.0721885    569.69402  0.036212434  0.036274739            9 
 1312000    1.0128344   -6.1258042    569.05286  0.036144109  0.036265389            3 
 1313000    1.0546246   -6.1208683      569.311  0.036132965  0.036255771            2 
 1314000    1.0230109    -6.109383    568.21601  0.036036023  0.036246297            1 
 1315000    1.0470968    -6.074598    570.89775  0.036178564  0.036236963            5 
 1316000    1.0424455   -6.0870583    569.19457  0.036043223  0.036227372            3 
 1317000    1.0423594   -6.0867605    570.39838  0.036092026  0.036217819            2 
 1318000    1.0279368   -6.0967167    570.63781   0.03607978  0.036208187            4 
 1319000    1.0456364   -6.1171433    568.93856  0.035945069  0.036198514            5 
 1320000    1.0395521   -6.1158318    569.72572  0.035967533  0.036188795            4 
 1321000    1.0386904   -6.0613655    573.92852  0.036205433  0.036179315            3 
 1322000    1.0458701   -6.0834705    571.50342  0.036025177  0.036169529            3 
 1323000    1.0317265   -6.0829249    570.25656  0.035919411  0.036159828            6 
 1324000     1.022602   -6.0455094    571.54579  0.035973426  0.036150029            5 
 1325000     1.045544   -6.1117097    570.34312  0.035870637  0.036140282            4 
 1326000    1.0283393   -6.1079543    569.91496  0.035816676  0.036130578            6 
 1327000    1.0257158   -6.0808122    573.45693  0.036012115  0.036120806            4 
 1328000    1.0593503   -6.0856083    572.00754  0.035894048   0.03611132            2 
 1329000    1.0550525   -6.1039707    571.77735  0.035852605   0.03610158            2 
 1330000    1.0600305   -6.1189744    573.04183  0.035904877  0.036091929            2 
 1331000    1.0340851   -6.0978347    573.65904  0.035916544  0.036082045            3 
 1332000    1.0454869   -6.0954381    575.32213  0.035993627  0.036072094            4 
 1333000    1.0592192   -6.0592729    575.95842  0.036006403  0.036062321            4 
 1334000     1.035087   -6.0550194    575.32844  0.035940057  0.036052419            4 
 1335000    1.0390125   -6.1021133    574.73427  0.035876047  0.036042466            4 
 1336000    1.0285247   -6.0788391     576.0562  0.035931649  0.036032676            7 
 1337000    1.0485465   -6.0802632    574.82248  0.035827878  0.036022862            2 
 1338000    1.0321839   -6.0914272    574.81138   0.03580041  0.036012976            4 
 1339000    1.0316917   -6.0958126    576.84041  0.035899951  0.036003381            3 
 1340000    1.0384893   -6.0856007    576.09677  0.035826913  0.035993745            3 
 1341000    1.0255076   -6.0799255    575.75044  0.035778675  0.035984315            3 
 1342000    1.0341027   -6.1243428    575.53061  0.035738364  0.035974695            5 
 1343000    1.0510433   -6.0941847    576.52413  0.035773401  0.035964883            6 
 1344000    1.0238306   -6.0926241    578.76544  0.035885754  0.035955242            5 
 1345000    1.0465349   -6.0818729    579.31893  0.035893366  0.035946107            5 
 1346000     1.024543   -6.1081513    578.86651  0.035838689  0.035936544            4 
 1347000    1.0339169   -6.0997043    579.71802  0.035864763  0.035926867            2 
 1348000    1.0083503   -6.1484742    578.65555  0.035772475  0.035917502            4 
 1349000    1.0416673   -6.1347079    578.68734  0.035747921  0.035908112            4 
 1350000    1.0233395   -6.0989877    579.53664  0.035773867  0.035898626            4 
 1351000    1.0186852   -6.0603283    581.80033  0.035887018  0.035889167            2 
 1352000    1.0258231   -6.1540392    580.52248  0.035781711   0.03587998            2 
 1353000    1.0419517   -6.1153553    579.94112  0.035719458  0.035870702            3 
 1354000    1.0319696   -6.0836151    581.72073  0.035802605  0.035861554            3 
 1355000    1.0295228   -6.0982255    583.28864   0.03587261  0.035852408            4 
 1356000    1.0409758   -6.0809977    584.19069  0.035901591  0.035843403            2 
 1357000    1.0152178   -6.0961764    582.81091  0.035790402  0.035834323            5 
 1358000    1.0359934   -6.0877199    585.33501  0.035918938  0.035825272            5 
 1359000    1.0104934   -6.1045879     585.7694  0.035919144  0.035816275            4 
 1360000    1.0449192   -6.0983899    583.40497  0.035747854  0.035807089            3 
 1361000    1.0312354   -6.0848769    584.34378  0.035779071  0.035797899            6 
 1362000    1.0198423   -6.1063506    583.61985  0.035708507  0.035788937            7 
 1363000    1.0335204   -6.0786129    585.72737  0.035811162  0.035779912            3 
 1364000    1.0189454   -6.1257333    584.50634  0.035710309  0.035771034            5 
 1365000    1.0262986   -6.1233476    585.82175  0.035764454  0.035761965            5 
 1366000    1.0371177   -6.1458511    585.71588  0.035731813  0.035752825            2 
 1367000    1.0351301   -6.0770275     586.2292  0.035736966  0.035743679            2 
 1368000    1.0477069   -6.1117218    586.52864  0.035729084  0.035734681            2 
 1369000    1.0110216     -6.11373    586.59117  0.035706791  0.035725573            7 
 1370000    1.0240058   -6.1410219    587.80073  0.035754303  0.035716683            2 
 1371000    1.0142049   -6.1787379    584.79535  0.035545548   0.03570772            6 
 1372000    1.0297021   -6.0776755    589.79683  0.035823422  0.035698735            5 
 1373000    1.0257538   -6.1012635    590.11405  0.035816584  0.035689901           22 
 1374000    1.0339627    -6.131811    587.14532  0.035610463   0.03568103            5 
 1375000    1.0165577   -6.0650673    590.79393  0.035805692  0.035672337            7 
 1376000    1.0046666   -6.1170659    589.15097   0.03568017  0.035663696            4 
 1377000    1.0385143   -6.1155549    589.63968  0.035683834  0.035655232            3 
 1378000     1.043711   -6.1123178    592.33456   0.03582091  0.035646629            6 
 1379000    1.0484855    -6.115666    590.74939  0.035699142  0.035638161            2 
 1380000    1.0416729   -6.1392297    590.33224  0.035648082  0.035629613            7 
 1381000    1.0432931   -6.0840325    592.25629  0.035738371  0.035621198            2 
 1382000     1.041542   -6.1057251    591.85015  0.035688021  0.035613026            7 
 1383000    1.0412293    -6.095056    593.31907  0.035750727  0.035604634            5 
 1384000    1.0365196   -6.1071718    595.28034  0.035842988  0.035596346            4 
 1385000    1.0456305   -6.1551552    592.80657  0.035668265  0.035588186            3 
 1386000    1.0383171   -6.1036994    597.22029  0.035907906  0.035579962            3 
 1387000     1.021366   -6.1300223    596.20725  0.035821152  0.035571797            4 
 1388000    1.0445646   -6.1308537    595.18728  0.035734107  0.035563623            3 
 1389000    1.0369069   -6.1184179    593.50943  0.035607717  0.035555312            3 
 1390000    1.0377692   -6.1269593     593.9815  0.035610401  0.035547009            2 
 1391000    1.0569083   -6.1189593    595.12353  0.035653219  0.035538733            3 
 1392000    1.0263557   -6.0952327    594.63192  0.035598175  0.035530562            3 
 1393000    1.0416049   -6.1209929    595.77295   0.03564088  0.035522121            4 
 1394000    1.0356252   -6.1209417    595.34113  0.035589498  0.035513655            5 
 1395000    1.0519189   -6.1418942    594.45034  0.035510773  0.035505322            2 
 1396000    1.0147172   -6.1176945     597.1953  0.035649194  0.035496801            3 
 1397000    1.0053466   -6.1274754    597.52492  0.035643338  0.035488393            5 
 1398000    1.0440835   -6.0900883    600.66684  0.035805129  0.035480153            5 
 1399000    1.0242661   -6.1196026    597.61936  0.035598008   0.03547197            3 
 1400000    1.0211905   -6.1038695    600.34108  0.035734588  0.035463807            7 
 1401000    1.0283698    -6.140623    598.20047  0.035581755  0.035455661           10 
 1402000    1.0128909   -6.0711395    601.73009  0.035766173  0.035447627            2 
 1403000    1.0291448   -6.1192763    599.78709  0.035625273  0.035439648            4 
 1404000    1.0193831   -6.1148583    601.58585  0.035706662   0.03543151            5 
 1405000    1.0249812   -6.1102958    601.24363  0.035660951  0.035423296            4 
 1406000    1.0421912   -6.1448471    600.05448  0.035565106  0.035415027            3 
 1407000    1.0256715   -6.1424994    598.52515  0.035449251  0.035406834            5 
 1408000   0.99852008   -6.1199445    602.98091  0.035687791  0.035398918            5 
 1409000     1.023915   -6.1569913    601.63584   0.03558291  0.035391056            3 
 1410000    1.0250168   -6.1248527    602.35597  0.035600234  0.035383033            2 
 1411000   0.99126782   -6.1368246    600.78948  0.035482488  0.035375042            2 
 1412000    1.0313852   -6.1625371    602.87003  0.035580148  0.035367173            4 
 1413000    1.0489646   -6.1111214    604.65211  0.035660068  0.035359144            4 
 1414000     1.036849   -6.0957417    604.49984  0.035625875  0.035351323            4 
 1415000    1.0413197   -6.1421982    604.34885  0.035591805  0.035343496            6 
 1416000    1.0447781   -6.1113529    604.19973  0.035557894  0.035335903            2 
 1417000    1.0240432   -6.1582428    604.99395  0.035579508  0.035328082            3 
 1418000      1.03586   -6.1175826    606.29672  0.035630978  0.035320154            3 
 1419000    1.0466466   -6.1392889    603.94606  0.035467821  0.035312079            3 
 1420000    1.0287575   -6.0984159    608.11389  0.035687435  0.035304046            3 
 1421000    1.0145538   -6.1264027    605.99551   0.03553809  0.035296329            5 
 1422000     1.029449   -6.1195282    607.08124  0.035576725  0.035288303            3 
 1423000    1.0165811   -6.1273357    606.77509  0.035533795  0.035280538            2 
 1424000    1.0101944   -6.1024242    608.85437  0.035630522  0.035272666            5 
 1425000    1.0003183   -6.1360338    606.49783  0.035467709   0.03526456            5 
 1426000    1.0351244   -6.0882759    608.25873  0.035545742  0.035256558            3 
 1427000    1.0343072   -6.1213628    605.33093  0.035349856  0.035248566            4 
 1428000    1.0081762   -6.1351916    606.70105  0.035405056  0.035240399            5 
 1429000    1.0123601    -6.169966    607.08319  0.035402566  0.035232231            8 
 1430000    1.0235988    -6.102473    607.69393  0.035413399  0.035223845            5 
 1431000    1.0467525   -6.1296597    606.67705  0.035329434  0.035215294            3 
 1432000    1.0137766   -6.1141873     606.4832  0.035293482  0.035206787            7 
 1433000    1.0349082   -6.1020446    607.83207  0.035347294  0.035198498            3 
 1434000    1.0164921   -6.1570648    606.00241  0.035216318  0.035189992            3 
 1435000    1.0107238   -6.1510468    605.25391   0.03514831  0.035181492            3 
 1436000    1.0325378   -6.1396536    608.17234  0.035293195  0.035172712            4 
 1437000    1.0137956   -6.1780732    606.76865  0.035187233  0.035163975            4 
 1438000    1.0326506   -6.1234311    608.73586  0.035276765  0.035155347            5 
 1439000   0.99551397    -6.135862    610.72723  0.035367572  0.035146742            3 
 1440000    1.0015119   -6.1122144    609.43144  0.035268023    0.0351384            7 
 1441000      1.03412   -6.1209584    609.00537  0.035218909  0.035129992            3 
 1442000    1.0269231   -6.1375269    610.34917  0.035272143   0.03512169            7 
 1443000    1.0327811   -6.1287889    610.32277  0.035246175  0.035113015            4 
 1444000    1.0504485    -6.161966    609.22065  0.035158163  0.035104474            4 
 1445000    1.0334603   -6.1654161    607.02472  0.035007193  0.035095841            8 
 1446000    1.0369645   -6.1228303    609.89624  0.035148469  0.035086955            5 
 1447000    1.0061217   -6.1333689    608.95875  0.035070188  0.035078512            3 
 1448000   0.99466728   -6.1431254    610.94158  0.035160082  0.035069743            3 
 1449000    1.0212332   -6.1578565    610.30796  0.035099376  0.035061144            5 
 1450000     1.033122   -6.1498883    611.87703  0.035165346  0.035052422            5 
 1451000    1.0275092   -6.1317155    612.94651  0.035202534  0.035044141            6 
 1452000    1.0041985   -6.1044626    615.20941  0.035308162  0.035035955            2 
 1453000    1.0232253   -6.1115101    612.18963  0.035110669  0.035027869            3 
 1454000    1.0345899   -6.0959613    614.94274  0.035244311  0.035019522            3 
 1455000    1.0375461   -6.1012083    614.66765  0.035204333  0.035011183            3 
 1456000    1.0268321   -6.1565354    612.65451  0.035064933  0.035002706            3 
 1457000    1.0227182    -6.129053    614.68972  0.035157271  0.034994422            4 
 1458000    1.0215951   -6.1309763    613.94984  0.035090868  0.034986027            2 
 1459000    1.0096236   -6.1338208    615.54788  0.035158092  0.034977616            6 
 1460000    1.0231319   -6.1527672    615.59985  0.035136978   0.03496942            3 
 1461000    1.0150417   -6.1756786    614.97112  0.035077066  0.034961331            4 
 1462000   0.99813364   -6.1569652    616.18934  0.035122511  0.034953172            7 
 1463000    1.0196332   -6.1677153    613.23855  0.034930426  0.034944751            4 
 1464000    1.0102813   -6.1375615    615.09227  0.035012083  0.034936288            3 
 1465000    1.0128871   -6.1316079    617.21381  0.035108863  0.034928023            2 
 1466000    1.0072709   -6.1804657    614.86509  0.034951404  0.034919602            2 
 1467000    1.0415175   -6.1232973    618.22831  0.035118627  0.034911311            9 
 1468000    1.0074331   -6.1305662    618.11507  0.035088276  0.034903159            4 
 1469000    1.0100336   -6.1785046    616.92323  0.034996779  0.034894924            3 
 1470000    1.0137333   -6.1682982    617.81776  0.035023682  0.034886729            3 
 1471000    1.0313317   -6.1829271    618.11604  0.035016771  0.034878504            8 
 1472000    1.0175956   -6.1678188    619.14399  0.035051177   0.03487015            6 
 1473000   0.99791098    -6.147086      619.195  0.035030267  0.034861742            3 
 1474000    1.0136835   -6.1850179    617.54346  0.034913131   0.03485326            4 
 1475000    1.0270669   -6.1271641    620.29834  0.035045104  0.034844784            4 
 1476000    1.0064036   -6.1266132    621.29947  0.035077883  0.034836611            3 
 1477000    1.0262503   -6.1318951    619.90102  0.034975232  0.034828401            2 
 1478000    1.0155372   -6.1481487    619.64653   0.03493722  0.034820073            4 
 1479000     1.010966   -6.1692095    620.55276  0.034964658  0.034811928            4 
 1480000     1.013556   -6.1486432     619.4591  0.034879454  0.034803652            6 
 1481000    1.0236534   -6.1081756    621.40014  0.034965122  0.034795356            5 
 1482000    1.0340617    -6.169778    620.30516  0.034879957  0.034786916            5 
 1483000     1.001638   -6.1572694    622.55653  0.034982947  0.034778652            3 
 1484000    1.0159244   -6.1403987    621.69756  0.034911139  0.034770393            2 
 1485000    1.0064327   -6.1349896    624.32075  0.035034834  0.034762365            5 
 1486000    1.0138257   -6.1309839    623.66163  0.034974295   0.03475424            4 
 1487000    1.0266161   -6.1533586    623.33841  0.034932662  0.034746171            7 
 1488000    1.0168919   -6.1542457    621.30186  0.034795131  0.034737976            8 
 1489000    1.0194843   -6.1096809    624.53153  0.034952514  0.034729832            3 
 1490000     1.010682   -6.1360814    625.66177  0.034992269  0.034721742            3 
 1491000    1.0077876   -6.1429664    625.31909  0.034949648  0.034713703            5 
 1492000    1.0007311   -6.1153796    628.30255  0.035092859  0.034705716            7 
 1493000    1.0307198   -6.1516985    626.30913   0.03495809  0.034697659            6 
 1494000    1.0170086   -6.1213091    624.73302  0.034846777   0.03468939            3 
 1495000    1.0238406   -6.1483466    625.68958  0.034876788  0.034681203            2 
 1496000    1.0209365   -6.1553708    626.14236  0.034878697  0.034673144            4 
 1497000    1.0060378   -6.1501534    626.01408  0.034848256  0.034665169            2 
 1498000    1.0335014   -6.1640685    628.22686   0.03494809  0.034657136            4 
 1499000    1.0094494   -6.1552847    627.08409  0.034861246  0.034648873            5 
 1500000    1.0057544   -6.1719356     627.5599  0.034864439  0.034640636            4 
 1501000    1.0181479   -6.1861414    626.67198  0.034791915  0.034632495            3 
 1502000    1.0283604   -6.1629895    625.90947  0.034726447  0.034624186            3 
 1503000    1.0295871   -6.1823552    627.98906  0.034818644  0.034615827            6 
 1504000    1.0122123   -6.1636519    627.48577  0.034767607  0.034607518            5 
 1505000    1.0101612   -6.1806636    628.78873  0.034816652  0.034599372            4 
 1506000    1.0268036   -6.1798019    626.83657  0.034685512  0.034591174           12 
 1507000    1.0257249   -6.1717222    627.04891  0.034674237  0.034582846           10 
 1508000   0.99076374   -6.1662498    627.57593  0.034680367  0.034574563            5 
 1509000    1.0242822   -6.1946178    629.92907  0.034787335  0.034566194            3 
 1510000    1.0088017   -6.1607315    628.65385  0.034693921  0.034557843            3 
 1511000    1.0021313   -6.1605318    627.21964  0.034591862  0.034549459            3 
 1512000   0.99162328   -6.1563604    630.32122  0.034739926  0.034541171            4 
 1513000   0.98818905   -6.1570627    630.80649  0.034743693  0.034533096           11 
 1514000    1.0133754   -6.1746356    629.86487  0.034668916  0.034524899            4 
 1515000   0.98693923    -6.149468    632.31481  0.034780792  0.034516888            3 
 1516000    1.0191313   -6.1682261    630.79773  0.034674458  0.034508689            3 
 1517000    1.0139893   -6.1598299     631.5376  0.034692244  0.034500432            3 
 1518000    1.0154526   -6.1913207    630.36042  0.034604766  0.034492121            7 
 1519000     1.009728   -6.1649037    630.48878  0.034589027  0.034483654            4 
 1520000   0.99491905   -6.1483371    632.92202  0.034699672  0.034475141            8 
 1521000   0.99444073   -6.1522254    632.74335   0.03466707  0.034467005            7 
 1522000     1.028979   -6.1616009    630.52697   0.03452294  0.034458707            3 
 1523000   0.99914946   -6.1754033    634.03968  0.034692475  0.034450455            4 
 1524000    1.0168774   -6.1621321    634.01936    0.0346686  0.034442186            4 
 1525000     1.017503    -6.186413     634.5254  0.034673519  0.034433764            5 
 1526000    1.0235074   -6.1783139     631.9087  0.034507902  0.034425492            4 
 1527000   0.99892093   -6.1578256    633.19672  0.034555595  0.034417231            2 
 1528000    1.0140856    -6.182573    633.44536   0.03454654  0.034408992            4 
 1529000     1.008296   -6.1083138    636.46073  0.034688289  0.034400914            3 
 1530000   0.99590162   -6.1770552     634.4364   0.03455536  0.034392576            8 
 1531000    1.0043155   -6.1584266    635.97786  0.034616692  0.034384267            3 
 1532000    1.0270632    -6.185052    631.50765  0.034350938  0.034375885            3 
 1533000    1.0015579    -6.193936    635.91934  0.034568349  0.034367452            2 
 1534000     1.006536   -6.1636724    635.15313   0.03450419  0.034359162            4 
 1535000    0.9978959   -6.1802912    634.73018   0.03445875  0.034351014            8 
 1536000   0.98770085   -6.1856317    637.12091  0.034566022  0.034342682            3 
 1537000    1.0164961   -6.1562507    636.31303   0.03449973  0.034334499            3 
 1538000   0.99940415   -6.1483439    639.47444  0.034648594  0.034326385            4 
 1539000   0.99440668   -6.1570991     638.3705  0.034566304  0.034318198            6 
 1540000   0.99051561   -6.1856575    638.85057  0.034569836  0.034310027            7 
 1541000   0.98304154    -6.146115    638.48895  0.034527847  0.034302071            7 
 1542000   0.98645674   -6.1313013     641.4179  0.034663743  0.034294155            3 
 1543000   0.99702207   -6.1997903    637.68752   0.03443981  0.034286211            3 
 1544000    1.0132115   -6.1744837     640.2091    0.0345536   0.03427814            4 
 1545000     1.017963   -6.1925212    638.19925  0.034422829   0.03427026            4 
 1546000    1.0093378   -6.1481374    640.83278  0.034542517  0.034262135            5 
 1547000   0.99240941   -6.1980651     639.4231  0.034444252  0.034254275            5 
 1548000    0.9979387   -6.2301725    635.55542  0.034213793  0.034246023            4 
 1549000    0.9848745   -6.2329179    638.86771    0.0343699  0.034237899            4 
 1550000    1.0218026    -6.163709      641.157  0.034470807  0.034229748            3 
 1551000   0.99914499   -6.1813712    640.59795  0.034418545   0.03422156            5 
 1552000    1.0242461    -6.176656    642.47535  0.034497173  0.034213542            8 
 1553000   0.99013629   -6.1820165    640.34277  0.034360526   0.03420531            4 
 1554000    1.0112306   -6.2367184    638.72426  0.034251623  0.034197097            6 
 1555000    1.0002651   -6.1611051    644.48882  0.034538522  0.034189018            3 
 1556000   0.99149182   -6.1326969    644.65465  0.034525206  0.034181071            4 
 1557000      1.02737   -6.1925112    642.67523   0.03439709  0.034173059           10 
 1558000    1.0062327   -6.1531025    643.90373  0.034440722  0.034165002            3 
 1559000   0.99155557   -6.2127143     642.9868  0.034369617  0.034157031            5 
 1560000    1.0026742   -6.1798582    641.81939  0.034285224  0.034149029            3 
 1561000    1.0001609   -6.2105088    643.57713  0.034357097  0.034141196            3 
 1562000    1.0048134   -6.1851732    642.57425  0.034281597  0.034133092            6 
 1563000    1.0193739   -6.1959738    644.18432  0.034345506  0.034124873            8 
 1564000   0.99578971   -6.1842026    646.81764  0.034463855  0.034116948            9 
 1565000    1.0080312   -6.2145444    643.28043  0.034253484  0.034108763            3 
 1566000   0.99665103   -6.2217778    642.78783  0.034205397  0.034100348            4 
 1567000    1.0080394   -6.1559563    644.59689  0.034279775  0.034092064            3 
 1568000    1.0074828   -6.1730524    644.88928  0.034273453  0.034083924           12 
 1569000    1.0006007   -6.1877084    643.76421  0.034191853   0.03407586            3 
 1570000    1.0072951   -6.1869701    644.39076  0.034203331  0.034067745            3 
 1571000    1.0182926   -6.1884392    645.61891  0.034246707   0.03405965            4 
 1572000    1.0110716   -6.1839408    646.16325  0.034253777  0.034051206            3 
 1573000    1.0080954   -6.1774843    646.04068  0.034225508  0.034042721            4 
 1574000   0.98703036   -6.1579304    645.42578  0.034171208  0.034034258            4 
 1575000    1.0012342    -6.169159    647.40193  0.034254071  0.034026131            2 
 1576000   0.98064537   -6.1951247    646.07726  0.034162291  0.034017948            3 
 1577000    1.0033289   -6.2212359    645.04574   0.03408612  0.034009581            2 
 1578000    1.0131075   -6.1728968    646.53265  0.034143042  0.034001123            4 
 1579000    1.0174376   -6.1803558    644.73437  0.034026513  0.033992631            6 
 1580000   0.99945106   -6.1838689    646.85849  0.034117009   0.03398419            4 
 1581000    1.0161736   -6.1779004    647.95988  0.034153483  0.033975692            8 
 1582000    1.0119544   -6.1863328    647.12235  0.034087776  0.033967084            3 
 1583000   0.99863096   -6.2022473    645.75723  0.033994379  0.033958539            3 
 1584000   0.97305121   -6.1801527    646.05158  0.033988404  0.033949915            3 
 1585000    1.0162311   -6.1910487    647.10465  0.034022326  0.033941374           14 
 1586000   0.99088179   -6.1859159    649.25683  0.034113957  0.033932705            2 
 1587000   0.99002823   -6.1622007     650.3954  0.034152247  0.033924202            7 
 1588000    0.9941061   -6.2173306    647.42927  0.033975088  0.033915761            3 
 1589000   0.99514462   -6.1814689    646.94338  0.033928224  0.033907088            3 
 1590000   0.99355837   -6.2004947    647.28434  0.033924756  0.033898615            4 
 1591000    1.0016127   -6.1976695    648.03728   0.03394287  0.033890156            3 
 1592000    1.0106362   -6.2053437    650.34585  0.034042392  0.033881768            8 
 1593000   0.98540983   -6.2057647    652.01852  0.034108523  0.033873235            6 
 1594000    1.0034475   -6.2085526    648.52291  0.033904376  0.033864829            7 
 1595000   0.98996956   -6.1994667    649.41491  0.033929724  0.033856459            3 
 1596000    1.0067748   -6.2090854    651.48695  0.034016654  0.033848157            2 
 1597000    1.0049814   -6.1896019    651.00756  0.033970338  0.033839674            2 
 1598000    1.0081128   -6.1840779    650.22387  0.033908212  0.033831267            7 
 1599000    1.0020197   -6.1809013    651.44984  0.033950899  0.033822666            5 
 1600000   0.99205614   -6.1933415    651.98683  0.033957647  0.033814028            4 
 1601000   0.97512744   -6.2077753    650.29431   0.03384834  0.033805446            2 
 1602000    0.9713881   -6.1960322    651.00008  0.033863924   0.03379694            5 
 1603000   0.98156036   -6.2088129    651.44624  0.033865993  0.033788315            6 
 1604000    1.0190689   -6.2012537    649.90574  0.033764845  0.033779699            5 
 1605000    1.0039322   -6.1953913     652.9406  0.033901381   0.03377102            8 
 1606000    0.9955976   -6.2328703    652.08026   0.03383563  0.033762376            3 
 1607000   0.99329073    -6.173733     653.7029  0.033898719   0.03375382            5 
 1608000   0.97704777   -6.2024519     650.9308  0.033733976   0.03374525            3 
 1609000   0.99757051   -6.2536652    650.98261  0.033715694  0.033736413            3 
 1610000   0.99704958    -6.203897    653.12072   0.03380542  0.033727518            6 
 1611000    0.9912535   -6.2140242     649.6975  0.033607361  0.033718689            4 
 1612000   0.99372116   -6.1843026    653.92271  0.033804937  0.033709941            4 
 1613000   0.98960606   -6.2033111    653.06635  0.033739737  0.033701277            6 
 1614000    0.9919317    -6.241095    650.93068  0.033608565  0.033692409            5 
 1615000   0.96566382    -6.177297    655.08115  0.033801917  0.033683791            5 
 1616000    1.0044658   -6.2073523    656.07758  0.033832384  0.033675174            2 
 1617000    0.9928169   -6.1982797    652.35875  0.033619808  0.033666365            4 
 1618000   0.99593654   -6.1769518    655.00318  0.033735228  0.033657941            5 
 1619000    1.0173427   -6.2343239    655.10323  0.033719541  0.033649198            2 
 1620000   0.98707002   -6.2266731     655.1726  0.033702294  0.033640666            5 
 1621000   0.96898301   -6.2150716    654.58948  0.033651526  0.033631872            7 
 1622000   0.98086614   -6.2252786    654.86809  0.033645093  0.033623328            3 
 1623000   0.99696062   -6.2222517    655.29424  0.033646243  0.033614569            4 
 1624000    1.0129071   -6.2479818    654.70118  0.033595094  0.033605872            3 
 1625000   0.98690214   -6.1958116    656.56632  0.033670068  0.033597304            4 
 1626000   0.99518325   -6.2000755    656.35169   0.03363836  0.033588705            3 
 1627000    0.9963485   -6.2319326    655.74446  0.033586584  0.033579943            2 
 1628000    1.0129383   -6.1900881    656.94431  0.033627371  0.033571457            5 
 1629000   0.98338582   -6.2499846    655.65542  0.033540793  0.033562745            4 
 1630000   0.96854874   -6.2442964    656.92034  0.033584884   0.03355406            4 
 1631000    1.0012068   -6.2321443    656.71908   0.03355401  0.033545499            3 
 1632000   0.98540426   -6.1968402    657.85407  0.033591405  0.033536775            3 
 1633000   0.97330748   -6.2195647    656.84138  0.033519156  0.033528338            5 
 1634000   0.98312911   -6.2430219    658.03944  0.033559743  0.033519798           11 
 1635000   0.98834295   -6.2090886    659.65425  0.033621522  0.033511461            7 
 1636000   0.99705409    -6.195515    659.35192  0.033585571  0.033503053            5 
 1637000   0.98124569   -6.2381989    659.78651  0.033587177  0.033494492           11 
 1638000    1.0058561   -6.2095619    661.54363  0.033656066  0.033485989            5 
 1639000   0.96900867   -6.2553689    657.00979  0.033405013  0.033477292            5 
 1640000    0.9987363   -6.2118341    661.09547  0.033592249  0.033468565            3 
 1641000   0.97051655   -6.2454463    660.58853  0.033546035  0.033460192            6 
 1642000   0.98262449   -6.2411045    660.95067  0.033543984  0.033451749            3 
 1643000   0.99287691   -6.2608349    658.10086  0.033379025  0.033443247            5 
 1644000    0.9858703   -6.2338295    662.58298  0.033585917  0.033434856            3 
 1645000   0.99844885   -6.2195994     661.6813  0.033519823  0.033426575            2 
 1646000   0.96316082   -6.2518698     662.1622  0.033523805  0.033418305            7 
 1647000   0.97744333   -6.1987191    664.06303  0.033599627  0.033410091            4 
 1648000   0.99104798   -6.2119057    665.14691  0.033634047  0.033401894            4 
 1649000   0.99092733   -6.2163825    662.31213  0.033470393  0.033393743            2 
 1650000   0.99086133   -6.2192141    663.75392  0.033522925   0.03338552            2 
 1651000   0.96783915    -6.236702    663.28984  0.033479196   0.03337715            2 
 1652000   0.99090404   -6.2018767    664.33828  0.033511818  0.033368932            4 
 1653000   0.97758924   -6.2004031    663.97709  0.033473336  0.033360678            4 
 1654000   0.98211726    -6.213694    664.15843  0.033462235  0.033352409            6 
 1655000   0.98220112   -6.2671712    663.96502  0.033432277  0.033343921            5 
 1656000   0.98623917   -6.1909971    665.34317   0.03348144  0.033335555            5 
 1657000   0.96803927   -6.2407817    662.26372  0.033306363  0.033327235            4 
 1658000   0.98450909   -6.2134474    664.12103  0.033379626  0.033318736           10 
 1659000     1.002003   -6.2529807     663.6978  0.033338246  0.033310229            7 
 1660000   0.98061591    -6.218719    666.58485  0.033463095  0.033301762            7 
 1661000    1.0060007   -6.2047938    665.77164   0.03340215  0.033293316            2 
 1662000    0.9988999   -6.2455341    665.57657  0.033372271  0.033284678            4 
 1663000   0.97596321   -6.1959416    667.39212  0.033443181  0.033276084            8 
 1664000   0.98041869   -6.2386189    666.31259   0.03336902  0.033267511            2 
 1665000    1.0006682   -6.2293328    668.67577  0.033467256  0.033259042            3 
 1666000   0.97947831   -6.2457409    666.94332   0.03336051   0.03325059            6 
 1667000   0.99978903   -6.2722009    666.29844   0.03330826  0.033242069            8 
 1668000   0.95447974   -6.1832783    667.96622  0.033371614  0.033233557            3 
 1669000    1.0104526   -6.2410659    668.44175  0.033375362  0.033225163            4 
 1670000   0.97963383   -6.2513449    664.98428  0.033182848  0.033216393            5 
 1671000   0.96404968   -6.2375246    669.97993  0.033412125  0.033207689            6 
 1672000    1.0030182   -6.2436532    667.86429  0.033286697  0.033199234            6 
 1673000   0.97046649   -6.2076184    668.66663  0.033306766  0.033190758            3 
 1674000     1.003219   -6.2480511    667.52389  0.033229983  0.033182252            2 
 1675000    1.0065192   -6.2214595     667.7127  0.033219537  0.033173789            4 
 1676000   0.98227816   -6.2553423    667.67268  0.033197727  0.033165155            4 
 1677000   0.98047005   -6.2676166    668.53862  0.033220961  0.033156629            3 
 1678000   0.98995651    -6.231168    668.22582  0.033185629  0.033148058            3 
 1679000    1.0063437   -6.2305525    670.54879  0.033281159  0.033139495            3 
 1680000   0.97520111   -6.2023664    670.82713  0.033275155  0.033131007            4 
 1681000   0.95153697   -6.2563191    670.17067  0.033222817  0.033122398            2 
 1682000   0.97802444   -6.2472998    669.77701  0.033183562  0.033113848            5 
 1683000   0.97765891    -6.200914     670.4747  0.033198391  0.033105507            5 
 1684000    0.9911709   -6.2428423    670.67044  0.033188363  0.033097209            2 
 1685000   0.99482706   -6.1840246    674.60435  0.033363222  0.033088837            7 
 1686000   0.98057146   -6.2299413    669.53498  0.033092872  0.033080495            6 
 1687000   0.97409391   -6.2243515    671.55155  0.033172868  0.033072019            3 
 1688000    1.0167736   -6.2647983    669.65121    0.0330594  0.033063371            4 
 1689000   0.97702432   -6.1801806     674.7934  0.033293537  0.033054949            4 
 1690000   0.98227629   -6.2336219    671.95582  0.033133916  0.033046556            6 
 1691000   0.99945495   -6.2022496    674.04603  0.033217329  0.033037874            4 
 1692000   0.96981335   -6.2148719     673.3913   0.03316545  0.033029354            3 
 1693000   0.98387438   -6.2254094    670.55532  0.033006267  0.033020687            3 
 1694000    0.9784654   -6.2414517     672.1513  0.033065294  0.033012065            6 
 1695000   0.97298896   -6.2698726    668.45592  0.032864106  0.033003423            5 
 1696000   0.98682669   -6.2194418     673.3143  0.033083446  0.032994733            6 
 1697000   0.98527257   -6.2622598    672.85269  0.033041283   0.03298613            6 
 1698000   0.96187948   -6.2411885    673.94593  0.033075478  0.032977442            6 
 1699000    0.9734525   -6.1968018    675.42341  0.033128478  0.032968789            8 
 1700000   0.96830516   -6.2410933    670.66088  0.032875534  0.032960103            5 
 1701000   0.99317867    -6.248443    673.94309  0.033017004  0.032951381            7 
 1702000   0.99193953   -6.2462777     673.9368  0.032997297  0.032942654            9 
 1703000   0.98978366   -6.2793973    673.45056  0.032954128  0.032934031            3 
 1704000   0.96422835   -6.2904481    673.70666  0.032947313   0.03292536            3 
 1705000   0.96764544   -6.2980359    671.28076  0.032809421   0.03291658            6 
 1706000   0.99972345   -6.2645544     675.6424  0.033003243  0.032908034            4 
 1707000   0.98950357   -6.2466324    675.68814  0.032986142  0.032899642            3 
 1708000   0.97671089   -6.2365954    676.79795  0.033020977  0.032891176            6 
 1709000    0.9717877   -6.2404395    677.12386  0.033017547  0.032882764            7 
 1710000   0.96357806   -6.2337878     676.7625  0.032980628  0.032874382            4 
 1711000   0.98277657   -6.2435183    676.59555  0.032953222   0.03286584            4 
 1712000   0.95938734   -6.2333423    677.19914  0.032963354  0.032857251            3 
 1713000   0.98091795   -6.2463633    676.81062   0.03292521  0.032848594            9 
 1714000    0.9635503   -6.2374418    676.82009  0.032906461  0.032839857            2 
 1715000   0.94094448   -6.2415952    680.12326  0.033047777  0.032831263            3 
 1716000   0.96580602   -6.2577398    676.49285  0.032852217  0.032822615            8 
 1717000    1.0064139    -6.258947    677.02138  0.032858735  0.032813905            4 
 1718000    0.9811923   -6.2346118    677.78931  0.032876858  0.032805381            5 
 1719000   0.98490841   -6.2126489     681.0774  0.033017132  0.032796939            2 
 1720000   0.97102997   -6.1968387    681.36431  0.033011837  0.032788615            7 
 1721000   0.98435998   -6.2791294    678.08191  0.032833716  0.032780169            3 
 1722000   0.98437943   -6.2365003    678.94425   0.03285638  0.032771642            3 
 1723000   0.98238099    -6.302096    677.77952  0.032780979  0.032762971            6 
 1724000   0.98648316   -6.2563387    678.57517  0.032800424  0.032754527            3 
 1725000   0.96021174   -6.2678439    680.82055  0.032889881  0.032746148            4 
 1726000   0.97847685   -6.2209521    680.33982  0.032847616  0.032737938            4 
 1727000   0.98359211   -6.2183345    680.97005  0.032859007  0.032729579            7 
 1728000   0.98613459   -6.2417553    681.61791  0.032871234  0.032721142            3 
 1729000   0.97254944   -6.2290201     682.5217  0.032895783  0.032712707            4 
 1730000   0.96673273   -6.2390319    681.79412  0.032841721  0.032704228            4 
 1731000   0.98237558   -6.2315206    680.51203  0.032761026  0.032695625            3 
 1732000   0.97531194    -6.243692    681.41479  0.032785546  0.032687128            6 
 1733000   0.98371291   -6.2614071     682.1754  0.032803203  0.032678491            9 
 1734000   0.99613484   -6.2401627    682.22139  0.032786495   0.03266988            3 
 1735000   0.96328291   -6.2472785    680.02825   0.03266226  0.032661252            6 
 1736000   0.98031862   -6.2667347    681.64493  0.032721051   0.03265271            5 
 1737000   0.95865617   -6.2265459    682.52027  0.032744208  0.032644166            3 
 1738000   0.96169081   -6.2620694    682.09816  0.032705129  0.032635501            6 
 1739000   0.97596057   -6.2308905    681.98529  0.032680913   0.03262686            3 
 1740000   0.97691993    -6.263808    679.77873  0.032556452  0.032618123            6 
 1741000   0.99220633   -6.2335282    683.06616  0.032695106  0.032609343            4 
 1742000   0.95875937   -6.2583676    681.27933   0.03259086   0.03260057            3 
 1743000   0.98347944   -6.2393207    684.36489  0.032719683  0.032591744            3 
 1744000   0.96254517   -6.2766513    680.81907  0.032531492  0.032583001            8 
 1745000   0.97945729    -6.228348     683.4047  0.032636327  0.032574411            6 
 1746000   0.96853555   -6.2179644    686.01735  0.032742333  0.032565988            2 
 1747000    0.9768013   -6.2604581    680.74053  0.032471882  0.032557276            3 
 1748000    0.9906775    -6.255549    683.42325    0.0325812  0.032548503            2 
 1749000   0.98390756   -6.2729497    682.58412   0.03252259  0.032539643            3 
 1750000   0.95932345   -6.3032728    680.40078  0.032400037  0.032530605            6 
 1751000   0.94357998   -6.2920562    681.87808  0.032451841   0.03252158            3 
 1752000   0.99538256   -6.2967211      683.245  0.032498335  0.032512667            2 
 1753000   0.98007487   -6.2874211    685.21289  0.032573345  0.032503778            3 
 1754000    0.9738353   -6.2580561    685.02138  0.032545676  0.032494938            5 
 1755000   0.98471956   -6.2679095    685.06889  0.032529387  0.032486096            8 
 1756000   0.97371844   -6.2542033    686.17493  0.032563351  0.032477182            1 
 1757000   0.97605943    -6.256585    684.74909  0.032477191  0.032468523            5 
 1758000   0.97176052   -6.2703698    685.24189  0.032482077  0.032459927            6 
 1759000   0.96785768   -6.2595442    686.38012  0.032517534   0.03245106            6 
 1760000   0.96340369   -6.2756546    685.27785  0.032446868  0.032442157            5 
 1761000   0.96422153   -6.2955095    684.88302  0.032409759  0.032433231            4 
 1762000   0.99686093   -6.3028823    686.15232  0.032451396  0.032424379            4 
 1763000   0.98223224   -6.2688314    685.26069  0.032390844  0.032415634            6 
 1764000   0.95477573   -6.2981104    686.73021  0.032441904  0.032406754            5 
 1765000   0.97545287   -6.2720105    686.67914  0.032421111  0.032397893            6 
 1766000    0.9609081   -6.2553319    687.69113  0.032450506  0.032389134            3 
 1767000   0.98679206   -6.2844817    687.67232  0.032431254  0.032380306            3 
 1768000   0.98132684    -6.274855    688.93801  0.032472568  0.032371553            5 
 1769000   0.95392928   -6.2680591    687.16935  0.032370895  0.032362834            4 
 1770000   0.97731695   -6.2566102    686.87189  0.032338601  0.032354132            6 
 1771000   0.96403528   -6.2971492    684.55949  0.032211533  0.032345428           12 
 1772000   0.99372863   -6.3036178    686.88202  0.032302578  0.032336642            2 
 1773000   0.97528808   -6.2903354    687.57653  0.032317002     0.032328            3 
 1774000   0.95967424   -6.2866438    685.66732    0.0322091  0.032319299            7 
 1775000   0.96069956   -6.2495587    692.10654  0.032493265   0.03231068            2 
 1776000   0.94289467    -6.257662     690.0268  0.032377384  0.032302106            4 
 1777000   0.94689041    -6.284186    688.90085  0.032306362  0.032293442            3 
 1778000   0.98227211   -6.2393757    689.91571  0.032335757  0.032284793            5 
 1779000   0.96207262   -6.2918791    687.84592  0.032220626  0.032276066            5 
 1780000   0.98214153   -6.2986944    689.78297   0.03229321  0.032267339            3 
 1781000   0.94664655   -6.2788231    691.42183  0.032351761  0.032258626            2 
 1782000   0.94991771   -6.3141194     688.9293  0.032217046  0.032249895            4 
 1783000   0.97320228   -6.2747223    689.39503  0.032220743  0.032240981            4 
 1784000   0.96666882    -6.240362    692.36648  0.032341483  0.032232218            5 
 1785000   0.96606518   -6.2328614    692.97419  0.032351736  0.032223527            1 
 1786000   0.95923207   -6.2925601    689.59165  0.032175795  0.032214725            3 
 1787000   0.96628891   -6.2650606    691.30743  0.032237802  0.032205915            3 
 1788000   0.92315534   -6.2623611    690.65738  0.032189475  0.032197206            5 
 1789000   0.96886116   -6.2709378     691.1616  0.032194969  0.032188397            6 
 1790000   0.95703519   -6.2869492    693.67628  0.032294054  0.032179509            2 
 1791000   0.96934174   -6.2552307    692.09698   0.03220254  0.032170663            3 
 1792000   0.96811032   -6.2616925    692.02013  0.032180996  0.032161835            4 
 1793000   0.96326654   -6.3203181    690.83926  0.032108164  0.032152925            2 
 1794000   0.92898417   -6.2639774    693.05998  0.032193422  0.032144095            3 
 1795000     0.960546   -6.2818174    689.86066  0.032026957  0.032135336            9 
 1796000    0.9534518    -6.268061     693.0602  0.032157581  0.032126449            5 
 1797000   0.96745439   -6.2608369    694.59568  0.032210892  0.032117559            4 
 1798000   0.95380997   -6.2765253    693.64761  0.032149036  0.032108772            3 
 1799000   0.95096509    -6.265019    694.02143  0.032148482   0.03209974            4 
 1800000   0.96078048   -6.2488425    691.23459  0.032001601  0.032090892            6 
 1801000   0.96894424   -6.2672808    691.99974  0.032019237  0.032081972            7 
 1802000    0.9813362   -6.2771032    694.58606  0.032121072  0.032073099            5 
 1803000   0.97258266   -6.2811193    694.16707  0.032083891  0.032064326            4 
 1804000   0.97231325   -6.2476001    694.26376  0.032070573  0.032055553            3 
 1805000   0.96564184   -6.2697697    696.66329  0.032163587  0.032046852            4 
 1806000   0.96320371   -6.2696126    693.51373  0.032000449  0.032038164            4 
 1807000   0.94735751   -6.3240443    695.05295  0.032053724  0.032029311            3 
 1808000   0.95827677   -6.2540092    697.01187  0.032126285  0.032020723            3 
 1809000   0.96711195   -6.2779604    696.00564  0.032062173  0.032012196            4 
 1810000   0.95150221   -6.2906657     695.9225  0.032040631  0.032003638            4 
 1811000   0.94564241   -6.3392064    696.26968  0.032038914  0.031995036           12 
 1812000   0.96129851   -6.2432408    698.11144  0.032105934  0.031986433            4 
 1813000   0.93793332   -6.2998583    696.69183  0.032022975  0.031978101            5 
 1814000   0.95459433   -6.2629705    699.81406  0.032148753  0.031969595            3 
 1815000   0.97115073    -6.293745    698.10432   0.03205254  0.031961028            6 
 1816000   0.98339272   -6.2765241    700.34962  0.032137923  0.031952642            5 
 1817000    0.9571939    -6.312087    699.63202  0.032087324  0.031944124            6 
 1818000   0.95769419   -6.2786927    701.47535  0.032154169   0.03193561            3 
 1819000   0.94492755   -6.2367789    699.75888  0.032057856  0.031927051            6 
 1820000   0.96636699   -6.2846987    700.46697  0.032072663  0.031918622            5 
 1821000    0.9559814   -6.3025548    698.42831  0.031961757  0.031910116            5 
 1822000   0.95542315   -6.3028087    698.97287  0.031969122  0.031901463            3 
 1823000   0.96949031   -6.2731513    700.05502  0.032001052  0.031892925            7 
 1824000   0.96027737   -6.2847787    700.53727   0.03200554   0.03188461            4 
 1825000   0.93767224   -6.3155727     700.9816  0.032008292  0.031876249            2 
 1826000   0.96398257   -6.2915294    702.36064  0.032053698  0.031867704            6 
 1827000   0.93484477   -6.2765307    703.51531  0.032088821  0.031859285           11 
 1828000   0.95264095   -6.3205006    699.59815  0.031892695  0.031850772            4 
 1829000   0.94623153   -6.3114517    699.70792  0.031880259  0.031842161            4 
 1830000   0.94757911   -6.2814158    701.21574    0.0319315  0.031833657            4 
 1831000   0.97371747    -6.291414    701.34167  0.031919792  0.031825128            3 
 1832000    0.9493817   -6.2888315    703.09817  0.031982268  0.031816627            3 
 1833000   0.94749677   -6.2727387    700.96604  0.031867887  0.031808306            4 
 1834000   0.94903982   -6.2887924    703.74068  0.031976585  0.031799926            3 
 1835000   0.93496989   -6.2570816    702.50592  0.031903084  0.031791511            4 
 1836000   0.96267325    -6.302997    701.29207  0.031830613  0.031783099           11 
 1837000   0.93892885   -6.3355571    700.11158  0.031759734  0.031774659            3 
 1838000   0.95014269   -6.3468614    704.45547  0.031939403  0.031766071            4 
 1839000   0.95878245   -6.2969695    702.43612  0.031830529  0.031757678            7 
 1840000   0.96352378   -6.2605218    706.43127   0.03199417  0.031749448            6 
 1841000   0.94583559   -6.3082276    705.08182  0.031915708  0.031741162            6 
 1842000   0.94723113   -6.3377016    701.65455  0.031743329  0.031732842            3 
 1843000    0.9751031   -6.2950585    704.84066  0.031870169  0.031724393            7 
 1844000   0.97757747     -6.31343    703.75323  0.031803743  0.031716094            9 
 1845000   0.97853466   -6.2979511    704.47723  0.031819207  0.031707793            2 
 1846000    0.9502584   -6.2833998    706.29573  0.031884062   0.03169951            6 
 1847000   0.95599376   -6.2902561    706.42864  0.031872796  0.031691158            2 
 1848000   0.95822876   -6.2907797    705.20148  0.031800211  0.031682845            3 
 1849000   0.95171954   -6.3263555     705.5319  0.031797904  0.031674522            4 
 1850000   0.94023545   -6.2876374    706.76765  0.031836381  0.031666244            5 
 1851000   0.97165993   -6.3003659    707.11373  0.031834762  0.031657991            6 
 1852000   0.96517589   -6.3065889    705.36926  0.031739077  0.031649806           12 
 1853000   0.93291756   -6.3283757    706.16991  0.031757956  0.031641606            5 
 1854000    0.9628525   -6.3098244    709.51469  0.031891167  0.031633482            6 
 1855000   0.95006681    -6.311157    707.25495  0.031772459  0.031625467            4 
 1856000   0.98505457   -6.2998993    708.80366  0.031824877   0.03161736            4 
 1857000   0.94533433   -6.3354002    706.89907   0.03172227  0.031609168            3 
 1858000   0.96246228   -6.3359046    708.74441  0.031787962  0.031600995            3 
 1859000   0.94470171   -6.2851989     708.2996  0.031750924  0.031592793            5 
 1860000   0.95397539   -6.2826007    708.92265  0.031761768   0.03158462            4 
 1861000   0.95875056   -6.3082731    707.07124  0.031661796  0.031576333            3 
 1862000   0.94382505   -6.2584248    711.41678  0.031839276  0.031568223            4 
 1863000   0.95072052   -6.2672026    710.27244  0.031770998  0.031560067            4 
 1864000   0.94948967   -6.2737858    707.22499  0.031617713  0.031551858            4 
 1865000   0.96585281   -6.2701169    711.68694  0.031800131  0.031543744            4 
 1866000   0.95924348   -6.3067859     707.2963  0.031587009   0.03153534            5 
 1867000   0.93322442   -6.3205443    707.72068  0.031589032  0.031526892            6 
 1868000   0.93924535   -6.3154674    710.43371  0.031693153   0.03151857            5 
 1869000   0.94653267   -6.2865582     709.7215   0.03164444  0.031510141            4 
 1870000   0.95303113   -6.3229439    709.32203  0.031609716  0.031501959            5 
 1871000   0.95262787   -6.2828511    710.84089  0.031660471  0.031493732            5 
 1872000   0.95364491   -6.3041874    711.02387  0.031651704  0.031485562            2 
 1873000   0.93623014   -6.2882677    714.32344  0.031781609  0.031477434            2 
 1874000   0.94900714   -6.2785799    714.66898  0.031780015  0.031469415            3 
 1875000   0.96368374   -6.2828943    713.17786  0.031696794  0.031461466            3 
 1876000   0.94685548   -6.3098706    712.59096  0.031653827   0.03145338            4 
 1877000   0.93500302   -6.3154994    713.81358  0.031691244   0.03144527            5 
 1878000   0.93145308   -6.2942068     714.9257  0.031723717  0.031437203            5 
 1879000   0.94876545   -6.2937407    713.65415  0.031650441  0.031429121            6 
 1880000   0.94162671    -6.328471    713.19289   0.03161316  0.031421076            6 
 1881000   0.93493169   -6.3195716    712.56805  0.031568671  0.031413042            5 
 1882000   0.94965701    -6.303029    714.71823  0.031647105  0.031404993            7 
 1883000   0.95702077   -6.3084861    715.43186  0.031661881  0.031396927            3 
 1884000   0.95697917   -6.3226402    716.81867  0.031706417  0.031388822            4 
 1885000   0.96145739   -6.3047285    716.49879  0.031675455  0.031380746            7 
 1886000   0.95461916   -6.2945957    714.70957  0.031579603  0.031372768            5 
 1887000   0.95423978   -6.3266251    713.25607  0.031498678  0.031364663            5 
 1888000    0.9517731   -6.2864062    716.37291  0.031619567  0.031356559            6 
 1889000   0.94558179   -6.3005848    716.93226  0.031627504  0.031348479            6 
 1890000   0.95989886   -6.3748638    714.44592  0.031501143  0.031340407            9 
 1891000   0.95642321   -6.3152053    714.66331  0.031494064  0.031332296            5 
 1892000   0.94238563   -6.3143082    716.81521  0.031572199  0.031324209            4 
 1893000   0.94698691   -6.3391529    715.57863  0.031501084  0.031316272            8 
 1894000   0.96828547   -6.3093138    716.29951   0.03151617  0.031308302            3 
 1895000   0.94872359   -6.3182343    718.89961  0.031613879  0.031300453            3 
 1896000   0.95617819   -6.3168255    717.41972  0.031532161   0.03129262            4 
 1897000   0.97233939   -6.3286529    719.89007  0.031624059  0.031284804            6 
 1898000   0.95605399   -6.3168825    717.15423  0.031487277  0.031277037            5 
 1899000   0.96233376   -6.2584962    720.48669  0.031616934  0.031269235            2 
 1900000   0.93572422   -6.3243919    718.09802  0.031495527  0.031261446            8 
 1901000   0.95327467    -6.322228    718.34439  0.031489759  0.031253483            9 
 1902000   0.96399036   -6.3527828    718.67057  0.031487494  0.031245573            5 
 1903000   0.93067307   -6.2999093    720.65639  0.031557908  0.031237785            3 
 1904000   0.95897708   -6.3012876    721.32293  0.031570506  0.031229908            5 
 1905000   0.96828244   -6.3104558    721.31288  0.031553494  0.031222019            3 
 1906000   0.93297544   -6.3357565    720.60087  0.031505809   0.03121408            7 
 1907000    0.9658554   -6.3435582    719.74797  0.031452018  0.031206255            6 
 1908000   0.93891483   -6.2792504    721.06346  0.031492988  0.031198415            3 
 1909000   0.95858597   -6.3190733    721.39507  0.031490967  0.031190603            5 
 1910000   0.94273589    -6.311148    721.62557  0.031484536  0.031182836            3 
 1911000   0.95214666    -6.302688    722.01806  0.031485176  0.031175035            2 
 1912000   0.95032079   -6.3332726    721.19502  0.031432837  0.031167118           11 
 1913000   0.95795866   -6.3491919    721.53403  0.031431174  0.031159182            5 
 1914000    0.9635534   -6.3459013    721.70254  0.031422089  0.031151171            8 
 1915000   0.94117394    -6.332756    722.25448  0.031429699  0.031143318            5 
 1916000   0.94926062   -6.3158192    719.36765  0.031287737  0.031135409            6 
 1917000   0.91750225   -6.3537847    723.06642  0.031432204  0.031127447            5 
 1918000   0.95937335   -6.3546919    723.42989  0.031431608  0.031119364            5 
 1919000   0.93978251   -6.3025109     722.4684  0.031373476   0.03111121            4 
 1920000   0.95126822   -6.3303088    720.28733  0.031262471  0.031103042            5 
 1921000   0.96100447   -6.3427503    722.65265  0.031348805  0.031094904            7 
 1922000   0.95628484   -6.3450797    723.14321  0.031353764  0.031086749            6 
 1923000   0.93876108   -6.3577904    722.20186  0.031296666  0.031078524            5 
 1924000   0.92103264   -6.3390679     723.2965  0.031327811  0.031070341            3 
 1925000   0.95375947   -6.3282154    721.77284  0.031245578  0.031062258            6 
 1926000   0.93260346   -6.3468125    722.08762  0.031242974  0.031054103            2 
 1927000   0.95764712   -6.3514965    720.98243  0.031178967  0.031045804            4 
 1928000   0.93732834   -6.3465743     721.8326  0.031199542  0.031037677            4 
 1929000   0.93297564   -6.3220917    722.39999  0.031207879  0.031029512           12 
 1930000   0.92514866    -6.324183    722.28255  0.031186638  0.031021229            3 
 1931000   0.93138707   -6.3072713    723.91294  0.031240849  0.031013094            6 
 1932000   0.97059657   -6.3142217    724.07259  0.031231565  0.031004882            9 
 1933000   0.93271441   -6.3138367    722.28461  0.031138326   0.03099672            3 
 1934000   0.93656758   -6.3388274    725.31861  0.031252956   0.03098851            6 
 1935000   0.93106444   -6.3445992    721.36648  0.031066601  0.030980353            8 
 1936000   0.93941771   -6.3226998    724.78244  0.031197591  0.030972182            4 
 1937000    0.9259137   -6.3481617     724.5756  0.031172586  0.030963953            5 
 1938000   0.95033985   -6.3333689    725.87575  0.031212407  0.030955693            7 
 1939000   0.93254631   -6.3631637    722.14726  0.031036069    0.0309475            7 
 1940000   0.93211378    -6.306667    726.51077  0.031207507  0.030939311            4 
 1941000   0.93783053    -6.324891    726.74693  0.031201568  0.030931142            5 
 1942000   0.93979743   -6.3244132    726.12101  0.031158643  0.030922814            5 
 1943000   0.94277975   -6.3192769    724.35832  0.031067006  0.030914573            7 
 1944000   0.94092001    -6.338034     724.3536  0.031050823  0.030906297            4 
 1945000   0.95048762   -6.3134806    725.88592  0.031100511  0.030898083            5 
 1946000   0.93625661   -6.3231816    727.85924  0.031169032  0.030889902            6 
 1947000   0.92173466   -6.3491785    725.11441  0.031035542  0.030881713            3 
 1948000   0.93719127   -6.3324943    725.74504  0.031046588  0.030873528            4 
 1949000   0.94203839   -6.3866371    724.01135  0.030956531  0.030865304            6 
 1950000   0.93534547   -6.3556244    724.56203  0.030964189  0.030857074           11 
 1951000   0.91916873   -6.3403649    726.09123  0.031013635  0.030848829            5 
 1952000   0.93037074   -6.3501076    727.46517  0.031056402  0.030840508            3 
 1953000   0.94495134    -6.364495    727.06832  0.031023567  0.030832322            7 
 1954000   0.94074333   -6.3229547    727.35549  0.031019937  0.030824125            7 
 1955000   0.94488752   -6.3393585    726.82209  0.030981334  0.030815932            4 
 1956000   0.93375596   -6.3259544    727.57062  0.030997385   0.03080769            7 
 1957000   0.92856051   -6.3628232    725.67911  0.030901001  0.030799429            9 
 1958000   0.93844539    -6.345563    725.16262  0.030863237  0.030791109            7 
 1959000   0.92984704   -6.3481049    728.28487  0.030980299  0.030782613            6 
 1960000    0.9087443    -6.326201    728.54239  0.030975442  0.030774256            5 
 1961000   0.93033008   -6.3434911    726.09775   0.03085576  0.030765947            8 
 1962000   0.93897631   -6.2905912    730.02642  0.031006899  0.030757742            9 
 1963000   0.94446936   -6.2809425    730.17758   0.03099752  0.030749587            4 
 1964000   0.93792472   -6.3167735    730.98644  0.031016057  0.030741548            4 
 1965000   0.94485089   -6.3393437    726.08213  0.030792287  0.030733392            3 
 1966000   0.93023703   -6.3802986    727.52505  0.030837786  0.030725215            5 
 1967000   0.95929029    -6.330397    728.56824  0.030866304  0.030716956            6 
 1968000   0.92621253   -6.3688097    728.25761  0.030837467  0.030708818            6 
 1969000    0.9434474   -6.3326359    730.15165  0.030901966  0.030700579            5 
 1970000    0.9416346   -6.3677044    730.40069  0.030896814   0.03069243           15 
 1971000   0.95711211   -6.3366242    729.69029  0.030851103  0.030684222            2 
 1972000   0.90861384   -6.3405273    729.50051  0.030827439  0.030676015            6 
 1973000   0.95198185   -6.3564004    732.02369  0.030918385   0.03066785            5 
 1974000    0.9347719   -6.4119784    725.08154  0.030609656  0.030659614            4 
 1975000   0.94429481   -6.3561363    730.69675  0.030831086  0.030651387            6 
 1976000   0.93216534   -6.3447954    730.96681  0.030826873  0.030643227            5 
 1977000   0.92748412   -6.3478543    730.74514  0.030801936  0.030635095            4 
 1978000   0.93797296   -6.3655844    729.87742  0.030749807   0.03062699            2 
 1979000   0.92013506   -6.3848751    731.20532  0.030790185   0.03061868            2 
 1980000   0.95028815   -6.4053842    729.89394  0.030719442  0.030610452            3 
 1981000   0.92708022   -6.3571534     732.1141  0.030797329  0.030602107            3 
 1982000   0.95117655   -6.2995697    733.41119  0.030836327  0.030594073            2 
 1983000   0.93211593   -6.3552189    732.16349  0.030768343  0.030585947            6 
 1984000   0.93044539   -6.3421026    733.52269  0.030809925  0.030577817            2 
 1985000   0.94390879   -6.3764157    733.53812  0.030795051  0.030569678            4 
 1986000   0.92557345   -6.3440349     733.2419  0.030767116  0.030561548            7 
 1987000   0.94991125   -6.3708586    732.54919   0.03072258  0.030553415           10 
 1988000   0.92014029   -6.3749923    733.80273  0.030759672  0.030545202            7 
 1989000    0.9481255   -6.3425018    733.68495  0.030739272   0.03053701            7 
 1990000   0.95322807   -6.3459917    734.33575  0.030751078  0.030528934            5 
 1991000   0.93176177   -6.3869293    731.59316  0.030620842  0.030520728            5 
 1992000   0.94410945    -6.366344    734.92328  0.030744782  0.030512442            6 
 1993000   0.95065683   -6.3687599    735.31494  0.030745733  0.030504385           10 
 1994000   0.95796967   -6.3259814    735.22552  0.030726576   0.03049636            5 
 1995000   0.92600894   -6.3643344    735.81634  0.030735854  0.030488295            9 
 1996000   0.92735255   -6.3903969    734.04889  0.030646664  0.030480178            7 
 1997000   0.93439244   -6.3479947    736.59586  0.030737601  0.030472095            5 
 1998000   0.92335492    -6.323204    738.32383  0.030794287  0.030464111            5 
 1999000   0.91261837   -6.3439304    738.02878  0.030766582  0.030456155            5 
 2000000   0.91422933   -6.3013489    735.89235  0.030662181  0.030448234            3 
 2001000   0.96384194   -6.3478889    736.14453   0.03065736  0.030440204            9 
 2002000   0.93461007   -6.3680748    738.35741  0.030734158  0.030432157            6 
 2003000   0.92978674   -6.3736638    736.29735  0.030633107  0.030424012            6 
 2004000   0.92829327   -6.3406248    736.52549  0.030627307  0.030415872            5 
 2005000   0.92655694   -6.3477236    738.30159  0.030685852  0.030407853            6 
 2006000   0.93369151   -6.3516404    738.45681  0.030677003  0.030399828            5 
 2007000   0.91949884   -6.3582889    739.35622  0.030699062  0.030391798            5 
 2008000   0.93009369   -6.3353437     739.1309  0.030674423  0.030383803            5 
 2009000     0.925995   -6.3695904    737.67758  0.030598871  0.030375695            5 
 2010000   0.92525333   -6.4002324    735.75441  0.030503914   0.03036754            9 
 2011000   0.93557985   -6.3294844    738.12462  0.030586964  0.030359417            5 
 2012000   0.92902054   -6.3696243    737.81966  0.030559131  0.030351265            3 
 2013000   0.90838068   -6.4046214    738.83199  0.030585858  0.030343181            8 
 2014000   0.93731781   -6.3520217    738.36107  0.030551186  0.030335046            3 
 2015000    0.9217803    -6.372648    738.03526   0.03052255  0.030326903            3 
 2016000   0.94848385   -6.3793167    737.57456  0.030488367  0.030318685            3 
 2017000   0.94579565   -6.3387368    740.09531  0.030577397  0.030310588            4 
 2018000   0.93086113    -6.360922    739.11445   0.03052174   0.03030246            8 
 2019000    0.9385472   -6.3682658    737.74936  0.030450279  0.030294337            4 
 2020000   0.90764226   -6.3897562    739.91982  0.030524745  0.030286141            8 
 2021000   0.92254686   -6.3469107    740.32982  0.030526547  0.030278051            7 
 2022000   0.92195778   -6.3569267     738.3641  0.030430436  0.030269874            6 
 2023000   0.91799675   -6.3897915    738.71086  0.030429678  0.030261675            4 
 2024000   0.93408761   -6.3551247    740.52251  0.030489234  0.030253655            5 
 2025000   0.91219267   -6.3839949    739.74078  0.030442008  0.030245502            4 
 2026000   0.93941508   -6.3565068    742.20827  0.030528474  0.030237435            5 
 2027000   0.93435671   -6.3675447    740.50189  0.030443261  0.030229266            4 
 2028000   0.94228848   -6.3608373    743.08338  0.030534327  0.030221273            3 
 2029000   0.93403424   -6.3627329     740.3522  0.030407105   0.03021314            7 
 2030000   0.92915591    -6.385941    740.21229  0.030386383  0.030205012            8 
 2031000   0.90040734   -6.3470533    741.26812  0.030414743   0.03019689            6 
 2032000   0.94880405   -6.3969042    739.09632  0.030310709  0.030188685            6 
 2033000   0.93431306   -6.3758707     740.9086  0.030370085  0.030180563            4 
 2034000   0.94647112    -6.399548    742.05046  0.030401936  0.030172371            9 
 2035000   0.92042665   -6.3887588     739.4855  0.030281962  0.030164243            3 
 2036000   0.93547605   -6.4214532     739.3977  0.030263495  0.030156105            3 
 2037000   0.91175595   -6.3696942    741.91425  0.030351589  0.030147924            5 
 2038000   0.93850852   -6.3792009    742.15528  0.030346552  0.030139804            4 
 2039000   0.89516523   -6.4120519    741.92222  0.030322144  0.030131678            7 
 2040000   0.94094922   -6.4103893    739.98019  0.030227949  0.030123366           10 
 2041000   0.93153384   -6.3725932    745.14529  0.030424028  0.030115165            5 
 2042000   0.91510018     -6.40349    741.14862  0.030246026  0.030107104            5 
 2043000   0.94490645   -6.4007983     742.7849  0.030297964  0.030099035            6 
 2044000   0.90862934   -6.3742094    741.56424  0.030233376  0.030090951            3 
 2045000   0.89861499   -6.3618569    744.09938  0.030321898   0.03008284            7 
 2046000    0.9310289   -6.3910578    742.51355  0.030242487  0.030074778           10 
 2047000   0.93305371   -6.3775987    741.80545  0.030198886  0.030066636            5 
 2048000   0.91843939   -6.3510128    745.18535   0.03032167  0.030058561            5 
 2049000   0.92217867   -6.4042584    746.21943  0.030348927  0.030050387            8 
 2050000   0.94098598   -6.3761736    743.90473   0.03024003  0.030042262            7 
 2051000   0.91266245   -6.3627956    745.94604  0.030308225  0.030034232           11 
 2052000    0.9571536   -6.3644732    744.59654  0.030238651  0.030026155           10 
 2053000   0.93045667   -6.3934898    742.33453  0.030132105  0.030018048            5 
 2054000     0.902734   -6.3902758    743.23179  0.030153838  0.030009797            5 
 2055000   0.93390651   -6.3583073    747.39643  0.030308047  0.030001698            7 
 2056000    0.9050524   -6.3802668    745.20958  0.030204669  0.029993584            7 
 2057000   0.93650409   -6.4173034    744.39776  0.030157096  0.029985514            5 
 2058000   0.91890121    -6.424847    744.60873  0.030150985  0.029977335            6 
 2059000   0.91914299   -6.4048619     744.4666  0.030130589  0.029969086           10 
 2060000   0.92187145   -6.3938579    746.22351  0.030187035  0.029960966            6 
 2061000   0.93236521   -6.3853402    746.39818  0.030179451  0.029952891            5 
 2062000   0.93245347   -6.3735194    744.63734  0.030093652  0.029944745           10 
 2063000   0.91661984   -6.4071704    747.11968  0.030179337   0.02993657           11 
 2064000   0.91900502   -6.4074175    746.06345  0.030122071  0.029928342            4 
 2065000   0.92208437   -6.3919221    745.93605  0.030102343  0.029920183            7 
 2066000   0.92351504   -6.4017343    745.45965  0.030068556  0.029912017            4 
 2067000    0.9276973   -6.3854409    746.39034  0.030091531  0.029903908            4 
 2068000   0.90909624   -6.3651792    748.07658   0.03014493  0.029895854            5 
 2069000   0.90105931   -6.4056859    746.73232  0.030076217  0.029887764            3 
 2070000     0.921175   -6.4199723    747.62526  0.030097635  0.029879678            4 
 2071000    0.9137324   -6.4211157    749.35957  0.030152888  0.029871683            9 
 2072000   0.93116154   -6.4110135    748.52122  0.030104618    0.0298636            3 
 2073000   0.90760654   -6.3958221    748.23558  0.030078613  0.029855551            7 
 2074000   0.93214123   -6.4001585     748.0842  0.030058028  0.029847474            5 
 2075000   0.92121848   -6.4212339    747.05725  0.030002299  0.029839275            7 
 2076000   0.91904163   -6.3756201    749.95667  0.030104234  0.029831179            6 
 2077000    0.9255263   -6.3780363    750.17931  0.030098672  0.029823166            3 
 2078000   0.90471191   -6.3901653    747.17266  0.029963613  0.029815149            4 
 2079000   0.92892963   -6.3736506    751.35321  0.030116771  0.029807101            3 
 2080000    0.9281515   -6.3753806      749.934  0.030045433  0.029799033            2 
 2081000   0.90592015   -6.3987957     750.1245  0.030038623  0.029790981            9 
 2082000   0.92053446   -6.3956629    750.06829  0.030021946  0.029782902            4 
 2083000    0.9028112   -6.4204457    749.11772  0.029969504  0.029774933            4 
 2084000   0.91695287   -6.3764865    752.51056  0.030090793  0.029767019            3 
 2085000   0.92537553   -6.3713371    751.97902  0.030055117  0.029759087           10 
 2086000   0.92981821    -6.386618    752.06072  0.030043972  0.029751138            5 
 2087000    0.9140925   -6.4045477    751.96949  0.030025934  0.029743231            9 
 2088000   0.93578204    -6.404055    749.67374  0.029919929  0.029735199            4 
 2089000   0.91331219   -6.4149803     750.6502  0.029944559  0.029727203            5 
 2090000   0.90802409   -6.3672454    753.10238  0.030028006  0.029719266            4 
 2091000   0.90168962   -6.4093408    752.54984  0.029991624  0.029711367            7 
 2092000     0.935258    -6.387403    752.53227  0.029976588  0.029703489            4 
 2093000    0.9300511   -6.3859448    754.00343   0.03002084  0.029695586            4 
 2094000   0.92219277   -6.3979173    751.47386  0.029905837  0.029687578            5 
 2095000   0.88490951   -6.4047002    754.17933  0.029999178  0.029679581            5 
 2096000   0.93574709   -6.3755195    752.58089  0.029921314  0.029671699            9 
 2097000   0.92699151   -6.4267103    751.00432  0.029844393  0.029663793            7 
 2098000   0.91585396   -6.3662165    753.31065  0.029921777  0.029655902            7 
 2099000   0.91663046   -6.3751252    755.13415  0.029979917  0.029648068            3 
 2100000   0.92377905   -6.4097117    752.52051  0.029861925  0.029640136            4 
 2101000   0.91397325      -6.3883    755.45846  0.029964242  0.029632225            2 
 2102000   0.90756485   -6.3957391     754.2384  0.029901617  0.029624272            4 
 2103000   0.91463581   -6.3802947     755.9763  0.029956265  0.029616447            8 
 2104000   0.92370077    -6.406003    754.45548  0.029881792  0.029608597            5 
 2105000   0.91848517   -6.4243107    754.99775  0.029889064  0.029600617           21 
 2106000   0.93955455   -6.4211468     751.9863   0.02975571  0.029592773            5 
 2107000   0.89944625    -6.394933    756.48666   0.02991958  0.029584873            4 
 2108000    0.9109099   -6.4125582    757.97883  0.029964375  0.029577031            2 
 2109000   0.91589607   -6.4167566    755.87615  0.029867084  0.029569121            7 
 2110000   0.90866315   -6.3863825    755.89861  0.029853815   0.02956119            4 
 2111000   0.92918006   -6.4469146    754.87403  0.029799228  0.029553298            4 
 2112000   0.92933356   -6.3921456    756.53462   0.02985064  0.029545367            7 
 2113000   0.91030899   -6.4067802    757.01796  0.029855575  0.029537467            5 
 2114000   0.89813545    -6.393071    758.16275  0.029886579  0.029529662            5 
 2115000   0.90333798   -6.4146897    756.86904  0.029821475  0.029521724            6 
 2116000   0.91627654   -6.4321445    754.93573  0.029731243  0.029513746            5 
 2117000   0.92968139   -6.4172382    754.35488  0.029694335    0.0295058            6 
 2118000   0.90936917   -6.3989648    756.61357  0.029769184  0.029497892            7 
 2119000    0.9155108   -6.3691431    759.75437  0.029878652  0.029490024            5 
 2120000   0.92099389   -6.4206393    756.58842  0.029740111  0.029482163            3 
 2121000   0.92025289   -6.4269132    756.08226  0.029706202  0.029474303           10 
 2122000   0.92847701   -6.4308456    755.74123   0.02967881  0.029466387            3 
 2123000   0.90405823   -6.4414143    757.34163  0.029727651  0.029458487            4 
 2124000    0.9275744   -6.3986214    758.75169  0.029768977  0.029450677            4 
 2125000   0.91781306   -6.3611846    760.04785  0.029805798  0.029442838            5 
 2126000   0.89405426   -6.4227697    759.84294  0.029783746  0.029434984            3 
 2127000   0.93207725   -6.4343096    756.22487  0.029627992   0.02942709            3 
 2128000    0.8901876   -6.4704871    755.12771  0.029571104  0.029419132            5 
 2129000   0.89144195   -6.4445254    758.00624  0.029669886   0.02941123            5 
 2130000   0.91012209   -6.3748934    760.69558  0.029761173  0.029403505            4 
 2131000   0.90386478   -6.4165602    760.24833  0.029729717  0.029395769            9 
 2132000   0.90969286   -6.4132522    760.55056  0.029727586    0.0293879            3 
 2133000   0.90570349    -6.393351    761.30148  0.029742987  0.029380142            9 
 2134000   0.91272143   -6.4007462    758.81641  0.029632006   0.02937226            4 
 2135000   0.90769778    -6.413775    760.64601   0.02968954  0.029364433            5 
 2136000   0.92570046   -6.4123678    760.68674  0.029677229  0.029356637            7 
 2137000   0.91279463    -6.419899    761.75906  0.029705157  0.029348804           10 
 2138000    0.9030252   -6.4096763    761.72755  0.029690036  0.029341084            3 
 2139000   0.92317405   -6.3936308    761.34227  0.029661145  0.029333366            4 
 2140000   0.93353382   -6.4235726    760.04914  0.029596929  0.029325559            2 
 2141000   0.92137461   -6.4017027    762.94612  0.029695863  0.029317751            4 
 2142000   0.90903478   -6.3813424    762.11528  0.029649676  0.029310033            4 
 2143000   0.90516034   -6.4111775    763.12984  0.029675293  0.029302353            6 
 2144000   0.90246342   -6.3914603    763.99532  0.029695092  0.029294714            6 
 2145000   0.93411703   -6.4267158    762.26325  0.029613957  0.029287007            5 
 2146000   0.89758228   -6.4304422    763.18608  0.029635992  0.029279243           11 
 2147000   0.90549382   -6.4091424    763.83366  0.029647324   0.02927146            5 
 2148000   0.89481069   -6.3803358    763.28246  0.029612138  0.029263752            8 
 2149000   0.92602941   -6.3820186      762.602  0.029571971  0.029256067            4 
 2150000   0.90558711   -6.3661522    764.02057    0.0296132  0.029248424            5 
 2151000   0.90689431   -6.4382687    761.20576  0.029490383   0.02924071            6 
 2152000   0.90104165   -6.4033554    763.24982  0.029555833   0.02923288            4 
 2153000   0.91297104   -6.4209662    764.29593  0.029582595   0.02922516            6 
 2154000   0.90625264   -6.4108987    764.42274  0.029573767  0.029217431           10 
 2155000   0.90943158   -6.4394297    764.29411   0.02955507  0.029209734           11 
 2156000   0.90489002   -6.4386812    764.67815  0.029556206  0.029202035            9 
 2157000   0.89740465   -6.4698448    763.30068  0.029489286  0.029194329            4 
 2158000   0.91711843    -6.420187    766.03019  0.029581024  0.029186649            7 
 2159000   0.90969518    -6.422426    765.75656  0.029556761  0.029178969            5 
 2160000   0.91339724   -6.4647852     765.3367  0.029526879  0.029171216            5 
 2161000   0.92568661   -6.4126792    767.55729  0.029598846  0.029163537            3 
 2162000   0.88882799   -6.4264115    765.21717  0.029494957  0.029155941            6 
 2163000    0.9123882    -6.404733    767.39499  0.029565225  0.029148391            3 
 2164000   0.93041853   -6.4487245    765.15047  0.029465129  0.029140759            7 
 2165000   0.88144353   -6.4206651    767.84776  0.029555341  0.029133094            5 
 2166000   0.91632693   -6.4627339    766.37303  0.029484958   0.02912542            6 
 2167000   0.92101117   -6.4331813    766.54699  0.029478041  0.029117787            6 
 2168000   0.89535517   -6.4613256    764.78137  0.029396578  0.029110115            9 
 2169000   0.88914513   -6.4461704    766.14701  0.029435493  0.029102488            8 
 2170000   0.88827094   -6.4290903    766.14775  0.029421957  0.029094827            8 
 2171000   0.90662426   -6.4452745     765.5358  0.029384915  0.029087219            6 
 2172000   0.90733344   -6.3907399    769.34223  0.029517427  0.029079517            6 
 2173000   0.93000705   -6.4224455    768.57083  0.029474261  0.029071953            9 
 2174000   0.91675166   -6.4577931    767.70813  0.029427635  0.029064241            6 
 2175000   0.90598721   -6.3668142    770.51767   0.02952175  0.029056723            4 
 2176000   0.91671201   -6.4075217    770.47744  0.029506642  0.029049124            5 
 2177000   0.90256711   -6.4119978    769.30621  0.029448255  0.029041475            5 
 2178000   0.91366422   -6.4227184    770.78132  0.029491174  0.029033983            3 
 2179000   0.88769097   -6.4152929    769.16984   0.02941601  0.029026415            3 
 2180000   0.89852302   -6.4295448     771.2061  0.029480355  0.029018853            5 
 2181000   0.91133094   -6.4569975    767.51376  0.029325759  0.029011325            5 
 2182000   0.88910906   -6.4209291    771.32715  0.029457957  0.029003804            4 
 2183000   0.90239251    -6.444195    769.75397  0.029384409  0.028996208           10 
 2184000   0.90421719   -6.4148227    771.08509  0.029421745  0.028988699           13 
 2185000   0.91309419    -6.427045    770.68698  0.029393096  0.028981204           14 
 2186000   0.89544664   -6.4426056    771.22372  0.029400111  0.028973693            8 
 2187000   0.89821932   -6.4248068     772.4409  0.029433048  0.028966261            3 
 2188000   0.88759031   -6.4802221     770.7393  0.029354787  0.028958651            3 
 2189000   0.90347501   -6.4280876    771.38124  0.029365815  0.028951088            8 
 2190000   0.90422655   -6.4091218      773.105  0.029417998  0.028943612            5 
 2191000    0.9055671   -6.4618969    769.78994  0.029278485  0.028936084            8 
 2192000    0.8982271   -6.4716243    771.44943  0.029328217  0.028928427            7 
 2193000   0.91307075    -6.474134    769.37464  0.029236002  0.028920918            5 
 2194000   0.89748606   -6.4403797    772.67436  0.029348008  0.028913368            5 
 2195000   0.90441783   -6.4519611    772.73421   0.02933691  0.028905908            9 
 2196000   0.90739992   -6.4598181    771.40882  0.029273255   0.02889839            6 
 2197000   0.90477326   -6.4622597    771.16588  0.029250716  0.028890762           10 
 2198000   0.89542347    -6.446442    771.49776  0.029249991  0.028883215            7 
 2199000   0.91879836   -6.4175655    774.66597  0.029356752  0.028875799            6 
 2200000   0.90314111   -6.4008053    771.78282  0.029234198  0.028868343            4 
 2201000   0.89469342   -6.4636194    773.44285  0.029283767  0.028860862            4 
 2202000   0.87626593   -6.4102867    775.33309  0.029342003  0.028853355            5 
 2203000   0.89574066   -6.4460876    774.18759  0.029285353  0.028845896            6 
 2204000   0.88737695   -6.4518716    774.09864  0.029268702  0.028838489           18 
 2205000   0.89336163   -6.4385216    773.97941  0.029250922  0.028830994            6 
 2206000   0.89850401   -6.4310582    775.70853  0.029302982  0.028823591            8 
 2207000   0.90058673   -6.4111162    775.74977  0.029291262  0.028816282            5 
 2208000   0.88955534   -6.4206479      776.632  0.029311292  0.028808951            6 
 2209000   0.88062054   -6.4463641    774.24517  0.029207981  0.028801591            6 
 2210000   0.91423791   -6.4061213    776.29371   0.02927201  0.028794165           10 
 2211000   0.88216119   -6.4178282    772.47199  0.029114729  0.028786735            4 
 2212000   0.89085648   -6.4286426    777.61216  0.029295214  0.028779373            5 
 2213000   0.89625199   -6.4314622    775.95611  0.029219616  0.028771968            4 
 2214000   0.90835816   -6.4475817     774.6167  0.029156004  0.028764492           12 
 2215000   0.88922062   -6.4568802     774.6514  0.029144146  0.028756953            5 
 2216000   0.90223098   -6.4691545    776.39472  0.029196552  0.028749461            5 
 2217000   0.90633194   -6.4853724     774.3366  0.029106022  0.028741948            4 
 2218000   0.89731287   -6.4703769    774.37275  0.029094257  0.028734552            5 
 2219000   0.89880907   -6.4573663    775.39914  0.029119691  0.028727117            6 
 2220000   0.88650152   -6.4700685    776.82306  0.029160025  0.028719677            5 
 2221000   0.89746329   -6.4389159    776.79311  0.029145772  0.028712249            4 
 2222000   0.89258277   -6.4426446    777.81352  0.029170924  0.028704859            4 
 2223000   0.88206875   -6.4204766    777.71359  0.029154056  0.028697447            2 
 2224000   0.90222378   -6.4179439    778.06973  0.029154291  0.028690147           11 
 2225000    0.9080264   -6.4626713     776.3855  0.029078108  0.028682757            6 
 2226000   0.89131656   -6.4523283    778.47889  0.029143415  0.028675313            4 
 2227000   0.89927654   -6.4538846    779.00422  0.029149986  0.028667869            5 
 2228000   0.89364027   -6.4553908    778.08896  0.029102669  0.028660479           10 
 2229000   0.91346006   -6.4208862    780.13244   0.02916601  0.028653067            4 
 2230000   0.88858325   -6.4797098    777.28313  0.029046455  0.028645693            7 
 2231000   0.88680339   -6.4535736    780.20971   0.02914275  0.028638296            6 
 2232000   0.88630644   -6.4200949    778.53791  0.029067276  0.028630882            4 
 2233000   0.89094792   -6.4374475    778.09546  0.029037746   0.02862342            3 
 2234000   0.88653337   -6.4640966    777.72005  0.029010745  0.028615913            3 
 2235000   0.89311849   -6.4165786    780.23803  0.029091649  0.028608489            7 
 2236000    0.8875087   -6.4514527      779.633   0.02905609  0.028601091            3 
 2237000   0.88054995   -6.4596972    777.72298  0.028971948  0.028593726            5 
 2238000   0.88690402   -6.4321414    779.85754  0.029038485  0.028586335            4 
 2239000   0.91909596   -6.4779046    780.57199  0.029052106  0.028578915            9 
 2240000   0.89863931    -6.483034    777.30858   0.02891773  0.028571473            5 
 2241000   0.89907307   -6.4635391    778.84267  0.028961872   0.02856395            6 
 2242000   0.91244574   -6.4894029     778.6019  0.028940005  0.028556406            4 
 2243000   0.88696387   -6.4618181    780.15445  0.028984784  0.028548895            5 
 2244000   0.90372898   -6.4821118    776.69237    0.0288433  0.028541374            9 
 2245000   0.90827719   -6.4630414    780.58184  0.028974827  0.028533891            5 
 2246000   0.88926935   -6.4195644    782.04537  0.029016228  0.028526444            4 
 2247000   0.89266245    -6.439626    782.71269  0.029028063  0.028519111            5 
 2248000   0.90127398   -6.4921228    780.13751  0.028919688  0.028511703            5 
 2249000   0.87932118   -6.4693669    781.54665  0.028959043  0.028504323            5 
 2250000   0.90624848   -6.4636536    780.99329  0.028925677  0.028497066            3 
 2251000   0.88016307   -6.4713582    781.82929  0.028943776  0.028489736            4 
 2252000   0.88852067   -6.4592348    781.27494  0.028910411   0.02848238            7 
 2253000   0.87780659   -6.4953141    782.38938  0.028938799  0.028475047            4 
 2254000   0.88324366    -6.502311     781.4196  0.028890107  0.028467666            7 
 2255000   0.88172408   -6.4376333    784.08443  0.028975773  0.028460368            3 
 2256000   0.87082857   -6.4763534    784.39002  0.028974218  0.028453239            5 
 2257000   0.87745387   -6.4918709    784.67474  0.028971893  0.028445973           20 
 2258000    0.8870972   -6.4349967    785.33817  0.028983546  0.028438749            3 
 2259000   0.90567708   -6.4822062    782.31262  0.028859105  0.028431552            5 
 2260000   0.90791634   -6.4697828     781.6868   0.02882326  0.028424318            2 
 2261000   0.88488921   -6.4573526    785.45312  0.028949326  0.028417054            7 
 2262000   0.89595573   -6.4448667    788.06766  0.029032849  0.028410013            3 
 2263000   0.88827387   -6.4596496    784.54274  0.028890217  0.028402842            4 
 2264000   0.89247138    -6.456602    785.22496  0.028902568  0.028395602            7 
 2265000   0.89076421   -6.4901936    783.10994  0.028811992  0.028388218            7 
 2266000   0.89094675   -6.4900033    784.93295  0.028866319  0.028380772            6 
 2267000    0.8992274   -6.4775343    784.10597  0.028823187  0.028373348            8 
 2268000   0.90320789   -6.4875614    785.89054  0.028876049  0.028366067            5 
 2269000   0.89301827   -6.4857763    785.87127  0.028862614  0.028358791            9 
 2270000   0.89293415   -6.4266948    788.22433  0.028936282  0.028351615           15 
 2271000   0.89117957   -6.4905844    784.92444  0.028802453  0.028344269            6 
 2272000   0.89277331   -6.4971163    785.87309  0.028824571  0.028336955            5 
 2273000   0.87819508   -6.4966532    783.45966  0.028723407  0.028329639            4 
 2274000   0.88572898   -6.4624723       786.69  0.028829155  0.028322328            6 
 2275000   0.91674488    -6.452661    788.23593  0.028873111  0.028315017           13 
 2276000   0.90229536   -6.4499382    785.44312  0.028758169  0.028307773           10 
 2277000   0.88465958    -6.493073    787.34338  0.028815085  0.028300442           12 
 2278000   0.90508567   -6.4433626     786.6582   0.02877737  0.028293173            4 
 2279000   0.86618515   -6.4751011     786.3784  0.028754512  0.028285796            3 
 2280000   0.87829137   -6.4755452     787.4276  0.028780248  0.028278536            5 
 2281000   0.88962068   -6.4891219    787.02374  0.028752877  0.028271293            4 
 2282000   0.89661466   -6.4502435     786.3619  0.028716108  0.028264134            3 
 2283000   0.88894724   -6.4630563    785.85681  0.028685093   0.02825693            5 
 2284000   0.89205477   -6.4961179    789.30725  0.028798426  0.028249695            5 
 2285000   0.89840667   -6.4808527    786.74621  0.028692422  0.028242429           10 
 2286000   0.89092935   -6.4861463    788.35916  0.028738669   0.02823514            6 
 2287000   0.89728149   -6.4819657    785.79332  0.028632609  0.028227818            7 
 2288000    0.8572182   -6.4713733    786.88642  0.028659908  0.028220483            6 
 2289000   0.89076273   -6.5060006    786.63195  0.028638123  0.028213138           10 
 2290000   0.90989236   -6.4704184     788.3981  0.028689887   0.02820581            6 
 2291000   0.87241595   -6.4463183    790.56383  0.028756141  0.028198516            4 
 2292000   0.88231191   -6.4725819    787.19658  0.028621167  0.028191287            6 
 2293000   0.88366838   -6.4883618    789.05135  0.028676092  0.028184031            6 
 2294000   0.88349094   -6.4652225    790.07937  0.028700936  0.028176657            9 
 2295000   0.87281943   -6.4370025    789.04422  0.028650843  0.028169443            6 
 2296000   0.89126494   -6.4731342    790.15996   0.02867886  0.028162317            5 
 2297000   0.88372348   -6.4635006    791.36805  0.028710204  0.028155119            8 
 2298000    0.8866752   -6.4362822    792.99272  0.028756626  0.028147844           10 
 2299000   0.90059409   -6.4918463    789.60293  0.028621246  0.028140689            5 
 2300000    0.9034337   -6.4523331    789.89436  0.028619361  0.028133401            6 
 2301000   0.90348154   -6.4873618    790.53364  0.028630075  0.028126105            8 
 2302000   0.86866894   -6.4890317    789.69151  0.028587153  0.028118793            5 
 2303000   0.90318517   -6.4931614    791.38849  0.028636145  0.028111451           10 
 2304000   0.87614647   -6.4652693    791.59453  0.028631168  0.028104177            8 
 2305000   0.86863515   -6.4918057    789.97143  0.028560066  0.028096944            4 
 2306000   0.89402645   -6.5184645    787.42909  0.028455807  0.028089678            7 
 2307000   0.89464631   -6.4748635     789.4811  0.028517595   0.02808233            8 
 2308000   0.89575807   -6.5106625    788.86584  0.028483024  0.028075006            7 
 2309000    0.8804316   -6.4787702    791.55391  0.028567703  0.028067683            3 
 2310000   0.87443759   -6.4856593    791.72773  0.028561606  0.028060387            6 
 2311000   0.90544001   -6.5033598    787.87861   0.02841045  0.028053068            7 
 2312000   0.87966385   -6.4752769    790.06927  0.028477122  0.028045735           11 
 2313000   0.91520828   -6.4872503    790.93828  0.028496119  0.028038377            5 
 2314000   0.87723284   -6.4815308    789.05738  0.028416068  0.028031045            8 
 2315000   0.90199077   -6.5174304    790.98816  0.028473296  0.028023714            4 
 2316000    0.8784928   -6.4809751    793.37703  0.028546957  0.028016442            5 
 2317000   0.86633947   -6.4913988    792.85141  0.028515732  0.028009204            9 
 2318000   0.89390176   -6.4779209    790.59862  0.028422441  0.028001884           11 
 2319000   0.87418386   -6.4749347    792.94437  0.028494479  0.027994631            8 
 2320000   0.87689683   -6.5002956    792.70784  0.028473701  0.027987471            5 
 2321000   0.89457118   -6.4942488    793.05569  0.028473922  0.027980256           19 
 2322000   0.88175639   -6.5030899    794.48769  0.028513052  0.027972988            7 
 2323000   0.87873439   -6.5223676       792.75  0.028438442  0.027965804            4 
 2324000   0.86111133   -6.5460109    790.24522  0.028336389    0.0279586            4 
 2325000   0.87562239   -6.5419298    793.11776   0.02842716  0.027951335            6 
 2326000   0.87742727    -6.512303      792.847  0.028405238   0.02794405            8 
 2327000   0.86600292   -6.4898237    796.10911  0.028509852  0.027936838            6 
 2328000   0.89489888   -6.5291628    794.87548  0.028453447  0.027929655            4 
 2329000   0.88852475   -6.5318446    794.66419  0.028433669  0.027922417           12 
 2330000   0.87796193   -6.4643215    796.83762    0.0284992  0.027915242            5 
 2331000   0.87112763   -6.4685699    795.60278  0.028442828  0.027908056            5 
 2332000   0.86321322   -6.4917602    794.91253  0.028405965  0.027900982            5 
 2333000   0.87835317   -6.4622104    798.43709  0.028519685  0.027893842            6 
 2334000   0.89610834   -6.4903399    796.66488   0.02844419  0.027886737            7 
 2335000   0.88538651   -6.4770901    796.50379  0.028426259   0.02787962            9 
 2336000    0.8862376   -6.4476725    796.61477   0.02841805  0.027872571            4 
 2337000   0.89021136   -6.4555704    796.10655  0.028387767   0.02786548            6 
 2338000   0.86678988   -6.4564134    798.77964  0.028470902  0.027858421            6 
 2339000   0.87238855   -6.4843248     797.9208  0.028428132  0.027851285            5 
 2340000   0.87314264   -6.5134546    795.06781  0.028314381  0.027844161            6 
 2341000   0.86719328   -6.4574544    798.19325  0.028413543  0.027837078            5 
 2342000   0.87964607   -6.4890282    796.49768  0.028341079  0.027829973            4 
 2343000   0.86945526   -6.4725118    800.44679   0.02846944  0.027822857            5 
 2344000   0.87343742   -6.5381503    796.22021  0.028307032  0.027815649            4 
 2345000   0.87922039   -6.5033305    795.88021  0.028282879  0.027808427            4 
 2346000   0.86425048   -6.5043993    794.92864  0.028237022  0.027801126            7 
 2347000   0.87356049   -6.5223756    795.67054  0.028251333  0.027793808            5 
 2348000   0.88289952   -6.5059766    795.58249  0.028236176  0.027786467            8 
 2349000   0.89061534   -6.4912272    798.99783  0.028345318  0.027779193            4 
 2350000   0.87305825   -6.4924858    796.74992  0.028253543   0.02777202            4 
 2351000   0.88653408   -6.5163378    798.05332  0.028287726  0.027764803            3 
 2352000   0.87265036   -6.4773982    797.96342  0.028272514  0.027757559            7 
 2353000   0.87507505   -6.5202567    794.48482  0.028137301  0.027750226            5 
 2354000   0.87915874   -6.5100133    796.54541  0.028198294  0.027742914            3 
 2355000   0.87155657   -6.5204605    795.42522  0.028146681  0.027735608            5 
 2356000   0.87011333    -6.493737    797.72409  0.028216047  0.027728442            5 
 2357000   0.87387845   -6.5244807    797.14095  0.028183459  0.027721193            6 
 2358000   0.87215848   -6.5184168    796.70822  0.028156214  0.027713894            6 
 2359000   0.86878957   -6.5261152    798.05346    0.0281918  0.027706606            7 
 2360000   0.88084723    -6.505126    800.73616  0.028274582   0.02769944            4 
 2361000   0.88727588   -6.5365975    796.80529  0.028123863  0.027692187            5 
 2362000    0.8630322   -6.5110108    799.26827  0.028198852  0.027685067            9 
 2363000   0.88215355   -6.5392103    800.95725  0.028246482  0.027677983            5 
 2364000   0.86485148   -6.5187738    800.85181  0.028230817  0.027670894            5 
 2365000   0.86786676   -6.5237589    801.64954  0.028246989  0.027663781           16 
 2366000   0.86249043    -6.532537    799.50103  0.028159377  0.027656722            6 
 2367000   0.86314277   -6.4994459    801.57264  0.028220414  0.027649699            7 
 2368000    0.8829896   -6.4658385    802.35671  0.028236089  0.027642827            6 
 2369000   0.87287319   -6.5097686     801.3266  0.028187935  0.027635851            7 
 2370000   0.87920826   -6.5219143    802.09761  0.028203151  0.027628864            9 
 2371000    0.8928117   -6.5162691    802.28044  0.028197682  0.027621862            3 
 2372000   0.87825512   -6.5367009    801.73636  0.028166679  0.027614878            4 
 2373000   0.86407584   -6.5089171    803.54346   0.02821827  0.027607829            3 
 2374000   0.88547566   -6.5129982    801.95751  0.028150713  0.027600757            7 
 2375000   0.85804666   -6.5082859    803.89064  0.028206689  0.027593755           10 
 2376000    0.8528946   -6.5193268    803.44809  0.028179296  0.027586822            7 
 2377000   0.89095712   -6.5298476    803.24748  0.028160408  0.027579883            5 
 2378000   0.87021268   -6.5322105    801.72171  0.028095098  0.027572844            5 
 2379000   0.87049105   -6.5286745    801.40725  0.028072273  0.027565806            6 
 2380000   0.87455412   -6.5149084    803.25387  0.028125135  0.027558775           12 
 2381000   0.87604277   -6.5341496    803.03746  0.028105749  0.027551743            7 
 2382000   0.90404815   -6.5118171      805.368  0.028175483  0.027544791            5 
 2383000   0.85750497   -6.5106399    805.27294  0.028160335  0.027537777            5 
 2384000   0.86468995   -6.5130812    803.46841  0.028085445  0.027530766            5 
 2385000   0.86879007    -6.490184    803.15988  0.028062889  0.027523686            8 
 2386000   0.86342834   -6.5196561    802.35381  0.028022975  0.027516579            6 
 2387000   0.88046965    -6.507712    804.53865   0.02808751  0.027509546            6 
 2388000   0.88095698   -6.5312855    802.20916  0.027994457  0.027502457            8 
 2389000   0.86829671   -6.5339242     801.0716  0.027943058  0.027495313            4 
 2390000   0.88783211   -6.5300528    805.10725   0.02807208    0.0274882           10 
 2391000   0.87541619   -6.5472078    803.34933   0.02799907  0.027481027            7 
 2392000    0.8498873    -6.541022    804.75139  0.028036211  0.027473875            5 
 2393000   0.87665758   -6.5274649     803.7935  0.027991137  0.027466739            7 
 2394000   0.85818132   -6.4915325    804.15189   0.02799192  0.027459664            6 
 2395000   0.86935622   -6.5466017    805.26916  0.028019108  0.027452599            5 
 2396000   0.86023748   -6.4984316    804.34979  0.027975438  0.027445492            9 
 2397000   0.86749813   -6.5409972    804.53484    0.0279702  0.027438443            6 
 2398000   0.87450357   -6.5049393    803.04145  0.027906639  0.027431357            3 
 2399000   0.87590063   -6.5271061    804.94325  0.027961069  0.027424186            3 
 2400000   0.86076283   -6.4989722    807.06451  0.028023073  0.027417139            4 
 2401000   0.86425021   -6.5310355     802.0567  0.027837592  0.027410119            4 
 2402000   0.85946976   -6.5294786     804.4105  0.027907664  0.027403004           10 
 2403000   0.86216849   -6.5287055     805.1813  0.027922781  0.027395924            4 
 2404000   0.86412468   -6.5464551    803.52136  0.027853625  0.027388841            6 
 2405000   0.86760749   -6.5295338    807.59483  0.027983189  0.027381792           10 
 2406000   0.85002871   -6.4822958     809.1078  0.028023961  0.027374891            4 
 2407000   0.87411845   -6.4960114    806.48462    0.0279215  0.027367904            4 
 2408000   0.86887996   -6.5471066    804.74248  0.027849615  0.027360855            7 
 2409000   0.86316248   -6.5412229    805.21047  0.027854243  0.027353738           13 
 2410000   0.85446934   -6.5276967    806.44524  0.027885382  0.027346633           11 
 2411000   0.86114387   -6.5397889    807.32766  0.027904316   0.02733964            6 
 2412000   0.85753237   -6.4960646    806.59408  0.027867402  0.027332644            5 
 2413000    0.8677531   -6.5161191    807.80504  0.027897674  0.027325545            7 
 2414000   0.89578892   -6.5443029    805.10765  0.027793001   0.02731846            4 
 2415000   0.83933075   -6.5600048    806.95485  0.027845233  0.027311321           10 
 2416000   0.86688118   -6.5396352    806.67818  0.027824165  0.027304147            4 
 2417000   0.85637956   -6.5531022    807.34302  0.027835575  0.027297012            6 
 2418000   0.86352003   -6.5568799    804.28688  0.027718737  0.027289836            5 
 2419000   0.85486249   -6.5692591    805.02057  0.027732554  0.027282601            2 
 2420000   0.86305355   -6.5398038    807.60213  0.027809991  0.027275422           15 
 2421000   0.87714825   -6.5654432    804.16314   0.02768013  0.027268277            7 
 2422000   0.87692569    -6.564665    806.47765  0.027748336   0.02726108            6 
 2423000   0.87185359   -6.5383823    809.08873  0.027826686  0.027253913            5 
 2424000   0.83065142   -6.5671896    804.41544  0.027654546  0.027246816           11 
 2425000   0.86317379   -6.5191011    806.98599  0.027731477  0.027239698            4 
 2426000   0.85924955   -6.5655015    807.10166   0.02772402  0.027232588            6 
 2427000   0.87007855   -6.5396792    807.03808  0.027710414  0.027225507            5 
 2428000   0.86082877   -6.5554029    807.21385  0.027705033   0.02721838            9 
 2429000   0.86982291   -6.5782289    809.24558  0.027763331   0.02721127            6 
 2430000   0.84784804   -6.5160259    810.51185  0.027795331  0.027204224           13 
 2431000   0.86280061    -6.541837    809.39593  0.027745644  0.027197203            4 
 2432000   0.85081611   -6.5718508    811.26612  0.027798318  0.027190175           10 
 2433000   0.88262692   -6.5550377    810.29302  0.027753563  0.027183151            3 
 2434000   0.85183201   -6.5728344     808.6027  0.027684289  0.027176086            5 
 2435000   0.86295391   -6.5530797    809.94601  0.027718892  0.027169003            4 
 2436000   0.87732948    -6.555944    809.23491  0.027683186  0.027161927           17 
 2437000   0.85907149   -6.5434633    809.77949  0.027690449  0.027154857            6 
 2438000   0.84963673   -6.5712264    810.61658  0.027707704  0.027147903            7 
 2439000   0.87712975   -6.5455785    808.53265  0.027625142  0.027140909            3 
 2440000   0.84945991   -6.5607027    810.84725   0.02769287   0.02713389            8 
 2441000   0.85487627   -6.5481742    812.02265  0.027721653  0.027126892            5 
 2442000   0.86624301   -6.5436539     811.0019  0.027675467  0.027119895            4 
 2443000   0.86120665   -6.5433816    811.91379  0.027695245  0.027113022            5 
 2444000   0.85943475   -6.5503583    811.81632  0.027680589  0.027106091            5 
 2445000   0.84906052   -6.5403752    811.71163    0.0276657   0.02709913            8 
 2446000   0.86778122   -6.5333888    812.46588  0.027680086   0.02709207           21 
 2447000   0.86604126   -6.5511795    811.76204  0.027644805  0.027085086            9 
 2448000   0.84140755    -6.537575    812.25084  0.027650151  0.027078092            7 
 2449000   0.86728498   -6.5569354    812.63703  0.027652002  0.027071051           16 
 2450000   0.86575672   -6.5318962    814.18859  0.027693489  0.027064044            8 
 2451000   0.86953962   -6.5616606    810.84871  0.027568636  0.027057019            4 
 2452000   0.84997335    -6.565002    811.17126  0.027568354  0.027049889            5 
 2453000   0.87040707   -6.5437761    814.16382  0.027658779  0.027042854            8 
 2454000   0.84683245   -6.5356567    812.95719  0.027606533  0.027035911            9 
 2455000   0.86051748   -6.5300749    816.46805  0.027714462  0.027028909           11 
 2456000   0.85588396   -6.5483899    814.18591  0.027625744   0.02702195           11 
 2457000   0.86408542   -6.5875079    813.99284  0.027607952  0.027014972            9 
 2458000   0.83959065   -6.5352881    813.03975  0.027564407  0.027007968            7 
 2459000   0.84515933   -6.5511218     810.7678  0.027476203  0.027000956            5 
 2460000   0.83831433    -6.572015    810.35936  0.027451198  0.026993913            9 
 2461000   0.88601574    -6.571947    813.23458  0.027537403  0.026986884           15 
 2462000   0.84538345   -6.5643512    813.47525  0.027534364   0.02697981           23 
 2463000    0.8476856   -6.5427916    814.63923  0.027562567   0.02697286           10 
 2464000   0.86146202   -6.5631228    813.02315  0.027496725  0.026965957           13 
 2465000   0.85897722   -6.5635911    813.58586  0.027504593  0.026958998            7 
 2466000   0.86987467    -6.567128    814.10111  0.027510851  0.026951998            4 
 2467000   0.86319155   -6.5403957    816.62876  0.027585082  0.026945031            4 
 2468000   0.84388221   -6.5614791    813.62305  0.027472415  0.026938019            5 
 2469000   0.85538889   -6.5637367    812.99128  0.027439965  0.026931047            6 
 2470000   0.84652099   -6.5485508    814.57964  0.027482444  0.026924058            5 
 2471000   0.85466073   -6.5676125    813.15812  0.027423382  0.026916987            5 
 2472000   0.85567438   -6.5557027    815.68372  0.027497428  0.026909972            3 
 2473000   0.85517049   -6.5744629    813.46587  0.027411574  0.026902846            8 
 2474000    0.8522883   -6.5767353     814.2397   0.02742656  0.026895793            9 
 2475000   0.87292621   -6.5549082    815.54363  0.027459381  0.026888864            8 
 2476000    0.8677806   -6.5625202    814.30352  0.027406554  0.026881847            5 
 2477000   0.83953179   -6.5711166    815.98444   0.02745204  0.026874915            5 
 2478000     0.848602   -6.5363676    817.10085  0.027478506  0.026867978            8 
 2479000   0.85145772   -6.5780054    814.48453  0.027379472  0.026860983            5 
 2480000   0.86176558    -6.587955    813.82476  0.027346262  0.026853991            3 
 2481000   0.85869939   -6.5378498    818.70112   0.02749903  0.026847082            5 
 2482000   0.86873262   -6.5781626    815.26657  0.027372635  0.026840169            6 
 2483000   0.85303302    -6.567587    816.36673  0.027398534  0.026833237           10 
 2484000   0.86224227   -6.5706655    815.09127  0.027344715  0.026826287            6 
 2485000   0.85796764   -6.5877711    817.24791  0.027406033  0.026819297            6 
 2486000   0.86683974   -6.5443378    816.47482  0.027369094  0.026812272            5 
 2487000   0.85448533    -6.576901    818.38036  0.027421939  0.026805275            6 
 2488000   0.84586422   -6.5516073    817.54552  0.027382956  0.026798321            7 
 2489000   0.83749848   -6.5600704    818.28575  0.027396737  0.026791419            5 
 2490000    0.8659604   -6.5562145    817.80327  0.027369587  0.026784402            9 
 2491000   0.85659372   -6.5754282    815.55658   0.02728344  0.026777394            5 
 2492000   0.85394279   -6.5430579    817.81782  0.027348108  0.026770439            2 
 2493000   0.84495677   -6.5593772     814.9591   0.02724158  0.026763429           12 
 2494000   0.84741008   -6.5342499    817.69695  0.027322138  0.026756464            6 
 2495000   0.83148217   -6.5709862    818.79488  0.027347858  0.026749528            7 
 2496000   0.86086504   -6.5884092    814.66246  0.027198934  0.026742556            5 
 2497000   0.83985067   -6.5555335    819.48743  0.027349066  0.026735612            6 
 2498000   0.84667934   -6.5820851    817.39793  0.027268412  0.026728686            3 
 2499000   0.84228403    -6.572069    817.65734  0.027266151  0.026721691           10 
 2500000    0.8410279   -6.5819115    818.21009   0.02727367  0.026714697            6 
 2501000   0.83046985   -6.5648861    820.49803  0.027338999  0.026707705            7 
 2502000   0.85072617   -6.5790523    818.08353  0.027247653  0.026700679            5 
 2503000   0.84555145   -6.5550772    819.28658   0.02727682  0.026693665           14 
 2504000   0.86859408   -6.5814304    819.63751  0.027277606  0.026686661            9 
 2505000   0.84212451   -6.5706595      817.886   0.02720845  0.026679697            9 
 2506000   0.86123545   -6.5405159    820.15077  0.027272904   0.02667277            7 
 2507000   0.82803366   -6.5398881    819.79683   0.02725026  0.026665885            7 
 2508000   0.84255175   -6.5943824     816.4868  0.027129413  0.026658971            5 
 2509000    0.8468303   -6.5804061    818.98294  0.027201506   0.02665204            7 
 2510000   0.85897282   -6.5385927    816.56441  0.027110372  0.026645109            5 
 2511000   0.86156231   -6.5570885    818.69844  0.027170398  0.026638203            6 
 2512000   0.82657814   -6.5446101    822.07994   0.02727176  0.026631294            6 
 2513000   0.86085393    -6.574603     820.7006  0.027215168  0.026624365            8 
 2514000   0.84868406    -6.582844    821.00564  0.027214454  0.026617391            5 
 2515000   0.84834886   -6.5595893    819.08437  0.027139973  0.026610406            4 
 2516000   0.85847123   -6.5332938    821.44551   0.02720739  0.026603508            5 
 2517000   0.86233316   -6.5775213    819.07168  0.027117987  0.026596518           10 
 2518000   0.85107679   -6.5855469    820.51247    0.0271549  0.026589528            9 
 2519000   0.84058017   -6.6021369    819.63909  0.027115227  0.026582484            4 
 2520000   0.83416782   -6.5870383    819.76213  0.027108536  0.026575599            7 
 2521000   0.84789244   -6.5742999    822.46102  0.027186997  0.026568671            4 
 2522000   0.84563148   -6.6149839    822.25616  0.027169448  0.026561617           10 
 2523000   0.85546395   -6.5852792    822.24379   0.02715827  0.026554568           14 
 2524000   0.85399845   -6.5902452     820.2466   0.02708157  0.026547544            4 
 2525000   0.86787327   -6.6089004    820.45447  0.027077705  0.026540507            7 
 2526000   0.83428855    -6.576587    820.83585  0.027079567  0.026533507            4 
 2527000   0.85220239   -6.5754761    821.90453  0.027104094  0.026526548            6 
 2528000   0.84534454   -6.5878143    822.44221  0.027111096  0.026519595            4 
 2529000   0.85687526   -6.5518378    822.38206  0.027098394  0.026512644            5 
 2530000   0.83882291   -6.5892283    821.21291  0.027049174   0.02650573            6 
 2531000   0.83749079   -6.5561278    822.37929   0.02707689   0.02649874            6 
 2532000   0.86427701   -6.5760312    820.85337  0.027015974   0.02649175            9 
 2533000   0.83679797   -6.6224181    820.34443  0.026988565  0.026484723           14 
 2534000   0.86245374   -6.5818633     822.1522  0.027037365  0.026477764            6 
 2535000   0.86325553   -6.5857811    823.36519  0.027066574  0.026470822            4 
 2536000   0.84552376   -6.5609993    821.46242  0.026993376  0.026463902            7 
 2537000   0.84955533   -6.5919061    822.23673   0.02700817  0.026456944            8 
 2538000   0.84712223   -6.5844306    823.25201  0.027030864  0.026449999            9 
 2539000   0.83870026   -6.5581837    822.07119  0.026981462  0.026443035            4 
 2540000    0.8620802    -6.554164    822.11158  0.026972165  0.026436125           11 
 2541000   0.85869648   -6.5781344    823.24551  0.026998738  0.026429233            4 
 2542000   0.83556029   -6.5888281    824.82059  0.027039752  0.026422339            6 
 2543000   0.84326766   -6.5764797    824.69426  0.027024979  0.026415421           20 
 2544000   0.83754883   -6.5740183    825.25277  0.027032651  0.026408462            5 
 2545000   0.85311417   -6.5499648    824.41572  0.026994621  0.026401624            6 
 2546000   0.84272632   -6.5802786    822.99628  0.026937558  0.026394739            5 
 2547000   0.85279641   -6.6017568    821.56249  0.026880071  0.026387796            7 
 2548000    0.8390865   -6.5817384    825.14829  0.026986797  0.026380872            8 
 2549000   0.83683347   -6.5720602    824.55452  0.026956798  0.026373934            5 
 2550000   0.84642276   -6.5739511    824.40702  0.026941406  0.026367008            7 
 2551000   0.83422835   -6.6167705    823.90403  0.026914414  0.026360051            4 
 2552000   0.83907362   -6.6033993    822.33487  0.026852628  0.026352998            6 
 2553000   0.83639158   -6.5992071    825.99672  0.026961637  0.026345988            9 
 2554000   0.84138277   -6.5546696    824.91297   0.02691572  0.026339077            5 
 2555000   0.85120497   -6.5839368    823.51742  0.026859668  0.026332181           13 
 2556000   0.85310188   -6.5778759      823.912  0.026862024  0.026325285           10 
 2557000   0.84798904   -6.5765442    824.98621  0.026886527  0.026318367            9 
 2558000   0.82963633   -6.5667952    822.29911  0.026788478  0.026311399           16 
 2559000   0.84879308   -6.6002511    822.45191  0.026782985  0.026304422            4 
 2560000   0.84243002   -6.5655504    826.39482  0.026900873   0.02629744            6 
 2561000   0.86158829   -6.5969416    825.77368  0.026870158  0.026290473           12 
 2562000   0.83515693   -6.5700138     826.9264  0.026897164  0.026283543           11 
 2563000   0.83538284   -6.6024184    824.85641  0.026819366  0.026276561            9 
 2564000   0.84651922   -6.5758734    825.43708  0.026827778  0.026269582            9 
 2565000   0.84670049   -6.5932425    825.69399  0.026825666  0.026262696            8 
 2566000   0.83825819   -6.6043576    825.38671  0.026805232  0.026255717            4 
 2567000   0.84933683    -6.625101    822.52311  0.026701828  0.026248738            7 
 2568000   0.84629714   -6.5780543    825.55526  0.026789825  0.026241794            4 
 2569000   0.83259029   -6.6098216    825.59261  0.026780609  0.026234882            8 
 2570000   0.83934007   -6.5655179    828.80822  0.026874456  0.026227938            9 
 2571000   0.83522957    -6.600986    825.15505  0.026745594  0.026220943            6 
 2572000   0.82275523   -6.5976209     824.6602  0.026719161  0.026213969            9 
 2573000   0.85598585   -6.6081732    825.74803  0.026744009  0.026207027            7 
 2574000    0.8312949   -6.5942114    825.33217  0.026720156  0.026200095           12 
 2575000   0.84883844   -6.6028576    827.13022  0.026767968  0.026193119            6 
 2576000   0.85605776   -6.6261612    826.86173  0.026748891  0.026186119            9 
 2577000   0.82810835   -6.6295442    823.28213  0.026622757  0.026179022            7 
 2578000   0.85980415   -6.5942582    826.32561   0.02671081  0.026172024            8 
 2579000    0.8211094   -6.5941987    825.29119  0.026667028  0.026165005            7 
 2580000   0.82419219   -6.6043172    827.32149   0.02672227  0.026158017           14 
 2581000   0.83140425   -6.6158286    824.20105  0.026611166  0.026150982            7 
 2582000   0.85405507   -6.6240892    826.65848  0.026680173  0.026143928            3 
 2583000   0.83931056   -6.6225109    823.79785  0.026577554  0.026136902           13 
 2584000   0.85204182   -6.6433226    823.11023  0.026545092  0.026129895           11 
 2585000   0.81664175   -6.6429138    825.47508   0.02661106  0.026122823            9 
 2586000   0.82616414   -6.6077402    825.44484  0.026599795  0.026115767            5 
 2587000   0.84384282   -6.6033223    826.37237  0.026619391  0.026108749            4 
 2588000   0.84918982   -6.6007699    826.96552  0.026628204  0.026101712           18 
 2589000   0.83695077   -6.5931743    826.87581  0.026615032   0.02609472            9 
 2590000    0.8458152   -6.5876192    827.69699  0.026631177   0.02608778            8 
 2591000   0.82618737   -6.5837385    829.27933  0.026671791  0.026080836           13 
 2592000    0.8444414   -6.6005311    824.80371  0.026517609  0.026073899            6 
 2593000   0.83740874   -6.5932424     829.1893  0.026648326  0.026066899            6 
 2594000   0.84454442   -6.6255291    829.28963  0.026641276  0.026059934            6 
 2595000   0.83565327   -6.5947298    825.95936  0.026524064  0.026052903            9 
 2596000   0.83287744   -6.6239909    827.87386  0.026575304  0.026045865           15 
 2597000   0.83246175   -6.5812852    828.48769  0.026584767  0.026038802            9 
 2598000   0.84604702   -6.6193396    826.90601  0.026523801  0.026031742            8 
 2599000   0.82565761    -6.567223    828.18321  0.026554547  0.026024722            7 
 2600000   0.84324259   -6.6254935    827.75933  0.026530748  0.026017657            4 
 2601000    0.8378762   -6.5975285    828.19056  0.026534364  0.026010573            4 
 2602000   0.83046259   -6.6022517    830.33514   0.02659285  0.026003521           11 
 2603000   0.83134263   -6.6271613     827.2835  0.026484937  0.025996442           11 
 2604000   0.83018559   -6.6445933    825.78664  0.026426864  0.025989365            8 
 2605000   0.84666765   -6.5851012    826.92519  0.026453141  0.025982272            7 
 2606000   0.82371473   -6.6242884    825.69525   0.02640366  0.025975188            7 
 2607000   0.82895364   -6.6179562    829.61079  0.026518693  0.025968118            8 
 2608000   0.84106182   -6.5908983    826.92194  0.026422608  0.025961041            8 
 2609000   0.84341373    -6.604808    827.72128  0.026438012  0.025953954            7 
 2610000   0.83992816   -6.6125674    828.27178  0.026445459  0.025946868           11 
 2611000    0.8556773   -6.6265291    826.39678  0.026375488  0.025939753           12 
 2612000   0.83608581   -6.5969916    825.30787  0.026330649  0.025932594            4 
 2613000   0.86028773   -6.6135195    827.89409  0.026403052  0.025925429           15 
 2614000   0.84652307   -6.6011609    826.19186  0.026338685  0.025918301           11 
 2615000   0.84886511    -6.633766    826.53552  0.026339564  0.025911185            8 
 2616000   0.83852973   -6.6407707    825.47338  0.026295661  0.025904013            6 
 2617000   0.84091648   -6.5860443    828.74349  0.026389743  0.025896823            4 
 2618000   0.81820035   -6.5981311    829.08985  0.026390688  0.025889645            3 
 2619000   0.82186602   -6.5957171    827.93951  0.026344009   0.02588244           12 
 2620000   0.84590901   -6.6193327    827.09156  0.026306984  0.025875222            5 
 2621000   0.82297127   -6.6116395    828.24346  0.026333571  0.025868081            6 
 2622000   0.83765022   -6.5806175    827.81877   0.02631003   0.02586093           17 
 2623000     0.821951   -6.6168864    828.92092  0.026335014  0.025853751            3 
 2624000   0.81121792   -6.6097897    827.88113  0.026291957   0.02584656            7 
 2625000   0.83938067   -6.6562553    827.32342  0.026264236  0.025839368            7 
 2626000   0.82886437   -6.6618777    826.67598  0.026233688  0.025832123            5 
 2627000   0.82910839   -6.6456906    825.11637  0.026174228  0.025824871            7 
 2628000   0.83507071   -6.6662171    826.07468  0.026194656  0.025817589            6 
 2629000   0.82247244   -6.6248699    827.58431  0.026232544  0.025810321            4 
 2630000   0.82625053     -6.63655    824.48641  0.026124411  0.025802968            8 
 2631000   0.83669828   -6.6018997     830.1814  0.026294863  0.025795662            4 
 2632000   0.83359496   -6.6492779    826.61071  0.026171818  0.025788377            4 
 2633000   0.83328239   -6.6113659    827.91612  0.026203194  0.025781184            7 
 2634000    0.8408208    -6.618218    828.01573  0.026196398  0.025774016           13 
 2635000   0.83056385   -6.6034675    828.65258  0.026206597   0.02576677            9 
 2636000   0.84956492   -6.6315921    828.80857  0.026201586  0.025759645           12 
 2637000   0.84276743   -6.6137058    829.25665   0.02620581  0.025752383            6 
 2638000   0.82874159   -6.6318019    828.30906  0.026165942  0.025745152           20 
 2639000   0.86443076   -6.6617712    826.67838  0.026104534  0.025737969           10 
 2640000   0.80789784   -6.6205585     831.0654  0.026233125  0.025730683            9 
 2641000   0.82103669    -6.626204    828.63993  0.026146659  0.025723452           10 
 2642000   0.81039605   -6.6396082    827.13582  0.026089321  0.025716236            4 
 2643000   0.82490391   -6.6500598    827.85474  0.026102117  0.025708963           28 
 2644000    0.8359207   -6.6230984    827.91029  0.026093996  0.025701751           10 
 2645000   0.82480152   -6.6392906     830.3987   0.02616253  0.025694533            6 
 2646000   0.81645196   -6.6253687    828.58957  0.026095665  0.025687397            9 
 2647000   0.83729158   -6.6201453    832.12983  0.026197262   0.02568027            5 
 2648000   0.82776374   -6.6309541    829.92087  0.026117852  0.025673154            8 
 2649000   0.82246381   -6.5845891    830.29159  0.026119655   0.02566604            6 
 2650000   0.81905681   -6.6032772    833.50919  0.026210981  0.025658924            8 
 2651000   0.82063788     -6.59993    830.50329  0.026106604  0.025651812            5 
 2652000   0.83014592   -6.6208487    830.09938  0.026084068  0.025644691           16 
 2653000   0.82841287   -6.6405869    829.72516  0.026062481  0.025637548           13 
 2654000   0.81619022   -6.6396696    830.27697  0.026069988  0.025630393            6 
 2655000   0.80643219   -6.6043716    831.43997  0.026096672    0.0256232            8 
 2656000    0.8384732   -6.6281343    830.55069  0.026058945  0.025616015           13 
 2657000   0.81463652    -6.640238    828.73654  0.025992239   0.02560877           10 
 2658000   0.81537456    -6.669147    828.37926  0.025971258  0.025601501            8 
 2659000   0.83268636    -6.615022    832.60207  0.026093834  0.025594233            7 
 2660000   0.83441672     -6.66537    829.17238  0.025976578  0.025586999           10 
 2661000   0.82193787   -6.6749493    829.51547  0.025977561   0.02557971            6 
 2662000   0.81267612   -6.6447027    830.81589  0.026008512  0.025572453           16 
 2663000   0.82573602   -6.6560544    831.05768  0.026006311  0.025565217           16 
 2664000   0.82617887   -6.6453639    829.12081  0.025935961   0.02555801            7 
 2665000   0.82198178   -6.6445995    830.55933  0.025971211  0.025550798           18 
 2666000   0.81292249   -6.6459871    831.52917  0.025991784  0.025543603            6 
 2667000   0.82631985   -6.6065208    833.55567  0.026045359  0.025536455            6 
 2668000     0.840091   -6.6200519    829.72449  0.025915932  0.025529331            5 
 2669000   0.82172051   -6.6277445    832.02529  0.025978059  0.025522128            6 
 2670000   0.83017467   -6.6544384    831.66273  0.025957014  0.025514959            9 
 2671000   0.80099261   -6.6493993    828.77418  0.025857175   0.02550776            8 
 2672000   0.85150551   -6.6616894    830.14301  0.025890189  0.025500545           10 
 2673000   0.81113681   -6.6581267    831.00783  0.025907464  0.025493366            3 
 2674000   0.79888624   -6.6332519    833.52176  0.025976121  0.025486151            5 
 2675000   0.82704414   -6.6805543    830.86687  0.025883703  0.025478946            6 
 2676000   0.81370821   -6.6701138    827.14796   0.02575822  0.025471702           12 
 2677000   0.82051655   -6.6733621     829.7862  0.025830725  0.025464481           14 
 2678000   0.82219721   -6.6677651    829.84726  0.025822979  0.025457211            9 
 2679000   0.82621164   -6.6554694    831.00969  0.025849499  0.025449939            8 
 2680000   0.84233721   -6.6653698    831.24385  0.025847135  0.025442706            9 
 2681000   0.81033258   -6.6297787     834.2426  0.025930704  0.025435484            9 
 2682000    0.8279949   -6.6573685    833.47601  0.025897216  0.025428295            6 
 2683000   0.81291168   -6.6794946    831.18852  0.025816515  0.025421129           17 
 2684000   0.82469577   -6.6729367    829.24053  0.025746415  0.025413848           11 
 2685000   0.82969477    -6.683734    830.13023  0.025764439  0.025406561            6 
 2686000   0.83306349   -6.6417071     830.0972  0.025753822  0.025399308            5 
 2687000   0.84330181   -6.6306192    832.46037  0.025817528  0.025392086            7 
 2688000   0.82195627   -6.6418237    833.64106  0.025844527  0.025384863            4 
 2689000   0.82709394    -6.643952    834.87101  0.025873033  0.025377644           11 
 2690000   0.82148171    -6.647831    832.39261  0.025786636  0.025370434            7 
 2691000   0.81529958   -6.6612815    832.93341  0.025793801  0.025363252           12 
 2692000   0.82345961   -6.6481945    832.29049  0.025764317  0.025356083            8 
 2693000   0.82368677   -6.6570054    835.09429  0.025841512   0.02534892            4 
 2694000   0.82117279   -6.6706097    831.52866  0.025721624  0.025341699            4 
 2695000   0.82201587   -6.6543436    833.16171  0.025762576  0.025334489            5 
 2696000   0.81216658   -6.6417099    833.28896  0.025756953  0.025327314            7 
 2697000   0.82136356   -6.6673595    832.84139  0.025733574  0.025320116            5 
 2698000   0.81730916   -6.6564303    832.59693  0.025716485  0.025312918            5 
 2699000   0.81974103   -6.6376933     833.9255  0.025747978  0.025305715            7 
 2700000   0.82369114   -6.6930213    832.23806   0.02568636  0.025298509           14 
 2701000   0.81953147   -6.6526725     834.6357  0.025750824  0.025291279            5 
 2702000   0.83326819   -6.6405608    834.20244  0.025727931  0.025284083            7 
 2703000   0.82384481   -6.6610428     833.5263  0.025697568  0.025276903            6 
 2704000   0.82279362   -6.6578762     835.5314  0.025749858  0.025269648            8 
 2705000   0.82145856   -6.6534716    832.09167  0.025634371  0.025262394            6 
 2706000   0.83632592   -6.6302508    834.78508  0.025707843  0.025255118            6 
 2707000   0.81975896   -6.6658367    834.70614  0.025695916  0.025247951            7 
 2708000   0.83052056   -6.6429736    836.32345  0.025736197  0.025240665            5 
 2709000   0.80349329   -6.6682979    832.04656  0.025595132  0.025233401            7 
 2710000   0.82031685   -6.6723497    834.44765  0.025659522  0.025226161           13 
 2711000   0.82813852   -6.6482176    834.29278  0.025645296  0.025218915            5 
 2712000   0.80349736   -6.6744333    832.56508  0.025582752   0.02521166            3 
 2713000   0.80869944   -6.6645434    833.74308  0.025609506  0.025204429            5 
 2714000   0.83580671   -6.6716027    833.35129   0.02558804  0.025197198           12 
 2715000   0.80661648   -6.6435072     835.3543  0.025640095   0.02518997            9 
 2716000   0.82298784   -6.6418709     834.9739  0.025618983  0.025182753            5 
 2717000   0.82075221   -6.6100933    834.58131  0.025597513   0.02517548            8 
 2718000   0.81352289   -6.6837556    835.88887  0.025628185  0.025168248            5 
 2719000   0.82432173   -6.6729408     834.1131  0.025564334  0.025161003            9 
 2720000   0.82076961   -6.6183012    834.96095  0.025580911  0.025153742            4 
 2721000   0.81438413   -6.6570718    832.11682  0.025484406   0.02514646           10 
 2722000   0.82480115   -6.6965372    829.98505   0.02540978  0.025139109           13 
 2723000   0.81269313   -6.6668429      830.988  0.025431142  0.025131768            7 
 2724000   0.80096321   -6.6708252    833.65265  0.025503324  0.025124443           12 
 2725000    0.8362371    -6.660646    832.39088  0.025455379  0.025117135           11 
 2726000   0.80772557   -6.7108813    832.65258  0.025454041  0.025109851            6 
 2727000   0.81814811   -6.6671701     833.5703  0.025472751  0.025102568            7 
 2728000     0.818093   -6.6558179    834.23992  0.025483869  0.025095297            9 
 2729000   0.82062095     -6.66532    833.00371  0.025436781  0.025087989            9 
 2730000   0.80104725   -6.6620989    834.38986  0.025469776  0.025080686           19 
 2731000    0.8141158   -6.6660988    835.70524  0.025500587   0.02507339            6 
 2732000   0.80302221   -6.6631159    836.89721  0.025527611   0.02506609            4 
 2733000   0.81775149    -6.632379    835.64208      0.02548  0.025058818            4 
 2734000   0.81515112   -6.6631226    834.43621  0.025433925  0.025051527           10 
 2735000    0.8102399   -6.6618822    832.66254  0.025370583  0.025044214           12 
 2736000   0.81945053   -6.6445233     833.4179  0.025384317  0.025036877           15 
 2737000   0.81466478     -6.64728    833.85929  0.025388482  0.025029519           14 
 2738000   0.81882496   -6.6452545    835.75948  0.025437043  0.025022231           16 
 2739000   0.79796315   -6.6732846    835.43856  0.025417992  0.025014935            2 
 2740000   0.80997561   -6.6636631     833.4745  0.025348981  0.025007604            8 
 2741000   0.81376384    -6.692381    835.14602  0.025390552  0.025000269           12 
 2742000   0.81715718   -6.6247018    834.35681  0.025357306  0.024992944            6 
 2743000   0.81276974   -6.6332855    836.24145  0.025405318  0.024985694           12 
 2744000   0.81071896    -6.650737    836.17181  0.025393945  0.024978438           10 
 2745000   0.81253537   -6.6418188    834.97965  0.025348502  0.024971181           13 
 2746000   0.80548965   -6.6477891     833.4253  0.025292101  0.024963861           13 
 2747000   0.81369967   -6.6786176    832.22371  0.025246442  0.024956477           10 
 2748000   0.82790882   -6.6728902    834.24134  0.025298439   0.02494907            6 
 2749000   0.80832087   -6.6670977    835.11978  0.025315866  0.024941701            9 
 2750000   0.81564585   -6.6784308    833.77039  0.025265769  0.024934263            9 
 2751000   0.81272231    -6.700654    832.90126  0.025230258  0.024926818            6 
 2752000   0.81195222   -6.6693062    833.80557  0.025248473  0.024919437            8 
 2753000   0.81864924   -6.6867804    833.31978  0.025224597   0.02491206            7 
 2754000    0.8056352    -6.647557    837.34564  0.025337256  0.024904719           13 
 2755000   0.80765495   -6.6665965    834.07921  0.025229256  0.024897422            9 
 2756000   0.82177854   -6.6724017    834.89539  0.025244781  0.024890106            8 
 2757000   0.81126725    -6.657164    835.64475  0.025258274  0.024882793           16 
 2758000   0.81197195   -6.6868049    835.40125  0.025241759  0.024875528           12 
 2759000   0.80250728   -6.6451025      836.243  0.025258034  0.024868283            7 
 2760000   0.80739191   -6.6793095    834.27608  0.025189495  0.024860996            6 
 2761000   0.82154193   -6.6812927    836.03156  0.025233356  0.024853653           11 
 2762000   0.80092095    -6.713052    833.57521  0.025150109  0.024846324            7 
 2763000   0.81241536   -6.6438235    839.41656  0.025317184  0.024838988            8 
 2764000   0.79914046   -6.6733913    834.81673  0.025169342  0.024831693            8 
 2765000   0.79032955   -6.6862363    837.12938  0.025229939  0.024824393            3 
 2766000    0.8106053   -6.6715718    836.23588  0.025193899  0.024817075           15 
 2767000   0.82093707   -6.6849336    836.22625  0.025184503  0.024809738           10 
 2768000   0.81611737   -6.6890905    836.52766  0.025184479  0.024802425            9 
 2769000   0.82362045    -6.691944    835.42595  0.025142228  0.024795068            6 
 2770000   0.82431726   -6.7377614    834.66643  0.025110302  0.024787667           11 
 2771000   0.81556575   -6.6926077    834.89778  0.025108197  0.024780301            7 
 2772000   0.81834498   -6.6862678    836.31305  0.025141686  0.024772958            7 
 2773000   0.80934659   -6.6927634    834.90064  0.025090174  0.024765657            8 
 2774000   0.81153381   -6.6877326    836.97189  0.025143352  0.024758362           14 
 2775000   0.82295991   -6.7030764    837.71655  0.025156653  0.024751051            9 
 2776000   0.80636515   -6.6860659     835.7088   0.02508732  0.024743753            7 
 2777000   0.80233971    -6.704261    835.60043  0.025075034  0.024736485            6 
 2778000   0.80586598    -6.687112    837.63053  0.025126906  0.024729214            6 
 2779000   0.81743825   -6.7206643    835.84995   0.02506447  0.024721958           11 
 2780000   0.80166408   -6.6966827     839.2213  0.025156514   0.02471467            8 
 2781000   0.79791373   -6.6848792    838.11313  0.025114261  0.024707437            6 
 2782000   0.81514641   -6.6954851    835.59305  0.025029746  0.024700213            7 
 2783000   0.79548174   -6.6908356    838.53597  0.025108874  0.024693031           12 
 2784000   0.80663313   -6.6929299    839.33535  0.025123783  0.024685788            8 
 2785000   0.80911922   -6.7070955    835.39739   0.02499693  0.024678522           11 
 2786000   0.81411492   -6.6711513    839.46996  0.025109774   0.02467134           16 
 2787000   0.82752728   -6.6803623    838.64744   0.02507617  0.024664124            7 
 2788000   0.80489438   -6.6737642    839.49746  0.025092583  0.024656948            8 
 2789000   0.79700846   -6.6973304    838.06737  0.025040856  0.024649749            9 
 2790000   0.79320971    -6.687651    839.17322  0.025064911  0.024642537           12 
 2791000   0.78737677   -6.6733455    839.73126  0.025072592  0.024635316            9 
 2792000   0.80506178   -6.6897243    837.25964  0.024989841  0.024628083            7 
 2793000   0.80546453   -6.6816431    839.90518  0.025059828  0.024620777            9 
 2794000   0.80864623   -6.6714305    839.13192  0.025027795  0.024613534            7 
 2795000   0.79517719   -6.7189862    837.41553  0.024967666  0.024606214           12 
 2796000   0.82563015   -6.7030503    837.41521  0.024958727  0.024598858           16 
 2797000   0.79122079    -6.696043    839.23014  0.025003877  0.024591556            6 
 2798000   0.80356238   -6.6972458    838.94378  0.024986412  0.024584259           11 
 2799000   0.78833288   -6.6805615    836.39416  0.024901577  0.024576958            8 
 2800000   0.81637772   -6.7017532    837.84066  0.024935734  0.024569656            7 
 2801000   0.81723732   -6.7005057    838.20088  0.024937548   0.02456229           20 
 2802000    0.8026403    -6.687742    837.24622  0.024900256  0.024554933            5 
 2803000   0.78855668   -6.7157918    838.05148  0.024915313  0.024547495           12 
 2804000   0.78376066   -6.7226087    837.18911  0.024880799  0.024540168           24 
 2805000    0.7898784   -6.6996628    839.85761  0.024951206  0.024532803            4 
 2806000   0.80081902   -6.7073103    838.44763   0.02490044  0.024525429            7 
 2807000   0.81364472   -6.6833561    839.95746  0.024936393  0.024518161           13 
 2808000   0.79785708   -6.7188278    839.54207  0.024915185  0.024510847            5 
 2809000   0.80377587   -6.6896908    837.26934  0.024838891  0.024503538           18 
 2810000   0.80995722   -6.6788485    839.34693  0.024891665  0.024496258           11 
 2811000   0.79297047   -6.7022477     839.0793  0.024874875  0.024488981            7 
 2812000   0.81269885   -6.7175926    840.30612  0.024902386  0.024481651           16 
 2813000   0.79132732    -6.720485     841.2219  0.024920663   0.02447438            6 
 2814000   0.79652753   -6.6693943      840.491  0.024890162  0.024467116           18 
 2815000   0.81279855   -6.6710928    839.92941  0.024864695  0.024459814            6 
 2816000   0.82477507   -6.7061067     838.1066  0.024801923  0.024452484            8 
 2817000   0.81248975   -6.6971024    839.47405  0.024833571  0.024445142            6 
 2818000   0.80480305   -6.7269246    837.78716  0.024774875  0.024437836            9 
 2819000   0.79526063   -6.7118023    838.42935   0.02478507   0.02443055           11 
 2820000   0.80295883   -6.6948323    839.23205  0.024800001  0.024423308            8 
 2821000   0.80099687   -6.7030442    839.55856  0.024800855  0.024416047            9 
 2822000   0.79885842   -6.6980279    840.46311  0.024818778  0.024408802            9 
 2823000   0.79740172   -6.7125124    838.06728  0.024739263  0.024401557           11 
 2824000   0.79438992     -6.69175     840.4419  0.024800575  0.024394381           12 
 2825000    0.7945947   -6.6756874    844.41305  0.024908939  0.024387212            8 
 2826000   0.78867587   -6.7232089    838.89051  0.024737276  0.024379966           11 
 2827000   0.78375007   -6.7118774    839.64543  0.024750779  0.024372742           11 
 2828000   0.79637669   -6.7102441    840.02315  0.024753157  0.024365473           12 
 2829000   0.80371932   -6.7401807    836.48707  0.024640246   0.02435821            5 
 2830000   0.78417499   -6.7207578    838.68088  0.024696139  0.024350923            7 
 2831000   0.78247432   -6.7043929    840.29578  0.024734952  0.024343686            6 
 2832000   0.80208884   -6.7310699    839.86737  0.024713611   0.02433648            4 
 2833000   0.80481987    -6.704881    841.18616   0.02474368  0.024329255           10 
 2834000   0.78182707    -6.720262    840.94358  0.024727816  0.024322032            9 
 2835000   0.80398729   -6.7143512    840.70727  0.024712148  0.024314774            6 
 2836000   0.80585889   -6.7112171    842.41052  0.024753483  0.024307595            9 
 2837000   0.78420424   -6.7212739    840.05995  0.024675712  0.024300389           12 
 2838000   0.79919452   -6.7161167    841.93133  0.024721968  0.024293156            7 
 2839000   0.80449023   -6.7459711    842.04898  0.024716713    0.0242859            9 
 2840000   0.79099027   -6.7343243    841.34631  0.024687392  0.024278683            9 
 2841000   0.79397817   -6.7387814    838.46359  0.024594145  0.024271446            6 
 2842000   0.79394397   -6.7532007    840.59022  0.024647848  0.024264173            9 
 2843000   0.79234655   -6.7225339    839.61741  0.024610664  0.024256932            8 
 2844000   0.81003393   -6.6916084    841.03599  0.024643577  0.024249713           11 
 2845000   0.80272201   -6.7185564    839.43692  0.024588076  0.024242452           13 
 2846000   0.80959743   -6.7181737     839.0252  0.024567381  0.024235139            7 
 2847000   0.79039029   -6.7044664    842.02556  0.024646574  0.024227864           20 
 2848000   0.78804467   -6.7139005    841.64305  0.024626728  0.024220626            6 
 2849000   0.79280711   -6.7237462    840.12134  0.024573574  0.024213394            9 
 2850000   0.80538274   -6.7200361    841.43916  0.024603484  0.024206111            8 
 2851000    0.8049995   -6.6846784    839.11762  0.024526997  0.024198849           16 
 2852000   0.79589852   -6.7122245    841.84492  0.024598087  0.024191601            8 
 2853000   0.79259316   -6.7241621    839.88047  0.024532085   0.02418434            5 
 2854000   0.80193166   -6.7443408    840.19537  0.024532684  0.024177075            9 
 2855000   0.79897854   -6.7057918    841.97305  0.024575979  0.024169835           23 
 2856000   0.79260432   -6.7099819    842.02333  0.024568841  0.024162607           17 
 2857000   0.80277739   -6.7153733    843.66919  0.024608248  0.024155345           12 
 2858000   0.79270978   -6.7412153    840.84604  0.024517321  0.024148102           15 
 2859000     0.803826    -6.701616    842.04689  0.024543748  0.024140876            8 
 2860000   0.80192466   -6.7168969    843.42829  0.024575417  0.024133685            7 
 2861000   0.79739749   -6.7218191    843.04188  0.024555572  0.024126434           17 
 2862000   0.80643313   -6.7075243    842.36218  0.024527201   0.02411919            6 
 2863000   0.78882309    -6.711514    840.08741  0.024452422  0.024112006           10 
 2864000   0.80440839   -6.7286175    842.68238   0.02451939  0.024104777            7 
 2865000    0.7847551   -6.7388525    841.01591  0.024462359  0.024097488            7 
 2866000   0.78621112   -6.7281618    841.31081  0.024462398  0.024090236            8 
 2867000   0.78606243   -6.7587614    839.37489  0.024397596  0.024082936           13 
 2868000   0.77922059   -6.7514316    840.44622  0.024420218  0.024075612           10 
 2869000   0.78805769   -6.7527574    842.50899  0.024471622   0.02406835           22 
 2870000   0.77986442   -6.7310147    841.11833  0.024422716   0.02406108            7 
 2871000    0.7892495    -6.762257    840.02365  0.024382435  0.024053803            9 
 2872000   0.80283275   -6.7223796     842.8653  0.024456398  0.024046539           10 
 2873000   0.78129023   -6.7440239    840.88027  0.024390308    0.0240393           12 
 2874000   0.79427807   -6.7447545    842.67544  0.024433874  0.024032086           15 
 2875000   0.80191381   -6.7161267    842.64529  0.024424501  0.024024839           11 
 2876000   0.80836025   -6.7159044    841.31234  0.024377386  0.024017617           13 
 2877000    0.7949516   -6.7060205    844.03723   0.02444784  0.024010398            7 
 2878000   0.78860255   -6.7069875     845.5489  0.024483116    0.0240032            6 
 2879000   0.76826434   -6.6987137    843.82844  0.024424813   0.02399599           11 
 2880000   0.80344536   -6.6930503    844.45681  0.024434514  0.023988805            8 
 2881000   0.78373461   -6.7086267    848.03278  0.024529468  0.023981653            9 
 2882000   0.80917923   -6.6939815    844.38825  0.024415575  0.023974489            7 
 2883000   0.78799095   -6.7687133     841.0588  0.024310868  0.023967277           16 
 2884000   0.79502133   -6.7530148    844.05651  0.024389058  0.023960026            4 
 2885000    0.7987838   -6.7452586    843.99301   0.02437877  0.023952803            8 
 2886000   0.77646323     -6.75358    842.27483   0.02432071  0.023945538            8 
 2887000   0.77694902   -6.7507895    843.10799  0.024336335  0.023938265            8 
 2888000   0.78441212   -6.7143715    842.58549  0.024312831  0.023931047           10 
 2889000   0.78361381   -6.7436448    842.64531  0.024306141  0.023923775           12 
 2890000   0.78053096   -6.7654047    840.58213  0.024238239  0.023916513            8 
 2891000   0.79050628   -6.7364841    841.47147   0.02425549  0.023909219            9 
 2892000   0.79116291   -6.7269211    842.89994  0.024288265   0.02390191            7 
 2893000   0.77197247   -6.7538278    841.93466  0.024252064  0.023894619            4 
 2894000   0.77803778   -6.7379509    843.32012  0.024283579  0.023887331           11 
 2895000   0.78148143   -6.7435271     842.4632  0.024250524  0.023880069           14 
 2896000   0.79697085   -6.7314351    844.23832   0.02429323  0.023872818           13 
 2897000   0.78246306   -6.7376328    844.49252  0.024292156  0.023865605           11 
 2898000   0.78368889   -6.7346532     843.9706  0.024268766  0.023858418           13 
 2899000   0.79142228   -6.7365603     842.7987  0.024226708  0.023851182            9 
 2900000   0.78824675   -6.7442864    841.84528  0.024190956  0.023843943            8 
 2901000   0.78161997   -6.7503272    844.32279  0.024253786  0.023836741            9 
 2902000   0.80007231   -6.7488092    843.59703  0.024224587  0.023829508            8 
 2903000   0.80449535   -6.7767566    841.13183  0.024145477  0.023822255            6 
 2904000   0.79434041   -6.7125175    843.16454  0.024195493  0.023814986            9 
 2905000   0.79193157   -6.7310415    844.08091  0.024213451  0.023807824            8 
 2906000   0.78666219   -6.7602563    841.89524  0.024142442  0.023800597            4 
 2907000   0.79066888   -6.7552846    842.55034  0.024152917  0.023793327            7 
 2908000   0.78675125   -6.7541654    843.58591  0.024174287  0.023786096            7 
 2909000    0.8096401    -6.724379    845.30867  0.024215328  0.023778863           15 
 2910000   0.76626483   -6.7273428    842.98674  0.024140514  0.023771656           18 
 2911000   0.79314517   -6.7514558    842.92401  0.024130425  0.023764436           11 
 2912000   0.78343582   -6.7299215    842.91621  0.024121915  0.023757187            7 
 2913000   0.79131001   -6.7605392    843.01711  0.024116521  0.023749952           11 
 2914000   0.77513669   -6.7348834    844.53001   0.02415151  0.023742743           18 
 2915000   0.79174051   -6.7490379    845.54992  0.024172382  0.023735551           10 
 2916000   0.77839902   -6.7690849    844.19407  0.024125345  0.023728331           11 
 2917000   0.79295063   -6.8014575    841.19494  0.024031395   0.02372102           14 
 2918000   0.77925404   -6.7534089    846.26277  0.024167888  0.023713764           22 
 2919000   0.77230535   -6.7850721    843.49106   0.02408048  0.023706557           17 
 2920000   0.78612318   -6.7417716    843.87767  0.024083267   0.02369933           13 
 2921000   0.78363825    -6.745292    845.36507  0.024117456  0.023692141           11 
 2922000   0.79863254   -6.7519632    846.21999  0.024133584  0.023684956            7 
 2923000    0.7901358   -6.7876628    845.75909  0.024112187  0.023677769            7 
 2924000   0.78878421   -6.7677658    845.02404  0.024082992  0.023670606           14 
 2925000   0.77943645   -6.7723265    845.88635  0.024099326  0.023663397           12 
 2926000   0.77253529   -6.7888827    846.67338  0.024113505  0.023656207            5 
 2927000   0.77047012   -6.7524524    845.30616  0.024066341  0.023649011            4 
 2928000   0.78469752   -6.7200833    844.84457  0.024044984  0.023641853            9 
 2929000    0.7829257   -6.7564255    844.52719  0.024027745  0.023634663           13 
 2930000   0.77468824   -6.7643921    844.59611  0.024021505  0.023627468            5 
 2931000   0.79473153   -6.7317706    844.22063  0.024002634  0.023620257           12 
 2932000   0.79430252   -6.7731341    843.47152  0.023973156  0.023613063            9 
 2933000   0.77816665   -6.7748452    845.42955  0.024020615  0.023605843            6 
 2934000   0.79176088   -6.7815151    845.42863  0.024012401  0.023598625           12 
 2935000   0.77792754   -6.7861797    844.96244  0.023990983   0.02359139            6 
 2936000   0.78523195   -6.7745936    842.89603  0.023924161   0.02358413           18 
 2937000   0.78587069   -6.7750427    844.46194  0.023960446  0.023576944            5 
 2938000   0.79410971   -6.7448389    846.99667  0.024024185  0.023569794            9 
 2939000   0.78021749   -6.7554906    845.27102  0.023967081  0.023562626            7 
 2940000   0.78006099   -6.7740007    845.72551  0.023971812  0.023555478           22 
 2941000    0.7915792   -6.7726512    844.91082  0.023940576  0.023548312           15 
 2942000   0.78619597   -6.7440416    846.20043  0.023968967  0.023541175            9 
 2943000   0.77861354   -6.7657255    846.19057  0.023960544  0.023533974            8 
 2944000   0.77149216   -6.7528822    846.30445  0.023955629  0.023526794           17 
 2945000   0.78236965   -6.7954505     845.6457  0.023928854  0.023519589           30 
 2946000    0.7681925   -6.7572478    846.44893  0.023943452  0.023512376           17 
 2947000    0.7779562   -6.7643551    844.24601  0.023873035  0.023505149           12 
 2948000   0.77017557   -6.8094379    842.91837  0.023827408  0.023497963           23 
 2949000   0.75479097   -6.7564645    847.72078  0.023955035  0.023490761           20 
 2950000   0.78131109   -6.7968163     844.9386  0.023868322  0.023483544           13 
 2951000   0.78366769   -6.7864779    845.37913  0.023872674  0.023476312           11 
 2952000   0.77776474   -6.7875631    843.68747  0.023816833  0.023469085            7 
 2953000   0.77892023    -6.790572    846.43954   0.02388643  0.023461848            5 
 2954000   0.78546899   -6.7830668    843.19197  0.023786729   0.02345461           18 
 2955000   0.78168066   -6.7604132    848.87474  0.023938938  0.023447396            9 
 2956000   0.78926108   -6.7997726    845.96006  0.023848671  0.023440168           11 
 2957000   0.75970772   -6.7886283    847.00098  0.023869941  0.023432969            6 
 2958000   0.77694851   -6.7719862    847.37093  0.023872294  0.023425766            8 
 2959000   0.77149547     -6.75711    845.23709  0.023804131  0.023418588            6 
 2960000   0.78153876   -6.7878545    844.71117  0.023781283  0.023411425            7 
 2961000   0.79730039   -6.7545576    846.31822   0.02381848  0.023404248            9 
 2962000   0.79869266   -6.8028766    845.69669  0.023792952   0.02339707           10 
 2963000    0.7811523   -6.7591654    847.28367  0.023829555  0.023389903            6 
 2964000    0.7872068   -6.7619481    847.40656  0.023824971  0.023382748            7 
 2965000    0.7645615   -6.7664722     846.4709  0.023790638  0.023375581            8 
 2966000   0.77592145   -6.7790058    846.60305   0.02378633  0.023368399           10 
 2967000   0.76988821   -6.7701029    845.71874  0.023753475  0.023361268            8 
 2968000   0.76912701   -6.7849369    846.31127  0.023762109  0.023354097           13 
 2969000    0.7696094   -6.7869212    845.61557  0.023734579   0.02334693           13 
 2970000    0.7648781   -6.7635589    845.92695  0.023735324  0.023339786            9 
 2971000   0.77025564   -6.8069107    847.37267  0.023767886  0.023332603           10 
 2972000   0.76259455   -6.7617795    847.98358  0.023777018  0.023325458            9 
 2973000    0.7795205   -6.7642914    847.78769   0.02376353  0.023318359            4 
 2974000   0.76894399   -6.8100311    845.62662  0.023694985  0.023311189           15 
 2975000   0.78024131   -6.7784865    847.41492  0.023737113  0.023304002            6 
 2976000   0.76252855   -6.7957045     846.1729  0.023694357  0.023296843           13 
 2977000   0.77819186   -6.7845311    846.41222  0.023693098  0.023289698            7 
 2978000   0.77652683   -6.8034516    845.95466  0.023672338  0.023282565            8 
 2979000   0.80249176   -6.7741907    848.35695  0.023731592  0.023275442           16 
 2980000    0.7653201   -6.7768041    846.94426  0.023684124  0.023268356            6 
 2981000   0.76214836   -6.7716113     847.4839  0.023691264  0.023261243            7 
 2982000   0.78141396   -6.7839783    850.49304  0.023767411  0.023254132            7 
 2983000   0.76029637   -6.7511909    848.44571  0.023702249  0.023247046            3 
 2984000    0.7912262   -6.8099666    848.38509  0.023692613  0.023239922           16 
 2985000   0.79213211   -6.7509815    851.27998  0.023765493  0.023232843            9 
 2986000   0.77448048   -6.7861513    848.98693   0.02369354  0.023225738            9 
 2987000   0.77998689   -6.7912063    847.32275  0.023639179  0.023218675           15 
 2988000   0.76497409   -6.7562414     850.2012  0.023711546  0.023211604           13 
 2989000   0.76857086   -6.7909476    848.70289   0.02366184  0.023204517           12 
 2990000   0.77050045   -6.7869932    850.87284  0.023714405  0.023197445           10 
 2991000   0.76657695   -6.7711537    849.38276   0.02366496  0.023190361            7 
 2992000   0.77447601   -6.7633679    848.88702  0.023643244  0.023183292           17 
 2993000   0.76314713   -6.8037421     845.4193  0.023538793  0.023176231           15 
 2994000   0.79373915   -6.7917071     849.4052  0.023641873  0.023169137           15 
 2995000   0.76852326   -6.7614909    851.34594  0.023687978  0.023162086            6 
 2996000      0.75918   -6.7873571    848.67649  0.023605821  0.023155066           10 
 2997000   0.76832558   -6.7931519     847.5012  0.023565265  0.023147966           13 
 2998000   0.78837222   -6.7927019    847.00267  0.023543548  0.023140868           16 
 2999000   0.76644096   -6.8164594    848.12484  0.023566879  0.023133768           19 
 3000000   0.77187271   -6.7629521    849.97109  0.023610308  0.023126737           21 
 3001000   0.77097259   -6.8095569    849.44116  0.023587725  0.023119668           19 
 3002000     0.773034   -6.7750868    849.79325  0.023589642  0.023112655            8 
 3003000   0.78489697   -6.7586102    852.00025  0.023643031  0.023105659           16 
 3004000   0.79407187   -6.7695347    851.30598    0.0236159  0.023098662           24 
 3005000   0.76781803   -6.7969044    848.99276  0.023543892  0.023091661           13 
 3006000   0.77460416   -6.8061384    846.63648  0.023470738  0.023084612           10 
 3007000   0.76690718   -6.7687406    848.73054  0.023520966  0.023077533            6 
 3008000     0.777381   -6.7990762    849.94344  0.023546749  0.023070492            6 
 3009000   0.77422089    -6.782221    848.83386  0.023508194  0.023063407           11 
 3010000   0.77111531   -6.8061001    851.50564  0.023574353  0.023056344            6 
 3011000   0.77644883   -6.7904041    851.96576  0.023579258  0.023049313            5 
 3012000   0.75909228   -6.8070225    847.96112  0.023460633  0.023042286           22 
 3013000   0.76509576   -6.7672852    848.43987  0.023466088  0.023035226           13 
 3014000   0.77075953   -6.8101646    849.36549  0.023483894  0.023028197            8 
 3015000   0.76463892   -6.7655696     850.2888  0.023501625   0.02302114           13 
 3016000   0.77150827   -6.7882578    850.16414  0.023490389  0.023014112           10 
 3017000   0.77908227     -6.78295    849.96975  0.023477233  0.023007062           15 
 3018000   0.77007259   -6.7822948    850.26339  0.023477562  0.023000005            6 
 3019000   0.76881582   -6.7956695    849.39635  0.023445853  0.022992943            9 
 3020000   0.76492613   -6.8060981    848.85047  0.023423026  0.022985877            8 
 3021000   0.77811637   -6.7910762    848.49637  0.023405505  0.022978785            7 
 3022000   0.75270909   -6.7834441    850.60366   0.02345587  0.022971746           11 
 3023000   0.77845666   -6.8138792    850.58649  0.023447637  0.022964687           18 
 3024000   0.76448956    -6.780967     850.1137  0.023426855  0.022957669           14 
 3025000   0.74759409   -6.8229838    848.29934  0.023369128  0.022950642           12 
 3026000   0.75971517   -6.7650743    849.38969  0.023391432  0.022943557           21 
 3027000   0.76730692   -6.7874261    850.17145  0.023405227  0.022936485           35 
 3028000   0.76492361   -6.7925649    849.32405  0.023374176  0.022929425            8 
 3029000    0.7649392   -6.8102605    848.53515  0.023344755  0.022922358           15 
 3030000   0.76655495   -6.7956954    850.63618  0.023394834  0.022915279           11 
 3031000    0.7739688   -6.8214828    847.69161  0.023306159  0.022908139           11 
 3032000   0.76924621   -6.8469403    847.69577  0.023298586  0.022901008           15 
 3033000    0.7506651   -6.8098628    849.17969  0.023331676  0.022893872           12 
 3034000   0.77880229   -6.8129943    849.85818  0.023342622  0.022886746            5 
 3035000   0.77257203   -6.7896384    849.36398  0.023321361  0.022879651           20 
 3036000    0.7719251   -6.8243448    848.46115  0.023288899   0.02287255           18 
 3037000   0.76720359   -6.8022801    848.63262  0.023285935  0.022865475           14 
 3038000   0.76040145   -6.7849177    850.08828    0.0233182  0.022858393           10 
 3039000   0.76632743   -6.8117123    848.95764  0.023279523  0.022851289            9 
 3040000   0.77434111     -6.84355    850.47279  0.023313399  0.022844206           11 
 3041000   0.75641881   -6.8258343     848.6501  0.023255785  0.022837087            8 
 3042000    0.7641373   -6.8099213    851.01313  0.023312873  0.022829965           14 
 3043000   0.76982235   -6.8325605    849.16085  0.023254487  0.022822827           12 
 3044000   0.77432312   -6.8103942    849.01679  0.023242904  0.022815685           16 
 3045000   0.78454306   -6.8011001    848.73508  0.023227561  0.022808599           14 
 3046000   0.76417058   -6.7983391     849.7931  0.023248881  0.022801526           12 
 3047000   0.76535351   -6.8093787    848.52031  0.023206441  0.022794413            8 
 3048000   0.76077686   -6.7887173    850.28324  0.023247026  0.022787312           16 
 3049000   0.75324916   -6.7797416    848.79127  0.023198624  0.022780223           12 
 3050000   0.77454611   -6.8451728    848.42758  0.023181081  0.022773174            7 
 3051000   0.75621466   -6.8200644      848.231  0.023168114  0.022766083           14 
 3052000   0.74325346   -6.8633636    847.71444  0.023146419  0.022758984            6 
 3053000   0.76388476   -6.8326911    849.79707  0.023195684  0.022751824           20 
 3054000   0.77296075   -6.8505309    849.46756  0.023179097  0.022744677           18 
 3055000   0.75729446   -6.7905481    851.94161  0.023238996  0.022737615           13 
 3056000   0.77676232   -6.8176908    851.47398   0.02321864  0.022730524            8 
 3057000   0.75214446   -6.8623066    847.41013  0.023100265  0.022723374           19 
 3058000   0.73784975   -6.8080068    850.53427  0.023177847  0.022716246            8 
 3059000   0.76740282    -6.793422    853.45619  0.023249869  0.022709177            7 
 3060000   0.77935585   -6.8050215    851.62894  0.023192509  0.022702103           21 
 3061000   0.77266883   -6.8355005    848.55894  0.023101354  0.022695066           10 
 3062000   0.75684393   -6.8289126    847.57507  0.023067033  0.022688023           11 
 3063000   0.75207553   -6.8201076    848.88019   0.02309501  0.022680929           10 
 3064000   0.77901863   -6.8135911    848.74701   0.02308385  0.022673856            8 
 3065000   0.74650449   -6.8064738    850.95151  0.023136256   0.02266678           10 
 3066000   0.76286723   -6.8049373    853.09076  0.023186855  0.022659693            9 
 3067000   0.75740368   -6.8385354    847.65424  0.023031579  0.022652597            7 
 3068000   0.76512132   -6.8122386    847.79587  0.023027919  0.022645489           15 
 3069000   0.75280658   -6.8161191    849.44028  0.023065067  0.022638405            8 
 3070000   0.75762182   -6.8300244    849.99255  0.023072545  0.022631302           10 
 3071000   0.76346875    -6.809718    852.69052  0.023138243  0.022624239            7 
 3072000   0.76108837   -6.8337899    848.59325  0.023019565  0.022617175            7 
 3073000   0.75754544   -6.8027545    851.15956  0.023081667  0.022610102           14 
 3074000   0.76193056   -6.8102966    851.49775  0.023083327  0.022603047            6 
 3075000   0.75486871   -6.8167715    850.96583  0.023061405  0.022595961           15 
 3076000   0.76842372   -6.8198595    849.99835  0.023027697  0.022588887           10 
 3077000   0.75841206   -6.8250869    849.42386  0.023004654  0.022581805           13 
 3078000   0.76532532   -6.8274514    849.64985  0.023003299  0.022574724            9 
 3079000   0.75662172   -6.7995868    851.79582  0.023053909  0.022567675           10 
 3080000   0.76064372   -6.8089155    851.63102  0.023041965  0.022560666            9 
 3081000   0.75040128   -6.8093763    851.23965  0.023023901  0.022553615            8 
 3082000   0.76916706   -6.8177818    851.53686  0.023024466   0.02254657           29 
 3083000    0.7716421   -6.8211237    852.74968   0.02304978  0.022539506            9 
 3084000   0.74825954   -6.8301181    851.11409  0.022998111  0.022532448           24 
 3085000   0.75013753   -6.8149016    851.78258  0.023008714  0.022525411           10 
 3086000   0.75803436   -6.8105812    851.39617  0.022990823  0.022518376            9 
 3087000   0.74703803   -6.8410476    848.64156  0.022909015  0.022511286           13 
 3088000   0.75025285   -6.8462491    850.13505    0.0229419  0.022504235           14 
 3089000   0.74868363   -6.8298937    851.67374  0.022975983  0.022497189           15 
 3090000   0.74723347   -6.8363479    850.46264  0.022935886  0.022490109           10 
 3091000    0.7641968      -6.8502    849.49132  0.022902279  0.022482984           27 
 3092000   0.76083256   -6.8457669     852.4438  0.022974445  0.022475841           14 
 3093000   0.75961797   -6.8450983    851.91863  0.022952867  0.022468757           12 
 3094000   0.74889387    -6.868907    850.96843  0.022919856  0.022461696           50 
 3095000   0.75426164   -6.8186726     850.8019  0.022907967  0.022454638           33 
 3096000   0.76975868   -6.8143122    851.10699   0.02290878  0.022447611            9 
 3097000   0.76621099   -6.8481717    851.47182    0.0229112  0.022440565           13 
 3098000   0.74694831   -6.8397364    851.10216  0.022893861  0.022433524            8 
 3099000   0.75688776   -6.8730669    850.55536  0.022871769  0.022426421           11 
 3100000   0.74744638    -6.848898    848.32074  0.022804321  0.022419346            6 
 3101000   0.75773722   -6.8308345    853.14242   0.02292654   0.02241227           19 
 3102000   0.75270634   -6.8197924    851.65739  0.022879255  0.022405204           12 
 3103000   0.75863272   -6.8317868    849.50726  0.022814138  0.022398177            8 
 3104000   0.76344263   -6.7976262    854.03648  0.022928385  0.022391167           10 
 3105000   0.75781481   -6.7784021    854.33049  0.022928891  0.022384196           12 
 3106000   0.73961119   -6.8233457    851.75096  0.022852301  0.022377167            6 
 3107000   0.76225564   -6.8175595    852.43482  0.022863288  0.022370148           11 
 3108000   0.74753797    -6.816238    852.10902  0.022847196  0.022363116           24 
 3109000    0.7741694   -6.8393243    850.19789  0.022788622  0.022356075           11 
 3110000   0.73878912   -6.8269167    850.80761  0.022797632  0.022349032           14 
 3111000   0.77962478   -6.8424483    851.50599  0.022809011  0.022341962            8 
 3112000   0.75630863   -6.8411925    852.62541  0.022831657   0.02233491           11 
 3113000   0.77414262   -6.8318331    853.13648  0.022838004  0.022327878            6 
 3114000   0.76484384   -6.8583837    849.23348  0.022726222  0.022320817           12 
 3115000   0.75752465   -6.8424731    852.97622  0.022819054  0.022313746            9 
 3116000   0.76447485    -6.882919    850.00857  0.022732364  0.022306685           16 
 3117000   0.75488748   -6.8437976    851.41405  0.022762647  0.022299625           15 
 3118000   0.74048783   -6.8676808    850.07022  0.022719431  0.022292533           22 
 3119000    0.7491493   -6.8582094    852.82042  0.022785626  0.022285443           19 
 3120000   0.74346526   -6.8598157    850.96753  0.022728834   0.02227836           15 
 3121000   0.75830748    -6.873007    849.34185  0.022678144  0.022271281           27 
 3122000   0.73841068   -6.8423253    851.04188  0.022716258  0.022264212           11 
 3123000   0.73965181   -6.8527808    851.87346  0.022731174  0.022257184           19 
 3124000   0.75039993   -6.8197068    852.06084  0.022728896  0.022250145           23 
 3125000   0.75214291   -6.8320915    851.00267  0.022693404  0.022243132            9 
 3126000   0.74375266   -6.8300263    854.69121  0.022784474   0.02223613           11 
 3127000   0.75772565   -6.8266199    850.23994  0.022658563  0.022229113            5 
 3128000   0.76030133   -6.8109742    852.20722   0.02270373  0.022222076           23 
 3129000   0.75180548   -6.8439852    852.11734  0.022694081  0.022215051            9 
 3130000    0.7339685   -6.8303792    851.86769  0.022680184  0.022207971           11 
 3131000   0.75575789   -6.8453304    851.65459  0.022667268  0.022200924           18 
 3132000     0.760209   -6.8487046     851.9339  0.022667462  0.022193886           11 
 3133000    0.7448747   -6.8590083    850.61799  0.022625226  0.022186823            9 
 3134000   0.75192599   -6.8328161    849.87467  0.022598242  0.022179764           15 
 3135000   0.75747055   -6.8689497    849.54912   0.02258238  0.022172703           12 
 3136000   0.74632371    -6.822966    852.88117  0.022663722  0.022165691           24 
 3137000   0.76004347   -6.8321895    853.33727  0.022668613  0.022158688           11 
 3138000   0.75537522   -6.8632861    853.30613  0.022660562  0.022151645           11 
 3139000   0.73900657   -6.8366271    852.47995   0.02263141  0.022144604           15 
 3140000   0.74391508    -6.871287    852.61997  0.022627919  0.022137564           25 
 3141000   0.74199207   -6.8828908    849.73561   0.02254419   0.02213048           18 
 3142000   0.75277709   -6.8959854    851.42656  0.022581863  0.022123362           16 
 3143000   0.74906309   -6.8649661    850.13289  0.022540378  0.022116248           13 
 3144000   0.75416953   -6.8673347    852.71554  0.022601663  0.022109177           14 
 3145000   0.74898169   -6.8357626    851.79719  0.022570143  0.022102176            6 
 3146000   0.76215869   -6.8404893    851.44658  0.022553681  0.022095128            8 
 3147000   0.76515187   -6.8431036    851.40949  0.022545533  0.022088092            9 
 3148000   0.75604601   -6.8362965    852.46687  0.022566361  0.022081082           10 
 3149000   0.76115386   -6.8574713    852.31039  0.022555054  0.022074033            9 
 3150000   0.74614354   -6.8221598    853.86687  0.022589071   0.02206705            4 
 3151000   0.74171746   -6.8256111    853.06799  0.022560774  0.022060051           14 
 3152000    0.7443546   -6.8793523     850.7254  0.022491683  0.022053028           24 
 3153000   0.74796977   -6.8610301    849.29047  0.022446624  0.022045985           17 
 3154000   0.74086888   -6.8594811    849.81035  0.022453243  0.022038938           16 
 3155000   0.75186603   -6.8095604    851.52187  0.022491333  0.022031901           17 
 3156000   0.74585877   -6.8526958    852.34074  0.022505829  0.022024919           13 
 3157000   0.75285471   -6.8158891    854.66768  0.022560123  0.022017917           23 
 3158000   0.74505349    -6.852798    852.19496  0.022487729  0.022010927           15 
 3159000   0.75877767   -6.8447111    851.43363  0.022460526  0.022003928           18 
 3160000   0.75054995   -6.8625151    853.50274  0.022507984  0.021996905            9 
 3161000   0.74502659   -6.8579579     851.7892  0.022455689  0.021989881           20 
 3162000   0.73366384   -6.8537219    852.22466  0.022460064  0.021982844           21 
 3163000   0.73731498   -6.8921145    852.25421  0.022453742  0.021975821           12 
 3164000   0.74647669   -6.8548124    851.04505  0.022414798  0.021968759           16 
 3165000   0.73685198    -6.892719    849.67343  0.022371602  0.021961709           14 
 3166000   0.76948081   -6.9033819    849.07351  0.022348745  0.021954639           14 
 3167000   0.74442429    -6.895632    850.59522  0.022381729  0.021947591           33 
 3168000   0.75631559   -6.9160815    852.06489  0.022413323  0.021940556           17 
 3169000   0.74113934   -6.8736171     851.3764  0.022388145  0.021933518           36 
 3170000   0.73893233   -6.9035583    850.78929  0.022365649  0.021926483           28 
 3171000   0.75427938   -6.8430157    852.86383  0.022413115  0.021919488           13 
 3172000   0.75627079   -6.8737502    854.07691  0.022437918  0.021912499           12 
 3173000   0.76126842   -6.8590982    851.25486   0.02235673  0.021905507           14 
 3174000   0.73319351   -6.8876099    853.19806  0.022400705  0.021898518            7 
 3175000   0.73444866   -6.8736374    852.13296  0.022365694  0.021891527           21 
 3176000   0.75379137   -6.8847895    851.67583  0.022346658  0.021884505           21 
 3177000    0.7544372   -6.8668964    853.54465  0.022388644  0.021877524            5 
 3178000   0.73231944   -6.8705458    853.35223  0.022376553  0.021870529           21 
 3179000    0.7560069   -6.8650898    852.68312  0.022351974  0.021863527            9 
 3180000   0.73270663   -6.8782356    853.82914  0.022374977  0.021856495            9 
 3181000    0.7285684   -6.8634323    851.51369  0.022307285  0.021849486           13 
 3182000   0.73152044   -6.8301105    853.50083  0.022352316    0.0218425           16 
 3183000   0.72851014   -6.8690776    851.32304  0.022288277  0.021835526            5 
 3184000   0.73411056   -6.8432506    853.41974  0.022336153  0.021828534           11 
 3185000   0.75556761   -6.8763385    851.21056  0.022271339  0.021821512           12 
 3186000   0.75205214   -6.9190011    850.71665  0.022251429  0.021814462           13 
 3187000   0.74619802   -6.8875572    850.59651  0.022241306  0.021807452            6 
 3188000   0.72985417   -6.8771015    851.94576  0.022269598  0.021800454            9 
 3189000   0.75629036   -6.8527634    852.90139  0.022287587   0.02179346           14 
 3190000   0.75594287   -6.8797053    852.94459  0.022281729  0.021786477           16 
 3191000    0.7211103   -6.8769555    853.70374  0.022294572   0.02177949           16 
 3192000    0.7406377   -6.8651009    853.77345  0.022289407  0.021772491           14 
 3193000   0.75034143   -6.8958545    850.59334   0.02219943  0.021765487           16 
 3194000   0.74729206   -6.8694192    853.45161  0.022267053  0.021758486           15 
 3195000   0.73835709   -6.9047681    851.39908  0.022206549  0.021751448           26 
 3196000   0.73625243   -6.8984819    852.22761  0.022221204  0.021744452           10 
 3197000   0.74520229   -6.8927841    854.52514  0.022274141  0.021737446           32 
 3198000   0.74356136   -6.8797409    852.73587  0.022220551   0.02173046           17 
 3199000   0.73737021   -6.8756387    850.99008  0.022168127  0.021723452           13 
 3200000     0.744051   -6.9032766    851.95731  0.022186388  0.021716481           19 
 3201000   0.74948895   -6.9069935    853.81134  0.022227724  0.021709522           14 
 3202000   0.74299072   -6.9083584    853.19666  0.022204785  0.021702527           21 
 3203000     0.753631   -6.9123133    853.69254  0.022210754  0.021695527           14 
 3204000   0.75364756   -6.8955682    854.07842  0.022213858  0.021688532            8 
 3205000   0.73393571   -6.8954768    852.15197  0.022156838  0.021681523           13 
 3206000   0.72073378   -6.9151537    852.58569    0.0221612  0.021674501           34 
 3207000   0.74035562   -6.8751285    852.16729  0.022143418  0.021667545           13 
 3208000   0.73773343   -6.8835182    853.25306   0.02216472  0.021660602           22 
 3209000   0.75167073   -6.8867656     851.6788  0.022116931  0.021653648           24 
 3210000   0.74562553   -6.8918734    853.32108  0.022152676  0.021646695           14 
 3211000   0.73873256   -6.8827213    853.38814  0.022147517  0.021639733           14 
 3212000   0.73651581   -6.8754437     852.7769  0.022124764  0.021632816           10 
 3213000   0.73876614   -6.8888261    853.84123  0.022145483  0.021625873           27 
 3214000   0.72337706   -6.8867205    854.03288  0.022143562   0.02161893           16 
 3215000   0.73544415   -6.8758629    851.76206  0.022077814  0.021612003           23 
 3216000   0.73874681   -6.8905609    852.86061  0.022099415  0.021605095           26 
 3217000   0.74895576   -6.8796203    854.80617  0.022142943  0.021598179           28 
 3218000   0.72813676   -6.8749033    854.16363  0.022119423  0.021591262           12 
 3219000   0.74651397   -6.8930156    851.73592  0.022049703  0.021584359           15 
 3220000   0.75234524   -6.9214676    853.64449  0.022092249  0.021577463           14 
 3221000   0.72192402   -6.8941975    853.95926  0.022093534  0.021570564           14 
 3222000   0.71718454   -6.8953339    853.32409  0.022070248  0.021563693            9 
 3223000   0.72878591   -6.9033286    855.36184  0.022116089  0.021556822           18 
 3224000   0.73792618   -6.8772706    856.35584  0.022134921  0.021549946           14 
 3225000   0.74026458   -6.8705985    855.04942    0.0220943  0.021543125            7 
 3226000   0.73520958   -6.8758488    856.05769  0.022113497  0.021536274           10 
 3227000   0.72878852   -6.8905839    856.63302  0.022121501  0.021529431            7 
 3228000   0.73270989    -6.901422     852.9822    0.0220204  0.021522562           28 
 3229000    0.7406553   -6.8957251    854.66306  0.022056959  0.021515673           15 
 3230000   0.72175214   -6.9096001    852.17353  0.021985901  0.021508824           29 
 3231000   0.73244883   -6.8973145    854.12716  0.022029484  0.021501957           21 
 3232000   0.74079955   -6.8982106    854.69873  0.022037405  0.021495067           34 
 3233000   0.73979102   -6.8983855    852.66771  0.021978238  0.021488153           12 
 3234000   0.74174017   -6.8904519    854.77272  0.022025683  0.021481283           10 
 3235000   0.73549243   -6.8779285    854.36521  0.022008377  0.021474409           13 
 3236000   0.74101438   -6.8955674    853.61368  0.021982223  0.021467525            9 
 3237000   0.73207528   -6.9257255       852.27   0.02194084  0.021460612            9 
 3238000   0.74892975   -6.9071271     853.0042   0.02195296  0.021453673           18 
 3239000   0.72433686   -6.9408348    852.81126  0.021941218  0.021446757           31 
 3240000    0.7390192   -6.9430828    853.04395  0.021940431  0.021439822           38 
 3241000   0.73561073   -6.9140275    851.65983  0.021898072  0.021432901           13 
 3242000   0.74086731    -6.884856    854.69201  0.021969258  0.021426014           13 
 3243000   0.72988981   -6.9006624    855.00982   0.02197065  0.021419132           16 
 3244000    0.7489597   -6.8942373    854.13855  0.021941496  0.021412244           38 
 3245000   0.72571791    -6.954134     855.2581  0.021963485  0.021405372           19 
 3246000    0.7375223   -6.8894114    854.58962  0.021939557  0.021398519           11 
 3247000    0.7295096   -6.8984331    853.44558  0.021903439  0.021391634           18 
 3248000   0.73972418   -6.8957854    855.09178  0.021938931  0.021384783           13 
 3249000   0.73414048    -6.929955    852.59147  0.021868048  0.021377907           16 
 3250000   0.74449118   -6.9154621    853.17438  0.021876266  0.021371042           22 
 3251000   0.72561012    -6.899439    854.89972  0.021913763  0.021364199           10 
 3252000   0.73473795   -6.8860487     857.0915  0.021963189    0.0213574            9 
 3253000    0.7389542   -6.8941858    855.13059  0.021906204  0.021350627           10 
 3254000   0.72561874   -6.8983359    856.26728  0.021928582  0.021343844           18 
 3255000   0.71994348   -6.9275795    854.95848  0.021888338  0.021337033           13 
 3256000   0.72578145   -6.8973687    857.92214  0.021957467   0.02133025            8 
 3257000   0.70531556   -6.9174521      855.394   0.02188604  0.021323439           14 
 3258000    0.7311063   -6.8812515    858.06372  0.021947609  0.021316623            7 
 3259000   0.72551835   -6.8472547    859.25182  0.021971255  0.021309849           15 
 3260000   0.72035924   -6.8871606    857.21334  0.021912406  0.021303117            9 
 3261000    0.7386368     -6.90139    856.54945  0.021888721  0.021296353           14 
 3262000   0.72215998   -6.9099323    855.89679  0.021865338  0.021289567           11 
 3263000   0.73408698   -6.9131165    854.32758  0.021818561  0.021282806           20 
 3264000   0.73395583   -6.9272329    855.54085  0.021842853  0.021276034           19 
 3265000   0.72748451   -6.9418644    857.24029  0.021879538  0.021269229           18 
 3266000   0.72452767   -6.8990681    855.37227  0.021825175  0.021262422           16 
 3267000   0.73312361   -6.8935489    857.71423  0.021878233   0.02125563           14 
 3268000   0.74252911   -6.9341827    855.40358  0.021812617  0.021248849           37 
 3269000   0.72177115   -6.9012393     854.6018  0.021785505  0.021242082           12 
 3270000   0.72564512   -6.9132703    858.55085  0.021879481  0.021235305           44 
 3271000   0.73183552   -6.8819936    857.95641  0.021857648  0.021228552           11 
 3272000   0.74205248   -6.8843673    855.83422  0.021796919  0.021221807           15 
 3273000   0.73568598   -6.9098467    856.53166  0.021808017  0.021215047           13 
 3274000   0.71206807   -6.9012017    856.38687   0.02179767  0.021208302            8 
 3275000   0.71797045   -6.9083655    858.41419    0.0218426  0.021201546           19 
 3276000   0.73346914   -6.9256954    855.54272   0.02176289  0.021194791           10 
 3277000   0.74013135   -6.8773785    860.18736  0.021874361  0.021188059           15 
 3278000   0.71843277   -6.9054758    856.15604  0.021765203  0.021181313            9 
 3279000   0.70701898   -6.8952649    855.45263  0.021740689  0.021174575           26 
 3280000   0.73022564   -6.9021236    857.33694  0.021781934  0.021167842           12 
 3281000    0.7136665   -6.9014401    854.01299  0.021690871  0.021161062           16 
 3282000   0.73102021   -6.9093407    855.10469  0.021711982  0.021154268           10 
 3283000   0.71224092    -6.936752    857.83915  0.021774778  0.021147479           14 
 3284000   0.73145941   -6.9211244     854.9371  0.021694506  0.021140681           22 
 3285000   0.71473137   -6.9283289    856.52537  0.021728193  0.021133883           30 
 3286000   0.73754356    -6.921825    857.40022  0.021743767  0.021127128           20 
 3287000   0.71890794   -6.9227115    856.29201  0.021709056  0.021120362           14 
 3288000   0.71112411   -6.9109896    856.40104  0.021705217  0.021113606           44 
 3289000    0.7274763   -6.9128866    856.56068  0.021702662  0.021106856           20 
 3290000   0.72809764   -6.8861449    857.26174  0.021713823  0.021100084           17 
 3291000   0.72747306   -6.9337074    855.65829  0.021666623    0.0210933           14 
 3292000   0.71893582   -6.9115984    855.42288  0.021654083  0.021086489           20 
 3293000   0.71190756   -6.9371487      854.511  0.021624431  0.021079655            8 
 3294000   0.73472461   -6.9741827    856.57529  0.021670089  0.021072851           15 
 3295000   0.72003019    -6.924434    854.34504  0.021607108  0.021066054            6 
 3296000   0.71816511   -6.9137453    854.88007  0.021614079   0.02105925           20 
 3297000   0.71427287   -6.9453293     855.4418  0.021621722  0.021052445           12 
 3298000    0.7272619   -6.9000629    854.49666  0.021591284  0.021045622           14 
 3299000   0.72993185   -6.9405153    856.03554  0.021623612  0.021038847            9 
 3300000   0.73363946   -6.8969663    857.14433  0.021645059  0.021032109           19 
 3301000   0.71997166    -6.925621     854.9177  0.021582291   0.02102537           14 
 3302000    0.7321651   -6.9351789    855.81588  0.021598422  0.021018563            8 
 3303000   0.72797962   -6.8880662    856.88589  0.021618879  0.021011792            8 
 3304000   0.72099666   -6.9172117     855.8735  0.021586801  0.021005045            7 
 3305000   0.72972902   -6.9023606    856.57642  0.021597993  0.020998293           12 
 3306000   0.73208472   -6.9249035    856.30812  0.021584698  0.020991526           22 
 3307000   0.71800033    -6.975585    855.05463  0.021546584  0.020984744           11 
 3308000   0.70780072   -6.9061015    857.03719  0.021590014  0.020977977           22 
 3309000   0.74166972   -6.9101972     857.9196  0.021605712  0.020971242           24 
 3310000   0.72030034   -6.9000308    854.68103  0.021517649  0.020964505           15 
 3311000   0.72505011   -6.9275907    855.40514  0.021529375  0.020957765           21 
 3312000   0.71640387   -6.9276493    856.67959  0.021554941  0.020950998           15 
 3313000    0.7364116   -6.9444955    856.05817  0.021532804  0.020944249           26 
 3314000    0.7291286   -6.9262123    855.56479    0.0215139  0.020937504           12 
 3315000   0.72266862    -6.912783    856.18339  0.021522961  0.020930736           25 
 3316000   0.72363624   -6.9297441    856.10624  0.021514531  0.020923966           23 
 3317000   0.72382646   -6.9247603    856.52561  0.021518581  0.020917195           16 
 3318000   0.70170321    -6.905634    857.02854  0.021524727  0.020910422           31 
 3319000   0.73116312   -6.9537724    855.32151  0.021475382   0.02090368           19 
 3320000   0.72557045   -6.9365739    857.98685  0.021535814  0.020896938           29 
 3321000   0.71243269   -6.9290868    853.23639  0.021410127  0.020890174           12 
 3322000   0.72507244   -6.9324255    857.68267  0.021515218  0.020883413           12 
 3323000   0.71331001   -6.9405968    854.64522  0.021432571  0.020876678           24 
 3324000   0.72027699    -6.930251     857.2396  0.021491165  0.020869911           12 
 3325000   0.72808698   -6.9354645    856.37195  0.021462956  0.020863168           15 
 3326000    0.7215859   -6.9590202    855.36958  0.021431388  0.020856431            8 
 3327000   0.72838182   -6.9675122     856.3831  0.021450333  0.020849684           28 
 3328000   0.72422728   -6.9818102    855.31481  0.021417138  0.020842919           12 
 3329000   0.73406674   -6.9348897    855.86512   0.02142448   0.02083618           10 
 3330000   0.71240137   -6.9348287    856.99024  0.021446202   0.02082945            9 
 3331000   0.71795532   -6.9483297    858.19914  0.021470008  0.020822688           14 
 3332000   0.73579695   -6.9686213    856.05175  0.021409858  0.020815946           10 
 3333000   0.70231157   -6.9615646    854.35698  0.021361061  0.020809185           12 
 3334000   0.71531074    -6.945939    856.87608  0.021417618  0.020802452           20 
 3335000   0.74102541   -6.9257964     855.8261   0.02138496  0.020795718           15 
 3336000   0.71823555   -6.9365685    856.24781  0.021389084  0.020788999           13 
 3337000   0.71077904   -6.9431936    855.47448  0.021363362  0.020782278           17 
 3338000   0.72682718   -6.9305036    855.77054  0.021364353  0.020775565           21 
 3339000   0.73080309   -6.9539176    856.44759  0.021374852  0.020768827           16 
 3340000   0.71556488   -6.9410529    857.63831  0.021398161  0.020762107           12 
 3341000   0.71276566     -6.91714    856.81321  0.021371177  0.020755407           25 
 3342000   0.71196207   -6.9630859    855.07126  0.021321346  0.020748702           11 
 3343000   0.70717717   -6.9374722    856.80462  0.021358177  0.020741995            7 
 3344000   0.72158072   -6.9598075    856.47828  0.021343657    0.0207353           17 
 3345000   0.71841373   -6.9183522    856.87021  0.021347041  0.020728599            9 
 3346000   0.72004042   -6.9699852    855.32207  0.021302104  0.020721906            9 
 3347000   0.72301588   -6.9590295    856.01912  0.021313094  0.020715177            5 
 3348000   0.71341812   -6.9509089    856.62348  0.021321771  0.020708458           13 
 3349000   0.70590539   -6.9467166     856.7995  0.021319785  0.020701729           12 
 3350000   0.71509561   -6.9658889    855.67892  0.021285545  0.020695015            9 
 3351000   0.72180641    -6.967471    855.30428  0.021269877  0.020688293           11 
 3352000   0.71591169   -6.9416794    856.21682  0.021286218  0.020681612           10 
 3353000   0.70794933    -6.953535    857.36722   0.02130846   0.02067494           18 
 3354000   0.72377469   -6.9684826     857.4162  0.021303324  0.020668233           13 
 3355000   0.70376941   -6.9531258    857.69578  0.021303919  0.020661553           13 
 3356000   0.70226061   -6.9512506    856.53112  0.021268651  0.020654883           19 
 3357000   0.71920404   -6.9728942    856.98855  0.021273671  0.020648171           22 
 3358000   0.72435382    -6.976613    853.49763  0.021180703  0.020641461           12 
 3359000   0.73831782   -6.9729036    855.78232  0.021231079  0.020634743           13 
 3360000   0.72719685   -6.9598343    855.45284  0.021216588  0.020628036           13 
 3361000   0.71433722   -6.9614549    856.34982  0.021232516  0.020621327            9 
 3362000   0.72931003   -6.9837047    855.88355  0.021214643  0.020614627           11 
 3363000   0.71168292   -6.9751243    856.08126  0.021213234  0.020607935           28 
 3364000   0.69415272   -6.9462481    858.58057  0.021268841  0.020601258           12 
 3365000   0.71512098   -6.9429917    856.06117  0.021200128  0.020594573           13 
 3366000   0.70225203   -6.9465493    857.17222  0.021221336  0.020587887           29 
 3367000   0.69861125   -6.9429895    856.88074   0.02120782  0.020581232           14 
 3368000   0.70869728   -6.9677414    858.12293  0.021232258  0.020574591           13 
 3369000   0.70520446   -6.9908358    857.21189  0.021203421  0.020567906           23 
 3370000   0.71216897   -6.9691229    856.10673    0.0211698  0.020561232           19 
 3371000   0.70584051   -6.9615813    856.40307  0.021170846  0.020554544           14 
 3372000   0.69093517   -6.9544213     856.2406  0.021160553  0.020547873           15 
 3373000   0.69400381   -6.9389876    857.90484  0.021195396  0.020541234           13 
 3374000   0.71915413   -6.9555775    856.42002  0.021152441  0.020534571           29 
 3375000   0.71275041   -6.9261789    857.69841  0.021177738  0.020527931           14 
 3376000   0.71495121   -6.9279243    858.44964  0.021190009   0.02052132           24 
 3377000   0.71232345   -6.9313737    857.62283  0.021163331  0.020514665           17 
 3378000   0.70830881   -6.9510922    856.65322  0.021133146  0.020508017           18 
 3379000   0.70212625   -6.9457462     857.1407  0.021138914  0.020501349            9 
 3380000   0.72568962   -6.9565138    855.70192  0.021097187  0.020494702           23 
 3381000   0.70715466   -6.9619842    856.99646  0.021122855  0.020488039            9 
 3382000   0.70019605   -6.9647591    856.32362   0.02110003  0.020481377           10 
 3383000   0.72337161   -6.9651562    857.57883  0.021124712  0.020474712           12 
 3384000   0.71453806   -6.9443771    858.66752   0.02114528  0.020468065           11 
 3385000   0.70006043   -6.9371546    856.73504  0.021091458  0.020461444           12 
 3386000   0.71998134   -6.9561069    857.77194  0.021110749  0.020454795           29 
 3387000   0.70483197    -6.977122    857.39324  0.021095198  0.020448182           17 
 3388000   0.71513343   -6.9425039    857.35656   0.02108807  0.020441546            5 
 3389000   0.71764596   -6.9646225    854.41256  0.021009456  0.020434888           16 
 3390000   0.71643688   -6.9825006    855.76986  0.021036624  0.020428234           54 
 3391000   0.70823501   -6.9744607    855.92088  0.021034131  0.020421531           17 
 3392000   0.71161375   -6.9896505    857.70442  0.021071748  0.020414822           19 
 3393000   0.70909097   -6.9685627    856.82465   0.02104393  0.020408156           11 
 3394000   0.69765588   -6.9824553    857.04151  0.021043054  0.020401522           20 
 3395000   0.71483058   -6.9777282    853.84836  0.020958477  0.020394864           20 
 3396000   0.71178623   -6.9707668    855.26514  0.020987071  0.020388201           30 
 3397000   0.70689869   -6.9636264    857.29403  0.021030665  0.020381539           44 
 3398000   0.68806004    -6.962016     855.3862  0.020977688  0.020374857           23 
 3399000   0.70142459   -6.9718669    855.38021  0.020971369  0.020368213           49 
 3400000    0.7071445   -6.9566608    855.58001  0.020970098  0.020361563           21 
 3401000   0.72083073   -6.9536433    857.01556  0.020999107  0.020354919           27 
 3402000   0.69610996   -6.9600427     856.3719  0.020977168  0.020348268           30 
 3403000   0.72298393   -6.9581507    855.06797  0.020939073  0.020341589           23 
 3404000   0.72038529   -6.9823152    855.55997  0.020944966  0.020334931           25 
 3405000   0.70983672   -6.9758406    856.07817  0.020951497  0.020328256           12 
 3406000   0.69708245   -6.9602843    856.83383  0.020963834  0.020321596           30 
 3407000   0.69802872   -6.9797555    857.28341  0.020968677  0.020314984           12 
 3408000    0.6978313   -6.9543451    857.91641  0.020978003  0.020308363           11 
 3409000   0.71107515    -6.979474    857.43158  0.020959997  0.020301777            9 
 3410000   0.70533711   -6.9737142    857.62663  0.020958618  0.020295165           14 
 3411000   0.70406027   -6.9831323    859.22719  0.020991576  0.020288544           26 
 3412000   0.69175865   -6.9741815    856.83797   0.02092707  0.020281911            9 
 3413000    0.7124709   -6.9821667    857.31592  0.020932609  0.020275311           15 
 3414000   0.70295278   -6.9651936     857.0428  0.020919811  0.020268716           17 
 3415000   0.71645307   -6.9859751    855.99986  0.020888235  0.020262112           56 
 3416000   0.70765557   -6.9695011     856.2027  0.020887068  0.020255503           11 
 3417000   0.70059996   -6.9890688    856.11949  0.020878926  0.020248873           43 
 3418000    0.7045558   -6.9754969    857.79618  0.020913697  0.020242241           20 
 3419000    0.6892132    -6.973567    855.78212   0.02085849  0.020235632           15 
 3420000   0.70281245    -6.953141    856.68758  0.020874454   0.02022903           11 
 3421000   0.67916802   -6.9693935    857.97016  0.020899595  0.020222425           21 
 3422000   0.69810443   -6.9842884    857.39996  0.020879602   0.02021581           16 
 3423000   0.69519977   -6.9741259    858.55674  0.020901664   0.02020922           28 
 3424000    0.7109959    -6.947449    857.74537  0.020875812  0.020202607           15 
 3425000   0.70618916   -6.9938776    855.84945  0.020823587  0.020196006           15 
 3426000   0.70745426   -7.0164188    856.67046   0.02083748  0.020189389           22 
 3427000   0.71824559   -6.9862107    858.54086  0.020876881  0.020182783           15 
 3428000   0.70273576   -6.9946523    856.70055  0.020826054  0.020176188           10 
 3429000   0.70848413   -6.9925282    856.86346  0.020823939  0.020169599           14 
 3430000   0.70693944   -6.9650554    857.72119  0.020838707  0.020163077           18 
 3431000   0.70145785   -6.9508068    857.01682  0.020815526  0.020156528            8 
 3432000   0.71408677   -6.9670595     857.7425  0.020827081   0.02014998           11 
 3433000   0.72091544   -6.9922466    856.34383  0.020787063  0.020143436           18 
 3434000   0.70849428   -6.9746517     860.5894  0.020884037   0.02013689           19 
 3435000   0.70042549   -6.9820748    858.26307   0.02082152  0.020130373           18 
 3436000   0.69728008   -6.9666401    858.90491  0.020831027   0.02012386           12 
 3437000   0.71597139   -6.9868691    858.01728  0.020803445  0.020117358           22 
 3438000   0.70207206   -6.9567524     860.1211  0.020848388  0.020110869           16 
 3439000   0.69398501   -6.9783164    858.08374  0.020792957  0.020104373           24 
 3440000   0.70163126   -6.9781829    859.53758  0.020822131  0.020097884           11 
 3441000   0.70226425   -6.9807466    857.54335  0.020767784    0.0200914           10 
 3442000   0.69607374   -6.9757064    857.73737  0.020766448  0.020084879           11 
 3443000   0.70381364   -7.0006509    860.16302  0.020819126  0.020078342           37 
 3444000   0.70005209   -7.0061207    857.58709  0.020750752  0.020071808           15 
 3445000   0.70336958   -6.9958999    859.12671  0.020781972  0.020065259           12 
 3446000   0.69317346   -7.0121838    856.48882   0.02071215  0.020058719           25 
 3447000   0.70308367   -7.0083382     856.8409  0.020714653  0.020052183           20 
 3448000   0.71051116   -6.9924105    858.78871  0.020755721   0.02004562           11 
 3449000   0.69925991   -6.9822838    858.57905  0.020744637  0.020039091           19 
 3450000   0.70623354   -6.9757345    858.97105  0.020748093  0.020032589           10 
 3451000   0.70287704   -6.9907379    858.48291  0.020730293  0.020026109           13 
 3452000   0.69521475   -6.9886417    858.35705   0.02072125  0.020019643           12 
 3453000   0.68388758   -6.9766318    859.11203  0.020733469  0.020013188           15 
 3454000   0.70502595   -6.9780532    859.56255  0.020738336  0.020006728           11 
 3455000   0.70407628    -6.997746    857.71282  0.020687719  0.020000255           31 
 3456000   0.68439165    -6.983101    859.10407  0.020715279    0.0199938           17 
 3457000   0.71903684   -7.0015972    858.23192  0.020688263  0.019987322           36 
 3458000   0.69922584   -6.9910421    858.91767  0.020698806  0.019980828           11 
 3459000   0.70711209   -6.9760278    860.21734  0.020724134  0.019974368           22 
 3460000   0.72139193   -6.9969408    858.81151  0.020684285  0.019967867           25 
 3461000    0.6871278   -6.9725994    860.99164  0.020730801  0.019961369           13 
 3462000   0.69534933   -6.9815042     857.9966   0.02065272  0.019954874            7 
 3463000   0.70602142   -7.0164076    856.91527  0.020620735   0.01994837           16 
 3464000   0.72097198   -6.9946714     858.3727  0.020649844  0.019941863           28 
 3465000   0.70133308   -7.0004552    857.65816  0.020626699  0.019935374           26 
 3466000   0.69137704   -7.0045167    857.74454  0.020622825  0.019928861           15 
 3467000   0.69239347   -6.9987833    857.28092  0.020605733  0.019922362           22 
 3468000    0.6962016   -6.9927024    859.23797  0.020646818  0.019915842           12 
 3469000   0.69160631   -7.0202061    858.27434  0.020617717  0.019909322           25 
 3470000   0.71511511   -7.0281359    857.59628  0.020595492  0.019902796           20 
 3471000   0.68597479   -7.0142944    857.24673  0.020581166  0.019896248           12 
 3472000   0.68410009   -7.0270184    858.39776  0.020602865   0.01988973           32 
 3473000    0.7060761   -7.0062348    859.10468  0.020613895  0.019883226           24 
 3474000   0.69097943   -7.0017971    858.41954  0.020591526  0.019876717           17 
 3475000   0.69773141   -7.0295924    857.38918  0.020560892  0.019870218           42 
 3476000   0.69623074   -7.0116494    856.25622  0.020527815  0.019863707           23 
 3477000   0.71180745   -6.9961316    857.45587  0.020550663  0.019857212           53 
 3478000   0.70413091   -7.0124039    856.88968  0.020531188   0.01985071           22 
 3479000   0.69453951   -7.0244924    858.97295  0.020575188  0.019844195           47 
 3480000   0.69452567   -7.0106138    855.99837  0.020498045  0.019837661           26 
 3481000   0.68912888   -7.0429173    857.28854  0.020523043  0.019831138           23 
 3482000   0.68955826    -7.055933    855.74874  0.020480297  0.019824597           61 
 3483000   0.69089318   -7.0367922    858.44692  0.020538973  0.019818068           15 
 3484000    0.7046045    -7.024326     858.2402  0.020528133  0.019811539           24 
 3485000   0.69202739   -7.0094538    856.07465   0.02047046  0.019805003           29 
 3486000   0.68818034   -7.0514642    858.44692  0.020521298  0.019798485           24 
 3487000    0.7017754   -7.0069765     856.0795  0.020458835  0.019791997           24 
 3488000   0.69422984   -7.0188041    858.16239  0.020502733  0.019785511           10 
 3489000   0.69239542   -7.0510317     858.0259  0.020493597  0.019778992           15 
 3490000   0.69516959   -7.0039577    859.16153  0.020514841  0.019772477           20 
 3491000   0.69064219   -7.0292301    856.45516  0.020444361   0.01976597           20 
 3492000   0.69055954   -7.0154417     856.5589  0.020440982  0.019759485           18 
 3493000   0.69028504    -7.000612    859.93766  0.020515738   0.01975301           13 
 3494000   0.70052433   -6.9975446    857.57849  0.020453599  0.019746545           20 
 3495000   0.67981452   -7.0061186    859.46126  0.020492639  0.019740095            8 
 3496000   0.68331976   -6.9877346    859.88681  0.020496921  0.019733658           20 
 3497000   0.67268858   -7.0351507    858.77134  0.020464478  0.019727203            5 
 3498000    0.7056786   -7.0096241    858.28844  0.020447123  0.019720743           12 
 3499000   0.70448698   -7.0343024    857.18212  0.020414931  0.019714266           20 
 3500000   0.68944101   -7.0324166    856.48812  0.020392574  0.019707785           29 
 3501000   0.68539706   -7.0366921    855.38046  0.020360384  0.019701296           20 
 3502000   0.70607385   -7.0074364    856.06056  0.020370754   0.01969483           16 
 3503000   0.70250464   -7.0124799    860.85039  0.020478885  0.019688379           15 
 3504000   0.69827154   -7.0073428    857.84818   0.02040164   0.01968195           31 
 3505000   0.68485193   -7.0388542    856.65994  0.020367569  0.019675483           23 
 3506000   0.69614344   -7.0127829    856.56981  0.020359617  0.019669013           19 
 3507000   0.69035678   -7.0195294    857.29132  0.020370956  0.019662577           33 
 3508000    0.6915181   -7.0038008    859.10309  0.020408188  0.019656163           24 
 3509000   0.69224205   -7.0351796    857.93145  0.020374547  0.019649732           26 
 3510000   0.69625187   -7.0151664    858.17165  0.020374446  0.019643292           21 
 3511000   0.68996964   -7.0326729    859.27737  0.020394887  0.019636864           24 
 3512000   0.68211673   -7.0530526    858.42125  0.020368765  0.019630415           89 
 3513000   0.69243961   -7.0239958    857.84044   0.02034919  0.019623973           27 
 3514000   0.68955445   -7.0245493    860.09611  0.020396891  0.019617559           27 
 3515000   0.69633014   -7.0113543    857.92985  0.020339731   0.01961113           29 
 3516000    0.6955697   -7.0317723     859.8941  0.020380501    0.0196047           19 
 3517000   0.68504618   -7.0257042    856.35251   0.02029079  0.019598265           19 
 3518000   0.69356887   -7.0500788    858.72147  0.020341138  0.019591813           18 
 3519000   0.68922242   -7.0486996    857.21942  0.020299787  0.019585385           32 
 3520000    0.6966339    -7.026033    858.82384  0.020332004  0.019578947           60 
 3521000   0.69160152     -7.04265     859.3145  0.020337842  0.019572525           29 
 3522000   0.68770059   -7.0309658    859.04515  0.020325694  0.019566114           25 
 3523000   0.70172836   -7.0587119    857.72669  0.020288738  0.019559691           37 
 3524000   0.66990109   -7.0544088    859.19235   0.02031764  0.019553272           56 
 3525000   0.69129925   -7.0223358    858.82242  0.020303131  0.019546843           29 
 3526000   0.71684544   -7.0478967    856.67524  0.020246626  0.019540407           26 
 3527000   0.69138236   -7.0389334    857.17263  0.020252637  0.019533967           28 
 3528000   0.68335896   -7.0585333    856.59677  0.020233295  0.019527535           22 
 3529000   0.66753395   -7.0398937    858.72129   0.02027773  0.019521123           21 
 3530000   0.68493569   -7.0369008    858.88655  0.020275886  0.019514714           22 
 3531000    0.6777868   -7.0254722    858.28065  0.020255845  0.019508304           44 
 3532000   0.68043837    -7.060295    854.68155  0.020165193  0.019501889           53 
 3533000   0.68606994   -7.0334457    858.64638  0.020253004  0.019495476           27 
 3534000   0.68218075    -7.011483    858.89291  0.020253087  0.019489102           30 
 3535000   0.70349617   -7.0207134    859.15045  0.020253429  0.019482714           29 
 3536000   0.67167174     -7.04554    858.28614  0.020227332  0.019476322           17 
 3537000   0.68342953   -7.0733928    857.48658  0.020202775  0.019469935           63 
 3538000   0.69256521   -7.0526235    859.58656  0.020246527  0.019463548           39 
 3539000   0.69513171     -7.04298     858.7109  0.020220187  0.019457162           50 
 3540000   0.67779917   -7.0240055    859.14011  0.020224579  0.019450789           41 
 3541000   0.68822256   -7.0322805    858.78415   0.02021049  0.019444412           33 
 3542000   0.68506925   -7.0393788    859.15176  0.020213433  0.019438042           87 
 3543000   0.67455063   -7.0570477    857.68656  0.020173266  0.019431656           28 
 3544000   0.68091497    -7.053441     856.8249  0.020147312  0.019425249           52 
 3545000   0.68480951   -7.0507629    858.51931   0.02018146  0.019418859           18 
 3546000   0.68636694   -7.0617958    858.50355  0.020175398  0.019412481           15 
 3547000   0.69434901   -7.0413465    860.05608  0.020206185    0.0194061           19 
 3548000   0.68385994   -7.0797637    857.36419  0.020137265   0.01939975           27 
 3549000   0.69747529   -7.0351039    860.52584  0.020205829  0.019393384           39 
 3550000   0.68026577    -7.042618    859.33822  0.020172259  0.019387017           45 
 3551000    0.6970347   -7.0237416    860.22111  0.020187297  0.019380661           47 
 3552000   0.67707716   -7.0680619    857.59991  0.020120118  0.019374307          153 
 3553000   0.66474202    -7.047458    860.21189  0.020175717  0.019367944           40 
 3554000   0.69454942   -7.0766524     858.0691  0.020119797  0.019361557           28 
 3555000   0.69117008    -7.068585    859.23126   0.02014138  0.019355202           48 
 3556000   0.67886686   -7.0619499    859.14494  0.020133693   0.01934886           31 
 3557000   0.68883118   -7.0373307    857.30742  0.020084983  0.019342496           30 
 3558000     0.668644   -7.0432528    858.57316  0.020108983  0.019336142           38 
 3559000   0.67232778   -7.0518631    859.42911  0.020123375  0.019329786           35 
 3560000    0.6801751   -7.0627923    858.16427  0.020088115   0.01932343           32 
 3561000   0.68786077   -7.0261608    859.69019  0.020118183  0.019317089           66 
 3562000    0.6792072   -7.0589504    857.67155  0.020065309  0.019310757           43 
 3563000   0.68261077   -7.0642774    859.12428  0.020093654  0.019304394           41 
 3564000   0.69387167   -7.0504515    858.01267  0.020062025  0.019298042           25 
 3565000   0.67932321   -7.0359035    857.42921  0.020042758  0.019291707           30 
 3566000   0.67849382   -7.0586151    857.75013  0.020044638  0.019285371           31 
 3567000   0.70865052   -7.0519777    857.52201  0.020033689  0.019279032           63 
 3568000   0.67626866   -7.0671732    857.82251  0.020035092  0.019272698           33 
 3569000   0.68231575    -7.043629    860.27115  0.020086653  0.019266355           42 
 3570000   0.67446187   -7.0722529    859.68861  0.020067428  0.019260015           25 
 3571000   0.70789514   -7.0669294    859.14593  0.020049144  0.019253677           51 
 3572000   0.67493692   -7.0240715    859.83498  0.020059607  0.019247339           33 
 3573000    0.6737511   -7.0629617    857.56775  0.020001114  0.019241013           13 
 3574000   0.68202922   -7.0487171    858.11924  0.020008376  0.019234666           46 
 3575000   0.66944663   -7.0689937    857.50646  0.019988496  0.019228306           29 
 3576000    0.6796184   -7.0470977    858.99743  0.020017651  0.019221985           29 
 3577000   0.69656933   -7.0639421    857.47667  0.019976625  0.019215642           48 
 3578000   0.67064657   -7.0408464    859.45608  0.020017144    0.0192093           41 
 3579000   0.66574081   -7.0455179    861.06067  0.020048912  0.019202965           54 
 3580000   0.67381092   -7.0872724    858.00402  0.019972161  0.019196631           24 
 3581000   0.68345677   -7.0581266    859.02237  0.019990281  0.019190319           46 
 3582000    0.6791746   -7.0665982    859.09547  0.019986401  0.019184001           29 
 3583000   0.65408413   -7.0683251    857.58505  0.019945694  0.019177684           33 
 3584000   0.68460114   -7.0616544    860.07312   0.01999798  0.019171378           51 
 3585000   0.68021477   -7.0488217    859.82111  0.019986544  0.019165051           29 
 3586000   0.68252387    -7.075329    856.70778  0.019908621  0.019158741           38 
 3587000    0.6905923    -7.056821    859.91683  0.019977624  0.019152442           48 
 3588000   0.68220815   -7.0511167    860.75307  0.019991478  0.019146154           31 
 3589000   0.68429865   -7.0774742    858.32945  0.019929633  0.019139866           17 
 3590000   0.67933112   -7.0549242    859.63651  0.019954422  0.019133583           36 
 3591000   0.68809624   -7.0507976    859.46208  0.019944818  0.019127305           38 
 3592000   0.67966857   -7.0399282    860.39645  0.019960942  0.019121027           20 
 3593000   0.68572548   -7.0571003    859.86728  0.019943114  0.019114761           30 
 3594000    0.6697716   -7.0731236    858.76621  0.019912034  0.019108499           21 
 3595000   0.68018092   -7.0680527    859.91988  0.019933238   0.01910221           27 
 3596000   0.67508185   -7.0705399    859.18962  0.019910772  0.019095923           21 
 3597000   0.66701996     -7.10857    857.71367  0.019871042  0.019089648           29 
 3598000    0.6767657   -7.0677238    858.98692  0.019895009  0.019083365           33 
 3599000   0.67254031   -7.0656168    862.04468  0.019960283  0.019077117           23 
 3600000   0.68253807   -7.0476326    860.31343  0.019914663  0.019070855           51 
 3601000   0.70095787   -7.0503263    860.75046  0.019919246  0.019064599           34 
 3602000   0.67774946   -7.0538623    860.83114  0.019915583  0.019058361           40 
 3603000    0.6748394   -7.0632171    860.07529  0.019892573  0.019052137           22 
 3604000   0.68074675   -7.0701085    861.11895  0.019911186  0.019045881           23 
 3605000   0.68817437   -7.0609556    860.51026  0.019891592  0.019039642           23 
 3606000   0.67863983   -7.0712468    859.39637  0.019860334  0.019033396           13 
 3607000   0.68463368   -7.0651618    858.60665  0.019836583  0.019027143           18 
 3608000   0.67138079   -7.0669101    859.81111  0.019858904  0.019020878           35 
 3609000   0.67736498   -7.0555117    857.98955  0.019811341  0.019014595           25 
 3610000   0.66363724   -7.0608934    859.22709   0.01983442  0.019008324           36 
 3611000   0.67679811   -7.0732562    860.00639  0.019846912  0.019002067           16 
 3612000   0.67176991     -7.04271    860.71365  0.019857735  0.018995815           29 
 3613000   0.66294706   -7.0682355    859.15734  0.019816342  0.018989573           19 
 3614000   0.68577911    -7.060348    859.33804  0.019815026   0.01898333           46 
 3615000   0.65608773   -7.0896319    858.28075  0.019785172  0.018977075           17 
 3616000   0.67963271   -7.0630514     857.5004  0.019761716   0.01897083           18 
 3617000     0.657709   -7.0826714    859.20944  0.019795628  0.018964583           11 
 3618000   0.66179587   -7.0176827    860.54331   0.01982088  0.018958361           15 
 3619000   0.66858615   -7.0376047    860.33745  0.019810662   0.01895216           11 
 3620000   0.66678508   -7.0514375    859.40734  0.019783779  0.018945957           12 
 3621000    0.6702748   -7.0599249    859.64297  0.019783738  0.018939751           24 
 3622000   0.67938793   -7.0882382    857.72569  0.019734164  0.018933517           20 
 3623000   0.68005284   -7.0741011    858.78319  0.019753041  0.018927286           10 
 3624000   0.68797578   -7.0651038     859.0301  0.019753268  0.018921063            8 
 3625000   0.67430479   -7.0915714      857.744  0.019718253   0.01891482           18 
 3626000   0.66727596   -7.0725465     858.5184  0.019730612  0.018908549           10 
 3627000   0.66244126   -7.0594374    858.50882  0.019724952  0.018902296           18 
 3628000   0.67966219   -7.0689338    860.30893  0.019760863   0.01889607           19 
 3629000   0.66433771   -7.0733138    858.64004  0.019717095  0.018889841           18 
 3630000   0.67995302     -7.08008    858.65748  0.019712063  0.018883586           28 
 3631000    0.6736073   -7.0705844    859.54565  0.019727019  0.018877352           19 
 3632000    0.6696105   -7.1069667    857.21675  0.019668152  0.018871114           35 
 3633000   0.66292732   -7.1015868    857.41881  0.019667373   0.01886488           33 
 3634000   0.66857115   -7.0831974     857.4855  0.019663491  0.018858626           17 
 3635000   0.64971787   -7.0945398    858.48937  0.019681095  0.018852382           14 
 3636000   0.67920884   -7.0832441    858.32392   0.01967189  0.018846171           27 
 3637000   0.66930004   -7.0835555    859.30584   0.01968898  0.018839953           16 
 3638000   0.66446935   -7.1010004    859.08153   0.01967843  0.018833737           43 
 3639000   0.66649499   -7.0753309    858.93261  0.019669612  0.018827522           27 
 3640000   0.66475398   -7.0913382    860.22482  0.019693792  0.018821291           56 
 3641000   0.67619383   -7.0876412    858.22697  0.019642657  0.018815054           27 
 3642000   0.65664427   -7.0973566    857.67147  0.019624553  0.018808795           23 
 3643000   0.67675573   -7.0838235     858.5562  0.019639404  0.018802569           34 
 3644000   0.67414028   -7.0819061    858.63134  0.019635733  0.018796352           25 
 3645000   0.67594735   -7.0723425    860.08756  0.019663639   0.01879015           24 
 3646000   0.66860935   -7.0810419     857.2327  0.019592995  0.018783947           38 
 3647000   0.66825644   -7.0845214    859.35322  0.019636076  0.018777722           26 
 3648000   0.66952817   -7.1027847    856.55087  0.019566677  0.018771492           30 
 3649000   0.66090996   -7.0670581    858.44703  0.019604618  0.018765278           11 
 3650000   0.67490608   -7.0888515    858.53973  0.019601364   0.01875908           18 
 3651000    0.6503472   -7.0724054    858.00498  0.019583789  0.018752892           43 
 3652000   0.67042202   -7.1045225    859.86609  0.019620895  0.018746679           21 
 3653000   0.66493844   -7.0867978    858.36538  0.019581289  0.018740469           18 
 3654000   0.66276869   -7.0895608    857.65051  0.019559627  0.018734241           21 
 3655000    0.6776806   -7.0862773    857.86939  0.019559266  0.018728042           34 
 3656000   0.65777252    -7.090086    858.49491  0.019568174  0.018721855            8 
 3657000    0.6642512   -7.0956742    858.14964  0.019554955  0.018715663           17 
 3658000   0.65388026   -7.0881135     858.6382  0.019560739  0.018709461           17 
 3659000   0.65262556   -7.1316934    858.29608  0.019547601  0.018703261           20 
 3660000   0.65876033   -7.0761401     857.0579  0.019514069  0.018697046           23 
 3661000   0.66079977   -7.0777217    860.08021  0.019577534  0.018690866           30 
 3662000    0.6716292   -7.1064639    858.13737  0.019527976  0.018684674           28 
 3663000   0.66197494   -7.1098853    857.31454  0.019503925  0.018678495           27 
 3664000   0.67322249   -7.0707043    857.57251  0.019504469  0.018672323           37 
 3665000   0.65974211    -7.047222    861.72704  0.019593612  0.018666174           16 
 3666000    0.6528003    -7.077351      860.761  0.019566307  0.018660033           34 
 3667000   0.67050437   -7.0742002    860.31652  0.019550871  0.018653883           20 
 3668000   0.64964481   -7.0803711    860.50308  0.019549779  0.018647741           51 
 3669000   0.66023952   -7.0785469    859.94923  0.019531871  0.018641632           16 
 3670000   0.66094803   -7.0568685     861.4756  0.019561208  0.018635506           37 
 3671000   0.66909543   -7.0761282    857.88203  0.019474304  0.018629379           34 
 3672000   0.66791307   -7.0821575    860.38762  0.019525863  0.018623224           35 
 3673000   0.67728657   -7.1067022    857.19195  0.019448043  0.018617068           35 
 3674000   0.64535795   -7.0950914    858.70692  0.019477112  0.018610907           20 
 3675000   0.66820001   -7.0909778    858.12103  0.019458527   0.01860475           29 
 3676000   0.67130571   -7.0935932    857.62909  0.019442081  0.018598602           30 
 3677000   0.65364251   -7.0744356    858.72577  0.019461648   0.01859245           18 
 3678000   0.67511878   -7.1058915     859.1601  0.019466198  0.018586277           40 
 3679000   0.66756053   -7.1011844    857.88588  0.019432044  0.018580107           25 
 3680000   0.67141039   -7.1145523    856.07518  0.019385761  0.018573917           28 
 3681000   0.66109665   -7.1118299    857.55346   0.01941396  0.018567746           19 
 3682000   0.65305925   -7.0950973    857.56707  0.019408996  0.018561582           22 
 3683000   0.65597565   -7.1136403    857.36346  0.019399119  0.018555422           28 
 3684000   0.67937702   -7.1097838    858.06796  0.019409789  0.018549258           33 
 3685000   0.67002019   -7.1125404    857.55725  0.019392973  0.018543103           25 
 3686000   0.65340533   -7.1049129    860.06935  0.019444505   0.01853695           27 
 3687000   0.65693239   -7.0957443     859.2379  0.019420439    0.0185308           62 
 3688000   0.66581093   -7.1038443    856.59441  0.019355441  0.018524634           23 
 3689000   0.66471561   -7.1256076    856.87337  0.019356496   0.01851847           25 
 3690000   0.65287085   -7.1164883    858.38446  0.019385376  0.018512311           38 
 3691000   0.66387578   -7.0966092     858.5822  0.019384589  0.018506173           44 
 3692000   0.67054195   -7.0871592     857.9925  0.019366028  0.018500044           32 
 3693000    0.6487995   -7.0920167    861.13271  0.019431643  0.018493921           18 
 3694000   0.65465281   -7.1312858    856.47313  0.019321267  0.018487787           15 
 3695000   0.66708686   -7.1276297    860.15634  0.019399106  0.018481654           65 
 3696000   0.67817863   -7.1232179    858.05547  0.019346489   0.01847552           18 
 3697000   0.66135256   -7.1249914    856.32451  0.019302239  0.018469389           18 
 3698000    0.6675183   -7.1133037    859.82121  0.019375816  0.018463263           15 
 3699000   0.65480027   -7.0986743    859.55047  0.019364479  0.018457135           24 
 3700000   0.66846153   -7.1102114      859.554  0.019359324  0.018451014           30 
 3701000   0.67198572   -7.1019482    860.30835  0.019371079  0.018444909           70 
 3702000    0.6497505   -7.0963486    859.58325  0.019349524  0.018438799           34 
 3703000   0.65316197   -7.0922146    858.61705  0.019322555  0.018432687           29 
 3704000   0.65510764   -7.1005549     859.6547  0.019340683   0.01842656           16 
 3705000   0.66136593   -7.1188473     860.0456  0.019344256  0.018420453           17 
 3706000   0.65576088   -7.1138631    859.14581  0.019318803  0.018414353           13 
 3707000   0.64753501   -7.0993818    858.60024  0.019301327  0.018408254           25 
 3708000   0.66288399   -7.1005301    859.61797  0.019318994  0.018402125           23 
 3709000   0.65543858   -7.1214708    858.13178  0.019280394  0.018396042           44 
 3710000   0.64770021   -7.1072524    858.44578   0.01928225  0.018389934           23 
 3711000   0.66523844   -7.0810873    858.67366  0.019282171  0.018383832           35 
 3712000   0.64758971   -7.1184101    859.38383   0.01929292  0.018377739           29 
 3713000   0.65171402   -7.1024669    859.10126  0.019281382  0.018371637           40 
 3714000   0.65375812   -7.0966278    860.04484  0.019297362  0.018365554           22 
 3715000   0.65732486   -7.1349714    857.99831  0.019246261  0.018359472           20 
 3716000   0.65486305   -7.1130324     857.6764  0.019233863  0.018353397           22 
 3717000    0.6646733   -7.0952324    859.88408  0.019278183  0.018347308           29 
 3718000   0.64527061   -7.0947411     859.7415  0.019269802  0.018341235           28 
 3719000    0.6584725   -7.0967719    859.20224  0.019252537  0.018335188           42 
 3720000    0.6456873   -7.1022646    858.11225  0.019222945  0.018329103           49 
 3721000   0.65976203   -7.1312743    858.60018  0.019228706  0.018323028           24 
 3722000   0.64235559   -7.1057256    859.16551  0.019236197  0.018316954           33 
 3723000   0.64172856    -7.121718     858.5802  0.019217929  0.018310878           21 
 3724000   0.64789885   -7.1370118    858.30375  0.019206582  0.018304781           25 
 3725000   0.65801949     -7.13167    857.74263  0.019188873  0.018298677           23 
 3726000   0.66803289   -7.1198847    857.24259   0.01917254   0.01829258           22 
 3727000   0.65751764   -7.1211449     860.8807  0.019248741  0.018286489           38 
 3728000    0.6516891   -7.1169584    860.02402  0.019224428  0.018280423           22 
 3729000   0.64990584   -7.1032755    857.82591  0.019170151  0.018274359           33 
 3730000   0.65873969   -7.1325293    858.27169  0.019174971  0.018268271           43 
 3731000   0.64710878   -7.1391891    857.94077   0.01916244  0.018262214           22 
 3732000   0.65260225   -7.1355478    858.74972  0.019175369  0.018256158           38 
 3733000   0.66202296   -7.1327844    858.41222  0.019162698   0.01825009           72 
 3734000   0.65833427   -7.1473839    857.51297  0.019137497  0.018244019           55 
 3735000   0.66372676   -7.1249598    857.78167  0.019138368  0.018237952           63 
 3736000   0.67058559   -7.1596593     859.7345  0.019176804  0.018231871           55 
 3737000   0.64997391   -7.1356185    856.76584  0.019105473  0.018225789           76 
 3738000   0.65570567   -7.1636101    858.31417   0.01913488  0.018219704           25 
 3739000   0.64515188   -7.1303346    857.36694  0.019108651  0.018213615           20 
 3740000   0.66739417   -7.1395501    859.25432  0.019145595  0.018207539           18 
 3741000   0.65437428   -7.1289298    858.44563  0.019122463  0.018201463           58 
 3742000   0.63096088   -7.1262317    857.86774  0.019104484  0.018195413           31 
 3743000   0.64589557   -7.1550812    858.70869  0.019118102  0.018189353           43 
 3744000   0.64658704    -7.126188    858.46633  0.019107602  0.018183288           48 
 3745000   0.64752155   -7.1345332    857.49774  0.019080947  0.018177261           52 
 3746000     0.643374   -7.1345397    858.98576  0.019108955  0.018171237           53 
 3747000   0.66231336   -7.1280026    857.02067  0.019060152  0.018165207           57 
 3748000    0.6576243   -7.1290974    858.32051  0.019083967  0.018159156          107 
 3749000   0.65602234   -7.1328183    858.33529  0.019079205  0.018153117          120 
 3750000   0.64537375   -7.1156765    858.43903  0.019076423  0.018147071          107 
 3751000   0.66324712   -7.1308192    856.51645  0.019028625  0.018141022           72 
 3752000   0.64750635   -7.1265642     857.8626  0.019053451  0.018134983           85 
 3753000    0.6552897   -7.1555303    857.13847  0.019032296  0.018128934           50 
 3754000   0.66304033   -7.1220299    858.13627  0.019049376  0.018122887          118 
 3755000   0.65677206   -7.1250283    856.83877  0.019015508  0.018116837           53 
 3756000   0.66870724   -7.1345344    857.02355  0.019014545  0.018110792           58 
 3757000    0.6419522   -7.1526682    857.05463  0.019010173   0.01810475           31 
 3758000   0.66353447   -7.1391497    857.02924  0.019004551  0.018098701           67 
 3759000    0.6511664   -7.1509391    858.23564   0.01902624  0.018092658           76 
 3760000   0.65958231   -7.1407098    857.43052  0.019003336   0.01808663           72 
 3761000   0.65513358   -7.1431429    857.20451  0.018993275  0.018080597           98 
 3762000   0.65540893   -7.1361642    858.38887  0.019014462  0.018074577           94 
 3763000   0.65008344   -7.1407944     858.6252  0.019014643  0.018068555           78 
 3764000   0.66336128   -7.1504561    858.34122  0.019003304  0.018062539           93 
 3765000   0.63127591   -7.1505077    857.55438  0.018980841  0.018056514           21 
 3766000   0.64938471   -7.1464198    859.11902  0.019010423  0.018050477           86 
 3767000   0.66538286   -7.1398065    856.99757  0.018958446  0.018044443           61 
 3768000   0.64412104   -7.1467738    857.63548  0.018967522  0.018038417           88 
 3769000   0.63779583   -7.1553951    856.86698  0.018945498   0.01803238           60 
 3770000   0.64944676   -7.1472486    857.57515  0.018956126  0.018026337           77 
 3771000   0.65791583   -7.1631856    857.47478  0.018948881  0.018020293           80 
 3772000   0.65014161   -7.1581427    855.37131  0.018897387  0.018014264          140 
 3773000   0.64968231   -7.1508839    857.19317  0.018932617   0.01800824           92 
 3774000   0.63704023   -7.1316907    857.45728  0.018933432  0.018002205          125 
 3775000   0.65009545   -7.1481538    856.99711  0.018918259   0.01799616           79 
 3776000   0.65550721   -7.1554803    856.49926  0.018902261   0.01799012          152 
 3777000   0.63925007   -7.1371955    859.04222  0.018953363  0.017984102          119 
 3778000   0.64661006   -7.1409956    858.01299  0.018925644  0.017978072          154 
 3779000   0.65297471   -7.1426196    857.27755  0.018904418  0.017972049          106 
 3780000   0.64563695   -7.1471165    857.03748  0.018894124  0.017966027           82 
 3781000   0.63966405    -7.166961    856.56757   0.01887877  0.017959992           93 
 3782000   0.64581685   -7.1694283    855.65991  0.018853779  0.017953968          100 
 3783000   0.65071415   -7.1655572    856.04893  0.018857365  0.017947927          159 
 3784000   0.65951548   -7.1948258    855.22339  0.018834201  0.017941877          200 
 3785000   0.65083751    -7.154918    855.95101  0.018845245  0.017935839          227 
 3786000   0.64168205   -7.1811866    854.84876  0.018816005  0.017929826          122 
 3787000   0.64251035   -7.1801309    855.25626  0.018820004  0.017923796           90 
 3788000   0.64528772   -7.1772307    855.90841  0.018829383  0.017917763          129 
 3789000   0.65840926   -7.1630713    856.29398  0.018832893  0.017911742           72 
 3790000   0.65276577   -7.1693478    856.32444  0.018828594  0.017905719           44 
 3791000   0.65104565   -7.1459439    856.78555  0.018833763  0.017899706           75 
 3792000   0.64548372   -7.1596818    857.24764  0.018838951  0.017893683          128 
 3793000   0.65081701   -7.1646247    855.97231  0.018805965  0.017887667          125 
 3794000   0.65289185    -7.155841    856.94384  0.018822348  0.017881643          110 
 3795000   0.66149695   -7.1656563    857.12087  0.018821275  0.017875619          109 
 3796000   0.63503191    -7.192393    855.42863  0.018779167  0.017869597          196 
 3797000    0.6457117   -7.1700352    857.96841  0.018829963  0.017863577          163 
 3798000   0.65055951   -7.1677137    857.36924  0.018811858  0.017857562          171 
 3799000   0.64426736   -7.1735431    857.32959  0.018806036  0.017851566          222 
 3800000   0.62810492   -7.1607672    858.23931  0.018821037  0.017845554          250 
 3801000   0.63818568   -7.1702586    854.88627  0.018742574  0.017839535          162 
 3802000   0.64370951   -7.1672363    856.61512  0.018775537  0.017833514          196 
 3803000   0.65251487   -7.1731354     856.4155  0.018766226  0.017827519          165 
 3804000   0.65004505   -7.1840372    854.24116   0.01871366  0.017821516          192 
 3805000   0.65074163   -7.1876155    855.91524  0.018745406  0.017815513          195 
 3806000   0.65154736   -7.1813096    855.48623  0.018731087  0.017809511          210 
 3807000   0.64056073   -7.1913553    854.55748  0.018705838  0.017803509           75 
 3808000   0.64240087   -7.1710551     856.5516  0.018744564  0.017797508          155 
 3809000   0.64482089   -7.1824879    855.52592  0.018717203   0.01779153          104 
 3810000   0.64726442    -7.167926    857.83452  0.018762785  0.017785551          191 
 3811000   0.64188705   -7.1647019    854.42226  0.018683247  0.017779563          219 
 3812000   0.64187372    -7.170095    855.39934  0.018699706  0.017773559          187 
 3813000   0.63791705   -7.1738207    857.76102  0.018746416  0.017767567          106 
 3814000    0.6451502   -7.1900546    856.06828  0.018704516  0.017761575          189 
 3815000   0.63663521   -7.1434676    855.74168  0.018692479  0.017755586           64 
 3816000   0.63255315    -7.186292    855.22768  0.018676356  0.017749593          120 
 3817000   0.63407161   -7.1559481    857.53592  0.018721857  0.017743614          119 
 3818000   0.63391756   -7.1561063    855.03285   0.01866232  0.017737644          225 
 3819000   0.65913932   -7.1649484    856.37801  0.018686786  0.017731678          216 
 3820000   0.63538382   -7.1759375    855.08705  0.018653731  0.017725686          124 
 3821000   0.63553463     -7.19844    854.86947  0.018644104  0.017719691          126 
 3822000   0.65259159    -7.187448    855.51502  0.018653301  0.017713714          282 
 3823000   0.64198155   -7.1855991    854.36004  0.018623246   0.01770772          187 
 3824000   0.63779897   -7.1929808    854.76774  0.018627261  0.017701712          183 
 3825000   0.63585119   -7.1928886    854.27777  0.018611716  0.017695717          178 
 3826000   0.63855474   -7.1946349    855.57952  0.018635205  0.017689719          222 
 3827000   0.64705478   -7.1835514    852.31477  0.018559245   0.01768371          264 
 3828000   0.64112732   -7.1963194    855.06701  0.018614311  0.017677704          331 
 3829000     0.652781   -7.2072811    855.64224  0.018621969  0.017671713          309 
 3830000   0.63758867   -7.2074667    855.99287  0.018624736  0.017665701          314 
 3831000   0.64310945   -7.2118606    854.52217  0.018587883  0.017659703          362 
 3832000   0.64795421   -7.1947679    854.91102  0.018591489  0.017653701          170 
 3833000   0.63260311   -7.2156325    854.55565  0.018578912  0.017647699          219 
 3834000   0.63307753   -7.1946319    854.18352  0.018565978  0.017641701          124 
 3835000   0.63154169   -7.2239172    855.44813  0.018588617  0.017635717          233 
 3836000   0.63317457   -7.1987225    854.33626  0.018559616  0.017629734          233 
 3837000   0.64427304   -7.2206501    855.64108  0.018583118   0.01762376          232 
 3838000   0.63857503   -7.1907417    854.90611  0.018562318  0.017617797          120 
 3839000     0.639364   -7.2042596    855.37328  0.018567623  0.017611823          200 
 3840000   0.63097889   -7.1872852    854.77767  0.018549863  0.017605849          255 
 3841000   0.62058802   -7.2177043    853.52804  0.018517922  0.017599861          210 
 3842000   0.63428982   -7.2355261    854.29313  0.018529697  0.017593875          388 
 3843000   0.63493032   -7.2002561    855.00671  0.018540348  0.017587891          305 
 3844000   0.63684608   -7.2198608    854.45018   0.01852346  0.017581884          262 
 3845000    0.6228103   -7.1975718     854.9867  0.018530271  0.017575882          290 
 3846000   0.63508349   -7.2056325    853.58458  0.018495072  0.017569882          347 
 3847000   0.63869403   -7.2092174    854.23996  0.018504462  0.017563897          273 
 3848000   0.63602527   -7.1998594    854.70211  0.018509661  0.017557917          257 
 3849000   0.64566144   -7.2018364    853.55733  0.018480067  0.017551933          197 
 3850000   0.63536406   -7.2348407     853.0774  0.018464879  0.017545953          416 
 3851000   0.62635026   -7.2092381    853.33232    0.0184656   0.01753996          271 
 3852000   0.64033897   -7.2154986    853.77068   0.01847029  0.017533968          242 
 3853000   0.63046441   -7.2055445    851.82619   0.01842344  0.017527958          256 
 3854000   0.63462535   -7.2075522      854.364  0.018473534  0.017521949          286 
 3855000   0.63842045   -7.2376153    854.69466   0.01847589  0.017515952          541 
 3856000   0.62943852   -7.2258586    852.33917  0.018420193  0.017509945          416 
 3857000   0.64342962   -7.2229213    852.78398  0.018425028   0.01750394          522 
 3858000   0.63546328   -7.2363553    853.17588  0.018428717  0.017497939          299 
 3859000   0.63708768    -7.247735    851.25575  0.018382477  0.017491934          242 
 3860000    0.6154258   -7.2269458    853.14597  0.018418523  0.017485928          507 
 3861000     0.639732   -7.2235647    852.57287  0.018401383  0.017479918          296 
 3862000   0.63529266    -7.219766    852.35065  0.018391823  0.017473919          321 
 3863000   0.62996662   -7.2359807    851.76909  0.018374517   0.01746792          300 
 3864000   0.63141861   -7.2253963    852.04799  0.018375776  0.017461922          333 
 3865000   0.62850588    -7.223797     852.4007  0.018378627  0.017455938          225 
 3866000   0.63283002   -7.2328438    852.01346  0.018365526  0.017449956          193 
 3867000   0.61962215   -7.2282744    853.35762  0.018389743  0.017443979          270 
 3868000    0.6177178   -7.2223409    853.34173  0.018384646  0.017438005          390 
 3869000   0.63525154   -7.2438551    852.50036  0.018361772  0.017432014          385 
 3870000   0.64649399   -7.2319597    851.49999  0.018335486  0.017426024          570 
 3871000   0.63920756   -7.2258592    851.68545  0.018334742  0.017420033          481 
 3872000   0.63325636   -7.2331503    853.70482  0.018373468   0.01741405          378 
 3873000   0.63728616   -7.2218938     853.4846  0.018363986  0.017408062          531 
 3874000   0.61581596   -7.2674555    851.44426  0.018315356  0.017402069          346 
 3875000   0.63746008   -7.2234198    852.40342  0.018331256  0.017396089          481 
 3876000   0.64544952   -7.2597247    852.84267  0.018335971  0.017390109          456 
 3877000   0.63057792   -7.2398708    853.43242  0.018343918  0.017384118          486 
 3878000   0.61544062   -7.2484596    852.34912  0.018315909  0.017378142          496 
 3879000   0.62542232     -7.26084    850.08894  0.018262631  0.017372164          380 
 3880000    0.6357133    -7.245562    853.36151  0.018328211  0.017366179          549 
 3881000   0.62890305   -7.2452442    850.80845  0.018268669  0.017360223          417 
 3882000   0.62638059   -7.2580956    852.38937    0.0182979  0.017354247          603 
 3883000   0.63754588   -7.2345066    853.21253  0.018310853  0.017348277          544 
 3884000    0.6319068   -7.2553922    851.87121   0.01827736  0.017342315          335 
 3885000   0.63133513    -7.258363    850.45049  0.018242181   0.01733636          628 
 3886000   0.62293321   -7.2506865    852.60997  0.018283796  0.017330414          517 
 3887000   0.62537941   -7.2459362    850.97282  0.018243993  0.017324456          552 
 3888000   0.63727643   -7.2485662    851.64976   0.01825381   0.01731848          303 
 3889000   0.63334532   -7.2597583    851.58533  0.018247736  0.017312511          241 
 3890000   0.63518272   -7.2589914    850.36528  0.018216908   0.01730653          399 
 3891000   0.62302644   -7.2766107    850.46039  0.018214263  0.017300571          350 
 3892000   0.60882431   -7.2643589    850.99032   0.01822093  0.017294604          537 
 3893000   0.63414611   -7.2397474    852.31178  0.018244537   0.01728865          408 
 3894000   0.64064295   -7.2688068    851.91422  0.018231344  0.017282712          583 
 3895000   0.63263281   -7.2486765    853.26907   0.01825565  0.017276755          512 
 3896000   0.64183779   -7.2716515    851.19746  0.018206653  0.017270792          550 
 3897000    0.6334146   -7.2466916    852.61035  0.018232195   0.01726484          657 
 3898000   0.62361089   -7.2458316    852.06301  0.018215816  0.017258897          590 
 3899000   0.61840157   -7.2361366    853.42297  0.018240211  0.017252967          340 
 3900000   0.63070133   -7.2427816    853.25894  0.018232029  0.017247026          650 
 3901000   0.61057784   -7.2258797    850.96934  0.018178445  0.017241096          594 
 3902000   0.63225881   -7.2714288    851.09639  0.018176499  0.017235168          693 
 3903000   0.61145868   -7.2530424    851.53198  0.018181142  0.017229216          783 
 3904000   0.62688954    -7.235863    851.58797   0.01817768  0.017223272          685 
 3905000   0.63162445   -7.2699331     852.1417  0.018184842  0.017217336          630 
 3906000   0.61636125   -7.2328308    852.52629  0.018188392  0.017211402          593 
 3907000   0.63298959   -7.2572404    851.18781  0.018155187  0.017205472          611 
 3908000   0.62976433   -7.2755922    851.91078  0.018165958  0.017199536          599 
 3909000   0.62212183   -7.2881874    851.33193  0.018148971  0.017193608          644 
 3910000    0.6234755   -7.2664815     850.6755  0.018130339  0.017187654          696 
 3911000   0.63485515   -7.2679649    851.36508  0.018140396   0.01718171          751 
 3912000   0.62734212   -7.2572094    851.88319  0.018146796  0.017175767          716 
 3913000   0.62714221   -7.2947135    849.85351  0.018098933  0.017169843          706 
 3914000   0.65264168   -7.2675289    849.79924  0.018093154  0.017163913          645 
 3915000   0.61857374     -7.26511    850.91689  0.018112322  0.017157995          631 
 3916000   0.62652051   -7.2946646    850.12806   0.01809091  0.017152062          681 
 3917000   0.63119698   -7.2758642    849.96579   0.01808284  0.017146141          656 
 3918000   0.63941824   -7.2457115    850.70647  0.018093978  0.017140222          551 
 3919000   0.62158372   -7.2719419    849.92555  0.018072756  0.017134316          642 
 3920000   0.62723184   -7.2775333    850.22434  0.018074497  0.017128402          701 
 3921000   0.63116827   -7.2747608    849.83944  0.018061707  0.017122499          759 
 3922000   0.61603391   -7.2698966    850.04432  0.018061455  0.017116586          637 
 3923000   0.61557685   -7.2600983    850.66962  0.018070134  0.017110674          672 
 3924000   0.62526567   -7.2627895    851.63869  0.018086109  0.017104769          707 
 3925000   0.63260969    -7.267385    849.79042  0.018042259  0.017098863          730 
 3926000   0.62466579    -7.257423    852.66031   0.01809858  0.017092956          814 
 3927000    0.6256146   -7.2780196    852.55454  0.018091727  0.017087059          840 
 3928000   0.61944281   -7.2774775    850.09887  0.018035024  0.017081163          784 
 3929000   0.63449362   -7.2504177    852.27192  0.018076523  0.017075278          749 
 3930000   0.61294729   -7.2971768    850.56514  0.018035732  0.017069385          668 
 3931000   0.62464109   -7.2771017    850.37821  0.018027181  0.017063488          727 
 3932000   0.62792564   -7.2635645    850.60912  0.018027491  0.017057589          804 
 3933000   0.63113816   -7.2635549    852.94035  0.018072302  0.017051707          585 
 3934000   0.62903248   -7.2730992    850.89824   0.01802445   0.01704582          738 
 3935000   0.61456463   -7.2807427    850.16409  0.018004322  0.017039934          836 
 3936000   0.61640113   -7.2777962    851.48501  0.018027714  0.017034046          782 
 3937000   0.63037624   -7.2628512    850.24054  0.017996794  0.017028153          816 
 3938000   0.62274275   -7.2634515    852.23502   0.01803443  0.017022273          717 
 3939000   0.62532225   -7.2760783    850.86387  0.018000843   0.01701639          867 
 3940000   0.61098863   -7.2598679    850.23968  0.017983073  0.017010506          690 
 3941000   0.62876334   -7.2666339    851.11333  0.017996983  0.017004623          749 
 3942000   0.60735579   -7.2672695    850.87063  0.017987287   0.01699876          687 
 3943000   0.61897103   -7.2814833    848.18483  0.017925962  0.016992884          716 
 3944000   0.62362472   -7.2824415    849.61701  0.017951678  0.016987013          689 
 3945000    0.6156796   -7.2896406    850.92016  0.017974655  0.016981143          806 
 3946000   0.61571211   -7.2959123    850.79414  0.017967438  0.016975281          732 
 3947000   0.63049695   -7.2734609    851.69086  0.017981819  0.016969415          733 
 3948000   0.62076927   -7.2733947    849.86562  0.017938737  0.016963553          894 
 3949000   0.62282945   -7.2632889    850.15375  0.017940275  0.016957694          739 
 3950000   0.61412879   -7.2775756    850.43069  0.017941576  0.016951838          488 
 3951000   0.61617286   -7.2783292    851.99884   0.01797011  0.016945984          714 
 3952000   0.61916389   -7.2800919    852.28352  0.017971565   0.01694014          694 
 3953000   0.63139563   -7.2808414    849.44281  0.017907134  0.016934299          844 
 3954000   0.61800466   -7.2748594    849.84759  0.017911136  0.016928441          795 
 3955000     0.620983   -7.2831373    850.73475    0.0179253   0.01692258          799 
 3956000   0.62464228   -7.2811219    851.71362  0.017941389  0.016916741          709 
 3957000   0.62106099   -7.2542059    853.44983  0.017973419  0.016910901          792 
 3958000   0.61767238    -7.254444    850.19724  0.017900397  0.016905085          736 
 3959000   0.63606091   -7.2612568     849.6681  0.017884737   0.01689925          767 
 3960000   0.61837906   -7.2677006    852.07487  0.017930868  0.016893426          736 
 3961000   0.61625321   -7.2661763    851.34454  0.017910977  0.016887605          824 
 3962000   0.62250588   -7.2729743    850.48791  0.017888438  0.016881779          826 
 3963000    0.6237795   -7.2685224    851.53929  0.017906033  0.016875961          707 
 3964000   0.61126854   -7.2971154    849.13954  0.017851067  0.016870131          723 
 3965000   0.61651772   -7.2706664    850.65383  0.017878391  0.016864314          602 
 3966000   0.62923239   -7.2946984    851.42246  0.017890033  0.016858499          661 
 3967000   0.63622053   -7.2830318    850.12796   0.01785833  0.016852685          761 
 3968000   0.62116824   -7.2833133    851.77897  0.017888503  0.016846874          769 
 3969000    0.6180763    -7.269507    851.13347  0.017870443  0.016841067          770 
 3970000   0.60918197   -7.2581684    850.87605  0.017860538   0.01683527          541 
 3971000   0.61986121   -7.2914461    849.02506  0.017817197  0.016829465          730 
 3972000   0.62263762    -7.273247    850.52811  0.017844245  0.016823657          588 
 3973000   0.60308158   -7.2772389    850.68815  0.017843111  0.016817846          698 
 3974000   0.62828191   -7.2931656    850.01556  0.017824517  0.016812028          705 
 3975000   0.60137275   -7.2878441     851.2803  0.017846547  0.016806229          871 
 3976000   0.62193653   -7.2933525    849.79464   0.01781092  0.016800407          858 
 3977000   0.61382661   -7.2842177    850.31347  0.017817314  0.016794592          817 
 3978000   0.63203861   -7.2721171    852.42706  0.017857111  0.016788801          820 
 3979000   0.60496475   -7.2767206    849.93991  0.017800534     0.016783          815 
 3980000   0.62662005   -7.2753829    851.50558  0.017828844  0.016777201          879 
 3981000   0.61574625   -7.2589431    850.19951  0.017797026  0.016771406          864 
 3982000   0.61423041    -7.278373    852.34066  0.017837365  0.016765616          883 
 3983000   0.60968126   -7.2948018     850.9764  0.017804343  0.016759824          825 
 3984000   0.62709605   -7.2887284    849.29439  0.017764692  0.016754031          876 
 3985000   0.61803685   -7.2771284    848.33043  0.017740076  0.016748228          797 
 3986000   0.61380117   -7.2911519    849.64734  0.017763157  0.016742431          848 
 3987000   0.62807279     -7.27632    852.72995  0.017823132  0.016736628          907 
 3988000   0.62046494   -7.2663076    849.36283  0.017748304  0.016730841          905 
 3989000   0.60262445   -7.3071684    848.83245  0.017732774  0.016725038          882 
 3990000   0.61424055   -7.2804592    850.43793  0.017761862   0.01671926          863 
 3991000   0.61603889   -7.2796051    851.08537   0.01777093   0.01671348          896 
 3992000   0.60144803   -7.2993441    849.91282  0.017742001  0.016707692          851 
 3993000   0.60818612   -7.2903245    850.02377  0.017739873  0.016701915          907 
 3994000   0.61859943   -7.2923775    849.99117  0.017734752   0.01669613          920 
 3995000   0.62107103   -7.2963373    847.64236  0.017681318  0.016690348          929 
 3996000   0.61727905   -7.2758916    849.03708  0.017705979  0.016684567          884 
 3997000   0.60082372   -7.2785884    850.09148  0.017723532  0.016678789          927 
 3998000   0.62475678   -7.2779372    849.80164  0.017713057  0.016672997          895 
 3999000   0.62308127   -7.3206388    848.29238  0.017677177  0.016667219          903 
 4000000   0.61860183   -7.2899264    849.83162  0.017704825  0.016661428          843 
 4001000   0.61232945   -7.3105146     849.3231  0.017689809  0.016655648          886 
 4002000   0.61069174   -7.2944065    850.44707  0.017708793  0.016649869          788 
 4003000   0.61400903   -7.3106357    849.12463  0.017676839  0.016644099          595 
 4004000   0.62413357   -7.2856606    850.27252  0.017696315  0.016638335          639 
 4005000    0.6066054    -7.285289    849.91711  0.017684501  0.016632572          908 
 4006000   0.61853024   -7.2939301    850.16428  0.017685228  0.016626811          865 
 4007000   0.62299406   -7.3053728    850.08292  0.017679122   0.01662105          931 
 4008000   0.61188511   -7.2901943    849.60304  0.017664734  0.016615286          947 
 4009000   0.59410661   -7.3162683    848.57198  0.017638895  0.016609515         1036 
 4010000    0.6191396   -7.3039556    850.17794  0.017667871  0.016603746          820 
 4011000   0.60978885   -7.3130452    850.65107  0.017673296  0.016597988         1003 
 4012000   0.59436714   -7.2999662    848.56148  0.017625488  0.016592224          900 
 4013000   0.59744789   -7.3039804    850.74163  0.017666368  0.016586462          891 
 4014000   0.60284541   -7.3185019    849.51308  0.017636462  0.016580705          884 
 4015000   0.61386301    -7.305678    849.65159  0.017634944  0.016574948          973 
 4016000   0.59599727   -7.3029346    850.52758   0.01764873  0.016569197          925 
 4017000   0.60894429   -7.3072383    849.24654  0.017617761   0.01656345         1019 
 4018000   0.61624527   -7.2896394    849.05693  0.017609444  0.016557707          996 
 4019000   0.60797265   -7.3169814    849.18409  0.017607699  0.016551962         1109 
 4020000   0.60188779   -7.2918613     849.2148  0.017603955  0.016546218          952 
 4021000   0.61059899   -7.3066131    849.93746  0.017614554  0.016540468          946 
 4022000   0.60313628      -7.3199    848.98365  0.017590412  0.016534724         1041 
 4023000   0.62077169   -7.2998245    848.95778  0.017585504  0.016528984          994 
 4024000   0.59644646   -7.3201079    848.66481  0.017575066  0.016523256          985 
 4025000   0.59442147   -7.2977142    850.22427  0.017602987  0.016517526          863 
 4026000   0.59226645   -7.3159877    849.43656   0.01758231  0.016511812          969 
 4027000   0.61733598   -7.3184986     848.1177  0.017550652  0.016506077          980 
 4028000    0.6196092   -7.3066609    848.45049   0.01755318   0.01650034          921 
 4029000   0.61571785   -7.3390533    847.95142    0.0175385  0.016494607         1062 
 4030000   0.61602209   -7.3268997    849.01041  0.017556046  0.016488874          971 
 4031000   0.61354923   -7.3110671    849.44764   0.01756073  0.016483141         1064 
 4032000   0.61987761   -7.3093655    850.11783  0.017570226   0.01647741         1049 
 4033000   0.62114132   -7.3090639    847.29948  0.017507634  0.016471683          940 
 4034000   0.60102976   -7.3402337    848.63465  0.017530876  0.016465939         1085 
 4035000   0.60986086   -7.3348386    847.68157  0.017506848  0.016460193         1058 
 4036000   0.60891303    -7.351107    848.31501  0.017515589  0.016454451         1124 
 4037000   0.60349556    -7.326149    847.96052  0.017503933  0.016448715         1107 
 4038000   0.59689371   -7.3331044    849.27065  0.017526636  0.016442971         1068 
 4039000   0.60623836   -7.3518398     845.6521  0.017447638  0.016437226         1145 
 4040000   0.60785715   -7.3293057    848.07559  0.017493308  0.016431477         1072 
 4041000   0.61442297    -7.329824    846.16165   0.01744951   0.01642574         1143 
 4042000   0.61592247   -7.3233012    847.11133  0.017464773  0.016420002         1137 
 4043000   0.60863899   -7.3278275    847.83361   0.01747534  0.016414267         1082 
 4044000   0.60159387   -7.3387304    848.16445  0.017477836  0.016408532         1113 
 4045000   0.60139214    -7.364819    846.40523  0.017437273  0.016402797         1079 
 4046000   0.60990336   -7.3269823    846.88046  0.017442751  0.016397079         1078 
 4047000   0.60606479   -7.3235507    849.14636  0.017485099  0.016391379         1109 
 4048000   0.60332506   -7.3175191    847.26901  0.017442132  0.016385654         1101 
 4049000   0.60546597   -7.3155155    847.13756  0.017435119  0.016379933         1098 
 4050000   0.61158514   -7.3486668     847.3772  0.017435745  0.016374212         1202 
 4051000   0.61131638    -7.319437    848.27881  0.017449988  0.016368489         1097 
 4052000   0.60315165   -7.3533247    849.02992  0.017461129  0.016362771         1169 
 4053000   0.59757759   -7.3384301     845.3406  0.017380965  0.016357044         1153 
 4054000   0.61997653   -7.3492643    847.19056  0.017414705  0.016351329         1204 
 4055000   0.59437695    -7.332437    847.54861  0.017417768  0.016345615         1179 
 4056000   0.60907337   -7.3318815    847.52203  0.017412928  0.016339904         1172 
 4057000    0.5953593   -7.3375082    846.23496  0.017382199  0.016334193         1213 
 4058000   0.60805834   -7.3380338     845.8458  0.017369924  0.016328485         1242 
 4059000   0.59557751   -7.3735766    846.66649  0.017382493  0.016322792         1245 
 4060000   0.61527967   -7.3410948    848.20999  0.017409893  0.016317092         1289 
 4061000   0.61577003   -7.3390609    847.56265  0.017392322  0.016311397         1167 
 4062000   0.58463345   -7.3622907    845.80695  0.017352022  0.016305695         1227 
 4063000   0.58975478   -7.3265619    846.78268  0.017367764  0.016300004         1202 
 4064000   0.59521163   -7.3406473    847.07255  0.017369434  0.016294314         1224 
 4065000   0.60569927   -7.3530565    847.54827  0.017374913  0.016288633         1187 
 4066000   0.59534682   -7.3450521    848.05131   0.01738095  0.016282936         1176 
 4067000   0.60766578   -7.3294236    847.19063  0.017359041  0.016277259         1233 
 4068000   0.59933599   -7.3480928    847.33633  0.017357758   0.01627158         1237 
 4069000   0.61052449   -7.3113909    846.24906  0.017331225  0.016265894         1178 
 4070000   0.58278252   -7.3760013    846.27351  0.017327467  0.016260218         1154 
 4071000   0.60525651   -7.3426606    847.21077  0.017342397  0.016254545         1191 
 4072000   0.60895546   -7.3710375    847.14794  0.017336852  0.016248868         1299 
 4073000   0.61140711    -7.344309    847.98412  0.017349704  0.016243203         1208 
 4074000   0.60609611   -7.3647417     845.8009  0.017300787  0.016237527         1309 
 4075000   0.59944604   -7.3592442    847.67844  0.017334937   0.01623186         1231 
 4076000     0.598548   -7.3572636    846.74379  0.017311576  0.016226184         1227 
 4077000   0.60637434   -7.3503111    847.32327  0.017319174  0.016220525         1277 
 4078000   0.60039148   -7.3651946     846.7501  0.017303214  0.016214853         1261 
 4079000   0.60417931    -7.351089    845.56183  0.017274696  0.016209188         1295 
 4080000   0.58897004   -7.3452031    847.80932  0.017316367  0.016203524         1300 
 4081000   0.59519345   -7.3457146    847.74745   0.01731086  0.016197873         1156 
 4082000   0.59276422   -7.3638062    846.74063  0.017286065  0.016192215         1334 
 4083000   0.59993563   -7.3433543    847.35486  0.017294368  0.016186559         1305 
 4084000   0.60667364    -7.336679    846.52949  0.017273292  0.016180919         1361 
 4085000   0.61256971   -7.3631746    846.36903   0.01726579  0.016175273         1183 
 4086000   0.59857973   -7.3698036    847.03935  0.017275236  0.016169629         1263 
 4087000   0.59843406   -7.3437184    847.69595  0.017284397  0.016163989         1225 
 4088000   0.60367885   -7.3158804    847.22873  0.017270644  0.016158353         1223 
 4089000   0.58843437   -7.3379339    847.69383  0.017275899  0.016152715         1274 
 4090000   0.60722266   -7.3538035    846.49436  0.017247236  0.016147086         1243 
 4091000   0.60826284   -7.3719471    846.72062  0.017247629  0.016141446         1298 
 4092000   0.59656215   -7.3524784    847.14783  0.017252115  0.016135816         1306 
 4093000   0.60128477   -7.3679153    845.47366  0.017213813  0.016130176         1318 
 4094000   0.60676478   -7.3691242    845.66112  0.017213425  0.016124541         1254 
 4095000   0.59340759   -7.3462437    846.49538  0.017226198  0.016118911         1289 
 4096000   0.60248068   -7.3411756    848.98435  0.017272631  0.016113278         1306 
 4097000   0.58817994   -7.3544372     844.6634  0.017180526  0.016107657         1321 
 4098000   0.59438527   -7.3666588    845.63692  0.017196131  0.016102031         1279 
 4099000   0.59117717   -7.3553258    847.11341  0.017221953  0.016096418         1365 
 4100000   0.59177608   -7.3566906    846.49249  0.017205132  0.016090801         1349 
 4101000    0.6017505    -7.367956    846.76692  0.017206513  0.016085191         1320 
 4102000   0.60451405   -7.3517975    847.12214  0.017209535  0.016079583         1392 
 4103000   0.60556112   -7.3678563    844.33709  0.017148775  0.016073982         1343 
 4104000   0.58934657   -7.3537123    847.71179  0.017213121  0.016068391         1416 
 4105000   0.59158223   -7.3368483    847.74218  0.017209545  0.016062806         1425 
 4106000   0.58572144   -7.3653614    847.83923  0.017207323  0.016057211         1281 
 4107000   0.60476659   -7.3620069    846.55897  0.017177156  0.016051609         1275 
 4108000    0.5989729   -7.3689888    845.29104  0.017147254  0.016046021         1363 
 4109000   0.60712922   -7.3594255    847.39693   0.01718579  0.016040427         1373 
 4110000   0.58783257   -7.3682079    846.43131   0.01716203  0.016034832         1452 
 4111000   0.59157807   -7.3749089    846.99713  0.017169325  0.016029236         1464 
 4112000   0.59825227   -7.3531909    847.26604  0.017170599  0.016023644         1413 
 4113000   0.59461367   -7.3671417    847.63559  0.017173912  0.016018059         1367 
 4114000   0.58856231   -7.3691659    845.77772  0.017132104  0.016012471         1379 
 4115000   0.60493911   -7.3690429    846.20325  0.017136558   0.01600689         1330 
 4116000    0.5993456   -7.3894949    846.87715  0.017146039  0.016001308         1385 
 4117000   0.59556617   -7.3711481    845.94398  0.017122986  0.015995718         1381 
 4118000   0.59698231   -7.3605255    845.20487  0.017103871  0.015990131         1391 
 4119000   0.60771744    -7.375267    846.60299  0.017128004  0.015984543         1314 
 4120000   0.58426681   -7.3587029    845.63528  0.017104274  0.015978964         1317 
 4121000   0.59141949   -7.3756469     846.4393  0.017116382  0.015973394         1397 
 4122000   0.58702562    -7.363391    847.99921  0.017143765  0.015967817         1283 
 4123000   0.59378472   -7.3506927    846.15834    0.0171024  0.015962249         1338 
 4124000   0.58571335   -7.3723352    846.82765  0.017111778  0.015956676         1317 
 4125000   0.58998788   -7.3697583    844.82296  0.017067131  0.015951107         1412 
 4126000   0.60191894   -7.3860547     844.4395  0.017055249  0.015945542         1399 
 4127000   0.58705028   -7.3753252    846.78643  0.017098506  0.015939971         1408 
 4128000   0.59589214   -7.3676484    846.60307  0.017090663  0.015934397         1398 
 4129000   0.60067847   -7.3841808    845.27837  0.017059788  0.015928828         1475 
 4130000   0.60024839   -7.3922056    845.20087  0.017054093  0.015923256         1406 
 4131000   0.59230927   -7.3781478    844.58264  0.017037494  0.015917684         1428 
 4132000   0.60483405    -7.391801    844.90359  0.017039843  0.015912104         1425 
 4133000   0.59272744   -7.3816818     846.2099   0.01706206  0.015906534         1473 
 4134000   0.59789749    -7.387779    843.78635  0.017009078  0.015900967         1443 
 4135000   0.59925012   -7.3886136    845.03976  0.017030225  0.015895406         1490 
 4136000   0.57674114   -7.3887951     844.2234  0.017009659  0.015889839         1451 
 4137000    0.5933916   -7.3773008     845.5757  0.017032787  0.015884278         1339 
 4138000   0.60147311   -7.3947158    845.59984  0.017029157  0.015878716         1515 
 4139000   0.59211041   -7.3806079       844.54  0.017003705  0.015873155         1503 
 4140000   0.59384182   -7.3768824    846.23491  0.017033714  0.015867599         1385 
 4141000     0.588423   -7.3888922    845.44336  0.017013671  0.015862053         1427 
 4142000   0.58172208   -7.3816508    845.63416  0.017013402  0.015856501         1411 
 4143000   0.58090402   -7.3754008    845.62971  0.017009207  0.015850955         1297 
 4144000   0.58849122    -7.388928    843.76227  0.016967549  0.015845411         1471 
 4145000   0.57615589   -7.3793666    845.55524  0.016999502  0.015839866         1515 
 4146000   0.59933036   -7.3805158    846.38414  0.017012063  0.015834316         1475 
 4147000   0.59438253   -7.3761768    843.80358  0.016956104  0.015828766         1507 
 4148000   0.59050883   -7.3887364    845.95496  0.016995238  0.015823223         1488 
 4149000   0.60241715   -7.3919848    844.67364  0.016965406  0.015817677         1432 
 4150000   0.59343587   -7.4062196    845.12196   0.01697032  0.015812144         1383 
 4151000   0.59759428   -7.3816184    844.67901   0.01695734  0.015806612         1434 
 4152000   0.58288484   -7.3863363    846.07383  0.016981251  0.015801085         1398 
 4153000   0.58271246   -7.3755163    845.31968  0.016962029  0.015795546         1482 
 4154000    0.5817654   -7.3784123    845.17399  0.016955023   0.01579001         1541 
 4155000   0.56895981   -7.4091347    845.40532  0.016955582  0.015784477         1456 
 4156000   0.58843818   -7.3864886    844.88898  0.016941149  0.015778952         1544 
 4157000   0.57939531   -7.3954613    846.31057  0.016965572  0.015773425         1381 
 4158000   0.58921863   -7.4026513    844.05483  0.016916283  0.015767903         1435 
 4159000   0.59332363   -7.3873633    846.11903  0.016953575  0.015762382         1392 
 4160000   0.58105104   -7.3891685    845.38387  0.016934773  0.015756861         1312 
 4161000   0.58274678   -7.3947801    847.02593  0.016963589  0.015751347         1379 
 4162000   0.57784545   -7.3841027     846.3583  0.016946146  0.015745843         1371 
 4163000    0.5834495   -7.3783211    845.68984  0.016928694  0.015740331         1368 
 4164000   0.59521098   -7.4141007     844.6253  0.016903324  0.015734823         1455 
 4165000   0.58069703   -7.3962167    845.01209  0.016907005  0.015729316         1432 
 4166000   0.59784912    -7.393914    844.99974  0.016902699  0.015723817         1516 
 4167000   0.57831115    -7.399342    847.05414  0.016939728  0.015718322         1371 
 4168000   0.58815703   -7.3994092    845.24691   0.01689953  0.015712813         1417 
 4169000   0.59012355   -7.4086808    843.60764   0.01686271   0.01570731         1509 
 4170000   0.58580214   -7.3981859    845.20703  0.016890628  0.015701801         1400 
 4171000   0.58781962    -7.387933    845.02207  0.016882883  0.015696305         1373 
 4172000   0.57438543   -7.4024693    843.45673   0.01684757  0.015690805         1493 
 4173000   0.58262885   -7.4052499    845.16761  0.016877698  0.015685306         1479 
 4174000   0.58249777   -7.3916894    843.76145  0.016845581  0.015679807         1394 
 4175000    0.5928588    -7.398003    845.89299  0.016884092  0.015674318         1338 
 4176000   0.58959739   -7.3903756    845.08805  0.016863986  0.015668827         1499 
 4177000   0.57789577   -7.3944684    845.22919  0.016862764   0.01566333         1392 
 4178000   0.58247579   -7.4159003     843.3302  0.016820851  0.015657844         1478 
 4179000   0.58770409   -7.4196338    845.07796  0.016851678  0.015652361         1417 
 4180000   0.57410775   -7.3816668    845.41887  0.016854443  0.015646885         1397 
 4181000   0.58368126   -7.3968986    845.13244  0.016844703  0.015641405         1433 
 4182000   0.59231547   -7.3990372    846.22801  0.016862506   0.01563593         1340 
 4183000   0.56786066   -7.4016268    843.76662  0.016809439  0.015630452         1351 
 4184000   0.58534635   -7.3931987     843.3955   0.01679803  0.015624975         1425 
 4185000   0.58068514    -7.401214    845.41495  0.016834228  0.015619513         1510 
 4186000   0.57902662   -7.3873146    846.57782  0.016853357  0.015614048         1436 
 4187000   0.57947117   -7.3946211    843.27366  0.016783569  0.015608586         1431 
 4188000   0.57638091   -7.4018439    845.60525  0.016825956  0.015603127         1458 
 4189000   0.58914648   -7.3995468    843.82188  0.016786462  0.015597668         1361 
 4190000   0.58376237   -7.3869718    845.00385  0.016805964  0.015592211         1442 
 4191000   0.59182869   -7.3929618     845.2233  0.016806317  0.015586757         1492 
 4192000   0.58297553    -7.390645    843.82922  0.016774595  0.015581309         1311 
 4193000   0.58378197   -7.4155175     845.3297  0.016800415  0.015575868         1299 
 4194000   0.58341288   -7.4141426    843.79562  0.016765928  0.015570423         1393 
 4195000     0.590256   -7.4210859    844.33328  0.016772612  0.015564971         1458 
 4196000   0.57651348   -7.3954052     844.2127   0.01676622  0.015559527         1389 
 4197000   0.57010162   -7.4089431    844.85314  0.016774941  0.015554089         1417 
 4198000   0.59083369   -7.4033757    845.31565  0.016780127  0.015548659         1291 
 4199000   0.58340112   -7.4171229    843.82696  0.016746586  0.015543221         1346 
 4200000    0.5648373    -7.401561    844.36763  0.016753326   0.01553779         1375 
 4201000   0.58981714   -7.3864363    845.80245    0.0167778  0.015532356         1444 
 4202000   0.58352622   -7.3991244    845.06264  0.016759135  0.015526928         1364 
 4203000    0.5768416   -7.3997533     844.2337  0.016738713  0.015521507         1390 
 4204000   0.55720091    -7.398678    844.33734  0.016736785  0.015516089         1498 
 4205000   0.58587716   -7.4069189    844.17332  0.016729554  0.015510662         1479 
 4206000   0.57888435   -7.4184333    844.08598  0.016723846  0.015505233         1520 
 4207000   0.59068105   -7.3926796    844.46776  0.016727434  0.015499805         1458 
 4208000   0.57837234   -7.4102009    843.88309   0.01671188  0.015494381         1419 
 4209000   0.57293246   -7.4097381    845.40635  0.016738068  0.015488955         1374 
 4210000   0.58418694   -7.4095621    844.70354  0.016720181  0.015483539         1523 
 4211000   0.58047409   -7.4064071    843.46489  0.016691698  0.015478119         1531 
 4212000   0.57838953    -7.414061    844.83911  0.016714924  0.015472708         1478 
 4213000   0.57358579    -7.411367    845.41866   0.01672242  0.015467291         1500 
 4214000   0.56722047   -7.3947677    844.78612  0.016705943   0.01546188         1450 
 4215000   0.58745294   -7.4129408    842.11267  0.016649123  0.015456468         1467 
 4216000   0.58910425   -7.4068625     845.1898  0.016705997  0.015451063         1571 
 4217000   0.57749718    -7.421861    845.48166  0.016707803  0.015445661         1447 
 4218000   0.57283143   -7.4150606    843.63519  0.016667362  0.015440259         1555 
 4219000   0.57004218   -7.3953398      844.844  0.016687288  0.015434856         1546 
 4220000   0.57794411   -7.4121742    843.63306  0.016659421  0.015429451         1461 
 4221000   0.57417852   -7.4300979    843.88766    0.0166605  0.015424054         1641 
 4222000   0.57693907   -7.4103245    845.20188  0.016682494  0.015418659         1536 
 4223000   0.58334695   -7.4009458    844.61687     0.016667  0.015413268         1503 
 4224000   0.56717583   -7.4055876    842.72568  0.016625743   0.01540788         1584 
 4225000   0.57342418   -7.4394949    843.05956  0.016628394   0.01540249         1516 
 4226000   0.56700954   -7.4402318    842.84888  0.016620304  0.015397095         1497 
 4227000   0.58114699    -7.412942     845.2923  0.016664543  0.015391715         1535 
 4228000   0.58529962   -7.4133028    842.47486  0.016605071  0.015386331         1561 
 4229000   0.58037763   -7.4156779    842.82014  0.016607948   0.01538095         1501 
 4230000   0.57513268   -7.4265633    844.56255  0.016638348  0.015375568         1464 
 4231000   0.56477606   -7.4127319    843.21757  0.016607925  0.015370188         1595 
 4232000   0.57364543   -7.4230889     841.4173  0.016568551  0.015364807         1536 
 4233000   0.58392968   -7.4358311    844.41278  0.016623608  0.015359428         1480 
 4234000   0.58635398   -7.4292132    844.11194   0.01661376  0.015354061         1565 
 4235000   0.58220328   -7.4170944    844.12115  0.016610019  0.015348693         1567 
 4236000   0.58513481   -7.4278284    843.31264  0.016590192  0.015343329         1573 
 4237000   0.56832733   -7.4276251    844.22981  0.016604315  0.015337971         1431 
 4238000   0.57336222   -7.4311488    844.01955  0.016596263  0.015332621         1541 
 4239000   0.57597887   -7.4314627    844.88427  0.016609347  0.015327272         1456 
 4240000   0.57656074   -7.4291725    843.30741  0.016574438  0.015321925         1546 
 4241000   0.55770112   -7.4219495    844.48597  0.016593688  0.015316576         1599 
 4242000   0.59000473   -7.4025648    843.51773  0.016570755  0.015311233         1618 
 4243000   0.57845572   -7.4126697    843.70373  0.016570503  0.015305894         1595 
 4244000   0.58499019   -7.4042834    844.80871  0.016588295  0.015300557         1529 
 4245000   0.56995979    -7.430335    844.66752  0.016581616  0.015295219         1573 
 4246000   0.57338955   -7.4391859    842.59398  0.016537015   0.01528987         1582 
 4247000   0.57301135   -7.4263107    843.85012  0.016557769  0.015284529         1520 
 4248000   0.57076528   -7.4399615    844.27488  0.016562203  0.015279187         1646 
 4249000   0.58042176   -7.4556433    843.78093  0.016548618   0.01527385         1649 
 4250000   0.57537829   -7.4048767    844.18191  0.016552586  0.015268514         1577 
 4251000   0.57969727   -7.4319783    843.87269  0.016542631  0.015263183         1595 
 4252000    0.5683165   -7.3910997    845.33512  0.016567402  0.015257858         1466 
 4253000   0.55255905   -7.4120427    842.90199  0.016515832  0.015252536         1579 
 4254000   0.57996607   -7.4385973    843.28195  0.016519393  0.015247204         1481 
 4255000   0.57436265   -7.4294229    841.12597  0.016473286  0.015241886         1554 
 4256000   0.56064467   -7.4095345    844.78359  0.016541032  0.015236556         1455 
 4257000   0.57700056   -7.4198999    843.80229  0.016517937  0.015231237         1495 
 4258000   0.57572139   -7.4188058    845.80122  0.016553179   0.01522591         1588 
 4259000   0.57650398   -7.4249378    843.03015  0.016495072  0.015220586         1618 
 4260000   0.57141965   -7.4336948     843.7372  0.016505031  0.015215262         1653 
 4261000   0.57096441   -7.4160104     844.8001  0.016521945  0.015209945         1621 
 4262000   0.56948132   -7.4415207    842.06205  0.016464533  0.015204623         1572 
 4263000   0.56517222    -7.436179    842.43597   0.01646798  0.015199306         1563 
 4264000   0.56725955   -7.4291646    845.01094  0.016514442  0.015193988         1647 
 4265000   0.56468621   -7.4243258    843.53314  0.016481695  0.015188683         1622 
 4266000   0.56882715   -7.4010585    843.64551  0.016480026  0.015183377         1580 
 4267000   0.58251724   -7.4372252     842.7546  0.016458765  0.015178075         1663 
 4268000   0.57351592   -7.4429101    844.02039  0.016479623  0.015172774         1671 
 4269000   0.55442487   -7.4425212     842.8433  0.016452786  0.015167473         1666 
 4270000   0.57214757   -7.4247589    844.29092  0.016477184  0.015162169         1688 
 4271000   0.56311927   -7.4359526    843.19259  0.016451896   0.01515687         1639 
 4272000   0.56223967   -7.4343602    844.16343  0.016466983  0.015151571         1667 
 4273000   0.56954623    -7.430302    843.95204  0.016459007  0.015146276         1615 
 4274000   0.56881005   -7.4363745    844.67369  0.016469227   0.01514099         1705 
 4275000   0.57863333   -7.4478003    842.66474  0.016426213  0.015135711         1622 
 4276000   0.57258875   -7.4183296    844.49394   0.01645802  0.015130433         1685 
 4277000   0.56799772   -7.4410884    844.58422  0.016455931  0.015125153         1614 
 4278000   0.56233651   -7.4359113     841.1375  0.016384944  0.015119875         1701 
 4279000   0.57598502   -7.4474648    843.50262  0.016427176  0.015114591         1723 
 4280000   0.57003902   -7.4357958    843.58863  0.016425012  0.015109313         1693 
 4281000   0.56598326   -7.4155732    843.14267  0.016412495  0.015104039         1598 
 4282000   0.55926311   -7.4468202    844.58895  0.016436808  0.015098775         1803 
 4283000   0.56558448   -7.4249486    843.87316  0.016419044  0.015093503         1687 
 4284000   0.56920986   -7.4508239    841.40117  0.016367125  0.015088232         1746 
 4285000    0.5622013   -7.4409781    843.63717   0.01640679  0.015082963         1655 
 4286000   0.56440186   -7.4511618    843.97865  0.016409602  0.015077704         1621 
 4287000   0.56826835   -7.4446945    842.96342  0.016386039  0.015072444         1613 
 4288000   0.56001148   -7.4282719    842.98693  0.016382675  0.015067189         1634 
 4289000   0.56663757   -7.4164074    843.46216  0.016388089   0.01506193         1521 
 4290000   0.56983409   -7.4331377    845.49484  0.016423754  0.015056678         1658 
 4291000   0.56178465     -7.45552    843.51811  0.016381537  0.015051433         1724 
 4292000    0.5637351   -7.4271599    843.04249  0.016368486  0.015046184         1612 
 4293000   0.55578539   -7.4347754    841.87532  0.016342016  0.015040943         1692 
 4294000     0.577748   -7.4342013    843.39117  0.016367629  0.015035701         1595 
 4295000   0.55517074   -7.4429635    841.01159  0.016317648  0.015030451         1594 
 4296000   0.56439921   -7.4503617    842.78519  0.016348254  0.015025204         1670 
 4297000   0.54799427   -7.4315783    843.41105  0.016356587   0.01501996         1602 
 4298000   0.56150365   -7.4320605    843.12644  0.016347263  0.015014715         1685 
 4299000    0.5776311   -7.4600081    844.14958  0.016363293  0.015009475         1748 
 4300000   0.57261861    -7.421725    843.60585   0.01634895  0.015004243         1621 
 4301000   0.56846042   -7.4361297    842.82614  0.016330042  0.014999008         1711 
 4302000   0.56127599   -7.4526074    841.95124  0.016309299  0.014993781         1663 
 4303000    0.5671465   -7.4417959    842.35332  0.016313295  0.014988544         1685 
 4304000   0.56114572   -7.4487159    841.44196   0.01629186   0.01498331         1655 
 4305000   0.56525592   -7.4405137    842.14852  0.016301752  0.014978088         1601 
 4306000   0.56251188   -7.4343514    842.18204  0.016298615  0.014972859         1620 
 4307000   0.56044925   -7.4524849    841.29545  0.016277677  0.014967634         1655 
 4308000   0.56001679   -7.4608976    842.32276   0.01629377  0.014962414         1676 
 4309000   0.55707144   -7.4511711    841.71674  0.016278269  0.014957192         1686 
 4310000   0.54961297   -7.4549061    841.34932  0.016267388  0.014951969         1661 
 4311000   0.56938185   -7.4600932    842.47742  0.016285421  0.014946749         1620 
 4312000   0.55898792   -7.4553193    842.77124  0.016287323  0.014941533         1635 
 4313000   0.57015702   -7.4450488    842.91723  0.016286367  0.014936313         1732 
 4314000   0.56925057   -7.4534143    843.18226  0.016287712  0.014931107         1725 
 4315000   0.55412132   -7.4296572    842.27279  0.016266373  0.014925888         1723 
 4316000   0.55814277   -7.4533735    842.86043   0.01627395  0.014920674         1764 
 4317000   0.55556501   -7.4437084     843.3545  0.016279718  0.014915466         1664 
 4318000   0.56359598   -7.4559466    842.31877  0.016255959  0.014910261         1653 
 4319000   0.55994735   -7.4363104    842.33583  0.016252524  0.014905066         1706 
 4320000   0.55805577   -7.4505541    842.41666  0.016250321  0.014899872         1667 
 4321000   0.55276247   -7.4636296    842.75785  0.016253141  0.014894677         1654 
 4322000   0.56034928   -7.4541338    842.99673  0.016253986  0.014889483         1631 
 4323000   0.56577869   -7.4283964    843.70837  0.016263944  0.014884284         1637 
 4324000   0.55804007   -7.4662586    842.68021  0.016240368  0.014879095         1543 
 4325000   0.55097898   -7.4577145     843.4982  0.016252374  0.014873914         1584 
 4326000   0.56061639   -7.4636525     842.5443  0.016230242  0.014868733         1659 
 4327000    0.5655189   -7.4461912     841.9403  0.016214858  0.014863547         1625 
 4328000   0.55204035    -7.452961    842.44363  0.016220803  0.014858362         1628 
 4329000   0.56455441   -7.4476194    841.08315  0.016190867  0.014853177         1664 
 4330000   0.57374577   -7.4575422    841.64854  0.016198009  0.014847995         1620 
 4331000   0.54933424    -7.439974    842.63848  0.016213316  0.014842816         1708 
 4332000   0.55975446   -7.4439594    841.68991  0.016191326  0.014837641         1647 
 4333000   0.56175636   -7.4475737    842.12569  0.016195971  0.014832469         1685 
 4334000   0.56351516   -7.4586061    843.13702  0.016211679  0.014827301         1612 
 4335000   0.56817378    -7.444436     841.8626  0.016183441  0.014822128         1614 
 4336000   0.56302189    -7.433606    843.20506  0.016205509  0.014816959         1612 
 4337000    0.5544024   -7.4644746    841.07268    0.0161608  0.014811788         1612 
 4338000   0.54673325   -7.4674692    842.16531  0.016178064  0.014806624         1587 
 4339000   0.54858092   -7.4447035    840.80459  0.016148202  0.014801463         1707 
 4340000   0.55505002     -7.45913    841.24884  0.016153011  0.014796309         1706 
 4341000   0.54978565   -7.4535889    843.49196  0.016192351  0.014791148         1610 
 4342000   0.55367852     -7.45849    841.57713  0.016151872  0.014785992         1716 
 4343000   0.54744656   -7.4693422    842.48341  0.016165542   0.01478084         1806 
 4344000    0.5560874   -7.4634053    843.56529  0.016182575  0.014775685         1728 
 4345000   0.56666973    -7.464932    842.26074  0.016153831  0.014770527         1742 
 4346000   0.56351176   -7.4725513    841.10499  0.016127953  0.014765371         1708 
 4347000   0.56999934   -7.4550106    841.00241  0.016122276  0.014760218         1719 
 4348000   0.56020691   -7.4663698    841.75807  0.016133051  0.014755068         1730 
 4349000   0.55947951   -7.4565711     841.6664  0.016127585  0.014749922         1605 
 4350000   0.54786708   -7.4528055    841.58023  0.016122227  0.014744774         1642 
 4351000   0.54944802   -7.4718614     841.9487  0.016125578  0.014739636         1661 
 4352000   0.55440744   -7.4812825    841.08383  0.016105312  0.014734492         1735 
 4353000   0.54776139   -7.4767529     842.8509  0.016135441  0.014729354         1746 
 4354000   0.56446226   -7.4767528     841.4488    0.0161049  0.014724218         1685 
 4355000   0.54214643   -7.4850429    842.13354  0.016114304  0.014719082         1669 
 4356000   0.55292906   -7.4835404    840.44701   0.01607834  0.014713949         1757 
 4357000    0.5566605   -7.4523633    840.72478  0.016079963  0.014708819         1625 
 4358000   0.54833336   -7.4599365    840.14083  0.016065107  0.014703686         1754 
 4359000   0.56640384   -7.4795434    842.38298  0.016104286   0.01469856         1716 
 4360000   0.55749255   -7.4817248    841.49793  0.016083676  0.014693432         1775 
 4361000   0.55749502   -7.4551195    841.68883  0.016083636  0.014688306         1767 
 4362000   0.55607701   -7.4535145    841.72043  0.016080552  0.014683179         1752 
 4363000   0.54847568    -7.456155    843.28999  0.016106845  0.014678056         1605 
 4364000   0.56103967   -7.4661983    841.49256  0.016068831  0.014672938         1675 
 4365000   0.55861968   -7.4639251    842.61155  0.016086513  0.014667819         1716 
 4366000   0.55222123   -7.4739679    841.20606  0.016056002  0.014662711         1710 
 4367000   0.55700565   -7.4821483     840.3733  0.016036434  0.014657596         1745 
 4368000   0.55190002    -7.476927    842.78711  0.016078814  0.014652483         1757 
 4369000   0.56610388   -7.4731531    841.31987  0.016047148  0.014647372         1736 
 4370000   0.54456955   -7.4780078    841.12105  0.016039684  0.014642257         1701 
 4371000   0.55618028    -7.486952     840.9467  0.016032691  0.014637152         1740 
 4372000   0.55296818   -7.4763409    840.89651  0.016028067  0.014632046         1858 
 4373000   0.53796969   -7.4918827    841.13783     0.016029   0.01462694         1859 
 4374000    0.5365089   -7.4810889    841.99798  0.016041723  0.014621842         1810 
 4375000   0.55994665   -7.4591181     840.7615  0.016014505  0.014616742         1654 
 4376000     0.564871   -7.4833061     840.5856  0.016007495  0.014611645         1754 
 4377000    0.5599218    -7.455829     841.4461  0.016020221  0.014606556         1778 
 4378000    0.5437866   -7.4764872    842.88306  0.016043914   0.01460147         1741 
 4379000   0.55935066   -7.4791388    840.84871  0.016001536  0.014596389         1656 
 4380000   0.55354255   -7.4683487    841.01429  0.016001033  0.014591307         1706 
 4381000   0.54812345   -7.4457307    843.36527    0.0160421  0.014586242         1724 
 4382000   0.54728604   -7.4709766    842.24956  0.016017221  0.014581166         1774 
 4383000   0.55016944   -7.4639998    840.97261  0.015989288  0.014576092         1741 
 4384000   0.54918931   -7.4689534    842.90161  0.016022309  0.014571017         1690 
 4385000   0.54943034   -7.4649245    842.20634  0.016005442  0.014565946         1664 
 4386000   0.54735718   -7.4662162    841.42864  0.015987016  0.014560879         1641 
 4387000   0.56179934   -7.4878694    840.16627  0.015959393  0.014555804         1754 
 4388000   0.55178343   -7.4727365    841.29415  0.015977175  0.014550734         1758 
 4389000   0.55227372   -7.4764944     842.7455  0.016001092  0.014545666         1767 
 4390000   0.54838212    -7.481145    841.20633   0.01596823  0.014540607         1691 
 4391000   0.55683195     -7.48806    841.13706  0.015963278  0.014535546         1777 
 4392000   0.54714546   -7.4701913      841.711  0.015970534  0.014530493         1706 
 4393000   0.54082324   -7.4676886    840.67476  0.015947241   0.01452544         1703 
 4394000   0.53844015   -7.4838882    842.20957   0.01597272   0.01452039         1742 
 4395000    0.5522132   -7.4663326    840.52276  0.015937102  0.014515336         1739 
 4396000   0.56010956   -7.4834016    842.18602  0.015965006  0.014510285         1711 
 4397000   0.54489857   -7.4746581    841.01596    0.0159392  0.014505242         1740 
 4398000   0.54273992    -7.495535    841.32508  0.015941433  0.014500194         1748 
 4399000    0.5451431   -7.4592205    840.21107  0.015916706  0.014495149         1640 
 4400000   0.55617844    -7.456169    841.72618  0.015941784  0.014490112         1665 
 4401000   0.54610465   -7.4760571    840.92915   0.01592307  0.014485073         1745 
 4402000   0.55903492   -7.4836197    841.34041  0.015927238   0.01448004         1613 
 4403000   0.53981591   -7.4706388    842.38681  0.015943425  0.014475008         1633 
 4404000    0.5535388   -7.4908094    841.00917  0.015913737   0.01446998         1723 
 4405000   0.55334985   -7.4884376     842.8619  0.015945174  0.014464949         1675 
 4406000   0.55377861   -7.4822372    842.72619  0.015938988  0.014459922         1694 
 4407000   0.53532819   -7.4687169    841.18688  0.015906264    0.0144549         1707 
 4408000    0.5394281   -7.4726894    841.68024  0.015911983  0.014449881         1682 
 4409000   0.54896108   -7.4866669    842.70626  0.015927766  0.014444858         1671 
 4410000   0.54198743   -7.4666621    840.07971  0.015874522  0.014439847         1791 
 4411000   0.54243854   -7.4916264    841.34886    0.0158949  0.014434835         1836 
 4412000   0.56333146    -7.494677    838.67617  0.015840816  0.014429817         1828 
 4413000   0.53727682   -7.4735566    840.57614  0.015873105  0.014424803         1728 
 4414000   0.55101366   -7.4902431    843.12996  0.015917723  0.014419793         1645 
 4415000   0.54737828    -7.484754    840.28915  0.015860497  0.014414789         1711 
 4416000   0.53660673   -7.4723497    841.89453  0.015887201  0.014409779         1666 
 4417000   0.54753003   -7.4717561    841.28469  0.015872098  0.014404775         1638 
 4418000   0.54025863    -7.496856    842.06676  0.015883257  0.014399772         1734 
 4419000   0.54779847   -7.4847238    839.99261  0.015840549   0.01439477         1792 
 4420000   0.55616959   -7.4683902    841.91509  0.015873211  0.014389776         1537 
 4421000   0.54959685   -7.4955702    840.81164  0.015848821  0.014384787         1709 
 4422000   0.53497462   -7.4680705    841.38789  0.015856096  0.014379788         1695 
 4423000   0.53591718   -7.4801546    842.63446  0.015875998   0.01437479         1689 
 4424000   0.54737752   -7.4793947    840.80344  0.015837919  0.014369792         1678 
 4425000   0.55521753   -7.5048116    841.05119  0.015839005  0.014364792         1676 
 4426000   0.54483866    -7.481627    840.00528  0.015815734  0.014359797         1641 
 4427000   0.54537139   -7.4807079     840.8887  0.015828791  0.014354807         1729 
 4428000    0.5361747   -7.4910282    841.18421  0.015830778  0.014349816         1655 
 4429000   0.54421743    -7.481152    840.03233   0.01580553  0.014344836         1602 
 4430000   0.53931058   -7.4829769    841.24927  0.015824855  0.014339856         1633 
 4431000    0.5527813   -7.4916368    838.75342  0.015774344  0.014334871         1667 
 4432000   0.53643353   -7.4969894    840.74679  0.015808265  0.014329887         1681 
 4433000   0.54106525    -7.461104    840.56092  0.015801205  0.014324909         1786 
 4434000   0.53700277   -7.4822087     843.0773  0.015844935  0.014319933         1695 
 4435000   0.54686493   -7.4868792    839.66896   0.01577732  0.014314958         1768 
 4436000   0.53370295   -7.5002204    841.53567  0.015808831  0.014309987         1623 
 4437000   0.55071299   -7.4763518    842.23673  0.015818435  0.014305023         1716 
 4438000   0.55627688   -7.4877774    839.51809  0.015763822  0.014300054         1731 
 4439000   0.55199316   -7.4938179    840.24098  0.015773841  0.014295085         1757 
 4440000   0.54646238   -7.4809237    840.06391  0.015766965  0.014290119         1671 
 4441000   0.52872365    -7.506153    840.94289  0.015779909  0.014285157         1687 
 4442000   0.53965924   -7.4682657    841.35889   0.01578416  0.014280198         1697 
 4443000   0.54058805   -7.5189355    840.95848  0.015773098  0.014275238         1733 
 4444000   0.54305015   -7.4995582    839.94354  0.015750516  0.014270279         1782 
 4445000   0.52961662   -7.4729717    839.24382  0.015733855  0.014265329         1746 
 4446000   0.54252601   -7.4909791    840.38027  0.015751617  0.014260381         1743 
 4447000   0.53924293   -7.4826787    840.74842  0.015754974  0.014255428         1768 
 4448000   0.54302825   -7.4934009    841.67856  0.015768858  0.014250485         1723 
 4449000   0.53124714   -7.4919002    841.35595  0.015759271  0.014245538         1739 
 4450000   0.52712778   -7.4868915    839.42358  0.015719543  0.014240595         1811 
 4451000   0.53894065   -7.4854577    840.80735  0.015741918  0.014235657         1801 
 4452000   0.52783877     -7.50068    840.99529    0.0157419  0.014230713         1800 
 4453000   0.52699117   -7.4961282    840.10305  0.015721668  0.014225773         1873 
 4454000   0.52404337   -7.5022357    838.83036  0.015694327  0.014220837         1847 
 4455000   0.53540777   -7.4836478    841.46845  0.015740151  0.014215904         1709 
 4456000    0.5423961   -7.4895238    839.83119  0.015705999  0.014210981         1731 
 4457000   0.52487192   -7.4705845    840.64246  0.015717644  0.014206054         1728 
 4458000   0.54349023   -7.5125769    840.98382  0.015720499  0.014201126         1725 
 4459000   0.53872293   -7.4992623    839.91625  0.015697022  0.014196197         1819 
 4460000   0.53615965     -7.50418    839.64331  0.015688403  0.014191274         1755 
 4461000   0.53749345   -7.4945552    839.27214  0.015677952  0.014186355         1727 
 4462000   0.52943058   -7.5227443    840.77219  0.015702454  0.014181435         1716 
 4463000   0.52835774   -7.5124094    839.85413  0.015681793  0.014176517         1718 
 4464000   0.52880136    -7.485415    839.46873  0.015671086  0.014171595         1662 
 4465000   0.54246671   -7.4987273    840.88186   0.01569395  0.014166679         1736 
 4466000   0.54608744   -7.5055893    838.63124  0.015648441  0.014161767         1744 
 4467000   0.53279554   -7.5211192    840.88072  0.015686902  0.014156853         1703 
 4468000   0.53035452   -7.5073513    839.98379  0.015666663  0.014151943         1659 
 4469000    0.5286763   -7.4899582    840.12951  0.015665874   0.01414704         1678 
 4470000   0.54019745   -7.4958857    840.72164  0.015673409  0.014142131         1733 
 4471000   0.54724673   -7.5081929    839.20919  0.015641713  0.014137233         1783 
 4472000   0.53672683   -7.5059588    841.75666  0.015685686  0.014132334         1817 
 4473000   0.53325245   -7.4861196    839.97393  0.015648967  0.014127434         1803 
 4474000   0.54153545   -7.4994912    840.39737  0.015653356  0.014122536         1786 
 4475000   0.53403113   -7.4912346     839.9051  0.015640691  0.014117647         1805 
 4476000   0.53757409   -7.4905395     840.5278   0.01564879  0.014112755         1788 
 4477000   0.53493767   -7.4980621    840.50583  0.015644886  0.014107859         1828 
 4478000   0.52293803   -7.4947065    838.94069  0.015612265  0.014102967         1715 
 4479000   0.53055979   -7.5037226    842.07561  0.015667106  0.014098087         1751 
 4480000   0.54148104   -7.4974202    840.32657  0.015631075  0.014093203         1752 
 4481000    0.5266484    -7.482207    839.18741  0.015606401  0.014088323         1609 
 4482000    0.5236307   -7.5129161    839.70709  0.015612582  0.014083449         1758 
 4483000   0.52770755   -7.5076547    840.63556  0.015626358  0.014078575         1744 
 4484000   0.54846745   -7.4886652    839.68834  0.015605269  0.014073706         1768 
 4485000   0.52655981   -7.4935295    840.57014  0.015618174  0.014068835         1727 
 4486000   0.52494409   -7.5098304    839.27024  0.015590545  0.014063963         1732 
 4487000    0.5249159   -7.4990752    840.17586   0.01560389  0.014059091         1751 
 4488000    0.5336315   -7.4940879    840.24441  0.015601686  0.014054224         1692 
 4489000   0.55456143   -7.4958536    841.07283  0.015613589  0.014049362         1793 
 4490000    0.5295784   -7.5146563    839.26143  0.015576493    0.0140445         1807 
 4491000   0.52911382   -7.5158036    839.58603  0.015579048  0.014039637         1758 
 4492000   0.52996868   -7.4974493    838.51569  0.015555723  0.014034774         1784 
 4493000   0.53597074   -7.4905062    840.09743  0.015581598  0.014029914         1785 
 4494000    0.5332526   -7.4990544    839.60546  0.015569008  0.014025061         1704 
 4495000   0.52876379   -7.5164591    839.46141  0.015562874  0.014020204         1766 
 4496000   0.54002616   -7.5112788    839.75398  0.015564835  0.014015353         1746 
 4497000   0.52382022      -7.4902    839.91812  0.015564416  0.014010498         1793 
 4498000   0.51813041    -7.490358    839.82267  0.015559187  0.014005646         1806 
 4499000   0.52230836   -7.4995134    839.49271  0.015549617  0.014000792         1800 
 4500000   0.52142974    -7.516692    838.08863   0.01552016  0.013995946         1851 
 4501000   0.52687504   -7.5057558    841.02462   0.01557107  0.013991102         1837 
 4502000   0.53548098   -7.5252923    838.83862  0.015527148  0.013986257         1799 
 4503000   0.52640844   -7.5199763    839.50012  0.015535941  0.013981418         1821 
 4504000   0.53208086   -7.5088216    840.52814  0.015551512  0.013976578         1821 
 4505000    0.5317608   -7.5023372    838.17341  0.015504503  0.013971735         1784 
 4506000   0.53238134   -7.5010297    840.10492  0.015536783  0.013966902         1818 
 4507000   0.53046117   -7.5094346    840.12722  0.015533748  0.013962072         1790 
 4508000   0.54588281   -7.5237315     838.4311  0.015498948  0.013957245         1707 
 4509000   0.52737655    -7.514678    839.47611  0.015514824  0.013952422         1838 
 4510000   0.53010966   -7.5133119    840.15146  0.015523863  0.013947597         1766 
 4511000     0.529401   -7.5053811    839.62069  0.015510616  0.013942775         1749 
 4512000   0.53417777   -7.5050812     839.1369  0.015498244  0.013937956         1861 
 4513000   0.53641941   -7.5060782    837.71013  0.015468464  0.013933134         1784 
 4514000   0.53494547   -7.5035657    839.79281  0.015503486  0.013928317         1755 
 4515000   0.53449259   -7.5042013    837.83872  0.015463985  0.013923499         1808 
 4516000   0.53322994   -7.5064154    838.04769  0.015464417  0.013918683         1769 
 4517000   0.53111788   -7.5081123    840.17731  0.015500282  0.013913873         1840 
 4518000   0.52308395   -7.5232816    839.30933  0.015480842  0.013909065         1897 
 4519000   0.52654401   -7.5164767     838.2474  0.015457834  0.013904254         1832 
 4520000   0.52168025   -7.5157158    839.99894  0.015486706  0.013899445         1863 
 4521000   0.51591463   -7.5038686      839.481  0.015473734  0.013894639         1807 
 4522000   0.53127755   -7.5100384    839.22039  0.015465509  0.013889835         1726 
 4523000   0.52538263   -7.5113733    839.31562  0.015463844  0.013885035         1932 
 4524000   0.52978655   -7.5111853     839.1764  0.015457862  0.013880236         1846 
 4525000   0.53151214    -7.507232    839.63079  0.015462814  0.013875441         1737 
 4526000   0.53133103    -7.517707    839.59758  0.015458786  0.013870646         1736 
 4527000   0.53467854   -7.5197917    838.50232  0.015435209   0.01386585         1704 
 4528000   0.52173028   -7.5326341    838.91563  0.015439407  0.013861052         1838 
 4529000   0.52573298   -7.5081039    839.47396  0.015446271  0.013856262         1719 
 4530000   0.53778035   -7.5171268    839.74331  0.015447817  0.013851469         1808 
 4531000   0.53159791   -7.5170977    839.82073  0.015445831  0.013846682         1788 
 4532000   0.53632173   -7.5017345    838.33048  0.015415021  0.013841898         1710 
 4533000   0.51758353   -7.5202679    838.39214  0.015412754   0.01383711         1816 
 4534000   0.52345194   -7.5317081    838.76555  0.015416217   0.01383233         1795 
 4535000   0.53256404   -7.5252814    839.60728  0.015428285  0.013827551         1846 
 4536000   0.51474136   -7.5256909    837.36292  0.015383652  0.013822769         1812 
 4537000   0.52870198   -7.5014467    839.34782  0.015416718  0.013817991         1823 
 4538000   0.52220876   -7.5017723    839.47361  0.015415631   0.01381322         1829 
 4539000   0.52418131   -7.5254193    839.16668    0.0154066   0.01380845         1809 
 4540000   0.54125855   -7.5094395    839.26239  0.015404963  0.013803681         1839 
 4541000   0.52576449   -7.5277122    838.03094  0.015378972  0.013798909         1775 
 4542000   0.53149771   -7.5050233    839.62301  0.015404796  0.013794142         1851 
 4543000   0.51694005   -7.5100949    839.83473  0.015405289   0.01378938         1873 
 4544000   0.52655898   -7.5209388     838.8304   0.01538348  0.013784622         1782 
 4545000   0.52554551   -7.5231298    840.06942  0.015402813  0.013779856         1920 
 4546000   0.53598165   -7.5229322    837.94307  0.015360446  0.013775096         1782 
 4547000   0.51323057   -7.5165195    838.84381  0.015373576  0.013770335         1844 
 4548000   0.53121235   -7.5291815    838.79033  0.015369216  0.013765585         1892 
 4549000   0.52237092   -7.5256582    838.64109  0.015363103  0.013760835         1838 
 4550000   0.51479868   -7.5319057    839.34271  0.015372577  0.013756081         1784 
 4551000   0.51949153   -7.5142673    838.90426  0.015361171  0.013751333         1807 
 4552000   0.51914793   -7.5358122    840.13435  0.015380315  0.013746585         1766 
 4553000   0.51642622   -7.5248251    837.81521   0.01533449  0.013741839         1859 
 4554000   0.52790919   -7.5236246    839.45358  0.015361103  0.013737098         1850 
 4555000   0.53171071   -7.5416027    839.82925  0.015364604  0.013732354         1833 
 4556000   0.51628132   -7.5242012    838.36221  0.015334398  0.013727617         1879 
 4557000   0.51762534   -7.5402049    837.78044  0.015320394  0.013722886         1882 
 4558000   0.51844278   -7.5258589    838.47795  0.015329785  0.013718151         1789 
 4559000   0.52236504   -7.5080404    837.84642  0.015314879  0.013713417         1760 
 4560000   0.51755586   -7.5216745    839.94636  0.015349897  0.013708691         1748 
 4561000   0.52946621   -7.5435847    838.31833  0.015316786  0.013703963         1826 
 4562000   0.50699225   -7.5206125    840.08295  0.015345663   0.01369924         1791 
 4563000   0.52424005   -7.5216313    837.96003  0.015303529  0.013694513         1879 
 4564000   0.52823833   -7.5270006    838.74013   0.01531442  0.013689791         1905 
 4565000   0.53075155   -7.5231091    840.09397  0.015335779  0.013685077         1897 
 4566000   0.53089614   -7.5207034    839.43248  0.015320348  0.013680359         1861 
 4567000   0.52396197   -7.5210058    839.78919  0.015323502  0.013675643         1776 
 4568000   0.52311441   -7.5263591    838.92887  0.015304453  0.013670932         1777 
 4569000   0.52087639    -7.521924    837.99648  0.015284097  0.013666215         1840 
 4570000   0.51761374   -7.5130168    840.44302  0.015325365  0.013661503         1825 
 4571000   0.51746088   -7.5215277    838.16834  0.015280543  0.013656795         1808 
 4572000   0.52652039   -7.5246144    839.67274  0.015304621  0.013652085         1859 
 4573000   0.51791634   -7.5309934    837.90569  0.015269074  0.013647379         1894 
 4574000   0.51537246   -7.5278791    838.54934  0.015277462  0.013642667         1901 
 4575000   0.51992129   -7.5166077    838.76891  0.015278122   0.01363796         1892 
 4576000   0.53775418   -7.5358005    838.34593  0.015267081  0.013633256         1897 
 4577000   0.52659294   -7.5380164    839.03171  0.015276231  0.013628558         1913 
 4578000   0.51840344   -7.5355628     838.0104  0.015254303  0.013623861         1753 
 4579000   0.51905986   -7.5155106    836.83587  0.015229596  0.013619163         1788 
 4580000   0.50431238   -7.5292508    837.79382  0.015243701  0.013614471         1788 
 4581000   0.51352948   -7.5187033    838.81115   0.01525888  0.013609779         1847 
 4582000   0.52889768   -7.5401183    839.08501  0.015260531  0.013605088         1783 
 4583000   0.51347849   -7.5282246    837.66936   0.01523146  0.013600401         1867 
 4584000   0.51219714   -7.5219844    838.19911  0.015237767  0.013595717         1858 
 4585000   0.52020666   -7.5424158    838.93131  0.015247752   0.01359103         1807 
 4586000   0.53064451   -7.5248124    838.21081  0.015231335  0.013586347         1818 
 4587000    0.5276263    -7.518755    839.03289  0.015242949  0.013581664         1836 
 4588000   0.50408732   -7.5285998    838.06999  0.015222137  0.013576985         1963 
 4589000   0.51302382   -7.5341575    839.52103   0.01524517  0.013572309         1873 
 4590000   0.51240015   -7.5295039    839.24241   0.01523679  0.013567638         1855 
 4591000   0.51003422    -7.525678    838.68594  0.015223371  0.013562964         1807 
 4592000   0.52225713   -7.5309815    837.73654  0.015202826  0.013558292         1785 
 4593000   0.51454675   -7.5303689    839.15834  0.015225313  0.013553623         1767 
 4594000   0.52062522   -7.5411503    837.45134  0.015191034  0.013548954         1897 
 4595000    0.5119048   -7.5285723    838.91146  0.015214209  0.013544283         1866 
 4596000   0.52240182   -7.5344952    838.25173  0.015198936  0.013539616         1880 
 4597000    0.5107343   -7.5336811    839.41819  0.015216775  0.013534957         1834 
 4598000   0.51411108   -7.5221425    839.06935  0.015207144  0.013530301         1852 
 4599000   0.52414959   -7.5223404    837.88094  0.015182303  0.013525647         1833 
 4600000   0.51286025   -7.5483011    838.53358  0.015190826  0.013520992         1865 
 4601000   0.51452129   -7.5229988    837.97439  0.015177396  0.013516337         1795 
 4602000    0.5047465   -7.5545387    837.61944  0.015167671  0.013511687         1914 
 4603000   0.51847864   -7.5311903    838.64098   0.01518287   0.01350704         1832 
 4604000   0.50926054     -7.54407    837.76848  0.015163779  0.013502391         1818 
 4605000   0.50733353   -7.5338044    839.19965  0.015186385  0.013497743         1829 
 4606000   0.51474242    -7.516113     838.3195  0.015167164  0.013493098         1852 
 4607000   0.52189798   -7.5379393    839.34208  0.015182369  0.013488456         1863 
 4608000   0.51878609   -7.5337263    838.58319   0.01516535  0.013483815         1873 
 4609000   0.51697305   -7.5220476    838.14641  0.015154162  0.013479174         1830 
 4610000   0.50945459    -7.541154    837.98967  0.015148042  0.013474536         1799 
 4611000   0.51709575   -7.5497306    838.73137  0.015158161  0.013469905         1835 
 4612000   0.52005332   -7.5517422    835.67309  0.015099615  0.013465274         1806 
 4613000   0.52800229   -7.5458834    838.60203  0.015149253  0.013460643         1812 
 4614000   0.52020885   -7.5394401     838.0693  0.015136348  0.013456013         1825 
 4615000   0.51948615    -7.539254    837.93528  0.015130648  0.013451383         1809 
 4616000   0.51135939   -7.5476389    839.41846  0.015154146  0.013446758         1861 
 4617000   0.52307115   -7.5408455     836.9689  0.015106651   0.01344213         1839 
 4618000   0.51875798   -7.5384574    837.39464  0.015111063  0.013437507         1931 
 4619000   0.51214298   -7.5249615    836.98125  0.015100333  0.013432886         1860 
 4620000   0.51735243   -7.5369496    837.36906  0.015104059   0.01342827         1915 
 4621000    0.5086419   -7.5470554    836.98655  0.015093893  0.013423653         1930 
 4622000   0.51421127   -7.5486097    838.19556  0.015112425  0.013419042         1867 
 4623000   0.50354464   -7.5507218    837.57215  0.015097919  0.013414427         1925 
 4624000   0.50283703   -7.5359026    836.85507  0.015081731  0.013409816         1830 
 4625000   0.51220989   -7.5442293    838.37939  0.015105935  0.013405208         1888 
 4626000   0.51195619   -7.5609432    838.40765  0.015103179  0.013400606         1892 
 4627000    0.5156254    -7.517633    839.07586  0.015111949  0.013396003         1792 
 4628000   0.51299618   -7.5284176    836.91229  0.015069726  0.013391406         1888 
 4629000   0.51424676   -7.5531155    838.39121  0.015093095  0.013386806         1830 
 4630000   0.51683345   -7.5510891    835.63414  0.015040211  0.013382209         1932 
 4631000    0.5069264   -7.5334846     837.5993  0.015072326  0.013377615         1836 
 4632000   0.52256224   -7.5480233    838.57095  0.015086553  0.013373025         1929 
 4633000   0.51456715   -7.5450979    838.61727   0.01508413  0.013368431         1864 
 4634000   0.50960266   -7.5351834    837.83074   0.01506673  0.013363837         1806 
 4635000    0.5132975    -7.553894    836.34066  0.015036689  0.013359246         1855 
 4636000   0.51098938    -7.541137    837.05826  0.015046345   0.01335466         1782 
 4637000   0.50800774   -7.5378977    838.85914  0.015075464  0.013350076         1901 
 4638000   0.50702651   -7.5423684    838.36797  0.015063389  0.013345495         1781 
 4639000   0.50762623   -7.5462721    836.81087  0.015032171  0.013340917         1941 
 4640000   0.51566529   -7.5485084    838.01253  0.015050512  0.013336334         1823 
 4641000   0.51496061   -7.5521596    837.75652  0.015042673  0.013331755         1844 
 4642000   0.51751785   -7.5355568    837.27916  0.015030862  0.013327175         1867 
 4643000   0.51733452   -7.5476693    837.76382  0.015036324  0.013322599         1878 
 4644000    0.5084794   -7.5462115     839.3078  0.015060792  0.013318029         1720 
 4645000   0.51916089   -7.5412117    837.86071  0.015031588  0.013313459         1864 
 4646000   0.51090113   -7.5535327    837.62884  0.015024193  0.013308888         1887 
 4647000   0.50688368   -7.5563705    835.94992  0.014990853  0.013304321         1876 
 4648000   0.49956601   -7.5378434     837.7734  0.015020321  0.013299755         1895 
 4649000   0.51921103   -7.5528854    836.44139  0.014993213  0.013295191         1866 
 4650000   0.51101993   -7.5504715    836.95254   0.01499915   0.01329063         1726 
 4651000   0.50852532    -7.557073    837.30087  0.015002166  0.013286071         1864 
 4652000   0.50940693    -7.538389    838.56834  0.015021645  0.013281518         1864 
 4653000   0.49963233    -7.542274    837.33441  0.014996318  0.013276958         1833 
 4654000   0.51274107   -7.5557443    836.66075  0.014981033  0.013272407         1757 
 4655000   0.51013463   -7.5458925    836.47391   0.01497447  0.013267853         1880 
 4656000   0.51039941   -7.5393863    838.06796  0.014999785  0.013263301         1885 
 4657000   0.52129356   -7.5499334    837.09452  0.014979145  0.013258756         1872 
 4658000   0.51001558   -7.5546871    838.20927  0.014995872  0.013254214         1825 
 4659000   0.51205897   -7.5527304    835.95448  0.014952323  0.013249673         1770 
 4660000   0.51664357   -7.5586254    838.68577  0.014997957   0.01324513         1829 
 4661000    0.5105475   -7.5633361    838.50987  0.014991595  0.013240597         1826 
 4662000   0.49962284   -7.5517984    837.09572  0.014963101  0.013236061         1772 
 4663000   0.50418588   -7.5513734    837.90838  0.014974415  0.013231523         1801 
 4664000   0.52041653    -7.542776    838.16482  0.014975787  0.013226988         1808 
 4665000   0.50970482   -7.5560983    836.78577  0.014947942  0.013222454         1794 
 4666000   0.51733047   -7.5554151    838.15166  0.014969132  0.013217925         1897 
 4667000   0.50583421   -7.5567616    837.00833   0.01494551  0.013213398         1890 
 4668000   0.50009281   -7.5595958    837.35432  0.014948485  0.013208876         1802 
 4669000   0.51714424   -7.5431423    836.80907  0.014935551  0.013204358         1753 
 4670000    0.5038183   -7.5551782    837.24727  0.014940173  0.013199841         1732 
 4671000   0.49597629   -7.5604483    838.30771  0.014955893  0.013195319         1803 
 4672000   0.50204585   -7.5436604    837.94598   0.01494624  0.013190803         1786 
 4673000   0.50078536   -7.5580523    836.27956  0.014913324  0.013186289         1699 
 4674000   0.52111788   -7.5625713    838.16871  0.014943815  0.013181779         1741 
 4675000   0.50788984   -7.5404317    837.65766  0.014931509  0.013177267         1722 
 4676000    0.5042354   -7.5363636    837.31409  0.014922193  0.013172759         1734 
 4677000   0.49977434   -7.5585015    836.62644   0.01490675  0.013168249         1798 
 4678000   0.48999207   -7.5570823    836.81341  0.014906894  0.013163737         1845 
 4679000   0.51020189   -7.5545071    837.60031  0.014917723  0.013159229         1725 
 4680000   0.49976414   -7.5711127    836.77765  0.014899887  0.013154728         1893 
 4681000   0.50296403    -7.578833    836.69648  0.014895259  0.013150219         1869 
 4682000   0.50277238   -7.5327913    837.64283  0.014908921  0.013145721         1819 
 4683000   0.49287433   -7.5477799    837.01451  0.014894557  0.013141221         1844 
 4684000   0.51274754   -7.5698565    837.11401  0.014893147  0.013136723         1750 
 4685000   0.50960369   -7.5607474    836.59057  0.014880658  0.013132224         1748 
 4686000   0.50560382   -7.5624853    838.09384  0.014904215  0.013127727         1821 
 4687000   0.50616089   -7.5527207    835.76183  0.014859573  0.013123232         1910 
 4688000    0.5006324   -7.5823874    836.70432  0.014873157  0.013118739         1872 
 4689000   0.49997366   -7.5613013    836.34063  0.014863521  0.013114242         1873 
 4690000   0.48806444    -7.569962     836.4084  0.014861557   0.01310975         1893 
 4691000   0.50566305   -7.5662967     835.1966  0.014836861  0.013105263         1916 
 4692000   0.50136666   -7.5531206    836.40651  0.014855188  0.013100777         1819 
 4693000   0.49229876   -7.5583797    838.26708  0.014885061  0.013096293         1844 
 4694000    0.4869107   -7.5553358    837.51946  0.014868617  0.013091814         1816 
 4695000    0.5012033   -7.5737515    836.15411  0.014841216  0.013087337         1895 
 4696000   0.49507834    -7.575801    837.18124  0.014856283  0.013082856         1891 
 4697000   0.50465033   -7.5740683     836.1767  0.014835297  0.013078378         1855 
 4698000   0.49409019   -7.5714923    836.23313  0.014833141  0.013073903         1850 
 4699000   0.49913044   -7.5755062    836.75431  0.014839227   0.01306943         1846 
 4700000   0.49083095   -7.5435222    836.06634  0.014823871   0.01306496         1821 
 4701000   0.48870093   -7.5839073    835.26412  0.014806497  0.013060493         1838 
 4702000   0.50467068   -7.5616332     836.9602  0.014833408  0.013056027         1846 
 4703000   0.49081802   -7.5563142    836.10622  0.014815122   0.01305156         1875 
 4704000   0.49759794   -7.5645704    837.00144  0.014827832  0.013047097         1757 
 4705000    0.5001985   -7.5617562    837.88832  0.014840388  0.013042641         1845 
 4706000   0.49334574   -7.5701646    836.38018  0.014810529  0.013038181         1821 
 4707000   0.50594728   -7.5542634      836.059  0.014801696  0.013033723         1798 
 4708000   0.49447748   -7.5688689    834.83394  0.014776868   0.01302927         1877 
 4709000   0.49839242   -7.5609189    835.35431  0.014782939  0.013024817         1867 
 4710000   0.49964999   -7.5764165    835.98848   0.01479102  0.013020365         1808 
 4711000   0.50060261   -7.5676347    836.29247  0.014793258  0.013015916         1863 
 4712000   0.49966558   -7.5685231    836.62045  0.014795919  0.013011466         1891 
 4713000   0.49067397   -7.5468397    835.97681  0.014781399  0.013007017         1900 
 4714000   0.49274866   -7.5683145    836.74286  0.014791806  0.013002574         1880 
 4715000   0.50222061   -7.5782438    835.59156   0.01476832  0.012998129         1911 
 4716000   0.48985666   -7.5690288    836.85786  0.014787565   0.01299369         1836 
 4717000   0.49416676   -7.5691847    837.65607  0.014798531  0.012989254         1893 
 4718000     0.490415   -7.5809672    837.16791  0.014786772  0.012984818         1902 
 4719000   0.49789977   -7.5634902    836.54127  0.014772573  0.012980384         1836 
 4720000   0.49228003   -7.5704509    835.68297   0.01475429  0.012975953         1895 
 4721000   0.50416789   -7.5579101    836.96388  0.014773775  0.012971522         1841 
 4722000   0.50161429   -7.5621811     836.6363  0.014764865  0.012967094         1854 
 4723000    0.5016693   -7.5794201    836.15862   0.01475331  0.012962671         1825 
 4724000   0.50107694   -7.5752904    836.85324  0.014762441  0.012958245         1895 
 4725000   0.50541191   -7.5637291    835.75141  0.014739884  0.012953829         1809 
 4726000   0.47783187   -7.5739563    835.78486  0.014737355  0.012949409         1854 
 4727000   0.49120803   -7.5657238    835.38803  0.014727241  0.012944987         1963 
 4728000   0.48738488   -7.5601055    837.37385  0.014759127   0.01294057         1817 
 4729000   0.50390468    -7.580423    836.49914  0.014740592  0.012936155         1857 
 4730000   0.49565716    -7.574574     836.3235  0.014734382  0.012931743         1846 
 4731000   0.49935368   -7.5664037    837.55588  0.014752975  0.012927329         1757 
 4732000   0.49608291   -7.5695914    836.39249  0.014729369  0.012922919         1824 
 4733000   0.49455569   -7.5682649    836.65565   0.01473089  0.012918509         1770 
 4734000   0.49454956   -7.5781003     835.1053  0.014700488  0.012914102         1884 
 4735000   0.49663039    -7.574004    836.78144  0.014726882  0.012909697         1803 
 4736000   0.50461248    -7.581935    835.62591   0.01470344  0.012905296         1867 
 4737000   0.49550554   -7.5690017    836.56875  0.014716923  0.012900896         1881 
 4738000   0.49420995   -7.5767883    836.87511  0.014719205  0.012896493         1807 
 4739000   0.48894105   -7.5705688    837.22601  0.014722269  0.012892095         1853 
 4740000   0.48970583   -7.5803942    836.37346  0.014704175  0.012887697         1818 
 4741000   0.48773113   -7.5582189    837.17064  0.014715085    0.0128833         1902 
 4742000   0.49070021   -7.5811634    835.54245  0.014683369  0.012878906         1853 
 4743000   0.49671299   -7.5900503    836.66963  0.014700078  0.012874517         1882 
 4744000   0.49464714   -7.5737013    836.02369  0.014685633  0.012870127         1845 
 4745000   0.49056772   -7.5791753    836.83403  0.014696769  0.012865741         1846 
 4746000   0.48903936   -7.5813056    837.24858  0.014700951  0.012861354         1835 
 4747000   0.49171457   -7.5750906    837.96669  0.014710461  0.012856972         1846 
 4748000   0.48703274   -7.5829265    836.81982  0.014687234  0.012852591         1884 
 4749000   0.49204639   -7.5789886    835.20781  0.014655854  0.012848208         1799 
 4750000   0.50065661   -7.5625988    836.53688  0.014676086   0.01284383         1876 
 4751000   0.48666174   -7.5693698    836.83967  0.014678308  0.012839453         1800 
 4752000   0.48673288   -7.5918231    835.58049  0.014653137  0.012835079         1951 
 4753000   0.49935806   -7.5670394    835.80482  0.014653987  0.012830706         1895 
 4754000   0.50252561   -7.5661297    836.41746  0.014661644  0.012826338         1836 
 4755000   0.49639529   -7.5857506    835.31557  0.014639249  0.012821967         1900 
 4756000   0.49085987   -7.5810935    835.15823  0.014633414    0.0128176         1897 
 4757000   0.49580566   -7.5817647    836.65612  0.014656578  0.012813233         1941 
 4758000   0.48205414   -7.5805043    835.20788  0.014628133  0.012808866         1927 
 4759000   0.48494492   -7.5733886    836.63826  0.014650106  0.012804502         1889 
 4760000   0.49974575   -7.5812278    835.38507  0.014625089   0.01280014         1923 
 4761000   0.49910826   -7.5642371    837.19521    0.0146537  0.012795779         1902 
 4762000   0.48985732   -7.5837013    836.91549  0.014645728  0.012791422         1932 
 4763000   0.48700795   -7.5666269    835.90961  0.014625054  0.012787067         1949 
 4764000   0.50079524   -7.5721299    836.63872  0.014634738  0.012782716         1872 
 4765000   0.49641611   -7.5985045    837.36518  0.014644372  0.012778364         1953 
 4766000   0.48331008   -7.5755675    834.67329  0.014594232  0.012774015         1873 
 4767000   0.48787266   -7.5871416    836.18169  0.014617539  0.012769669         1884 
 4768000   0.49612686   -7.5722353    836.62042  0.014622141   0.01276532         1881 
 4769000   0.48567758   -7.5860749    834.08946  0.014574849  0.012760976         1894 
 4770000   0.48271133   -7.5893037    837.11071  0.014624576  0.012756634         1883 
 4771000   0.49873806    -7.594798    835.76955  0.014598085  0.012752297         1893 
 4772000   0.48517941   -7.5846341    835.22766  0.014585563  0.012747957         1921 
 4773000   0.49515187   -7.5976982      835.384  0.014585236  0.012743623         1860 
 4774000   0.48471143   -7.5865184    835.75343   0.01458863  0.012739292         1949 
 4775000   0.49432636   -7.5904118    835.70088  0.014584658  0.012734956         1919 
 4776000   0.48989486   -7.6024947    835.64472  0.014580624  0.012730621         1873 
 4777000   0.49934924   -7.5860928    834.42114  0.014556227  0.012726288         1906 
 4778000   0.48442895    -7.598244    835.53177  0.014572551  0.012721958         1890 
 4779000   0.49467635   -7.5845142    834.71039  0.014555179  0.012717627         1940 
 4780000   0.48818339   -7.5845905    835.44467  0.014564935    0.0127133         1879 
 4781000   0.47670565   -7.6003634    834.89863  0.014552371  0.012708975         1913 
 4782000    0.4979235    -7.582256     834.8838  0.014549069  0.012704653         1886 
 4783000   0.48092042   -7.5868417    835.30836  0.014553425  0.012700331         1914 
 4784000    0.4862743   -7.5925467    834.82492  0.014541961   0.01269601         1904 
 4785000   0.48659089   -7.5865173     835.2678  0.014546635  0.012691694         1872 
 4786000   0.47816509   -7.5795779    836.91944  0.014572354  0.012687379         1949 
 4787000   0.48279157   -7.5947136    834.07595   0.01451981  0.012683063         1908 
 4788000   0.48052714   -7.5927808    835.92027  0.014548877  0.012678749         1846 
 4789000   0.49093383   -7.5815743    836.17791  0.014550322  0.012674435         1869 
 4790000    0.4910525   -7.5938753    835.69083   0.01453881  0.012670129         1882 
 4791000   0.47754801   -7.5962797    835.59975  0.014534192  0.012665824         1871 
 4792000   0.48381277   -7.5980512    834.87838  0.014518614  0.012661519         1963 
 4793000   0.47603625   -7.5909133    834.39957   0.01450726  0.012657213         1862 
 4794000   0.49731772   -7.6087581    834.18011  0.014500419  0.012652911         1904 
 4795000    0.4893276   -7.5947686    835.04185  0.014512371  0.012648607         1956 
 4796000   0.49342067    -7.603699     836.0055  0.014526089  0.012644308         1853 
 4797000   0.49017032    -7.594536    836.18027  0.014526097  0.012640013         1946 
 4798000   0.47768834   -7.5857425    835.59757  0.014512949  0.012635718         1835 
 4799000   0.47184997   -7.5943627    833.49911  0.014473486  0.012631427         1865 
 4800000   0.48580278   -7.5928937    836.26957  0.014518569  0.012627138         1916 
 4801000   0.48820377   -7.5835774    835.93315  0.014509705  0.012622851         1941 
 4802000   0.47836621   -7.5784414    836.58397  0.014517978  0.012618567         1861 
 4803000   0.47503022   -7.5895991    835.11188  0.014489414  0.012614281         1928 
 4804000   0.48012454   -7.5945956    835.84996  0.014499201  0.012609998         1913 
 4805000    0.4881666   -7.5921778      835.519  0.014490444  0.012605716         1957 
 4806000   0.47836428   -7.6103252    836.98901  0.014512918  0.012601432         1896 
 4807000   0.49014959   -7.5846463    835.49603  0.014484017  0.012597155         1947 
 4808000   0.47964965   -7.5962241    834.91097  0.014470864  0.012592879         1923 
 4809000   0.48596056   -7.5867205    835.17914  0.014472502  0.012588604         1901 
 4810000   0.48045178   -7.5978326    835.54727  0.014475871  0.012584334         1933 
 4811000   0.48445985   -7.5956739    835.13036  0.014465641  0.012580066         1798 
 4812000   0.48849819   -7.6006829    834.65197   0.01445435  0.012575796         1942 
 4813000   0.49509344   -7.6116337     834.6447  0.014451221  0.012571529         1868 
 4814000   0.48227981   -7.5965481      834.824  0.014451322  0.012567268         1903 
 4815000   0.48405778   -7.6063114    834.57938  0.014444088  0.012563003         1986 
 4816000   0.47893623   -7.6008763    835.25768  0.014452825  0.012558743         2039 
 4817000   0.48573463   -7.5880173    835.50057  0.014454027  0.012554485         1923 
 4818000   0.48400025   -7.5942627    835.26642  0.014446977  0.012550228         1912 
 4819000   0.48088612   -7.5966264    835.30337  0.014444618  0.012545968         1911 
 4820000   0.47892351   -7.6015989    834.73144  0.014431733  0.012541715         1885 
 4821000   0.48273307   -7.5987368    834.98316  0.014433091   0.01253746         1914 
 4822000   0.47919394    -7.592822    833.63116  0.014406732  0.012533205         1913 
 4823000   0.47861646   -7.5946931    833.54608  0.014402275  0.012528957         1925 
 4824000   0.48236937   -7.6077086    833.54987  0.014399355  0.012524707         1913 
 4825000   0.47605711   -7.5923682    834.95993  0.014420724  0.012520463         1967 
 4826000   0.46626031    -7.592068    834.54656  0.014410598  0.012516221         1936 
 4827000   0.47680651   -7.5991186    835.04359  0.014416193  0.012511979         1914 
 4828000   0.47393004   -7.5941475    834.76907  0.014408469   0.01250774         1969 
 4829000   0.48319867   -7.5873505    835.85789  0.014424275  0.012503505         1891 
 4830000   0.46403135   -7.5995874    834.36281  0.014395494   0.01249927         1872 
 4831000    0.4822368   -7.5986223    834.12915  0.014388483  0.012495035         1974 
 4832000   0.48181983   -7.6000914     834.7076  0.014395482  0.012490808         1942 
 4833000   0.48334074   -7.6042973    834.54845  0.014389759  0.012486578         1931 
 4834000    0.4817436    -7.592104    835.30427  0.014399812  0.012482348         1909 
 4835000   0.48502879   -7.5910025    833.78768  0.014370694  0.012478122         1900 
 4836000   0.47231095   -7.5986105    835.21248  0.014392275  0.012473896         2052 
 4837000   0.48321246   -7.6076038     835.4199  0.014392873  0.012469669         1875 
 4838000   0.48535939   -7.6165675     835.4488  0.014390395   0.01246545         2013 
 4839000   0.48259357   -7.6027315    834.35775  0.014368632  0.012461225         1859 
 4840000   0.47456077   -7.6072277    835.49237  0.014385199  0.012457006         1880 
 4841000   0.47155268   -7.6057622    835.28663  0.014378686  0.012452794         1882 
 4842000   0.47908249    -7.599086    833.78717   0.01434991  0.012448578         1969 
 4843000   0.47666988   -7.6023128    834.67367  0.014362201  0.012444363         1905 
 4844000   0.47612083    -7.603483    834.17199  0.014350605   0.01244015         1911 
 4845000   0.47445283    -7.609384     834.1285  0.014346895  0.012435941         1945 
 4846000     0.478818   -7.5827986    835.44047  0.014366496  0.012431736         1899 
 4847000    0.4793021   -7.6034389    833.84304  0.014336068  0.012427529         1968 
 4848000   0.48245309   -7.6032913    834.63899  0.014346792  0.012423325         1938 
 4849000   0.46743284   -7.5902083    833.45105  0.014323418  0.012419121         1938 
 4850000   0.47238195   -7.6162831    834.36161   0.01433611  0.012414919         1950 
 4851000   0.46397801   -7.6001837    835.95465  0.014360521  0.012410721         1867 
 4852000   0.47551053   -7.6093614    836.08501    0.0143598  0.012406526         1961 
 4853000   0.46814716   -7.5936261    835.45119  0.014345958  0.012402329         1985 
 4854000   0.47879297   -7.6045603    834.74235  0.014330833  0.012398137         1958 
 4855000   0.47127911   -7.6010227      833.788    0.0143115  0.012393945         1944 
 4856000   0.47454794    -7.596158    834.42475   0.01431948  0.012389757         1927 
 4857000   0.46916239   -7.6088665    834.98143  0.014326083  0.012385566         1870 
 4858000   0.47793367   -7.6145486    834.05953   0.01430732   0.01238138         2020 
 4859000   0.47787012   -7.6178655    833.75325  0.014299123  0.012377195         1914 
 4860000   0.47893632   -7.6123934    835.29023  0.014322535  0.012373011         1970 
 4861000   0.47017289   -7.6131867    834.28927  0.014302429  0.012368831         1939 
 4862000   0.47530643   -7.6048891    834.22994   0.01429847  0.012364652         1905 
 4863000    0.4744654   -7.6167771    834.12879  0.014293797  0.012360472         1934 
 4864000   0.45897857   -7.6126244    834.62129  0.014299296  0.012356294         1910 
 4865000   0.46362675    -7.607689    834.40114  0.014292586   0.01235212         1982 
 4866000   0.47750657   -7.6019178     834.3957  0.014289555  0.012347948         1966 
 4867000   0.47247075   -7.6041642     835.5389  0.014306193  0.012343773         1927 
 4868000   0.47498471   -7.6180601    834.63828  0.014287837  0.012339604         1924 
 4869000   0.47287976   -7.6004551     833.5206  0.014265773  0.012335432         1960 
 4870000    0.4702898   -7.6225921    833.13722  0.014256284  0.012331262         1992 
 4871000   0.46608222   -7.6091829    836.25738  0.014306737  0.012327095         1938 
 4872000   0.47224071   -7.6055723     833.5336  0.014257211  0.012322932         1916 
 4873000    0.4670038   -7.6044695     834.6423  0.014273245  0.012318768         1960 
 4874000   0.48046778   -7.6107183    834.64163  0.014270306  0.012314609         1904 
 4875000    0.4611926   -7.6120459    834.83142  0.014270623  0.012310451         2021 
 4876000   0.46386297   -7.6142813    834.71346   0.01426568  0.012306292         1913 
 4877000   0.46676204   -7.6144555     834.3003  0.014255695  0.012302134         2001 
 4878000   0.47140455   -7.6096133    834.32593   0.01425321  0.012297981         1929 
 4879000   0.47275758   -7.6105294    834.32054  0.014250197   0.01229383         1875 
 4880000   0.46621862   -7.6109767     835.3104   0.01426418  0.012289682         1965 
 4881000   0.47952935   -7.6230914    834.66181  0.014250185  0.012285539         1947 
 4882000   0.47304493   -7.6093371    834.26336  0.014240464  0.012281393         1929 
 4883000   0.46632407   -7.6077829    832.84978  0.014213424   0.01227725         1987 
 4884000   0.47318974   -7.6108017    834.46888  0.014238139  0.012273109         1917 
 4885000   0.47516065   -7.6190352    834.92959  0.014243084  0.012268971         1972 
 4886000   0.47458945   -7.6078435    833.71963  0.014219532  0.012264831         1968 
 4887000   0.46960265   -7.6165951    834.16204  0.014224167  0.012260694         1965 
 4888000   0.47068455   -7.6165604    834.08634  0.014219966  0.012256559         1949 
 4889000   0.47264362   -7.6318573    834.39084  0.014222248  0.012252424         1956 
 4890000   0.47308987   -7.6124025    834.26261  0.014217154  0.012248293         1992 
 4891000   0.47431287   -7.6055341    833.50517  0.014201342  0.012244164         1910 
 4892000   0.47569095   -7.6120611     834.6654  0.014218203  0.012240036         1932 
 4893000   0.47225168   -7.6153533    835.60738   0.01423134   0.01223591         1971 
 4894000     0.470239   -7.6191515    833.94776  0.014200173  0.012231786         2006 
 4895000   0.47091723   -7.6065002    833.41768  0.014188248  0.012227666         1842 
 4896000   0.47415325   -7.5902394    834.83759  0.014209518  0.012223548         2042 
 4897000   0.47216675   -7.6176408    835.45801  0.014217174  0.012219433         1960 
 4898000   0.45744303   -7.6264932     834.6393  0.014200342  0.012215312         1933 
 4899000   0.47571574   -7.6283401    834.24671  0.014190765  0.012211199         1989 
 4900000   0.47512745   -7.6066041     835.0286  0.014201167  0.012207092         1920 
 4901000   0.47577761   -7.6225296    833.87279  0.014178616   0.01220298         2008 
 4902000   0.47816037   -7.6237701    835.09736  0.014196541  0.012198875         1951 
 4903000    0.4692756    -7.608914    833.95356  0.014174206   0.01219477         1941 
 4904000    0.4689873   -7.6067696    833.28929  0.014160027  0.012190669         1984 
 4905000   0.47176716   -7.6095976    833.93509  0.014168112  0.012186568         1903 
 4906000   0.45818536   -7.5962183    834.00581  0.014166426  0.012182471         2007 
 4907000   0.46900832    -7.619188     834.1224  0.014165519  0.012178372         2040 
 4908000   0.46112012   -7.6199022    835.01084  0.014177717  0.012174278         1956 
 4909000   0.47519853   -7.6332664    834.52543  0.014166589  0.012170181         2012 
 4910000   0.45571259   -7.6232341    832.99109  0.014137663  0.012166086         2035 
 4911000     0.466132    -7.621805    834.44568  0.014159467  0.012161992         1930 
 4912000   0.46105399   -7.6255888    834.35771  0.014155091  0.012157904         2033 
 4913000   0.45670219   -7.6199623    833.72066  0.014141405  0.012153815         1991 
 4914000   0.46804149    -7.627174    833.69888  0.014138158  0.012149736         1929 
 4915000   0.46566438   -7.6392776    834.93568  0.014156251  0.012145649         1845 
 4916000     0.459951    -7.612689    833.82804  0.014134595  0.012141569         1908 
 4917000   0.46830405   -7.6257389    831.90785  0.014099177  0.012137486         2053 
 4918000   0.46529497   -7.6279467    834.07723   0.01413307  0.012133406         1982 
 4919000   0.46992463   -7.6188575    834.31368  0.014134202   0.01212933         1910 
 4920000    0.4573543   -7.6251766     833.1293  0.014111269  0.012125254         1962 
 4921000   0.45496735   -7.6179269    834.92594  0.014138826  0.012121179         1949 
 4922000   0.46538255   -7.6057195    833.14957  0.014105878  0.012117105         1887 
 4923000   0.46848258   -7.6261046    835.14647  0.014136815  0.012113036         1920 
 4924000   0.47933313   -7.6223989    835.09643  0.014133097  0.012108965         1960 
 4925000   0.45542651   -7.6249653    831.70851  0.014072902  0.012104896         1978 
 4926000   0.46322186   -7.6311244    832.83801  0.014089153  0.012100828         1966 
 4927000   0.46281376   -7.6292512    834.62886  0.014116583  0.012096762         1888 
 4928000   0.46573591   -7.6228835    833.39837  0.014092911  0.012092697         1934 
 4929000   0.46780818   -7.6295167    834.71378  0.014112291  0.012088637         1928 
 4930000   0.45749658   -7.6130622    834.18631  0.014100512  0.012084577         1912 
 4931000   0.45767472   -7.6221571    833.19401  0.014080883  0.012080522         1868 
 4932000   0.46341376   -7.6221297    834.62056  0.014102132  0.012076465         1974 
 4933000   0.45753464   -7.6230766    834.52572  0.014097671  0.012072412         1960 
 4934000   0.46881065   -7.6208562    833.45633  0.014076752  0.012068362         1965 
 4935000   0.45150175   -7.6114866    834.58966  0.014093037  0.012064311         1898 
 4936000     0.458716   -7.6344963    832.97928  0.014062994  0.012060258         2002 
 4937000   0.47407143   -7.6402308     833.7476  0.014073115  0.012056213         1968 
 4938000   0.45511295   -7.6234076     833.4486  0.014065219  0.012052167         1985 
 4939000   0.45383722   -7.6218912    833.78206  0.014067997  0.012048123         1945 
 4940000   0.45718911   -7.6236757    834.48141  0.014076947  0.012044085         1984 
 4941000   0.45959358   -7.6250949    833.38877   0.01405567  0.012040046         1954 
 4942000   0.46403162   -7.6276339    831.97501  0.014028986   0.01203601         2009 
 4943000   0.46840336   -7.6299105    834.11494  0.014062225  0.012031974         1918 
 4944000   0.46180318   -7.6140499    833.76556  0.014053492   0.01202794         1995 
 4945000   0.46513207   -7.6401859    833.51088  0.014046358  0.012023909         1998 
 4946000   0.46109358   -7.6147286    832.01992  0.014018397  0.012019877         1985 
 4947000   0.46719081   -7.6409594    834.20875  0.014052435  0.012015848         1966 
 4948000   0.45853962   -7.6262356    834.72481  0.014058286  0.012011821         1936 
 4949000   0.46023643   -7.6246375    834.11501  0.014045178  0.012007794         1962 
 4950000   0.46724402   -7.6273047    834.09152  0.014041945  0.012003767         2016 
 4951000   0.46332673   -7.6261239    834.78265  0.014050741  0.011999747         1922 
 4952000   0.46373143   -7.6074676    833.55581  0.014027258  0.011995728         1996 
 4953000   0.45519499   -7.6193402    833.98999  0.014031731   0.01199171         1948 
 4954000   0.45997892   -7.6096593    833.95077  0.014028239  0.011987692         1957 
 4955000   0.45823326   -7.6218807    834.53031  0.014035155  0.011983675         1940 
 4956000   0.45194088   -7.6200034    833.18281  0.014009665   0.01197966         2013 
 4957000   0.45457218   -7.6282103    835.68734  0.014048943  0.011975651         1991 
 4958000   0.46426297   -7.6243321    833.91758  0.014016364   0.01197164         1980 
 4959000   0.45618246   -7.6524439    833.93105  0.014013764  0.011967631         1966 
 4960000   0.45750249   -7.6328574    833.24249   0.01399937  0.011963622         2009 
 4961000   0.45986175   -7.6413991    833.88692  0.014007373  0.011959617         1945 
 4962000   0.45751562   -7.6333727      833.445  0.013997128  0.011955614         2035 
 4963000   0.44850922   -7.6311637    833.53272  0.013995781  0.011951615         2058 
 4964000   0.45940493    -7.618998    833.75301  0.013996659  0.011947616         1972 
 4965000   0.45658028   -7.6418951    834.54572  0.014007145  0.011943619         2046 
 4966000   0.44894723    -7.637815    832.31089  0.013966823  0.011939622         1913 
 4967000   0.45487035   -7.6219674    833.68243  0.013987022   0.01193563         1956 
 4968000    0.4513132   -7.6291282    834.95749  0.014005594  0.011931637         1919 
 4969000   0.45725633    -7.625098    834.02714  0.013987173  0.011927648         1992 
 4970000   0.45482969   -7.6246634    833.90835  0.013982367  0.011923658         1961 
 4971000   0.46689907    -7.638591    834.08259  0.013982475   0.01191967         2037 
 4972000   0.45491112   -7.6323278    833.17801  0.013964501  0.011915684         1955 
 4973000    0.4559253   -7.6403688    833.31003  0.013963906  0.011911698         1968 
 4974000   0.46315173   -7.6452067    832.56164   0.01394856  0.011907715         1917 
 4975000   0.46104613   -7.6285195    832.25734  0.013940659  0.011903738         1985 
 4976000   0.46284549   -7.6115089    832.65457   0.01394451  0.011899757         1989 
 4977000    0.4495755   -7.6240066    833.57687  0.013957151  0.011895781         1908 
 4978000   0.45118097   -7.6366523     834.1155  0.013963364  0.011891805         1891 
 4979000   0.45528296   -7.6404183    833.42965   0.01394908   0.01188783         1941 
 4980000   0.46347729   -7.6326781    832.71273  0.013934283  0.011883856         1932 
 4981000   0.46005601     -7.64762    834.57782  0.013962689  0.011879887         1977 
 4982000   0.45718183   -7.6334976    832.49896  0.013925113  0.011875918         2011 
 4983000   0.45380278   -7.6373579    834.56712  0.013956905  0.011871952         1960 
 4984000   0.45092729   -7.6420037    831.86444  0.013908916  0.011867985         1976 
 4985000   0.45031877   -7.6432394     834.0868  0.013943277   0.01186402         1955 
 4986000   0.45715698   -7.6395435    833.59095  0.013932193  0.011860059         2006 
 4987000   0.44521746   -7.6526281    832.80913  0.013916335  0.011856098         2013 
 4988000   0.45381072    -7.644012    832.26682  0.013904484   0.01185214         1968 
 4989000    0.4475274   -7.6391085    832.47314  0.013905144   0.01184818         1991 
 4990000   0.45112164   -7.6417217    833.12811  0.013913295  0.011844226         1955 
 4991000   0.46072047   -7.6539164    833.56595  0.013917818  0.011840271         1952 
 4992000   0.45596554   -7.6186654    832.78653  0.013902019  0.011836319         2038 
 4993000    0.4530755   -7.6471766    832.61025  0.013896292  0.011832367         1962 
 4994000    0.4545956   -7.6278323    834.96238  0.013932759   0.01182842         2004 
 4995000   0.44290056   -7.6274972    833.95491  0.013913162  0.011824478         1945 
 4996000   0.45936729   -7.6305106    834.04036  0.013911802  0.011820534         1961 
 4997000   0.45031224   -7.6315881    833.76733  0.013904465  0.011816591         1977 
 4998000   0.45070726   -7.6372793     834.4325  0.013912773  0.011812648         1960 
 4999000   0.44417226   -7.6356522    832.99351  0.013886002  0.011808711         2045 
 5000000   0.45502831   -7.6341451    832.78463  0.013879744  0.011804772         2011 
 5001000   0.44857376    -7.650575    832.22378  0.013867623  0.011800834         2080 
 5002000   0.45585578   -7.6412072    832.95316  0.013877002  0.011796898         1972 
 5003000   0.45409043   -7.6487418    833.00201  0.013875042  0.011792966         1931 
 5004000   0.45722135   -7.6612244    832.84853  0.013869713  0.011789034         1975 
 5005000   0.45006954   -7.6471041    831.86731  0.013850605  0.011785106         1942 
 5006000   0.45116814   -7.6482358     833.3362   0.01387229  0.011781178         2010 
 5007000   0.44926015   -7.6425687    833.14148  0.013866278  0.011777248         2074 
 5008000   0.44377358   -7.6483306    833.55812  0.013870443  0.011773325         1912 
 5009000   0.44464598   -7.6404692    833.25214  0.013862583  0.011769402         1937 
 5010000   0.44390444   -7.6531218    832.52686  0.013847752  0.011765481         1996 
 5011000   0.44672405   -7.6310741    832.86637  0.013850635  0.011761559         1894 
 5012000   0.46140795   -7.6547114    832.70764  0.013845232  0.011757635         2008 
Loop time of 13074.6 on 48 procs for 5000000 steps with 4000 atoms

Performance: 66082.133 tau/day, 382.420 timesteps/s
99.4% CPU use with 48 MPI tasks x no OpenMP threads

MPI task timing breakdown:
Section |  min time  |  avg time  |  max time  |%varavg| %total
---------------------------------------------------------------
Pair    | 954.77     | 1049.9     | 1116.5     | 115.9 |  8.03
Neigh   | 91.847     | 94.707     | 97.541     |  15.0 |  0.72
Comm    | 850.81     | 918.42     | 1018.6     | 125.2 |  7.02
Output  | 16.618     | 16.623     | 16.722     |   0.4 |  0.13
Modify  | 10844      | 10871      | 10921      |  16.0 | 83.15
Other   |            | 123.7      |            |       |  0.95

Nlocal:        83.3333 ave          88 max          78 min
Histogram: 1 2 7 2 7 6 9 3 4 7
Nghost:        2425.00 ave        2441 max        2405 min
Histogram: 1 3 3 5 5 10 9 4 5 3
Neighs:        16863.2 ave       19676 max       14673 min
Histogram: 4 6 5 9 5 5 6 4 2 2
FullNghs:      33726.5 ave       35946 max       31440 min
Histogram: 1 6 4 7 5 10 4 4 2 5

Total # of neighbors = 1618870
Ave neighs/atom = 404.71750
Neighbor list builds = 267258
Dangerous builds = 2

#clear
#
#next RN
#
#jump SELF
Total wall time: 3:37:58
