
units lj                  # Use reduced LJ style units
atom_style atomic         # Uncharged point particles
atom_modify map hash      # Needed for indexing of clusters etc
                          # Used to be able to find where atoms are in relation to each other.

lattice fcc 1.0 spacing 1 1 1
Lattice spacing in x,y,z = 1.5874011 1.5874011 1.5874011
region box block 0 10 0 10 0 10 units lattice
create_box 2 box
Created orthogonal box = (0.0000000 0.0000000 0.0000000) to (15.874011 15.874011 15.874011)
  3 by 4 by 4 MPI processor grid
create_atoms 1 box
Created 4000 atoms
  using lattice units in orthogonal box = (0.0000000 0.0000000 0.0000000) to (15.874011 15.874011 15.874011)
  create_atoms CPU = 0.002 seconds
set type 1 type/fraction 2 0.54 78393
Setting atom values ...
  2170 settings made for type/fraction
mass 1 1.0
mass 2 1.0
pair_style lj/cut  3.5
pair_modify tail  yes
pair_coeff 1  1  1.0  1.0   # Intearaction between 1 and 1 set with epsilon = 1 and sigma = 1
pair_coeff 1  2  1.5  0.8
pair_coeff 2  2  0.5  0.88

write_data data.0
System init for write_data ...
Neighbor list info ...
  update every 1 steps, delay 10 steps, check yes
  max neighbors/atom: 2000, page size: 100000
  master list distance cutoff = 3.8
  ghost atom cutoff = 3.8
  binsize = 1.9, bins = 9 9 9
  1 neighbor lists, perpetual/occasional/extra = 1 0 0
  (1) pair lj/cut, perpetual
      attributes: half, newton on
      pair build: half/bin/atomonly/newton
      stencil: half/bin/3d
      bin: standard
WARNING: Not all mixed pair coeffs generated from mixing. Use write_data with 'pair ij' option to store all pair coeffs. (../write_data.cpp:312)


#############################
#   M E L T   S Y S T E M   #
#############################

velocity all create 2.4 6583654 mom yes dist gaussian # Assign velocities
                                                    # Temperature 2.4, random number seed, zero linear momentum
                                                                                # Gaussian distribution

timestep 0.002   # simulation timestep
thermo 1000       # output thermodynamic data every 1000 steps bf 100

# Define a fix  in this case with index 1 applied to all
# particles in the simulation. This fix is for simulations
# in the anisotropic NPT ensemble. Note that we use the MTK
# correction.
fix 1 all npt temp 2.4 2.4 0.1 iso 5.68 5.68 0.5 mtk yes tchain 5 pchain 5 # Use NPT ensemble
                                                                         # Set temperature and pressure and damping
                                                                         # Numbers of thermostats in chain and in barostat
run 10000          # run for 10000 steps
Per MPI rank memory allocation (min/avg/max) = 3.642 | 3.644 | 3.648 Mbytes
Step Temp E_pair E_mol TotEng Press Volume 
       0          2.4   -5.0605359            0   -1.4614359   -4.1673139         4000 
    1000    2.3959046   -4.7349397            0   -1.1419813    5.7529703    3650.4675 
    2000    2.4064437   -4.6796182            0    -1.070855    5.7622928    3680.0058 
    3000    2.3872913     -4.75103            0   -1.1709883    5.7396755    3650.5376 
    4000    2.4380002   -4.8430579            0   -1.1869718     5.877392    3595.8405 
    5000    2.3710082   -4.7699624            0   -1.2143392    5.5228737    3647.3416 
    6000    2.3618949    -4.747703            0   -1.2057465    5.5083101    3664.2773 
    7000    2.4145341    -4.696097            0   -1.0752013    5.8698396    3662.6319 
    8000    2.4132357   -4.7056258            0   -1.0866773    5.6422221    3671.3149 
    9000    2.3936108   -4.7678394            0   -1.1783208    5.9148396    3619.4753 
   10000     2.423284   -4.7733286            0   -1.1393113    5.5596266    3650.8683 
Loop time of 2.64628 on 48 procs for 10000 steps with 4000 atoms

Performance: 652991.904 tau/day, 3778.888 timesteps/s
99.6% CPU use with 48 MPI tasks x no OpenMP threads

MPI task timing breakdown:
Section |  min time  |  avg time  |  max time  |%varavg| %total
---------------------------------------------------------------
Pair    | 1.2053     | 1.263      | 1.3952     |   3.1 | 47.73
Neigh   | 0.21674    | 0.22457    | 0.24851    |   1.1 |  8.49
Comm    | 0.74395    | 0.88887    | 0.96537    |   5.0 | 33.59
Output  | 0.0002448  | 0.00024985 | 0.00032094 |   0.0 |  0.01
Modify  | 0.21746    | 0.2541     | 0.3044     |   4.4 |  9.60
Other   |            | 0.01546    |            |       |  0.58

Nlocal:        83.3333 ave          92 max          76 min
Histogram: 5 8 2 7 5 3 7 3 4 4
Nghost:        1746.60 ave        1786 max        1718 min
Histogram: 2 7 6 8 11 3 6 2 2 1
Neighs:        10458.4 ave       11985 max        9137 min
Histogram: 3 4 7 5 8 7 4 5 3 2

Total # of neighbors = 502002
Ave neighs/atom = 125.50050
Neighbor list builds = 910
Dangerous builds = 234

# Equilibrate just above the melting temperature to avoid step fn in T

fix 1 all npt temp 1.25 1.25 0.1 iso 5.68 5.68 0.5 mtk yes tchain 5 pchain 5
run 2000
Per MPI rank memory allocation (min/avg/max) = 3.644 | 3.646 | 3.649 Mbytes
Step Temp E_pair E_mol TotEng Press Volume 
   10000     2.423284   -4.7733286            0   -1.1393113    5.5596266    3650.8683 
   11000    1.2422303   -6.8579947            0   -4.9951151    5.7760664    2821.1736 
   12000    1.2600393   -6.9192001            0   -5.0296137    6.0804793    2799.8491 
Loop time of 0.6618 on 48 procs for 2000 steps with 4000 atoms

Performance: 522211.837 tau/day, 3022.059 timesteps/s
99.6% CPU use with 48 MPI tasks x no OpenMP threads

MPI task timing breakdown:
Section |  min time  |  avg time  |  max time  |%varavg| %total
---------------------------------------------------------------
Pair    | 0.29828    | 0.32242    | 0.36404    |   2.3 | 48.72
Neigh   | 0.04162    | 0.043687   | 0.049146   |   0.7 |  6.60
Comm    | 0.19851    | 0.24656    | 0.27428    |   3.1 | 37.26
Output  | 5.285e-05  | 5.3946e-05 | 6.9913e-05 |   0.0 |  0.01
Modify  | 0.041437   | 0.044118   | 0.047019   |   0.7 |  6.67
Other   |            | 0.00496    |            |       |  0.75

Nlocal:        83.3333 ave          94 max          76 min
Histogram: 2 7 6 12 5 7 4 4 0 1
Nghost:        2087.46 ave        2113 max        2063 min
Histogram: 3 2 6 5 6 10 8 3 2 3
Neighs:        13629.0 ave       15268 max       12263 min
Histogram: 4 0 8 10 10 3 6 1 3 3

Total # of neighbors = 654192
Ave neighs/atom = 163.54800
Neighbor list builds = 143
Dangerous builds = 10

#############################
# L I N E A R  Q U E N C H  #
#############################

# Define solid atoms. This closely follows ten Wolde  Ruiz-Montero and Frenkel  Faraday Discuss  1996  104  93-110
# Compute components of the per-atom q6 vector
compute q6 all orientorder/atom degrees 1 6 components 6 nnn NULL cutoff 1.3 # compute the Q6 parameter.
                                                                             # Use all neighbours within 1.3 unit cell.

# get number of connections
compute coord_number all coord/atom orientorder q6 0.5

# An atom is solid if it has 8 or more connections (of a possible 14)
variable is_solid atom c_coord_number>=8
group solid dynamic all var is_solid    # Must be dynamic to update
dynamic group solid defined

# do clustering
compute cluster solid cluster/atom 1.3 # Create a cluster where all atoms within are solid and max 1.3 units from another member

# define chunks one chunk per cluster
compute clus_chunks solid chunk/atom c_cluster nchunk every compress yes  # Says which atoms are in which chunk

# count the size of each chunk
compute size_chunks solid property/chunk clus_chunks count


# Find the maximum entry in the vector of chunk sizes
variable max_n equal max(c_size_chunks)


# Thermo style which includes this variable
# thermo_style custom step temp pe vol v_max_n

thermo ${N}  # Print the thermo information every 100 steps
thermo 1000  

# Reset the npt fix at a lower temperature (below freezing)
fix 1  all npt temp  ${temp} ${temp}  0.1  iso  5.68  5.68  0.5  mtk yes tchain  5  pchain  5
fix 1  all npt temp  0.45 ${temp}  0.1  iso  5.68  5.68  0.5  mtk yes tchain  5  pchain  5
fix 1  all npt temp  0.45 0.45  0.1  iso  5.68  5.68  0.5  mtk yes tchain  5  pchain  5

dump dmp2 all dcd ${N} traj.dcd
dump dmp2 all dcd 1000 traj.dcd


compute msd all msd com yes
variable twopoint equal c_msd[4]/6/(step*dt+1.0e-6)
fix 9 all vector 10 c_msd[4]
variable fit equal slope(f_9)/6/(10*dt)
thermo_style custom step temp pe c_msd[4] v_twopoint v_fit v_max_n

fix 1 all npt temp 1.25 ${temp} 0.1 iso 5.68 5.68 0.5 mtk yes tchain 5 pchain 5
fix 1 all npt temp 1.25 0.45 0.1 iso 5.68 5.68 0.5 mtk yes tchain 5 pchain 5
run 2000000 # 5000000  # Run for this many steps
Neighbor list info ...
  update every 1 steps, delay 10 steps, check yes
  max neighbors/atom: 2000, page size: 100000
  master list distance cutoff = 3.8
  ghost atom cutoff = 3.8
  binsize = 1.9, bins = 8 8 8
  4 neighbor lists, perpetual/occasional/extra = 1 3 0
  (1) pair lj/cut, perpetual
      attributes: half, newton on
      pair build: half/bin/atomonly/newton
      stencil: half/bin/3d
      bin: standard
  (2) compute orientorder/atom, occasional
      attributes: full, newton on
      pair build: full/bin/atomonly
      stencil: full/bin/3d
      bin: standard
  (3) compute coord/atom, occasional
      attributes: full, newton on
      pair build: full/bin/atomonly
      stencil: full/bin/3d
      bin: standard
  (4) compute cluster/atom, occasional
      attributes: full, newton on
      pair build: full/bin/atomonly
      stencil: full/bin/3d
      bin: standard
Per MPI rank memory allocation (min/avg/max) = 9.842 | 9.847 | 9.850 Mbytes
Step Temp PotEng c_msd[4] v_twopoint v_fit v_max_n 
   12000    1.2600393   -6.9192001 1.0629901e-30 7.3818752e-33 8.3333333e+20            2 
   13000    1.2293151   -6.9553274   0.45971279 0.0029468767   0.03727882            2 
   14000    1.2543865   -7.0001997   0.88592632 0.0052733707  0.036146299            2 
   15000    1.2368685   -6.9789672    1.2888313 0.0071601736  0.034984828            3 
   16000    1.2679855   -7.0016143    1.7286118  0.009003186  0.035284645            1 
   17000    1.2460581   -6.9515135    2.1113816   0.01034991  0.035113204            2 
   18000     1.243244   -6.9852936    2.4816207  0.011488984  0.034390605            1 
   19000    1.2735004   -6.9228119    2.9183184  0.012799642  0.034091769            1 
   20000    1.2325935   -6.9700452    3.2885719  0.013702382  0.033856043            3 
   21000    1.2744344   -7.0364663    3.6242923  0.014382112  0.033518201            3 
   22000    1.2281624   -6.9670724    4.0058262  0.015173584  0.033091466            4 
   23000     1.272658   -7.0264201    4.4011845   0.01594632   0.03292702            1 
   24000    1.2442024   -6.9701973    4.8380857  0.016798908  0.032870813            2 
   25000    1.2336356     -7.02607    5.3226745  0.017742248  0.033075856            2 
   26000    1.2235929   -7.0137731    5.6425618  0.018085134  0.033160707            2 
   27000    1.2142865   -6.9513806    6.0468919  0.018663246  0.033150033            3 
   28000    1.2417801   -7.0128749    6.5046454  0.019359063  0.033194137            2 
   29000     1.259703   -6.9973896    6.8384343  0.019650673  0.033249578            3 
   30000     1.223384   -7.0247489    7.2524725  0.020145757  0.033206579            2 
   31000    1.2508432   -6.9817759    7.6748442  0.020631301  0.033225361            3 
   32000    1.2341912   -6.9636618    8.1378155  0.021192228  0.033282962            2 
   33000    1.2519922   -6.9966586    8.4417105   0.02131745   0.03330963            1 
   34000    1.2436868   -7.0090642    8.8008158  0.021570627  0.033273063            2 
   35000    1.2602039    -6.994162    9.2148914  0.021940217  0.033226581            2 
   36000    1.2662516   -7.0664299    9.4952047   0.02197964  0.033139912            3 
   37000    1.2351036   -7.0661505     9.908353   0.02231611  0.033059418            2 
   38000    1.2269628    -7.014451    10.405095   0.02281819  0.033033433            4 
   39000    1.2703615   -6.9672648    10.772728  0.023018649  0.033020415            1 
   40000    1.2573593   -6.9974799    11.075638  0.023074246  0.032982933            5 
   41000    1.2493749   -7.0068321    11.508387   0.02339103  0.032926993            2 
   42000    1.2471152   -7.0122216    11.823063  0.023458459  0.032841809            2 
   43000     1.245204   -6.9984207    12.261181  0.023761979  0.032783616            4 
   44000    1.2431621   -7.0041153    12.679047  0.024013346  0.032740696            1 
   45000    1.2236213   -7.0342397    13.079785  0.024221824  0.032736006            3 
   46000    1.2493164   -6.9867482    13.531392  0.024513391  0.032749566            4 
   47000    1.2452116   -7.0043759    14.008256  0.024837333  0.032777692            1 
   48000    1.2350666   -7.0169268    14.355758  0.024923191  0.032804674            2 
   49000    1.2396756   -7.0222815    14.750639  0.025086121  0.032829536            2 
   50000    1.2352447   -7.0346373    15.226974   0.02537829  0.032854834            2 
   51000    1.2575517   -7.0081437    15.670194  0.025604892  0.032913756            7 
   52000     1.232315   -6.9962378    16.000595  0.025641979  0.032962221            5 
   53000    1.2522927    -7.018642    16.430261  0.025833743  0.033006097            3 
   54000    1.2312923   -6.9886652    16.827534  0.025968417  0.033034363            1 
   55000    1.2123982    -6.989955    17.221485  0.026093159  0.033049788            2 
   56000    1.2279092    -7.034651    17.673647   0.02630007  0.033074732            2 
   57000    1.2360859   -7.0802755     17.84612  0.026090819  0.033100268            2 
   58000    1.2531121   -7.0257762     18.36129  0.026381164  0.033110279            2 
   59000    1.2175825   -7.0431332     18.68999   0.02639829  0.033094275            1 
   60000    1.2263512   -7.0273738    19.068242  0.026483669  0.033093838            2 
   61000    1.2362772   -7.0454897    19.529667  0.026679873  0.033080257            2 
   62000    1.2501858   -7.0300789    19.868401   0.02670484  0.033079217            2 
   63000    1.2548545   -7.0012863     20.20137  0.026721389  0.033071376            4 
   64000    1.2027788   -7.0446712    20.543696  0.026749604  0.033058652            1 
   65000     1.220872   -7.0824889    20.827214  0.026701556  0.033024946            1 
   66000    1.2232239   -7.0401712    21.198561  0.026765859  0.032987451            3 
   67000    1.2133505   -7.0706331    21.643489  0.026919763  0.032946664            3 
   68000    1.2176257   -7.0365432    22.071871  0.027048861  0.032920791            2 
   69000    1.2035208   -7.0210928    22.515907  0.027193124  0.032894092            3 
   70000    1.2151778   -7.0244982    22.780014  0.027119064  0.032873544            2 
   71000     1.253198   -7.0101538    23.200308  0.027230409  0.032840861            2 
   72000    1.2117038   -7.0491362    23.573874  0.027284576  0.032811241            2 
   73000    1.2120711   -7.0525063    23.871199  0.027250227  0.032789622            4 
   74000     1.214384     -7.02012    24.326566  0.027394781  0.032763389            1 
   75000     1.228987   -7.0201269    24.638849  0.027376499  0.032727273            2 
   76000    1.2181776   -7.0682096    24.894112  0.027296176  0.032681704            3 
   77000    1.2043939   -7.0640275    25.405521  0.027495153  0.032645615            3 
   78000    1.2479748   -7.0166378     25.91308  0.027684914  0.032623186            2 
   79000    1.2255038   -6.9976202    26.150944  0.027585384  0.032596658            4 
   80000     1.191274   -7.0716997     26.41555  0.027516198  0.032559757            2 
   81000    1.2407959   -7.0369133    27.021132  0.027799518  0.032531388            3 
   82000    1.2351315   -7.0382036    27.298044  0.027741915   0.03250515            1 
   83000    1.2278946   -6.9959651    27.881447  0.027993421  0.032481679            3 
   84000    1.2073012   -7.0353353    28.149338  0.027925931  0.032466351            2 
   85000    1.2145424   -7.0721429    28.503769  0.027944872   0.03245543            3 
   86000    1.2162453   -7.0013638    29.161327    0.0282571  0.032447032            2 
   87000    1.2256152   -7.0659988    29.280974   0.02804691  0.032438449            3 
   88000    1.2291116   -7.0215701    29.609355  0.028039161   0.03242246            1 
   89000    1.2466097   -7.0541028    30.101228   0.02818467   0.03240673            5 
   90000    1.2388038   -7.0981829    30.482439   0.02822448  0.032395922            2 
   91000     1.196356   -7.0632902    30.786809  0.028193048  0.032385042            3 
   92000    1.2131969   -7.0831407    31.195402  0.028256704  0.032370347            3 
   93000    1.2273673   -7.0739606    31.661538  0.028370553  0.032366869            3 
   94000     1.236156   -7.0447802    31.973852  0.028345613  0.032360803            1 
   95000    1.2295988   -7.0230039    32.529318  0.028534489  0.032356209            1 
   96000    1.2278283   -7.0618268    32.874617  0.028536994  0.032357132            1 
   97000    1.2237721   -7.0757928    33.387721  0.028683609   0.03235648            3 
   98000      1.22581   -7.0727321      33.6963  0.028653316  0.032361354            2 
   99000    1.2102596   -7.0799661     34.09163  0.028696658  0.032368811            2 
  100000    1.2010344   -7.0484685    34.548893  0.028790744  0.032374642            2 
  101000    1.2388366   -7.0783938    34.850545  0.028754575  0.032380922            3 
  102000    1.2268117   -7.1162579    35.359886  0.028888796  0.032385921            2 
  103000    1.2187071   -7.0976491    35.803345  0.028967108  0.032392664            1 
  104000    1.2053841   -7.1153051    35.809011  0.028693118  0.032388575            4 
  105000    1.1955794   -7.1036368     36.10829  0.028657373  0.032375048            3 
  106000    1.2192837   -7.0984869    36.363645  0.028587771  0.032361568            2 
  107000    1.2153628   -7.1055632    36.909216  0.028745495  0.032348736            2 
  108000    1.2091723   -7.1005053    37.302446  0.028782751  0.032336887            7 
  109000    1.1958627    -7.095798    37.708255  0.028828941  0.032328274            2 
  110000    1.1856716   -7.0999818    37.952058  0.028751559  0.032314806            2 
  111000    1.1993367   -7.1095319    38.380695  0.028814335  0.032299532            2 
  112000    1.1953406   -7.0884085    38.554633  0.028686482  0.032280485            2 
  113000    1.1972243   -7.1079957    38.874137  0.028668243  0.032258622            3 
  114000      1.20907   -7.0925204    39.174508  0.028636336  0.032232117            2 
  115000    1.1786075   -7.0625445    39.625074  0.028713821  0.032204249            3 
  116000    1.2604786   -7.0755378    39.888138  0.028655271   0.03217764            2 
  117000    1.2215426   -7.0461049    40.263869  0.028677969  0.032148962            3 
  118000    1.1730297   -7.0907175    40.304132   0.02846337  0.032119552            3 
  119000    1.1991334   -7.0870442    40.669083   0.02847975  0.032081777            2 
  120000    1.2047116   -7.0788478    41.148691  0.028575479  0.032042563            1 
  121000    1.2066834   -7.1227141    41.129313  0.028325973  0.032001256            2 
  122000    1.1979015   -7.1063237    41.603171  0.028417467  0.031960165            1 
  123000    1.2110241   -7.0953705    42.012336  0.028463642  0.031922917            2 
  124000    1.2319587   -7.0988168    42.566812  0.028606728  0.031884623            3 
  125000    1.2032192   -7.0752506    42.807307  0.028538205   0.03185176            1 
  126000     1.206196    -7.095171    43.267565  0.028616115  0.031818084            2 
  127000    1.1924547   -7.1380166    43.593152   0.02860443  0.031785492            1 
  128000    1.1993015   -7.1086359     43.96886   0.02862556  0.031756932            2 
  129000     1.181426   -7.1298725    44.244009  0.028581401  0.031726572            3 
  130000    1.2248898   -7.1315501    44.544087  0.028553902  0.031694134            3 
  131000    1.2055472    -7.114719    45.035188  0.028648338  0.031665408            1 
  132000    1.2348908   -7.1264105    45.209544  0.028541379  0.031633503            2 
  133000    1.1879836   -7.1132064    45.698686  0.028633262  0.031601908            1 
  134000     1.229179   -7.0651431     45.97977  0.028594384  0.031570992            4 
  135000    1.1933988   -7.1168545    45.975438    0.0283799  0.031537163            3 
  136000    1.1894581   -7.0614956    46.571649   0.02853655  0.031504087            2 
  137000    1.1703191   -7.0810094    46.620247  0.028357814  0.031470372            4 
  138000    1.1933239   -7.1085728    46.889024  0.028314628  0.031431725            4 
  139000     1.206414   -7.1507253    47.168154   0.02827827  0.031388583            3 
  140000    1.2099731   -7.1007205    47.630955  0.028351759  0.031348476            1 
  141000     1.189012   -7.1067106    47.920795  0.028321983  0.031310965            4 
  142000    1.1753246   -7.0990359    48.312104  0.028352173  0.031274128            2 
  143000    1.2135663   -7.1198841    48.763279  0.028416829  0.031237673            3 
  144000    1.1718623   -7.1009356    48.952029  0.028328721  0.031203222            2 
  145000    1.1802492   -7.1454949    49.259809  0.028310235  0.031167505            3 
  146000      1.20494   -7.1172065    49.790974  0.028419505  0.031134854           11 
  147000    1.1978665   -7.1223897    50.023023  0.028357723   0.03110311            1 
  148000    1.2124256   -7.1265797    50.269116  0.028304682  0.031070725            6 
  149000    1.1889015   -7.0976055    50.750865  0.028384153  0.031039401            1 
  150000    1.1909874   -7.1224983    51.213547  0.028451971  0.031011532            1 
  151000    1.2004207   -7.1183291    51.191708  0.028251494  0.030981033            1 
  152000    1.2270502   -7.1680701    51.393683  0.028176361  0.030945325            6 
  153000    1.1948271   -7.1246778    52.042423  0.028345546  0.030911573            1 
  154000    1.1978335   -7.1294177    52.488868  0.028403067  0.030879606            3 
  155000    1.1654638   -7.1557671    52.364515  0.028152965   0.03084578            1 
  156000    1.1866699   -7.1036475    52.910794  0.028264313  0.030812857            3 
  157000    1.1770982   -7.1336463    53.417153  0.028353054  0.030782037            3 
  158000    1.2066729    -7.149388    53.807166  0.028379307  0.030752909            3 
  159000    1.1948661    -7.120878    53.852525  0.028224593  0.030724574            2 
  160000    1.1771371   -7.1446868    54.276535  0.028269029  0.030693613            2 
  161000    1.2179231   -7.0963391    54.730233  0.028328278  0.030665651            6 
  162000    1.1817103   -7.1345261    55.028843  0.028307018  0.030640619            1 
  163000    1.1995095   -7.1287174    55.144203  0.028192333  0.030611454            5 
  164000    1.1991779    -7.123893    55.433838    0.0281676   0.03057943            3 
  165000    1.1998207   -7.1672079     55.67381  0.028118086  0.030548782            2 
  166000    1.2233994   -7.1496519    56.020885  0.028122934  0.030516439            3 
  167000    1.2064573   -7.1669588     56.54267  0.028214905   0.03048542            2 
  168000    1.2101168   -7.0729623    56.758977  0.028154255  0.030454273            2 
  169000    1.1844922   -7.1260316    57.256162  0.028232822  0.030425879            1 
  170000    1.2071711   -7.1441077    57.712732  0.028290555  0.030400418            4 
  171000    1.1956859    -7.145811    58.121872  0.028324499  0.030378193            3 
  172000    1.1848131   -7.1523361    58.356915  0.028273699  0.030355718            2 
  173000    1.1675068    -7.135765    58.663083  0.028257747  0.030330372            1 
  174000    1.1844951    -7.131217    58.998277   0.02825588   0.03030634            2 
  175000     1.186227   -7.1799183    59.503167  0.028334842  0.030283084            2 
  176000    1.2201051   -7.1698595    59.657041  0.028246705   0.03026274            9 
  177000    1.1770018   -7.1345971    60.276064  0.028378561  0.030245176            2 
  178000    1.1512998   -7.1412218    60.811904  0.028469993  0.030228514            4 
  179000    1.1891906   -7.1788616    60.778793  0.028295528   0.03020929            2 
  180000    1.1748364   -7.1538974    61.213258  0.028339471  0.030189462            4 
  181000    1.1646865   -7.1243792    61.323261  0.028233546  0.030168898            4 
  182000    1.2102265   -7.1494787    61.713689  0.028257184  0.030147257            4 
  183000    1.1850854   -7.1171809    62.059875  0.028260417  0.030126684            4 
  184000    1.1942044   -7.1281406    62.461373  0.028288665  0.030105415            3 
  185000    1.1921628   -7.1377854    62.711871  0.028248591   0.03008478            2 
  186000    1.1933656     -7.17241    63.030226  0.028239349  0.030065198            3 
  187000    1.1969906   -7.1552995    63.325884  0.028220091  0.030044159            3 
  188000    1.1625917   -7.1275032    63.565485   0.02817619  0.030022088            2 
  189000    1.1876298   -7.1517913    63.961427  0.028201687  0.029999561            4 
  190000    1.1770902   -7.1386764    64.367373  0.028231304  0.029979728            5 
  191000    1.1729417   -7.2469217    64.468737  0.028127721  0.029957201            3 
  192000     1.189136   -7.1739928    64.921631  0.028177791  0.029935157            3 
  193000    1.1900367   -7.1833409    65.039236  0.028082571  0.029913417            2 
  194000    1.1623246   -7.1899468    65.680279  0.028213178  0.029893681            2 
  195000    1.1707182   -7.1232487    66.052856  0.028227716  0.029875874            2 
  196000    1.1908107   -7.1048513    66.439629  0.028248141  0.029860116            1 
  197000    1.1739725   -7.2080836    66.409977  0.028092207  0.029841206            3 
  198000    1.1762302   -7.1762519    66.809383  0.028118427   0.02982133            5 
  199000    1.1599632   -7.1658143    67.280312  0.028174335  0.029800794            4 
  200000    1.1894722    -7.192058    67.416068  0.028090028  0.029781637            1 
  201000    1.1662389   -7.1696906    67.923104  0.028160491   0.02976307            3 
  202000    1.1634165   -7.1794303    68.259443  0.028159836   0.02974409            2 
  203000    1.1898164   -7.1551133    68.559688  0.028144371   0.02972608            4 
  204000    1.1706801   -7.1826179    68.605388  0.028025077  0.029705952            2 
  205000     1.168624   -7.1948301    68.887851  0.028003192  0.029684873            4 
  206000     1.190017   -7.1427431    69.208139   0.02799682  0.029664782            4 
  207000    1.1796042   -7.2028304    69.489008  0.027974641  0.029644014            3 
  208000    1.1427317   -7.1484238    69.926623  0.028015474  0.029622497            4 
  209000    1.1559729   -7.1494342    70.280558  0.028022551  0.029600369            3 
  210000    1.2053112   -7.1696599    70.499561  0.027976016  0.029578907            6 
  211000    1.1790053   -7.1947232    70.483707  0.027837167   0.02955452            6 
  212000    1.1766067   -7.1683914      71.0778  0.027939387  0.029529983            2 
  213000    1.1506681    -7.149606    71.609202  0.028016119  0.029507359            2 
  214000    1.1526909   -7.2106774    71.305765  0.027767042  0.029484446            2 
  215000    1.1703089   -7.1915308     71.44881  0.027693337  0.029460229            3 
  216000    1.1643305   -7.1933572    71.800074  0.027700646   0.02943488            3 
  217000    1.1871195   -7.1942962    72.102421  0.027689102  0.029409188            2 
  218000    1.1570299   -7.1932219    72.608192  0.027755425  0.029383468            2 
  219000    1.1533258   -7.2001627    72.681634  0.027656634  0.029360426            2 
  220000    1.1714838   -7.1979214     73.09123  0.027686072   0.02933553            5 
  221000     1.167489   -7.1832644    73.401211  0.027677681  0.029310425            3 
  222000    1.1651782   -7.1954526    73.515035  0.027595734  0.029286118            4 
  223000    1.1668241   -7.2291917    73.761511  0.027564092  0.029260037            2 
  224000    1.1703394   -7.2102535    73.951933   0.02751188  0.029232553            3 
  225000    1.1475752    -7.231531    74.247828  0.027499196  0.029205618            2 
  226000    1.1488994   -7.2482206    74.692895  0.027541628  0.029180087            2 
  227000    1.1641942      -7.2189    75.095939  0.027568259  0.029155214            2 
  228000    1.1707262     -7.20768    75.483134  0.027588865   0.02913012            3 
  229000     1.163771   -7.2081053    75.654288  0.027530673  0.029104796            2 
  230000    1.1683744   -7.2130881    75.922943  0.027508313  0.029081145            2 
  231000    1.1435935   -7.1994691    76.395201  0.027559596  0.029057885            3 
  232000    1.1604646   -7.2149772    76.878458  0.027614388   0.02903562            3 
  233000    1.1847625   -7.1902932    77.145107   0.02759124  0.029012437            3 
  234000    1.1680901   -7.2165334    77.557397  0.027620155   0.02899075            1 
  235000    1.2080818    -7.186823    77.810333  0.027592317  0.028968913            2 
  236000    1.1518834   -7.2416515    77.618921  0.027407811  0.028946188            6 
  237000    1.1810991   -7.2150556    78.230979  0.027507376  0.028922724            2 
  238000    1.1556989   -7.1979389    78.402957  0.027452016  0.028899675            5 
  239000    1.1736346   -7.1878459    78.965713  0.027533373  0.028877615            2 
  240000    1.1708707   -7.1883418    79.045232  0.027446261   0.02885563            3 
  241000    1.1827145   -7.2506926    79.211758  0.027389958  0.028832873            1 
  242000    1.1487526   -7.1920199    79.352904   0.02732538  0.028808517            2 
  243000    1.1621997   -7.2536563    79.280303  0.027188033  0.028783176            3 
  244000     1.144204   -7.2293772    79.472959  0.027142404  0.028754744            4 
  245000    1.1880357   -7.2064316    80.165325  0.027267117  0.028727654            4 
  246000    1.1722034    -7.197866    80.477913  0.027262166  0.028700608            1 
  247000    1.1600794    -7.197683    80.608005  0.027195683  0.028673877            3 
  248000    1.1572826   -7.2018354    80.813109  0.027154942   0.02864692            6 
  249000    1.1648867   -7.2767861    80.839864  0.027054841  0.028619498            5 
  250000    1.1613819    -7.166437    81.402349  0.027134116  0.028591958            1 
  251000    1.1624229   -7.1864615    81.780567  0.027151583  0.028564514            2 
  252000    1.1457547   -7.1687394    82.345002   0.02723049  0.028537675            3 
  253000     1.134081   -7.2549105    82.336605  0.027120094  0.028512658            2 
  254000    1.1728966   -7.2266885    82.799688  0.027165252  0.028487917            3 
  255000    1.1616836   -7.1881509    82.793346  0.027056649  0.028461345            1 
  256000    1.1725866   -7.2164491    82.754276  0.026938241  0.028434676            3 
  257000     1.178243   -7.2577053    83.051719   0.02692987   0.02840783            2 
  258000      1.16411    -7.173964    83.777807  0.027060015  0.028381242            3 
  259000    1.1285417   -7.2424784    83.689592  0.026927153  0.028355122            2 
  260000    1.1450994   -7.2435253    83.863291   0.02687926  0.028328748            1 
  261000    1.1341923   -7.2829569     84.42249  0.026954818  0.028302098            1 
  262000    1.1657801    -7.246467    84.449762  0.026860611  0.028274699            2 
  263000    1.1702391   -7.2137707    84.984051  0.026927773  0.028247193            2 
  264000    1.1529576   -7.2300145      84.6068  0.026706692  0.028219245            4 
  265000    1.1503104   -7.2680981    85.213661  0.026796749  0.028190012            2 
  266000    1.1384365   -7.2485036    85.203394  0.026692792  0.028160951            3 
  267000    1.1570526   -7.2433579    85.320825  0.026629471  0.028131774            2 
  268000    1.1501053    -7.241789    85.662792   0.02663644  0.028102629            3 
  269000    1.1521428   -7.2098844    86.095915  0.026671597  0.028074693            2 
  270000    1.1330088   -7.2593996    86.140019  0.026586426  0.028046512            2 
  271000    1.1488602   -7.2462996    86.610406  0.026632966  0.028015766            2 
  272000    1.1421537   -7.2341712    86.723098  0.026569576  0.027986472            2 
  273000    1.1308315   -7.2695732    86.979468  0.026550509  0.027957462            2 
  274000    1.1394182   -7.2591619    87.566411   0.02663212  0.027930563            5 
  275000    1.1262794   -7.2337079    88.096013  0.026695761  0.027904857            4 
  276000    1.1124854   -7.2592939    88.353403  0.026676752  0.027879316            2 
  277000    1.1247144   -7.2377846    88.756172  0.026701616  0.027855094            6 
  278000    1.1340933   -7.2949109     88.77362  0.026610797    0.0278309            2 
  279000    1.1319131   -7.1775591    89.721987  0.026798682  0.027806895            3 
  280000    1.1269077   -7.2709517    89.603093  0.026667587  0.027783084            3 
  281000    1.1560549   -7.2340684    89.634158  0.026581897  0.027759907            2 
  282000    1.1389661   -7.2924051    89.837101  0.026547607   0.02773613            5 
  283000    1.1515255   -7.2961003    89.921744  0.026478723  0.027711617            3 
  284000    1.1440873   -7.2712659    90.379982  0.026519948   0.02768736            3 
  285000      1.15691   -7.2809945    90.909237  0.026581648  0.027664021            4 
  286000    1.1310783   -7.2942946    90.983285  0.026510281  0.027641146            2 
  287000    1.1215047   -7.2593472    91.639573  0.026608471  0.027619286            2 
  288000       1.1241   -7.2390736     91.94991  0.026605877   0.02759931            3 
  289000     1.136888   -7.2574996    92.262936  0.026604076  0.027578651            2 
  290000     1.125577    -7.269872    92.506659  0.026582373  0.027557979            4 
  291000     1.143969   -7.2899203    92.662763  0.026535728  0.027537641            2 
  292000    1.1275328   -7.2286568    92.984891  0.026536784  0.027515476            2 
  293000    1.1400891   -7.2944051    93.099569  0.026478831  0.027493843            2 
  294000    1.1627484   -7.2231723    93.436086  0.026484151  0.027472714            2 
  295000    1.1431749   -7.2947112    93.928415   0.02653345  0.027452157            2 
  296000    1.1394345   -7.2748198     94.01309  0.026467649  0.027431615            3 
  297000    1.1144029   -7.2561633    94.191592  0.026428617  0.027409887            4 
  298000    1.1408286   -7.3108564    94.639421  0.026465163  0.027389226            7 
  299000    1.1081761   -7.3060794    94.729272  0.026401692  0.027368765            4 
  300000    1.1329919     -7.26418    95.461649  0.026517125  0.027348635            2 
  301000    1.1765084   -7.2667036    95.450874  0.026426045  0.027328782            2 
  302000    1.1349935   -7.2776051    95.629865  0.026387932  0.027308894            5 
  303000    1.1177434    -7.329546    96.002618   0.02640336  0.027288998            3 
  304000    1.1048447   -7.3345412     96.15106  0.026357198  0.027268974            1 
  305000    1.1103954   -7.2609607    96.774069  0.026441003  0.027249984            4 
  306000    1.1382971   -7.2762031    97.126208  0.026450492  0.027232564            1 
  307000    1.1365685   -7.2585889    97.640641  0.026503974  0.027215121            5 
  308000    1.1198999   -7.2901958    97.793727  0.026459342  0.027197501            3 
  309000    1.1260402   -7.3129053    98.093816  0.026454643  0.027180428            2 
  310000     1.115994   -7.3038944    98.211847  0.026401034  0.027163105            2 
  311000    1.1309139   -7.2716214    98.723574  0.026453262  0.027146293            1 
  312000    1.1621591   -7.3258534    99.017319  0.026446934  0.027129333            3 
  313000    1.1225741   -7.2298684    99.275141  0.026431081  0.027112489            3 
  314000    1.1334205   -7.2644356    99.784838  0.026482176  0.027096402            2 
  315000    1.1361845   -7.2654833    99.591489  0.026346955  0.027079959            2 
  316000    1.1395531   -7.3213391    99.489979  0.026236809  0.027062495            2 
  317000    1.0998057   -7.2840352    100.07933  0.026308971  0.027043744            3 
  318000    1.1167309   -7.2761817    100.50261  0.026337162  0.027025023            2 
  319000    1.1371874   -7.3297639    100.23987  0.026185964  0.027006896            2 
  320000    1.1520528   -7.2554662    100.85536  0.026264415  0.026989405            3 
  321000    1.1091226    -7.250308    101.36916  0.026315981  0.026972628            3 
  322000     1.125191   -7.2930606    101.34734  0.026228607  0.026955763            2 
  323000    1.1339692   -7.3195492    101.37024  0.026153314   0.02693828            2 
  324000    1.1321361   -7.2926479    101.65494  0.026145819  0.026919719            2 
  325000    1.1262683   -7.3012297     102.3318  0.026238923  0.026902339            2 
  326000      1.13289   -7.2854085    102.34709  0.026162345  0.026884325            1 
  327000    1.1558413   -7.2850385    102.93258  0.026231544  0.026866411            2 
  328000    1.1113991   -7.3383594    102.70424  0.026093556  0.026849294            1 
  329000    1.1078112   -7.3094463    103.20173  0.026140256  0.026831722            1 
  330000    1.1207205   -7.2666775    103.67706  0.026181077  0.026814389            1 
  331000    1.1155944   -7.3177267    103.82658  0.026139622  0.026796899            2 
  332000       1.1123   -7.3406297    104.20103  0.026154876   0.02678039            5 
  333000    1.1102632   -7.3435841    104.39564  0.026125035  0.026763639            1 
  334000    1.1263102   -7.3125913    104.63936  0.026107624  0.026747375            3 
  335000    1.1233564   -7.3010857    105.03901  0.026129107  0.026731194            3 
  336000    1.1322913   -7.3028665    105.17549  0.026085192  0.026714279            2 
  337000    1.1162182   -7.3627411    104.99043  0.025962026  0.026696789            1 
  338000    1.1163499   -7.3506979    105.22748  0.025943659  0.026678711            3 
  339000    1.1048151   -7.3043401    105.46084  0.025924493  0.026660865            3 
  340000    1.1422371   -7.2705671    106.28869   0.02605115  0.026644401            3 
  341000    1.1371664   -7.3712737    105.82871  0.025862344  0.026626998            4 
  342000     1.100093   -7.3395257    106.33479  0.025910036  0.026609014            3 
  343000    1.1214762   -7.3583849    106.08278  0.025773269  0.026590525            3 
  344000    1.1134348   -7.3593208    106.90568  0.025897695   0.02657164            2 
  345000    1.1196154   -7.3032546     107.0126  0.025848455  0.026552409            2 
  346000    1.1242272   -7.3375675    106.95633  0.025760194  0.026533571            2 
  347000    1.0941962   -7.3752042    106.95632  0.025685955  0.026514283            3 
  348000    1.1330535   -7.3054294    107.54257  0.025752532  0.026494637            2 
  349000    1.1294246   -7.2892284    107.85209  0.025752649  0.026475498            2 
  350000    1.1552238   -7.3396336    108.12985  0.025745203  0.026457371            2 
  351000    1.1011723   -7.3332339    108.37096  0.025729098  0.026439489            2 
  352000    1.1182169   -7.3742919    107.91815  0.025548804  0.026421278            3 
  353000    1.1360468   -7.3465003    108.50236  0.025614344  0.026402319            4 
  354000    1.1037161   -7.3789799    108.76691  0.025604263  0.026383498            6 
  355000    1.1397171    -7.311098    109.52369  0.025709786   0.02636497            5 
  356000    1.1214849   -7.3455808    109.48225  0.025627867  0.026346207            4 
  357000    1.0927722   -7.3449361    109.70251  0.025607496  0.026327464            5 
  358000    1.0922986    -7.356218    109.97245  0.025598801  0.026308251            3 
  359000    1.0974747   -7.3490271     110.1306  0.025564207  0.026290235            7 
  360000    1.1061395   -7.3195556    110.84625  0.025658853  0.026272259            3 
  361000    1.0990543   -7.4089401      110.457  0.025497921   0.02625338            4 
  362000    1.1187411   -7.3623123    111.18055  0.025594049  0.026234457            3 
  363000    1.0912645   -7.3842386    110.86821  0.025451838  0.026216178            3 
  364000     1.113935   -7.3975615    111.52769  0.025532896   0.02619728            4 
  365000    1.1014408   -7.3485295    111.54216  0.025466247  0.026178126            2 
  366000    1.1024489   -7.3544341    111.45724  0.025377331  0.026158602            3 
  367000    1.1068577    -7.391047    111.72383  0.025368718  0.026138491            6 
  368000    1.1268778   -7.3741986    112.16754  0.025400259   0.02611824            2 
  369000    1.1079215   -7.3801091    112.24887  0.025349789  0.026098854            2 
  370000    1.0910379   -7.3645518    112.56385  0.025352218  0.026078089            3 
  371000    1.0858438   -7.3335761    112.65177  0.025303632  0.026057808            5 
  372000    1.0930401   -7.3406677    112.85436  0.025280996  0.026037761            3 
  373000    1.1102198   -7.3345322    113.43558  0.025343069  0.026017857            2 
  374000    1.1199986   -7.3719848    113.64683  0.025322378  0.025997918            3 
  375000    1.1163867   -7.3429462    113.76769   0.02528171  0.025977915            2 
  376000    1.0898805    -7.382347    113.73802  0.025207895  0.025957464            2 
  377000     1.121764   -7.3932876    114.16183   0.02523471  0.025936893            3 
  378000       1.0872   -7.3555899    114.40302  0.025221123  0.025917533            2 
  379000    1.1184702    -7.341983    114.91385  0.025266897  0.025898498            4 
  380000     1.085674   -7.3988837    114.86884  0.025190535  0.025879408            3 
  381000    1.1152918   -7.3572804    115.18843   0.02519432  0.025860493            2 
  382000    1.0919273   -7.3916283    115.61285  0.025220954  0.025841022            2 
  383000    1.1011908   -7.3997365    115.22401  0.025070499  0.025821288            8 
  384000    1.1250556   -7.3889762    115.83149  0.025137042  0.025801253            3 
  385000    1.1057817   -7.3619543    116.27792  0.025168381  0.025781198            2 
  386000    1.1163102   -7.3758076    116.34274  0.025117172  0.025761363            4 
  387000    1.0859158   -7.3365196    116.30944  0.025045099  0.025741327            3 
  388000    1.1302159   -7.3643226     116.6928  0.025062887  0.025721299            2 
  389000     1.089566   -7.3397407    117.24405  0.025116548  0.025703055            5 
  390000     1.114526   -7.3848682    117.11551  0.025024682  0.025684119            4 
  391000    1.1337973   -7.3698811    117.67372   0.02507965  0.025665699            4 
  392000    1.0817621   -7.3379211    118.13234  0.025113167  0.025646987            2 
  393000    1.0946764   -7.3743573    118.17644  0.025058617  0.025629635            2 
  394000    1.1043246   -7.3762226    118.15551   0.02499059  0.025611229            3 
  395000    1.0948562    -7.394521    118.44647  0.024988706  0.025593076            2 
  396000    1.0779302   -7.3864971      119.147  0.025073021  0.025574914            5 
  397000    1.1159032   -7.3891905      119.193   0.02501952  0.025557384            3 
  398000    1.1021516    -7.407802    118.96267  0.024908432  0.025539652            3 
  399000    1.1052633   -7.3547552    120.11393  0.025086451  0.025521084            3 
  400000    1.0755165   -7.3494033    120.34542  0.025071963  0.025502972            5 
  401000     1.118452   -7.3893555    119.71762  0.024878974  0.025484494            4 
  402000    1.0899909    -7.379891    120.38432   0.02495529   0.02546613            2 
  403000    1.1011485   -7.4161794    120.04767  0.024823754  0.025447232            3 
  404000    1.0873849   -7.4405835    120.35195  0.024825072  0.025428484            5 
  405000    1.1034946   -7.3884559    120.82173  0.024860439  0.025410187            5 
  406000    1.0826654   -7.4469097    121.02995  0.024841944  0.025392114            3 
  407000    1.0991912   -7.3697166    121.35387  0.024847229  0.025374181            2 
  408000     1.092347   -7.3879016    121.72449  0.024862029   0.02535649            6 
  409000    1.0745572   -7.4303362    121.82435  0.024821587   0.02533834            3 
  410000    1.0868697   -7.3773015    122.35985  0.024869889  0.025320345            3 
  411000    1.0832176    -7.420546     122.1509  0.024767012  0.025302401            2 
  412000    1.1060722   -7.3721591    122.35807    0.0247488  0.025284427            3 
  413000    1.0908836   -7.3867596    122.91513  0.024801276  0.025265863            2 
  414000    1.0879272   -7.3770536    122.97873  0.024754172  0.025247575            3 
  415000    1.0937184   -7.4396147    122.58251  0.024614961  0.025229092            4 
  416000    1.0954373     -7.40941    123.51782  0.024743153  0.025210627            5 
  417000    1.0808766   -7.4394538    123.32747  0.024645778  0.025191986            2 
  418000    1.0712704   -7.4117374    123.31604  0.024584538   0.02517379            3 
  419000    1.0751421   -7.3833025    124.20181   0.02470203  0.025155041            2 
  420000    1.0925183   -7.4417917    123.81451  0.024566371   0.02513585            2 
  421000    1.0861963   -7.3953245    123.86675  0.024518358  0.025116501            2 
  422000    1.1083058   -7.4626762    123.79722  0.024446529   0.02509715            2 
  423000    1.0892772   -7.4388875     124.1797  0.024464087  0.025077565            3 
  424000    1.0858471   -7.3891754    124.82974  0.024534148  0.025058037            2 
  425000     1.089757   -7.4345144    124.20337  0.024353602  0.025038269            3 
  426000    1.1115508   -7.4007963    124.87512   0.02442784  0.025018627            3 
  427000    1.0915111   -7.4038384    124.92177  0.024379737  0.024998748            7 
  428000    1.0551895   -7.4210498    125.23895  0.024384532  0.024978448            4 
  429000    1.0631862   -7.3567418    126.04283  0.024483844  0.024959531            3 
  430000    1.0959583   -7.3951678    125.78461  0.024376862   0.02494083            3 
  431000    1.0802076   -7.4055106    126.54193  0.024466731  0.024921203            5 
  432000    1.0514941   -7.4935682    125.49804  0.024208727  0.024901465            3 
  433000    1.0720206    -7.389402    126.52037   0.02434957  0.024881777            2 
  434000    1.0610334   -7.4252072    126.14835  0.024222034    0.0248621            2 
  435000    1.1003777   -7.3886899    126.48355  0.024230565  0.024842011            2 
  436000    1.0753224   -7.4707629    126.10538  0.024102711  0.024821336            1 
  437000    1.0822193   -7.4266999    126.92497  0.024203847  0.024800747            1 
  438000     1.110507    -7.438454    126.98761  0.024160505  0.024780854            4 
  439000    1.0822262   -7.4362044    127.43515  0.024190423  0.024761446            4 
  440000    1.0832391   -7.4531776    127.35659  0.024120567  0.024741811            6 
  441000    1.0879529   -7.4336276    127.62959  0.024117459  0.024721648            3 
  442000    1.0811515   -7.4576809    127.94662  0.024122667  0.024701827            2 
  443000    1.0633957   -7.4780525    127.84147  0.024048433  0.024682131            2 
  444000      1.06926   -7.4293206     128.3698   0.02409343  0.024662168            2 
  445000    1.1033744   -7.4568909    128.83345  0.024126114  0.024642833            2 
  446000    1.0438468   -7.4183145    129.13478  0.024128323  0.024623854            3 
  447000    1.1012859    -7.422036    129.19606  0.024085767  0.024605032            3 
  448000    1.0777807   -7.4058284    129.74189  0.024133536  0.024585728            2 
  449000    1.0643156   -7.4552289    129.45643  0.024026806  0.024566283            6 
  450000    1.0673979   -7.4443795    129.23132  0.023931726  0.024546573            3 
  451000    1.0509596   -7.4715927    129.77085  0.023978354  0.024526146            3 
  452000    1.0420521   -7.4643415    129.75229  0.023921883  0.024506019            2 
  453000    1.0650077   -7.4588148    130.16739  0.023945435  0.024485717            3 
  454000    1.1035777   -7.4267343    130.29075  0.023915335  0.024465412            3 
  455000     1.065159   -7.4556845    130.08804  0.023825649  0.024445427            5 
  456000     1.074274   -7.4375191    130.36684  0.023824349  0.024425725            2 
  457000    1.0797256    -7.465019    130.50513  0.023797435  0.024405732            1 
  458000    1.0944153     -7.41513    130.95056   0.02382652  0.024386126            2 
  459000    1.0939867   -7.4490975     131.0285  0.023788761  0.024366244            5 
  460000    1.0490495   -7.4722099    131.39735  0.023803868   0.02434626            1 
  461000    1.0774887   -7.4795345    131.61315  0.023791242  0.024326343            3 
  462000    1.0932837   -7.4708192    131.66973  0.023749951  0.024306378            5 
  463000    1.0855144    -7.398648    132.48609  0.023845588  0.024286436            3 
  464000     1.075555   -7.4052345    132.70359  0.023833259  0.024267452            4 
  465000     1.074231   -7.4446584    132.77245  0.023794346  0.024248787            2 
  466000    1.0605738   -7.5084059    132.83335  0.023754175  0.024229192            6 
  467000    1.0773142   -7.4993439    132.57784  0.023657716   0.02420981            3 
  468000    1.0910501    -7.449424    132.88539  0.023661929  0.024189839            4 
  469000    1.0719154   -7.5034371    132.18055  0.023486239   0.02416958            3 
  470000    1.0693987   -7.4541979    133.20706  0.023618273  0.024149268            3 
  471000    1.0761784   -7.4713422    133.68422  0.023652552  0.024129345            2 
  472000    1.0858504   -7.4435953    133.59824  0.023587261  0.024109963            4 
  473000    1.0728991   -7.5023837    133.88956  0.023588718  0.024090347            4 
  474000    1.0638742   -7.4747557    134.29525  0.023610276  0.024070786            2 
  475000    1.0540222   -7.4468341    134.25064  0.023552745   0.02405156            2 
  476000    1.0657157   -7.4833467    134.41655  0.023532309  0.024032299            2 
  477000    1.0440684   -7.4617136     134.5755  0.023510745  0.024012933            4 
  478000    1.0436618   -7.4421624    134.94991  0.023526832  0.023993276            5 
  479000    1.0462856   -7.4679856    135.27505  0.023534281  0.023973639            2 
  480000    1.0771547   -7.4572424    135.25202  0.023481253  0.023954014            2 
  481000    1.0832947   -7.4965417    135.11755  0.023409139   0.02393436            8 
  482000    1.0740903   -7.4728116    135.86693  0.023490133  0.023915061            4 
  483000    1.0657099   -7.4756716    135.84553  0.023437806  0.023895851            3 
  484000    1.0728919   -7.4816801    135.77279  0.023376859  0.023876485            3 
  485000    1.0821838   -7.4880785    135.99083  0.023366122  0.023857322            3 
  486000    1.1019741   -7.4298785    136.99219  0.023489744  0.023838469            2 
  487000    1.0394344   -7.5174392    136.61797  0.023377475  0.023819804            3 
  488000    1.0702644   -7.4948846    136.39417  0.023291354   0.02380036            3 
  489000    1.0463653   -7.5243888    136.62872  0.023283694  0.023780468            5 
  490000    1.0683109   -7.4937527    136.54697  0.023222275  0.023760889            4 
  491000    1.0507059   -7.5276877    136.54824  0.023175194  0.023741359            4 
  492000    1.0702745   -7.4919352    137.57212   0.02330151  0.023722179            3 
  493000    1.0725892   -7.5094372    137.41064   0.02322695  0.023702994            3 
  494000    1.0577002   -7.4713979    137.15192  0.023136288    0.0236832            4 
  495000      1.06611   -7.4949852    137.61742  0.023167916    0.0236633            4 
  496000    1.0751479   -7.4937959    137.90839  0.023170092  0.023643764            4 
  497000    1.0618834   -7.5164354    137.98235  0.023135874  0.023624142            5 
  498000    1.0688525   -7.4943082    138.26377  0.023136508  0.023604593            3 
  499000    1.0907846    -7.517883    138.27119  0.023091381  0.023584918            5 
  500000    1.0753181   -7.4711997    138.59266  0.023098777   0.02356519            2 
  501000    1.0359645   -7.4837883     139.0412  0.023127279  0.023545822            4 
  502000    1.0500115   -7.4697647    138.93086  0.023062892  0.023525966            4 
  503000    1.0512251   -7.5159119    138.87542  0.023007856   0.02350657            6 
  504000     1.059696   -7.5333768    139.35704  0.023041838  0.023487228            4 
  505000     1.056929   -7.5178909    139.67892  0.023049327  0.023467634            2 
  506000    1.0569965   -7.5380711     139.7765  0.023019845  0.023448388            3 
  507000    1.0443647   -7.5254638    139.65231  0.022954029  0.023428721            6 
  508000    1.0464906    -7.524975    139.74594  0.022924202  0.023409108           10 
  509000    1.0535947   -7.4736329    140.82966  0.023056591  0.023390358            5 
  510000    1.0343825    -7.527307    140.54392  0.022964692  0.023371751            3 
  511000    1.0443251   -7.5129463    140.80799  0.022962816  0.023353276            5 
  512000    1.0551869   -7.5533084    141.02351  0.022953045  0.023334811            3 
  513000    1.0613868   -7.4740824    141.50735    0.0229869  0.023316005            4 
  514000    1.0542762    -7.483363    141.58939  0.022955479  0.023297869            3 
  515000    1.0522385   -7.5283736    141.70443  0.022929519  0.023279639            3 
  516000    1.0628282    -7.524875    141.67431  0.022880218  0.023261188            1 
  517000    1.0517238   -7.5073397    142.35868  0.022946273  0.023242866            7 
  518000    1.0577334   -7.5426223    142.02208  0.022847825  0.023224397            5 
  519000    1.0299712   -7.5098332    142.97899  0.022957449  0.023206135            3 
  520000    1.0355181   -7.5157139    142.44283  0.022827377  0.023187798            3 
  521000    1.0316179   -7.5060897    142.28982  0.022759088   0.02316959            4 
  522000    1.0529338   -7.5184372    143.37457   0.02288866  0.023151438            4 
  523000    1.0584697    -7.529516    142.98904  0.022783468  0.023133436            1 
  524000    1.0312351   -7.5559671    143.48418  0.022818731   0.02311569            4 
  525000      1.05332   -7.5325664    144.15904  0.022882387  0.023098242            4 
  526000     1.038271   -7.5411355    144.34636  0.022868562   0.02308128            6 
  527000    1.0620462   -7.5273407    144.56485  0.022859717  0.023064342            1 
  528000    1.0678301   -7.5266322    145.01945  0.022888171  0.023047804            3 
  529000    1.0323647   -7.5384876    145.23583   0.02287899  0.023031185            5 
  530000    1.0491379   -7.5412549    145.04004  0.022805037  0.023014502            2 
  531000    1.0365926    -7.524349    145.29182  0.022801603  0.022998104            7 
  532000    1.0462555   -7.5084807     145.4296  0.022780325  0.022981536            5 
  533000     1.033738   -7.5107907    146.17123  0.022853538  0.022964977            2 
  534000    1.0382101    -7.551633    145.90721   0.02276954  0.022948225            4 
  535000    1.0457414   -7.4946165    146.38381  0.022801217  0.022931714            4 
  536000    1.0502086   -7.5419963    146.21835  0.022732952  0.022915006            2 
  537000    1.0571031   -7.4961974    146.43869  0.022724813  0.022898353            4 
  538000    1.0189814    -7.521771    146.24628   0.02265277  0.022882097            3 
  539000     1.031512   -7.5216397    146.95793  0.022720768  0.022865164            3 
  540000    1.0372747   -7.5434653     146.8292  0.022658826  0.022848541            2 
  541000    1.0325323   -7.5554957     146.5859  0.022579466  0.022831832            5 
  542000    1.0387753   -7.5417223    147.17619  0.022628565  0.022814621            3 
  543000    1.0264813   -7.4940668    147.38548  0.022619012   0.02279763            5 
  544000    1.0171453   -7.5372265    147.45967  0.022588798  0.022780778            5 
  545000    1.0496857   -7.5619292    147.95975  0.022623815  0.022764304            4 
  546000    1.0267848   -7.5620312     147.6773   0.02253927  0.022747371            2 
  547000    1.0340591   -7.5845001    147.28575  0.022438414  0.022729741            1 
  548000    1.0282706   -7.5718646    147.67495  0.022456654  0.022712319            2 
  549000    1.0230523   -7.5904108    148.11312  0.022482258  0.022695211            5 
  550000    1.0732942   -7.5592608    148.07805  0.022436069  0.022678453            4 
  551000    1.0331054   -7.5511853    148.33902  0.022434819  0.022661483            3 
  552000    1.0505167   -7.5675399    148.82009  0.022466802  0.022644444            3 
  553000    1.0448003   -7.5703101    148.68878  0.022406387  0.022627391            2 
  554000    1.0147861   -7.5617126    148.54699  0.022344613  0.022610563            4 
  555000    1.0401232   -7.5656711     149.0531  0.022380345  0.022593527            2 
  556000    1.0490308   -7.5791017    149.05273  0.022340037  0.022576275            4 
  557000    1.0258169   -7.5029587    149.98458  0.022439345  0.022559593            4 
  558000    1.0281603   -7.5368181    150.17964  0.022428262  0.022543061            5 
  559000    1.0351091   -7.5622014    149.73739   0.02232221  0.022526269            4 
  560000    1.0391017   -7.5893071    150.05557  0.022329698  0.022509035            4 
  561000    1.0298468   -7.5875032    149.80952  0.022253346  0.022491654            1 
  562000    1.0313293   -7.5416807    150.04983  0.022249382  0.022474369            4 
  563000    1.0379028   -7.5563031    150.59589  0.022290688   0.02245708            4 
  564000    1.0252684   -7.5680474    150.44466   0.02222882  0.022440423            5 
  565000    1.0156745   -7.5983726    150.50638  0.022198581  0.022423246            1 
  566000    1.0433055   -7.5768737    150.63833  0.022178789  0.022406185            3 
  567000    1.0400299   -7.6047983    150.94565  0.022184839  0.022389216            3 
  568000    1.0218593   -7.5700791    151.21304  0.022185012  0.022372361            6 
  569000     1.035057   -7.5838757    151.66807  0.022212663  0.022355888            5 
  570000    1.0287022   -7.5763254    151.99463  0.022221437  0.022339539            2 
  571000    1.0363206   -7.5934531    151.71622  0.022141888  0.022322955            8 
  572000     1.046941   -7.5596145    152.09805  0.022158807  0.022306552            6 
  573000    1.0279245   -7.5682861    152.13991  0.022126223  0.022290099            3 
  574000    1.0112069   -7.5320044    152.61602  0.022156797  0.022273662            4 
  575000    1.0195686   -7.6008394    152.28302  0.022070003  0.022256823            1 
  576000    1.0140419   -7.5963319    152.46103  0.022057441   0.02223994            4 
  577000     1.026281   -7.5864301    152.74619  0.022060397  0.022223149            4 
  578000    1.0211309   -7.6219132    152.78542  0.022027886  0.022206256           16 
  579000    1.0103386    -7.562593    153.41222  0.022080055  0.022189393            3 
  580000     1.017192   -7.5987188    153.19626  0.022010957  0.022172424            2 
  581000    1.0307798   -7.5726024    153.37715  0.021999017  0.022155167            5 
  582000    1.0354312   -7.5661784    153.38275  0.021962021   0.02213809            3 
  583000    1.0312417   -7.6013024    153.31888   0.02191522  0.022121143            3 
  584000   0.99458922   -7.6072275    153.51847  0.021906174   0.02210362            5 
  585000    1.0122858   -7.5306286    153.92677   0.02192689  0.022086416            2 
  586000   0.98507945   -7.5982982    153.31809  0.021802914  0.022069465            2 
  587000    1.0154844   -7.5638869    153.64534  0.021812229   0.02205188            3 
  588000    1.0133131     -7.61158    154.33825  0.021873334  0.022034459            2 
  589000   0.99955987   -7.5687723     154.4898  0.021857641  0.022017093            4 
  590000    1.0309805   -7.6318581    154.32774  0.021797704  0.021999833            4 
  591000    1.0098732    -7.607465     154.5472  0.021791765  0.021982934            2 
  592000    1.0283146   -7.6177301    154.62124  0.021765378  0.021965649            3 
  593000     1.007273   -7.6272315     154.5139  0.021713589  0.021948196            4 
  594000   0.99530889   -7.6140866    154.81147  0.021718781  0.021930844            3 
  595000     1.004033   -7.5479314    155.31422  0.021752691  0.021913544            2 
  596000    1.0115089   -7.6191781    155.15998  0.021694628  0.021896372            4 
  597000   0.99311961    -7.632978    155.49959  0.021705693  0.021879161            4 
  598000    1.0077367   -7.6411937     155.4357  0.021660493  0.021861976            2 
  599000    1.0218628   -7.6153041    155.56136  0.021641814  0.021844683            4 
  600000    1.0072746   -7.6013816     156.1887  0.021692875  0.021827824            5 
  601000    1.0138345    -7.619169    156.09602   0.02164393   0.02181103            4 
  602000    1.0233097   -7.6090523    155.79327  0.021566067  0.021794023            5 
  603000   0.99805367   -7.6806503    155.76501  0.021526397  0.021776678           10 
  604000    1.0176316   -7.5975099    157.11498  0.021677012  0.021759526            6 
  605000    1.0206174   -7.6417635      156.562  0.021565013  0.021742734            3 
  606000     1.037368   -7.6305095    156.61514  0.021536735  0.021725664            3 
  607000   0.98842694   -7.6288865    157.03024  0.021558243  0.021708944            3 
  608000    1.0167391   -7.6520011     157.0798  0.021529578  0.021692297            3 
  609000   0.96710526   -7.6416623    157.56968   0.02156126  0.021675589            3 
  610000     1.031088   -7.6987152    157.14108  0.021467361  0.021658666            5 
  611000    1.0154917    -7.624354    157.64579  0.021501062  0.021641723            3 
  612000    1.0163418    -7.588603    157.29829  0.021418612  0.021625014           13 
  613000     1.003856   -7.6269551    157.43069  0.021401671  0.021608438           13 
  614000    1.0072688   -7.6100681    157.98107  0.021441513   0.02159173            3 
  615000    1.0259404   -7.6110819    158.00267  0.021409575  0.021574848            3 
  616000    1.0321141   -7.6436374     158.3027  0.021415408  0.021557815            3 
  617000    1.0078831   -7.6284271    157.66197  0.021294161  0.021540743            5 
  618000   0.99577985   -7.6100261    158.56807  0.021381887  0.021523077            3 
  619000    1.0005317   -7.6642095    158.30025  0.021311289  0.021505534            5 
  620000    1.0269179   -7.6481359      157.928  0.021226882  0.021488065            2 
  621000   0.99560668   -7.6504745    158.30141  0.021242808  0.021470424            2 
  622000   0.98311865   -7.6248312    158.73309  0.021266491  0.021452807            7 
  623000    1.0080516   -7.6585346    158.69615  0.021227414  0.021435157            2 
  624000   0.99785571   -7.6563894    158.59416  0.021179775  0.021417311           12 
  625000   0.98204315   -7.6627962    158.61984  0.021149311  0.021399898            4 
  626000   0.99612308   -7.7004185     159.0226  0.021169143  0.021382364            3 
  627000    0.9871653   -7.6627277    159.04591  0.021138478  0.021364703            8 
  628000   0.99537987    -7.643926    159.25509  0.021132576  0.021347202            8 
  629000    1.0027417   -7.6366558    159.30227  0.021105229  0.021329701            3 
  630000   0.99679139   -7.6634289    159.57011  0.021107158   0.02131208            2 
  631000   0.99908284   -7.6529323    159.99487  0.021129803  0.021294644            9 
  632000     0.995963   -7.5759965    160.20525   0.02112411  0.021277473            6 
  633000   0.99602128   -7.6523875    159.62124  0.021013855  0.021260193            3 
  634000   0.99269308    -7.632453    160.15204  0.021050478  0.021242752            3 
  635000   0.98655481   -7.6533441    159.98002  0.020994753  0.021225338            3 
  636000    1.0126333   -7.6411292    160.74087  0.021061435  0.021208285            6 
  637000   0.99241797   -7.6669678     160.5121  0.020998443  0.021191149            3 
  638000   0.99039261   -7.6659187    160.75151  0.020996801  0.021173878            2 
  639000   0.99232277   -7.6024735    161.19771  0.021022132   0.02115697            2 
  640000   0.99427513   -7.7002915    160.73213  0.020928662  0.021139939            2 
  641000   0.99864384   -7.6710023    161.61137  0.021010318  0.021122653            4 
  642000    1.0046583   -7.6362764    161.49879  0.020962978  0.021105916            4 
  643000    1.0081182   -7.7017539    161.62696  0.020946988  0.021088936            3 
  644000   0.99654339   -7.6678691    162.03478  0.020967234  0.021071755            4 
  645000    0.9900198   -7.6854927    161.69891  0.020891333  0.021054765            3 
  646000     1.009356   -7.6734773    161.95759  0.020892362  0.021037654            3 
  647000   0.98507824   -7.6248088    162.70481  0.020956313  0.021020822            5 
  648000   0.99308106    -7.622705    162.67508   0.02092015  0.021003951            7 
  649000    1.0079473   -7.6617832    161.98205  0.020798928  0.020986944            7 
  650000    1.0023594   -7.6205221    162.51537  0.020835304  0.020969782            6 
  651000   0.98728411   -7.6612732     162.5239  0.020804391  0.020952591            4 
  652000   0.99538737   -7.6956089    162.57909  0.020779536  0.020935309            3 
  653000   0.99191675   -7.6696143     162.3555   0.02071918  0.020917704            6 
  654000    1.0052655    -7.704711    162.43636  0.020697803  0.020900103            2 
  655000   0.99578846   -7.6975312    162.51272  0.020675918  0.020882506            6 
  656000    1.0117448    -7.710251    162.36931  0.020626182  0.020864781            3 
  657000   0.98770743   -7.7204044    162.51729  0.020613558  0.020847176            3 
  658000   0.97741622   -7.6974411    162.80751  0.020618986   0.02082942            7 
  659000   0.99938436   -7.6823101    162.96578  0.020607711  0.020811704            4 
  660000   0.98979045   -7.6737519    163.10648  0.020594253  0.020794054            5 
  661000    1.0052469   -7.6838459    163.66556   0.02063358  0.020776531            6 
  662000   0.99301299   -7.6702643    163.19913  0.020543698  0.020758901            3 
  663000    1.0137554   -7.7045263     163.6498  0.020569356  0.020741403            4 
  664000   0.97096934   -7.6706187    163.54053  0.020524665  0.020723836            7 
  665000    0.9942704   -7.6716351    163.64382  0.020506745  0.020706448            6 
  666000   0.99663309   -7.7148042    163.37765  0.020442648  0.020688808            7 
  667000   0.98882301   -7.6712082    164.10804  0.020503254  0.020671062            2 
  668000   0.98953624    -7.676149    164.34488  0.020502105  0.020653385            4 
  669000   0.99051678   -7.6726342    164.55185  0.020497241  0.020635784            5 
  670000     0.980628   -7.7119922    164.02185  0.020400728  0.020618299            8 
  671000   0.99596809   -7.7100965    163.94029  0.020360194  0.020600892            2 
  672000   0.99002789   -7.7341103    163.92312  0.020327768  0.020583155            3 
  673000   0.97531156   -7.7069363    164.42611  0.020359845  0.020565104            3 
  674000    0.9883941   -7.7599096    163.97441  0.020273789  0.020547301            5 
  675000   0.95920773   -7.7036908    164.39297  0.020295429  0.020529311            4 
  676000   0.98232222   -7.7232963    164.69748  0.020302944  0.020511494            9 
  677000   0.97163946   -7.7045335    164.38115  0.020234016  0.020493933            6 
  678000   0.98193271   -7.7136898    164.47706  0.020215961  0.020476085            4 
  679000   0.99255495   -7.6983423    165.21641  0.020276928  0.020458473            4 
  680000    1.0096279   -7.7395427    165.13681  0.020237354  0.020440703            2 
  681000   0.97975251   -7.6775944    165.46554  0.020247864  0.020423023            5 
  682000   0.98091406   -7.7162005    165.84663   0.02026474  0.020405544            3 
  683000   0.98435463    -7.702664    165.76129  0.020224657  0.020388148            5 
  684000   0.98672195   -7.7031022    165.57981  0.020172979  0.020370661            5 
  685000   0.97335924   -7.7293026    165.67903    0.0201556  0.020353071            6 
  686000    0.9831265   -7.7120992    166.16292     0.020185  0.020335861            2 
  687000   0.98149661   -7.7305196    166.11708  0.020150058   0.02031864            3 
  688000   0.97541885   -7.6838144     167.1225  0.020242551  0.020301815            6 
  689000   0.98788228   -7.6912231    167.10412  0.020210948  0.020285152            5 
  690000   0.98357028   -7.7226058    166.86458  0.020152727  0.020268331            5 
  691000    0.9757015   -7.7272711    166.57106  0.020088164  0.020251613           16 
  692000   0.97230998   -7.7086613    167.58172  0.020180843  0.020234885            4 
  693000   0.98672551   -7.7225269    167.16937  0.020102136  0.020218028            6 
  694000   0.95827166   -7.7350632    167.88243  0.020158793  0.020201453            9 
  695000   0.97709762   -7.7187812    167.53421  0.020088035  0.020184953            4 
  696000   0.97442973   -7.7228312    168.19104  0.020137816   0.02016865            9 
  697000    0.9531782    -7.714013    168.59351  0.020157044  0.020152298            2 
  698000   0.96803587   -7.7404114    167.86425  0.020041099  0.020135687            4 
  699000   0.97890473   -7.7855266    167.70528  0.019993476  0.020118677            3 
  700000   0.98921178   -7.7231135    168.39266  0.020046745  0.020101588            5 
  701000   0.97827314   -7.7107528    168.24067  0.020000079  0.020084622            4 
  702000   0.97547061   -7.7392378    168.56648  0.020010266  0.020067615            4 
  703000   0.99233996   -7.7416882      167.633  0.019871148  0.020050847            3 
  704000   0.97165229   -7.7909993    168.07205  0.019894892  0.020033862            3 
  705000   0.96877259   -7.7515918     168.3953  0.019904881  0.020016934            3 
  706000   0.96142006   -7.7175843    168.52821  0.019892376  0.019999826            4 
  707000   0.95666274   -7.7248726    168.68696  0.019882952  0.019982766            3 
  708000   0.95917552   -7.7552002    168.78203  0.019866059  0.019965807            6 
  709000   0.98209049   -7.7461526     168.6584  0.019823507  0.019948895            4 
  710000   0.97502026     -7.72421    169.27941  0.019868476  0.019932175            6 
  711000   0.96626953   -7.7569325    168.72446  0.019775487  0.019915176            5 
  712000   0.97414238   -7.7643761    168.73175  0.019748567  0.019898005            3 
  713000   0.96432599   -7.7466538    169.19984  0.019775577  0.019880951            8 
  714000   0.95054168   -7.7659881     168.6847  0.019687757  0.019863847           10 
  715000    0.9931508   -7.7128471    169.64923  0.019772637  0.019846656            8 
  716000   0.95165834   -7.7479816    169.34432  0.019709535   0.01982957            3 
  717000   0.94387073   -7.7284519    169.29748  0.019676601  0.019812368            3 
  718000   0.95828087   -7.7381433    169.87351  0.019716053  0.019795193            2 
  719000   0.96035937   -7.7363849    170.03215  0.019707018  0.019777833            3 
  720000   0.98830947   -7.7663664    169.66637  0.019637312  0.019760775            5 
  721000   0.97077114   -7.7379635    170.07476  0.019657277  0.019743757            7 
  722000   0.95660772   -7.7398276    170.27409  0.019653058  0.019726848            6 
  723000   0.95632611   -7.7816257    170.20405  0.019617802  0.019709725           20 
  724000    0.9851789   -7.7757669    170.08024  0.019576455   0.01969283            7 
  725000   0.98193797   -7.7572403    170.32415  0.019577489  0.019675969            3 
  726000    0.9674781   -7.7188494    170.71015  0.019594828  0.019659108            5 
  727000   0.96940198   -7.7879053    169.81065  0.019464769  0.019642073            8 
  728000   0.96354487   -7.7642237    170.51609  0.019518783  0.019625067            7 
  729000   0.95692895   -7.7496405    170.87729  0.019533298  0.019608003            2 
  730000   0.95725649   -7.7239979    170.96074  0.019516066  0.019590997            5 
  731000   0.97938994    -7.765819    170.64931  0.019453865  0.019574066            4 
  732000   0.96265703   -7.7824221    170.16061  0.019371654  0.019557061            4 
  733000   0.96175832   -7.7473988    171.08277  0.019450065  0.019539818            4 
  734000   0.97936836   -7.7767754    171.00274   0.01941448  0.019522758            6 
  735000   0.97489729   -7.7428457    171.47168  0.019441234  0.019505736            4 
  736000   0.96666113   -7.7551467    171.80077   0.01945208  0.019489089            5 
  737000   0.97095874     -7.79477    171.83426  0.019429473  0.019472526            9 
  738000   0.95530114   -7.7569076    171.71819  0.019390039  0.019455973            4 
  739000   0.97234307   -7.7685905    172.11223  0.019408235  0.019439481            9 
  740000   0.95722936   -7.7886965     171.8324  0.019350496  0.019422977            4 
  741000   0.97005752   -7.7867463    172.06124  0.019350117  0.019406242            5 
  742000   0.94755361   -7.8134494    171.67571   0.01928074  0.019389461            6 
  743000   0.96134036   -7.8314476    171.42876  0.019227093  0.019372473            6 
  744000   0.95394627   -7.7590518    171.86949  0.019250615  0.019355481            4 
  745000   0.95275931   -7.7719802    172.11062  0.019251747  0.019338456            4 
  746000   0.96636997   -7.7674915     172.3954  0.019257752  0.019321552            5 
  747000   0.95629092   -7.8017124    172.05618   0.01919413  0.019304717            6 
  748000   0.95589878    -7.808612    171.84319  0.019144741  0.019287646            6 
  749000   0.97458317   -7.7743459    172.81222  0.019226994  0.019270812            3 
  750000   0.96981252   -7.7947202    172.17502  0.019130557  0.019253965            4 
  751000   0.94504279   -7.7483458     173.2401  0.019223269   0.01923692            3 
  752000   0.94955022   -7.7706859    172.69946  0.019137795  0.019220037            4 
  753000   0.97976303   -7.7553288    173.21489  0.019169421  0.019203224            6 
  754000   0.94713258   -7.7739637    173.09054  0.019130254  0.019186382            3 
  755000   0.93623121   -7.8279015    172.43145  0.019032169  0.019169512            7 
  756000   0.94157106   -7.7892042     173.5363   0.01912878  0.019152693           12 
  757000   0.95799495   -7.7916883    173.32213  0.019079935  0.019135915            3 
  758000   0.96260416   -7.7626629    173.18109  0.019039258  0.019119171            4 
  759000   0.97243689    -7.767612     174.0022  0.019104325  0.019102516            4 
  760000   0.95708266   -7.7849415    173.90634  0.019068677  0.019085875            7 
  761000   0.93639683   -7.7853833    174.13449  0.019068604  0.019069421            8 
  762000   0.97609478   -7.8222546    173.95591  0.019024049  0.019052878            4 
  763000   0.95036458   -7.7976771    173.74404  0.018975977    0.0190364            3 
  764000   0.93258235   -7.7811198    174.59825  0.019044312  0.019019776            4 
  765000   0.94273142   -7.8248393    174.41209  0.018999138  0.019003266            8 
  766000    0.9481454   -7.8086792    174.29915  0.018962049   0.01898675            3 
  767000   0.95415404   -7.8242128    174.47997  0.018956972  0.018970253            4 
  768000   0.94410143   -7.8165293    174.64627  0.018950334  0.018953802            5 
  769000   0.94775449   -7.8074988    174.70216  0.018931747  0.018937429            7 
  770000   0.93360243    -7.836112    174.33199  0.018867098  0.018921036            7 
  771000   0.95444433   -7.7918941    174.39249  0.018849166  0.018904535            5 
  772000   0.93655935   -7.8195444    174.58209  0.018845217  0.018887882            9 
  773000   0.92992403   -7.8321053    174.77347  0.018841469  0.018871339            5 
  774000   0.92890928   -7.8614375    174.58051  0.018796351    0.0188548            9 
  775000   0.94865655    -7.824419    174.78105  0.018793661   0.01883822            4 
  776000   0.93999841   -7.8650821    174.94334   0.01878687  0.018821656            5 
  777000   0.95387375   -7.8346952    175.11421  0.018781018  0.018805111            5 
  778000   0.94566208   -7.8174733    175.73197  0.018823047  0.018788795           10 
  779000    0.9624603   -7.8537182    175.69696  0.018795139  0.018772507            3 
  780000   0.93875098   -7.8291698       175.83  0.018785257  0.018756284            3 
  781000   0.94035503    -7.799509    175.71573  0.018749011  0.018740074            6 
  782000   0.93802182   -7.7939914    175.98948  0.018754207  0.018723839            4 
  783000    0.9333303   -7.8720094    175.61662  0.018690573   0.01870769            5 
  784000   0.95706078   -7.8006054    176.13774  0.018722124   0.01869151            5 
  785000   0.94615741   -7.8600602    175.96773  0.018680226  0.018675367            5 
  786000   0.94994834   -7.8652754    176.38511  0.018700711  0.018659245            6 
  787000   0.96782186   -7.8474767    176.27019  0.018664781  0.018643055            3 
  788000    0.9381893   -7.8763796    176.51059  0.018666518  0.018627051           12 
  789000   0.91388127   -7.8657199    176.42551  0.018633873  0.018610975           10 
  790000   0.95280337   -7.8676085     176.4847   0.01861653  0.018594921            5 
  791000   0.91810271   -7.8326925    177.16076  0.018664219  0.018578988            3 
  792000   0.93809229   -7.8747112    176.74621  0.018597034   0.01856287            6 
  793000   0.94248137   -7.8258579    177.16124  0.018617196  0.018546897            2 
  794000   0.93347633   -7.8428079    176.93751  0.018570267  0.018531056            9 
  795000   0.95733526   -7.8529267    176.69301   0.01852128  0.018515183            3 
  796000    0.9299469   -7.8253591     176.8989  0.018519567  0.018499233            6 
  797000   0.94446385   -7.8774079    177.04768  0.018511886  0.018483284            5 
  798000   0.92423914   -7.8836393    177.05361  0.018489308  0.018467119            4 
  799000   0.95237051   -7.8403062    177.26884  0.018488615  0.018450967            5 
  800000   0.92998841   -7.8432356    177.37854  0.018476931  0.018434926            6 
  801000   0.94837352   -7.8597838    177.65002  0.018482108  0.018418881            4 
  802000    0.9281118   -7.8051967    177.77646  0.018472201  0.018402944            4 
  803000   0.92441969   -7.8182414    177.62134  0.018433099  0.018386949            4 
  804000   0.93571086   -7.8721722     177.5936  0.018407297  0.018370987            4 
  805000   0.94285052   -7.8451066    177.58046   0.01838307  0.018354925            5 
  806000   0.92171931   -7.8524153    177.55501  0.018357631   0.01833899            4 
  807000   0.93693148   -7.8795548    178.10669  0.018391852  0.018323092            5 
  808000   0.92439337   -7.8509885    178.02062  0.018360212  0.018307239           23 
  809000   0.93281239   -7.8726561    178.23052  0.018359139   0.01829149            4 
  810000   0.93935421   -7.8957183    178.04882   0.01831778  0.018275714            6 
  811000   0.92273409   -7.9126668     178.0597  0.018296311  0.018259661            6 
  812000   0.95896392   -7.9206945    178.26012  0.018294347  0.018243586           10 
  813000   0.92026027   -7.8953963    178.16788  0.018262391  0.018227391            7 
  814000   0.93017729   -7.9193725    178.12696  0.018235765  0.018211224            8 
  815000   0.94493712   -7.8882101    177.94022  0.018194296  0.018195245           15 
  816000   0.93931915   -7.8798774    178.47637  0.018226754  0.018179209            4 
  817000   0.91966095   -7.9020401    178.32372  0.018188874  0.018163153            7 
  818000   0.94822918   -7.8814668     179.1259   0.01824836  0.018147432            4 
  819000   0.92147745   -7.8634573    179.14744  0.018228271  0.018131696            3 
  820000   0.92162292   -7.8593322    179.04611  0.018195743  0.018115782            5 
  821000   0.93394513   -7.8659362    178.67567   0.01813598  0.018099878            9 
  822000   0.95241475   -7.8794777    178.84763  0.018131349  0.018084014            5 
  823000   0.92784342   -7.8647364    179.50715  0.018176099  0.018068163            8 
  824000   0.91909265   -7.8478574    179.05957  0.018108775  0.018052311            5 
  825000   0.93467034   -7.8838122    179.30879  0.018111999  0.018036542            5 
  826000   0.92234789    -7.900644     179.6696  0.018126473  0.018020797            7 
  827000   0.92555893   -7.8721904    179.82709  0.018120424  0.018005145            5 
  828000   0.95549942   -7.8827569    179.89322  0.018105195   0.01798943            4 
  829000   0.91832889   -7.8854014    179.36303   0.01803006  0.017973666            8 
  830000   0.90709743   -7.8804277    179.92331   0.01806459  0.017957817            6 
  831000   0.91537158   -7.9026337    179.52244  0.018002651  0.017942006            5 
  832000   0.93878373   -7.9085098    179.62888  0.017991674  0.017926343            3 
  833000   0.91441797   -7.8948407    179.67349  0.017974539  0.017910593            4 
  834000   0.93228299    -7.869405    180.08228  0.017993833  0.017894822            2 
  835000   0.89779638   -7.9087706    179.60719  0.017924869   0.01787891           13 
  836000   0.91897272   -7.9038816    180.19703  0.017962224  0.017863048           12 
  837000   0.93898767   -7.9236127    179.50803  0.017872165  0.017847139            4 
  838000   0.92753205   -7.9221616    180.33901  0.017933474   0.01783124            1 
  839000    0.9271603   -7.8575361    180.51239  0.017929319  0.017815485            7 
  840000   0.90874393    -7.895493    180.34868  0.017891734  0.017799844            8 
  841000   0.91547452   -7.9273933    180.12162   0.01784796  0.017783986            9 
  842000   0.92408981   -7.8899069    180.25984  0.017840443  0.017768217            4 
  843000   0.90518672   -7.9051365    181.01084  0.017893519  0.017752634            4 
  844000   0.90761274   -7.8653949    181.42683  0.017913391  0.017737278            6 
  845000   0.92558006   -7.8798171    181.15636  0.017865519  0.017721854            3 
  846000   0.91319593   -7.9246467    181.03131  0.017832084  0.017706332            7 
  847000   0.90552126   -7.9173732    181.17744  0.017825407  0.017690798           11 
  848000   0.90640375   -7.9341856    180.98074  0.017785057  0.017675221            6 
  849000   0.92178723   -7.9159611    180.69647  0.017736206  0.017659456            6 
  850000   0.92201306   -7.9353364    180.65172  0.017710953  0.017643756            3 
  851000   0.91689011   -7.9215553    180.74864  0.017699632   0.01762803            6 
  852000   0.91962778   -7.8932261    180.97603  0.017701098  0.017612378            8 
  853000    0.9256054   -7.9258126    181.14332   0.01769669  0.017596801            7 
  854000   0.91780418    -7.923576     181.2668  0.017688017  0.017581239           10 
  855000   0.92285308   -7.9076233    181.70437  0.017709977  0.017565706           11 
  856000   0.91036122   -7.9082288    181.59565  0.017678705  0.017550134           10 
  857000   0.93406707   -7.8989555     181.9071   0.01768836  0.017534503           20 
  858000   0.92318531   -7.9228781    181.47995  0.017626258  0.017518968           16 
  859000   0.93365198   -7.8867162    182.63847  0.017718129  0.017503677           19 
  860000   0.92650564   -7.9013896     181.9662  0.017632383  0.017488416           17 
  861000   0.92138952   -7.8892754    181.67069  0.017583303  0.017473114           13 
  862000   0.89090431   -7.8985719    182.53297  0.017646265  0.017457824            9 
  863000   0.91239463   -7.9205564    181.77244   0.01755238  0.017442511            6 
  864000   0.89225584   -7.9164951    182.61887  0.017613702  0.017427419            9 
  865000   0.90454378   -7.9322916     182.8246   0.01761316  0.017412252            7 
  866000   0.92755759   -7.8861881    182.79107  0.017589594  0.017397001            5 
  867000   0.90824372   -7.9319923    182.78564  0.017568785  0.017381777            4 
  868000   0.92702975   -7.8973748    183.34166  0.017601926  0.017366519            5 
  869000   0.91581733   -7.9535774    182.15754  0.017468119   0.01735135            7 
  870000   0.88107609   -7.9146113    182.50431  0.017481256  0.017336019            5 
  871000   0.91630739   -7.9261509    182.36012   0.01744739  0.017320723            4 
  872000    0.9129391   -7.9204316    183.16633  0.017504427  0.017305607            5 
  873000   0.91725798   -7.9082008    182.76818  0.017446371  0.017290518            7 
  874000   0.91011815   -7.9497244    183.24107  0.017471498  0.017275401            2 
  875000   0.91226424   -7.9510664    182.67336  0.017397463  0.017260189            4 
  876000   0.89719146   -7.9767379    182.73949  0.017383894  0.017244868            8 
  877000   0.91203703   -7.9874122    182.67454    0.0173579  0.017229529            6 
  878000   0.89814436   -7.9712427      183.134  0.017381739  0.017214323           12 
  879000   0.88434634   -7.9420283    183.43693  0.017390684  0.017199092            6 
  880000   0.91733795    -7.976752    183.26978  0.017355093  0.017183828            7 
  881000   0.91352513   -7.9494229    182.99047  0.017308974  0.017168541            2 
  882000   0.90411468    -7.904992    183.75137   0.01736124  0.017153356            4 
  883000   0.88622261   -7.9522647    183.44027  0.017312219  0.017138225           15 
  884000   0.90307823   -7.9361772    183.26549  0.017276159  0.017123106           12 
  885000   0.90360315   -7.9997724    183.25961  0.017256084  0.017107878           41 
  886000   0.89102271   -7.9657668    183.26721  0.017237322  0.017092599           21 
  887000   0.88775364   -7.9609197    183.32016  0.017222863   0.01707738           32 
  888000   0.91265534   -7.9472095    183.55523  0.017225528  0.017062064           47 
  889000   0.87677899   -7.9941117    183.28305  0.017180639  0.017046758           47 
  890000   0.92716392   -7.9903022    182.97924  0.017132888  0.017031368           16 
  891000   0.89781605   -7.9777846    183.17088  0.017131582  0.017015891           13 
  892000   0.89982709   -7.9464411    183.06662  0.017102636  0.017000484           14 
  893000   0.90312295   -7.9714449    183.83401  0.017155096  0.016985009           36 
  894000   0.90259983   -7.9713393    183.73752  0.017126913  0.016969635           43 
  895000   0.89276928    -8.011954    183.14611  0.017052711  0.016954142           44 
  896000   0.89806414    -8.002823    183.57305  0.017073387  0.016938645           50 
  897000   0.91631529   -8.0209156    183.50882  0.017048385  0.016923118           66 
  898000   0.89285772   -7.9901519    184.05391  0.017079984  0.016907669           39 
  899000   0.88773822   -7.9498289     183.9317  0.017049657  0.016892372           25 
  900000   0.89766168   -7.9972915    183.81528  0.017019933  0.016877026           25 
  901000   0.88201379   -7.9807589    184.05518  0.017023232    0.0168617           19 
  902000   0.89352608   -7.9768579    184.17827  0.017015731  0.016846235           32 
  903000   0.90212598   -7.9806122    183.87849  0.016969222  0.016830843           28 
  904000   0.87753599   -7.9296309    184.48705   0.01700655  0.016815496           28 
  905000   0.91431651   -7.9850893    184.32783  0.016973097  0.016800254           14 
  906000   0.90960142   -7.9425511     184.4893  0.016969214  0.016785182           25 
  907000   0.91769075   -7.9487346    185.13641   0.01700996  0.016770227           23 
  908000   0.89037267   -7.9456119    184.83728  0.016963774  0.016755352           12 
  909000   0.87306318   -7.9807797    184.38466  0.016903618  0.016740325            9 
  910000   0.89822921   -7.9990317    185.17703  0.016957604  0.016725264           20 
  911000   0.89586043   -7.9649571    185.04023  0.016926475  0.016710286           12 
  912000   0.91714842   -7.9684349    184.47216  0.016856008  0.016695407            4 
  913000   0.87091894   -7.9763066    185.06299  0.016891474  0.016680575            3 
  914000   0.87998217    -7.961348     184.9838  0.016865773  0.016665555            6 
  915000   0.89697992   -7.9505184    185.34457  0.016880198   0.01665058            5 
  916000   0.89626512   -7.9607541    185.19964  0.016848585   0.01663556            5 
  917000   0.87515299   -7.9927958    185.10531  0.016821639  0.016620583            9 
  918000   0.87837535   -7.9863855    184.84705   0.01677987  0.016605401           17 
  919000   0.88333924   -8.0270353    184.76168   0.01675387  0.016590294           18 
  920000   0.91967332   -7.9888713    184.86219  0.016744764  0.016575155            7 
  921000   0.87662786   -8.0326692     184.5393  0.016697367  0.016559973           14 
  922000   0.87600243   -8.0330625    184.61492  0.016686092  0.016544857            4 
  923000   0.89403623   -8.0195751    185.31087  0.016730848  0.016529701           17 
  924000   0.87066606   -7.9888801    184.96727  0.016681752  0.016514644            5 
  925000   0.88594918   -7.9766444    185.36764  0.016699788  0.016499546            7 
  926000   0.86218936   -7.9906643    185.45721  0.016689813   0.01648464            9 
  927000   0.89661361   -8.0288599    185.23973  0.016652259  0.016469611           20 
  928000   0.86496155      -7.9849    185.42909  0.016651319  0.016454418           20 
  929000   0.86893625   -7.9839019    185.42841  0.016633334  0.016439362           24 
  930000    0.8699958   -7.9977257    185.03916   0.01658057  0.016424351            5 
  931000   0.89194279    -7.992541    185.60094  0.016613045  0.016409429            9 
  932000   0.87407239   -8.0273577    185.48073  0.016584471  0.016394526           21 
  933000   0.88132203    -8.002373    185.53944   0.01657194  0.016379585           15 
  934000   0.87658718   -8.0090982    185.71349  0.016569726  0.016364694            3 
  935000   0.87975122   -8.0044652    185.49679  0.016532691  0.016349815            3 
  936000     0.901985    -8.035264    185.65631   0.01652923  0.016334882            6 
  937000   0.88981715   -7.9998472    186.36183  0.016574336  0.016319924           15 
  938000   0.86774123   -7.9985401    186.68368  0.016585259  0.016305131            9 
  939000   0.87920808   -7.9869379    186.31697  0.016535052  0.016290461            7 
  940000   0.87023709   -8.0042653    186.51953   0.01653542  0.016275764            5 
  941000   0.87508488   -8.0125102    186.27957  0.016496597  0.016261156           10 
  942000   0.86622617   -8.0368222    186.18455  0.016470679  0.016246469           10 
  943000   0.87964411   -8.0099259    186.03473  0.016439972  0.016231646           14 
  944000   0.88608211   -8.0144127    185.95269  0.016415315  0.016216945            9 
  945000   0.88442023   -8.0235521    186.49946   0.01644616  0.016202211            5 
  946000   0.88158387   -8.0476311    186.37541  0.016417848  0.016187497            6 
  947000   0.87480245   -8.0204711    186.16028   0.01638158  0.016172716            4 
  948000   0.85355258   -7.9943408    186.60639  0.016403515  0.016158054            5 
  949000   0.87849995   -8.0218867    186.74505  0.016398406  0.016143355           10 
  950000   0.86918474   -8.0080259    186.61869  0.016370061  0.016128821            5 
  951000   0.88213847   -7.9926122    186.78937  0.016367803  0.016114334            7 
  952000   0.89826451   -8.0422319     186.7739  0.016349256   0.01609987           10 
  953000   0.87932685   -8.0312639    187.38186  0.016385262  0.016085323            8 
  954000   0.85797044   -8.0452444    186.83657  0.016320455  0.016070777            9 
  955000   0.87320461    -8.015862    186.99606  0.016317282  0.016056262            2 
  956000   0.87561825    -8.064025    186.50105  0.016257065  0.016041744            6 
  957000   0.86507378   -8.0512972    187.05893  0.016288656  0.016027216            7 
  958000   0.86724488   -8.0878981    186.96968   0.01626389  0.016012594           20 
  959000   0.85188344   -8.0321664    187.10074  0.016258319  0.015997949            9 
  960000   0.85741454   -8.0248511    187.23255  0.016252825  0.015983389           24 
  961000    0.8577909   -8.0387636    186.88584  0.016205848  0.015968814            8 
  962000   0.87720678   -8.0323906    187.63138  0.016253585  0.015954183            6 
  963000   0.88032738    -8.041584    186.82108  0.016166587  0.015939676            7 
  964000   0.85930047   -8.0252109    187.37404  0.016197617  0.015925195           13 
  965000    0.8803957    -8.092051    186.90236    0.0161401  0.015910588           15 
  966000   0.87364875   -8.0701774    187.51374  0.016176134   0.01589589           18 
  967000   0.85495549   -8.0933651    187.40766  0.016150263   0.01588133           16 
  968000   0.86151293   -8.0932069    187.00587  0.016098991  0.015866742           14 
  969000    0.8691262   -8.0521551    187.24193  0.016102677  0.015852137            5 
  970000   0.84564096   -8.0592675    187.03611  0.016068394  0.015837586           15 
  971000    0.8685406    -8.075465    187.29226  0.016073829   0.01582307            6 
  972000   0.88034143   -8.0730295    187.77896  0.016099019  0.015808549           24 
  973000   0.87492982   -8.0875279    187.32997   0.01604402  0.015793991           15 
  974000   0.85560473   -8.0200771    187.52972  0.016044637  0.015779415           16 
  975000    0.8636231   -8.0702676    187.61149   0.01603517   0.01576481           13 
  976000   0.86407825   -8.0773443    187.39678  0.016000408  0.015750175            9 
  977000   0.85772349   -8.0792626    187.17904  0.015965459  0.015735606           11 
  978000   0.85672992   -8.0675653    187.50936   0.01597728  0.015720988            7 
  979000   0.85757744   -8.0681812    187.28321   0.01594171  0.015706372           14 
  980000   0.85995674   -8.0634353    187.62685  0.015954664   0.01569178            3 
  981000   0.85777121    -8.057536    187.46127  0.015924335  0.015677307           13 
  982000    0.8563488   -8.0502869    188.08595   0.01596113  0.015662955            6 
  983000   0.87119557   -8.0943449    188.10986  0.015946919   0.01564859            4 
  984000   0.87056761   -8.0634576    188.07585  0.015927833  0.015634162            3 
  985000   0.88692952   -8.0549839    187.73494   0.01588282  0.015619757            8 
  986000   0.87490894    -8.102755    187.85318  0.015876706   0.01560525            7 
  987000   0.85566417   -8.0653199    188.20802  0.015890579  0.015590867            7 
  988000   0.85986508   -8.0703438    188.27983  0.015880553  0.015576463            8 
  989000   0.86214699   -8.0336696    188.82073  0.015910071  0.015562128           13 
  990000   0.85477729   -8.0692778    188.24989   0.01584595  0.015547752            9 
  991000   0.87736383   -8.0844678    188.12545  0.015819497  0.015533373           13 
  992000   0.87381347   -8.0807195    188.21838  0.015811356  0.015518976           18 
  993000   0.86808836   -8.0713373    188.43576  0.015813676  0.015504541           16 
  994000   0.85896791   -8.0963339    188.27438  0.015784237  0.015490205            8 
  995000   0.85007544   -8.0985691    187.95135  0.015741319  0.015475809           21 
  996000   0.87053185   -8.0696643    187.87252  0.015718919  0.015461413           21 
  997000   0.84232458   -8.0840926    187.84584  0.015700923  0.015447088            6 
  998000   0.84484181    -8.122869    188.30545  0.015723568  0.015432681           12 
  999000   0.85118166   -8.1158016    188.47882   0.01572229  0.015418275           34 
 1000000   0.85569269   -8.1295306    187.86358  0.015655298  0.015403916            6 
 1001000   0.89497159   -8.1244379    188.62027  0.015702653  0.015389605           27 
 1002000   0.84731455   -8.1223574    188.64597  0.015689119  0.015375346           21 
 1003000    0.8455781   -8.0800162    189.04763  0.015706849  0.015361151            5 
 1004000   0.87027851    -8.087423    188.45088  0.015641673  0.015346961           11 
 1005000   0.85575048   -8.0725295    189.16028  0.015684932  0.015332836            5 
 1006000   0.87261639   -8.0913855    188.48534  0.015613431  0.015318651           10 
 1007000   0.85854726    -8.106303    188.42166  0.015592656  0.015304365           19 
 1008000   0.82846235   -8.1214408    188.39975  0.015575376  0.015289995            5 
 1009000   0.85262367   -8.0991567    188.16262  0.015540355  0.015275606            6 
 1010000   0.86151338   -8.0949331    188.72839   0.01557165  0.015261321            5 
 1011000   0.85277943   -8.1093134    188.61987  0.015547302  0.015247082           18 
 1012000   0.85386625   -8.0991115    188.32862  0.015507956  0.015232794           13 
 1013000   0.86327322   -8.1070165    188.63797  0.015518095  0.015218474           10 
 1014000   0.86377117   -8.1251689    188.58314  0.015498286  0.015204201           12 
 1015000   0.83483286    -8.121181    188.63213  0.015487038  0.015189968            7 
 1016000   0.84591775   -8.1130635    188.28924  0.015443671  0.015175696            9 
 1017000   0.84892912   -8.1446281    188.11839  0.015414486  0.015161384           17 
 1018000   0.84748503   -8.1193076    188.81957  0.015456743    0.0151471           21 
 1019000   0.85118953   -8.1523661    188.76578  0.015437175  0.015132902            9 
 1020000   0.83041324   -8.1027801    189.23752  0.015460581  0.015118729           30 
 1021000   0.84613016   -8.1543488    188.68972  0.015400728  0.015104567           35 
 1022000   0.84321866   -8.1528563    188.60445  0.015378706  0.015090353           38 
 1023000   0.84543235   -8.1432085    188.77333   0.01537743  0.015076149           51 
 1024000    0.8585533    -8.142694    189.17177  0.015394838  0.015061937           59 
 1025000   0.83201482   -8.1820286    188.92775   0.01535998  0.015047757           19 
 1026000   0.86638513   -8.1390548    189.27713  0.015373386  0.015033646           10 
 1027000   0.83608545   -8.1504078    189.18458  0.015350907  0.015019587           31 
 1028000   0.85289473   -8.1309395    189.20696  0.015337789  0.015005465           49 
 1029000   0.85090107   -8.1432023    189.00441  0.015306479  0.014991385           54 
 1030000   0.85133109   -8.1406055    189.15696  0.015303961  0.014977329           22 
 1031000   0.84606781    -8.139985    189.17998  0.015290978  0.014963204           56 
 1032000   0.84397811   -8.1772733    188.76856  0.015242939  0.014949078           45 
 1033000   0.83020236   -8.1899587    188.67575  0.015220696  0.014934965           64 
 1034000   0.81962471   -8.1682049    188.90154  0.015224173  0.014920836           58 
 1035000    0.8442702   -8.1422744    189.28829  0.015240603  0.014906713           79 
 1036000   0.85115559   -8.1463612    189.59065  0.015250213  0.014892677           75 
 1037000   0.84266728   -8.2138395    188.54474  0.015151458  0.014878564           80 
 1038000   0.85217908   -8.2034065    189.59262  0.015220987  0.014864422          144 
 1039000   0.83276417   -8.1862555     189.2119  0.015175802  0.014850278          140 
 1040000   0.85287173   -8.1778025    189.25165  0.015164395  0.014836146          128 
 1041000   0.83075368    -8.177708    189.04218  0.015133059  0.014822004          165 
 1042000   0.82363025   -8.2360379    189.26367   0.01513625  0.014807857          154 
 1043000   0.82162179   -8.2086619    189.20019  0.015116666   0.01479368          170 
 1044000    0.8383612   -8.1777698    189.08881  0.015093296  0.014779553          157 
 1045000    0.8306121   -8.1830617    189.53863  0.015114723  0.014765495          154 
 1046000   0.82594081   -8.1678345    189.74188  0.015116466  0.014751385          136 
 1047000   0.83429235   -8.2146086    189.19736  0.015058688  0.014737266          207 
 1048000     0.842134   -8.2418216    188.88479  0.015019465  0.014723135          203 
 1049000   0.81598958   -8.2196924    189.17545  0.015028237  0.014709001          256 
 1050000   0.85511642   -8.2222074    189.18741  0.015014874   0.01469486          230 
 1051000   0.84021526   -8.2334964    188.68888  0.014961059  0.014680719          221 
 1052000    0.8237669   -8.2151308    188.88605  0.014962456  0.014666559          259 
 1053000   0.82024975    -8.192662    189.08969  0.014964363  0.014652462          281 
 1054000   0.82763671   -8.1943548    189.68313  0.014997085  0.014638331          283 
 1055000    0.8417343   -8.2133524    189.09193  0.014936172  0.014624205          293 
 1056000   0.82064251   -8.2331116    189.29339  0.014937926  0.014610085          321 
 1057000   0.82970195   -8.2560101    189.07763  0.014906782  0.014595986          320 
 1058000   0.81653272   -8.2849689    189.26447  0.014907409  0.014581829          359 
 1059000    0.8210598   -8.2872442    188.86115  0.014861595  0.014567679          356 
 1060000   0.82004573   -8.2284784    189.20157  0.014874337  0.014553545          420 
 1061000   0.83593739   -8.2712339     189.2704  0.014865724  0.014539431          418 
 1062000   0.83118191   -8.2741077    189.07066  0.014836053  0.014525454          489 
 1063000   0.82749579   -8.2628618    189.35093  0.014844068  0.014511377          485 
 1064000    0.8130875   -8.2426983    189.11638  0.014811747  0.014497323          487 
 1065000   0.83074087   -8.2448346    189.82959  0.014853645  0.014483328          547 
 1066000   0.84492011   -8.2531762    189.95046  0.014849161   0.01446934          497 
 1067000   0.81361746   -8.2612531    189.67441  0.014813684  0.014455311          512 
 1068000   0.82275703   -8.2541014    189.54112  0.014789413  0.014441195          563 
 1069000   0.84084598   -8.2965631     189.0591  0.014738003  0.014427053          592 
 1070000   0.83796951   -8.2905758    188.81576  0.014705277  0.014412934          582 
 1071000   0.81508122    -8.294654    189.16724  0.014718895  0.014398846          633 
 1072000   0.84142424   -8.2936567    189.20247  0.014707904  0.014384743          651 
 1073000   0.83934581   -8.2984126    189.25545   0.01469831  0.014370599          691 
 1074000   0.83154502   -8.3355254    188.71955  0.014643044  0.014356448          768 
 1075000   0.81867979   -8.2921858    189.26912  0.014672025  0.014342286          725 
 1076000    0.8400151   -8.3468266    189.07002  0.014642969  0.014328135          757 
 1077000   0.81517778   -8.3286706    188.99466  0.014623542  0.014313965          743 
 1078000   0.82554638   -8.3511715    188.75544  0.014591484  0.014299797          864 
 1079000   0.81024783   -8.3564793    188.27331  0.014540725  0.014285573          838 
 1080000   0.83487119   -8.3732592    188.87978  0.014574057  0.014271365          956 
 1081000   0.81314593    -8.368245    189.45073  0.014604589  0.014257078          956 
 1082000   0.81514513    -8.382978    188.38542  0.014509044  0.014242767          996 
 1083000   0.82095764   -8.3990558    188.60233  0.014512337   0.01422846          998 
 1084000   0.83099758   -8.3765921    188.74168  0.014509661  0.014214178         1044 
 1085000   0.82110138   -8.3833473    189.14349   0.01452715    0.0141999          988 
 1086000   0.82274499   -8.4107359    188.40913  0.014457422  0.014185567         1080 
 1087000   0.83678894   -8.4001241    188.31895  0.014437209  0.014171168         1153 
 1088000    0.8210579   -8.4032137    188.31747  0.014423826  0.014156751         1196 
 1089000    0.8108103   -8.4347905    188.24079  0.014404713  0.014142351         1207 
 1090000   0.79546323    -8.435448    188.37604  0.014401838  0.014127942         1308 
 1091000   0.83353734   -8.4747512    188.01316   0.01436092  0.014113541         1283 
 1092000   0.80665343   -8.4783483    187.93493  0.014341798  0.014099063         1444 
 1093000   0.81899172   -8.5025197    187.68451  0.014309585   0.01408451         1536 
 1094000   0.82237973   -8.5158008    187.25662  0.014263911  0.014069879         1594 
 1095000   0.81971437   -8.5140107    187.51042    0.0142702  0.014055241         1649 
 1096000   0.82558671   -8.5411692    187.45281  0.014252799   0.01404061         1672 
 1097000   0.80475239   -8.5359383    186.98958  0.014204617  0.014025948         1562 
 1098000   0.81090385   -8.5009153    187.46796  0.014227987  0.014011259         1641 
 1099000   0.80835034   -8.5814644    187.05787  0.014183945  0.013996478         1832 
 1100000   0.81663841   -8.5899453    186.95768  0.014163461  0.013981668         1760 
 1101000   0.83166401   -8.5890392    186.87198   0.01414411  0.013966861         1812 
 1102000   0.82684305   -8.6194995    186.60355  0.014110976  0.013951953         1894 
 1103000   0.82096048   -8.6021604    186.78966  0.014112244  0.013937066         1987 
 1104000   0.81671132   -8.6374585    186.71412  0.014093759   0.01392213         2054 
 1105000   0.80906869   -8.6589409    186.51435  0.014065939  0.013907188         2075 
 1106000   0.81538645   -8.6323123    186.57328  0.014057661  0.013892217         2085 
 1107000   0.82484851   -8.6095115     186.4441  0.014035238  0.013877238         2182 
 1108000   0.79553669   -8.6544035    186.39138  0.014018605  0.013862231         2190 
 1109000   0.79432271   -8.6694905    186.32714  0.014001138  0.013847199         2235 
 1110000   0.81411996   -8.6952509    186.02015  0.013965477   0.01383218         2261 
 1111000   0.81733901   -8.7055047    186.17036  0.013964174  0.013817163         2361 
 1112000   0.82223837    -8.694266    185.67752  0.013914683  0.013802063         2419 
 1113000   0.80118206   -8.6963881      186.007  0.013926849  0.013786921         2438 
 1114000   0.81734589   -8.7177264    185.75893  0.013895791  0.013771759         2525 
 1115000   0.80766696   -8.7185738    185.80532  0.013886795  0.013756585         2592 
 1116000   0.81057735   -8.7538736    185.54961  0.013855258  0.013741406         2677 
 1117000   0.81933482   -8.7722093    185.88043  0.013867534    0.0137262         2666 
 1118000   0.80036109   -8.7689445    185.85141  0.013852968  0.013711002         2666 
 1119000   0.82827274   -8.7703385    185.86778  0.013841807  0.013695787         2824 
 1120000   0.80642775   -8.7902937    185.27247  0.013785154  0.013680535         2914 
 1121000     0.792093   -8.7936354    185.29361  0.013774428  0.013665241         2925 
 1122000   0.82104976   -8.8312329    184.77889  0.013723922  0.013649946         2965 
 1123000   0.82013204   -8.8486767    184.63383  0.013700937  0.013634657         3042 
 1124000   0.81349838   -8.8524381    185.15957  0.013727726  0.013619358         3025 
 1125000   0.79431325   -8.8031042    184.76271  0.013686126  0.013604085         3019 
 1126000   0.83246927   -8.8377867    185.04056  0.013694535   0.01358878         3124 
 1127000    0.7904713   -8.8697517    184.65445  0.013653834  0.013573435         3182 
 1128000   0.80611151   -8.8740441    184.77998  0.013651003  0.013558053         3240 
 1129000   0.82794619    -8.865863    184.85761  0.013644642  0.013542677         3290 
 1130000   0.81013407   -8.8910962    184.52049  0.013607706  0.013527262         3270 
 1131000   0.79797921   -8.9304501     184.1117  0.013565554  0.013511856         3304 
 1132000   0.81421246   -8.9059607    184.35715   0.01357164  0.013496437         3353 
 1133000   0.81372772   -8.8998148    184.53186  0.013572511  0.013480998         3379 
 1134000   0.82029351   -8.9294801    184.27152  0.013541411  0.013465574         3444 
 1135000   0.80603306   -8.9017141    184.69213  0.013560362  0.013450165         3308 
 1136000    0.7986655   -8.9143533    184.61628  0.013542861  0.013434748         3441 
 1137000   0.79095818    -8.944412    184.37225  0.013513065  0.013419335         3396 
 1138000   0.80988258   -8.9408948    184.48564  0.013509493  0.013403943         3436 
 1139000   0.79864883   -8.9496214    184.05819  0.013466359  0.013388534         3532 
 1140000   0.80391091   -8.9377297     183.8314  0.013437968  0.013373112         3465 
 1141000   0.78976062    -8.944685    184.22529  0.013454958  0.013357708         3570 
 1142000   0.78471991   -8.9584639    184.06344  0.013431366  0.013342311         3465 
 1143000   0.81291405   -8.9565751    184.46704   0.01344904  0.013326952         3564 
 1144000   0.79927893   -8.9730905    183.98957  0.013402503  0.013311538         3577 
 1145000   0.80700919   -8.9594228    184.08003  0.013397382   0.01329616         3595 
 1146000   0.78879301   -8.9647322    183.74641  0.013361432    0.0132808         3545 
 1147000   0.79163425   -8.9487545    184.02479  0.013370008  0.013265443         3592 
 1148000   0.82000175   -9.0009356    183.48117  0.013318901  0.013250065         3653 
 1149000   0.79090674   -8.9827212    183.87299  0.013335726   0.01323471         3666 
 1150000   0.80602862   -8.9971567    183.64746  0.013307787  0.013219345         3638 
 1151000   0.78808048   -8.9722728    183.68531  0.013298965  0.013203983         3641 
 1152000   0.79643968   -9.0008301    183.63496  0.013283779  0.013188617         3684 
 1153000   0.79788495   -8.9945816    183.49951  0.013262468  0.013173259         3703 
 1154000   0.79639873   -8.9982405    183.60855  0.013258849  0.013157933         3719 
 1155000   0.81223509    -9.015303    183.57474  0.013244931  0.013142602         3708 
 1156000   0.81833211   -9.0230927    183.68061  0.013241105  0.013127288         3707 
 1157000   0.78855878    -9.004896    183.87984  0.013244011  0.013111993         3692 
 1158000   0.80146679   -9.0008401    183.51463  0.013206292  0.013096715         3688 
 1159000   0.78217412   -9.0202764    183.25347   0.01317612  0.013081451         3738 
 1160000   0.79408276   -9.0385732    183.27172  0.013166072  0.013066198         3717 
 1161000   0.80034648   -9.0267811    183.36683  0.013161558  0.013050932         3751 
 1162000   0.79504112   -9.0082114    183.34806  0.013148885   0.01303569         3694 
 1163000   0.78689415   -9.0138186    183.37789  0.013139717   0.01302048         3760 
 1164000    0.7728547   -9.0212456    183.08249   0.01310728  0.013005265         3751 
 1165000    0.7673338   -9.0375957    183.59088  0.013132395  0.012990067         3756 
 1166000   0.78035624   -9.0291759    183.52954  0.013116748  0.012974887         3746 
 1167000   0.80079943   -9.0412713    183.43164  0.013098517  0.012959699         3806 
 1168000   0.79591542   -9.0501697    183.20377  0.013071046  0.012944524         3753 
 1169000   0.79881257   -9.0439078    183.46201  0.013078273  0.012929382         3766 
 1170000   0.77516989   -9.0180878    183.28118  0.013054215  0.012914266         3764 
 1171000   0.78042643   -9.0404521    183.34359  0.013047509  0.012899169         3789 
 1172000   0.77621557   -9.0633864    183.53395  0.013049911  0.012884081         3797 
 1173000   0.77903038   -9.0259294    183.57311  0.013041568  0.012868995         3747 
 1174000   0.78056059    -9.046216    183.06724  0.012994551  0.012853935         3802 
 1175000    0.7797307   -9.0560327    183.49247   0.01301365  0.012838903         3759 
 1176000   0.79754736   -9.0304051    183.13222  0.012977056   0.01282387         3772 
 1177000   0.76961345   -9.0310664    183.43337  0.012987352  0.012808859         3797 
 1178000   0.76432297    -9.073976    183.00746  0.012946198  0.012793856         3814 
 1179000   0.79625639   -9.0689903    183.26167  0.012953185  0.012778886         3784 
 1180000    0.7780289   -9.0539753    183.16945  0.012935695  0.012763905         3758 
 1181000   0.77933352   -9.0326019     183.1887  0.012926101  0.012748958         3750 
 1182000    0.7860633   -9.0644403    183.26312  0.012920412  0.012734062         3800 
 1183000   0.78764956   -9.0700706    183.51746  0.012927406  0.012719165         3766 
 1184000   0.77931612   -9.0362532    183.49215  0.012914707  0.012704272         3749 
 1185000   0.77389029   -9.0726034    183.08094   0.01287489  0.012689404         3812 
 1186000    0.7729929   -9.0918897    183.29743  0.012879246  0.012674536         3741 
 1187000    0.7829331   -9.0808211    182.87134  0.012838482  0.012659687         3801 
 1188000    0.7866325   -9.0730001    183.12053  0.012845155  0.012644861         3817 
 1189000   0.77008012     -9.08259    183.08232  0.012831674  0.012630051         3798 
 1190000   0.77328735    -9.046182    183.64168  0.012860062  0.012615272         3752 
 1191000   0.78424994   -9.0647995    183.24208  0.012821304  0.012600522         3783 
 1192000   0.78474839   -9.0742088    183.15792  0.012804664  0.012585764         3804 
 1193000   0.77357977   -9.0675093     183.1466  0.012793141  0.012571043         3784 
 1194000    0.7824992   -9.0680262    183.11339  0.012780108  0.012556326         3815 
 1195000   0.76949962   -9.0693673    183.09607  0.012768205  0.012541623         3828 
 1196000   0.77940808   -9.0657542    182.66579  0.012727549  0.012526921         3783 
 1197000   0.76873383   -9.0834168    183.27154  0.012759088   0.01251224         3798 
 1198000   0.77773885   -9.0861872    182.41529  0.012688877   0.01249759         3817 
 1199000   0.78888891   -9.0938136    183.14113  0.012728742  0.012482968         3801 
 1200000   0.77037926    -9.065338    183.27146  0.012727185  0.012468354         3792 
 1201000   0.77127562   -9.0981211    183.10848  0.012705279  0.012453716         3794 
 1202000   0.78163484   -9.0960274    182.95839  0.012684304  0.012439114         3762 
 1203000   0.77797066   -9.0916836    182.61996  0.012650316  0.012424542         3784 
 1204000   0.77094217   -9.0645682    183.33525  0.012689317  0.012410021         3793 
 1205000   0.78064326   -9.0691436    182.97404  0.012653806  0.012395512         3806 
 1206000   0.76242793     -9.07606    183.04998  0.012648561  0.012381016         3792 
 1207000   0.79015881   -9.0987048     182.8285  0.012622791  0.012366552         3801 
 1208000   0.77618777   -9.0629186    182.96411  0.012621696  0.012352111         3804 
 1209000   0.78191363    -9.086638    182.97622  0.012612091  0.012337671         3785 
 1210000   0.77530936   -9.0867363    183.06465  0.012607758   0.01232324         3787 
 1211000   0.77063859   -9.0933237    182.90562  0.012586403  0.012308842         3758 
 1212000    0.7598421   -9.0929425    182.59831  0.012554889  0.012294464         3800 
 1213000   0.77443272   -9.0854425    182.87383  0.012563467  0.012280077         3820 
 1214000   0.76705314   -9.0756264    182.87397  0.012553128  0.012265692         3854 
 1215000    0.7675802   -9.1287987    182.94924  0.012547959   0.01225133         3820 
 1216000   0.77700228    -9.096251    182.91798  0.012535498  0.012237008         3769 
 1217000    0.7707454   -9.1092192     182.9531  0.012527602  0.012222724         3804 
 1218000   0.77630712   -9.0766632    183.18356  0.012533085  0.012208451         3758 
 1219000   0.77929732   -9.0973418    182.98612  0.012509305  0.012194189         3793 
 1220000   0.76932051   -9.1013961    183.02869   0.01250196  0.012179931         3793 
 1221000   0.77644637   -9.1194981     182.9667   0.01248749  0.012165701         3820 
 1222000   0.76651972   -9.1278692    182.72236  0.012460608  0.012151458         3817 
 1223000   0.76945481    -9.128286    182.95998  0.012466611   0.01213727         3791 
 1224000   0.78715225   -9.1204436    182.57885  0.012430477  0.012123064         3791 
 1225000   0.75419045   -9.0978328    182.82176  0.012436854  0.012108885         3791 
 1226000   0.76972492   -9.0704683    182.97434  0.012437081  0.012094736         3800 
 1227000   0.76433247   -9.0788809    182.55116  0.012398204  0.012080607         3792 
 1228000   0.78665216   -9.0965836     182.9151  0.012412805  0.012066494         3782 
 1229000   0.78057959   -9.1172793     182.6835  0.012387002  0.012052399         3809 
 1230000   0.78027458   -9.1160253    182.79611   0.01238456   0.01203833         3798 
 1231000   0.76289721   -9.1019697    182.57024  0.012359209  0.012024259         3811 
 1232000   0.75385542    -9.113959    182.63156  0.012353325  0.012010212         3809 
 1233000   0.77508238   -9.1088115    182.78706  0.012353816  0.011996169         3770 
 1234000   0.75804586   -9.1077104    182.90565  0.012351813  0.011982149         3806 
 1235000   0.76261995   -9.1092609    182.41299  0.012308569  0.011968153         3787 
 1236000    0.7475168   -9.1266755     182.6261  0.012312979  0.011954174         3814 
 1237000   0.76222633   -9.1317369     182.7263  0.012309775  0.011940247         3803 
 1238000   0.76055207   -9.1310819    182.87316  0.012309717  0.011926292         3825 
 1239000   0.76483507   -9.1379672    182.56594  0.012279119  0.011912361         3846 
 1240000   0.73741476   -9.1245294    182.65836  0.012275428  0.011898469         3809 
 1241000   0.74747165   -9.1193901    183.06005   0.01229251  0.011884587         3830 
 1242000   0.75682492   -9.1173275    182.76945  0.012263114  0.011870733         3815 
 1243000   0.77337098   -9.1174741    182.77142  0.012253381  0.011856913         3818 
 1244000   0.73872983   -9.1420954    182.58375  0.012230958   0.01184309         3796 
 1245000   0.76414065   -9.1202705    182.68455  0.012227881  0.011829266         3762 
 1246000   0.75354144   -9.1361354    182.87184  0.012230594   0.01181548         3814 
 1247000   0.74883356   -9.1293343    182.69499  0.012208968  0.011801701         3818 
 1248000   0.76646866   -9.1222032    182.70763  0.012200029  0.011787954         3805 
 1249000   0.74187662   -9.1283589    182.88257  0.012201933  0.011774233         3810 
 1250000   0.74830271   -9.1616395    182.57724  0.012171816  0.011760528         3815 
 1251000   0.76033478   -9.1226971    182.73372   0.01217251   0.01174682         3820 
 1252000   0.74679591   -9.1217709    182.78456  0.012166171  0.011733128         3797 
 1253000   0.74867027   -9.1016816    182.54537  0.012140554  0.011719465         3800 
 1254000   0.75068912   -9.1526785     182.4766  0.012126302  0.011705836         3802 
 1255000    0.7463448   -9.1364902    182.39899  0.012111487  0.011692202         3825 
 1256000   0.75918533   -9.1588835      182.326  0.012097001  0.011678561         3833 
 1257000    0.7589458   -9.1433947    182.31026  0.012086334  0.011664987         3805 
 1258000   0.76251573   -9.1528278    182.49986  0.012089286  0.011651406         3800 
 1259000   0.75754742   -9.1405133    182.93514  0.012108495   0.01163783         3823 
 1260000   0.75699336   -9.1551192    182.54363  0.012072991  0.011624259         3820 
 1261000   0.74266575   -9.1418052    182.67167  0.012071879  0.011610722         3811 
 1262000   0.74010988   -9.1512426    182.08839  0.012023797  0.011597205         3799 
 1263000   0.75067888   -9.1528193    182.26655  0.012026033  0.011583703         3803 
 1264000   0.73576291   -9.1394381    182.68201  0.012043909  0.011570213         3818 
 1265000   0.74180745    -9.162898    182.20871  0.012003209  0.011556738         3811 
 1266000   0.75203155   -9.1514877    182.59196  0.012018954  0.011543277         3803 
 1267000   0.74076912   -9.1264963    182.46828  0.012001334  0.011529847         3817 
 1268000   0.74640182    -9.133127    182.31407  0.011981734   0.01151644         3836 
 1269000   0.73886827   -9.1549377      182.224  0.011966377  0.011503058         3818 
 1270000   0.75503008   -9.1750359    181.95645    0.0119394   0.01148966         3827 
 1271000   0.74451084   -9.1614437     182.1029  0.011939608  0.011476296         3809 
 1272000   0.75623776   -9.1536395    182.38537  0.011948727  0.011462945         3843 
 1273000   0.73762493   -9.1151631    182.81594  0.011967527  0.011449636         3815 
 1274000   0.74697957   -9.1516633    182.43329  0.011933104  0.011436342         3830 
 1275000   0.75042022   -9.1317553    182.22982  0.011910446  0.011423059         3836 
 1276000   0.73949506   -9.1072899    183.22148  0.011965875  0.011409805         3830 
 1277000   0.74384618   -9.1427457    182.48538  0.011908469  0.011396571         3809 
 1278000   0.72645566    -9.148623      182.611  0.011907342  0.011383356         3832 
 1279000   0.73577452   -9.1815821    182.13287   0.01186688   0.01137014         3848 
 1280000   0.73896004   -9.1481077     182.5107  0.011882207  0.011356921         3841 
 1281000   0.75045571   -9.1551609    182.49702  0.011872041  0.011343746         3838 
 1282000   0.75074329   -9.1396891    182.41424    0.0118574  0.011330583         3821 
 1283000    0.7358183   -9.1628049    182.34829  0.011843875  0.011317443         3799 
 1284000   0.74726625   -9.1511061    182.48484  0.011843513  0.011304321         3787 
 1285000    0.7302108   -9.1667977     182.0442   0.01180572  0.011291219         3819 
 1286000   0.74824416   -9.1597848    182.33453  0.011815353  0.011278128         3808 
 1287000   0.75210927   -9.1520701    182.10359  0.011791219  0.011265053         3830 
 1288000   0.74547601   -9.1784907    182.13827  0.011784308  0.011251992         3816 
 1289000   0.74012967   -9.1770946    182.33731  0.011788034  0.011238959         3805 
 1290000   0.73155363   -9.1706461    182.72388  0.011803868  0.011225945         3814 
 1291000   0.74116773   -9.1568143    182.18114  0.011759691  0.011212938         3818 
 1292000   0.72603224   -9.1709302     182.3328  0.011760372  0.011199964         3776 
 1293000    0.7270131   -9.1734626    182.50768  0.011762547  0.011187003         3784 
 1294000   0.72552181   -9.2034509     182.5826  0.011758282  0.011174072         3801 
 1295000   0.73944942   -9.1728083    182.08854  0.011717409  0.011161149         3797 
 1296000    0.7419567   -9.1686234    182.57062  0.011739366  0.011148248         3794 
 1297000   0.74685039   -9.1536634    182.37831  0.011717959  0.011135375         3812 
 1298000   0.74636677   -9.1871266    182.14708  0.011694086  0.011122515         3806 
 1299000   0.73255739   -9.1603884    182.61025  0.011714797  0.011109661         3859 
 1300000   0.72566081   -9.1557791      182.298  0.011685769  0.011096817         3839 
 1301000    0.7319456    -9.180438    182.29789   0.01167678  0.011084022         3827 
 1302000   0.72534368   -9.1716047    182.11906  0.011656366  0.011071221         3834 
 1303000   0.72567891   -9.1930068    182.17533  0.011651019  0.011058431         3815 
 1304000   0.74061436   -9.1757013    182.23151  0.011645674  0.011045665         3861 
 1305000   0.72964246    -9.166461    182.46857  0.011651888  0.011032917         3850 
 1306000   0.73883026   -9.1646886    182.20483  0.011626138  0.011020199         3791 
 1307000   0.73011001   -9.1793148    182.05501   0.01160769  0.011007504         3843 
 1308000   0.72688984   -9.1784189    182.25095  0.011611299  0.010994815         3780 
 1309000    0.7371154   -9.1830454    182.07013  0.011590918  0.010982142         3808 
 1310000   0.74242764   -9.1859983    182.27846  0.011595322  0.010969478         3804 
 1311000   0.72489782   -9.1737545    182.47608  0.011599039  0.010956848         3820 
 1312000   0.72267589   -9.2024578     182.1815  0.011571488  0.010944227         3787 
 1313000   0.73961532   -9.1952274    182.11001  0.011558137  0.010931628         3815 
 1314000   0.74403345   -9.1925741    182.19048  0.011554444  0.010919043         3841 
 1315000   0.71483879   -9.1768644    182.08214  0.011538792  0.010906467         3823 
 1316000   0.72571436   -9.2100551    181.95636   0.01152206    0.0108939         3805 
 1317000     0.733933   -9.2017835    181.98145  0.011514898  0.010881355         3841 
 1318000   0.72678536   -9.1856918    181.90975  0.011501628  0.010868831         3823 
 1319000   0.73226896   -9.1835216    182.25985  0.011515027  0.010856324         3841 
 1320000   0.72516578   -9.2020695    181.81008  0.011477909   0.01084384         3845 
 1321000   0.74304232   -9.1721838    182.29587  0.011499866  0.010831374         3815 
 1322000   0.72753151   -9.2155655    182.05824  0.011476188  0.010818935         3821 
 1323000   0.71235556   -9.2059131     182.3502  0.011485904  0.010806492         3836 
 1324000   0.70482732   -9.1976603    182.05125  0.011458412  0.010794062         3815 
 1325000   0.72538507   -9.2088586    182.12855  0.011454626  0.010781659         3816 
 1326000   0.72772346   -9.2034809    182.03577  0.011440157  0.010769288         3806 
 1327000   0.72591802   -9.1992609    182.02091  0.011430602  0.010756917         3843 
 1328000   0.70939285   -9.2151021    182.10808  0.011427465  0.010744572         3829 
 1329000   0.72720407   -9.2043833    182.28854  0.011430182  0.010732254         3826 
 1330000   0.72990839   -9.2065587    182.31632  0.011423328  0.010719955         3826 
 1331000     0.721506   -9.1881369    182.36496  0.011417791  0.010707655         3843 
 1332000   0.72533274   -9.2115562    182.24628  0.011401794   0.01069538         3798 
 1333000   0.69317949   -9.2142591    181.95024  0.011374734  0.010683106         3846 
 1334000    0.7315695   -9.1933066    182.49217  0.011400061  0.010670876         3847 
 1335000    0.7203688   -9.1882503    181.99596  0.011360547  0.010658664         3837 
 1336000    0.7296554   -9.2404418    181.77751  0.011338417  0.010646461         3820 
 1337000   0.71305703   -9.1670112    181.73043  0.011327003  0.010634278         3848 
 1338000   0.71511534   -9.1843026    181.86822  0.011327119  0.010622109         3816 
 1339000   0.71893448   -9.2134126    181.75928  0.011311879  0.010609967         3843 
 1340000   0.71231158   -9.2070937     182.0819  0.011323501  0.010597833         3822 
 1341000   0.70253262   -9.2034079    182.03334  0.011312039  0.010585707         3821 
 1342000   0.72562413   -9.1856236    182.21632  0.011314972  0.010573599         3786 
 1343000    0.7161602   -9.1860093    181.90383  0.011287158  0.010561514         3832 
 1344000   0.71338122   -9.2298732    181.99128  0.011284182  0.010549444         3843 
 1345000   0.70192544   -9.2182827    182.23663  0.011290993   0.01053739         3849 
 1346000   0.72840241   -9.1835885    182.06857    0.0112722  0.010525355         3850 
 1347000   0.70008807    -9.218811    181.82034  0.011248474  0.010513327         3856 
 1348000   0.69484593   -9.2090501    181.41372  0.011214993   0.01050132         3836 
 1349000   0.70562213   -9.2293805    181.70774  0.011224842  0.010489327         3843 
 1350000    0.7123122   -9.1979381    181.66674  0.011213996   0.01047735         3836 
 1351000   0.70259779   -9.2084984    182.22582  0.011240181  0.010465388         3841 
 1352000   0.71043258   -9.2282311    181.77948  0.011204357  0.010453439         3853 
 1353000    0.7281723   -9.2082733    181.91957  0.011204704   0.01044153         3851 
 1354000   0.71681854   -9.2108642    181.70514  0.011183231  0.010429633         3820 
 1355000   0.71822415    -9.237374    182.01381  0.011193961   0.01041774         3860 
 1356000   0.70169215   -9.2385713    181.74918  0.011169443  0.010405853         3839 
 1357000   0.72047477    -9.217028     181.9398  0.011172918   0.01039399         3846 
 1358000   0.71519818   -9.2136056    181.94601  0.011165072  0.010382146         3864 
 1359000   0.72250768   -9.2226832     181.7628  0.011145621  0.010370308         3827 
 1360000   0.71538268   -9.2238184    181.99474  0.011151639  0.010358481         3860 
 1361000   0.69862761   -9.2083601    181.65765  0.011122805  0.010346687         3854 
 1362000   0.70499875   -9.2322557    181.74527      0.01112  0.010334918         3843 
 1363000   0.71716696   -9.2262001    181.51495   0.01109776  0.010323157         3854 
 1364000    0.7152032   -9.2331627    181.85041  0.011110118  0.010311406         3864 
 1365000   0.70517741    -9.218216    181.64603  0.011089501  0.010299676         3868 
 1366000   0.71294941   -9.2390923    181.89331  0.011096468  0.010287965         3853 
 1367000   0.70718501   -9.2137755    182.19296  0.011106618  0.010276282         3851 
 1368000    0.7011343   -9.2304345    181.70447  0.011068742  0.010264606         3828 
 1369000   0.69359999   -9.2289061    181.74531  0.011063143  0.010252945         3860 
 1370000   0.71468083   -9.2445228    181.82908  0.011060163  0.010241315         3847 
 1371000   0.71573986   -9.2226934    181.76632  0.011048281  0.010229684         3845 
 1372000   0.70141535   -9.2348096    181.64281  0.011032726  0.010218073         3849 
 1373000   0.70550756   -9.2076815    181.65508  0.011025436  0.010206499         3837 
 1374000   0.69552603   -9.2344156    181.62805  0.011015772  0.010194914         3861 
 1375000   0.71203883     -9.25134    181.81297  0.011018968  0.010183352         3846 
 1376000   0.70023621   -9.2265781    181.82708  0.011011815  0.010171781         3880 
 1377000    0.7113612   -9.2513711    181.57893    0.0109888  0.010160251         3859 
 1378000   0.70430725   -9.2275923    181.72902  0.010989902   0.01014873         3848 
 1379000   0.70170602   -9.2347642    181.40537  0.010962374  0.010137205         3871 
 1380000   0.70778674   -9.2177852     181.7234  0.010973635  0.010125708         3871 
 1381000   0.71978606   -9.2558732     181.8284  0.010972025  0.010114237         3868 
 1382000   0.72000538   -9.2203123    181.65945  0.010953898  0.010102776         3855 
 1383000   0.70524872   -9.2287782    181.55119  0.010939455   0.01009132         3823 
 1384000   0.69422991   -9.2271764     181.8449  0.010949235  0.010079893         3850 
 1385000   0.69927944   -9.2379345     182.0619  0.010954386  0.010068501         3854 
 1386000   0.68941804   -9.2618717    181.77497  0.010929231  0.010057107         3877 
 1387000   0.68628199   -9.2433812    181.48597  0.010903988  0.010045729         3863 
 1388000   0.69973177   -9.2203124    181.94697   0.01092381   0.01003438         3864 
 1389000    0.6972195   -9.2469209    181.54186   0.01089164  0.010023042         3871 
 1390000     0.700892   -9.2274459    181.88452  0.010904347  0.010011727         3846 
 1391000   0.70922259   -9.2520228     181.2685  0.010859603  0.010000424         3860 
 1392000   0.71328154   -9.2382476    181.64885  0.010874572 0.0099891282         3865 
 1393000   0.70467777   -9.2468533    181.76247  0.010873562 0.0099778414         3861 
 1394000   0.69980526   -9.2544401    181.74942  0.010864982 0.0099665849         3863 
 1395000   0.70432755   -9.2612335    181.62955  0.010850033 0.0099553317         3843 
 1396000   0.70802989   -9.2569586    181.62741  0.010842133 0.0099441117         3865 
 1397000   0.67598259   -9.2449217    181.37554  0.010819347 0.0099329063         3853 
 1398000   0.68652772   -9.2694971    181.64794  0.010827846 0.0099217044         3848 
 1399000   0.68254254   -9.2650627    181.91712   0.01083614 0.0099105207         3845 
 1400000   0.70371311   -9.2511957    181.55235  0.010806688 0.0098993481         3882 
 1401000   0.69915203   -9.2436027    181.61271  0.010802564 0.0098881868         3858 
 1402000   0.69453968   -9.2422809     181.3484  0.010779149 0.0098770356         3851 
 1403000   0.68374099   -9.2773282    181.27937  0.010767366 0.0098659049         3865 
 1404000   0.68538306    -9.260403    181.10663  0.010749444 0.0098547928         3875 
 1405000   0.69415919   -9.2484779    181.66896  0.010775146  0.009843682         3861 
 1406000   0.67789598    -9.258324     181.4529  0.010754676 0.0098326032         3847 
 1407000   0.69006846   -9.2429707    181.61097  0.010756395 0.0098215375         3836 
 1408000   0.68911227   -9.2571947    181.65573  0.010751404 0.0098104985         3876 
 1409000   0.69726057   -9.2830752    181.30945  0.010723294 0.0097994655         3846 
 1410000   0.69683417   -9.2668844     181.5549  0.010730195 0.0097884503         3871 
 1411000   0.68803044   -9.2574065    181.15986  0.010699259 0.0097774442         3888 
 1412000   0.69529011   -9.2856344    181.26769  0.010698046 0.0097664691         3844 
 1413000   0.67400943   -9.2739328    181.41029  0.010698885 0.0097555099         3855 
 1414000   0.69198433   -9.2379371    181.61786  0.010703551 0.0097445667         3872 
 1415000   0.67965057   -9.2918808    181.76935  0.010704909 0.0097336307         3856 
 1416000   0.66866543   -9.2596868    181.39175  0.010675127 0.0097227105         3860 
 1417000   0.68485967   -9.2706806     181.2536  0.010659468 0.0097118026         3870 
 1418000   0.68141501   -9.2659968     181.1958  0.010648554 0.0097009186         3840 
 1419000   0.67806051   -9.2696532    181.40602  0.010653395 0.0096900373         3870 
 1420000   0.67894532   -9.2780049    181.55165   0.01065444 0.0096791822         3864 
 1421000   0.68465997   -9.2595278    181.47878  0.010642668 0.0096683403         3857 
 1422000   0.66910068   -9.2626927    181.36382  0.010628447 0.0096575026         3868 
 1423000   0.68801097   -9.2723195    181.23101    0.0106132 0.0096466879         3836 
 1424000   0.68202405   -9.2881149    181.64826  0.010630165 0.0096359004         3880 
 1425000   0.68683701   -9.2482274    181.72095  0.010626956 0.0096251202         3865 
 1426000   0.67271509   -9.2733921    181.46871  0.010604764 0.0096143666         3860 
 1427000   0.67858704   -9.2757462    181.46683  0.010597222 0.0096036167         3881 
 1428000   0.67247342   -9.2674393    181.14281  0.010570893 0.0095928753         3876 
 1429000   0.68313203   -9.3066753    181.21517  0.010567715 0.0095821501         3863 
 1430000   0.67589243   -9.2989201     181.4118  0.010571783 0.0095714329         3883 
 1431000   0.69496514   -9.2645585    181.08953  0.010545628 0.0095607363         3852 
 1432000   0.68546743   -9.2729479    181.68364  0.010572838 0.0095500555         3857 
 1433000   0.68637129   -9.2654291    181.65988  0.010564078 0.0095394072         3849 
 1434000   0.69043943   -9.2922974    181.31539  0.010536691 0.0095287656         3845 
 1435000   0.68721271   -9.2779162    181.42457  0.010535689 0.0095181354         3898 
 1436000   0.67738998   -9.2887641    181.06273  0.010507354 0.0095075094         3883 
 1437000   0.66591289   -9.2782109    181.43961  0.010521898 0.0094969119         3855 
 1438000   0.68251913   -9.2587518     181.2851  0.010505627  0.009486322         3846 
 1439000   0.69606669   -9.2684449    181.71791  0.010523391 0.0094757549         3841 
 1440000   0.64908417    -9.278988    181.04816  0.010477324  0.009465191         3894 
 1441000   0.68533375   -9.2888157    181.43851  0.010492627 0.0094546411         3873 
 1442000   0.67652736   -9.2869664    181.20189  0.010471676 0.0094441238         3882 
 1443000   0.68099692   -9.2679702    181.46303    0.0104795 0.0094336113         3872 
 1444000   0.68407037    -9.295435    181.45807  0.010471957 0.0094231159         3876 
 1445000   0.68258355   -9.2917126    181.25453  0.010452972 0.0094126337         3895 
 1446000   0.66855163   -9.2920907    181.31071  0.010448981 0.0094021669         3881 
 1447000   0.66341747   -9.2874306    181.31138  0.010441798 0.0093916975         3911 
 1448000   0.66466925    -9.288146    181.33766  0.010436099 0.0093812511         3891 
 1449000   0.68166687   -9.2884914    181.00977   0.01041004 0.0093708035         3887 
 1450000    0.6687529   -9.2998841    181.28072  0.010418432  0.009360373         3901 
 1451000   0.68992117   -9.2754769    181.33792  0.010414537 0.0093499724         3884 
 1452000   0.69126835   -9.2998007    181.14355  0.010396209 0.0093395775         3893 
 1453000   0.67560439   -9.3008582    181.31256  0.010398747 0.0093291932         3871 
 1454000   0.67593095    -9.304336    181.32405  0.010392254 0.0093188256         3876 
 1455000   0.67422311   -9.3087305    181.17785  0.010376738 0.0093084685         3872 
 1456000   0.69635837   -9.3077681    180.84457  0.010350537 0.0092981319         3894 
 1457000   0.65515148   -9.3033286    180.76094  0.010338649 0.0092878137         3897 
 1458000   0.67794403   -9.2947878    180.94336  0.010341984 0.0092775115         3880 
 1459000    0.6882966   -9.2861399    181.11549  0.010344728 0.0092672197         3875 
 1460000   0.66645535   -9.2884204    181.25775  0.010345762 0.0092569536         3898 
 1461000   0.65927845   -9.2740809    181.52239  0.010353775 0.0092466932         3901 
 1462000   0.66956653   -9.3089921    181.25621  0.010331521 0.0092364395         3894 
 1463000   0.67435301   -9.3028641    180.89435  0.010303848 0.0092262044         3914 
 1464000   0.66135319   -9.3040366    180.89398  0.010296789 0.0092159867         3922 
 1465000   0.65089833   -9.3038709    181.37271  0.010316991 0.0092057796         3907 
 1466000   0.67133746   -9.2932215    181.07091  0.010292799  0.009195569         3906 
 1467000   0.68068175    -9.306248    180.79647  0.010270192 0.0091853884         3891 
 1468000   0.65736729   -9.3048113    181.26137  0.010289587 0.0091752132         3928 
 1469000   0.66105781   -9.3083377    180.97192  0.010266163 0.0091650618         3899 
 1470000   0.66833865   -9.3304711    181.03745  0.010262894 0.0091549193         3923 
 1471000   0.67717161   -9.3118653     181.1885  0.010264474 0.0091448037         3899 
 1472000   0.66260773   -9.3097178    181.02908  0.010248476 0.0091346975         3905 
 1473000   0.65830738   -9.2960453    181.16182  0.010249028 0.0091246061         3904 
 1474000   0.67284492   -9.3001934    181.07748  0.010237306 0.0091145184         3903 
 1475000   0.65491989   -9.3167046    180.90513  0.010220629  0.009104454         3917 
 1476000   0.66652327   -9.3390038    180.84112  0.010210091  0.009094404         3901 
 1477000   0.65942693   -9.3191191    180.89165  0.010206028 0.0090843608         3902 
 1478000   0.65761634   -9.3268053    181.10302  0.010211041 0.0090743361         3908 
 1479000   0.65792331   -9.3362692    180.65272  0.010178765 0.0090643177         3910 
 1480000   0.66516591   -9.3246417     180.7623  0.010178058 0.0090543201         3913 
 1481000   0.66952388   -9.3192258    180.71145  0.010168324 0.0090443374         3915 
 1482000   0.67635173   -9.3302741    181.01338   0.01017844 0.0090343835         3917 
 1483000   0.65810682   -9.3351986    180.87955  0.010164057 0.0090244378         3920 
 1484000   0.66377557   -9.3325742    180.98616  0.010163194 0.0090145012         3922 
 1485000   0.65510793   -9.3368243    180.87837  0.010150302 0.0090045734         3924 
 1486000   0.65719089   -9.3398025    181.09535  0.010155639 0.0089946637         3906 
 1487000   0.65261094   -9.3524159    180.47457   0.01011402 0.0089847606         3918 
 1488000   0.65402547   -9.3191133    180.93521   0.01013302 0.0089748716         3917 
 1489000   0.65974878   -9.3218254    181.13519  0.010137407  0.008964991         3921 
 1490000   0.65266069     -9.32395    181.26097  0.010137638 0.0089551305         3923 
 1491000   0.66607336   -9.3135152    180.90192  0.010110772 0.0089452953         3913 
 1492000   0.66093888   -9.3219666    181.01641  0.010110389 0.0089354647         3914 
 1493000   0.67277685   -9.3316341    180.79243  0.010091116 0.0089256523         3905 
 1494000   0.65071756   -9.3029382     180.9425  0.010092732 0.0089158499         3905 
 1495000   0.67233271   -9.3403775    180.85316  0.010081001 0.0089060662         3920 
 1496000   0.64495606   -9.3374119     181.2495   0.01009634  0.008896299         3919 
 1497000   0.65933796    -9.324136    180.88864  0.010069508  0.008886549         3928 
 1498000   0.66151035   -9.3318461    181.22583  0.010081544 0.0088768032         3913 
 1499000   0.64750495   -9.3590647    180.74288   0.01004797 0.0088670769         3923 
 1500000   0.64688116   -9.3371565    180.71256  0.010039587 0.0088573578         3922 
 1501000   0.66669013   -9.3503693    180.83855  0.010039893 0.0088476722         3923 
 1502000   0.65253072   -9.3461116    180.65235  0.010022878 0.0088379905         3912 
 1503000   0.64092441   -9.3278534    180.81377  0.010025159 0.0088283158         3925 
 1504000   0.64290534   -9.3311149    180.69502  0.010011914 0.0088186555         3928 
 1505000   0.64899373   -9.3354376    181.10489  0.010027956 0.0088090164         3911 
 1506000   0.64564527   -9.3480764    180.99844  0.010015407 0.0087993914         3921 
 1507000   0.65382484   -9.3231262    180.79647 0.0099975929 0.0087897725         3928 
 1508000   0.65217063     -9.32604    180.72423 0.0099869712 0.0087801796         3936 
 1509000    0.6596811   -9.3416553    180.56488  0.009971553 0.0087705904         3930 
 1510000   0.64778856   -9.3118013    180.96414 0.0099869835  0.008761014         3922 
 1511000   0.66313815   -9.3246401    180.98773 0.0099816748 0.0087514552         3923 
 1512000   0.62750874   -9.3516046    180.61415 0.0099544835 0.0087419105         3925 
 1513000   0.63681032   -9.3475333     180.8263  0.009959589 0.0087323798         3912 
 1514000   0.65328571   -9.3155786    180.97937  0.009961436 0.0087228652         3911 
 1515000   0.65267176   -9.3445703     181.0445 0.0099584435 0.0087133703         3916 
 1516000   0.65557137   -9.3236631     180.9832 0.0099485046 0.0087038895         3923 
 1517000   0.65631783   -9.3368273    180.76921 0.0099301916 0.0086944105         3896 
 1518000   0.65227619   -9.3493534    180.80743 0.0099257482 0.0086849476         3928 
 1519000   0.64899545   -9.3497857    180.83567 0.0099207633 0.0086754947         3911 
 1520000   0.63578892   -9.3408801    180.84935 0.0099149865 0.0086660566         3934 
 1521000   0.65297054   -9.3348191    180.92151 0.0099124212 0.0086566237         3909 
 1522000   0.66528079   -9.3541452    180.69531 0.0098935233 0.0086472057         3918 
 1523000   0.66579438   -9.3446803    180.42717 0.0098723553 0.0086378035         3925 
 1524000   0.64907544   -9.3519751    180.73139 0.0098825123 0.0086284222         3928 
 1525000   0.64109165   -9.3581732    180.91821  0.009886241 0.0086190447         3927 
 1526000   0.65611448   -9.3523921    180.78999 0.0098727603  0.008609677         3911 
 1527000   0.63830506   -9.3518203    180.60211 0.0098560417   0.00860033         3923 
 1528000   0.65051085   -9.3418912    181.01255 0.0098719761 0.0085909995         3908 
 1529000   0.65427167   -9.3570648      180.698 0.0098483759 0.0085816886         3923 
 1530000   0.65030219   -9.3532793    180.70217 0.0098421663 0.0085723859         3896 
 1531000   0.64690607   -9.3643836    180.98675 0.0098512274 0.0085630933         3919 
 1532000    0.6511081   -9.3558356    180.67216 0.0098276847 0.0085538109         3930 
 1533000   0.63745254   -9.3453325    180.49492 0.0098116394 0.0085445429         3918 
 1534000   0.63946436   -9.3673904     180.7778 0.0098206105 0.0085352877         3924 
 1535000   0.64407167   -9.3513572    180.58872 0.0098039476 0.0085260436         3928 
 1536000   0.63043282   -9.3549135    180.82362 0.0098103092 0.0085168139         3905 
 1537000   0.64520859   -9.3587512    180.38786 0.0097803003 0.0085075987         3931 
 1538000   0.63798021   -9.3676525     180.6449 0.0097878683  0.008498397         3910 
 1539000   0.63900399   -9.3331794    180.62959 0.0097806796 0.0084892087         3917 
 1540000   0.63527846   -9.3266245    180.95482 0.0097919273 0.0084800395         3908 
 1541000   0.64571637   -9.3592601    180.66191 0.0097697334 0.0084708862         3905 
 1542000   0.63178032   -9.3615644    180.74003 0.0097676194 0.0084617377         3919 
 1543000   0.64662332   -9.3531491    180.73199  0.009760855 0.0084526088         3899 
 1544000   0.63468582   -9.3817769    180.19272 0.0097254272 0.0084434998         3918 
 1545000     0.634569   -9.3518076    180.80746 0.0097522899 0.0084343889         3917 
 1546000   0.62310921   -9.3660736     180.4847 0.0097285845 0.0084252858         3917 
 1547000   0.64070518   -9.3710961    180.64657 0.0097310155 0.0084161951         3921 
 1548000   0.64513423   -9.3775305    180.74979 0.0097302859 0.0084071168         3918 
 1549000   0.64987209   -9.3666005    180.60021 0.0097159569 0.0083980529         3926 
 1550000   0.63530498   -9.3634692    180.14303 0.0096851089 0.0083890081         3920 
 1551000   0.62284647   -9.3756399    180.43952 0.0096947946 0.0083799728         3914 
 1552000    0.6326054   -9.3544462    180.38745  0.009685752 0.0083709464         3931 
 1553000   0.63635125   -9.3952748    180.38554 0.0096794131 0.0083619345         3928 
 1554000   0.62653009   -9.3827625     180.4026 0.0096740989  0.008352937         3922 
 1555000   0.64601107   -9.3667837    180.69604 0.0096836037 0.0083439507         3929 
 1556000   0.63570085   -9.3789458    180.57025 0.0096706434 0.0083349731         3921 
 1557000   0.62694422   -9.3827796    180.54687  0.009663181 0.0083260099         3908 
 1558000     0.626457   -9.3723214    180.37587  0.009647832 0.0083170624         3924 
 1559000   0.63184377   -9.3696993    180.33633 0.0096395301 0.0083081241         3919 
 1560000   0.63850178   -9.3961776    180.23915 0.0096281597 0.0082992003         3926 
 1561000   0.64425302   -9.3807974    180.56568 0.0096394235 0.0082902916         3924 
 1562000   0.63098488   -9.3541872    180.60306 0.0096352466 0.0082813962         3910 
 1563000   0.62508125   -9.3676336    180.46085 0.0096214999 0.0082725084         3910 
 1564000   0.61525217   -9.3773467    180.39489 0.0096118336 0.0082636378         3924 
 1565000   0.62396295   -9.3662542    180.36188 0.0096039341 0.0082547705         3913 
 1566000   0.62639249   -9.3634367    180.64649 0.0096129465 0.0082459106         3923 
 1567000   0.63273454   -9.3794228    180.67224 0.0096081812 0.0082370722         3919 
 1568000   0.62315309   -9.3769586     180.5436  0.009595217 0.0082282394         3930 
 1569000   0.61924259   -9.3908962    180.22381 0.0095721166 0.0082194288         3911 
 1570000   0.60795513   -9.3880235    180.35384 0.0095729213 0.0082106237         3937 
 1571000   0.63116027   -9.3739824    180.50371 0.0095747778 0.0082018353         3921 
 1572000   0.62645191   -9.3896555    180.14224 0.0095495251 0.0081930598         3916 
 1573000   0.62455753   -9.3683575    180.33936 0.0095538972 0.0081843055         3941 
 1574000   0.63164354   -9.3727609    180.51419 0.0095570833 0.0081755658         3922 
 1575000   0.63843552   -9.3752095    180.30128 0.0095397501 0.0081668316         3923 
 1576000   0.61436866   -9.3892723    180.50014 0.0095442123 0.0081581148         3915 
 1577000   0.60662083   -9.3725578    180.51724 0.0095390636 0.0081494011         3911 
 1578000   0.62617339   -9.3743009    180.41054 0.0095273836 0.0081407047         3926 
 1579000   0.61636146   -9.3744555    180.25708 0.0095132511 0.0081320248         3932 
 1580000   0.62729431   -9.3940717    180.31989 0.0095105427 0.0081233512         3922 
 1581000   0.63273685   -9.4087695    180.21299 0.0094988928 0.0081146885         3938 
 1582000   0.62645447   -9.3903881    180.31375 0.0094981958 0.0081060325         3919 
 1583000   0.63372162   -9.3900336    180.54771  0.009504512 0.0080973941         3900 
 1584000   0.62251998    -9.387856    180.38922 0.0094901735 0.0080887655         3920 
 1585000   0.62631346   -9.3877304    180.48084 0.0094890032 0.0080801413         3932 
 1586000   0.62243632   -9.4094968    180.46031 0.0094819415 0.0080715387         3926 
 1587000   0.62026498   -9.3851845    180.34082 0.0094696922 0.0080629497         3919 
 1588000   0.63527676   -9.3977377    180.45656 0.0094698029 0.0080543753         3930 
 1589000   0.61630611   -9.3787253    180.28355 0.0094547699 0.0080458105         3912 
 1590000   0.62553562   -9.3825834    180.16998 0.0094428713 0.0080372565         3918 
 1591000   0.62033094   -9.4042921     180.1267 0.0094346692 0.0080287127         3931 
 1592000   0.61191039   -9.4017102    180.20376 0.0094327764 0.0080201778         3933 
 1593000   0.60755863   -9.3878356    180.80385 0.0094582468 0.0080116566         3906 
 1594000   0.59987762   -9.3903584    180.21216 0.0094213799 0.0080031433         3913 
 1595000   0.60701701   -9.3902275    180.18794 0.0094142078 0.0079946466         3918 
 1596000   0.61244274   -9.3807924    180.41981 0.0094204161   0.00798616         3917 
 1597000   0.59608259    -9.387514    180.47472 0.0094173827 0.0079776853         3911 
 1598000   0.62141263   -9.4086946    180.23604 0.0093990427 0.0079692283         3930 
 1599000    0.6322107    -9.408533     180.2159 0.0093921151 0.0079607751         3928 
 1600000   0.61679922   -9.3996856    180.12411 0.0093814642   0.00795234         3929 
 1601000   0.60536732   -9.3972094    180.25571 0.0093824544 0.0079439136         3923 
 1602000   0.60936054   -9.3947171    179.92341 0.0093593116 0.0079354994         3924 
 1603000   0.61260971   -9.4051035    180.19858 0.0093677784 0.0079271001         3921 
 1604000   0.61923873   -9.4088593    180.21282 0.0093626779 0.0079187151         3925 
 1605000   0.59986091   -9.4005742    180.20334 0.0093563518 0.0079103387         3925 
 1606000   0.59567406   -9.4270496    180.11934 0.0093461676 0.0079019691         3921 
 1607000   0.59918908   -9.4079824    179.94499 0.0093313102 0.0078936183         3918 
 1608000   0.60908611   -9.4012281    180.04049 0.0093304566 0.0078852708         3930 
 1609000   0.61270161   -9.4227999    180.52757 0.0093498844 0.0078769399         3933 
 1610000   0.60601289   -9.3919073     180.6042 0.0093480437 0.0078686197         3923 
 1611000   0.60086541   -9.3981897    180.39996  0.009331676 0.0078603119         3920 
 1612000   0.61960592   -9.4016711    180.19651 0.0093153695 0.0078520166         3924 
 1613000   0.61132886   -9.3992491    180.35598  0.009317833 0.0078437345         3917 
 1614000   0.61991971   -9.4269985    180.01518 0.0092944641 0.0078354607         3918 
 1615000   0.60640213   -9.3955821    179.90719  0.009283137 0.0078272016         3920 
 1616000   0.60728195   -9.3864612    180.22206 0.0092936293 0.0078189465         3932 
 1617000   0.61852552   -9.4240113    179.83264 0.0092678128 0.0078107039         3932 
 1618000   0.60384244   -9.4052627    180.06112 0.0092738527 0.0078024746         3919 
 1619000     0.613684   -9.4134737    180.24217 0.0092774433 0.0077942683         3934 
 1620000   0.59313414   -9.4144232    180.32938 0.0092762028 0.0077860633         3926 
 1621000   0.59004208   -9.4019668    179.82856 0.0092447337 0.0077778682         3919 
 1622000   0.61171712    -9.427893    180.05882 0.0092508639 0.0077696793         3931 
 1623000     0.607348   -9.4247395    180.33121 0.0092591504 0.0077615125         3927 
 1624000   0.60398929   -9.3962803    180.22033  0.009247759 0.0077533581         3929 
 1625000   0.59996476   -9.4238977    180.06996 0.0092343571  0.007745217         3922 
 1626000   0.60165006   -9.4093154    180.00495 0.0092253461  0.007737084         3917 
 1627000   0.59380832   -9.4280324    180.22073  0.009230728 0.0077289588         3922 
 1628000   0.61016917   -9.4043167    180.36693 0.0092325412 0.0077208468         3919 
 1629000   0.60523015   -9.4001294    180.42096 0.0092296378 0.0077127497         3923 
 1630000   0.60512414   -9.4203766    179.97447 0.0092011487 0.0077046652         3924 
 1631000   0.60197082   -9.4297687    180.01532 0.0091975943 0.0076965955         3935 
 1632000   0.60018302   -9.4118865    179.79642 0.0091807815 0.0076885307         3940 
 1633000   0.59940094   -9.3868572    179.91211 0.0091810629 0.0076804695         3936 
 1634000    0.6025561    -9.408792     179.9608 0.0091779272  0.007672422         3927 
 1635000   0.59838783   -9.4022313    179.97015 0.0091727906 0.0076643891         3927 
 1636000   0.59691686   -9.4059157    179.99391  0.009168394 0.0076563683         3923 
 1637000   0.61366678   -9.4227849    180.03079 0.0091646707 0.0076483575         3933 
 1638000   0.60360767   -9.4222572    180.40791 0.0091782615 0.0076403636         3928 
 1639000   0.59580346   -9.3970352    180.11761 0.0091579019 0.0076323804         3925 
 1640000   0.59305066   -9.4016718    179.97437 0.0091450394 0.0076243996         3937 
 1641000   0.58722499   -9.4077115    180.18817 0.0091503237 0.0076164345         3944 
 1642000   0.60239956   -9.4273783    180.02605 0.0091365229 0.0076084753         3923 
 1643000   0.60781581   -9.4342847    180.03232   0.00913128 0.0076005297         3934 
 1644000    0.6010327   -9.4070086    180.08749 0.0091285224 0.0075926072         3927 
 1645000    0.6144653   -9.4513942    179.94696  0.009115854  0.007584682         3928 
 1646000   0.59977366    -9.431997    180.06132 0.0091161059  0.007576774         3936 
 1647000   0.60782236   -9.4168977    180.08212 0.0091116231 0.0075688734         3924 
 1648000   0.59365418   -9.4351253    180.00603 0.0091022469 0.0075609845         3923 
 1649000   0.59059305   -9.4269581    180.08361 0.0091006473 0.0075531084         3929 
 1650000   0.60267867   -9.4286763    180.03447 0.0090926499 0.0075452418         3945 
 1651000   0.58996793   -9.4182114    179.95115 0.0090829372 0.0075373837         3918 
 1652000   0.59476755   -9.4213342    179.89718 0.0090747164 0.0075295321         3930 
 1653000   0.59716489   -9.4228255    179.86116 0.0090674108 0.0075216939         3934 
 1654000   0.59255461   -9.4288496    180.10501 0.0090742145 0.0075138735         3915 
 1655000   0.59693026   -9.4257336    180.01991 0.0090644464 0.0075060571         3939 
 1656000   0.58767655   -9.4311378    180.01276 0.0090586131 0.0074982503         3931 
 1657000   0.58966811   -9.4284899    180.23022 0.0090640828 0.0074904587         3933 
 1658000   0.60304627   -9.4424151     179.9121 0.0090426267 0.0074826747         3919 
 1659000   0.58472397   -9.4416659    180.09518 0.0090463725 0.0074749012         3932 
 1660000   0.59585643   -9.4280794    180.03501 0.0090379021 0.0074671407         3911 
 1661000   0.57896774    -9.431663     180.1641 0.0090389376 0.0074593903         3926 
 1662000    0.5797546   -9.4248338     180.1252 0.0090315481 0.0074516521         3934 
 1663000   0.58597961   -9.4341418    179.58636 0.0089991159 0.0074439255         3938 
 1664000   0.58955992   -9.4327755    179.84058 0.0090064393 0.0074362017         3942 
 1665000   0.59906609   -9.4368843    179.95134 0.0090065736 0.0074284891         3934 
 1666000   0.58401882   -9.4541226    179.81271 0.0089942332 0.0074207966         3937 
 1667000   0.58467659   -9.4628395     179.7961 0.0089880074 0.0074131094         3933 
 1668000   0.57819989   -9.4246636    180.21821 0.0090037077 0.0074054322         3928 
 1669000   0.58527292   -9.4362615    179.82375 0.0089786172 0.0073977709         3924 
 1670000   0.59239271   -9.4284908    180.04012 0.0089840379  0.007390122         3923 
 1671000   0.58614764   -9.4220058    179.72941 0.0089631661 0.0073824786         3924 
 1672000   0.58397675   -9.4396176    179.77417 0.0089600364  0.007374845         3915 
 1673000   0.59390111   -9.4444461    179.76461 0.0089542043 0.0073672219         3932 
 1674000   0.59045592   -9.4350191    179.72151 0.0089467099 0.0073596148         3922 
 1675000   0.59020804   -9.4294045    179.60326 0.0089354854 0.0073520116         3914 
 1676000   0.58906736    -9.439116    179.80758 0.0089403133 0.0073444277         3933 
 1677000   0.57692424   -9.4414056    179.87188 0.0089381773 0.0073368549         3935 
 1678000   0.58365032   -9.4587583    179.56271 0.0089174964 0.0073292849         3933 
 1679000   0.58043582   -9.4364662    179.84361 0.0089261273 0.0073217251         3933 
 1680000   0.58847799   -9.4590723    179.58016 0.0089077461 0.0073141832         3915 
 1681000   0.57708979   -9.4347911    179.91314  0.008918954 0.0073066492         3916 
 1682000   0.58280587   -9.4494881    179.88312 0.0089121642 0.0072991166         3941 
 1683000   0.58047857   -9.4506386    179.73946 0.0088997553 0.0072916023         3943 
 1684000   0.57741062   -9.4468697    180.02629 0.0089086644  0.007284094         3931 
 1685000   0.56543332   -9.4328673    179.63869 0.0088842082 0.0072765949         3915 
 1686000   0.57520122   -9.4418979    179.70587 0.0088822593 0.0072691048         3930 
 1687000   0.58271722   -9.4463006    179.55424 0.0088695043  0.007261628         3924 
 1688000   0.57654958   -9.4461882    179.65258 0.0088691046  0.007254162         3915 
 1689000   0.58221335   -9.4468386    179.49365 0.0088560118 0.0072467089         3937 
 1690000   0.57838714    -9.473008    179.63137 0.0088575626 0.0072392616         3934 
 1691000   0.58002824   -9.4442638    179.69423 0.0088554225 0.0072318287         3928 
 1692000   0.58181153   -9.4252564    179.79786 0.0088552926 0.0072244095         3911 
 1693000   0.57364221   -9.4506848      179.832 0.0088517423 0.0072169977         3931 
 1694000   0.56920729   -9.4670803    180.01058 0.0088553021 0.0072096009         3937 
 1695000   0.55374286   -9.4676561    179.59154 0.0088294757 0.0072022103         3931 
 1696000   0.57800976   -9.4401105    179.75478 0.0088322906 0.0071948267         3922 
 1697000   0.58574036   -9.4528769    179.87745 0.0088331099 0.0071874549         3927 
 1698000   0.58369697   -9.4417032    179.78273 0.0088232593 0.0071800933         3936 
 1699000   0.59094689   -9.4596001    179.53332 0.0088058329 0.0071727405         3922 
 1700000   0.58450862   -9.4719452    179.68404 0.0088080411  0.007165393         3927 
 1701000   0.57487145   -9.4656067    180.22215 0.0088292253 0.0071580618         3929 
 1702000    0.5707877    -9.464421     179.5205 0.0087896835 0.0071507421         3917 
 1703000   0.56808528   -9.4666346    179.74526 0.0087955208 0.0071434308         3921 
 1704000   0.57632285   -9.4610229    179.76467 0.0087913084 0.0071361295         3937 
 1705000   0.57592098   -9.4571968    179.31784  0.008764313 0.0071288348         3923 
 1706000   0.57627998    -9.460126    179.80733 0.0087830855 0.0071215567         3934 
 1707000   0.58101522   -9.4738375    179.48668 0.0087622866 0.0071142856         3937 
 1708000   0.57362181   -9.4895463    179.47183 0.0087564318 0.0071070245         3918 
 1709000   0.57299948   -9.4606702    179.69863 0.0087623672 0.0070997754         3935 
 1710000   0.55678143   -9.4821112     179.6928  0.008756959 0.0070925324         3933 
 1711000   0.57862151   -9.4654357    179.79164 0.0087566552 0.0070852982         3921 
 1712000   0.57562726   -9.4675038    179.29856 0.0087275387 0.0070780869         3929 
 1713000   0.56878157   -9.4534963    179.58832   0.00873654 0.0070708745         3934 
 1714000   0.57228367   -9.4681819     179.6297 0.0087334547 0.0070636701         3932 
 1715000   0.56721924   -9.4788019    179.48694 0.0087214255 0.0070564794         3922 
 1716000   0.57831384   -9.4432928    179.84787 0.0087338711 0.0070493025         3930 
 1717000   0.56617129    -9.440709    179.68204 0.0087207356  0.007042137         3930 
 1718000   0.56749076   -9.4528601     179.8425 0.0087234428 0.0070349768         3914 
 1719000   0.56276744   -9.4635926    179.56915 0.0087051168 0.0070278255         3929 
 1720000   0.56525826   -9.4849796    179.39156 0.0086914514 0.0070206784         3926 
 1721000   0.58040959   -9.4627972    179.82621 0.0087074476  0.007013546         3919 
 1722000   0.56560375   -9.4595189    179.66543 0.0086946102 0.0070064283         3917 
 1723000   0.55897406    -9.474508    179.44066 0.0086786929 0.0069993095         3921 
 1724000   0.55827212   -9.4812796    179.82332 0.0086921557 0.0069922063         3939 
 1725000   0.57496322   -9.4692665     179.7336 0.0086827828 0.0069851106         3923 
 1726000   0.55361851   -9.4686789    179.80254 0.0086810803 0.0069780251         3938 
 1727000   0.55230221    -9.491938    179.59833 0.0086662001 0.0069709511         3938 
 1728000   0.54919036   -9.4692453    179.55523 0.0086591064 0.0069638817         3934 
 1729000    0.5704174   -9.4756481    179.70269 0.0086612055 0.0069568307         3921 
 1730000   0.57014926   -9.4845952    179.55982 0.0086493169  0.006949786         3930 
 1731000    0.5536238   -9.4709546    179.47347  0.008640163 0.0069427509         3932 
 1732000   0.55001608    -9.489663    179.51345 0.0086370983 0.0069357295         3938 
 1733000   0.55904562   -9.4650805    179.35998 0.0086247346 0.0069287119         3931 
 1734000   0.55942107   -9.4666241    179.43203 0.0086232232  0.006921702         3924 
 1735000   0.56431045   -9.4825221    179.70278 0.0086312577  0.006914709         3934 
 1736000   0.56955297   -9.4823085    179.52981 0.0086179823 0.0069077178         3929 
 1737000   0.56198999   -9.4605118     179.5073 0.0086119411 0.0069007399         3919 
 1738000   0.56307342    -9.468802    179.55105 0.0086090835 0.0068937707         3918 
 1739000   0.55327704   -9.4579639    179.68676 0.0086106365 0.0068868139         3924 
 1740000   0.55680848   -9.4831597    179.52482 0.0085979322 0.0068798627         3909 
 1741000   0.55917896    -9.481022    179.19415 0.0085771659 0.0068729238         3931 
 1742000   0.55873863   -9.4656391    179.72172 0.0085974797 0.0068659918         3933 
 1743000   0.54907423   -9.4657354    179.67848 0.0085904799 0.0068590732         3939 
 1744000   0.55492106   -9.4758088    179.50813 0.0085774143 0.0068521637         3924 
 1745000   0.55242603    -9.477529    179.66697 0.0085800846 0.0068452573         3934 
 1746000   0.56325692   -9.4795968     179.6453 0.0085741363 0.0068383679         3931 
 1747000   0.55736442   -9.4834028    179.39007 0.0085570535 0.0068314791         3909 
 1748000   0.56058154   -9.4820748    179.31556  0.008548606 0.0068246043         3935 
 1749000   0.56498107   -9.4929739    179.21841 0.0085390894 0.0068177442         3930 
 1750000   0.54563986   -9.4923149    179.62991 0.0085538053 0.0068108883         3929 
 1751000   0.54783245   -9.4833117    179.44459 0.0085401003 0.0068040441         3937 
 1752000   0.53775374   -9.4789797    179.52175 0.0085388959 0.0067972092         3939 
 1753000   0.54235879   -9.4833118    179.40581 0.0085285134 0.0067903777         3936 
 1754000   0.56524359   -9.4924639    179.61132 0.0085334151 0.0067835626         3936 
 1755000   0.56081854   -9.4741758    179.84451 0.0085396256 0.0067767539         3916 
 1756000   0.55211819   -9.4725012    179.42071   0.00851465 0.0067699506         3935 
 1757000   0.54145461   -9.4798806    179.65436 0.0085208858 0.0067631566         3933 
 1758000   0.55673416   -9.4768226    179.47602 0.0085075854 0.0067563787         3937 
 1759000   0.55371029    -9.468323    179.30715 0.0084947484 0.0067496074         3931 
 1760000   0.55501127   -9.4861576    179.23071 0.0084863024 0.0067428449         3937 
 1761000   0.54462232   -9.5046918    179.42427 0.0084906432 0.0067360968         3940 
 1762000   0.55675414   -9.4974364    179.35024 0.0084823229 0.0067293526         3930 
 1763000   0.54762054   -9.4839415    179.76418 0.0084970778 0.0067226098         3936 
 1764000    0.5478343   -9.4858777     179.5181  0.008480636 0.0067158849         3921 
 1765000   0.54585826   -9.4992394    179.23453 0.0084624424 0.0067091678         3924 
 1766000   0.55263433   -9.5081923    179.48555 0.0084694956 0.0067024624         3927 
 1767000   0.54890694   -9.5096341    179.56698 0.0084685426 0.0066957642         3918 
 1768000   0.54184185   -9.5077297    179.53101 0.0084620576 0.0066890726         3931 
 1769000   0.55309188   -9.4931515    179.51031 0.0084562989 0.0066823931         3933 
 1770000   0.55184156   -9.4976648    179.33794 0.0084434058 0.0066757194         3944 
 1771000   0.54384669   -9.5074312    179.16655 0.0084305735  0.006669052         3929 
 1772000   0.55516072   -9.4857864    179.37782 0.0084357514 0.0066624001         3942 
 1773000   0.54471299   -9.4952666     179.4329 0.0084335825 0.0066557564         3943 
 1774000   0.54382262   -9.4874137    179.58957 0.0084361881 0.0066491186         3931 
 1775000   0.54120528   -9.5058786     179.1505 0.0084108215 0.0066424889         3936 
 1776000   0.54026393   -9.5007987    179.22883 0.0084097613  0.006635866         3925 
 1777000   0.54532972   -9.4962163    179.40117 0.0084131107 0.0066292542         3927 
 1778000   0.53349517    -9.500694     179.2587 0.0084017013 0.0066226543         3941 
 1779000   0.54295384   -9.4922555    179.05544 0.0083874572 0.0066160592         3926 
 1780000   0.54414417   -9.4979363    179.24146 0.0083914541 0.0066094754         3933 
 1781000   0.53958354    -9.507499    179.28102 0.0083885936 0.0066029002         3932 
 1782000   0.51307407   -9.5138195    179.17477 0.0083789172 0.0065963308         3934 
 1783000   0.54789658    -9.513047    178.96508 0.0083644176 0.0065897732         3942 
 1784000   0.54153027   -9.5106689     179.1951 0.0083704737 0.0065832225         3922 
 1785000    0.5498697   -9.5074684    179.89809 0.0083986034 0.0065766842         3938 
 1786000   0.53840898   -9.4970368    179.37166 0.0083693385 0.0065701531         3911 
 1787000   0.54323543   -9.4980912    179.44857 0.0083682415 0.0065636331         3925 
 1788000   0.53312993   -9.5039335    179.32087 0.0083576093 0.0065571213         3925 
 1789000   0.53688547   -9.5200759    179.56847 0.0083644711 0.0065506241         3931 
 1790000   0.54137469   -9.4886202    179.40913 0.0083523805 0.0065441214         3928 
 1791000   0.53857736   -9.4970387    179.37489 0.0083461236 0.0065376333         3909 
 1792000   0.54455938   -9.5077719    179.27418 0.0083367829 0.0065311535         3917 
 1793000   0.53294203   -9.5213286    179.21882 0.0083295602 0.0065246821         3929 
 1794000   0.53477483   -9.4971478    179.39934 0.0083333025 0.0065182164         3939 
 1795000    0.5488579   -9.5047349    179.09894 0.0083147142 0.0065117634         3919 
 1796000   0.54104084   -9.5131285    179.16453 0.0083131277 0.0065053215         3926 
 1797000   0.54202701   -9.5233643    179.20839 0.0083105354 0.0064988837         3933 
 1798000   0.54764783   -9.5276928     179.2439 0.0083075594 0.0064924605         3923 
 1799000   0.53188089   -9.5261764    179.46332 0.0083131055 0.0064860367         3930 
 1800000   0.54089808   -9.5216779    179.05724 0.0082896872 0.0064796316         3930 
 1801000   0.53916587   -9.5272615    179.15658 0.0082896807 0.0064732311         3923 
 1802000   0.53248338   -9.5216813    179.07516 0.0082813153  0.006466841         3930 
 1803000   0.51469766   -9.5207276    179.21562 0.0082832142 0.0064604571         3926 
 1804000   0.52628802   -9.4987249    179.07284 0.0082720272 0.0064540786         3929 
 1805000   0.53694846    -9.533546    179.12092  0.008269664 0.0064477068         3938 
 1806000   0.52493505   -9.5231361    178.98036 0.0082585989 0.0064413483         3935 
 1807000   0.53479471   -9.5027038    178.98111 0.0082540633 0.0064349995         3923 
 1808000   0.53452617   -9.5020967    178.87758  0.008244726 0.0064286604         3927 
 1809000   0.53277557   -9.5152491    179.12985 0.0082517895 0.0064223289         3935 
 1810000   0.53883856   -9.5191202    179.04805 0.0082434645 0.0064160063         3923 
 1811000   0.52859258   -9.5122538    179.39698 0.0082549686 0.0064096882         3932 
 1812000   0.54411992   -9.5005008     179.2224  0.008242384 0.0064033823         3932 
 1813000   0.54535787     -9.52003    178.97858 0.0082266307 0.0063970885         3943 
 1814000   0.52838677   -9.5167885    178.89118 0.0082180805 0.0063908017         3935 
 1815000   0.53580073   -9.5339621    179.31603 0.0082330594 0.0063845239         3942 
 1816000   0.51308236   -9.4921795    179.34578 0.0082298907 0.0063782464         3934 
 1817000   0.53758527   -9.5209101    179.23061 0.0082200793 0.0063719769         3930 
 1818000   0.54119723    -9.527806    179.14611 0.0082116845 0.0063657198         3935 
 1819000   0.52448554    -9.513898    179.25794 0.0082122934 0.0063594715         3929 
 1820000   0.53057909   -9.5308131    179.26225 0.0082079786 0.0063532327         3938 
 1821000   0.52697593   -9.5351339    179.15832 0.0081987151 0.0063470028         3933 
 1822000   0.51777252   -9.5204118    179.09016 0.0081910977 0.0063407782         3932 
 1823000   0.52213274   -9.5257738    179.33671 0.0081978748 0.0063345613         3931 
 1824000   0.52025912    -9.518311    179.12477 0.0081836974 0.0063283491         3933 
 1825000   0.52503501   -9.5678125    178.89787 0.0081688526 0.0063221439         3935 
 1826000   0.53048833   -9.5193282    179.00333  0.008169192 0.0063159503         3938 
 1827000   0.52019364   -9.5264159    179.02127 0.0081655388 0.0063097668         3925 
 1828000   0.52382456   -9.5311236    178.65986 0.0081445959 0.0063035861         3929 
 1829000   0.51875876   -9.5441453    178.98285  0.008154859 0.0062974229         3929 
 1830000   0.51214415   -9.5455233    179.00799 0.0081515479 0.0062912596         3934 
 1831000   0.51773556   -9.5373269    179.24795  0.008158017 0.0062851086         3928 
 1832000   0.52195223   -9.5367615     178.8953 0.0081375225 0.0062789644         3937 
 1833000   0.51844701   -9.5408909    178.92222 0.0081343071 0.0062728252         3927 
 1834000   0.53787002   -9.5465032    179.38232 0.0081507781 0.0062666992         3922 
 1835000   0.52425878   -9.5353213    178.97061 0.0081276389 0.0062605813         3928 
 1836000   0.51624223   -9.5320126    179.08786 0.0081285339 0.0062544716         3930 
 1837000   0.52927444   -9.5448246    178.82519 0.0081121934 0.0062483678         3950 
 1838000   0.52759199   -9.5474543    178.72206  0.008103104  0.006242271         3928 
 1839000   0.51876626    -9.539152    178.96586 0.0081097452 0.0062361872         3928 
 1840000    0.5206267   -9.5326016    178.89867  0.008102295 0.0062301085         3923 
 1841000   0.52492994   -9.5450473    178.93989 0.0080997596 0.0062240368         3936 
 1842000   0.50827677   -9.5465484    179.11338 0.0081032111  0.006217977         3931 
 1843000   0.52474444   -9.5426678    178.92743 0.0080904064 0.0062119206         3931 
 1844000   0.51416783   -9.5465384    178.90018 0.0080847877 0.0062058726         3931 
 1845000   0.52024835   -9.5414618    178.73321 0.0080728639 0.0061998338         3937 
 1846000   0.51422999   -9.5400605    178.64643 0.0080645735 0.0061938013         3936 
 1847000   0.52034955   -9.5424971    179.08883 0.0080801672 0.0061877749         3922 
 1848000   0.50570183   -9.5580353    178.76917 0.0080613803 0.0061817544         3934 
 1849000   0.51020156    -9.541176    179.08955 0.0080714597 0.0061757483         3929 
 1850000    0.5263663   -9.5343248    178.99306 0.0080627505 0.0061697519         3931 
 1851000   0.50432235   -9.5390775    178.87736 0.0080531858 0.0061637544         3937 
 1852000   0.50475715   -9.5399891    178.72357 0.0080419173 0.0061577692         3937 
 1853000    0.5191444   -9.5536299    179.00668 0.0080503092 0.0061517919         3931 
 1854000   0.50925391   -9.5707456    179.02656 0.0080468607 0.0061458229         3930 
 1855000    0.5090679   -9.5513331    178.96686  0.008039841 0.0061398642         3931 
 1856000   0.50694115   -9.5478228    179.33244 0.0080519234 0.0061339147         3946 
 1857000    0.5166816    -9.546402    179.06693 0.0080356725 0.0061279737         3934 
 1858000   0.51979579   -9.5569234    179.10817 0.0080331972 0.0061220365         3942 
 1859000   0.52667582    -9.561646    179.04439  0.008026017 0.0061161079         3933 
 1860000   0.50201824   -9.5639449     178.8967 0.0080150849 0.0061101856         3928 
 1861000   0.50823858   -9.5478434    179.11726 0.0080206549 0.0061042751         3945 
 1862000   0.51004268   -9.5593085    178.82855 0.0080034261 0.0060983656         3946 
 1863000   0.50985689   -9.5400725    178.91766  0.008003116  0.006092465         3939 
 1864000   0.49941979   -9.5472972    178.92113 0.0079989774 0.0060865685         3937 
 1865000   0.49967436   -9.5584159     178.9804 0.0079973371 0.0060806869         3927 
 1866000   0.50194911   -9.5583251    179.09659 0.0079982401 0.0060748112         3934 
 1867000   0.50927667   -9.5668719    178.82261  0.007981727 0.0060689402         3930 
 1868000   0.50141623   -9.5381879    178.90853 0.0079812869 0.0060630796         3923 
 1869000   0.51040961   -9.5636132    179.07634 0.0079844991 0.0060572239         3935 
 1870000   0.50222856   -9.5481005    178.97491 0.0079757091 0.0060513729         3921 
 1871000   0.50674712   -9.5453327    179.11482 0.0079776777 0.0060455369         3925 
 1872000   0.51911654   -9.5693601    178.94293 0.0079657645 0.0060397104         3934 
 1873000   0.50575293   -9.5443643    178.73628 0.0079523173  0.006033891         3924 
 1874000   0.50282963   -9.5510652    178.90246 0.0079554631 0.0060280775         3938 
 1875000   0.48860805   -9.5646752    178.77706 0.0079456471 0.0060222669         3933 
 1876000   0.50199006   -9.5617787    178.66611 0.0079364832 0.0060164644         3928 
 1877000   0.49109372   -9.5505646     178.7648 0.0079366366 0.0060106708         3926 
 1878000   0.50106846   -9.5631325    178.84244 0.0079358553 0.0060048871         3932 
 1879000    0.5150266   -9.5413864     178.6858 0.0079246851 0.0059991135         3951 
 1880000   0.50093096   -9.5573546    178.62297  0.007917685 0.0059933429         3932 
 1881000   0.48985316   -9.5784975    178.80294 0.0079214487 0.0059875812         3939 
 1882000   0.49625712   -9.5637925    178.98761 0.0079254168 0.0059818284         3932 
 1883000   0.49614921   -9.5781796    178.79294 0.0079125923 0.0059760813         3928 
 1884000   0.49957086   -9.5675762    178.89948 0.0079131051 0.0059703403         3942 
 1885000   0.49490057   -9.5476638    178.76665 0.0079030347 0.0059646087         3933 
 1886000   0.49181885   -9.5784808    178.86851 0.0079033453 0.0059588861         3933 
 1887000   0.50738296    -9.575052    178.79808 0.0078960464 0.0059531704         3934 
 1888000   0.49603571   -9.5717381     178.6965 0.0078873806 0.0059474603         3936 
 1889000   0.49418045   -9.5656941    179.00444 0.0078967902  0.005941756         3928 
 1890000   0.49470603   -9.5725048    178.81482 0.0078842515  0.005936061         3933 
 1891000   0.50633643   -9.5774735    178.61453 0.0078712557 0.0059303691         3937 
 1892000   0.50093679   -9.5631787    178.93831 0.0078813563 0.0059246882         3936 
 1893000   0.49979062   -9.5684639    178.57026 0.0078609906 0.0059190141         3939 
 1894000   0.49436159   -9.5558266    178.67937 0.0078616406 0.0059133503         3940 
 1895000   0.48810298   -9.5714701    178.99846 0.0078715241 0.0059076915         3927 
 1896000   0.49895933   -9.5781688    178.65236 0.0078521607 0.0059020379         3940 
 1897000   0.49579616   -9.5770141    178.79795 0.0078544171 0.0058963923         3936 
 1898000   0.49566752   -9.5668811    178.46473 0.0078356485 0.0058907613         3933 
 1899000   0.50653679   -9.5759909    178.75766 0.0078443768 0.0058851265         3929 
 1900000   0.49172314   -9.5663562    178.49246 0.0078286167 0.0058795047         3927 
 1901000   0.49101919   -9.5702581    178.81274 0.0078385386 0.0058738921         3934 
 1902000    0.4890926   -9.5852424    178.61156 0.0078256027   0.00586828         3942 
 1903000   0.49810597   -9.5814688    178.58026   0.00782012  0.005862674         3932 
 1904000   0.48849553   -9.5901338    178.74462 0.0078232063 0.0058570785         3937 
 1905000    0.4902216   -9.5889594    178.75778 0.0078196756 0.0058514886         3934 
 1906000   0.49135194   -9.5737017     178.4346 0.0078014427 0.0058459035         3927 
 1907000   0.48999113   -9.5844882    178.80939 0.0078137297 0.0058403269         3944 
 1908000   0.49536269    -9.575858     178.5185 0.0077969296 0.0058347558         3917 
 1909000   0.49344293   -9.5774301    178.95423 0.0078118664 0.0058291949         3946 
 1910000   0.49130124    -9.560906    178.70918 0.0077970848 0.0058236438         3937 
 1911000   0.49245465   -9.5695161    178.81556 0.0077976437 0.0058181008         3935 
 1912000   0.48172195   -9.5748312    178.76554  0.007791385 0.0058125631         3940 
 1913000   0.48859409   -9.5920704    178.69782 0.0077843622 0.0058070351         3933 
 1914000   0.48682634   -9.6021788    178.61136  0.007776531 0.0058015094         3939 
 1915000   0.48924825   -9.5822162    178.55993 0.0077702319 0.0057959911         3948 
 1916000    0.4824707   -9.5966178    178.74008 0.0077740119 0.0057904778         3939 
 1917000   0.47551314   -9.5750728    178.87503 0.0077758231 0.0057849744         3926 
 1918000   0.49575097   -9.5707608    178.77401 0.0077673794 0.0057794797         3942 
 1919000   0.48830413   -9.5822269    178.64713 0.0077578221 0.0057739931         3943 
 1920000   0.48975944   -9.5810594    178.64656 0.0077537568 0.0057685102         3935 
 1921000   0.48713981   -9.5888988    178.71089 0.0077525111 0.0057630349         3940 
 1922000   0.49059363   -9.5817685    178.35669 0.0077331205 0.0057575653         3940 
 1923000   0.47810273   -9.5679314    178.48232 0.0077345435 0.0057521029         3944 
 1924000   0.47715259   -9.5801349    178.66972 0.0077386398 0.0057466491         3926 
 1925000    0.4768583   -9.5836991     178.5932 0.0077313075 0.0057412055         3941 
 1926000   0.47489152   -9.5963251    178.67661 0.0077309022 0.0057357644         3943 
 1927000   0.48730986   -9.6011662    178.90434 0.0077367386 0.0057303316         3925 
 1928000   0.48237643   -9.5904708    178.59551 0.0077193771  0.005724903         3933 
 1929000   0.48751697   -9.5864631    178.34668 0.0077046261 0.0057194807         3935 
 1930000   0.48329215   -9.5994944    178.53839 0.0077089113 0.0057140659         3925 
 1931000    0.4694744   -9.5748462    178.72017  0.007712764 0.0057086597         3950 
 1932000   0.48029246   -9.5855136    178.64366  0.007705472 0.0057032608         3933 
 1933000   0.48303072   -9.5957549    178.56332  0.007698022 0.0056978725         3948 
 1934000   0.47275671   -9.5947631    178.55669 0.0076937562 0.0056924935         3945 
 1935000   0.46965869   -9.5909129    178.43051 0.0076843459 0.0056871177         3941 
 1936000   0.48874666   -9.5854985    178.55929   0.00768592 0.0056817493         3938 
 1937000   0.48040693    -9.594093    178.58778 0.0076831776 0.0056763868         3937 
 1938000   0.47374342   -9.5869739    178.52678 0.0076765902 0.0056710273         3945 
 1939000   0.48045936   -9.5958227    178.26192 0.0076612479 0.0056656731         3953 
 1940000    0.4874798   -9.5965168    178.46811 0.0076661558  0.005660327         3939 
 1941000   0.47579432   -9.5985669    178.64294 0.0076697125 0.0056549887         3942 
 1942000   0.48118937   -9.6060872    178.49071 0.0076592306 0.0056496577         3953 
 1943000   0.48263871   -9.5961114    178.52834 0.0076569026 0.0056443338         3941 
 1944000   0.46691732   -9.5854266    178.37757 0.0076465007 0.0056390172         3948 
 1945000   0.48263929   -9.5996926    178.54567 0.0076497717  0.005633706         3944 
 1946000   0.48060872   -9.6069129    178.44398 0.0076414859 0.0056284022         3955 
 1947000    0.4782265   -9.5991581    178.18405  0.007626436  0.005623108         3939 
 1948000    0.4719682   -9.6003185    178.45449 0.0076340901 0.0056178244         3935 
 1949000   0.46626075   -9.5903711    178.50832 0.0076324749 0.0056125418         3937 
 1950000   0.47300632   -9.5980044    178.45974 0.0076264846  0.005607269         3937 
 1951000   0.47112732     -9.60397    178.45553 0.0076223957 0.0056020038         3938 
 1952000    0.4687353    -9.609628    178.45303  0.007618384 0.0055967415         3934 
 1953000   0.47306807   -9.6093849    178.38813 0.0076117142 0.0055914919         3931 
 1954000   0.46465243   -9.6016862    178.65294 0.0076191119 0.0055862428         3929 
 1955000   0.47026633   -9.6044531    178.25429  0.007598222 0.0055810033         3935 
 1956000   0.45636984   -9.6114929    178.38691 0.0075999876 0.0055757666         3941 
 1957000   0.46905662   -9.6094945    178.52304 0.0076019011 0.0055705397         3936 
 1958000   0.46941899   -9.6015233    178.18008 0.0075834219 0.0055653184         3932 
 1959000   0.47010765   -9.6070019    178.35917 0.0075871689 0.0055601068         3931 
 1960000   0.47263324   -9.6192326    178.66027 0.0075961001 0.0055549011         3942 
 1961000   0.46632575   -9.6034061    178.35096 0.0075790822 0.0055497009         3942 
 1962000   0.46862596   -9.6072217    178.31085 0.0075735154 0.0055445062         3934 
 1963000   0.46789469   -9.6077113    178.61973 0.0075827698 0.0055393182         3949 
 1964000   0.47593159    -9.610686    178.40516 0.0075698047 0.0055341352         3937 
 1965000   0.46827694   -9.6059085    178.58419  0.007573545 0.0055289612         3939 
 1966000   0.47598793   -9.5978011    178.34444 0.0075595304 0.0055237957         3942 
 1967000   0.46912179   -9.6178154    178.46521 0.0075608035 0.0055186356         3934 
 1968000   0.46801638    -9.622726    178.25801  0.007548188 0.0055134783         3943 
 1969000    0.4837454   -9.6090996    178.56043 0.0075571538  0.005508333         3936 
 1970000   0.47227002   -9.6101877     178.4546 0.0075488408 0.0055031932         3948 
 1971000   0.46093434   -9.6258222    178.21251 0.0075347755 0.0054980568         3934 
 1972000   0.46628713   -9.6205567    178.37636 0.0075378786 0.0054929279         3934 
 1973000   0.46612703   -9.6144625    178.12595 0.0075234816 0.0054878049         3944 
 1974000   0.46434587   -9.6169165    178.29188  0.007526675 0.0054826879         3941 
 1975000   0.46969985   -9.6236866    178.31375 0.0075237869 0.0054775775         3946 
 1976000   0.46430412   -9.6205558    178.28938 0.0075189518 0.0054724769         3940 
 1977000   0.45352207   -9.6186433     178.2552 0.0075137078 0.0054673793         3947 
 1978000   0.46380036   -9.6133848    178.12358  0.007504364 0.0054622867         3944 
 1979000    0.4570566    -9.613681    178.45466  0.007514513  0.005457203         3938 
 1980000   0.47610742   -9.6061399    178.19427 0.0074997587 0.0054521268         3936 
 1981000   0.47483267   -9.6230498    178.10679 0.0074922931 0.0054470555         3936 
 1982000   0.45988451   -9.6168135    178.53455  0.007506498 0.0054419879         3929 
 1983000   0.46981797   -9.6236552    178.45474 0.0074993589 0.0054369318         3920 
 1984000    0.4694874    -9.623748     178.4985 0.0074974168 0.0054318777         3945 
 1985000   0.46123037   -9.6207602    178.35938 0.0074877993 0.0054268311         3936 
 1986000   0.46064504   -9.6172059     178.1412 0.0074748741 0.0054217923         3934 
 1987000   0.46245926   -9.6302009    178.34984 0.0074798626 0.0054167569         3941 
 1988000   0.46037739   -9.6311446    178.30481 0.0074742122  0.005411731         3924 
 1989000   0.45998495   -9.6213682    178.27575 0.0074692369 0.0054067127         3939 
 1990000   0.47074231    -9.626935    178.17309 0.0074611845 0.0054016997         3938 
 1991000   0.45539379   -9.6210622    178.24922 0.0074606235   0.00539669         3936 
 1992000   0.44740164    -9.623077    178.26547  0.007457558 0.0053916902         3944 
 1993000   0.45518564   -9.6159269    178.41126 0.0074599121 0.0053866932         3925 
 1994000   0.45705618    -9.623594    178.46436   0.00745839 0.0053817031         3935 
 1995000   0.46702647   -9.6272451    178.16276 0.0074420535 0.0053767184         3944 
 1996000   0.46009973   -9.6235231    178.26743 0.0074426949 0.0053717425         3936 
 1997000    0.4587034   -9.6210723    178.47303 0.0074475476 0.0053667704         3932 
 1998000   0.45493059   -9.6345777    178.27074 0.0074353831 0.0053618082         3939 
 1999000   0.45057847   -9.6357744     178.1984 0.0074286477 0.0053568508         3932 
 2000000     0.451413   -9.6286238    178.07079 0.0074196161 0.0053518974         3943 
 2001000   0.45970819   -9.6290905    178.12828 0.0074183025 0.0053469502         3936 
 2002000   0.44005739   -9.6197898    178.27761 0.0074208131 0.0053420129         3942 
 2003000   0.44719679   -9.6316066    178.22299 0.0074148355 0.0053370814         3932 
 2004000   0.44615835     -9.62904    178.28468 0.0074137009 0.0053321524         3937 
 2005000   0.46165149     -9.63771    178.13973  0.007403979 0.0053272322         3936 
 2006000   0.45526025   -9.6193412    178.19854 0.0074027311 0.0053223161         3937 
 2007000   0.45009469   -9.6316291    178.09909  0.007394913 0.0053174075         3939 
 2008000   0.45933965   -9.6293492    178.34671  0.007401507 0.0053125044         3933 
 2009000   0.46129533   -9.6256888     178.2417 0.0073934671 0.0053076071         3936 
 2010000   0.44131102   -9.6426465    178.31895 0.0073929913 0.0053027146         3933 
 2011000   0.45678472   -9.6217236    178.22619 0.0073854714 0.0052978285         3939 
 2012000   0.45421447   -9.6484028    178.18903 0.0073802614   0.00529295         3945 
Loop time of 5205.11 on 48 procs for 2000000 steps with 4000 atoms

Performance: 66396.237 tau/day, 384.237 timesteps/s
99.4% CPU use with 48 MPI tasks x no OpenMP threads

MPI task timing breakdown:
Section |  min time  |  avg time  |  max time  |%varavg| %total
---------------------------------------------------------------
Pair    | 371.11     | 397.59     | 439.52     |  79.1 |  7.64
Neigh   | 37.468     | 38.656     | 40.268     |  11.2 |  0.74
Comm    | 321.81     | 368.84     | 402.17     |  87.0 |  7.09
Output  | 5.8917     | 5.894      | 5.9432     |   0.3 |  0.11
Modify  | 4322.8     | 4343.1     | 4359.5     |  13.3 | 83.44
Other   |            | 50.98      |            |       |  0.98

Nlocal:        83.3333 ave          90 max          76 min
Histogram: 3 0 3 7 8 10 4 9 2 2
Nghost:        2436.06 ave        2455 max        2416 min
Histogram: 1 3 6 8 5 9 3 7 3 3
Neighs:        16818.5 ave       19704 max       14568 min
Histogram: 4 4 7 3 12 6 4 4 3 1
FullNghs:      33638.4 ave       36604 max       30270 min
Histogram: 2 1 4 4 13 6 6 7 2 3

Total # of neighbors = 1614641
Ave neighs/atom = 403.66025
Neighbor list builds = 106409
Dangerous builds = 0

#clear
#
#next RN
#
#jump SELF
Total wall time: 1:26:48
