
units lj                  # Use reduced LJ style units
atom_style atomic         # Uncharged point particles
atom_modify map hash      # Needed for indexing of clusters etc
                          # Used to be able to find where atoms are in relation to each other.

lattice fcc 1.0 spacing 1 1 1
Lattice spacing in x,y,z = 1.5874011 1.5874011 1.5874011
region box block 0 10 0 10 0 10 units lattice
create_box 2 box
Created orthogonal box = (0.0000000 0.0000000 0.0000000) to (15.874011 15.874011 15.874011)
  3 by 4 by 4 MPI processor grid
create_atoms 1 box
Created 4000 atoms
  using lattice units in orthogonal box = (0.0000000 0.0000000 0.0000000) to (15.874011 15.874011 15.874011)
  create_atoms CPU = 0.002 seconds
set type 1 type/fraction 2 0.93 78393
Setting atom values ...
  3709 settings made for type/fraction
mass 1 1.0
mass 2 1.0
pair_style lj/cut  3.5
pair_modify tail  yes
pair_coeff 1  1  1.0  1.0   # Intearaction between 1 and 1 set with epsilon = 1 and sigma = 1
pair_coeff 1  2  1.5  0.8
pair_coeff 2  2  0.5  0.88

write_data data.0
System init for write_data ...
Neighbor list info ...
  update every 1 steps, delay 10 steps, check yes
  max neighbors/atom: 2000, page size: 100000
  master list distance cutoff = 3.8
  ghost atom cutoff = 3.8
  binsize = 1.9, bins = 9 9 9
  1 neighbor lists, perpetual/occasional/extra = 1 0 0
  (1) pair lj/cut, perpetual
      attributes: half, newton on
      pair build: half/bin/atomonly/newton
      stencil: half/bin/3d
      bin: standard
WARNING: Not all mixed pair coeffs generated from mixing. Use write_data with 'pair ij' option to store all pair coeffs. (../write_data.cpp:312)


#############################
#   M E L T   S Y S T E M   #
#############################

velocity all create 2.4 9580093 mom yes dist gaussian # Assign velocities
                                                    # Temperature 2.4, random number seed, zero linear momentum
                                                                                # Gaussian distribution

timestep 0.002   # simulation timestep
thermo 1000       # output thermodynamic data every 1000 steps bf 100

# Define a fix  in this case with index 1 applied to all
# particles in the simulation. This fix is for simulations
# in the anisotropic NPT ensemble. Note that we use the MTK
# correction.
fix 1 all npt temp 2.4 2.4 0.1 iso 5.68 5.68 0.5 mtk yes tchain 5 pchain 5 # Use NPT ensemble
                                                                         # Set temperature and pressure and damping
                                                                         # Numbers of thermostats in chain and in barostat
run 10000          # run for 10000 steps
Per MPI rank memory allocation (min/avg/max) = 3.642 | 3.644 | 3.648 Mbytes
Step Temp E_pair E_mol TotEng Press Volume 
       0          2.4   -3.0493222            0   0.54977785   -2.3496824         4000 
    1000    2.3509444   -2.0038437            0    1.5216913    5.4560097     4103.075 
    2000    2.4121102   -1.9890338            0     1.628227    5.6203295    4096.5112 
    3000    2.4227059   -1.9947548            0    1.6383955     5.761138    4052.9071 
    4000     2.402518   -1.9758066            0    1.6270695    5.7810345     4082.447 
    5000    2.3973532   -1.9807667            0    1.6143641     5.780573    4074.1515 
    6000    2.3906048   -2.0395064            0    1.5455044    5.3837465    4093.3974 
    7000    2.4171468   -1.9460856            0    1.6787282    5.8860095    4095.1554 
    8000    2.4200143   -1.9565572            0    1.6725567    5.8689201    4083.6467 
    9000    2.4045342   -2.0137558            0    1.5921438    5.8326726     4045.312 
   10000    2.4229509    -2.002827            0    1.6306907    5.7839356    4052.9127 
Loop time of 2.46178 on 48 procs for 10000 steps with 4000 atoms

Performance: 701931.543 tau/day, 4062.104 timesteps/s
99.7% CPU use with 48 MPI tasks x no OpenMP threads

MPI task timing breakdown:
Section |  min time  |  avg time  |  max time  |%varavg| %total
---------------------------------------------------------------
Pair    | 1.0759     | 1.1497     | 1.2928     |   3.3 | 46.70
Neigh   | 0.20758    | 0.2152     | 0.2437     |   1.4 |  8.74
Comm    | 0.66536    | 0.83929    | 0.90718    |   4.5 | 34.09
Output  | 0.00024883 | 0.00025399 | 0.00032528 |   0.0 |  0.01
Modify  | 0.21114    | 0.24204    | 0.27435    |   3.7 |  9.83
Other   |            | 0.01533    |            |       |  0.62

Nlocal:        83.3333 ave          91 max          73 min
Histogram: 3 1 1 6 5 10 4 9 5 4
Nghost:        1623.12 ave        1647 max        1604 min
Histogram: 3 3 5 15 4 5 6 4 1 2
Neighs:        9413.00 ave       10842 max        7877 min
Histogram: 3 1 3 6 10 8 6 6 4 1

Total # of neighbors = 451824
Ave neighs/atom = 112.95600
Neighbor list builds = 905
Dangerous builds = 219

# Equilibrate just above the melting temperature to avoid step fn in T

fix 1 all npt temp 1.25 1.25 0.1 iso 5.68 5.68 0.5 mtk yes tchain 5 pchain 5
run 2000
Per MPI rank memory allocation (min/avg/max) = 3.643 | 3.645 | 3.649 Mbytes
Step Temp E_pair E_mol TotEng Press Volume 
   10000    2.4229509    -2.002827            0    1.6306907    5.7839356    4052.9127 
   11000    1.2677548   -3.0016511            0   -1.1004944    5.7127017    3170.3355 
   12000    1.2523017   -3.0402912            0   -1.1623083    5.5598431    3157.9388 
Loop time of 0.609083 on 48 procs for 2000 steps with 4000 atoms

Performance: 567410.488 tau/day, 3283.626 timesteps/s
99.7% CPU use with 48 MPI tasks x no OpenMP threads

MPI task timing breakdown:
Section |  min time  |  avg time  |  max time  |%varavg| %total
---------------------------------------------------------------
Pair    | 0.27155    | 0.29248    | 0.33337    |   2.0 | 48.02
Neigh   | 0.040291   | 0.042311   | 0.049194   |   0.6 |  6.95
Comm    | 0.17803    | 0.2249     | 0.25209    |   2.6 | 36.92
Output  | 5.1271e-05 | 5.3105e-05 | 7.0949e-05 |   0.0 |  0.01
Modify  | 0.039427   | 0.044562   | 0.048766   |   1.3 |  7.32
Other   |            | 0.004773   |            |       |  0.78

Nlocal:        83.3333 ave          93 max          74 min
Histogram: 1 3 10 1 5 15 6 3 3 1
Nghost:        1920.19 ave        1964 max        1887 min
Histogram: 2 5 6 5 14 8 3 4 0 1
Neighs:        12099.4 ave       13858 max       10794 min
Histogram: 6 5 4 5 7 8 7 4 1 1

Total # of neighbors = 580772
Ave neighs/atom = 145.19300
Neighbor list builds = 145
Dangerous builds = 8

#############################
# L I N E A R  Q U E N C H  #
#############################

# Define solid atoms. This closely follows ten Wolde  Ruiz-Montero and Frenkel  Faraday Discuss  1996  104  93-110
# Compute components of the per-atom q6 vector
compute q6 all orientorder/atom degrees 1 6 components 6 nnn NULL cutoff 1.3 # compute the Q6 parameter.
                                                                             # Use all neighbours within 1.3 unit cell.

# get number of connections
compute coord_number all coord/atom orientorder q6 0.5

# An atom is solid if it has 8 or more connections (of a possible 14)
variable is_solid atom c_coord_number>=8
group solid dynamic all var is_solid    # Must be dynamic to update
dynamic group solid defined

# do clustering
compute cluster solid cluster/atom 1.3 # Create a cluster where all atoms within are solid and max 1.3 units from another member

# define chunks one chunk per cluster
compute clus_chunks solid chunk/atom c_cluster nchunk every compress yes  # Says which atoms are in which chunk

# count the size of each chunk
compute size_chunks solid property/chunk clus_chunks count


# Find the maximum entry in the vector of chunk sizes
variable max_n equal max(c_size_chunks)


# Thermo style which includes this variable
# thermo_style custom step temp pe vol v_max_n

thermo ${N}  # Print the thermo information every 100 steps
thermo 1000  

# Reset the npt fix at a lower temperature (below freezing)
fix 1  all npt temp  ${temp} ${temp}  0.1  iso  5.68  5.68  0.5  mtk yes tchain  5  pchain  5
fix 1  all npt temp  0.45 ${temp}  0.1  iso  5.68  5.68  0.5  mtk yes tchain  5  pchain  5
fix 1  all npt temp  0.45 0.45  0.1  iso  5.68  5.68  0.5  mtk yes tchain  5  pchain  5

dump dmp2 all dcd ${N} traj.dcd
dump dmp2 all dcd 1000 traj.dcd


compute msd all msd com yes
variable twopoint equal c_msd[4]/6/(step*dt+1.0e-6)
fix 9 all vector 10 c_msd[4]
variable fit equal slope(f_9)/6/(10*dt)
thermo_style custom step temp pe c_msd[4] v_twopoint v_fit v_max_n

fix 1 all npt temp 1.25 ${temp} 0.1 iso 5.68 5.68 0.5 mtk yes tchain 5 pchain 5
fix 1 all npt temp 1.25 0.45 0.1 iso 5.68 5.68 0.5 mtk yes tchain 5 pchain 5
run 2000000 # 5000000  # Run for this many steps
Neighbor list info ...
  update every 1 steps, delay 10 steps, check yes
  max neighbors/atom: 2000, page size: 100000
  master list distance cutoff = 3.8
  ghost atom cutoff = 3.8
  binsize = 1.9, bins = 8 8 8
  4 neighbor lists, perpetual/occasional/extra = 1 3 0
  (1) pair lj/cut, perpetual
      attributes: half, newton on
      pair build: half/bin/atomonly/newton
      stencil: half/bin/3d
      bin: standard
  (2) compute orientorder/atom, occasional
      attributes: full, newton on
      pair build: full/bin/atomonly
      stencil: full/bin/3d
      bin: standard
  (3) compute coord/atom, occasional
      attributes: full, newton on
      pair build: full/bin/atomonly
      stencil: full/bin/3d
      bin: standard
  (4) compute cluster/atom, occasional
      attributes: full, newton on
      pair build: full/bin/atomonly
      stencil: full/bin/3d
      bin: standard
Per MPI rank memory allocation (min/avg/max) = 9.817 | 9.824 | 9.831 Mbytes
Step Temp PotEng c_msd[4] v_twopoint v_fit v_max_n 
   12000    1.2523017   -3.0402912            0            0 8.3333333e+20            1 
   13000    1.2742307   -3.0299499    1.0586309 0.0067860951  0.089482207            3 
   14000    1.2401453   -2.9781557    2.2438201  0.013356072  0.094428596            2 
   15000    1.2556734   -3.0325461    3.3585911  0.018658839   0.09547485            1 
   16000    1.2414921   -3.0056099    4.5081498  0.023479946  0.095542009            2 
   17000    1.2607685   -3.0130937    5.5714993   0.02731127  0.094489965            2 
   18000    1.2747782   -3.0264152    6.7341164  0.031176464   0.09423295            3 
   19000    1.2530658   -3.0153416    7.7696289  0.034077319  0.093823261            2 
   20000    1.2547582   -3.0590108    8.8635792  0.036931579  0.093390304            1 
   21000    1.2429748    -3.024119     9.972836  0.039574745  0.093034926            2 
   22000    1.2478254   -3.0199217    11.151378  0.042240068  0.092950995            2 
   23000     1.245298    -3.023128    12.267933  0.044449032  0.092994357            1 
   24000     1.228397   -3.0342325     13.63802  0.047354237  0.093394053            1 
   25000    1.2480347   -3.0123405    14.799109  0.049330361  0.093936174            1 
   26000    1.2539679   -3.0383212    16.084538  0.051553007  0.094503337            1 
   27000    1.2489914   -2.9926731     17.20604  0.053105059  0.095039735            1 
   28000    1.2155011   -3.0303563    18.361527  0.054647402  0.095360025            1 
   29000    1.2631546   -3.0119536     19.43525   0.05584842  0.095551596            4 
   30000    1.2520866   -3.0158692    20.658667  0.057385186  0.095701855            2 
   31000    1.2290015   -3.0384302    21.611218   0.05809467   0.09583099            2 
   32000    1.2489253   -2.9791756    23.084146  0.060114962  0.095945658            2 
   33000    1.2107976   -3.0035122    24.184245  0.061071326  0.096069642            1 
   34000    1.2396346   -3.0395495    25.306302  0.062025248  0.096106376            3 
   35000     1.237465   -2.9902539      26.5753  0.063274523  0.096150724            2 
   36000    1.2444636   -3.0261295    27.658008  0.064023165  0.096233862            2 
   37000    1.2399971   -3.0259253    28.885375  0.065057151  0.096412811            3 
   38000    1.2694125   -3.0414543    29.853793  0.065468843  0.096468914            1 
   39000    1.2441629   -3.0261062    30.799916  0.065811785  0.096365147            1 
   40000    1.2485579   -3.0074968    31.616107  0.065866889  0.096205772            2 
   41000     1.253336   -3.0403782    32.947616  0.066966698  0.096020378            1 
   42000    1.2265871   -3.0585014    33.835002   0.06713294  0.095818383            2 
   43000    1.2369149   -3.0105025    34.992458   0.06781484  0.095559124            7 
   44000    1.2198233   -3.0340996    35.748654  0.067705784  0.095262384            2 
   45000    1.2095435    -3.036009    36.947168  0.068420681  0.094998136            1 
   46000    1.2538518   -2.9947008    37.953702  0.068756705  0.094677283            2 
   47000    1.2534264   -3.0251279    38.950918   0.06906191  0.094372769            1 
   48000    1.2461095   -3.0312586    40.332904  0.070022402  0.094094635            3 
   49000     1.235928    -2.995841    41.304324  0.070245449  0.093919039            3 
   50000    1.2383858   -3.0319211    42.323759  0.070539598  0.093740439            1 
   51000    1.2326575   -3.0098434    43.631368  0.071293084  0.093609387            2 
   52000     1.253872   -3.0210666    44.927637  0.071999418  0.093535838            2 
   53000    1.2265143   -2.9826066    45.993249  0.072316428  0.093478096            2 
   54000    1.2068547   -3.0525234    46.814929   0.07224526  0.093388659            3 
   55000    1.2185791   -3.0193542    47.962594  0.072670597   0.09328784            1 
   56000    1.2473966   -3.0370903     49.24971  0.073288259   0.09321616            2 
   57000    1.2311933   -3.0292758     50.32883   0.07358016  0.093170238            2 
   58000    1.2285723   -2.9895748    51.736582  0.074334169  0.093146146            2 
   59000    1.2552313   -3.0298358    52.848815  0.074645218  0.093143113            1 
   60000    1.2248924   -3.0391719    54.206269  0.075286484  0.093200221            1 
   61000    1.2099294   -3.0176255     55.37363  0.075647035  0.093251282            3 
   62000    1.2246846   -3.0324997    56.176418  0.075505937  0.093283839            1 
   63000    1.2287608   -3.0182248    57.268853  0.075752451  0.093256833            1 
   64000    1.2370357   -3.0438852     57.83918  0.075311432  0.093193206            5 
   65000    1.2290175   -3.0153622    59.396321  0.076149129  0.093125914            2 
   66000     1.221877   -3.0172319    60.101081  0.075885203  0.093066732            1 
   67000    1.2193881   -3.0258311    61.311554  0.076258151  0.092989877            2 
   68000     1.206783   -3.0426614    62.427728  0.076504569  0.092948939            2 
   69000    1.2303827    -3.045798     63.24642  0.076384564  0.092913754            2 
   70000    1.1919401    -3.037441    64.413323  0.076682527  0.092872376            3 
   71000    1.2374934   -3.0728062    66.092871  0.077573792  0.092843017            1 
   72000    1.2358705   -3.0030257    66.924166  0.077458525    0.0928323            2 
   73000    1.2338019   -3.0033771    68.187283  0.077839363  0.092787428            1 
   74000    1.2255332   -3.0298254    69.381771  0.078132624  0.092748907            2 
   75000    1.2409922   -3.0462188    70.218948  0.078021052  0.092724442            1 
   76000     1.227979    -3.051849    71.185287  0.078054042  0.092657769            1 
   77000    1.2118217   -3.0250909    72.135021  0.078068204  0.092598403            3 
   78000     1.210384   -3.0547549    73.096514  0.078094566  0.092538198            1 
   79000    1.2625666   -3.0431314    74.513039  0.078600252  0.092468741            1 
   80000    1.2391492   -3.0314132    75.501316  0.078647204  0.092445635            1 
   81000    1.2008186      -3.0529     77.11374  0.079335123  0.092452123            6 
   82000     1.214333   -3.0304545    78.125885  0.079396224  0.092465462            1 
   83000    1.2456862    -3.048906    78.977244  0.079294421  0.092466428            2 
   84000    1.2269036   -3.0470472    80.204247  0.079567704  0.092451172            2 
   85000    1.2097697   -3.0857335    80.748746  0.079165437  0.092431756            3 
   86000     1.219335   -3.0583682      81.3179  0.078796414  0.092378446            2 
   87000    1.2346028   -3.0766761    82.307953  0.078839035   0.09229023            3 
   88000    1.2183302   -3.0704042      83.5352  0.079105302  0.092212914            1 
   89000    1.2386178   -3.0413496    84.980887  0.079570118  0.092146214            1 
   90000     1.225452   -3.0506816    85.772981  0.079419427   0.09209151            1 
   91000    1.2047818   -3.0481675    87.458362  0.080090075   0.09204865            3 
   92000    1.2163837   -3.0367463    88.304394  0.079985864  0.092008444            1 
   93000    1.2033434   -3.0385246    89.575345  0.080264646  0.091949288            2 
   94000    1.2126095   -3.0352568    90.465222  0.080199664   0.09191304            4 
   95000    1.2081929    -3.021318    91.832927  0.080555199  0.091874886            2 
   96000    1.2029284   -3.0620918     93.15831  0.080866589    0.0918531            2 
   97000    1.2084321   -3.0445234    93.918561  0.080686049  0.091833036            2 
   98000     1.209711   -3.0267705    95.382804  0.081107826  0.091830627            1 
   99000     1.221266   -3.0286636    96.430014  0.081170045  0.091829087            1 
  100000    1.2095878    -3.021911    97.873847  0.081561538  0.091839163            4 
  101000    1.1775058   -3.0398332    99.115411  0.081778392  0.091859801            2 
  102000    1.1877694   -3.0684721    99.756603  0.081500492  0.091857858            2 
  103000    1.2356364   -3.0912421    100.59097  0.081384282  0.091841921            5 
  104000    1.2278414   -3.0667843    101.62295  0.081428649   0.09182852            1 
  105000    1.1940492    -3.035426    102.85724  0.081632728  0.091825958            2 
  106000    1.1953701   -3.0407738    103.92916  0.081705312  0.091814179            1 
  107000    1.1744364   -3.0341365    105.77078  0.082375995  0.091815211            1 
  108000    1.2151372   -3.0791326    106.14891  0.081905023  0.091814414            2 
  109000    1.2027571   -3.0665844    107.26209  0.082004654  0.091813992            2 
  110000     1.218147   -3.0754309    109.21884  0.082741545  0.091832687            3 
  111000    1.2026629   -3.0452731    109.63602  0.082309327  0.091836336            1 
  112000    1.1986515   -3.0598411    111.31525   0.08282385  0.091859801            1 
  113000    1.2052607   -3.0199702    112.58002  0.083023613  0.091880054            1 
  114000    1.2089426    -3.062576    112.96407  0.082576073  0.091901132            3 
  115000    1.2183084   -3.0426633    114.88635  0.083250978  0.091915622            1 
  116000    1.1985965   -3.0411165    115.70802   0.08312358  0.091939648            3 
  117000    1.1901876   -3.0417836     117.3714  0.083597865  0.091966818            1 
  118000    1.1993491   -3.0561904    118.01409  0.083343285  0.091998389            1 
  119000    1.1887084   -3.0234543    118.86762  0.083240629  0.092023009            1 
  120000    1.2252798   -3.0401503     119.3246  0.082864305  0.092029791            1 
  121000    1.1924519   -3.0534313    120.57556  0.083041021  0.092022794            1 
  122000     1.231611   -3.0408623    122.36961  0.083585799  0.092011216            4 
  123000    1.2285715   -3.0656741    122.59772  0.083060784  0.091997993            1 
  124000    1.2039497   -3.0231564     123.9033  0.083268346  0.091975406            2 
  125000    1.2138129   -3.0630198    124.31915  0.082879435  0.091958107            4 
  126000    1.2142183   -3.0557053    125.49496  0.082999313  0.091926961            1 
  127000    1.2285458   -3.0777163    127.04567  0.083363301  0.091890799            1 
  128000    1.1982967   -3.0812083    127.45088  0.082975834  0.091864148            2 
  129000    1.2093917   -3.0945867    128.34273  0.082908741  0.091835732            2 
  130000    1.1946496   -3.0870977    130.11285   0.08340567  0.091822435            1 
  131000    1.1824429   -3.0735851    131.64029  0.083740644  0.091813652            3 
  132000    1.2090201   -3.0779884    132.25164  0.083492196  0.091804049            3 
  133000    1.2090505    -3.045738    133.98778  0.083952245  0.091790725            2 
  134000    1.2155896   -3.0809964    134.30938  0.083525735  0.091782313            3 
  135000    1.2042082   -3.0458981    135.75684  0.083800518  0.091770677            2 
  136000    1.1947365    -3.059217    136.40833  0.083583537  0.091750894            1 
  137000    1.1882321   -3.0778605    138.43318  0.084205095  0.091744838            1 
  138000    1.1831093   -3.0434708    139.11714  0.084007934   0.09173267            4 
  139000    1.2102715   -3.0465653    140.01739  0.083943282  0.091718411            2 
  140000    1.1817056   -3.0470735      141.295  0.084104169  0.091702606            2 
  141000    1.2013762    -3.061348    142.18653  0.084034592  0.091685583            3 
  142000    1.1890703   -3.0425807    143.39277  0.084150689   0.09167608            3 
  143000    1.2023981   -3.0668386    143.72916  0.083758252  0.091661709            1 
  144000    1.2079763   -3.0752865    145.29173   0.08408086  0.091642045            1 
  145000     1.189727   -3.0843205    145.30999  0.083511487  0.091624214            1 
  146000    1.2031616   -3.0959388    147.86305  0.084396716  0.091607168            1 
  147000    1.2071347   -3.0509877    149.05233  0.084496786  0.091598211            2 
  148000    1.2056882   -3.0880618    148.89057   0.08383478  0.091582244            1 
  149000    1.1666811   -3.0813052    150.21988  0.084015594  0.091552829            2 
  150000    1.1791643   -3.0732476    150.84767  0.083804259   0.09152989            2 
  151000    1.2237085   -3.0886711    152.19106  0.083990652  0.091500911            2 
  152000    1.2078167   -3.0836709    152.73561  0.083736628   0.09147159            3 
  153000       1.2117   -3.0918191    154.10612  0.083935793  0.091450001            2 
  154000    1.2204974   -3.0892528    156.23466  0.084542565  0.091444763            3 
  155000    1.2002959   -3.0836812     157.5199  0.084688116  0.091436224            1 
  156000    1.1847127   -3.0861699    157.97615  0.084388969  0.091426519            3 
  157000    1.1817938   -3.1063774    159.36719  0.084589803  0.091417961            2 
  158000     1.192341   -3.0906833    159.95779  0.084365921  0.091414657            1 
  159000    1.1840946   -3.0480405    162.94111  0.085398905  0.091414809            1 
  160000    1.2062448   -3.0697219    163.37102   0.08508907  0.091410798            2 
  161000    1.2019765   -3.0671347    164.13687  0.084956971  0.091411917            1 
  162000    1.1977514   -3.0817777    165.44571  0.085105819  0.091410158            1 
  163000    1.1619533   -3.0659528    166.18125  0.084959738  0.091399952            3 
  164000    1.1909426   -3.0532358    168.13281  0.085433336  0.091395563            2 
  165000    1.1922848   -3.0762083    169.57796  0.085645433  0.091398876            2 
  166000    1.1954617   -3.0694075    170.39971  0.085542024  0.091397589            1 
  167000    1.1832761   -3.0330284    170.75091  0.085205042  0.091388972            1 
  168000    1.1866312   -3.0843576    170.85179  0.084747913  0.091373878            1 
  169000    1.1899466   -3.0898843    171.15846  0.084397663  0.091349981            1 
  170000    1.1794924   -3.0509472    172.67915  0.084646644  0.091321254            1 
  171000    1.1843381   -3.0856171    174.11744  0.084852555  0.091290899            1 
  172000     1.190804   -3.0949221    174.02546  0.084314663  0.091266413            2 
  173000    1.1952944   -3.0784352    175.27226  0.084427873  0.091233142            2 
  174000    1.1986582   -3.0589124    176.12466  0.084350892  0.091203952            2 
  175000    1.1934043   -3.1177571    177.24992  0.084404723  0.091172245            1 
  176000    1.1807264   -3.0906184    177.76613   0.08416957  0.091131938            2 
  177000    1.1896059   -3.0445646    180.08034  0.084783588  0.091086756            1 
  178000    1.1783169   -3.0804008    180.55323  0.084528666  0.091047553            2 
  179000    1.1793804   -3.0984865    181.83811  0.084654614  0.091004493            2 
  180000    1.1648583   -3.0833786    182.03012  0.084273204  0.090960919            3 
  181000    1.1952784   -3.0874625    182.83493  0.084178143  0.090917512            1 
  182000    1.1867152   -3.0926266    183.66228  0.084094448   0.09087672            1 
  183000    1.1590742   -3.0915523    185.96402  0.084683071   0.09083674            2 
  184000     1.163732   -3.1085995    185.84149  0.084167343  0.090790234            1 
  185000    1.1795335   -3.0603126    186.64024  0.084072182  0.090741163            2 
  186000    1.1988251   -3.1320679    188.32091  0.084373166  0.090695872            3 
  187000    1.1944236   -3.0971933    188.91936  0.084188664  0.090650088            2 
  188000    1.2072319   -3.0844678    189.78866  0.084126177  0.090601193            2 
  189000    1.1702676   -3.1112813    190.73805  0.084099668  0.090553822            2 
  190000    1.1661901   -3.0932315    190.98752  0.083766457   0.09050096            1 
  191000    1.1949815    -3.105135    192.61772  0.084039147  0.090447247            2 
  192000    1.1956763   -3.0890088    193.57944  0.084018852  0.090393044            2 
  193000    1.1778235   -3.0974257     194.4742  0.083969862  0.090337765            2 
  194000    1.1739795   -3.1126622    194.96229  0.083746689  0.090283986            1 
  195000    1.1763747   -3.1044959    195.44499  0.083523502  0.090227156            2 
  196000    1.1599468   -3.0807895    196.23488  0.083433198   0.09016688            3 
  197000     1.172304   -3.1172561    196.88165  0.083283269  0.090103058            2 
  198000    1.1672714   -3.1205486     197.3617  0.083064688  0.090036722            1 
  199000    1.1478705   -3.1404104    198.20314  0.082999639  0.089970412            2 
  200000    1.1765108   -3.1136121    200.18545  0.083410604  0.089906464            2 
  201000    1.1691314   -3.0886192     202.4509  0.083934866  0.089847009            1 
  202000    1.1781888   -3.1130767    202.04387   0.08335143  0.089786918            1 
  203000    1.1684882   -3.1253334    203.12274  0.083383717  0.089723691            1 
  204000    1.1744749   -3.0923068    203.87794  0.083283474  0.089665712            5 
  205000    1.1732476   -3.0709752    205.08507  0.083367915  0.089607227            1 
  206000    1.1610547   -3.1205633    206.47237  0.083524422   0.08954926            1 
  207000    1.1737282   -3.1076548    207.13994   0.08338967  0.089494144            1 
  208000    1.1690245   -3.0951024    209.08778  0.083769142  0.089438919            1 
  209000    1.1922402   -3.1454784    209.56548  0.083558802  0.089383927            4 
  210000    1.1683111   -3.1086262    210.63431  0.083585042  0.089331262            2 
  211000    1.1750242   -3.1069018     212.2978  0.083845892  0.089284769            4 
  212000    1.1676489   -3.1189087    212.32236  0.083460048  0.089238158            2 
  213000    1.1682118   -3.0894259      213.241  0.083427621  0.089192887            1 
  214000     1.180335   -3.1059067    214.25592  0.083432992  0.089140008            1 
  215000     1.150823   -3.1334951    215.94179  0.083698366  0.089088307            2 
  216000    1.1524462   -3.0804482    216.78777  0.083637256  0.089040909            1 
  217000    1.1733974   -3.1239912    216.94982  0.083314061  0.088993796            2 
  218000    1.1531011   -3.1252893    218.38518  0.083480575  0.088944596            2 
  219000    1.1645152   -3.0926824    220.40016  0.083866119  0.088898593            2 
  220000    1.1632926   -3.1143501    221.76295  0.084001119  0.088850315            2 
  221000    1.1848287   -3.1129341    222.23471  0.083798911  0.088811157            2 
  222000    1.1552957   -3.1125497     223.3746  0.083849322  0.088774961            1 
  223000    1.1645997   -3.1540439    224.48968  0.083890015  0.088736974            1 
  224000    1.1473214   -3.0876701    226.55867  0.084285219  0.088709519            2 
  225000    1.1624067   -3.0896783    226.67322  0.083953045  0.088680031            2 
  226000    1.1823255   -3.1235513    227.32966  0.083823622  0.088651768            2 
  227000    1.1565342   -3.0966809    228.95126  0.084049655  0.088621842            5 
  228000    1.1589221   -3.0965117    229.10005    0.0837354  0.088593531            3 
  229000    1.1756499   -3.0995229    230.99604  0.084059692   0.08856406            3 
  230000    1.1533252   -3.1148031     232.7975  0.084346919  0.088535865            3 
  231000    1.1491878   -3.1110518    233.42897  0.084209585   0.08850989            2 
  232000     1.148636   -3.0876053    234.38305  0.084189314  0.088487789            1 
  233000    1.1576799   -3.1080947    235.49576  0.084225953   0.08846255            2 
  234000    1.1609473   -3.1037272    237.03341  0.084413606   0.08844125            2 
  235000    1.1517506   -3.1500774    237.37005  0.084173778  0.088418287            1 
  236000    1.1800493   -3.1392487    237.21727  0.083763159   0.08839269            1 
  237000    1.1830639    -3.110441    239.36374  0.084164465  0.088369743            3 
  238000    1.1604102   -3.1376646     238.7966  0.083612254  0.088338403            1 
  239000    1.1815959   -3.1444605    240.08156  0.083710445  0.088311142            3 
  240000    1.1415936   -3.1149942    242.26526  0.084119882  0.088283837            4 
  241000    1.1662397   -3.1423234    242.87175  0.083980549  0.088254275            1 
  242000    1.1620389   -3.1078655    243.60622  0.083886438  0.088223971            1 
  243000    1.1758576   -3.1128655    244.48711  0.083843315  0.088196783            3 
  244000    1.1803619   -3.0955102    245.16226  0.083730281    0.0881686            2 
  245000    1.1439058   -3.1071213    248.10419   0.08438918  0.088143243            1 
  246000     1.144701   -3.1325174    247.45179  0.083825133  0.088117401            3 
  247000    1.1500734   -3.1293197     248.4765  0.083831479  0.088084543            2 
  248000    1.1449984   -3.1208129    248.98809  0.083665352  0.088053219            1 
  249000    1.1628482   -3.1285748    250.69775  0.083901521  0.088018038            2 
  250000    1.1483641   -3.1042791     252.6538  0.084217934  0.087989572            1 
  251000    1.1487666   -3.1488366    252.73012  0.083907741  0.087965191            1 
  252000    1.1216635   -3.1302015    254.98818  0.084321488  0.087938832            4 
  253000    1.1443291   -3.1033744    254.56461  0.083848685  0.087910017            1 
  254000    1.1672668   -3.1408679    255.45828   0.08381177  0.087882296            1 
  255000    1.1614592    -3.125269     256.5581  0.083842517  0.087849613            1 
  256000    1.1596439   -3.1562786    257.05233  0.083675887  0.087819812            3 
  257000    1.1461911   -3.1165952    257.80975  0.083595897  0.087785273            3 
  258000    1.1503493   -3.1233614    258.59608  0.083525864  0.087754519            2 
  259000    1.1459014   -3.1218192    260.67283  0.083871566   0.08772302            2 
  260000    1.1412274   -3.1313546     260.0988  0.083365001  0.087694605            2 
  261000    1.1596978   -3.1117863    261.32138  0.083435946  0.087662977            2 
  262000    1.1543297   -3.1293663    261.48176  0.083168497  0.087627691            2 
  263000    1.1753573   -3.1421962    263.48432  0.083486793  0.087594949            1 
  264000    1.1245272   -3.1194839    263.97967  0.083326917  0.087559829            2 
  265000    1.1608854   -3.1187701    263.57885  0.082886431  0.087523146            2 
  266000    1.1363044   -3.1298831    266.12516  0.083372542  0.087488587            1 
  267000     1.143296   -3.1184023    266.84345  0.083284471  0.087452612            1 
  268000    1.1946502   -3.1651513     268.2671  0.083416387  0.087419199            2 
  269000    1.1364222    -3.127334    269.46747  0.083478151  0.087386436            1 
  270000    1.1510059   -3.1465622    269.55722  0.083196672   0.08735099            5 
  271000    1.1437454   -3.1465522    271.05281  0.083349572  0.087317568            2 
  272000    1.1448797   -3.1391414     271.2353   0.08309905  0.087279947            2 
  273000    1.1551578   -3.1467048     272.7314  0.083251342  0.087244927            3 
  274000    1.1646829   -3.0844895    273.34113  0.083132946  0.087204785            1 
  275000    1.1548343   -3.1261644    273.37045  0.082839529  0.087161766            3 
  276000    1.1249102   -3.1366158     274.6722  0.082932427  0.087117529            3 
  277000    1.1840847   -3.1143673    275.02469  0.082739075  0.087073394            3 
  278000    1.1324582   -3.1509074    275.50064  0.082584125  0.087031818            2 
  279000    1.1552568   -3.1208488    277.45224  0.082871039  0.086989369            1 
  280000    1.1557639   -3.1349869    278.13951  0.082779616  0.086946667            4 
  281000    1.1347625   -3.1404923    277.16338  0.082195546  0.086898605            4 
  282000    1.1441176   -3.1409913     278.0638  0.082170152  0.086848646            1 
  283000    1.1189365   -3.1405865    279.26082  0.082232278  0.086796853            2 
  284000    1.1314725   -3.1787428    281.41959  0.082576171   0.08674662            2 
  285000    1.1491904   -3.1234626    281.38654  0.082276765  0.086697173            2 
  286000    1.1408912   -3.1364434    284.58184  0.082920116  0.086652257            1 
  287000    1.1465263   -3.1396862     285.0596  0.082769918  0.086611935            3 
  288000    1.1270066   -3.1425149    284.22709  0.082241636  0.086569361            3 
  289000    1.1315166   -3.1475232    286.91126  0.082731042  0.086528676            3 
  290000    1.1639785    -3.133924    288.11908  0.082792838  0.086487738            2 
  291000    1.1365036   -3.1449329    288.80131  0.082703698  0.086446497            2 
  292000    1.1648418   -3.1621325    289.31395  0.082566765  0.086410171            3 
  293000    1.1472586   -3.1278281    291.57013  0.082926658  0.086374297            2 
  294000    1.1305519   -3.1476127    291.94376    0.0827505   0.08633373            2 
  295000    1.1521856   -3.1255018    291.96327    0.0824755   0.08629571            3 
  296000    1.1161508   -3.1520957    293.33196  0.082582197  0.086259581            3 
  297000    1.1358407   -3.1458821    294.65625  0.082675716  0.086225223            1 
  298000    1.1393836   -3.1688869    296.33325  0.082867239  0.086192825            3 
  299000    1.1354624   -3.1345327    296.57382   0.08265714  0.086158632            2 
  300000    1.1137671   -3.1398981    298.95103  0.083041952  0.086126759            3 
  301000     1.118471   -3.1619698    298.66066  0.082685676  0.086097875            1 
  302000    1.1306224   -3.1547157    300.16722  0.082827599  0.086065169            2 
  303000    1.1324269   -3.1493932    300.82103  0.082734057  0.086032902            6 
  304000    1.1475429   -3.1568144    301.54071  0.082659185  0.086002245            2 
  305000    1.1364984   -3.1322807    302.80392  0.082733312  0.085973431            4 
  306000    1.1527631   -3.1554426    302.81997  0.082467313  0.085939992            2 
  307000    1.1224176   -3.1744625    303.68128  0.082432487  0.085904758            1 
  308000    1.1426368   -3.1549797    304.01927  0.082256295  0.085868768            2 
  309000    1.1485235   -3.1577188     306.2052  0.082579613  0.085833397            2 
  310000     1.128852    -3.149708     305.6924  0.082175376   0.08579929            4 
  311000    1.1123092   -3.1626437    307.51759  0.082400211  0.085765259            3 
  312000    1.1227263   -3.1777963    307.59844  0.082157703  0.085730304            1 
  313000    1.1686251   -3.1438059    310.97077  0.082793069  0.085697307            3 
  314000    1.1093941   -3.1460505    309.55372  0.082153322  0.085668049            3 
  315000    1.1343961   -3.1661985    312.66467  0.082715521  0.085640792            2 
  316000    1.1251861   -3.1754792    312.42293  0.082390012  0.085613419            2 
  317000     1.136435   -3.1446324    314.44838   0.08266256   0.08558761            1 
  318000    1.1185669   -3.1772821    315.32949  0.082633513  0.085562161            4 
  319000    1.1406659   -3.1836349    315.85495  0.082511741  0.085535597            1 
  320000    1.1386582   -3.1683914    317.30735  0.082632123  0.085508044            5 
  321000    1.1098678   -3.1527651    318.85424  0.082776282  0.085478924            1 
  322000    1.1234819   -3.1682149    317.52985  0.082176463  0.085449477            5 
  323000     1.140903   -3.1908978    319.17996  0.082347771  0.085419322            2 
  324000    1.1185159   -3.1653307    319.84501  0.082264664  0.085389413            3 
  325000    1.1392162   -3.1710835    319.76996  0.081992298  0.085355022            1 
  326000    1.1070161   -3.1437611    323.64402  0.082731088  0.085319581            3 
  327000    1.1324495   -3.1665827    320.96281  0.081794803  0.085288499            6 
  328000    1.1364067   -3.1570946    323.20306  0.082114598  0.085256755            3 
  329000    1.1145892    -3.157598    323.60285  0.081966274  0.085223253            1 
  330000    1.1215922   -3.1612904    325.24982  0.082133794  0.085193298            2 
  331000    1.1131274   -3.1569745     325.7451  0.082010348  0.085161416            5 
  332000    1.1243592   -3.1913717    325.32176  0.081657069  0.085125703            1 
  333000    1.1334501   -3.2132166    327.77759  0.082026423  0.085093256            2 
  334000    1.1409899   -3.1492462    329.11678  0.082114965  0.085061487            1 
  335000    1.1235393    -3.177615    329.56325  0.081980908  0.085028784            3 
  336000    1.1298131   -3.1563727    330.21857  0.081899448  0.084994991            2 
  337000     1.102491   -3.1857918    331.38669  0.081945274  0.084961405            1 
  338000    1.1271717   -3.1969119    331.43638  0.081715084  0.084928801            2 
  339000    1.0937186   -3.1605972    333.22981    0.0819149  0.084899596            2 
  340000     1.135993   -3.1531914    335.86642  0.082320201  0.084868768            2 
  341000    1.1293862   -3.1967138    334.67859  0.081788511  0.084840409            1 
  342000    1.1161031   -3.2132965    336.12146   0.08190094   0.08480873            6 
  343000    1.1378825   -3.1771147    336.51332  0.081757365  0.084778282            2 
  344000    1.0890405   -3.1766142    339.86923  0.082332661  0.084750068            3 
  345000    1.1191238   -3.1716417    339.57737  0.082023519  0.084720539            5 
  346000    1.1137991   -3.1754374    340.95096  0.082117283  0.084689908            1 
  347000     1.099092   -3.1776072    341.18963  0.081937952  0.084660076            2 
  348000    1.1091939   -3.1885906    342.51082  0.082018873  0.084628729            1 
  349000    1.1132531   -3.1929878    341.65134  0.081578638   0.08460063            5 
  350000    1.0974316   -3.1685848    343.96463  0.081896339   0.08457061            2 
  351000    1.1097256   -3.1919096    344.40974  0.081768694  0.084542822            4 
  352000    1.1093079    -3.167266    344.00444  0.081440446  0.084511897            1 
  353000    1.0986341    -3.183328    345.74477  0.081620577  0.084483144            2 
  354000    1.1123083   -3.1948996    348.21196  0.081970801   0.08445442            2 
  355000    1.1216875   -3.2044707    347.34603  0.081536627  0.084426791            2 
  356000    1.1197541   -3.1753099    349.89017  0.081903129  0.084400226            1 
  357000    1.1272937   -3.1741344    350.19675  0.081745272  0.084374634            3 
  358000    1.1322786   -3.1855205    352.56909  0.082069154  0.084352177            2 
  359000    1.1190644   -3.1925001    352.50334  0.081825289  0.084328318            2 
  360000    1.1095146   -3.1648317    354.65304   0.08209561  0.084303305            5 
  361000    1.1211122   -3.2214067    354.15456  0.081753131  0.084279917            1 
  362000    1.1058689   -3.1865081    357.28372  0.082247634  0.084257761            2 
  363000    1.1112749    -3.195721    357.89309  0.082160949  0.084233295            2 
  364000    1.0905003   -3.1719232    357.98098  0.081955353  0.084211635            2 
  365000    1.1059625   -3.2006361    358.49845  0.081848961  0.084188591            1 
  366000    1.1008505   -3.1925026    360.21599  0.082016392  0.084164078            1 
  367000     1.097981   -3.1950617    360.13012  0.081773414  0.084139635            3 
  368000    1.1109027   -3.1725469    361.72683  0.081912779  0.084113428            3 
  369000    1.1166537   -3.1816892    360.74234  0.081468459  0.084088117            2 
  370000    1.1020428   -3.1854668    362.25388  0.081588711   0.08405815            1 
  371000    1.1060416   -3.1794033     361.3374  0.081162939  0.084026103            2 
  372000    1.1086072    -3.169349    364.48855   0.08165066  0.083993647            2 
  373000    1.0911544   -3.1880782    363.56164  0.081224673  0.083962475            1 
  374000    1.1127227   -3.1810067    364.12475  0.081132966  0.083929667            1 
  375000    1.1212526   -3.1564622    366.93197  0.081540437  0.083898775            2 
  376000    1.0891109   -3.1898604     366.2714  0.081177172  0.083865763            1 
  377000    1.1133244   -3.1763583    367.16103  0.081158494  0.083832159            1 
  378000     1.091697   -3.1917142    367.75663  0.081075095  0.083800473            3 
  379000    1.1001373   -3.2162106     368.4361  0.081010575  0.083766875            2 
  380000    1.0773539   -3.2014556    368.47805  0.080806589  0.083733291            4 
  381000    1.0947948   -3.1882364    371.35695  0.081224179  0.083700417            2 
  382000    1.0774519   -3.2183196     372.0966  0.081172906  0.083669201            2 
  383000    1.0844778   -3.2068815    373.14267  0.081188569  0.083637519            2 
  384000    1.1308933   -3.1827805    373.13688  0.080975886  0.083606836            1 
  385000    1.1036689   -3.1949547     374.0289  0.080958637  0.083575077            2 
  386000    1.1010855   -3.2237433    374.66619  0.080886484  0.083541215            2 
  387000    1.1090489   -3.2066773    377.21559  0.081226441  0.083511296            2 
  388000    1.0999374    -3.192878    377.60207  0.081100101  0.083479602            5 
  389000    1.1060698   -3.1810012    378.49169  0.081082195  0.083449039            2 
  390000    1.0938034   -3.1822265    379.10566  0.081005482  0.083417636            1 
  391000    1.0793394   -3.1879035    380.08471  0.081006971   0.08338763            2 
  392000    1.0789582   -3.1877971    380.64098  0.080918575  0.083356939            2 
  393000    1.1172492   -3.1958878    381.51519  0.080898047  0.083326561            3 
  394000    1.0890273   -3.2295695      379.575  0.080282361   0.08329316            6 
  395000    1.0957078   -3.1901339    381.67766  0.080522713  0.083261148            3 
  396000    1.1077057    -3.200178    383.93946   0.08079534  0.083229913            1 
  397000    1.0921616    -3.208727    382.46476  0.080282274  0.083196122            2 
  398000    1.0953958   -3.1585096    386.03421  0.080827934  0.083161479            2 
  399000    1.1053546   -3.2133299    383.92202  0.080184214  0.083126385            2 
  400000     1.107254   -3.2166964    384.83722   0.08017442  0.083088711            3 
  401000    1.0749306   -3.1928268    385.83986  0.080182848  0.083049709            2 
  402000    1.1018704   -3.2213566    385.96628  0.080009594  0.083011573            3 
  403000     1.102305   -3.2289224    388.10888  0.080254111  0.082972494            2 
  404000     1.113509   -3.2307622     386.4313  0.079709426   0.08293422            2 
  405000    1.0939234   -3.2074332    389.41295   0.08012612  0.082894167            1 
  406000    1.0934707   -3.2028294    390.23596  0.080097693  0.082855734            5 
  407000    1.1086886   -3.1803596    392.83753  0.080433564  0.082818745            2 
  408000    1.0948926    -3.177755     391.6931  0.080002676  0.082782721            4 
  409000    1.0791674   -3.2093881    393.34842  0.080144339  0.082746572            2 
  410000    1.0900885   -3.1899664    392.28196  0.079732105  0.082711486            3 
  411000    1.0806402   -3.2029783    394.10686  0.079908123  0.082674902            2 
  412000    1.0797607    -3.240852    394.10224  0.079713237  0.082637686            2 
  413000    1.1095934   -3.2074765    395.38956  0.079779975  0.082601226            4 
  414000    1.0717533   -3.2285155    396.44592  0.079799903  0.082563336            4 
  415000    1.1055781   -3.2009773    398.94003  0.080108441   0.08252702            5 
  416000    1.1055702   -3.2061634    398.74908  0.079877621  0.082489527            5 
  417000    1.0746922   -3.1860533    398.29738    0.0795958  0.082450833            2 
  418000    1.0995889   -3.2024374    399.73343  0.079691673  0.082411398            1 
  419000    1.0950532   -3.1977724    399.26002  0.079407322  0.082370243            1 
  420000    1.0955462   -3.2163173    399.84551  0.079334426  0.082328748            2 
  421000    1.0982281   -3.1914015    400.48665  0.079272891  0.082287915            2 
  422000     1.073645   -3.2221143    400.70993  0.079129132  0.082247521            2 
  423000    1.0901086   -3.1981154    403.89875  0.079570282  0.082206233            3 
  424000     1.079815   -3.2305341    402.20235  0.079049205  0.082163668            2 
  425000    1.0932148   -3.2386778    401.31685  0.078689578  0.082121136            2 
  426000    1.0984325    -3.226281    405.18262  0.079261076  0.082078442            2 
  427000    1.0820638   -3.2061265     405.0026   0.07904032  0.082034629            2 
  428000    1.0701091    -3.214776    406.60537  0.079167711  0.081991865            1 
  429000    1.0879103   -3.2079149    406.45344  0.078953659  0.081948034            5 
  430000    1.0917775   -3.2006469    406.92986  0.078862376   0.08190503            2 
  431000    1.0746276   -3.2281912     407.7323  0.078834552  0.081861728            2 
  432000    1.0633644   -3.2248253    407.51049  0.078609277  0.081817378            1 
  433000    1.0782996   -3.2104351    409.86994   0.07888182  0.081774406            2 
  434000    1.0659735   -3.2424043    409.37395  0.078604829  0.081729819            2 
  435000    1.0944312   -3.2191711    411.94246  0.078916181   0.08168486            2 
  436000    1.0931171   -3.1992202    413.99242  0.079126992  0.081643153            1 
  437000    1.0768866   -3.2192629    410.73737  0.078325204  0.081599493            2 
  438000    1.0644578   -3.2497467    411.97144  0.078381172  0.081555357            2 
  439000    1.0848917   -3.2290387    412.80704  0.078361245  0.081509917            5 
  440000    1.0697259   -3.2060837    414.65776  0.078533666  0.081465725            4 
  441000    1.0711842   -3.2436732    415.09478  0.078438166   0.08142192            3 
  442000    1.0686866   -3.2145553    414.67117   0.07818084  0.081375984            3 
  443000    1.0857976   -3.1871471    416.21678  0.078295105  0.081330423            6 
  444000    1.0722631   -3.2423026    415.72894  0.078027204  0.081283683            1 
  445000    1.0821805    -3.233744    417.50446  0.078184356  0.081237458            2 
  446000     1.089855   -3.2093906    418.53863  0.078202285  0.081192712            3 
  447000     1.084233   -3.2333762    420.76647  0.078442669  0.081146409            2 
  448000    1.0962913   -3.2166694     419.9319  0.078112332   0.08110107            1 
  449000    1.0574755   -3.2277025    419.72956  0.077900809  0.081053425            2 
  450000    1.0789536   -3.2202545    420.95812  0.077955208  0.081006695            2 
  451000    1.0914857   -3.2233303    421.04022  0.077797528  0.080958232            3 
  452000     1.090096   -3.2553191    419.90834   0.07741673  0.080909449            1 
  453000    1.0913978   -3.2139684    425.39422  0.078255008  0.080863596            2 
  454000     1.048716   -3.2336066    425.02313  0.078014525  0.080819051            2 
  455000      1.07473   -3.2349852    426.94427  0.078194921  0.080773782            2 
  456000    1.0856339   -3.2223873    425.31421   0.07772555  0.080728539            4 
  457000    1.0781111   -3.2627002    426.64992  0.077799037  0.080682395            3 
  458000    1.0693244   -3.2198078    428.57779  0.077979947  0.080637562            2 
  459000    1.0825392   -3.2600942    427.01518  0.077526358  0.080591972            3 
  460000    1.0837984   -3.2508863    427.20086   0.07739146  0.080544767            1 
  461000    1.0782426   -3.2364952    427.95382  0.077359692  0.080498024            2 
  462000    1.0802288   -3.2335571    428.98674   0.07737856  0.080452076            2 
  463000    1.0663499   -3.2186146    430.20423  0.077430566  0.080404213            2 
  464000    1.0757696   -3.2585387    429.52426   0.07714157  0.080356431            5 
  465000    1.0581744   -3.2409429    431.23988  0.077283133  0.080308726            1 
  466000    1.0428691   -3.2201561    431.46269  0.077157134   0.08026091            1 
  467000    1.0552945   -3.2433447    431.87397  0.077065305  0.080211804            3 
  468000    1.0633172   -3.2341964    433.64429  0.077215863  0.080163725            3 
  469000    1.0680866   -3.2495036    433.10042  0.076954588  0.080117346            1 
  470000    1.0560805   -3.2451344    435.57501  0.077229612  0.080071595            2 
  471000    1.0535958   -3.2587732     437.2219  0.077357023  0.080025824            2 
  472000    1.0779302   -3.2640265    436.97125  0.077148879    0.0799802            2 
  473000    1.0640119   -3.2110003    439.32072  0.077399704  0.079933359            6 
  474000    1.0669435   -3.2427776    437.00195  0.076828754   0.07988612            6 
  475000    1.0685199   -3.2371487    438.98493    0.0770149  0.079839387            1 
  476000     1.099696   -3.2457485    440.46093  0.077111508  0.079791272            2 
  477000    1.0493001    -3.237116    437.64363  0.076457657  0.079742898            3 
  478000    1.0673252   -3.2574127    440.38492  0.076775613  0.079694717            1 
  479000    1.0693354   -3.2267598    441.21577  0.076759877  0.079648083            2 
  480000    1.0399629   -3.2329953     442.2462  0.076778854  0.079598678            4 
  481000    1.0666228   -3.2443655    442.44725  0.076654062  0.079551371            2 
  482000    1.0803973   -3.2435357    442.99415  0.076589582  0.079503319            1 
  483000    1.0475619   -3.2353101    442.34469  0.076318959  0.079456291            3 
  484000    1.0519867   -3.2496292    445.46808   0.07669905  0.079406043            2 
  485000    1.0391302   -3.2406604    443.69254  0.076235832  0.079357159            2 
  486000    1.0321983   -3.2446473    445.27378  0.076350099  0.079309201            3 
  487000    1.0569816   -3.2495404    446.19063  0.076350211  0.079260496            4 
  488000    1.0958212   -3.2552985    445.40418  0.076059457  0.079212448            1 
  489000    1.0491999   -3.2565129    445.58719  0.075935105  0.079163211            4 
  490000    1.0694443   -3.2552298    445.97397  0.075845913  0.079114375            3 
  491000    1.0623919   -3.2489915    448.93455  0.076193915  0.079066159            4 
  492000    1.0468929   -3.2234386    449.71804  0.076171755  0.079016346            2 
  493000    1.0749847   -3.2331274    449.46637  0.075974707  0.078969588            2 
  494000    1.0635317   -3.2263822    452.95551  0.076409499  0.078921637            4 
  495000    1.0449988   -3.2679607    452.48566  0.076176036   0.07887389            2 
  496000    1.0745757    -3.246624    454.30694  0.076328451  0.078826861            4 
  497000    1.0702498   -3.2444217    452.45887  0.075865002  0.078779981            3 
  498000    1.0577783   -3.2818021    453.45429  0.075879232  0.078731814            4 
  499000    1.0644514   -3.2639411    454.11658  0.075837772  0.078683874            3 
  500000    1.0511676   -3.2469915    456.20366  0.076033944  0.078635462            3 
  501000    1.0559757   -3.2513025    454.55826  0.075608492  0.078586419            3 
  502000    1.0738501   -3.2567264    455.99714  0.075696736  0.078537811            2 
  503000    1.0337326   -3.2653034    456.49775  0.075629182  0.078488699            2 
  504000    1.0868958   -3.2552272    458.41008  0.075795317  0.078440342            1 
  505000    1.0698862   -3.2605826    457.53087  0.075500144  0.078392858            4 
  506000    1.0411735   -3.2906506    458.67283  0.075539003  0.078345758            3 
  507000    1.0457794   -3.2416692    459.50031  0.075526021  0.078299015            2 
  508000    1.0505856   -3.2647486    459.10819  0.075313023  0.078250357            3 
  509000    1.0627845   -3.3071571    460.60427  0.075409999  0.078201689            2 
  510000    1.0681061   -3.2501534    461.88324  0.075471118  0.078153107            5 
  511000    1.0641695   -3.2505447    463.66855  0.075614572  0.078105136            2 
  512000    1.0329394    -3.243334    461.71671  0.075149203  0.078057498            2 
  513000    1.0256107   -3.2726223    463.10382   0.07522804  0.078010082            3 
  514000    1.0545271   -3.2749787    462.99174  0.075063512  0.077961295            3 
  515000      1.05525   -3.2554887    466.23821  0.075443076  0.077915132            4 
  516000    1.0335008   -3.2379298    467.18558  0.075449867   0.07787028            3 
  517000    1.0341295   -3.2704157    466.93676  0.075263823  0.077824536            2 
  518000    1.0629805    -3.284088    467.86256  0.075267465  0.077780449            2 
  519000    1.0578815   -3.2943507    468.42749  0.075213148  0.077735922            3 
  520000    1.0489353   -3.2871964    468.78828  0.075126328  0.077691649            2 
  521000    1.0532492   -3.2866476     469.9349  0.075165531  0.077645737            2 
  522000    1.0712037   -3.2510906    471.58992  0.075285746  0.077600731            3 
  523000    1.0521907   -3.2600455    470.89446  0.075030984  0.077556505            2 
  524000    1.0272029    -3.266794    472.44246  0.075133979  0.077511921            7 
  525000    1.0443219   -3.2694258    472.93452  0.075068972  0.077467441            3 
  526000    1.0401449   -3.2759783    472.27841  0.074822308  0.077424787            2 
  527000    1.0304429   -3.2486008    473.63505  0.074894854  0.077380486            1 
  528000    1.0405286    -3.263797    474.34097   0.07486442  0.077336089            3 
  529000    1.0423444   -3.2792939    475.21296  0.074860264  0.077291389            2 
  530000    1.0475324   -3.2764545    475.99162  0.074841449   0.07724719            2 
  531000    1.0563422   -3.2431289    477.54772  0.074944714  0.077204047            3 
  532000    1.0698651   -3.2767862    480.20873  0.075220666  0.077161324            2 
  533000    1.0547448   -3.2967426    478.77254  0.074854994  0.077118189            6 
  534000    1.0063182    -3.278955    480.40802   0.07497004  0.077076055            2 
  535000      1.02841   -3.2950334     480.4502  0.074836479  0.077032657            4 
  536000    1.0394507    -3.274924    482.57709  0.075027533  0.076990604            5 
  537000     1.049369   -3.2993627    481.10603  0.074659533   0.07694896            2 
  538000    1.0295298   -3.2508283    484.61684  0.075064567  0.076908315            2 
  539000    1.0356664   -3.2699293    482.96181   0.07466942   0.07686651            2 
  540000    1.0338714   -3.2521598     486.6218  0.075095957  0.076825779            3 
  541000    1.0464483   -3.2860617    484.23235  0.074589086  0.076785335            2 
  542000    1.0501568   -3.2749881     487.9632  0.075025092  0.076744878            4 
  543000    1.0101961   -3.2893097    486.05451  0.074594002  0.076702869            3 
  544000    1.0364636   -3.2838621    488.05218  0.074762895  0.076662403            1 
  545000    1.0418637   -3.2492303    489.12497  0.074789751  0.076621154            1 
  546000    1.0425361   -3.2918396    488.29613  0.074526271  0.076579495            2 
  547000    1.0536724   -3.2509682    491.34041   0.07485381  0.076537873            2 
  548000    1.0280275   -3.2881429    490.39001   0.07457269  0.076497899            2 
  549000    1.0485185   -3.3095579    492.07604  0.074692781  0.076456857            3 
  550000    1.0295042   -3.2843212    494.25056  0.074886448  0.076418414            5 
  551000    1.0433652   -3.2768114     495.0051  0.074864656  0.076379378            3 
  552000     1.013812   -3.2998367      492.309  0.074322012  0.076341689            3 
  553000    1.0405544   -3.3105659    494.68146  0.074545127  0.076303411            1 
  554000    1.0443112   -3.2859427    495.81666  0.074581326  0.076265685            1 
  555000    1.0298341   -3.2765786    497.31823  0.074672407  0.076227425            2 
  556000    1.0244033    -3.274419    497.51708  0.074567908  0.076191612            1 
  557000    1.0533769   -3.3064836    498.26206  0.074545491  0.076154154            1 
  558000    1.0217446   -3.3148662    498.71647  0.074479759  0.076117167            3 
  559000     1.030439   -3.3070045    501.44879  0.074753845  0.076081561            3 
  560000     1.027207   -3.2568443    502.70752  0.074807667  0.076044928            5 
  561000    1.0168488   -3.2895075    501.83429  0.074544606  0.076007951            2 
  562000    1.0026598   -3.3064014    502.22206  0.074469464  0.075971281            4 
  563000    1.0373574   -3.3070013    503.65561   0.07454938  0.075935891            4 
  564000    1.0423904   -3.2873801    502.93436  0.074310632  0.075899814            1 
  565000     1.032402    -3.299783    505.59158  0.074571029  0.075864019            2 
  566000    1.0244274   -3.2686212    505.30063  0.074396442  0.075828471            2 
  567000    1.0303597   -3.2958299    505.58551    0.0743071  0.075792907            2 
  568000    1.0353029   -3.3059178     508.0049  0.074531236  0.075758187            1 
  569000    1.0121456   -3.3110536     509.2879  0.074588152  0.075723003            3 
  570000    1.0505258   -3.3202779    509.26056  0.074453298  0.075688525            4 
  571000      1.02634   -3.3008183    509.24532  0.074320683  0.075654258            3 
  572000     1.023828   -3.2899381    511.00607   0.07444727   0.07561903            4 
  573000    1.0185722   -3.3001935    509.13577  0.074045342  0.075583814            2 
  574000    1.0333927   -3.3202527    510.86789  0.074167813  0.075549081            4 
  575000    1.0304647   -3.2893141    512.07182  0.074213307  0.075513293            4 
  576000    1.0299888   -3.3400164    512.70192  0.074175625   0.07547975            2 
  577000    1.0264141   -3.3071634    514.01232  0.074236326  0.075445313            2 
  578000    1.0294011   -3.2585697    514.43094  0.074168243  0.075410027            1 
  579000    1.0158469   -3.2754862    515.86328  0.074246298  0.075374696            2 
  580000    1.0309688   -3.2890332    513.99067  0.073849234  0.075340195            3 
  581000    1.0024754   -3.2795622    515.12255  0.073884474  0.075305037            2 
  582000    1.0187712   -3.2882479     517.0645  0.074035581  0.075269532            1 
  583000    1.0313471   -3.3129837    517.25636  0.073936015  0.075232659            2 
  584000   0.99583036   -3.2898471    516.46883  0.073697036  0.075195593            3 
  585000    1.0195321   -3.2971361    518.25918  0.073826094  0.075159083            4 
  586000    1.0332397   -3.3071478    518.57397  0.073744876  0.075124204            5 
  587000     1.024786   -3.3051128    520.78799  0.073933558  0.075088889            3 
  588000    1.0084277   -3.2908956    518.77441   0.07352245  0.075053211            3 
  589000    1.0287841   -3.3288272    519.81862  0.073545362  0.075018449            1 
  590000   0.99404974   -3.3048975    521.18099  0.073613134  0.074982832            4 
  591000    1.0127965   -3.3084738    520.74907  0.073427674  0.074948118            1 
  592000   0.99724768   -3.3079711    523.34614   0.07366922  0.074912649            3 
  593000   0.99961571   -3.2923023    524.68915   0.07373372  0.074877666            2 
  594000    1.0403076   -3.2959119    526.79727  0.073905341  0.074843701            3 
  595000    1.0107728   -3.3179779    526.62213  0.073756601  0.074811545            3 
  596000    1.0292039   -3.3205087    526.36364  0.073596706  0.074778324            3 
  597000    1.0193118   -3.2845163    527.78576  0.073671938   0.07474495            3 
  598000    1.0324565   -3.2863384    529.67486  0.073811993  0.074712191            1 
  599000    1.0103366   -3.3077832    529.01819  0.073597411  0.074679148            2 
  600000    1.0111518   -3.2943331    530.09883  0.073624838  0.074644803            2 
  601000    0.9928057   -3.3025806    529.79382  0.073460042  0.074611319            4 
  602000    1.0312402   -3.2872375    533.20853  0.073810705  0.074577721            2 
  603000    1.0256775   -3.3170741    530.53807  0.073319247  0.074544201            3 
  604000   0.99519703   -3.3328981    530.86653  0.073243174  0.074509701            3 
  605000    1.0436898   -3.3474683    532.51504  0.073349179  0.074474321            3 
  606000   0.98450811   -3.3033222    531.09317  0.073032613  0.074439076            2 
  607000    1.0323168   -3.2879525    535.73884  0.073550088  0.074404421            3 
  608000    1.0115032   -3.3293948    533.98614   0.07318889  0.074369447            2 
  609000     1.003495   -3.3231088    536.01492  0.073346321  0.074335044            4 
  610000    1.0315771   -3.3244627    534.57046  0.073028752   0.07429944            3 
  611000    1.0029976   -3.3260833    534.05321  0.072838681  0.074262861            3 
  612000    1.0073931   -3.3321712    534.06738  0.072721593  0.074225989            4 
  613000    1.0132053    -3.304867    535.75775  0.072832756  0.074189284            2 
  614000    1.0167677   -3.3091306    537.23468  0.072914588  0.074153125            1 
  615000    1.0116418   -3.3453287    534.89143  0.072478513  0.074115523            1 
  616000      1.00106   -3.3015954    537.56395  0.072722396  0.074077709            1 
  617000    1.0143283   -3.2922191    536.60895  0.072475547  0.074040005            3 
  618000    1.0241179   -3.3357213     536.9596  0.072405555  0.074001448            6 
  619000    1.0233909   -3.2994412    536.08492  0.072170829  0.073962886            2 
  620000   0.97911581   -3.3024636    538.85618  0.072426906  0.073925152            4 
  621000   0.99765999   -3.2872855    540.06972  0.072473124  0.073887211            4 
  622000    1.0006076    -3.291845    540.88403  0.072465706  0.073850449            3 
  623000    1.0140526   -3.3430278    541.39533  0.072417781  0.073811608            4 
  624000    1.0229571   -3.3069751    542.02354  0.072385623  0.073774143            2 
  625000    1.0111177   -3.3345178    543.79628  0.072506171  0.073737941            2 
  626000    1.0018884   -3.3271611    541.11772  0.072033775  0.073701184            2 
  627000    1.0135434   -3.3418667    544.70827  0.072396102  0.073663675            1 
  628000   0.99455755   -3.3220985    545.48954  0.072384493  0.073626787            4 
  629000    1.0134526   -3.3224175    546.13244   0.07235459  0.073589215            3 
  630000   0.98382018   -3.3642645    544.82883  0.072067306   0.07355055            3 
  631000   0.98181552    -3.333491    545.58343  0.072052751  0.073513742            2 
  632000    1.0322708    -3.315843     546.4855  0.072057687  0.073477083            2 
  633000   0.98389086    -3.304113    547.21599  0.072040019   0.07344067            3 
  634000   0.99671539   -3.3334476    546.32792  0.071809663  0.073403005            2 
  635000    1.0032323   -3.3535182    549.11535  0.072062382   0.07336484            4 
  636000     1.014254    -3.326364     547.2591  0.071705857   0.07332713            1 
  637000   0.98222115   -3.3309176    549.34697  0.071866427    0.0732896            2 
  638000    1.0039048   -3.3073516    551.39158  0.072020843  0.073252297            2 
  639000    1.0035388   -3.3223854    551.36489  0.071904654  0.073215145            3 
  640000   0.97557982    -3.312489    552.35143  0.071920759  0.073177516            3 
  641000   0.99809389   -3.3369899    551.20731  0.071659817  0.073139606            3 
  642000   0.99266962   -3.3066966    551.00623  0.071522096  0.073101436            2 
  643000    0.9875085   -3.3562445    551.60292  0.071488196  0.073062168            2 
  644000    1.0030845   -3.2914845    550.51339  0.071236205  0.073023665            2 
  645000    1.0073859   -3.3428685    554.97956  0.071702785  0.072986069            3 
  646000    1.0021414   -3.3316263    554.43917   0.07152208  0.072947534            2 
  647000    1.0067937   -3.3223492    553.83772   0.07133407  0.072909007            2 
  648000    1.0050513   -3.3702061    554.46386  0.071304509  0.072869125            5 
  649000    1.0031108   -3.3401947     555.0196  0.071265999  0.072827962            4 
  650000    1.0002548   -3.3738267    554.08155  0.071036095  0.072787515            3 
  651000   0.99042192   -3.3333057    557.61472  0.071379253   0.07274851            3 
  652000    1.0081659   -3.3008155    556.50918  0.071128474  0.072708411            4 
  653000    1.0134916   -3.3331457    557.08776  0.071093385  0.072668929            2 
  654000   0.99919634   -3.2892918    559.40095  0.071279427  0.072628913            2 
  655000     1.005207   -3.3160519    558.82913  0.071097853  0.072589399            1 
  656000   0.99696048   -3.3339294    558.29465  0.070921577  0.072549389            3 
  657000     0.982021   -3.3255893    559.32778   0.07094467  0.072509506            2 
  658000   0.99112845   -3.3231638    560.47219  0.070981787  0.072469146            3 
  659000   0.97631918   -3.3552199    558.90443  0.070675826  0.072427657            1 
  660000   0.99062881   -3.3385184    560.44345  0.070763062  0.072386901            3 
  661000   0.98028016   -3.3586197    562.85083  0.070959509  0.072346376            3 
  662000   0.98953892   -3.3535042    562.37085    0.0707919  0.072306047            2 
  663000   0.98341843    -3.343849    560.84714  0.070493607  0.072265572            2 
  664000   0.99944227   -3.3565654    563.05757  0.070664856  0.072225433            2 
  665000   0.97580754   -3.3587545    562.90219  0.070539122   0.07218536            4 
  666000   0.98693062   -3.3558594    563.15914  0.070465358   0.07214441            2 
  667000   0.94593152   -3.3446702    563.88914  0.070450917  0.072104525            2 
  668000    1.0056521   -3.3664373    563.05001   0.07024077  0.072063494            2 
  669000   0.98749468   -3.3909893    561.89088   0.06999139  0.072022218            2 
  670000   0.99570565   -3.3616019    562.87056  0.070008776   0.07198035            3 
  671000   0.98029818   -3.3595126     566.3089  0.070331458  0.071938372            3 
  672000   0.98265522   -3.3421368    566.84158  0.070292854  0.071896578            2 
  673000   0.98455117   -3.3758949     567.5091  0.070271063  0.071855181            5 
  674000     0.981396   -3.3325181    569.05933  0.070358473   0.07181434            3 
  675000   0.99136953   -3.3499424    568.35086  0.070166773  0.071774068            2 
  676000   0.97496185   -3.3560049    567.81444  0.069996849  0.071733656            2 
  677000    0.9918581   -3.3477044    569.90789  0.070151143  0.071693305            2 
  678000   0.98514313   -3.3596132    569.87347  0.070043445  0.071652172            2 
  679000   0.98995647    -3.334729     569.0736  0.069842121  0.071611128            5 
  680000   0.96923124   -3.3473702    570.14151  0.069870283  0.071570096            2 
  681000   0.98968236   -3.3392999    571.78767  0.069969122  0.071529461            4 
  682000   0.97361546   -3.3563456      573.217  0.070041178  0.071488414            2 
  683000   0.96967016   -3.3747653    571.06602  0.069676185  0.071448215            2 
  684000   0.99676689   -3.3462306    573.40653  0.069859471  0.071407808            1 
  685000   0.96904935   -3.3550454     571.3859  0.069511667  0.071367745            1 
  686000   0.97371846   -3.3599912    573.58969  0.069678047  0.071327229            6 
  687000   0.94884892   -3.3791347    573.66636  0.069585924  0.071286988            3 
  688000   0.99237682   -3.3652205        576.2  0.069791666  0.071246851            3 
  689000   0.95752461   -3.3589982    578.65447  0.069987237  0.071206589            3 
  690000    0.9835983   -3.3481555    577.27875  0.069719656  0.071167151            2 
  691000   0.97222897   -3.3839434    577.70417  0.069670064  0.071127985            4 
  692000   0.98337931   -3.3570953    577.24337  0.069513893  0.071088392            3 
  693000   0.95412562   -3.3666625    582.33726  0.070026126  0.071049242            7 
  694000   0.97378085   -3.3432805    581.18776  0.069787195   0.07100945            2 
  695000   0.99260189   -3.3459506    580.35959  0.069587481  0.070969975            2 
  696000   0.98063233   -3.3679314    581.41832  0.069614262  0.070930855            5 
  697000   0.97564737   -3.3576237    581.70852  0.069549082  0.070891513            5 
  698000   0.95983897   -3.3621739    580.17963  0.069266909  0.070852453            2 
  699000   0.97770111   -3.3830054    580.18614  0.069168591  0.070813392            3 
  700000    0.9802448   -3.3725862    582.18267   0.06930746  0.070773902            5 
  701000   0.98048089   -3.3673104     582.8005  0.069282037  0.070735766            3 
  702000   0.96936092   -3.3421562    584.31815  0.069363503  0.070697548            2 
  703000    0.9739781    -3.335783    585.28793  0.069379793  0.070658585            4 
  704000   0.97175365   -3.3933389    587.35402  0.069525807  0.070620158            2 
  705000   0.96853947   -3.3549455    587.13387  0.069401167  0.070581554            2 
  706000   0.97118362   -3.3541048    585.37903  0.069095731   0.07054248            3 
  707000   0.97166839   -3.3653727    586.15214  0.069089126  0.070503144            2 
  708000   0.97500695    -3.393227    586.55525  0.069038988  0.070464505            3 
  709000   0.98125953   -3.3551787    588.88814  0.069215814  0.070426077            1 
  710000   0.97822609   -3.3441781     589.0931  0.069142383  0.070388567            5 
  711000   0.95742379   -3.3637647    590.93184  0.069260647  0.070350784            2 
  712000   0.95854619   -3.3471638    592.07756  0.069297467  0.070312983            4 
  713000   0.98604623   -3.3631418    590.43955   0.06900883  0.070274918            2 
  714000   0.95225943   -3.3574996    589.74745  0.068831402  0.070236297            4 
  715000   0.93198393   -3.3755627    590.61502  0.068836249  0.070196891            3 
  716000   0.96305205   -3.3710819    592.88237     0.069004  0.070158601            3 
  717000   0.97447864   -3.3674843     594.2785  0.069070026  0.070121286            3 
  718000   0.98340034   -3.3632269    595.16853  0.069077127  0.070084355            3 
  719000   0.97828669   -3.3719129    593.49868  0.068787515  0.070047151            2 
  720000   0.96312562    -3.361556    594.92873  0.068857491   0.07000934            2 
  721000   0.97629675   -3.3756788    595.29479  0.068804299  0.069971933            3 
  722000   0.95008065   -3.3967397    592.89119  0.068431577  0.069934092            3 
  723000   0.97681106   -3.3693257    594.97067   0.06857661  0.069896061            3 
  724000   0.97609425   -3.3739528    597.33248  0.068753739  0.069858105            1 
  725000   0.95343946   -3.3837338     596.9487  0.068614793  0.069819736            3 
  726000   0.97559724   -3.3688682    599.20225  0.068778954  0.069781432            3 
  727000   0.96237311   -3.3634841     600.9173  0.068880937  0.069743561            2 
  728000   0.98425822   -3.3543717    601.06994  0.068803794  0.069706531            2 
  729000   0.99575659   -3.3852953    599.57648  0.068538693  0.069668902            3 
  730000   0.96292785   -3.4111492    597.44515  0.068201501  0.069631248            1 
  731000   0.95625156    -3.357163    603.08918  0.068751617   0.06959372            3 
  732000   0.95209121   -3.3928813    600.81392   0.06839867  0.069557062            4 
  733000   0.94594758   -3.3836957    603.20243  0.068576902  0.069520057            5 
  734000   0.96934324   -3.3554657    601.24335  0.068261053  0.069483529            5 
  735000    0.9618306   -3.3917472    604.04885  0.068486264  0.069447243            3 
  736000   0.95971159   -3.3720701    602.79845  0.068251636  0.069411071            3 
  737000   0.96936932    -3.378922    603.81598  0.068274081  0.069374658            4 
  738000   0.96534564    -3.374369    606.15304  0.068445466  0.069338214            4 
  739000   0.94309408   -3.3811907     606.5272  0.068395038  0.069301973            1 
  740000   0.96620242   -3.3966831    606.34177  0.068281731  0.069265554            5 
  741000   0.96181297   -3.3593926    607.76252  0.068349361  0.069228768            3 
  742000   0.96058384   -3.4149665      607.097  0.068182502  0.069193315            4 
  743000   0.94410541    -3.400581    609.71468  0.068384329  0.069157446            3 
  744000   0.95388838   -3.3839617    607.70732  0.068067577  0.069121427            3 
  745000   0.97751915   -3.4052241    611.64464  0.068416626   0.06908598            4 
  746000   0.97505859   -3.3688639    611.68114  0.068328992  0.069050037            8 
  747000   0.95303592   -3.3835707    612.56722   0.06833637  0.069015024            4 
  748000   0.96497428   -3.3838142    613.58823  0.068358759  0.068980007            2 
  749000   0.94659461   -3.3829615     613.0723  0.068210092  0.068944871            3 
  750000   0.95797355   -3.3897825    612.70211  0.068078012  0.068909315            2 
  751000   0.93718437   -3.3746052    613.26875  0.068050238  0.068874854            4 
  752000   0.95758855   -3.3871749    614.33727  0.068078154  0.068840422            2 
  753000   0.95391713   -3.4047997    616.68335  0.068247383  0.068806398            3 
  754000   0.94413526   -3.3820839      616.527  0.068139589   0.06877276            2 
  755000   0.96117318   -3.4000383    615.04218   0.06788545  0.068738356            2 
  756000   0.95789456   -3.4024026    616.59987  0.067967358  0.068704783            1 
  757000   0.94179757   -3.4136823    619.44067  0.068190298  0.068671316            3 
  758000   0.94502439   -3.3949186    619.47637  0.068104262  0.068637481            3 
  759000   0.96469153   -3.4010432     617.4013  0.067786704    0.0686036            2 
  760000   0.95799822   -3.4108122    619.45995   0.06792324   0.06856875            1 
  761000   0.94403039   -3.3941771    621.16192  0.068020359  0.068534216            4 
  762000   0.94759467   -3.3503087    620.40259  0.067848052  0.068500279            1 
  763000   0.93922852   -3.4131844    618.55277  0.067557096   0.06846599            2 
  764000   0.92528079   -3.3813083    621.85071  0.067828393  0.068431453            2 
  765000   0.95157569   -3.3816542    622.36775  0.067796051  0.068397113            4 
  766000   0.96275585   -3.4144245    625.07191  0.068001731  0.068362833            3 
  767000   0.95547949   -3.3733737    623.13103  0.067702198  0.068328703            5 
  768000   0.95633399   -3.4018713    623.75945  0.067682232  0.068295245            3 
  769000   0.97661656   -3.4372869    623.68062  0.067585676  0.068260933            3 
  770000   0.94375658   -3.3932673    622.61593  0.067382677  0.068226534            2 
  771000    0.9423751   -3.4113323     625.2663  0.067581744  0.068191521            2 
  772000   0.93697374   -3.4175224    625.31547  0.067499511  0.068156654            4 
  773000   0.94834682   -3.4191541    628.04327   0.06770626  0.068122977            7 
  774000   0.93883248    -3.401592    628.59323  0.067677997   0.06808977            2 
  775000    0.9165871   -3.4046633    629.85243  0.067726068  0.068057089            3 
  776000   0.93676757   -3.4106936    628.76657  0.067522183  0.068024174            2 
  777000   0.93097923   -3.4306419    632.65645  0.067852472  0.067992184            2 
  778000   0.94345907   -3.4044717    631.75799  0.067669022   0.06796033            2 
  779000   0.92696901   -3.4191358    632.10887  0.067619691  0.067928427            2 
  780000    0.9614456   -3.3929048    630.21751   0.06733093  0.067896456            3 
  781000   0.94014721   -3.4327438    633.81496   0.06762857  0.067864517            2 
  782000   0.94721225   -3.4117801    631.06309  0.067248837  0.067831943            3 
  783000   0.94752164   -3.4074288    633.01184  0.067370353  0.067798997            3 
  784000   0.93649159   -3.4174445    632.90031  0.067272567  0.067766668            6 
  785000   0.96609644   -3.4119103    633.66873  0.067268442  0.067733914            3 
  786000   0.93259738   -3.3902796    632.88284  0.067099538  0.067701884            3 
  787000   0.95685764   -3.4322906     636.7087  0.067419388  0.067669417            3 
  788000   0.94362342   -3.3987446    638.44999  0.067517976  0.067638051            5 
  789000   0.95621252   -3.4113462     637.3605  0.067317332  0.067606118            8 
  790000   0.94594218   -3.4221958    636.12127  0.067101399  0.067574386            1 
  791000   0.95301161   -3.4158815    639.20299  0.067341233  0.067543046            2 
  792000   0.92175449    -3.403969    641.53941  0.067502042  0.067511819            2 
  793000   0.94878133   -3.4065089    639.65725  0.067219131  0.067481043            5 
  794000   0.94504039   -3.4173953    641.39553  0.067316911  0.067450145            2 
  795000   0.94023324   -3.4458238    640.68101  0.067157339  0.067419736            7 
  796000   0.93250802   -3.4272194    638.37965   0.06683204  0.067388594            1 
  797000   0.96107656   -3.4102547    639.25859  0.066840086  0.067357495            2 
  798000   0.96212346   -3.4033457    642.41227  0.067085659  0.067326607            5 
  799000   0.95804451   -3.4115475    642.77987  0.067040036  0.067296111            5 
  800000   0.93311081   -3.4435209    644.56565  0.067142255  0.067264698            3 
  801000    0.9351033   -3.4117113     647.1098  0.067323117  0.067234124            4 
  802000   0.94023997   -3.4096637     646.9294  0.067220428  0.067203519            5 
  803000   0.93525226   -3.4414765    645.79245  0.067018727    0.0671733            3 
  804000    0.9178154   -3.4266896    646.46142  0.067004707  0.067142269            3 
  805000   0.93472265   -3.3976511    647.92826  0.067073319  0.067112422            3 
  806000   0.93618803   -3.4080888    648.99287  0.067100173  0.067082003            3 
  807000    0.9225485    -3.412755    647.56565  0.066869646   0.06705166            5 
  808000   0.93292211   -3.4141908    648.54472  0.066887863  0.067021532            4 
  809000   0.93203129   -3.4440056    648.85323  0.066836962  0.066991128            3 
  810000   0.93147076   -3.4374695    649.89776  0.066861909  0.066961357            3 
  811000   0.90991295   -3.4180976    652.68899  0.067066275  0.066931532            2 
  812000    0.9308661   -3.4300829    650.75212  0.066784905   0.06690163            2 
  813000   0.91828169   -3.3925593    653.58283   0.06699291  0.066872037            2 
  814000   0.93934986    -3.417711    653.68193  0.066920755  0.066842509            8 
  815000   0.92941395   -3.4191515    653.38136   0.06680791  0.066812725            3 
  816000   0.92783178   -3.4106791    654.67978  0.066858638  0.066782901            5 
  817000   0.90767268   -3.3985285    653.14189   0.06661994  0.066753235            2 
  818000   0.92527402   -3.4477024    654.33176  0.066659714  0.066724007            2 
  819000   0.93798269    -3.403834    657.14739  0.066864814  0.066694607            3 
  820000   0.93434721   -3.4154443    654.88978  0.066553839  0.066665264            2 
  821000   0.91611614   -3.4295124     656.4711  0.066633282  0.066635276            2 
  822000   0.92728395   -3.4567571    656.27336  0.066532174  0.066606074            2 
  823000    0.9396178   -3.4452316    657.89463  0.066615495   0.06657633            3 
  824000   0.95088234   -3.4265131    656.58794  0.066402502  0.066546839            2 
  825000    0.9089765   -3.4381405    658.03187  0.066467866  0.066517456            3 
  826000   0.91932033   -3.4255235    660.49983  0.066636383  0.066487822            3 
  827000   0.92319226   -3.4149573    662.50791  0.066758153  0.066458055            6 
  828000   0.92677277   -3.3916198    661.69529  0.066595742  0.066429001           10 
  829000   0.92544409   -3.4402545    661.48966  0.066494738  0.066399362            3 
  830000     0.919641   -3.4480125    659.66422  0.066231348  0.066369657            4 
  831000   0.93133971   -3.4317504    659.21133   0.06610623  0.066340144            4 
  832000   0.93505805   -3.4577542    660.87209  0.066193118  0.066310159            8 
  833000   0.92435584   -3.4491888    662.31521  0.066258025  0.066280062            2 
  834000   0.93138809   -3.4533693    664.12833  0.066359746  0.066250397            6 
  835000   0.91766725   -3.4515793    663.49085  0.066216651  0.066220827            2 
  836000   0.93893511   -3.4487074    661.01773  0.065890922   0.06619134            3 
  837000   0.92194417   -3.4590977    664.30219  0.066139206  0.066161238            1 
  838000   0.92249813   -3.4569528     663.6738  0.065997792  0.066130745            3 
  839000   0.92361418   -3.4231831    665.90297  0.066140541  0.066100305            3 
  840000    0.9255928   -3.4737795    663.49881  0.065823295  0.066070324            5 
  841000   0.91934593    -3.454828     666.5179  0.066044183  0.066039398            8 
  842000   0.92927298   -3.4321033    667.69477  0.066082222  0.066009032            3 
  843000   0.92423439   -3.4359276    669.71452  0.066203491  0.065978543            6 
  844000   0.91230845   -3.4362887    669.13987  0.066068313  0.065948735            6 
  845000   0.90841551   -3.4455468    668.62361  0.065939212  0.065918712            2 
  846000   0.92081045   -3.4420585    672.05794  0.066199561  0.065889135            3 
  847000   0.91708795   -3.4459299    670.34152   0.06595253  0.065859477            2 
  848000   0.91624826   -3.4478176    670.66935  0.065906972  0.065829174            4 
  849000    0.9058724   -3.4557294     666.7465  0.065444298  0.065798754            6 
  850000   0.91698653   -3.4311967    669.79343  0.065666022  0.065767423            3 
  851000   0.91048636   -3.4367543     669.7407  0.065583696  0.065736235            2 
  852000   0.91023126   -3.4537035    671.03167  0.065632988  0.065704653            4 
  853000   0.91522764    -3.462819    670.24693  0.065479379  0.065673614            6 
  854000   0.90234886   -3.4499202    670.36809  0.065414528  0.065643079            3 
  855000   0.91303009   -3.4539318    672.37918  0.065534033  0.065611879            2 
  856000   0.91349459   -3.4860955    670.87759  0.065311292  0.065580951            3 
  857000   0.90067289   -3.4621352    673.78691  0.065517981   0.06555003            2 
  858000   0.88531404   -3.4420354    671.91931  0.065260228  0.065519722            3 
  859000   0.90520704   -3.4582717     672.2938  0.065220586  0.065489323            2 
  860000   0.92569459    -3.451506    672.50931  0.065165631  0.065458194            4 
  861000   0.91322472   -3.4480426    673.16397  0.065153307  0.065427257            4 
  862000   0.91292041   -3.4543729    674.02407  0.065160873  0.065396431            4 
  863000    0.9109488   -3.4589341    675.26958  0.065205637  0.065365572            4 
  864000   0.91357016   -3.4643772    673.66839  0.064975733  0.065334467            3 
  865000   0.89821773   -3.4678723    675.27342  0.065055243  0.065303105            4 
  866000   0.88963475   -3.4785986    676.37885  0.065086494  0.065271914            4 
  867000   0.90363172   -3.4685681    678.28719  0.065194847  0.065240655            3 
  868000   0.91083037   -3.4741576    677.09193  0.065004985  0.065209656            2 
  869000   0.91437422   -3.4637892    675.94643  0.064820333  0.065178795            3 
  870000   0.92456662   -3.4680675    678.30766  0.064971998  0.065148174            4 
  871000   0.90792081   -3.4765916    678.54144   0.06491977  0.065117161            2 
  872000   0.92065299   -3.4791496    678.14138  0.064807089  0.065086066            1 
  873000   0.91444069   -3.4851044    675.36368  0.064467705  0.065055562            3 
  874000   0.89485196   -3.4600334    684.60731  0.065275297  0.065025027            3 
  875000   0.89804698   -3.4750757    681.73785  0.064927415  0.064994574            2 
  876000   0.91603866   -3.4840715    680.98236  0.064781426  0.064964342            2 
  877000   0.90860924    -3.479296    683.14105   0.06491268  0.064933828            2 
  878000   0.90161583   -3.4703146    684.52451  0.064970056   0.06490365            4 
  879000     0.889619   -3.4739642    682.16394   0.06467235  0.064872782            2 
  880000   0.91076137   -3.4675937    682.43236  0.064624276  0.064842122            2 
  881000    0.8988502   -3.4568471    682.03579  0.064513412   0.06481099            3 
  882000   0.90608734   -3.4431416    685.39631  0.064757777  0.064780658            3 
  883000   0.92139334   -3.4556046    687.77826  0.064909235  0.064750632            3 
  884000   0.90406176   -3.4799717    688.49858  0.064903712   0.06472052            4 
  885000   0.90528288   -3.4789521    685.80178  0.064576439  0.064690021            4 
  886000   0.88920931    -3.480214    686.04821  0.064526731  0.064659426            3 
  887000   0.89083925   -3.4733887     689.3713  0.064766187  0.064628993            2 
  888000   0.89955794   -3.4368658    688.27349   0.06459023  0.064598335            6 
  889000   0.89990031   -3.4761277    684.16235  0.064132204   0.06456711            2 
  890000   0.89804154   -3.4714075    686.63678  0.064291833  0.064535478            2 
  891000   0.91352581   -3.4615351    687.45254  0.064295973  0.064503833            4 
  892000   0.88447969   -3.4839906     683.7873  0.063881474  0.064471917            3 
  893000   0.88832084   -3.4867003    687.39534  0.064146635  0.064439804            2 
  894000   0.88285556   -3.4662382    685.25021  0.063874926  0.064407936            2 
  895000   0.90242817   -3.4673598    689.00823  0.064153467  0.064375909            3 
  896000   0.89106852   -3.4567737    687.65396  0.063955911  0.064344066            2 
  897000   0.89114408   -3.4785685    689.51279  0.064057301  0.064311967            2 
  898000   0.90626728   -3.4808901    688.58984  0.063900319  0.064279484            4 
  899000   0.89747661   -3.4786279    688.56637  0.063827064  0.064246828            3 
  900000   0.90818825   -3.4700744    690.79367  0.063962377  0.064214058            5 
  901000   0.89703017   -3.4806347    692.81205  0.064078066  0.064181725            2 
  902000   0.89830419   -3.4681793    693.48128  0.064068854   0.06414995            5 
  903000   0.88876483   -3.4851797    690.00899  0.063677463  0.064117535            4 
  904000   0.88792787   -3.4838322    692.43994  0.063831116  0.064085942            2 
  905000    0.9016262   -3.4912422    693.17173  0.063827968   0.06405482            3 
  906000   0.88603767    -3.484591    695.52839  0.063974281  0.064024257            3 
  907000     0.896412   -3.4805076    696.06787  0.063953314  0.063993154            4 
  908000   0.88055121   -3.4544227    697.98723  0.064059034  0.063961994            5 
  909000   0.90966192   -3.4732993    695.49997   0.06376054  0.063931311            1 
  910000    0.8854212   -3.4868211     695.1468  0.063658132  0.063899968            3 
  911000   0.89955011   -3.4630112     697.9813   0.06384754  0.063869034            4 
  912000   0.89084471   -3.4794499    696.90849  0.063679504  0.063838238            4 
  913000   0.87528252   -3.4859685    697.89245  0.063699566  0.063807676            3 
  914000   0.86810984   -3.4740489    700.12503  0.063833428  0.063777244            5 
  915000   0.88584558   -3.4698434    697.14801  0.063492533  0.063747477            6 
  916000   0.88683187   -3.4797217    701.72114   0.06383926  0.063716804            7 
  917000   0.88996366   -3.5169018    697.81204  0.063414399  0.063686601            2 
  918000   0.86471407   -3.4830662    700.49391  0.063588772  0.063656419            5 
  919000   0.90153186   -3.5069726     698.5945  0.063347343  0.063626025            2 
  920000   0.89049858   -3.4891367    701.86342  0.063574585  0.063595305            1 
  921000   0.89227309   -3.4883978    700.80183  0.063409504  0.063564987            2 
  922000    0.8740037   -3.5106514    701.55174  0.063408508  0.063534788            2 
  923000   0.90604887   -3.4892714    704.88513  0.063640767  0.063504878            4 
  924000    0.8851069   -3.4888774    706.25043  0.063695024  0.063475626            2 
  925000   0.89013434   -3.5021105    701.59132  0.063206425  0.063445459            3 
  926000   0.88258913   -3.4922338    706.13729  0.063547272  0.063415572            2 
  927000   0.89110776   -3.4658741    705.72109  0.063441306  0.063385536            3 
  928000   0.89086346   -3.5209022     706.2861   0.06342368  0.063355678            3 
  929000   0.87609698   -3.4716396    708.48503  0.063552658  0.063325597            3 
  930000   0.87356708    -3.505838    707.44846  0.063391439  0.063295747            2 
  931000    0.9018213   -3.4910107    707.22096  0.063302986  0.063266292            2 
  932000   0.87994123   -3.5180935    707.20739  0.063233851  0.063236731            5 
  933000   0.88426505   -3.4995813    708.23724   0.06325806   0.06320685            4 
  934000   0.87244751   -3.4825851    707.30903  0.063107516  0.063177178            5 
  935000   0.87782817   -3.5121678     706.1216  0.062934189   0.06314694            5 
  936000   0.86356023   -3.5009431     709.7909  0.063193634  0.063116789            4 
  937000   0.88167147   -3.5019284    710.53567  0.063192429  0.063086633            3 
  938000   0.85399727   -3.4803874    709.59856  0.063041805  0.063056054            4 
  939000   0.85537038   -3.5079061    710.63185  0.063066369  0.063026064            3 
  940000   0.89303141    -3.525744    708.94613  0.062849834  0.062995762            2 
  941000   0.88356251   -3.4966753    710.88503  0.062954749  0.062964962            2 
  942000   0.87661134   -3.5213383     713.3795   0.06310859  0.062934742            3 
  943000   0.88151331   -3.4984182    710.36012  0.062774843  0.062904604            4 
  944000   0.87655823   -3.4838215    712.26043  0.062876097  0.062874332            5 
  945000   0.88511792   -3.5087144    710.22958  0.062630475  0.062843842            5 
  946000    0.8817918   -3.5075187    710.98617  0.062630917  0.062813937            4 
  947000   0.87606284    -3.505848    714.42163  0.062867092  0.062783791            5 
  948000   0.89152151   -3.5205278     713.7096  0.062738185    0.0627535           11 
  949000   0.86973003   -3.5081551    717.35039   0.06299178  0.062723204            3 
  950000   0.88958069   -3.5385247    712.65782  0.062513844  0.062692921            4 
  951000   0.88374283   -3.4911446    715.10479  0.062662529  0.062661893            4 
  952000   0.88003504   -3.5352858    714.02074  0.062501816  0.062631006            2 
  953000   0.88542439   -3.5001067    715.86663  0.062597642  0.062600591            3 
  954000    0.8802636   -3.5453281    715.30016  0.062482543    0.0625696            7 
  955000   0.87585771   -3.5206517     714.4797  0.062345524  0.062538065            4 
  956000   0.86554261   -3.5035596     716.1286  0.062424041  0.062507038            2 
  957000   0.88348985   -3.5071027    715.17381  0.062275671  0.062476492            3 
  958000   0.88365642   -3.5008274    719.92497  0.062623954   0.06244539            5 
  959000    0.8634737   -3.4986449    718.42599  0.062428397  0.062414504            4 
  960000   0.86673693   -3.4944029    716.90811  0.062231607  0.062383618            3 
  961000   0.87288524   -3.5121349    717.08936  0.062182567  0.062352547            4 
  962000   0.87779464   -3.5171459    718.00057  0.062196861  0.062321503            3 
  963000   0.88202388   -3.5274949    717.64405  0.062101423  0.062290398            2 
  964000   0.87589216   -3.5087627    721.16132  0.062341054  0.062259503            7 
  965000   0.85699959   -3.5164407    720.00914  0.062176955  0.062228609            2 
  966000   0.87176648    -3.520957    720.44373   0.06215008  0.062197476            7 
  967000   0.86198666   -3.5067986    719.89125  0.062038198  0.062167113            3 
  968000   0.85756905   -3.5194455    721.18437  0.062085431  0.062136405            6 
  969000   0.86020173    -3.526054    721.70984  0.062066549  0.062105513            3 
  970000   0.87114723   -3.4841426    722.90161   0.06210495   0.06207549            3 
  971000    0.8662379   -3.4975831    723.30027  0.062075204  0.062045451            2 
  972000   0.86833845   -3.5517167    721.97186   0.06189745  0.062015137            2 
  973000   0.87516919   -3.5404605    722.35162   0.06186636  0.061984583            3 
  974000   0.86081047   -3.5363858    723.88845   0.06193433  0.061954348            6 
  975000   0.86577618   -3.5324191    724.94824  0.061961388  0.061924227            4 
  976000   0.87339992   -3.5147858     725.8313  0.061973301  0.061893872            4 
  977000    0.8391388   -3.4981387    721.83232  0.061568775  0.061863122            5 
  978000   0.85086655   -3.5380346     724.7911  0.061757933  0.061832279            3 
  979000   0.84323532   -3.5269307      724.792  0.061694927  0.061801492            5 
  980000   0.87818458   -3.5112125    727.06247   0.06182504  0.061770667            4 
  981000   0.87025226   -3.5290597    722.18204  0.061347438  0.061739845            2 
  982000   0.85816247   -3.5038555    726.87785  0.061683456   0.06170875            2 
  983000   0.86612303   -3.5382071    726.03796  0.061549505  0.061678247            2 
  984000   0.88120468   -3.5116102    729.47722   0.06177822  0.061647447            3 
  985000   0.87261763   -3.5025396    728.66835  0.061647068  0.061617255            3 
  986000   0.85053862   -3.5558184    726.57356  0.061407502  0.061586929            4 
  987000   0.89016217   -3.5646522    727.94248  0.061460864  0.061556117            3 
  988000   0.84961269   -3.5200685    728.81305  0.061472086  0.061525928            6 
  989000   0.86691321   -3.5059057    731.86845  0.061667378  0.061496216            3 
  990000    0.8671478   -3.5397567    729.70811  0.061423241  0.061466242            3 
  991000   0.86176063   -3.5203982    730.73942  0.061447983  0.061435948            8 
  992000   0.86427623   -3.5441457    730.68232  0.061381243  0.061405564            2 
  993000   0.87401281   -3.5182833     731.7059  0.061405329  0.061375467            4 
  994000   0.85804909   -3.5485749     731.8839  0.061358476  0.061345537            5 
  995000   0.87838172   -3.5189648    732.22118  0.061325057  0.061315793            5 
  996000   0.86064687   -3.5433241    732.42971  0.061280933   0.06128587            7 
  997000   0.84971754   -3.5376322    732.55627  0.061230046  0.061255952            4 
  998000   0.85207621   -3.5508174    735.61019  0.061423696  0.061225739            5 
  999000   0.86022772   -3.5255332    734.55746  0.061274396  0.061195801            2 
 1000000   0.85829868   -3.5470619    735.20797  0.061267331  0.061166371            5 
 1001000   0.87598944   -3.5496128    734.46302  0.061144107  0.061136729            3 
 1002000   0.84918571   -3.5129756    735.40564  0.061161481  0.061106782            5 
 1003000   0.85202291   -3.5778003    733.65276  0.060954865  0.061076737            3 
 1004000   0.86221278   -3.5269868    737.11579  0.061181589  0.061046644            9 
 1005000    0.8431043    -3.521475    739.87561  0.061349553  0.061016855            3 
 1006000   0.88215176   -3.5353522     736.6491  0.061021298  0.060986943            3 
 1007000   0.85875543   -3.5385422    736.99268  0.060989133  0.060957555            8 
 1008000   0.84269786   -3.5308335    739.39115  0.061126914  0.060928151            2 
 1009000   0.86136539   -3.5518002    736.20681  0.060803337  0.060898837            4 
 1010000   0.86959518   -3.5460112    740.62061  0.061107311  0.060869573            3 
 1011000   0.84723366   -3.5202322    740.15403   0.06100841  0.060840304            3 
 1012000   0.83913643   -3.5245709    739.24257   0.06087307  0.060810972            2 
 1013000   0.85005326   -3.5543188    741.89855   0.06103147  0.060782174            2 
 1014000   0.85079964   -3.5581525    744.36667  0.061174118  0.060753123            3 
 1015000   0.83473758   -3.5347879    740.09946  0.060763503  0.060724121            3 
 1016000   0.85081402   -3.5393116    743.14418  0.060953427   0.06069527            5 
 1017000   0.85345516   -3.5361955    742.04004  0.060803019  0.060667015            4 
 1018000   0.84685957   -3.5800975    743.49476  0.060862374  0.060638153            3 
 1019000   0.85040992   -3.5665136    745.08256  0.060932496  0.060609857            2 
 1020000   0.83911829   -3.5474308    743.30081  0.060727191  0.060581654            3 
 1021000   0.84380213   -3.5557791    745.19478  0.060822297   0.06055311            2 
 1022000   0.83561268   -3.5525367    743.64819  0.060636676  0.060524429            2 
 1023000   0.83457225   -3.5762795    746.58824  0.060816898  0.060496186            4 
 1024000   0.84362123    -3.532774    749.09361  0.060961394  0.060467435            2 
 1025000   0.85479194   -3.5363902    748.31166  0.060838346   0.06043929            3 
 1026000   0.85271373   -3.5467073    748.93657  0.060829806  0.060411051            6 
 1027000   0.85483625   -3.5553309    747.18257  0.060628252  0.060382697            4 
 1028000   0.83668299   -3.5745377    747.57205  0.060600847  0.060354729            5 
 1029000   0.83305279   -3.5452397    749.82833  0.060724679  0.060326683            2 
 1030000    0.8416126   -3.5779187    749.55459  0.060643575  0.060298817            3 
 1031000   0.84037347   -3.5791169    748.33096  0.060485852  0.060270686            2 
 1032000    0.8220846   -3.5544012    748.28586    0.0604236  0.060242261            2 
 1033000    0.8422277   -3.5445775    750.74282  0.060563312  0.060213974            4 
 1034000   0.84095217   -3.5686772    749.22363  0.060382304  0.060186106            6 
 1035000   0.84185007   -3.5798722    749.50142   0.06034633  0.060157775            3 
 1036000   0.82177635   -3.5565789    752.71508   0.06054658  0.060129192            6 
 1037000   0.82597116   -3.5431273    750.66093  0.060323122  0.060100573            2 
 1038000   0.85253113   -3.5601257    750.64759  0.060263936  0.060072345            5 
 1039000   0.83912928   -3.5562137    749.59276  0.060121332  0.060044224            4 
 1040000   0.82969129   -3.5619293    754.80494  0.060481165  0.060016152            6 
 1041000   0.84801713   -3.5758431    753.16591   0.06029186  0.059987684            1 
 1042000   0.85641064   -3.5620609     753.5248    0.0602627  0.059959719            2 
 1043000   0.82209541    -3.549731    756.03342  0.060405354  0.059931907            5 
 1044000   0.84506943    -3.578005    756.03732  0.060347807  0.059904313            3 
 1045000   0.83386661    -3.578465    756.06561  0.060292313  0.059876753            6 
 1046000   0.83127228   -3.5659908    757.12098  0.060318753  0.059848828            3 
 1047000   0.85085728   -3.6050021     755.7703  0.060153637   0.05982095            5 
 1048000   0.83116108   -3.5634633    759.05608  0.060357513  0.059793206            4 
 1049000   0.84696379   -3.5737443    757.62161  0.060186019  0.059765837            3 
 1050000   0.82361634   -3.5554782    757.09195  0.060086663  0.059738102            8 
 1051000   0.84097942    -3.559032    757.41494  0.060055102  0.059710954            3 
 1052000   0.80406857   -3.5715847    759.45583  0.060159682  0.059683685            7 
 1053000   0.84475665   -3.5903253    758.72922  0.060045047  0.059656201            3 
 1054000   0.84067226   -3.5577314    762.65743  0.060298658  0.059629377           14 
 1055000    0.8452275   -3.5691181    762.11742  0.060198848  0.059602435            7 
 1056000   0.83135969   -3.5619602    761.05034  0.060057634  0.059575142            5 
 1057000    0.8348037    -3.579084     761.0051  0.059997249  0.059548073            5 
 1058000   0.84148526   -3.5639791    764.06153   0.06018128  0.059521113            3 
 1059000   0.81616968   -3.5899023    763.52908  0.060082553  0.059493981            4 
 1060000   0.81148726   -3.5829529    765.82135  0.060206081  0.059466952            7 
 1061000   0.82897255   -3.5466871    766.00569  0.060163814  0.059440096            5 
 1062000   0.83387953   -3.5880487    762.08004  0.059799124  0.059412813            3 
 1063000   0.81964377    -3.556429    764.44506  0.059928273  0.059385898            3 
 1064000   0.82864748   -3.5893183    762.20135  0.059696221  0.059358712            3 
 1065000   0.82892698   -3.5632451    766.62127  0.059986015  0.059331542            4 
 1066000   0.83613741   -3.6037941    764.35339  0.059752454  0.059304333            2 
 1067000   0.81902814   -3.5886348    765.95132  0.059821253  0.059277446            3 
 1068000   0.82620736   -3.5781028     761.6586   0.05943029  0.059249913            3 
 1069000   0.82277471   -3.5631781    765.11814  0.059644383  0.059221974            4 
 1070000    0.8163145   -3.5985318    767.02769  0.059737359  0.059194158            6 
 1071000   0.83551682   -3.5994681     765.8638  0.059591021   0.05916698            9 
 1072000   0.80693756   -3.5745347    767.69616  0.059677873  0.059139443            5 
 1073000   0.82864083   -3.5803196    766.40362  0.059521871  0.059112194            5 
 1074000   0.81496779   -3.6043374    766.38076  0.059464677   0.05908439            3 
 1075000   0.82692419    -3.586359    766.47206  0.059416438  0.059056453            5 
 1076000   0.82536635    -3.576125    768.90722  0.059549816  0.059028909            2 
 1077000   0.83770826   -3.5895412    769.04014  0.059504808  0.059001123            3 
 1078000   0.80603667   -3.5918911    767.52749  0.059332675  0.058973149            3 
 1079000   0.83065844   -3.6081228    766.89535  0.059228866  0.058945017            4 
 1080000   0.81439252   -3.5604881    767.85851  0.059248342  0.058916798            3 
 1081000    0.8356004   -3.5879174    768.59417  0.059250245  0.058888774            7 
 1082000    0.8273996   -3.5727786    770.03739  0.059306638  0.058860896            4 
 1083000   0.81629551   -3.6072602    766.76755  0.059000273  0.058833029            3 
 1084000   0.82192022   -3.6043352    768.55738  0.059083439  0.058804727            3 
 1085000   0.81363917   -3.5738111    770.76407  0.059198469  0.058776807            3 
 1086000   0.82827286   -3.5875341    769.31861  0.059033043  0.058748732            6 
 1087000   0.80270798   -3.6168342     766.6989  0.058777898  0.058720311            4 
 1088000   0.82342553   -3.6005107    770.42355  0.059009157  0.058692297            8 
 1089000    0.8155883   -3.5894074    771.38232  0.059028338  0.058664187            6 
 1090000   0.81830904    -3.629457    772.17127  0.059034501  0.058636314            4 
 1091000   0.80519377   -3.5984423    771.52681  0.058931165  0.058608735            6 
 1092000   0.81310128   -3.6024981    772.38357   0.05894258  0.058581293            4 
 1093000   0.82556657   -3.5854862    774.17395  0.059025156  0.058553568            5 
 1094000   0.81940339   -3.6101517    774.20779  0.058973781  0.058525911           10 
 1095000    0.8245068   -3.6200844     772.8188  0.058814216  0.058498578            5 
 1096000   0.82862743   -3.6073533    773.04519  0.058777767  0.058470848            3 
 1097000   0.80252285   -3.5770867    778.82223  0.059163038  0.058443801            6 
 1098000   0.81080506   -3.6254706    777.56816  0.059013977  0.058417327            6 
 1099000   0.81736649   -3.5895338    778.09494  0.059000223  0.058389944            3 
 1100000   0.80973539   -3.6239435    776.91989  0.058857567  0.058362944            2 
 1101000   0.80660006   -3.6103926    779.27405  0.058982293  0.058335952            9 
 1102000   0.83022869   -3.6226896     776.8055  0.058742098  0.058308846            4 
 1103000   0.79693804   -3.5811867    777.94275  0.058774762  0.058281832            9 
 1104000   0.82371416   -3.6125988    778.70105  0.058778763  0.058255047            2 
 1105000   0.81942013   -3.6276044    777.43265  0.058629914  0.058227907            5 
 1106000   0.81154009   -3.5834326    780.51311  0.058809005  0.058200908            4 
 1107000   0.80647113   -3.6301359    779.89545  0.058709384  0.058174112            4 
 1108000    0.8207656   -3.6166849    778.49939  0.058551398  0.058147085            5 
 1109000   0.80295504   -3.6329512    777.04991  0.058389684  0.058119802            5 
 1110000   0.80500473   -3.6321382    780.05923  0.058563005  0.058092641            3 
 1111000    0.8158973   -3.6243908    778.66998  0.058406089   0.05806531            5 
 1112000   0.82397744    -3.615362     780.1134  0.058461736  0.058037905            3 
 1113000   0.81251048   -3.5893563    781.75933  0.058532445  0.058010896            4 
 1114000   0.81505679   -3.5990649    782.59228  0.058542211  0.057984054            2 
 1115000   0.79935466   -3.5755214    781.40398  0.058400895  0.057957617            8 
 1116000   0.80869176   -3.6091975     783.9884  0.058541547  0.057931143            2 
 1117000   0.80095403   -3.6320366     784.7159  0.058543412  0.057904918            5 
 1118000   0.83422272    -3.628737    783.20033   0.05837808  0.057878307            4 
 1119000   0.79553058   -3.6090171     786.9712  0.058606732  0.057851804            4 
 1120000   0.81832264   -3.6095052    786.03731  0.058484919  0.057825336           10 
 1121000   0.79922734   -3.6009493     786.2249  0.058446692  0.057798772            3 
 1122000   0.80502428   -3.5939055    788.00763  0.058527007  0.057772623            4 
 1123000   0.78937448    -3.608203    787.07828  0.058405928  0.057746484            4 
 1124000   0.81613208   -3.6175709    788.39856  0.058451851  0.057719912            3 
 1125000   0.79172422    -3.613374    786.83501  0.058284075  0.057693412            7 
 1126000   0.79061859    -3.606037    789.80391  0.058452036  0.057666995            3 
 1127000   0.78856925   -3.6166337    789.09978  0.058348106  0.057640809            4 
 1128000   0.80504077   -3.6109781    788.45029  0.058248396  0.057614508            5 
 1129000   0.81383402    -3.629874    789.30502  0.058259892  0.057587941            3 
 1130000   0.79174905   -3.6184119    789.25618  0.058204733  0.057561587            3 
 1131000   0.80345089   -3.6420754    790.12814  0.058217517  0.057535299            7 
 1132000   0.77610694   -3.6017007    792.18434  0.058317458  0.057509207            8 
 1133000   0.82553845   -3.6210798    789.18717  0.058045541  0.057482885            6 
 1134000   0.79706077   -3.6331378    790.36966  0.058081251  0.057456191            7 
 1135000   0.79259843   -3.6209657    792.56544  0.058191295  0.057429586            2 
 1136000   0.80143244   -3.6343096    791.90931  0.058091939   0.05740303            3 
 1137000    0.8020358   -3.6297316    790.86307  0.057964165  0.057376624            5 
 1138000   0.80197604   -3.6165754    792.82266  0.058056727  0.057350413            4 
 1139000   0.78999143   -3.5992377    791.09316  0.057879219  0.057324229            5 
 1140000   0.80170153   -3.6378686      794.489  0.058076681  0.057298217            4 
 1141000   0.79456417   -3.6469945    794.36461  0.058016697   0.05727197            4 
 1142000   0.80134536   -3.6067222    795.93777  0.058080689  0.057245948            4 
 1143000   0.80007733   -3.6556111    793.92312  0.057882992  0.057220249            6 
 1144000   0.81180746    -3.623771    793.16224  0.057776969  0.057194665            3 
 1145000   0.78567709   -3.6170016    797.38216  0.058033636  0.057169115            6 
 1146000   0.79315753   -3.6211626    797.80474  0.058013725  0.057143757            3 
 1147000   0.79022454   -3.6255751    795.11855  0.057767985  0.057118427            4 
 1148000   0.79329993   -3.6205745    797.21048  0.057869518  0.057092909            4 
 1149000    0.7948247   -3.6235772    799.21492  0.057964528   0.05706815            5 
 1150000   0.79067229   -3.6234511    800.03907  0.057973846  0.057042973            3 
 1151000   0.79566291   -3.6632264    798.83165  0.057836059  0.057017914            4 
 1152000   0.78844142   -3.6218142    799.86499  0.057860604  0.056992493            8 
 1153000   0.79918905   -3.6216709    801.43297  0.057923747  0.056967157           10 
 1154000   0.78070127   -3.6578769    799.50597    0.0577344  0.056941681            2 
 1155000   0.79123763    -3.637631     800.9254  0.057786825  0.056916277            4 
 1156000   0.78167091    -3.627849    801.44133  0.057774029  0.056891161            4 
 1157000   0.78908595   -3.6626473    801.10945  0.057700191  0.056866196            4 
 1158000   0.79096497   -3.6649488    799.54106  0.057537497  0.056840965            7 
 1159000   0.78724631   -3.6317484    802.79965  0.057722149  0.056816242            4 
 1160000   0.77038445    -3.617604     805.1559   0.05784166  0.056791238            3 
 1161000   0.80588279   -3.6331661    804.18923  0.057722454  0.056766227            4 
 1162000   0.79335687   -3.6319531    800.35037  0.057397473  0.056741463            4 
 1163000   0.77281025   -3.6673125    802.09458    0.0574731  0.056716313            3 
 1164000   0.79322409   -3.6330853    805.10847  0.057639495  0.056691004            6 
 1165000   0.80610845   -3.6614524     804.4453  0.057542582  0.056666113            2 
 1166000   0.78771788   -3.6572701    805.11625  0.057541184  0.056641086            7 
 1167000    0.7812402   -3.6605311    804.66892  0.057459934  0.056616178            3 
 1168000   0.80154499   -3.6356692    808.55505  0.057688003  0.056591478            3 
 1169000   0.78728808   -3.6430504    804.92507  0.057379888  0.056566774            4 
 1170000   0.80349699   -3.6428954    808.88635  0.057612988  0.056542249            5 
 1171000   0.77654343   -3.6539798    808.20474  0.057515282  0.056517802            4 
 1172000   0.77833551   -3.6663323    808.34156  0.057475936  0.056493093            4 
 1173000   0.77510063   -3.6544573     808.0653   0.05740731  0.056468385            4 
 1174000   0.77888974   -3.6397607    809.95807  0.057492765  0.056443987            5 
 1175000   0.75729537   -3.6605939    808.64989  0.057351056  0.056419893            5 
 1176000   0.77411381   -3.6485771    812.01075  0.057540445  0.056395623            3 
 1177000   0.78707525   -3.6462761    809.39359  0.057306258  0.056371102            2 
 1178000   0.78728341   -3.6351488    813.42658   0.05754291  0.056346853            9 
 1179000   0.80000962   -3.6434694    813.48534  0.057498257  0.056322594            4 
 1180000   0.77615724   -3.6469315    811.38213  0.057300998  0.056298457            4 
 1181000   0.79055529   -3.6279366    811.82944  0.057284042  0.056274016           11 
 1182000   0.80089014   -3.6590657    809.91817   0.05710083   0.05624982            5 
 1183000   0.77123104   -3.6533962    810.73811  0.057110321  0.056225504            2 
 1184000   0.78262757   -3.6164407    814.82808  0.057349949  0.056201146            5 
 1185000   0.78463257   -3.6549791    811.54579  0.057070731  0.056176814            3 
 1186000   0.80107776   -3.6537716    812.51434  0.057090665  0.056152278            4 
 1187000   0.76219367   -3.6651281    814.86732  0.057207759  0.056127708            4 
 1188000   0.76529019   -3.6622444    816.76022  0.057292383  0.056103441            4 
 1189000    0.7744309   -3.6566909    813.18218  0.056993425  0.056079087            3 
 1190000   0.76501929   -3.6626119    814.75991  0.057056016   0.05605494            8 
 1191000   0.78794581   -3.6435345    813.85967  0.056945121  0.056030489            4 
 1192000   0.77270445   -3.6709299    813.49927  0.056872152  0.056005884            5 
 1193000   0.78107085   -3.6758126    814.12319  0.056868063   0.05598091            2 
 1194000   0.76343578   -3.6456323    816.39567  0.056979039   0.05595605            5 
 1195000    0.7748063   -3.6636208    815.00233  0.056834193  0.055931919            9 
 1196000   0.79007586   -3.6736071    815.63637  0.056830851  0.055907667            3 
 1197000   0.79969671   -3.6319263    819.96664   0.05708484  0.055883453            6 
 1198000   0.78192834   -3.6560341    817.21382  0.056845702  0.055859383            4 
 1199000   0.76817431   -3.6742413    817.37637   0.05680959  0.055835386            5 
 1200000   0.78061788   -3.6686499    816.92307  0.056730768  0.055811182            3 
 1201000    0.7704045   -3.6474405    819.40212  0.056855545  0.055787359            4 
 1202000   0.78860721   -3.6709737    820.09062  0.056855978  0.055763347            4 
 1203000   0.77210494   -3.6608544    821.04806  0.056875039  0.055739582            4 
 1204000   0.79090301   -3.6597426    821.22565  0.056840092  0.055715831           11 
 1205000   0.77718579   -3.6639092    821.53357  0.056814216  0.055692043            5 
 1206000   0.77835181   -3.6621211    822.69059  0.056847056  0.055668111            3 
 1207000   0.77196913   -3.6682739    823.13831  0.056830869  0.055644163           12 
 1208000    0.7656464   -3.6679522    821.56334  0.056675175  0.055620242            4 
 1209000   0.76351783   -3.6588015    820.70737  0.056569297  0.055596327            6 
 1210000    0.7667608   -3.6583341    821.30603  0.056563776  0.055572061            4 
 1211000   0.77635616   -3.6774635    822.21396  0.056579546  0.055547837            6 
 1212000   0.77696705   -3.6592223     821.6296  0.056492684  0.055523524            5 
 1213000   0.77230473   -3.6810688    822.75704  0.056523567  0.055499132           10 
 1214000   0.78279528   -3.6765685     821.6198  0.056398943  0.055474961            6 
 1215000   0.78721404   -3.6877112    825.48182  0.056617409  0.055450675            4 
 1216000   0.77428299   -3.6548899    822.91517  0.056394954  0.055426574            6 
 1217000   0.75428629   -3.6662013    825.88663  0.056552083  0.055402588            6 
 1218000    0.7704613   -3.6754986    823.05448  0.056311883  0.055378547            7 
 1219000   0.76337159   -3.6986268    823.72822  0.056311746  0.055354385            4 
 1220000   0.77287325     -3.68543    824.08353  0.056289859  0.055330014           10 
 1221000   0.75830734   -3.6835605    822.52715  0.056137534  0.055305518           14 
 1222000   0.76406943   -3.6467255    825.78277  0.056313609  0.055281068            8 
 1223000   0.75992934   -3.6721989    824.50942    0.0561808  0.055256935            7 
 1224000   0.76542109   -3.6900913    825.74967   0.05621934  0.055232452            4 
 1225000   0.75841591    -3.681075    827.98048  0.056325202  0.055208023            7 
 1226000   0.75093631   -3.6775181    825.71421  0.056125218  0.055183878            3 
 1227000   0.76309204   -3.6789353    826.02376    0.0561005  0.055159609            3 
 1228000   0.78051557   -3.6743018     827.1883  0.056133842  0.055135499            4 
 1229000   0.75871037    -3.682911    827.57116  0.056114128  0.055111168            2 
 1230000   0.75620743   -3.7071172    824.73232  0.055876174  0.055086699            9 
 1231000   0.75051092    -3.678876    828.26256  0.056069764  0.055062044            3 
 1232000   0.75621841   -3.6682583    827.06745  0.055943415  0.055037367            7 
 1233000   0.75458263   -3.6779285    827.89931  0.055954265  0.055012746            4 
 1234000   0.75815749   -3.6980287    824.35703  0.055669707  0.054987908            6 
 1235000   0.76555672   -3.6893461    829.20774  0.055951939  0.054963244            3 
 1236000   0.74605628   -3.7039384    828.47679  0.055857389  0.054938813            5 
 1237000   0.75011891   -3.6924071    826.65684  0.055689628   0.05491424            4 
 1238000   0.77331812   -3.6937853    830.46212  0.055900789  0.054889839            4 
 1239000   0.75220467   -3.6905665    828.28205  0.055709043  0.054865623            6 
 1240000   0.76424094    -3.693825    829.41995  0.055740588  0.054841227            5 
 1241000   0.75822119   -3.7155123    827.59925  0.055573412  0.054816707            5 
 1242000   0.73182308   -3.7062895    829.43299  0.055651704  0.054792444            8 
 1243000   0.76986663   -3.6664348    831.80413  0.055765898  0.054768205            3 
 1244000   0.76509402   -3.6896797     833.0479  0.055804388  0.054743818            5 
 1245000   0.78045819   -3.6961529    832.69195   0.05573574  0.054719549            5 
 1246000   0.76433385   -3.7031146    832.42537  0.055673179  0.054695416            6 
 1247000   0.74333862   -3.6968169    833.67773  0.055712224  0.054671427            7 
 1248000   0.75508866   -3.6991618     834.2321  0.055704601   0.05464747            5 
 1249000   0.74713745   -3.7035244    835.44383  0.055740848  0.054623439            7 
 1250000   0.75625537   -3.6980095    834.42392  0.055628261  0.054599286           10 
 1251000   0.77002353   -3.6806403      832.346  0.055445377  0.054574891            7 
 1252000   0.75122576   -3.6996165    835.67779  0.055622856  0.054550413            5 
 1253000   0.75044878   -3.7027149    832.50274  0.055367301   0.05452615            5 
 1254000   0.76069197   -3.6885939    834.81617  0.055476885  0.054501958            2 
 1255000   0.75906205   -3.7158093    833.82161  0.055366641  0.054477472            3 
 1256000   0.76221579    -3.700057     835.2011  0.055414086  0.054452883           18 
 1257000   0.76188353   -3.6898624     835.2016  0.055370035  0.054428391            3 
 1258000   0.75267324   -3.7022202    835.40561  0.055339534  0.054403823            3 
 1259000   0.75147699   -3.6802235    837.20131  0.055414437  0.054379358            6 
 1260000   0.75990103   -3.7336212     838.4652  0.055454048   0.05435502            5 
 1261000   0.74999602   -3.7019337    838.44095  0.055408469  0.054330579            4 
 1262000   0.75333856    -3.693774    838.78318  0.055387162   0.05430634            4 
 1263000     0.754175    -3.694086    835.69418  0.055139494  0.054281961            4 
 1264000   0.74402531    -3.686317     839.6309  0.055355413  0.054257717            5 
 1265000   0.73263584   -3.7412512    838.44542  0.055233558  0.054233049            4 
 1266000   0.75331883   -3.7170069    835.13817  0.054972234  0.054208059            3 
 1267000   0.73641459   -3.6920162    838.21185  0.055131008  0.054183466            6 
 1268000   0.75543987   -3.7001787    843.61974  0.055442938  0.054159051            3 
 1269000   0.74538037   -3.7427068    836.17812  0.054910567  0.054134694            4 
 1270000   0.74444763   -3.7019168    836.38407  0.054880844  0.054109745           10 
 1271000   0.74631771   -3.6993775    839.75069  0.055058398  0.054085356            2 
 1272000   0.74536585   -3.7270444    837.72351  0.054882305  0.054060796            8 
 1273000   0.74859307   -3.6996618    840.44227  0.055017169  0.054036043            4 
 1274000   0.75601522   -3.7069229    839.31012  0.054899929  0.054011283            4 
 1275000   0.74649241   -3.7427224    840.72155  0.054949121  0.053986444            3 
 1276000   0.73779664   -3.7129382    841.19421  0.054936926  0.053961744            5 
 1277000   0.74115655   -3.7163128    839.40348  0.054777048  0.053936935           15 
 1278000   0.72287457   -3.7079929    839.10902  0.054714986  0.053912186            5 
 1279000   0.72888297   -3.7248431    839.95637  0.054727415   0.05388759            5 
 1280000   0.75384341   -3.7210722    842.94849  0.054879459  0.053862917            3 
 1281000   0.74663322   -3.7177644    842.24717  0.054790995  0.053838337            5 
 1282000   0.73608541   -3.6985985    841.34284  0.054689472  0.053814035           11 
 1283000   0.74372615   -3.7261914     843.5736  0.054791738  0.053789439            5 
 1284000   0.74731938   -3.7272011    843.74409  0.054760131  0.053764885            6 
 1285000   0.74196907   -3.7410585    842.62551  0.054644975  0.053740548            6 
 1286000   0.75503379   -3.7304735    844.84341  0.054746203  0.053716018            4 
 1287000   0.73357142    -3.734904     844.1706  0.054660101  0.053691531            4 
 1288000   0.72271175   -3.7158451    843.10968  0.054549022  0.053666597            6 
 1289000    0.7374137   -3.7332365    840.40938   0.05433213  0.053641613            4 
 1290000   0.74638774    -3.734905    843.64845  0.054499254  0.053616482            6 
 1291000   0.74373059   -3.7334377    839.39153  0.054182257  0.053591441            4 
 1292000   0.74145653   -3.7285704    841.89336  0.054301687  0.053566101            4 
 1293000   0.72523953    -3.729288    842.85972  0.054321972  0.053540992            8 
 1294000    0.7390561   -3.7290208     842.6816  0.054268521  0.053515923            3 
 1295000   0.72915533   -3.7063079    845.40672  0.054401977  0.053490827            8 
 1296000    0.7540536   -3.7249339    843.53674  0.054239759  0.053465642            7 
 1297000   0.74320841   -3.7600419    840.18365  0.053982501   0.05344039           10 
 1298000    0.7251524   -3.7119983    843.92278   0.05418097  0.053415216            3 
 1299000   0.73588025       -3.729    845.84274  0.054262429  0.053390178           10 
 1300000   0.73659742   -3.7504339    843.26717  0.054055588  0.053364994            3 
 1301000   0.73957594   -3.7563141    842.75759  0.053981398    0.0533397            6 
 1302000   0.73467966   -3.7253418    846.82424   0.05420022  0.053314707            7 
 1303000   0.73591567   -3.7437475    845.70954  0.054087333  0.053289813            3 
 1304000   0.72193139   -3.7394835     845.2076  0.054013778  0.053264666            5 
 1305000   0.72246373   -3.7444404    847.90315  0.054144518  0.053239786            4 
 1306000   0.72286325   -3.7344608     844.6721  0.053896892  0.053214678            4 
 1307000   0.75050947   -3.7439106    846.54597  0.053975132  0.053189847            4 
 1308000   0.72558656   -3.7310281    844.55509  0.053807027  0.053164946            4 
 1309000    0.7284322   -3.7563144    844.10127   0.05373703  0.053139747            6 
 1310000    0.7408485    -3.744313    845.72789  0.053799484  0.053114373            9 
 1311000   0.72566058   -3.7619296     845.5683  0.053748303  0.053089199            6 
 1312000   0.71281762   -3.7369123    846.33943  0.053756315  0.053063883           10 
 1313000   0.75081727   -3.7646621    848.29311   0.05383937  0.053038761            5 
 1314000   0.74485942   -3.7445819    847.31338  0.053736262  0.053013259            4 
 1315000   0.72690508   -3.7498873    848.15481  0.053748721  0.052987958            4 
 1316000     0.716304   -3.7533221    848.15226  0.053707717  0.052962558            3 
 1317000   0.71786146    -3.722769    847.32705  0.053614721  0.052937333            9 
 1318000   0.71978311   -3.7535488    847.75884  0.053601343   0.05291192           12 
 1319000   0.73661564   -3.7488579     845.9923  0.053449096  0.052886601            8 
 1320000   0.70790364   -3.7476325    849.14809  0.053607834  0.052861123            2 
 1321000   0.73210108   -3.7439405    849.46816  0.053587444  0.052835901            6 
 1322000   0.73314206   -3.7395927    850.46071  0.053609475  0.052810634            6 
 1323000   0.71969241    -3.745554    850.50992  0.053572054  0.052785734            4 
 1324000   0.71130366   -3.7733346    850.80443  0.053550128  0.052760583            5 
 1325000   0.73772291   -3.7553103     854.7088   0.05375527   0.05273581            7 
 1326000   0.72811704   -3.7653744    849.10948  0.053362838  0.052710876            3 
 1327000   0.71451326   -3.7536508    848.38659  0.053277228  0.052685536            6 
 1328000   0.72880522   -3.7241042    850.57982  0.053374738  0.052660382            9 
 1329000     0.741338   -3.7505945    850.11505  0.053305433  0.052635482            7 
 1330000   0.72888883   -3.7494676    851.73761  0.053367018  0.052610139            3 
 1331000   0.73035308   -3.7292979    848.98001  0.053154271  0.052585111            4 
 1332000   0.72649802   -3.7515063     850.5847  0.053214759  0.052559962            7 
 1333000   0.71699061   -3.7550874    854.07357  0.053392947   0.05253462            9 
 1334000   0.70635228   -3.7816306    851.47128   0.05319036   0.05250916            9 
 1335000   0.72317814   -3.7570927    852.41209  0.053209244  0.052483738            4 
 1336000     0.719547   -3.7553912     853.8863  0.053261371  0.052458722            8 
 1337000   0.71587643   -3.7540375     854.4252  0.053255124  0.052433524            6 
 1338000   0.72036332   -3.7542951    852.32787  0.053084696  0.052408233            5 
 1339000   0.71188317   -3.7886229    853.19853  0.053099237  0.052382674            6 
 1340000   0.73568096   -3.7503679    851.50527  0.052954308  0.052357064            9 
 1341000   0.71350407   -3.7648414    852.08539  0.052950869  0.052331389            8 
 1342000   0.71264382   -3.7482188    851.15231  0.052853472  0.052305968            6 
 1343000   0.72899627   -3.7884543     851.6875  0.052847326  0.052280555            4 
 1344000   0.74434552   -3.7460246    850.38801  0.052727431  0.052254992            5 
 1345000   0.71567694   -3.7469213    854.27705  0.052929185  0.052229599            5 
 1346000   0.71663599   -3.7610494    852.82079  0.052799702  0.052203641            9 
 1347000   0.71959109   -3.7664162     853.6706  0.052813078  0.052177893            5 
 1348000   0.72598245   -3.7624018    854.28285  0.052811749  0.052151832            4 
 1349000   0.72501539    -3.746574    855.12394  0.052824557  0.052125925           10 
 1350000   0.71063671   -3.7426242    852.92158   0.05264948  0.052100115            3 
 1351000   0.69488891   -3.7757303    849.74375  0.052414492  0.052074158            7 
 1352000   0.70985829    -3.782816    851.36721   0.05247579  0.052047735            5 
 1353000   0.70305699    -3.763318    854.25068  0.052614602  0.052021251            4 
 1354000   0.72491454   -3.7795146    856.70212   0.05272662  0.051994975            8 
 1355000   0.72397951   -3.7537921     853.9356  0.052517565  0.051968905            5 
 1356000   0.71438038   -3.8097435    852.38371  0.052383463   0.05194267            4 
 1357000   0.70957899   -3.7528067    853.22333  0.052396422  0.051916602            4 
 1358000   0.71091891   -3.7740008    853.82973   0.05239505   0.05189061            9 
 1359000   0.72010024   -3.7455244    855.81946  0.052478505  0.051864331            4 
 1360000    0.7262115   -3.7732591    854.61751  0.052366269  0.051838079            6 
 1361000   0.71566253   -3.7620396    858.87543  0.052588503  0.051811966            5 
 1362000   0.70346868   -3.7664628    854.79254  0.052300082  0.051785853            5 
 1363000   0.70383401   -3.7965653    854.79424  0.052261814   0.05175971            4 
 1364000   0.70465239   -3.7629461    857.09812  0.052364255  0.051733704            3 
 1365000   0.70620741   -3.7998524    854.25341  0.052152223   0.05170762            5 
 1366000   0.71803692   -3.7708509    855.82493  0.052209915   0.05168133            5 
 1367000   0.70219608   -3.7682648      857.954  0.052301512  0.051655459            5 
 1368000   0.69836835   -3.7866754    857.88946  0.052259348  0.051629338            4 
 1369000   0.70953217   -3.7818792    858.46897  0.052256451  0.051603406            7 
 1370000   0.70888657   -3.7689521    857.76274  0.052175349  0.051577082            4 
 1371000   0.69929173   -3.7772449    857.16015  0.052100666  0.051550813            4 
 1372000   0.70175168   -3.7441176    859.72001  0.052218173  0.051524602            5 
 1373000   0.69517579   -3.7765131     857.6276  0.052053144  0.051498489            6 
 1374000   0.71375597   -3.7853187      855.051  0.051858988  0.051472164            6 
 1375000   0.71219287   -3.7900983    854.92911  0.051813886  0.051445834            8 
 1376000   0.69788936   -3.7838875     854.8015  0.051768502  0.051419615            6 
 1377000   0.71796544    -3.781594    857.44691  0.051891002   0.05139313            9 
 1378000   0.70319519   -3.7569877    858.14633  0.051895641  0.051366894            6 
 1379000   0.70732513   -3.7681649    857.38232  0.051811839  0.051340839            5 
 1380000   0.71355383   -3.7756763    858.42874  0.051837484  0.051314621            7 
 1381000   0.69708874   -3.8123973    857.62571  0.051751491  0.051288299            4 
 1382000   0.71639274   -3.7955299    858.36054  0.051758354  0.051261668            8 
 1383000    0.6976662   -3.8095794     857.6882  0.051680417  0.051235276            8 
 1384000   0.69306181   -3.7905801    858.85866  0.051713551  0.051208798            6 
 1385000   0.70587933    -3.800783    860.50178  0.051775077  0.051182374            5 
 1386000   0.71154171   -3.8075555    854.90737  0.051401357   0.05115599            7 
 1387000    0.7036636   -3.8008238    858.45051  0.051577176  0.051129243            7 
 1388000   0.69502771   -3.8081052    859.21704  0.051586037   0.05110256            6 
 1389000   0.69683267   -3.7908144    857.80763  0.051464341  0.051076053            9 
 1390000   0.70463662   -3.7921054    858.92425  0.051494259  0.051049605            5 
 1391000   0.69958745   -3.8179102    857.86764   0.05139394  0.051022992            9 
 1392000    0.7058452   -3.8086495    857.95378  0.051362175  0.050996108            3 
 1393000   0.68305398   -3.8054149    854.82598   0.05113819  0.050969193            8 
 1394000   0.71141484   -3.7930638    855.82434  0.051161187  0.050942149           13 
 1395000   0.67933483    -3.780696    860.04633  0.051376722  0.050915029           11 
 1396000    0.6976735   -3.8058784    855.00446  0.051038948  0.050888301            6 
 1397000   0.68620448    -3.799971    858.57484  0.051215392  0.050861407            9 
 1398000   0.70926512   -3.7898802    860.05213  0.051266817  0.050834573            4 
 1399000   0.70499445   -3.8065178    858.25196  0.051122943  0.050807667            6 
 1400000   0.68789039   -3.8042402    858.45305  0.051098396   0.05078081           26 
 1401000    0.6924856   -3.8143129    860.39502  0.051177434   0.05075411            4 
 1402000    0.6997675   -3.8136068    857.62719  0.050976414  0.050727286            6 
 1403000   0.68956137   -3.8072584    860.11971  0.051088127  0.050700359            8 
 1404000   0.68828968   -3.7934858    860.21063  0.051057136  0.050673629            3 
 1405000   0.69691331    -3.813267     859.9197  0.051003541  0.050646572            7 
 1406000   0.70185061    -3.807261    859.08918  0.050918041  0.050619382           14 
 1407000   0.68651589   -3.7923591    861.63333  0.051032536  0.050592334           16 
 1408000   0.68775003   -3.8104264    858.48511  0.050809962  0.050565471            8 
 1409000   0.66884689   -3.7983933    860.68631  0.050904087  0.050538667            5 
 1410000   0.69213749   -3.8156018    860.51279   0.05085773  0.050511884            6 
 1411000   0.69095549   -3.7977238    861.97476   0.05090803  0.050484868           10 
 1412000   0.69332189   -3.8147113    861.43497  0.050840118  0.050457986            7 
 1413000   0.67295855   -3.8145907    861.87501   0.05083009  0.050431194            8 
 1414000   0.67986293     -3.81629    864.51902  0.050949966  0.050404402            5 
 1415000   0.69901819    -3.823258    861.82829  0.050755494  0.050377632            7 
 1416000   0.68278458     -3.79859    862.09052  0.050735082  0.050350796            8 
 1417000   0.68543586   -3.7737727    861.66806  0.050674433  0.050323882            8 
 1418000   0.69237196   -3.7896095     861.1663  0.050609209  0.050296899           11 
 1419000   0.69316176   -3.8182605    859.92076  0.050500397  0.050270204            9 
 1420000   0.69308094   -3.8266512    860.73714  0.050512743   0.05024309            6 
 1421000   0.68948851   -3.8427334    861.32318  0.050511563  0.050215972            6 
 1422000   0.68416636   -3.8162219    865.13557  0.050699459  0.050188853            8 
 1423000   0.66915585   -3.8205032    861.65324  0.050459899  0.050161905            5 
 1424000   0.68787505   -3.8196872    861.45863  0.050413075  0.050134944            5 
 1425000   0.69241997   -3.8332721     862.4459  0.050435433  0.050108021            5 
 1426000   0.69403225    -3.831418    862.07908  0.050378628   0.05008095            6 
 1427000   0.69520421   -3.8348861    862.93327  0.050393207  0.050053941            5 
 1428000   0.70112619   -3.8178398    862.66282  0.050342135  0.050027029           15 
 1429000   0.67356785   -3.8148974    862.45635  0.050294865   0.05000007            9 
 1430000   0.67669891   -3.8015783    865.21766   0.05042061  0.049973244            4 
 1431000   0.68536424   -3.8133496     863.5225  0.050286658  0.049946474            6 
 1432000    0.6771629   -3.8164429     865.3164  0.050355936  0.049919686            5 
 1433000   0.67529416   -3.8556038     864.0414   0.05024665  0.049892661            9 
 1434000   0.67232002   -3.8440389     862.2858  0.050109589  0.049865601            9 
 1435000    0.6731144   -3.8369635    863.03582  0.050118224  0.049838675            6 
 1436000   0.67115896   -3.8327781    862.51381   0.05005303  0.049811637            8 
 1437000   0.67854054    -3.812237    863.78848  0.050092118   0.04978493            7 
 1438000   0.68155606   -3.8186623    864.10989  0.050075909  0.049758165            8 
 1439000   0.67267754   -3.8342276    865.01659  0.050093618  0.049731108            6 
 1440000   0.66986643   -3.8319078     865.1556  0.050066875  0.049704324            6 
 1441000   0.67648873   -3.8014803    866.81294  0.050127975  0.049677389            7 
 1442000   0.66403017   -3.8442179    865.54029  0.050019665  0.049650532            6 
 1443000   0.66666009   -3.8408446    864.43489  0.049921165  0.049623358            5 
 1444000    0.6928998   -3.8201572    865.91947  0.049972268  0.049596262            6 
 1445000   0.69944244   -3.8632074    863.23142  0.049782666  0.049569185            4 
 1446000   0.67670121   -3.8102706    865.76937    0.0498945  0.049541905            7 
 1447000   0.67631939   -3.8323889      864.617  0.049793653  0.049514747           13 
 1448000   0.68992443   -3.8284406    866.21631  0.049851307  0.049487795            4 
 1449000    0.6744049   -3.8427172    865.79583  0.049792721  0.049460634           16 
 1450000   0.68236056   -3.8275768    864.99642  0.049712438   0.04943368            7 
 1451000   0.66308393     -3.85229    864.47549  0.049648259  0.049406339            9 
 1452000   0.67287532   -3.8517832    865.48957  0.049672267  0.049379082            4 
 1453000   0.67329825   -3.8169999    865.91855  0.049662683  0.049351716           12 
 1454000   0.65965882   -3.8339029    866.32136  0.049651614  0.049324473            5 
 1455000    0.6874679   -3.8509666    866.37851  0.049620762  0.049297274            6 
 1456000   0.66035318   -3.8418179    867.99149     0.049679  0.049270192            7 
 1457000   0.68799481   -3.8380784     865.5663  0.049506194  0.049243027            6 
 1458000   0.67307784   -3.8294186    866.43149   0.04952169  0.049215919            8 
 1459000   0.68442101   -3.8408494     866.9289  0.049516159  0.049188879            9 
 1460000   0.67499187   -3.8358247     866.3597  0.049449755  0.049161793            9 
 1461000   0.65731042   -3.8511645    865.77068  0.049382311  0.049134744            4 
 1462000   0.66938506   -3.8556935     867.9491  0.049472703  0.049107502            4 
 1463000   0.65271377   -3.8518317    867.69351  0.049424329  0.049080416           10 
 1464000   0.66263673   -3.8326846    867.77555  0.049395239  0.049053207            7 
 1465000   0.68419474   -3.8309333     869.6811  0.049469915  0.049026202            5 
 1466000   0.66988752   -3.8457105    869.00806  0.049397912  0.048999043            5 
 1467000   0.66974615   -3.8466262    865.98216  0.049192352   0.04897177           10 
 1468000   0.66149902   -3.8410983    865.83327   0.04915039   0.04894458            5 
 1469000   0.68656491   -3.8452715    867.20738  0.049194882  0.048917332            4 
 1470000   0.65361885   -3.8313708    870.22827  0.049332668  0.048890352            9 
 1471000   0.65408991    -3.842124    866.83336  0.049106807  0.048863465           13 
 1472000   0.66530276   -3.8326567     869.4197  0.049219865  0.048836498            9 
 1473000   0.68409361   -3.8439156    869.84049  0.049210256  0.048809405            5 
 1474000   0.66723403   -3.8353788    871.10431  0.049248321  0.048782236            6 
 1475000   0.67146905   -3.8591938    868.77539  0.049083355  0.048755199            5 
 1476000    0.6651577   -3.8586371    868.07448  0.049010529  0.048728075            8 
 1477000   0.66376804   -3.8407677    868.75884  0.049015958  0.048700867            6 
 1478000   0.65579379   -3.8595074    868.75498  0.048982577  0.048673901            9 
 1479000   0.64833169   -3.8441351    869.95069  0.049016829  0.048646989            5 
 1480000   0.66478958   -3.8347321    871.87964  0.049092322  0.048620253           16 
 1481000   0.66736846   -3.8462393    871.86976  0.049058618  0.048593575            6 
 1482000   0.66603507   -3.8600214    868.76062  0.048850687  0.048566693            6 
 1483000   0.66674365   -3.8481498    872.68145  0.049038068  0.048540015           10 
 1484000    0.6570042   -3.8507806     872.0384  0.048968913  0.048513459           11 
 1485000   0.66239297   -3.8445472    872.51111  0.048962464  0.048486938            4 
 1486000   0.65845274   -3.8710997    872.33828  0.048919823  0.048460434            7 
 1487000    0.6705209   -3.8735122    872.65009  0.048904398  0.048433918           13 
 1488000   0.65687179   -3.8616761    871.96706   0.04883328  0.048407181            7 
 1489000   0.65816094    -3.867639    868.56067  0.048609843  0.048380562            5 
 1490000   0.65750858   -3.8677304    871.54923  0.048744364  0.048353921            7 
 1491000   0.65567469    -3.864167    874.18322  0.048858888  0.048327284            6 
 1492000    0.6679306   -3.8475711    872.72538  0.048744715   0.04830062            5 
 1493000   0.64686822   -3.8843117    873.06185  0.048730847   0.04827383            3 
 1494000   0.66355343   -3.8426056    875.46443  0.048832242  0.048247144            5 
 1495000   0.66381309   -3.8665131    870.71337  0.048534748  0.048220418           10 
 1496000   0.65490195    -3.859781     873.0908  0.048634737    0.0481936            6 
 1497000   0.64741813   -3.8715658    874.85726  0.048700582  0.048167076            7 
 1498000   0.64743723       -3.889    873.55543  0.048595651   0.04814043            3 
 1499000   0.66737021    -3.878399    871.69292  0.048459691  0.048113809            5 
 1500000   0.65976028   -3.8762504    872.93398  0.048496332  0.048086955           12 
 1501000   0.65854892   -3.8848963    872.97676  0.048466398  0.048060198            8 
 1502000   0.65548764   -3.8651629    872.34107  0.048398861  0.048033737            7 
 1503000   0.66746017   -3.8818896    874.40318  0.048480993  0.048007207           10 
 1504000    0.6376907   -3.8818815    872.82083  0.048361083  0.047980823           13 
 1505000   0.65646009   -3.8741664     876.1331  0.048512353  0.047954518           10 
 1506000   0.64859275   -3.8918025    874.83297  0.048408199  0.047927952            9 
 1507000   0.62635585   -3.8925537    875.13906  0.048393003  0.047901535            6 
 1508000   0.66616592   -3.8387974    877.30819   0.04848078   0.04787518            6 
 1509000    0.6387973   -3.8744751    876.02715  0.048377907  0.047848996           12 
 1510000   0.65478628    -3.902805    878.47679  0.048481059  0.047822627            9 
 1511000   0.65556497   -3.8798179    876.52331  0.048341237  0.047796279            8 
 1512000   0.64482109   -3.8862102    876.84438  0.048326961  0.047770096            7 
 1513000   0.65502817   -3.8649391    873.70894  0.048122326   0.04774373           11 
 1514000   0.64808209   -3.8598234    878.29524  0.048342979  0.047717632            6 
 1515000   0.66870085    -3.899918    875.22646   0.04814227  0.047691485            4 
 1516000   0.65819809   -3.8839267    874.87101  0.048090974  0.047665169            9 
 1517000   0.64595464   -3.8753897    875.00117  0.048066424  0.047638772            5 
 1518000   0.65264405    -3.900047    874.92351  0.048030496   0.04761252            6 
 1519000   0.65714432    -3.883796    873.39285  0.047914903  0.047585963            4 
 1520000   0.64325171    -3.885519    874.65516  0.047952586  0.047559421           11 
 1521000   0.66334353   -3.8888904    878.55146  0.048134531  0.047532956            6 
 1522000   0.66080143   -3.9077297    874.44125  0.047877861  0.047506565            4 
 1523000   0.66539095    -3.887236    875.92181  0.047927436  0.047480145            7 
 1524000   0.65678241    -3.888148    872.91376  0.047731505  0.047453525            5 
 1525000   0.64204352   -3.8795922    875.67987  0.047851359  0.047427047           16 
 1526000   0.63432714   -3.8973097    875.70223  0.047821223  0.047400384            6 
 1527000   0.64489017   -3.9032807    876.15756  0.047814754  0.047373696            4 
 1528000   0.65520895   -3.8991233    876.93306  0.047825756  0.047346907            7 
 1529000   0.64447357     -3.90144    876.32415   0.04776129  0.047320272            5 
 1530000    0.6504345   -3.9042385    874.66252  0.047639571   0.04729358           10 
 1531000   0.63185813   -3.8755573    876.21171  0.047692777  0.047266901            7 
 1532000   0.64529759   -3.9099933    874.88792  0.047589639  0.047240333            4 
 1533000   0.65379611   -3.8858687    877.09368    0.0476785  0.047213702            6 
 1534000   0.62998267   -3.8968369    875.86817  0.047580843  0.047187109           11 
 1535000   0.63888198   -3.9036703    875.99838  0.047556915  0.047160486           14 
 1536000   0.64466631   -3.9007878    876.10894  0.047531952  0.047133804            7 
 1537000   0.64668383   -3.8911257    876.74529  0.047535528  0.047107212           11 
 1538000   0.64353376   -3.9016148    877.92764  0.047568685  0.047080693            6 
 1539000   0.63553398   -3.8997813    877.60931  0.047520539  0.047054205            4 
 1540000   0.62762512   -3.9133032    876.88161  0.047450304  0.047027764            7 
 1541000   0.62998863   -3.8989965    877.16876   0.04743504  0.047001417           11 
 1542000    0.6487888   -3.9199399    878.58995  0.047481083  0.046974833           14 
 1543000   0.62993895   -3.9103321    876.40728   0.04733243  0.046948277            7 
 1544000    0.6317134   -3.9205651    878.25599  0.047401554  0.046921672            4 
 1545000    0.6408156   -3.8979092    877.29555   0.04731907  0.046895047            5 
 1546000   0.63984915   -3.8935418     877.3462  0.047291193  0.046868384            8 
 1547000   0.63644281   -3.9019707    878.56924  0.047326505  0.046841725            9 
 1548000   0.64876633   -3.8993216    878.69413  0.047302655  0.046815287            6 
 1549000   0.62659815   -3.8949219    875.95704  0.047124868  0.046788703            9 
 1550000   0.65779888   -3.9066793    876.98862  0.047149926  0.046762245           13 
 1551000   0.63757351   -3.9152018    878.35193  0.047192775  0.046735744           16 
 1552000   0.63804207   -3.8862473    880.81674  0.047294713  0.046709309            5 
 1553000   0.63474034   -3.9005697    879.66517  0.047202467  0.046683038            4 
 1554000   0.62942161   -3.9032326    878.10588  0.047088475  0.046656651            3 
 1555000   0.64270575    -3.907874    878.95891  0.047103907  0.046630284            7 
 1556000   0.61741949   -3.9011756    879.27066  0.047090331  0.046604065            6 
 1557000   0.62597126   -3.9016325     877.1946  0.046948972  0.046577804            8 
 1558000   0.62024423   -3.9077367    879.45921  0.047039966  0.046551614            7 
 1559000   0.63603491   -3.8950383    881.31547  0.047109016  0.046525534            9 
 1560000   0.63522839    -3.920649    879.46559      0.04698   0.04649931            8 
 1561000   0.61911862   -3.9132307      880.119  0.046984785  0.046473181            6 
 1562000   0.64631474   -3.9076431    881.65404    0.0470366  0.046447063            9 
 1563000   0.62892988   -3.9027597    881.48474   0.04699748  0.046420937           15 
 1564000   0.61853877   -3.9320201    881.59869  0.046973502  0.046394743            5 
 1565000   0.63326725   -3.9012109    880.13087  0.046865329  0.046368518            6 
 1566000   0.64161532   -3.9300399    880.58608  0.046859625  0.046342362            4 
 1567000   0.63633689   -3.9196132    880.67674  0.046834543  0.046316248           18 
 1568000   0.64054797   -3.9126504     881.4161  0.046843968  0.046290119           10 
 1569000    0.6222663   -3.9319888    881.96026  0.046843013  0.046264041           10 
 1570000   0.62122181   -3.9415949    881.24517  0.046775221  0.046237833            8 
 1571000   0.63012252   -3.9432508    881.59523  0.046764016  0.046211777            8 
 1572000   0.61205576   -3.9346417    882.03777  0.046757728  0.046185674            4 
 1573000   0.63526243   -3.9425831    883.59314  0.046810402  0.046159634            6 
 1574000   0.63672901   -3.9295578    882.66103  0.046731312  0.046133723           12 
 1575000   0.61859598   -3.9214276    881.52743  0.046641663  0.046107743            6 
 1576000   0.61009803   -3.9451778    883.01645  0.046690802  0.046081785           11 
 1577000   0.61749246   -3.9344612    882.73034  0.046646076  0.046055688            6 
 1578000   0.62537461    -3.935545    883.12812  0.046637522  0.046029797           14 
 1579000   0.63078107    -3.935657    885.16006  0.046715223  0.046003891           10 
 1580000   0.63175069   -3.9572268    885.38428  0.046697483  0.045977949            9 
 1581000   0.61260766   -3.9455992    881.80764  0.046479424  0.045951885            3 
 1582000   0.61738178   -3.9183982    883.30156  0.046528738  0.045926002            8 
 1583000   0.63321311   -3.9340724     883.4337  0.046506301  0.045900157            7 
 1584000   0.61655221   -3.9105575    882.83307  0.046445343  0.045874276           14 
 1585000   0.61555265   -3.9469452    883.45069  0.046448512  0.045848408            8 
 1586000   0.60453107   -3.9388116    885.97129  0.046551665  0.045822538            6 
 1587000   0.62262675   -3.9430426    884.61956  0.046451353   0.04579665           10 
 1588000    0.6235325   -3.9400612    882.68107  0.046320375  0.045770677           10 
 1589000   0.62377999   -3.9626476     883.3741   0.04632757  0.045744754            7 
 1590000   0.61707864    -3.953835     880.7851  0.046162741  0.045718733            6 
 1591000    0.6058482   -3.9317873    884.16713   0.04631087  0.045692884            5 
 1592000   0.61054346   -3.8992269    882.41133  0.046189873  0.045667128            8 
 1593000   0.61366502   -3.9391688    885.75618  0.046335853  0.045641526            3 
 1594000   0.61565419   -3.9328417     882.8487  0.046154784  0.045615838            4 
 1595000   0.61033286   -3.9233167    888.03475    0.0463968  0.045590219            6 
 1596000   0.62405789   -3.9585516    884.02193  0.046158204   0.04556457           11 
 1597000   0.61083729    -3.936329    885.74466  0.046219195  0.045539049            8 
 1598000   0.61716792   -3.9298814    887.63485  0.046288843  0.045513633            8 
 1599000   0.60539049   -3.9387794    887.55328  0.046255643  0.045488137            7 
 1600000   0.61293181    -3.951125    885.39559  0.046114353  0.045462528            7 
 1601000   0.61188198   -3.9379075    883.87248  0.046006271   0.04543687            6 
 1602000    0.5999192   -3.9434909    886.36708  0.046107318  0.045411131           11 
 1603000   0.61314125   -3.9445167    884.67241  0.045990456  0.045385572           15 
 1604000   0.59676606   -3.9608356    886.43015  0.046053104  0.045359951            6 
 1605000   0.59726591   -3.9653032    884.88331  0.045944097  0.045334192            9 
 1606000   0.61975788   -3.9508065    888.15227  0.046085112  0.045308517            8 
 1607000    0.6069821   -3.9436263    886.19907  0.045955148    0.0452829            9 
 1608000   0.61602283   -3.9419307    886.37476  0.045935674  0.045257411           10 
 1609000   0.60698604   -3.9462271    887.96025   0.04598924  0.045231931           17 
 1610000   0.61234572   -3.9583203    888.83749  0.046006081  0.045206433            8 
 1611000    0.6067963   -3.9600257     886.7971  0.045871979   0.04518093            5 
 1612000   0.60565401   -3.9524619    887.33315  0.045871234  0.045155421            7 
 1613000   0.60850786   -3.9578166    889.41301  0.045950249  0.045130061            5 
 1614000   0.60935332   -3.9593336    887.73506  0.045835143  0.045104675            9 
 1615000   0.60894115   -3.9734505    887.67899  0.045803869  0.045079349           12 
 1616000   0.60923952   -3.9616833    886.25336  0.045702009  0.045053942           10 
 1617000    0.6038537   -3.9626631    887.40984  0.045733346   0.04502852           11 
 1618000   0.61456143   -3.9588655    886.00705  0.045632831  0.045003013            6 
 1619000   0.61360424   -3.9717511    885.85395  0.045596765  0.044977535            5 
 1620000   0.60327965   -3.9667033    885.89203  0.045570578  0.044952019           20 
 1621000   0.60766909   -3.9473789    889.26485  0.045715857  0.044926567            5 
 1622000   0.60825778   -3.9539204    888.45516  0.045646073  0.044901279           12 
 1623000    0.5982517   -3.9742902    887.59663  0.045573867  0.044876026            7 
 1624000   0.60580027    -3.962033    888.51155  0.045592752  0.044850961           10 
 1625000    0.6070285   -3.9536346    891.12213  0.045698571   0.04482591           12 
 1626000   0.59282112   -3.9685593    892.66498  0.045749538  0.044800787            6 
 1627000   0.61231784   -3.9593409    891.37748  0.045655474  0.044775725            3 
 1628000   0.60782133   -3.9628266    891.10307  0.045613384  0.044750492            5 
 1629000   0.61791451   -3.9553631    889.95862  0.045526837  0.044725401           15 
 1630000   0.60310777   -3.9721069    890.37407  0.045520147  0.044700393            7 
 1631000   0.61039819   -3.9669343    889.87996  0.045466992  0.044675377           11 
 1632000   0.59845752   -3.9742827    890.08143   0.04544942  0.044650239           19 
 1633000   0.61222144   -3.9542216     890.8707  0.045461865  0.044625233           12 
 1634000   0.59144714   -3.9626966    888.19947   0.04529781  0.044600221            8 
 1635000    0.6020055   -3.9627522    891.33193  0.045429762  0.044575152           14 
 1636000   0.60450271   -3.9784957    889.74169   0.04532099  0.044550046           10 
 1637000    0.6006546   -3.9941162    891.56977  0.045386366  0.044524905           16 
 1638000   0.61119284    -3.964566    892.47244  0.045404581  0.044499923            9 
 1639000   0.59295457   -3.9731676    890.62983  0.045283193  0.044475012           11 
 1640000   0.60356955   -3.9745966    891.75356  0.045312681  0.044450099           15 
 1641000   0.60499362   -3.9762058    890.78396   0.04523583  0.044425158            5 
 1642000   0.59732193   -3.9875445    889.44562  0.045140358  0.044400123           13 
 1643000   0.60087178   -3.9877608    891.45394  0.045214746  0.044375147            8 
 1644000   0.58399844   -3.9834675    890.83737   0.04515599  0.044350189            8 
 1645000   0.59163274   -3.9624951    894.02408  0.045289974  0.044325398           11 
 1646000   0.59747538   -3.9827301    891.94843  0.045157373  0.044300579           16 
 1647000   0.60528931   -3.9805833    891.38271  0.045101331   0.04427579           10 
 1648000   0.58715647   -3.9914771    894.13975  0.045213377  0.044251124           12 
 1649000   0.59110272    -3.979974     891.9254  0.045074055  0.044226383           10 
 1650000   0.58459232    -3.968204    894.97945  0.045200982    0.0442017            4 
 1651000   0.59044588   -3.9872319    894.38347  0.045143523   0.04417713            5 
 1652000   0.60129419   -3.9726513    895.80763  0.045188036  0.044152508           11 
 1653000   0.59246695   -3.9807727    894.39614  0.045089541  0.044127822            6 
 1654000   0.59370145   -3.9646666    892.73219  0.044978446  0.044103029           12 
 1655000   0.59824393   -3.9829315    891.59232  0.044893873  0.044078358            5 
 1656000   0.58821744   -3.9695878    895.40872  0.045058812  0.044053828           10 
 1657000   0.59370934   -3.9726485    896.09336  0.045066051  0.044029213           16 
 1658000   0.59951984   -3.9888148    894.16837  0.044942117  0.044004564            5 
 1659000   0.59089368   -3.9776921    894.41477  0.044927405  0.043979969            5 
 1660000   0.59010704   -3.9866605    895.14568  0.044937032  0.043955403           16 
 1661000   0.58295487   -3.9881886    892.50466  0.044777476  0.043930866            5 
 1662000   0.59447378   -3.9732341    897.98172  0.045025157  0.043906307            5 
 1663000   0.58734541   -3.9891392    895.49444  0.044873444  0.043881885           13 
 1664000    0.5802683   -3.9991426    894.27441  0.044785377  0.043857326           12 
 1665000   0.57760772    -3.988343    895.46898  0.044818267  0.043832817            5 
 1666000   0.58729889   -3.9961251    895.84427  0.044810138   0.04380839            5 
 1667000   0.59169784   -4.0023758    896.04989  0.044793536  0.043784043            7 
 1668000   0.58524024    -3.988265    894.50055  0.044689276  0.043759529           10 
 1669000   0.57600599    -3.991105    896.57414  0.044766035   0.04373519           11 
 1670000   0.58806615   -3.9930311    896.17017   0.04471907  0.043710776           10 
 1671000   0.59285413   -3.9971948    895.22904  0.044645374  0.043686482           11 
 1672000   0.59269967   -3.9952777    895.68495  0.044641395  0.043662101           16 
 1673000    0.5835521   -4.0019766    895.71497  0.044616207  0.043637549           11 
 1674000   0.57419716   -4.0245611    894.48349   0.04452825  0.043613011           10 
 1675000   0.57870932   -3.9985589    895.41276  0.044547899  0.043588384           13 
 1676000   0.58753335   -3.9897481    893.99699  0.044450924  0.043563852            9 
 1677000   0.57895327   -4.0043755    894.65223  0.044456978   0.04353924            7 
 1678000   0.58498474   -4.0086853     894.9968  0.044447596  0.043514828           22 
 1679000    0.5865321   -3.9908869    895.89354  0.044465631  0.043490366            7 
 1680000    0.5693536   -4.0086311    897.32223  0.044510031   0.04346599           17 
 1681000   0.58781533   -3.9970254    896.27219  0.044431498  0.043441425           10 
 1682000   0.58348633   -4.0229502    895.72496  0.044377971  0.043416914           10 
 1683000   0.57553717   -4.0117502    895.83086  0.044356846  0.043392414           24 
 1684000   0.58168039   -4.0045526    898.91699  0.044483224  0.043368102           17 
 1685000   0.58089507   -3.9909956    895.82994  0.044304151  0.043343757           13 
 1686000   0.57715259   -3.9928894    896.31575  0.044301886  0.043319429            7 
 1687000   0.58574772   -3.9935716    895.41405  0.044231083  0.043295168           10 
 1688000   0.57968785   -4.0074045    896.66983  0.044266876  0.043270884           14 
 1689000   0.58732309   -4.0128073    896.83304  0.044248719  0.043246563           12 
 1690000   0.57604524   -4.0137635    894.55874  0.044110391  0.043222151            7 
 1691000   0.56667716   -3.9843957    898.78609  0.044292632  0.043197817            5 
 1692000   0.57989418     -4.01349     898.3501  0.044244981  0.043173642            9 
 1693000   0.56375292   -4.0074136    897.13963  0.044159265  0.043149363            8 
 1694000    0.5829066   -4.0180669    898.33302  0.044191904  0.043125129            9 
 1695000   0.57816638   -4.0104452    895.42046  0.044022638    0.0431009            5 
 1696000   0.55767718    -4.004886    896.80352  0.044064638  0.043076643            6 
 1697000    0.5825228   -4.0129212    896.71237  0.044034196  0.043052377           11 
 1698000   0.58730294   -4.0212374    896.54019  0.043999813  0.043028136            6 
 1699000   0.58095159   -4.0203283    896.36276  0.043965213  0.043003984           10 
 1700000   0.56996398   -4.0181897    897.48965  0.043994591  0.042979872           12 
 1701000   0.57189478   -4.0349047     897.2168   0.04395536  0.042955733            8 
 1702000   0.56729535   -4.0194504    897.07262  0.043922474  0.042931479            9 
 1703000   0.55598927   -4.0191233    896.49829   0.04386858  0.042907112            6 
 1704000   0.57176507   -4.0444927    895.93929  0.043815497  0.042882755            6 
 1705000   0.55981241   -4.0376174    898.27252  0.043903838  0.042858378           10 
 1706000   0.57828007   -4.0241317    897.97723  0.043863679     0.042834           15 
 1707000   0.57701613   -4.0117876    895.96722  0.043739856  0.042809736            8 
 1708000   0.57195276   -4.0350976    898.15846  0.043821158   0.04278531           20 
 1709000   0.56872521   -4.0604688    896.57163  0.043718141  0.042761057            9 
 1710000    0.5719723   -4.0185894    898.59019  0.043790945  0.042736804            7 
 1711000   0.57211137   -4.0154278     897.3008  0.043702552  0.042712544           16 
 1712000   0.57886891   -4.0162836     893.4001  0.043487155  0.042688181            8 
 1713000   0.56495417   -4.0301713    895.41806  0.043559937  0.042663801           20 
 1714000    0.5752974   -4.0168603    896.32694  0.043578712  0.042639369            9 
 1715000   0.58247475    -4.038491    896.51718  0.043562545     0.042615           15 
 1716000   0.58576449   -4.0230462    894.68882  0.043448369  0.042590535           17 
 1717000   0.55805715   -4.0416884    895.04231  0.043440221  0.042565924           16 
 1718000   0.56320695   -4.0446146    897.68416  0.043543081  0.042541523           11 
 1719000   0.56335231   -4.0314892    896.76442  0.043473164  0.042517165           14 
 1720000   0.57257267   -4.0203038    900.43243  0.043625602   0.04249284           25 
 1721000   0.56757661   -4.0315045    895.92953  0.043382216   0.04246862           13 
 1722000   0.56273894   -4.0335089    898.24415  0.043469036  0.042444242           13 
 1723000    0.5730905   -4.0490063     896.6427  0.043366352  0.042419975           21 
 1724000   0.55511978   -4.0449568    895.66214    0.0432938  0.042395611           16 
 1725000   0.57209174   -4.0401735    896.72215   0.04331991  0.042371177           13 
 1726000   0.56266736   -4.0353675    898.49003  0.043380168  0.042346709            8 
 1727000   0.56288583   -4.0291691    897.22979  0.043294238  0.042322412           10 
 1728000   0.55510278   -4.0297002     896.7466  0.043245882  0.042298207           27 
 1729000   0.56273653   -4.0396236    897.47244  0.043255853  0.042273861           11 
 1730000   0.56119582   -4.0466672    896.13503  0.043166427  0.042249475           27 
 1731000   0.57124539   -4.0429384    896.69277   0.04316834  0.042225101           12 
 1732000   0.54967879   -4.0427265    896.14661  0.043117139  0.042200618           14 
 1733000   0.55583431   -4.0435279    897.59313  0.043161816  0.042176017            8 
 1734000   0.55696874   -4.0288361    896.90611  0.043103908  0.042151578           16 
 1735000    0.5604997    -4.035552    897.16956  0.043091718  0.042127256            9 
 1736000   0.56437196   -4.0559469    898.47998  0.043129799   0.04210298           23 
 1737000   0.54822327   -4.0696912     895.6818  0.042970726  0.042078669           10 
 1738000   0.56412753   -4.0377779    897.93146  0.043053868  0.042054092            9 
 1739000   0.55306655   -4.0489232    897.83818  0.043024639  0.042029685           17 
 1740000   0.55273427   -4.0581369    897.76601  0.042996457  0.042005359           10 
 1741000   0.55670985   -4.0707992    895.71452  0.042873565  0.041980933            9 
 1742000   0.55070709   -4.0700702    898.78902   0.04299603  0.041956514           18 
 1743000   0.56792392   -4.0569045    897.86183  0.042927034  0.041932083           12 
 1744000   0.54022651   -4.0420513    897.85083  0.042901894  0.041907731           14 
 1745000   0.55175743   -4.0515836    898.08785  0.042888627  0.041883461           14 
 1746000   0.55774235   -4.0693076    899.87967  0.042949583  0.041859271           12 
 1747000   0.56877864   -4.0680459    899.07531   0.04288663  0.041835034           15 
 1748000   0.55760579   -4.0553777    898.25867  0.042823163   0.04181073           17 
 1749000   0.57408057   -4.0536811    899.08475  0.042838038  0.041786494           22 
 1750000   0.55788663   -4.0615045    899.00195  0.042809616  0.041762414           15 
 1751000    0.5548721   -4.0714724     898.2145  0.042747692  0.041738275           14 
 1752000   0.55419199   -4.0510796    898.18979  0.042722117  0.041714113            7 
 1753000   0.55675401   -4.0639774    896.10782  0.042598774  0.041689936           11 
 1754000   0.55716634     -4.05725    899.50357  0.042735822  0.041665829           19 
 1755000   0.54554574   -4.0462692    896.74328  0.042580403  0.041641646            6 
 1756000   0.55356836   -4.0651874    899.26529   0.04267584   0.04161755            8 
 1757000   0.55264494   -4.0468579    897.38112  0.042562186  0.041593448            8 
 1758000   0.54990705   -4.0501731    896.60973  0.042501409  0.041569416           12 
 1759000   0.55865249   -4.0532814    898.72419  0.042577421  0.041545402           17 
 1760000   0.55842592   -4.0628986    894.88091  0.042371255  0.041521173            8 
 1761000   0.56181644    -4.080679    898.06581  0.042497909  0.041497095            6 
 1762000   0.55311469   -4.0648493    898.61381  0.042499707  0.041473111            8 
 1763000   0.54341454   -4.0670954    898.44607  0.042467672  0.041449128           11 
 1764000   0.56074853   -4.0767465     896.4568  0.042349622  0.041425065           10 
 1765000   0.54883386   -4.0803953    900.24706  0.042504583  0.041401011            8 
 1766000   0.56034418   -4.0578737    899.84978  0.042461768   0.04137705           12 
 1767000   0.54080024   -4.0586496    899.49928  0.042421207  0.041353276            8 
 1768000   0.55427805   -4.0713709    900.20678  0.042430561  0.041329302            9 
 1769000   0.54857246   -4.0860848    899.11381  0.042355088  0.041305372           17 
 1770000   0.54914813   -4.0509175    901.21858  0.042430253  0.041281479            6 
 1771000   0.54744743   -4.0732879    900.50508  0.042372722  0.041257679           19 
 1772000   0.55742255    -4.096171    900.77406  0.042361459  0.041233847           11 
 1773000   0.54909177   -4.0750597    902.22177  0.042405611   0.04121004           12 
 1774000   0.55640143   -4.0794387    898.65367  0.042214096  0.041186326           18 
 1775000    0.5465063   -4.0722695    900.80287  0.042291214  0.041162547            7 
 1776000   0.53690388   -4.0906329    901.30257  0.042290849   0.04113866           19 
 1777000   0.54588945   -4.0809749    900.07399  0.042209435  0.041114734           29 
 1778000   0.53753281   -4.0826108    901.36379  0.042246147  0.041090874           14 
 1779000   0.54783488   -4.0764071    901.32635  0.042220646  0.041066977            8 
 1780000    0.5435822   -4.0872128    901.02455  0.042182797  0.041043177           11 
 1781000   0.54963523   -4.0741666    897.00758  0.041971158  0.041019329           15 
 1782000   0.54322997   -4.0841063    899.34399  0.042056864  0.040995482           11 
 1783000   0.54735878   -4.0936914    898.54772  0.041996061  0.040971634            9 
 1784000   0.55846458   -4.0833951    900.73375  0.042074633  0.040947884           31 
 1785000    0.5386233   -4.0733221    901.94101  0.042107424  0.040924084            9 
 1786000   0.53414362   -4.0947993    900.12683  0.041999199  0.040900198           13 
 1787000   0.54195139   -4.0960265    899.96113  0.041967969  0.040876259            8 
 1788000   0.52584558   -4.1038495    899.49052  0.041922563  0.040852311           13 
 1789000   0.53601732    -4.083837    897.46732  0.041804887  0.040828394           13 
 1790000   0.54158902   -4.0887273    899.72328  0.041886559  0.040804512            9 
 1791000   0.53195714    -4.093287    900.36282  0.041892928  0.040780752           13 
 1792000    0.5472319   -4.0898387    900.83539  0.041891527  0.040756939           10 
 1793000   0.52609844   -4.0990641     899.5541  0.041808612  0.040733162            7 
 1794000   0.53117613    -4.096873    901.77032  0.041888253  0.040709415           23 
 1795000   0.52536719   -4.0911339    900.20371  0.041792187  0.040685686            9 
 1796000   0.54081904   -4.0779097    903.68836  0.041930603   0.04066216           14 
 1797000    0.5262031   -4.0981453    900.04244  0.041738195  0.040638589           39 
 1798000   0.51958387   -4.0715771     902.7513  0.041840531   0.04061497            7 
 1799000   0.53154235   -4.1074733     899.8115  0.041681096  0.040591211           14 
 1800000   0.53975304   -4.0976755    900.26468   0.04167892  0.040567446           12 
 1801000   0.52782971   -4.0998227    901.09116   0.04169402  0.040543724           13 
 1802000    0.5350009   -4.1099854    899.91911  0.041616681  0.040520019           17 
 1803000    0.5325577    -4.089692    901.07064  0.041646822  0.040496327           12 
 1804000   0.53494481   -4.0953496    902.43557  0.041686787  0.040472709            7 
 1805000   0.53854751   -4.0962525    899.53966  0.041529993  0.040449069            9 
 1806000   0.53553132   -4.1165162    898.74401  0.041470285  0.040425295           20 
 1807000   0.54118219   -4.1023557    898.10479  0.041417856  0.040401581            6 
 1808000   0.54647374   -4.0905618    897.78147  0.041380045  0.040377868           12 
 1809000   0.54554249   -4.0935161    899.68849   0.04144502  0.040354105            8 
 1810000   0.53519108   -4.1124934     899.0567  0.041393034  0.040330284           10 
 1811000   0.53336979   -4.0954809     900.7958  0.041450202   0.04030648           24 
 1812000   0.52642572   -4.1104429    896.63163  0.041235818  0.040282741           11 
 1813000   0.53526255   -4.1142547    900.14097  0.041374378  0.040258981           33 
 1814000     0.534345    -4.103154    900.45428  0.041365963  0.040235195           20 
 1815000   0.53565472   -4.1068507    899.97133  0.041320998  0.040211549           12 
 1816000   0.52658971   -4.0994115    901.68084   0.04137669  0.040187898            5 
 1817000   0.52990901    -4.110153    900.86186  0.041316357  0.040164265            8 
 1818000   0.51678809   -4.1223076    901.46755  0.041321395  0.040140504           20 
 1819000   0.53326148   -4.1271513    900.16672  0.041239084  0.040116799           11 
 1820000   0.53169107   -4.0949843     902.8433  0.041338979  0.040093082           12 
 1821000   0.53315927   -4.1226103    899.02703  0.041141636  0.040069392           16 
 1822000   0.51947068   -4.1181841    900.31135  0.041177797  0.040045715           15 
 1823000   0.52439814   -4.1197095    898.41446  0.041068498  0.040022016           14 
 1824000   0.51783867   -4.1048663    898.88622  0.041067535  0.039998387            9 
 1825000   0.52539803   -4.1359861    899.21336  0.041059971  0.039974748           14 
 1826000   0.52227865   -4.1107131     902.0507  0.041166973  0.039951114            6 
 1827000    0.5275472   -4.1268826    901.20116  0.041105691  0.039927579           12 
 1828000   0.53003125   -4.1216819    901.32108   0.04108867  0.039904173           12 
 1829000   0.51878497   -4.1097934    900.79706   0.04104233  0.039880632           11 
 1830000   0.52160053   -4.1253581    899.76003  0.040972679  0.039857077           11 
 1831000   0.52403807   -4.1120869    900.96385   0.04100509  0.039833632           21 
 1832000   0.52294038   -4.1133877    899.66025   0.04092341  0.039810177           35 
 1833000   0.52844378   -4.1216938    900.15876  0.040923748  0.039786696           23 
 1834000   0.52673014   -4.1162949    901.28561  0.040952636  0.039763249           13 
 1835000   0.52287487   -4.1349118    901.62927  0.040945925  0.039739879           16 
 1836000   0.52610039   -4.1199389    899.71611  0.040836788  0.039716555           10 
 1837000   0.51189733   -4.1261265    900.74111  0.040861056  0.039693223           11 
 1838000   0.51474898   -4.1383159    900.74588   0.04083904   0.03966974            8 
 1839000   0.51904363   -4.1338573    900.18444  0.040791392  0.039646211           22 
 1840000   0.51936921   -4.1334761    898.89785  0.040710953   0.03962262           10 
 1841000   0.52892313   -4.1107308    901.95925  0.040827415   0.03959906           11 
 1842000   0.52332579   -4.1136316    901.68504  0.040792845  0.039575668           12 
 1843000   0.50525943   -4.1261577    902.75609  0.040819139  0.039552323           21 
 1844000   0.51334854   -4.1133802     901.5682   0.04074332   0.03952896           19 
 1845000   0.51264752   -4.1299265    899.88665  0.040645287  0.039505644           11 
 1846000   0.51287601   -4.1370829    902.01866  0.040719513  0.039482297           18 
 1847000   0.51800414   -4.1236102    901.24496  0.040662559  0.039459064           17 
 1848000   0.51362244   -4.1418676     900.1547  0.040591391  0.039435683            9 
 1849000    0.5221229   -4.1278318    901.06937  0.040610662  0.039412261           12 
 1850000   0.50805234   -4.1241872    903.39309  0.040693383  0.039388981           17 
 1851000   0.52968843   -4.1246031    900.59451  0.040545404  0.039365705           29 
 1852000   0.50839435   -4.1365812    902.08234  0.040590458  0.039342427           32 
 1853000   0.51607202   -4.1366089    903.56874  0.040635399  0.039319077           15 
 1854000   0.51639187   -4.1485774    902.07305  0.040546254  0.039295806           12 
 1855000   0.51247758   -4.1431678     900.2244  0.040441348  0.039272426           16 
 1856000   0.50452172   -4.1333009    903.17945  0.040552238  0.039249143           39 
 1857000    0.5141388   -4.1459491    899.82947   0.04038007  0.039225765           17 
 1858000   0.52014311   -4.1598194    900.76227  0.040400174  0.039202399           23 
 1859000   0.50098557   -4.1474032    899.80568   0.04033556  0.039179071            8 
 1860000   0.53283253   -4.1460649     900.4233  0.040341546  0.039155754           28 
 1861000   0.50544234   -4.1572964    900.82234  0.040337737  0.039132439           16 
 1862000   0.50919272   -4.1452654    903.93435   0.04045535  0.039109197           25 
 1863000   0.51781997    -4.147985    901.24513  0.040313345    0.0390859           17 
 1864000   0.49698033   -4.1582371     899.7136  0.040223247  0.039062588            9 
 1865000   0.51121683   -4.1259977    901.60066  0.040285999  0.039039367           10 
 1866000   0.50476271   -4.1399453    901.78324  0.040272563  0.039016249            5 
 1867000   0.50052004   -4.1498897    903.03147  0.040306707   0.03899318           17 
 1868000    0.5141225   -4.1500596    902.70894  0.040270741  0.038970123            6 
 1869000   0.50108919   -4.1443989    902.64943  0.040246541  0.038946999           25 
 1870000   0.51548537   -4.1538858     900.4343  0.040126306  0.038923831            9 
 1871000   0.51175848   -4.1447513    904.02332  0.040264712  0.038900739            8 
 1872000   0.50760454   -4.1581423    899.72159  0.040051709  0.038877642           33 
 1873000     0.511718   -4.1536442    900.95071  0.040085011  0.038854598           15 
 1874000   0.49640536   -4.1678197    902.16747  0.040117728  0.038831435           18 
 1875000   0.51359104   -4.1596804    901.42392  0.040063285  0.038808285           20 
 1876000   0.50606488   -4.1434052    901.81598  0.040059345  0.038785142           31 
 1877000   0.50660597   -4.1848996    899.14795   0.03991955  0.038761951           26 
 1878000   0.50987013   -4.1536148    899.89135  0.039931281  0.038738782           15 
 1879000   0.50814341   -4.1535904     901.2813  0.039971674  0.038715592           17 
 1880000   0.49053964   -4.1563817    900.98999    0.0399375  0.038692538           21 
 1881000   0.50503222   -4.1588006    900.34137  0.039887532  0.038669581           24 
 1882000   0.49233589   -4.1672537    900.14309  0.039857558  0.038646578           13 
 1883000   0.49775213   -4.1713966    900.52328  0.039853216  0.038623619           27 
 1884000   0.50129524   -4.1576434     900.7675  0.039842865  0.038600579           25 
 1885000   0.50112725   -4.1641995    901.82176  0.039868336  0.038577558           28 
 1886000   0.50702848    -4.161382    902.73389    0.0398875  0.038554616           19 
 1887000    0.5046054   -4.1578851    903.90648  0.039918145  0.038531748           26 
 1888000   0.50191664   -4.1574948    902.65121  0.039841597  0.038508904           19 
 1889000   0.49293364   -4.1733187    903.05008  0.039838101  0.038486091           42 
 1890000   0.49212526   -4.1806125    903.09409  0.039818963  0.038463199           47 
 1891000   0.50229022   -4.1727122    902.45005  0.039769525  0.038440302           37 
 1892000   0.49697615   -4.1513747    901.80949  0.039720291  0.038417463           39 
 1893000   0.49947801   -4.1561988    904.86737  0.039833922  0.038394625           20 
 1894000   0.50365049   -4.1804021    902.83765  0.039723585  0.038371881           29 
 1895000   0.49920435   -4.1734406    903.63071  0.039737498  0.038349125           16 
 1896000   0.48993044    -4.173497    904.10172  0.039737242  0.038326328           19 
 1897000   0.48715266   -4.1556597    903.73963  0.039700388  0.038303647           16 
 1898000   0.49584123    -4.179176    904.75684  0.039724133  0.038281024           24 
 1899000   0.50230935    -4.158484    903.84689  0.039663283  0.038258421           17 
 1900000   0.50489498   -4.1726186    903.21989  0.039614907  0.038235761            9 
 1901000   0.50558422   -4.1759339    904.89876  0.039667664  0.038213197           19 
 1902000     0.497542   -4.1627203    903.00522  0.039563846  0.038190556           19 
 1903000   0.49771363    -4.162691    903.78562   0.03957723  0.038167995           33 
 1904000   0.49356294   -4.1687233    902.06606  0.039481183  0.038145395           39 
 1905000   0.49130618   -4.1740636    902.09211  0.039461597  0.038122824           23 
 1906000    0.4944535   -4.1728409    903.14085  0.039486746  0.038100296           25 
 1907000   0.49338536   -4.1767175    904.93872  0.039544604  0.038077703           19 
 1908000   0.49329513   -4.1904482    904.68105  0.039512624   0.03805512           18 
 1909000   0.49546857   -4.1758889    905.80042   0.03954079  0.038032573           13 
 1910000   0.49028039   -4.1734136    903.46814  0.039418331  0.038010028           22 
 1911000   0.49143428   -4.1721041    904.09312  0.039424957  0.037987572           47 
 1912000    0.4967956   -4.1890829    903.27773  0.039368799  0.037965074           20 
 1913000      0.49068   -4.1825768    903.37669   0.03935253   0.03794254           30 
 1914000   0.48836643   -4.1871767    903.02731  0.039316758  0.037919983           21 
 1915000   0.48925505   -4.1848635    904.14507  0.039344868  0.037897443           19 
 1916000   0.49661898   -4.1996678    903.86783  0.039312275  0.037874879           23 
 1917000   0.49710527   -4.1865943    904.71001  0.039328378  0.037852386           16 
 1918000   0.49142944    -4.190538    903.60213  0.039259738  0.037829929           21 
 1919000   0.48956806   -4.1974383     902.1674  0.039176976  0.037807406           23 
 1920000   0.48367998   -4.1952336     903.6619  0.039221436  0.037784859           12 
 1921000   0.48037569   -4.1910612    903.75105  0.039204887  0.037762414           16 
 1922000   0.48408055   -4.1881821    904.80574  0.039230218  0.037739998           12 
 1923000   0.48749489   -4.1932089    905.94304  0.039259102  0.037717532           13 
 1924000   0.48422713   -4.2039156    905.30363  0.039211003  0.037695182           20 
 1925000   0.49016288   -4.2135791    904.31511   0.03914784  0.037672888           14 
 1926000   0.49754969    -4.185522     903.0796  0.039074057  0.037650539            9 
 1927000   0.47792085   -4.1790197    905.95776  0.039178246  0.037628191           17 
 1928000   0.49459964   -4.1905473    905.51855  0.039138942  0.037605859           15 
 1929000   0.48224614   -4.2085764    906.29655  0.039152262  0.037583514           11 
 1930000   0.48709633    -4.187249     903.7084  0.039020225  0.037561198           21 
 1931000   0.47860143   -4.1977566    903.39622  0.038986545  0.037538918           13 
 1932000     0.486238    -4.188574    902.64151  0.038933812   0.03751656           14 
 1933000   0.47280169   -4.2044426    902.34945   0.03890108  0.037494236           26 
 1934000   0.48061141   -4.2020123    904.22858  0.038961935  0.037471876           31 
 1935000   0.47901013   -4.2107973    902.79363  0.038880001  0.037449525           13 
 1936000   0.48309185   -4.1984323    905.60015  0.038980723  0.037427222           20 
 1937000   0.48248702   -4.1966304    907.09048  0.039024715  0.037404985           15 
 1938000   0.48626808   -4.2107896    904.07491   0.03887491  0.037382708           14 
 1939000    0.4766148   -4.1957975    901.53466  0.038745688  0.037360353           46 
 1940000   0.48311975   -4.1962012    903.60568  0.038814677  0.037338014           45 
 1941000   0.47995977   -4.2029831    906.83315  0.038933245  0.037315802           26 
 1942000   0.47926877   -4.2113361    903.29531  0.038761385  0.037293534           46 
 1943000    0.4927533   -4.2176696    903.36565  0.038744452  0.037271264           40 
 1944000     0.482259   -4.2162534    903.44146  0.038727772  0.037249047           36 
 1945000    0.4801507   -4.2225901    903.34745  0.038703832  0.037226789           24 
 1946000   0.48172735   -4.2064343    905.94767  0.038795293  0.037204595           52 
 1947000   0.47088509   -4.2022708    902.06881  0.038609348  0.037182368           23 
 1948000   0.48553309   -4.1949005    905.18001  0.038722622  0.037160257           19 
 1949000   0.46453953   -4.2134391    903.47944  0.038630043  0.037138071            8 
 1950000   0.48380176   -4.2064887     903.0343  0.038591209  0.037115881           28 
 1951000   0.46882834   -4.2069688    903.28488  0.038582132  0.037093671           14 
 1952000   0.46435272   -4.2039362     903.8563  0.038586761  0.037071396           15 
 1953000   0.48018374   -4.2127286    903.46924  0.038550488  0.037049235           22 
 1954000   0.46881713   -4.1982645     904.3242  0.038567221  0.037027007           29 
 1955000   0.48229802   -4.2124314    904.97773  0.038575351  0.037004825           17 
 1956000    0.4650662   -4.1921252    902.28265  0.038440808   0.03698271           13 
 1957000   0.46826513   -4.2054832    904.48085   0.03851477   0.03696053           15 
 1958000    0.4712671   -4.2374887    902.61403  0.038415647  0.036938341           32 
 1959000   0.46979839   -4.2108249    903.11219  0.038417228  0.036916133           61 
 1960000   0.47315343   -4.2233711    903.24172  0.038403134  0.036893909          108 
 1961000   0.47525495    -4.218668    904.39917  0.038432737  0.036871681           38 
 1962000   0.46592608   -4.2124594      903.565  0.038377718  0.036849533           16 
 1963000   0.46733302   -4.2334254    902.47755  0.038312003  0.036827334          101 
 1964000    0.4756671   -4.2091055     903.7054  0.038344594  0.036805155          128 
 1965000   0.46758989   -4.2334896    900.54224  0.038190935  0.036782903           64 
 1966000   0.47320182   -4.2270423    903.99386  0.038317814  0.036760654           35 
 1967000   0.46363165   -4.2326707    903.13031  0.038261748  0.036738422           33 
 1968000    0.4718205   -4.2200581    904.36556  0.038294612  0.036716215           84 
 1969000   0.47043715   -4.2268417    902.37112  0.038190753  0.036694093           77 
 1970000   0.45819704   -4.2280019    901.14762  0.038119612  0.036671932           56 
 1971000   0.46346719   -4.2457021     902.0869  0.038139984  0.036649771           60 
 1972000   0.46949004   -4.2313881    903.93901   0.03819891  0.036627646           38 
 1973000   0.46393905   -4.2403917    904.32243  0.038195744  0.036605505           74 
 1974000   0.46540593   -4.2367537    901.13268  0.038041737  0.036583369           67 
 1975000   0.47993573   -4.2468888    904.38956  0.038159897  0.036561327           33 
 1976000   0.45984111   -4.2232986    903.98636  0.038123581  0.036539275           35 
 1977000   0.46443729   -4.2211266    902.14304  0.038026599  0.036517238           16 
 1978000   0.47063103    -4.226344    903.59751  0.038068651  0.036495241           17 
 1979000   0.45871412   -4.2492577    903.25553  0.038035015  0.036473191           39 
 1980000   0.45486024    -4.224958    901.89099  0.037958375  0.036451126           19 
 1981000   0.44547283   -4.2251702    902.12841  0.037949201  0.036429091           16 
 1982000   0.45774471   -4.2236417    901.14133  0.037888552  0.036407076           25 
 1983000   0.45738068   -4.2254033    900.86251  0.037857729  0.036385031           35 
 1984000   0.46044611   -4.2426364    902.20453  0.037895015  0.036363005           23 
 1985000   0.45233175   -4.2420807    902.97177  0.037908135  0.036340969           30 
 1986000   0.44896595   -4.2353146     901.9092  0.037844461  0.036318945           20 
 1987000   0.46033062   -4.2289066    901.96615  0.037827804  0.036296933           29 
 1988000   0.45519206   -4.2535597    901.72501  0.037798667  0.036274968           38 
 1989000   0.46081101   -4.2580497    900.49209  0.037728008   0.03625291           80 
 1990000   0.45074827   -4.2469822    902.26386  0.037783244  0.036230817           63 
 1991000   0.46717658   -4.2406571     900.4642  0.037688942  0.036208694           33 
 1992000   0.46151523   -4.2307629    901.92194  0.037731005  0.036186618          106 
 1993000    0.4575345   -4.2385076    903.06865  0.037760021   0.03616454           47 
 1994000    0.4543668   -4.2479525      900.597  0.037637788  0.036142484           12 
 1995000   0.46024689   -4.2734793    901.41138   0.03765294  0.036120424          102 
 1996000   0.45731783   -4.2437462    901.08799  0.037620574  0.036098392           71 
 1997000   0.45897739   -4.2479835    900.11369  0.037561079  0.036076397           72 
 1998000   0.45526477   -4.2544432    902.77847  0.037653423  0.036054401           57 
 1999000   0.45158558   -4.2687725    901.38673  0.037576569  0.036032402           17 
 2000000    0.4598434   -4.2536248    901.49258  0.037562191  0.036010376           38 
 2001000   0.44617995   -4.2474605    901.54179  0.037545469  0.035988355           40 
 2002000   0.45523924   -4.2594964    901.90594  0.037541872  0.035966377           79 
 2003000   0.45394734   -4.2583556    903.46374  0.037587941  0.035944405           79 
 2004000   0.45875318   -4.2672579    902.78848  0.037541105  0.035922439           46 
 2005000   0.45717644   -4.2501232    901.07867  0.037451316  0.035900505           35 
 2006000   0.45009578   -4.2655146     901.4635  0.037448633  0.035878625           48 
 2007000   0.45278415   -4.2620517    901.64631  0.037437565   0.03585673           52 
 2008000   0.45426441   -4.2650988    901.90509   0.03742966  0.035834791           45 
 2009000    0.4613808   -4.2598999    900.23494  0.037341751  0.035812861           45 
 2010000   0.45692492   -4.2836755     900.7426   0.03734422  0.035790893           57 
 2011000   0.45072927   -4.2857981    900.09844  0.037298957  0.035768966           34 
 2012000   0.45119407   -4.2595846    900.93267  0.037314971   0.03574706           28 
Loop time of 4950.31 on 48 procs for 2000000 steps with 4000 atoms

Performance: 69813.844 tau/day, 404.015 timesteps/s
99.4% CPU use with 48 MPI tasks x no OpenMP threads

MPI task timing breakdown:
Section |  min time  |  avg time  |  max time  |%varavg| %total
---------------------------------------------------------------
Pair    | 317.43     | 345.34     | 371.18     |  65.1 |  6.98
Neigh   | 33.195     | 34.623     | 36.191     |  15.4 |  0.70
Comm    | 305.72     | 334.48     | 360.89     |  67.4 |  6.76
Output  | 4.2115     | 4.2132     | 4.2484     |   0.3 |  0.09
Modify  | 4174.5     | 4186.9     | 4204       |  10.6 | 84.58
Other   |            | 44.73      |            |       |  0.90

Nlocal:        83.3333 ave          92 max          76 min
Histogram: 1 6 4 7 8 11 5 1 3 2
Nghost:        2237.73 ave        2251 max        2218 min
Histogram: 1 2 4 4 3 6 10 11 2 5
Neighs:        14922.1 ave       16808 max       13247 min
Histogram: 4 2 6 4 8 12 3 3 5 1
FullNghs:      29843.2 ave       33387 max       27182 min
Histogram: 2 3 9 7 12 6 3 4 0 2

Total # of neighbors = 1432476
Ave neighs/atom = 358.11900
Neighbor list builds = 108309
Dangerous builds = 0

#clear
#
#next RN
#
#jump SELF
Total wall time: 1:22:33
