
units lj                  # Use reduced LJ style units
atom_style atomic         # Uncharged point particles
atom_modify map hash      # Needed for indexing of clusters etc
                          # Used to be able to find where atoms are in relation to each other.

lattice fcc 1.0 spacing 1 1 1
Lattice spacing in x,y,z = 1.5874011 1.5874011 1.5874011
region box block 0 10 0 10 0 10 units lattice
create_box 2 box
Created orthogonal box = (0.0000000 0.0000000 0.0000000) to (15.874011 15.874011 15.874011)
  3 by 4 by 4 MPI processor grid
create_atoms 1 box
Created 4000 atoms
  using lattice units in orthogonal box = (0.0000000 0.0000000 0.0000000) to (15.874011 15.874011 15.874011)
  create_atoms CPU = 0.003 seconds
set type 1 type/fraction 2 0.21 78393
Setting atom values ...
  872 settings made for type/fraction
mass 1 1.0
mass 2 1.0
pair_style lj/cut  3.5
pair_modify tail  yes
pair_coeff 1  1  1.0  1.0   # Intearaction between 1 and 1 set with epsilon = 1 and sigma = 1
pair_coeff 1  2  1.5  0.8
pair_coeff 2  2  0.5  0.88

write_data data.0
System init for write_data ...
Neighbor list info ...
  update every 1 steps, delay 10 steps, check yes
  max neighbors/atom: 2000, page size: 100000
  master list distance cutoff = 3.8
  ghost atom cutoff = 3.8
  binsize = 1.9, bins = 9 9 9
  1 neighbor lists, perpetual/occasional/extra = 1 0 0
  (1) pair lj/cut, perpetual
      attributes: half, newton on
      pair build: half/bin/atomonly/newton
      stencil: half/bin/3d
      bin: standard
WARNING: Not all mixed pair coeffs generated from mixing. Use write_data with 'pair ij' option to store all pair coeffs. (../write_data.cpp:312)


#############################
#   M E L T   S Y S T E M   #
#############################

velocity all create 2.4 5833274 mom yes dist gaussian # Assign velocities
                                                    # Temperature 2.4, random number seed, zero linear momentum
                                                                                # Gaussian distribution

timestep 0.002   # simulation timestep
thermo 1000       # output thermodynamic data every 1000 steps bf 100

# Define a fix  in this case with index 1 applied to all
# particles in the simulation. This fix is for simulations
# in the anisotropic NPT ensemble. Note that we use the MTK
# correction.
fix 1 all npt temp 2.4 2.4 0.1 iso 5.68 5.68 0.5 mtk yes tchain 5 pchain 5 # Use NPT ensemble
                                                                         # Set temperature and pressure and damping
                                                                         # Numbers of thermostats in chain and in barostat
run 10000          # run for 10000 steps
Per MPI rank memory allocation (min/avg/max) = 3.642 | 3.644 | 3.648 Mbytes
Step Temp E_pair E_mol TotEng Press Volume 
       0          2.4   -6.9803555            0   -3.3812555   -3.6586826         4000 
    1000    2.4202418    -4.851632            0   -1.2221768    5.6851276    4437.5374 
    2000    2.4137262   -4.8414142            0   -1.2217301    5.8150532    4425.6643 
    3000    2.4168789   -4.8699432            0   -1.2455312    5.7216695    4420.9571 
    4000     2.368899   -4.8028142            0   -1.2503541    5.8008298    4451.6796 
    5000    2.4115348   -4.7983439            0    -1.181946    5.9664754    4438.0065 
    6000    2.3883263   -4.9025991            0   -1.3210052    5.3851265     4440.114 
    7000    2.3761279   -4.8198165            0   -1.2565158    5.7858261    4442.3782 
    8000     2.396979   -4.8537065            0   -1.2591369    5.8794969    4406.9391 
    9000    2.3518083   -4.8983139            0   -1.3714834    5.7566673    4392.2713 
   10000    2.3588128   -4.8877955            0   -1.3504607    5.6747696    4405.2599 
Loop time of 2.31823 on 48 procs for 10000 steps with 4000 atoms

Performance: 745396.090 tau/day, 4313.635 timesteps/s
99.7% CPU use with 48 MPI tasks x no OpenMP threads

MPI task timing breakdown:
Section |  min time  |  avg time  |  max time  |%varavg| %total
---------------------------------------------------------------
Pair    | 0.97702    | 1.043      | 1.1697     |   3.8 | 44.99
Neigh   | 0.19679    | 0.20626    | 0.23089    |   1.5 |  8.90
Comm    | 0.6497     | 0.80987    | 0.8899     |   5.2 | 34.93
Output  | 0.00025547 | 0.00026194 | 0.00042291 |   0.0 |  0.01
Modify  | 0.1997     | 0.2443     | 0.30434    |   5.3 | 10.54
Other   |            | 0.01453    |            |       |  0.63

Nlocal:        83.3333 ave          91 max          75 min
Histogram: 3 5 1 6 5 7 11 3 3 4
Nghost:        1534.67 ave        1563 max        1507 min
Histogram: 3 4 4 7 4 11 5 3 5 2
Neighs:        8658.60 ave       10096 max        7615 min
Histogram: 6 3 4 8 8 7 8 3 0 1

Total # of neighbors = 415613
Ave neighs/atom = 103.90325
Neighbor list builds = 911
Dangerous builds = 237

# Equilibrate just above the melting temperature to avoid step fn in T

fix 1 all npt temp 1.25 1.25 0.1 iso 5.68 5.68 0.5 mtk yes tchain 5 pchain 5
run 2000
Per MPI rank memory allocation (min/avg/max) = 3.643 | 3.645 | 3.649 Mbytes
Step Temp E_pair E_mol TotEng Press Volume 
   10000    2.3588128   -4.8877955            0   -1.3504607    5.6747696    4405.2599 
   11000    1.2754664   -6.5263963            0    -4.613675    5.7595425    3631.8708 
   12000    1.2612897    -6.613466            0   -4.7220043    5.9324465    3591.5442 
Loop time of 0.638874 on 48 procs for 2000 steps with 4000 atoms

Performance: 540952.048 tau/day, 3130.510 timesteps/s
99.1% CPU use with 48 MPI tasks x no OpenMP threads

MPI task timing breakdown:
Section |  min time  |  avg time  |  max time  |%varavg| %total
---------------------------------------------------------------
Pair    | 0.22251    | 0.24777    | 0.27167    |   2.2 | 38.78
Neigh   | 0.031451   | 0.035214   | 0.079596   |   3.5 |  5.51
Comm    | 0.15768    | 0.19794    | 0.24603    |   5.6 | 30.98
Output  | 5.1804e-05 | 5.3237e-05 | 6.7875e-05 |   0.0 |  0.01
Modify  | 0.12665    | 0.15325    | 0.18404    |   6.0 | 23.99
Other   |            | 0.004645   |            |       |  0.73

Nlocal:        83.3333 ave          91 max          76 min
Histogram: 1 4 5 8 9 2 8 4 5 2
Nghost:        1767.83 ave        1788 max        1751 min
Histogram: 2 8 4 4 6 13 4 5 1 1
Neighs:        10639.1 ave       11857 max        9500 min
Histogram: 2 5 3 9 9 5 4 6 4 1

Total # of neighbors = 510678
Ave neighs/atom = 127.66950
Neighbor list builds = 141
Dangerous builds = 8

#############################
# L I N E A R  Q U E N C H  #
#############################

# Define solid atoms. This closely follows ten Wolde  Ruiz-Montero and Frenkel  Faraday Discuss  1996  104  93-110
# Compute components of the per-atom q6 vector
compute q6 all orientorder/atom degrees 1 6 components 6 nnn NULL cutoff 1.3 # compute the Q6 parameter.
                                                                             # Use all neighbours within 1.3 unit cell.

# get number of connections
compute coord_number all coord/atom orientorder q6 0.5

# An atom is solid if it has 8 or more connections (of a possible 14)
variable is_solid atom c_coord_number>=8
group solid dynamic all var is_solid    # Must be dynamic to update
dynamic group solid defined

# do clustering
compute cluster solid cluster/atom 1.3 # Create a cluster where all atoms within are solid and max 1.3 units from another member

# define chunks one chunk per cluster
compute clus_chunks solid chunk/atom c_cluster nchunk every compress yes  # Says which atoms are in which chunk

# count the size of each chunk
compute size_chunks solid property/chunk clus_chunks count


# Find the maximum entry in the vector of chunk sizes
variable max_n equal max(c_size_chunks)


# Thermo style which includes this variable
# thermo_style custom step temp pe vol v_max_n

thermo ${N}  # Print the thermo information every 100 steps
thermo 1000  

# Reset the npt fix at a lower temperature (below freezing)
fix 1  all npt temp  ${temp} ${temp}  0.1  iso  5.68  5.68  0.5  mtk yes tchain  5  pchain  5
fix 1  all npt temp  0.45 ${temp}  0.1  iso  5.68  5.68  0.5  mtk yes tchain  5  pchain  5
fix 1  all npt temp  0.45 0.45  0.1  iso  5.68  5.68  0.5  mtk yes tchain  5  pchain  5

dump dmp2 all dcd ${N} traj.dcd
dump dmp2 all dcd 1000 traj.dcd


compute msd all msd com yes
variable twopoint equal c_msd[4]/6/(step*dt+1.0e-6)
fix 9 all vector 10 c_msd[4]
variable fit equal slope(f_9)/6/(10*dt)
thermo_style custom step temp pe c_msd[4] v_twopoint v_fit v_max_n

fix 1 all npt temp 1.25 ${temp} 0.1 iso 5.68 5.68 0.5 mtk yes tchain 5 pchain 5
fix 1 all npt temp 1.25 0.45 0.1 iso 5.68 5.68 0.5 mtk yes tchain 5 pchain 5
run 2000000 # 5000000  # Run for this many steps
Neighbor list info ...
  update every 1 steps, delay 10 steps, check yes
  max neighbors/atom: 2000, page size: 100000
  master list distance cutoff = 3.8
  ghost atom cutoff = 3.8
  binsize = 1.9, bins = 9 9 9
  4 neighbor lists, perpetual/occasional/extra = 1 3 0
  (1) pair lj/cut, perpetual
      attributes: half, newton on
      pair build: half/bin/atomonly/newton
      stencil: half/bin/3d
      bin: standard
  (2) compute orientorder/atom, occasional
      attributes: full, newton on
      pair build: full/bin/atomonly
      stencil: full/bin/3d
      bin: standard
  (3) compute coord/atom, occasional
      attributes: full, newton on
      pair build: full/bin/atomonly
      stencil: full/bin/3d
      bin: standard
  (4) compute cluster/atom, occasional
      attributes: full, newton on
      pair build: full/bin/atomonly
      stencil: full/bin/3d
      bin: standard
Per MPI rank memory allocation (min/avg/max) = 9.781 | 9.784 | 9.788 Mbytes
Step Temp PotEng c_msd[4] v_twopoint v_fit v_max_n 
   12000    1.2612897    -6.613466 2.0155396e-30 1.3996802e-32 8.3333333e+20            1 
   13000    1.2270854   -6.6286528   0.52395053 0.0033586571   0.04291595            3 
   14000    1.2882884   -6.6115822    1.0284532 0.0061217449  0.041692385            2 
   15000    1.2381787   -6.5718264    1.5120968 0.0084005372  0.041441673            1 
   16000    1.2369317   -6.5807931    1.9674376   0.01024707  0.040934707            1 
   17000     1.238854    -6.627404    2.4657221  0.012086873  0.040553703            3 
   18000    1.2425271   -6.6282859    2.9554034  0.013682423  0.040432158            4 
   19000    1.2589983    -6.579318    3.4512987  0.015137275  0.040496356            1 
   20000      1.24255   -6.5877563    4.0534669  0.016889445  0.040941776            3 
   21000    1.2803162   -6.5831566    4.5202609  0.017937543  0.041470016            1 
   22000    1.2508089   -6.6240453    5.0067956  0.018965134  0.041540778            1 
   23000    1.2587644   -6.6002862    5.4644564  0.019798755   0.04155906            6 
   24000     1.232772   -6.6488948     5.876947  0.020406066  0.041293229            3 
   25000    1.2527734   -6.5805349    6.3871467  0.021290489  0.041040789            2 
   26000    1.2217976   -6.6225939    6.9049495  0.022131248  0.040943205            2 
   27000    1.2348021   -6.6373744    7.3687242  0.022742975   0.04092889            1 
   28000    1.2550566   -6.6403049    7.8731872  0.023432104  0.040922881            2 
   29000    1.2514199   -6.5958538    8.4007758   0.02414016  0.040969133            3 
   30000     1.239861   -6.6693718    8.9715297  0.024920915  0.041078027            2 
   31000     1.237951   -6.6304295    9.4541129  0.025414282  0.041172423            7 
   32000    1.2387801   -6.5873752    9.9952364  0.026029261  0.041246749            2 
   33000    1.2260458    -6.636951    10.469515  0.026438169  0.041302698            1 
   34000    1.2354825   -6.5950629    10.927909   0.02678409  0.041339192            2 
   35000    1.2251899   -6.5653661    11.370164  0.027071818  0.041312073            1 
   36000    1.2447113   -6.6072327    11.998477  0.027774252  0.041318299            2 
   37000    1.2680137   -6.6326918    12.510419  0.028176618  0.041402795            1 
   38000    1.2461466    -6.609891    12.986677  0.028479554  0.041478093            2 
   39000    1.2272602   -6.6267372     13.47992  0.028803248  0.041525095            2 
   40000    1.2358164   -6.6420244    13.936587  0.029034556  0.041544821            2 
   41000    1.2433686   -6.6312873    14.499635  0.029470803  0.041588788            1 
   42000    1.2077158   -6.6525285    15.055162  0.029871353  0.041631938            1 
   43000    1.2581212   -6.6314045    15.645288  0.030320325  0.041703635            1 
   44000    1.2365713   -6.6405382    16.171557  0.030627948  0.041787353            4 
   45000    1.2295131   -6.6368312    16.680329  0.030889498  0.041868247            3 
   46000    1.2225363   -6.6159751    17.156513   0.03108064  0.041948983            1 
   47000     1.212359   -6.6370182    17.692108  0.031368986  0.041983336            2 
   48000    1.2390324   -6.6004395    18.261383   0.03170379   0.04203528            1 
   49000    1.2266911   -6.5983294    18.681091  0.031770563  0.042076729            1 
   50000    1.2494343   -6.6067969    19.210185  0.032016974  0.042103341            2 
   51000    1.2302997   -6.6384908    19.455312  0.031789725  0.042095259            5 
   52000    1.2355428    -6.606766    19.962633  0.031991399  0.042057104            2 
   53000    1.2520288   -6.6134579    20.501398  0.032234903  0.042004325            3 
   54000     1.241944    -6.660033    21.070947  0.032516893  0.041977902            2 
   55000    1.2195414   -6.6449285    21.601308  0.032729254   0.04197505            1 
   56000    1.2363361   -6.6449705    22.053666  0.032817955  0.041976719            2 
   57000    1.2475811   -6.6094809    22.520652   0.03292493  0.041967889            3 
   58000    1.2283787   -6.6479062    22.992677  0.033035455  0.041948956            1 
   59000     1.192087   -6.6401396    23.570147  0.033291168  0.041942886            3 
   60000    1.2311689   -6.6694786    24.083432  0.033449211  0.041936828            3 
   61000    1.2195904   -6.6138107    24.506814  0.033479254  0.041932755            1 
   62000    1.2178581   -6.5962398    25.068801  0.033694625  0.041919548            2 
   63000    1.2353446   -6.6092371    25.491613  0.033719065  0.041907595            3 
   64000    1.2502172   -6.6606655    25.921689  0.033752198  0.041886561            1 
   65000    1.1900414   -6.6176521    26.506582  0.033982797  0.041863145            4 
   66000    1.1907141    -6.612391    27.297327  0.034466321  0.041884304            1 
   67000    1.2111633    -6.646942    27.741614  0.034504495  0.041907135            2 
   68000    1.2226517   -6.6445312    28.199374  0.034558056  0.041928537            2 
   69000    1.2016865   -6.6238157    28.677902  0.034635148  0.041943771            1 
   70000    1.2304222   -6.6030899    29.249638  0.034820997  0.041964168            1 
   71000    1.2281392   -6.6293002     29.57846  0.034716502  0.041968652            1 
   72000    1.2237687   -6.6237136    30.093219  0.034830115  0.041959219            2 
   73000    1.2301513   -6.6647249    30.550251  0.034874716   0.04194501            1 
   74000     1.210996   -6.6620538    30.920548  0.034820437  0.041907663            1 
   75000    1.2355161   -6.7058582    31.149714  0.034610794  0.041873231            1 
   76000    1.2250818   -6.6431042    31.759426  0.034823932  0.041833415            1 
   77000    1.2181476   -6.6063228    32.357374  0.035018803   0.04179072            2 
   78000    1.2305426   -6.6256167    32.776727  0.035017871  0.041754696            1 
   79000    1.2374016   -6.6511032    33.184403  0.035004644  0.041724418            5 
   80000    1.1887701   -6.6489811    33.655375  0.035057682  0.041693802            2 
   81000     1.195666   -6.6613777    33.991072  0.034970239  0.041648459            1 
   82000      1.21124   -6.6309061    34.416782  0.034976404  0.041602651            1 
   83000    1.2090795   -6.6702537    34.840916  0.034980839  0.041554579            3 
   84000    1.2348329   -6.6345454    35.235989  0.034956338  0.041493314            1 
   85000    1.2262814   -6.6558845    35.953819  0.035248842  0.041434247            1 
   86000    1.2211364   -6.6517174    36.308769  0.035182915  0.041387166            2 
   87000    1.2245147   -6.6262928    36.846356  0.035293445  0.041339441            1 
   88000    1.2221481    -6.646551    37.306681  0.035328297  0.041294891            1 
   89000    1.2319187   -6.6827549    37.678124  0.035279142  0.041253654            2 
   90000    1.2143644   -6.6635661    37.915048  0.035106526  0.041198519            1 
   91000    1.2193472   -6.6567958    38.299759  0.035073039   0.04113209            2 
   92000    1.2249857    -6.639357    38.475865  0.034851327  0.041058724            2 
   93000    1.1986717   -6.6853723    39.200806   0.03512617  0.040981644            2 
   94000    1.2176917   -6.6710475    39.598136  0.035104731  0.040918711            3 
   95000    1.2021021    -6.655205    40.204323   0.03526695  0.040861231            2 
   96000    1.1839397   -6.6323069    40.828728  0.035441604  0.040805908            2 
   97000    1.1827346    -6.695035    41.074064  0.035286996   0.04075066            2 
   98000    1.2317202   -6.6309487    41.700443   0.03545956  0.040705493            2 
   99000    1.2263247   -6.6807343    42.203256  0.035524626  0.040670147            2 
  100000    1.2088697   -6.6392381    42.975684   0.03581307  0.040647115            2 
  101000    1.2427993   -6.6633557    43.388222  0.035798862  0.040625182            2 
  102000    1.2205312    -6.707739    43.759779  0.035751453  0.040606425            1 
  103000    1.1931513   -6.6790318    44.308232  0.035848084  0.040579983            2 
  104000    1.2080115   -6.6894489      44.8463  0.035934535  0.040560347            1 
  105000    1.1962116   -6.6695698    45.135858   0.03582211  0.040538598            1 
  106000    1.2012311    -6.652299    45.621403  0.035865882  0.040510076            2 
  107000    1.2209614   -6.6356494    45.860415  0.035716834  0.040479129            1 
  108000    1.2322188   -6.6786137    46.302156  0.035726972  0.040441702            2 
  109000    1.2260628   -6.7016009    46.930664  0.035879712   0.04041123            2 
  110000    1.2215784   -6.6784508    47.321646  0.035849732  0.040384243            3 
  111000    1.2120122   -6.6684872    47.766708  0.035860892  0.040357635            2 
  112000    1.2375842   -6.7250857    48.380831  0.035997642  0.040333635            1 
  113000    1.2261925   -6.6476099     48.77471   0.03596955  0.040304777            1 
  114000    1.2195458   -6.6585997    49.227911  0.035985315  0.040274358            1 
  115000    1.1997844   -6.6681746    49.358056  0.035766707  0.040245191            2 
  116000    1.2422411   -6.6637655    50.137839  0.036018563  0.040216752            1 
  117000    1.1899594    -6.704784    50.361953  0.035870337  0.040187922            1 
  118000    1.2095929   -6.6938124    50.936593   0.03597217  0.040154102            3 
  119000    1.2044048    -6.664081    51.376907  0.035978226  0.040119661            2 
  120000    1.2162331   -6.6426189    52.004828  0.036114464  0.040088899            2 
  121000    1.1954355    -6.717993    52.374293   0.03607045  0.040060646            1 
  122000    1.1922353   -6.6760898    52.828588  0.036085101  0.040035085            2 
  123000    1.1723875   -6.6887789    53.134128  0.035998732  0.040009781            2 
  124000    1.1760241   -6.6529092    53.666493  0.036066191  0.039987584            1 
  125000    1.2062518   -6.6320483    54.235748  0.036157165  0.039967029            2 
  126000    1.2352751   -6.7058432    54.678651  0.036163129  0.039948508            1 
  127000    1.1819558   -6.6748878    55.314889  0.036295859  0.039930926            2 
  128000    1.1878487   -6.6861056     55.74743    0.0362939  0.039916064            1 
  129000    1.2007637   -6.6394574     56.46703   0.03647741  0.039904544            3 
  130000    1.2313498   -6.6797412     56.80468  0.036413256  0.039894383            2 
  131000    1.2052189   -6.6686998    57.516207  0.036587918   0.03988813            2 
  132000    1.2228046   -6.7078289    57.876848  0.036538414  0.039883991            2 
  133000    1.1971504   -6.6865195    58.791357   0.03683669  0.039883865            2 
  134000     1.210725   -6.6814545    59.258828  0.036852505  0.039889488            1 
  135000     1.204601   -6.6809848    59.709922  0.036857977  0.039891923            1 
  136000    1.1663043   -6.7417345    60.241604  0.036912748   0.03990379            1 
  137000    1.2101276   -6.6957082    60.814196  0.036991603   0.03991273            3 
  138000    1.1797093   -6.6783571    61.107136  0.036900444  0.039919809            2 
  139000    1.1893928   -6.6847148    61.762427  0.037027834  0.039922004            1 
  140000    1.2017601   -6.7062932    62.077507  0.036950897  0.039923744            3 
  141000    1.2023884   -6.6966544    62.379049   0.03686705  0.039929926            1 
  142000    1.1988084   -6.6915543    63.074941   0.03701581   0.03993518            2 
  143000    1.1868865   -6.6728641     63.66004  0.037097926  0.039942665            2 
  144000    1.1892862   -6.7041324    63.909309  0.036984554  0.039948063            3 
  145000    1.2040547   -6.7298103    64.377775  0.036998721  0.039946326            3 
  146000    1.1956034   -6.7121697    64.728365  0.036945413  0.039945566            1 
  147000    1.1965078   -6.7284762    65.307056   0.03702214  0.039943686            4 
  148000    1.1826184   -6.7196449    65.476272   0.03686727   0.03994199            3 
  149000    1.2034452   -6.7061219    66.007717  0.036917068  0.039936216            1 
  150000    1.2133083   -6.6837311    66.434427  0.036908015  0.039925235            1 
  151000    1.1880394   -6.6896466    66.932934  0.036938705  0.039917669            1 
  152000    1.2156056   -6.7227482    67.198215  0.036841127  0.039912137            2 
  153000    1.1887056   -6.6791836    67.803903   0.03693023  0.039905869            2 
  154000    1.1823574   -6.6630111    68.420323  0.037023984  0.039897844            1 
  155000      1.20622   -6.7384846    68.726423   0.03694969  0.039890361            1 
  156000    1.1975493   -6.6865288    68.898609  0.036804812  0.039879376            1 
  157000    1.1791953   -6.6761685    69.463264  0.036870097  0.039867914            2 
  158000     1.208401   -6.7204308    69.761204  0.036793884  0.039853972            4 
  159000    1.1907145   -6.7077557    70.356968  0.036874721  0.039839213            1 
  160000    1.1815396   -6.7012418    70.971491  0.036964318  0.039827538            1 
  161000    1.1946916   -6.6935762     71.44971  0.036982251  0.039811019            2 
  162000    1.1662642    -6.698702    71.521644  0.036790969  0.039793946            2 
  163000    1.1949072   -6.7479628    72.069055   0.03684512  0.039775893            3 
  164000    1.1829179   -6.7123457    72.436856  0.036807345   0.03975542            1 
  165000    1.2027763   -6.7302153    72.761515   0.03674824  0.039734612            2 
  166000    1.2066729    -6.690889    73.336354  0.036815439  0.039715705            3 
  167000    1.1532845    -6.754015     73.47842  0.036665878  0.039695038            2 
  168000    1.2131136    -6.716727    74.081224  0.036746639  0.039675114            3 
  169000    1.1702799   -6.7025749    74.457974  0.036714977  0.039654858            1 
  170000    1.2158432   -6.7458174    75.139419  0.036833048   0.03963869            3 
  171000    1.1907103   -6.7029036    75.747554  0.036914012  0.039623993            1 
  172000    1.1902177   -6.7200666    76.112302  0.036876115  0.039610192            1 
  173000    1.2014726   -6.6790402    76.532808  0.036865515  0.039596444            1 
  174000    1.1665793   -6.7291166    77.275765  0.037009466  0.039583655            3 
  175000    1.1840091   -6.7082266    77.602253  0.036953454  0.039570453            1 
  176000    1.1728847   -6.7253946    78.260277  0.037055055  0.039560686            2 
  177000      1.19495   -6.7143238    78.870213  0.037132869  0.039551714            2 
  178000    1.1778679   -6.7323681    79.037971  0.037002795  0.039545896            2 
  179000     1.187019   -6.6772144    79.594471  0.037055154  0.039537064            2 
  180000    1.1898077   -6.7483758    79.678022  0.036887973  0.039523274            1 
  181000    1.1905073    -6.730523    79.870473  0.036772777  0.039506993            5 
  182000    1.1740766   -6.7125095    80.333739  0.036782847  0.039488975            1 
  183000    1.1843933   -6.7431016    80.622461  0.036713324  0.039469186            2 
  184000    1.1813937   -6.7231112    80.966644  0.036669676  0.039446997            1 
  185000    1.1604187   -6.7205607    81.487432   0.03670605  0.039428725            2 
  186000    1.1666284   -6.7356524    81.955359  0.036718351   0.03940827            1 
  187000     1.203566   -6.7317919    82.604901  0.036811453  0.039390599            1 
  188000    1.1752067    -6.680864    83.200468   0.03687964  0.039373917            1 
  189000    1.1817314   -6.7148027    83.407316  0.036775712  0.039355263            2 
  190000    1.1875407   -6.7726766    83.658998  0.036692543  0.039336132            1 
  191000     1.209367   -6.7352431    84.317116  0.036787572  0.039317703            5 
  192000    1.1546948   -6.7166431    84.939887   0.03686627  0.039300087            1 
  193000     1.173391   -6.7563249    84.791097  0.036611009  0.039279897            2 
  194000    1.1752215   -6.7068907    85.301834  0.036641681  0.039256356            3 
  195000    1.1803292   -6.7126214    85.466052  0.036523954  0.039233214            1 
  196000    1.1789991   -6.7443111     85.56757   0.03638077  0.039207401            3 
  197000    1.1614687   -6.7298331    86.065654  0.036406791  0.039180034            1 
  198000     1.186842   -6.7163169    86.435139  0.036378425  0.039149742            5 
  199000    1.1375243   -6.7122937    86.766384  0.036334332  0.039117634            1 
  200000    1.1583975   -6.7368119    86.966845  0.036236186  0.039086136            1 
  201000    1.1705899   -6.7448209    87.342661  0.036211717  0.039053369            2 
  202000     1.188462     -6.74596    87.829341  0.036233227  0.039020999            2 
  203000    1.1708413   -6.7327386     88.33522  0.036262406  0.038989913            1 
  204000     1.183241   -6.7163145    88.792613  0.036271492  0.038959068            2 
  205000    1.1621581   -6.7873477    88.663982  0.036042269  0.038925842            2 
  206000    1.1622144   -6.7675623    89.031408  0.036015942  0.038892476            2 
  207000    1.1600957   -6.7937785    89.683457  0.036104451  0.038860391            2 
  208000    1.1778475   -6.7303631    90.251759  0.036158557  0.038827638            2 
  209000    1.1786393   -6.7450253    91.029373  0.036295603  0.038799624            2 
  210000    1.1549654   -6.7855422    91.325474  0.036240267  0.038773006            2 
  211000    1.1616139   -6.7391709    91.996584  0.036333564  0.038747496            1 
  212000    1.1620943   -6.7124587    92.661488  0.036423541  0.038723205            2 
  213000    1.1754961   -6.7365135    92.998237  0.036384287  0.038698695            2 
  214000    1.2095611   -6.7217293     93.28543  0.036326102  0.038675231            3 
  215000     1.156084   -6.7216855    93.692036  0.036314743  0.038650868            2 
  216000    1.1927328   -6.7629209    94.043676  0.036282282  0.038627335            2 
  217000    1.1816973   -6.7506727    94.812452  0.036410312  0.038603778            3 
  218000    1.1666903   -6.7709988    94.802924   0.03623965  0.038579146            2 
  219000    1.1305558   -6.7328876    95.256501  0.036246766  0.038553988            1 
  220000    1.1576899   -6.7493648    95.776887  0.036279124  0.038529538            1 
  221000    1.1705524   -6.7577763    96.044398  0.036215836  0.038505287            1 
  222000    1.1567617   -6.7996201    96.182872  0.036104682  0.038480279            1 
  223000     1.169106   -6.7363825    96.648207  0.036116669  0.038452646            1 
  224000    1.2019895   -6.7547799    96.944953  0.036065831  0.038423836            1 
  225000    1.1670935   -6.7499958    97.194474  0.035997953  0.038396528            2 
  226000    1.1783651    -6.773318    97.941925  0.036114279  0.038367769            2 
  227000    1.1852575   -6.7779719    97.712709  0.035871038  0.038338331            1 
  228000    1.1782168   -6.7708648    98.512751  0.036006122  0.038311016            3 
  229000      1.18384    -6.769826    99.228273   0.03610927  0.038283972            1 
  230000    1.1735763    -6.758491    99.528488  0.036061046  0.038259066            1 
  231000    1.1685536   -6.7938062    99.841664  0.036017916   0.03823324            5 
  232000      1.16682   -6.7513973    100.34534  0.036043585  0.038206005            1 
  233000     1.163197   -6.7656974    101.11123  0.036162815   0.03818252            2 
  234000    1.1567696   -6.7641906     101.5183   0.03615324  0.038159746            1 
  235000    1.1685042   -6.7494141    101.56066  0.036014418  0.038135058            2 
  236000    1.1568433   -6.7467889    101.93132  0.035992698  0.038109488            1 
  237000    1.1388952   -6.7929732    101.92394  0.035838234  0.038085236            1 
  238000    1.1486332   -6.7515328    102.95548  0.036048838  0.038060196            1 
  239000    1.1859093   -6.7805692    103.15482  0.035967511  0.038035956            1 
  240000    1.1870462   -6.7532262    103.74517  0.036022628  0.038012691            2 
  241000    1.1597874   -6.7747463    104.07125  0.035985908  0.037991259            2 
  242000    1.1521244   -6.7494819    104.58432  0.036013885   0.03797092            2 
  243000    1.1599648   -6.7606415    104.86705  0.035962638  0.037949964            2 
  244000    1.1650697   -6.7501618    105.32691  0.035972305  0.037928656            5 
  245000    1.1250983   -6.7994437    105.76781  0.035975446  0.037907394            2 
  246000    1.1337635   -6.7705426    106.34025  0.036023119  0.037887443            1 
  247000    1.1541447    -6.759768    106.44871  0.035913871  0.037867325            3 
  248000    1.1623528   -6.7438069    107.29033  0.036051856   0.03784729            4 
  249000    1.1705335   -6.7670606    107.01376  0.035814511  0.037827196            2 
  250000    1.1571592   -6.7543654     107.9931    0.0359977  0.037805852            3 
  251000     1.137427   -6.7480455    108.13548  0.035901554  0.037782794            2 
  252000    1.1602229   -6.7361935    108.64712  0.035928279  0.037761146            1 
  253000    1.1790007   -6.7804669    108.92375   0.03587739  0.037740499            1 
  254000    1.1636816   -6.7995353    109.65305  0.035975411  0.037721087            2 
  255000    1.1491283   -6.7624389    110.18266  0.036007406  0.037702984            3 
  256000    1.1558642   -6.7850113    110.88044  0.036093893  0.037688044            7 
  257000    1.1459023   -6.7408779    111.10086  0.036024921   0.03767014            1 
  258000    1.1590518   -6.8018643     111.5754  0.036038565   0.03765311            2 
  259000    1.1335677   -6.8090386    112.29012  0.036129381  0.037637747            2 
  260000    1.1634557   -6.7921628    112.47459  0.036049548  0.037621281            1 
  261000    1.1367786   -6.7687153     112.9416  0.036060537  0.037605704            1 
  262000    1.1559387   -6.7779867    113.63822  0.036144471   0.03759083            2 
  263000    1.1340445   -6.7898015      113.165  0.035857097  0.037576169            2 
  264000    1.1413401   -6.7668819    114.20001  0.036047984  0.037560557            1 
  265000    1.1736769   -6.7915543    114.17468  0.035903989  0.037545208            4 
  266000    1.1393265   -6.7614086    115.12416  0.036066466  0.037528642            2 
  267000    1.1481812   -6.7585239    115.09138  0.035921155  0.037512304            2 
  268000    1.1537723   -6.7805282    115.36605  0.035872527  0.037494633            1 
  269000    1.1801771   -6.7867326    116.09494  0.035964976  0.037477323            3 
  270000    1.1530794   -6.7490467    116.47075  0.035947761  0.037461054            1 
  271000    1.1497948   -6.8121425    116.57055  0.035845803  0.037443905            2 
  272000    1.1413255   -6.8303057    116.87442  0.035807113  0.037426454            1 
  273000    1.1423605   -6.7995246    117.60532  0.035899061  0.037409642            2 
  274000    1.1357574   -6.7745579    117.80898  0.035829981   0.03739303            1 
  275000    1.1580505    -6.826846    118.30277  0.035849323  0.037376493            2 
  276000     1.121134   -6.8149552    119.02818   0.03593846  0.037359131            3 
  277000    1.1348859    -6.766756    118.96411  0.035789444  0.037341116            4 
  278000    1.1536219   -6.7857381    120.16379  0.036020322   0.03732604            2 
  279000    1.1252823   -6.7919023    119.86942  0.035803291  0.037310352            1 
  280000      1.13897   -6.7909636    120.57365  0.035885016  0.037294582            1 
  281000    1.1239593   -6.7875257    120.83732  0.035835505  0.037279656            2 
  282000    1.1493908   -6.8265443    121.10825   0.03578849  0.037263031            3 
  283000    1.1602762   -6.7848804    121.62286  0.035813563  0.037247484            1 
  284000     1.170496   -6.8409257    122.05398   0.03581396  0.037232677            2 
  285000    1.1314279   -6.8023486    122.16266  0.035720077  0.037218034            2 
  286000    1.1568096   -6.8045329    123.35475  0.035942527  0.037204715            3 
  287000    1.1217578   -6.7896881    123.49501  0.035858016  0.037190158            2 
  288000    1.1057739   -6.8708397    123.68327  0.035787983  0.037176574            2 
  289000    1.1309295   -6.8098569     124.4678  0.035890369  0.037161905            5 
  290000    1.1356385    -6.848477    124.23034  0.035698373  0.037147219            4 
  291000    1.1383156   -6.7988632    125.10996  0.035827594  0.037132585            1 
  292000    1.1514491   -6.8214654    125.52457  0.035823222  0.037117515            6 
  293000    1.1239826   -6.8063471     126.0364   0.03584653  0.037103045            1 
  294000     1.134205     -6.79518    126.46774  0.035846865  0.037089232            3 
  295000    1.1455629   -6.8207794    126.48435  0.035730041  0.037074719            3 
  296000    1.1464488   -6.8215725     126.6351  0.035651775  0.037058541            1 
  297000    1.1515137   -6.7987002    127.79417   0.03585695  0.037041921            2 
  298000    1.1528127   -6.8026527    127.35698  0.035614369  0.037026663            2 
  299000    1.1414131   -6.8135216    128.16446  0.035720306  0.037012115            2 
  300000     1.139457   -6.7578611    128.68462  0.035745729  0.036997393            2 
  301000    1.1433985   -6.8056581    128.98942  0.035711358  0.036981595            3 
  302000     1.156465   -6.8073807     128.9138  0.035572241  0.036965703            3 
  303000    1.1291284   -6.8625569    129.30732  0.035563068  0.036949548            2 
  304000    1.1278331   -6.8360411     129.3413    0.0354554   0.03693289            2 
  305000    1.1354767   -6.8305979    130.20171  0.035574237  0.036916375            1 
  306000    1.1209273   -6.7687945    130.64493  0.035578684  0.036899486            1 
  307000    1.1260098   -6.8402594    130.61816  0.035455526  0.036882535            2 
  308000    1.1297556   -6.8373863     131.1888  0.035494804  0.036864916            2 
  309000    1.1606883   -6.8111992    131.93507  0.035581193    0.0368483            2 
  310000    1.1492196   -6.8354441    131.88101  0.035451885  0.036831095            2 
  311000    1.1348302   -6.8588771    131.94517  0.035355083  0.036812489            3 
  312000    1.1517718   -6.8349663    132.77975  0.035464678  0.036794598            2 
  313000    1.1426575   -6.8147132    133.79056  0.035620489  0.036777718            1 
  314000    1.1224744   -6.8264518    133.36371  0.035393765  0.036761711            1 
  315000    1.1241466   -6.8312335    134.28468  0.035525047  0.036745367            2 
  316000    1.1574917    -6.832402    134.95483  0.035589353  0.036730741            4 
  317000    1.1349096   -6.8480987    134.63181  0.035392169  0.036716133            1 
  318000    1.1210943   -6.8270638     135.4576  0.035497275   0.03670093            2 
  319000    1.1395987   -6.8136545    135.99326  0.035525929   0.03668657            3 
  320000    1.1365751   -6.8443848    136.45833  0.035536023    0.0366726            1 
  321000    1.1166736   -6.7933301    136.88611  0.035536372  0.036656543            2 
  322000    1.1292757    -6.849555    136.39905  0.035299961  0.036639862            1 
  323000    1.1163433    -6.832247    137.04205  0.035356567  0.036623534            2 
  324000    1.1496149   -6.8121414     137.4711  0.035357794  0.036606886            4 
  325000    1.1030726   -6.8249948    137.99035  0.035382141  0.036590656            2 
  326000    1.1136583   -6.8640771    137.68198  0.035194779  0.036572264            2 
  327000    1.1164525   -6.8446267    138.76193  0.035362367  0.036553766            1 
  328000    1.1425778   -6.8332881    138.73067  0.035246613  0.036534924            2 
  329000    1.1246157   -6.8402897    138.41308  0.035059038  0.036515083            3 
  330000    1.0947549   -6.8405985    138.96418  0.035091964    0.0364945            2 
  331000    1.1280803   -6.8242816    139.64256  0.035156738  0.036475098            2 
  332000    1.1187279   -6.8368665    139.32317  0.034970676  0.036455551            2 
  333000    1.1144476   -6.8611304    139.90501  0.035011264  0.036435795            3 
  334000    1.1082819   -6.8210316    140.61794  0.035084316  0.036416425            2 
  335000    1.1270972    -6.819588    140.85588  0.035038775  0.036396686            2 
  336000    1.1298542   -6.8603956    141.39865  0.035069109  0.036377632            2 
  337000     1.135951   -6.8342487    141.63524   0.03502355  0.036359765            1 
  338000    1.1458254   -6.8460085    142.38699  0.035105275  0.036341773            3 
  339000    1.1006748   -6.8328073    142.62927  0.035061276  0.036324179            2 
  340000    1.1214191   -6.8289552    143.42137  0.035152298  0.036307659            3 
  341000    1.1346712   -6.8649386    143.87578  0.035160259  0.036292023            1 
  342000    1.1350612   -6.8487471    144.67198  0.035251458  0.036276813            1 
  343000    1.1223711   -6.8648974    144.73681  0.035164434  0.036261952            1 
  344000    1.0987726   -6.8577532     144.6518  0.035041618  0.036246334            3 
  345000    1.1062463   -6.8760361    145.00609  0.035025627  0.036229649            3 
  346000    1.1242866    -6.854319    145.81023   0.03511807  0.036213637            2 
  347000    1.0958612   -6.8595597    145.56518  0.034958016   0.03619739            1 
  348000     1.113327   -6.8270412    145.86066   0.03492832  0.036179704            4 
  349000    1.1071042   -6.8415642    146.33262  0.034940932  0.036161553            4 
  350000    1.1377238   -6.8560115    146.58515  0.034901226  0.036142408            3 
  351000    1.1070262   -6.8449613    146.71005  0.034831447  0.036122966            2 
  352000    1.0897262    -6.823119    147.61869  0.034947607  0.036104721            3 
  353000    1.1146689   -6.8341508    147.87282  0.034908597  0.036087302            4 
  354000    1.1072551   -6.8881827    147.98632  0.034836703  0.036069712            1 
  355000    1.0935915   -6.8631456    148.20801  0.034790612  0.036051182            2 
  356000    1.1141113   -6.8865535    148.71267  0.034811017  0.036032454            1 
  357000    1.1284695   -6.8640356    149.32863   0.03485729  0.036014304            3 
  358000    1.1229707   -6.8891786    149.43662   0.03478506  0.035997654            2 
  359000    1.1246493   -6.8652944    149.96375  0.034810527  0.035980146            1 
  360000    1.1274343   -6.8552446    151.07085  0.034970105  0.035963136            4 
  361000    1.0885767   -6.8759601    151.18202  0.034898896  0.035947262            2 
  362000     1.117926   -6.8664547    151.77059  0.034937981  0.035930811            6 
  363000    1.1088301   -6.8632766    151.74968  0.034836933  0.035915154            1 
  364000    1.0995107   -6.8473229    151.92912  0.034782308  0.035899247            2 
  365000    1.1256969   -6.8596606    152.93525  0.034916725  0.035883934            7 
  366000    1.1268651   -6.8923423    153.02128   0.03484091  0.035867834            5 
  367000    1.1263827    -6.894928    153.18506  0.034783165  0.035851467            2 
  368000    1.1259108   -6.9100044    153.12055  0.034674037  0.035835531            2 
  369000    1.1223184   -6.9161099     153.8633   0.03474781  0.035820339            2 
  370000    1.0974311   -6.8772451    154.81057  0.034867246  0.035805476            2 
  371000    1.1144781    -6.889245    154.79532  0.034769838  0.035790258            2 
  372000    1.0891419   -6.8842909    155.12128   0.03474939  0.035774455            1 
  373000    1.1100813   -6.9118336    155.08454   0.03464802  0.035757688            4 
  374000    1.1050588   -6.8966596     155.5325  0.034655192  0.035740679            1 
  375000    1.1022354     -6.88194    155.98001  0.034662225   0.03572447            1 
  376000       1.0989   -6.9073834     156.7256  0.034735284  0.035707283            4 
  377000    1.1259265   -6.8616393     157.0516  0.034715207  0.035690536            2 
  378000    1.1290333   -6.9003002    157.09944  0.034633916  0.035674878            3 
  379000       1.1297   -6.8575666    157.92141  0.034723266  0.035660588            3 
  380000    1.0955171   -6.8884188    158.57659  0.034775569  0.035646393            3 
  381000    1.0973189   -6.8634117    158.88921  0.034752671  0.035631904            1 
  382000    1.0759951   -6.8748939    159.30313  0.034751991  0.035618253            1 
  383000    1.1177024   -6.9075278    159.14958  0.034627845  0.035603647            2 
  384000    1.1025034   -6.8772493    159.69937  0.034656981   0.03558849            3 
  385000    1.1465351   -6.8919037    160.08197  0.034649777  0.035573995            4 
  386000    1.1053906   -6.8949201     160.3654    0.0346212  0.035559404            2 
  387000     1.108099   -6.8737338    160.46431  0.034553037  0.035544951            6 
  388000    1.0999834   -6.9033055    160.96529  0.034571582  0.035530028            2 
  389000     1.108935   -6.8815875    161.86699  0.034675875  0.035514686            3 
  390000    1.1075399   -6.8938735    161.74387  0.034560656  0.035499584            1 
  391000    1.1295172   -6.9217612    161.84467  0.034493748  0.035483904            2 
  392000    1.1104599   -6.8620082    162.55091   0.03455589  0.035468625            4 
  393000    1.0927915   -6.9057032    162.55903  0.034469684  0.035452604            3 
  394000    1.0965748   -6.8711245    163.78313  0.034641102   0.03543686            3 
  395000    1.1156548   -6.9091368    163.29014  0.034449397  0.035422125            1 
  396000    1.0866684   -6.8361059    164.41347  0.034598794  0.035407335            2 
  397000    1.1103996   -6.9271478    164.07456  0.034440503  0.035393215            1 
  398000    1.0831806   -6.9069906    164.95783  0.034538909  0.035378547            3 
  399000    1.0891191   -6.9048328    165.00443  0.034462078  0.035364302            4 
  400000     1.086859   -6.8977929    165.31958   0.03444158  0.035349918            1 
  401000    1.0832365   -6.8731914     166.2427  0.034547528  0.035334949            2 
  402000    1.0907066   -6.8796231    166.11467  0.034435047  0.035320229            3 
  403000    1.1081353   -6.8605389    166.33913  0.034396014  0.035305559            1 
  404000    1.0901101   -6.8817897    166.68056  0.034381304  0.035290561            4 
  405000    1.0936805   -6.9391731    166.91462  0.034344572  0.035275735            3 
  406000    1.0713897    -6.889462    167.71287  0.034423823   0.03526001            4 
  407000    1.0739516   -6.9477817    167.52571  0.034300923  0.035244276            3 
  408000    1.1053531   -6.9007765    167.98316  0.034310287  0.035228449            3 
  409000    1.0976463   -6.9385322    167.93156  0.034215884  0.035212453            2 
  410000    1.1054659   -6.9313784    168.84851  0.034318804  0.035197039            2 
  411000    1.0825344   -6.9057315    169.36718  0.034340466  0.035182136            3 
  412000    1.0747795   -6.9110175    169.93732  0.034372435  0.035167239            3 
  413000    1.1215088   -6.9271446    169.72371  0.034246108  0.035152153            5 
  414000     1.128718   -6.9162952    170.71964  0.034363857  0.035137365            2 
  415000    1.0967745   -6.9238595    171.33512  0.034404643  0.035123082            2 
  416000    1.0782417   -6.9215355    170.85293  0.034225346  0.035108381            2 
  417000    1.0829355   -6.9127816    171.34914  0.034242435  0.035093576            1 
  418000    1.0753419   -6.9321884    171.57999  0.034206538  0.035078749            3 
  419000    1.0882202   -6.9015192    172.17808   0.03424385  0.035064112            3 
  420000    1.0859905   -6.9072355    172.80364  0.034286437   0.03504976            4 
  421000    1.1063382   -6.8978272    172.41566  0.034128198  0.035034848            2 
  422000    1.0701136   -6.8722643    173.31306  0.034224537  0.035019649            2 
  423000    1.0857206   -6.8839125    173.38879  0.034158549   0.03500373            2 
  424000    1.0784068   -6.9148674    173.85748  0.034170102  0.034988828            3 
  425000    1.0807595   -6.9362677    173.90441  0.034098905  0.034974424            3 
  426000    1.0994321   -6.8916695     174.9483  0.034223064  0.034960195            3 
  427000    1.1085253   -6.9596381    174.87642  0.034128887  0.034946877            4 
  428000    1.0815802   -6.9049049    174.96474  0.034066344  0.034932324            4 
  429000    1.1032218   -6.9642994    176.27862  0.034242157  0.034917473            3 
  430000     1.102199   -6.8974278    176.23928  0.034154899  0.034903014            5 
  431000    1.0619725   -6.8921865    175.82961  0.033996445  0.034887787            1 
  432000    1.0638233    -6.925269    176.04844  0.033959961  0.034871933            4 
  433000    1.0618533   -6.9489275     176.3208   0.03393395  0.034855955            3 
  434000    1.0798042   -6.9489644    176.37445  0.033866061  0.034839575            2 
  435000    1.0902324   -6.9161376    177.35823  0.033976671  0.034822865            3 
  436000    1.0636636   -6.9381481    177.54571  0.033934577  0.034806628            1 
  437000    1.0778256   -6.9504162    177.73522  0.033893063  0.034789829            2 
  438000    1.0895016   -6.9550501    177.46704  0.033764657  0.034772541            3 
  439000    1.1054971   -6.9396768    178.14563  0.033816557  0.034754932            2 
  440000    1.0821291   -6.9175551    178.20955  0.033751809  0.034737411            1 
  441000    1.0628841   -6.9176391    178.99651  0.033823982  0.034720201            1 
  442000     1.060527     -6.93078    178.75179  0.033701317  0.034703269            1 
  443000    1.0708388   -6.9401759    179.19314  0.033708266  0.034685711            1 
  444000    1.0813833   -6.9435759    179.45423  0.033681349  0.034667138            3 
  445000    1.0702495   -6.9463267    179.53069  0.033619979  0.034648931            3 
  446000    1.1035244   -6.9410844    180.06589  0.033644597  0.034630153            1 
  447000    1.0785548   -6.9427464    180.36474  0.033625045  0.034611502            3 
  448000    1.0801529   -6.9284809    180.72753  0.033617472  0.034593308            3 
  449000    1.0775335   -6.9221529    181.38841  0.033665258   0.03457502            2 
  450000    1.0844258   -6.9654098    180.73977  0.033470328  0.034556412            1 
  451000    1.0634142   -6.9423938    181.54083  0.033544129  0.034537509            1 
  452000    1.0744146    -6.928457    181.25958  0.033418064  0.034518387            5 
  453000    1.0446927   -6.9339212    181.64244  0.033414724  0.034499416            2 
  454000    1.0719606   -6.9259225    182.24646  0.033451992  0.034480194            2 
  455000    1.1044873   -6.9424354    182.25783  0.033380555  0.034460671            5 
  456000    1.0899928   -6.9243708    182.46354  0.033344945  0.034441146            3 
  457000    1.0730302   -6.9546417    183.00878  0.033371404   0.03442111            4 
  458000    1.0717834   -6.9326876    183.33888  0.033358603  0.034401277            2 
  459000     1.034005   -6.9345989    183.33931  0.033286004   0.03438207            2 
  460000     1.074952   -6.9572098    183.67604  0.033274645  0.034362973            2 
  461000    1.0761108   -6.9571865     183.6564  0.033198916  0.034343327            1 
  462000     1.069712   -6.9385425       184.71  0.033317099  0.034322779            3 
  463000    1.0501878   -6.9428934    184.86418  0.033272891  0.034301907            3 
  464000    1.0885542   -6.9862724     184.5984  0.033153449  0.034280658            2 
  465000    1.0518592    -6.960256    184.40701  0.033047852  0.034259122            2 
  466000    1.0779886   -6.9439981    185.00691  0.033084211  0.034238103            4 
  467000    1.0648859   -6.9405123    185.56207  0.033112432  0.034217607            1 
  468000    1.1002293   -6.9486216    185.76196  0.033077271  0.034197685            1 
  469000     1.072508   -6.9312115    185.78255  0.033010403  0.034177108            4 
  470000    1.0806142   -6.9904532    186.33382  0.033037911  0.034155708            2 
  471000    1.0590154   -6.9146163    186.93751  0.033074577  0.034134768            3 
  472000    1.0675416   -7.0059911    186.96643  0.033009609  0.034113764            2 
  473000    1.0527076   -6.9667582    187.09781  0.032962968  0.034092756            6 
  474000    1.0667627   -6.9753237    187.01624  0.032879086  0.034071296            3 
  475000    1.0672233    -6.957494    187.53467  0.032900819  0.034049764            1 
  476000    1.0530738   -6.9660716    188.13971  0.032937623  0.034028046            3 
  477000     1.054299   -6.9351941    188.44396  0.032921726  0.034006732            2 
  478000    1.0650532   -6.9878722    188.05846  0.032785645  0.033985803            4 
  479000    1.0438251   -6.9724184    188.76165  0.032839536  0.033964891            2 
  480000    1.0579301   -6.9462351    189.59052  0.032915021  0.033943795            4 
  481000    1.0801232   -6.9641845    189.25733  0.032788865  0.033922701            2 
  482000    1.0600572   -6.9526901    189.98031  0.032845835  0.033902059            3 
  483000    1.0819727   -6.9516293    190.33013  0.032838186  0.033881691            2 
  484000    1.0284047   -6.9499919     191.1926  0.032918836  0.033861452            2 
  485000    1.0793765   -6.9687464    191.50628  0.032904859  0.033841362            3 
  486000    1.0511563   -6.9501359    191.63089   0.03285852  0.033821519            4 
  487000    1.0503347   -6.9539554    192.65337  0.032966011  0.033802559            3 
  488000    1.0721215     -6.95528    191.96169  0.032780343  0.033783024            2 
  489000    1.0479278   -6.9566026    192.34218  0.032778149  0.033763331            4 
  490000    1.0611107   -6.9679624    191.69646   0.03260144  0.033743147            3 
  491000    1.0471127   -6.9895006    192.95014  0.032747818  0.033722488            3 
  492000    1.0676099   -6.9707868    192.37885  0.032584494  0.033701897            3 
  493000    1.0506393   -7.0164058    192.70509  0.032573544  0.033680562            1 
  494000    1.0597898   -6.9894658    192.69892  0.032506565  0.033659063            8 
  495000    1.0690901   -6.9802005    193.46208  0.032569374  0.033637664            2 
  496000    1.0327918   -6.9988587    193.55479  0.032519285  0.033615882            3 
  497000    1.0387004   -6.9589313    193.24815   0.03240244   0.03359408            2 
  498000    1.0411058   -7.0313233    193.37503  0.032358606  0.033571377            2 
  499000    1.0752106    -6.996452    193.93785   0.03238775  0.033548921            2 
  500000    1.0466357   -7.0089374    194.69974  0.032449956  0.033527674            3 
  501000     1.063851   -7.0004062    195.23627   0.03247443   0.03350626            2 
  502000    1.0509148   -6.9480956    196.17151  0.032564991  0.033485621            4 
  503000    1.0577723   -6.9799003    195.46833  0.032383752  0.033465058            4 
  504000    1.0553153   -6.9847936    195.80445  0.032375075  0.033444128            3 
  505000    1.0501764   -6.9634329    196.79035  0.032473655  0.033423484            1 
  506000    1.0624626    -7.006957    197.00854  0.032445412  0.033402869            2 
  507000    1.0620033   -6.9738919    196.91135  0.032365443  0.033381985            1 
  508000    1.0654555   -6.9856918    197.46745  0.032392955  0.033361015            2 
  509000    1.0601682   -7.0070287    197.40759  0.032319514  0.033340158            1 
  510000    1.0177225   -7.0031789    198.46557  0.032429014  0.033320065            4 
  511000    1.0467894   -6.9839782    198.83157   0.03242524  0.033299819            4 
  512000    1.0608782     -6.95114    199.23942  0.032428291  0.033280334            2 
  513000    1.0599932   -7.0226997    199.05969  0.032335882  0.033261226            1 
  514000    1.0494461    -6.961382    200.83592  0.032560946  0.033242527            4 
  515000    1.0213342   -6.9628569    200.77027  0.032487098  0.033224223            5 
  516000     1.042205   -6.9848324    199.81522  0.032269901  0.033206268            2 
  517000    1.0365741   -7.0018794    200.87619  0.032378497  0.033187729            2 
  518000    1.0528836   -6.9839887    201.43306  0.032405576  0.033169844            3 
  519000     1.065215   -6.9957933    201.73472  0.032391573  0.033151813            2 
  520000    1.0364323   -6.9921128    201.76243  0.032333722  0.033133461            4 
  521000    1.0543466   -7.0146307    201.95714  0.032302806  0.033115063            3 
  522000    1.0348201   -6.9784857    202.93351  0.032396793  0.033096413            2 
  523000    1.0442029     -7.00733    202.83335  0.032318889  0.033078226            3 
  524000    1.0344165   -6.9935987    203.18716   0.03231348  0.033059847            2 
  525000    1.0277004   -7.0275185    203.47029  0.032296871   0.03304175            3 
  526000     1.036552   -7.0345819    203.23473  0.032198152   0.03302312            2 
  527000     1.066187    -6.991156    203.98629  0.032255897  0.033004466            3 
  528000    1.0450244   -7.0026942    204.04017   0.03220331  0.032986144            3 
  529000     1.039887   -7.0230943    204.50564   0.03221576  0.032967333            3 
  530000    1.0249175   -6.9802052     204.7056  0.032186415  0.032948663            2 
  531000    1.0428925   -6.9911726    204.22938  0.032051064  0.032929727            1 
  532000    1.0565407    -6.969402    205.38667  0.032172098  0.032910659            1 
  533000    1.0297487   -7.0302103    205.06745  0.032061828  0.032891446            3 
  534000    1.0389952   -7.0186369    205.17924  0.032019231  0.032872376            1 
  535000    1.0326399    -7.015324    205.49126  0.032007984  0.032853055            3 
  536000    1.0413434   -6.9995751    206.07108  0.032038414  0.032833645            2 
  537000    1.0061681   -7.0192795    206.08733  0.031981273  0.032814648            6 
  538000    1.0059412   -6.9985397    206.19681  0.031938788   0.03279564            2 
  539000    1.0169429   -7.0058682    206.34477  0.031902408  0.032775857            3 
  540000    1.0420751   -7.0229023    207.21212   0.03197718  0.032756611            2 
  541000     1.034021   -7.0248276    206.77567  0.031850843  0.032737086            4 
  542000    1.0444734   -7.0102179    207.55239  0.031911499  0.032717765            2 
  543000    1.0380028    -7.013041    207.17665  0.031795066  0.032698149            3 
  544000    1.0496793   -7.0399491    207.35542  0.031764005   0.03267855            2 
  545000    1.0537227   -7.0079771     207.8347  0.031779006  0.032658233            4 
  546000    1.0292037   -7.0426881    207.28189   0.03163643  0.032637523            3 
  547000    1.0322202   -6.9552381    208.38733  0.031747003  0.032616669            2 
  548000    1.0314053   -7.0438301    208.93055  0.031771677  0.032596315            5 
  549000    1.0194615   -7.0387427    208.75043  0.031686465  0.032576392            2 
  550000    1.0400558   -7.0518256    209.28061  0.031709183  0.032556443            3 
  551000    1.0343684   -7.0094588    209.77977  0.031727128  0.032536605            3 
  552000    1.0441383   -6.9871195    210.23438  0.031738283  0.032517413            2 
  553000    1.0419095   -7.0132169    210.11878  0.031663469  0.032497848            6 
  554000     1.018561   -7.0283289    210.41287  0.031650552  0.032478425            3 
  555000    1.0359249   -7.0439221    210.75784  0.031645321  0.032458705            1 
  556000    1.0350938   -7.0151372    210.48878  0.031548079  0.032439341            6 
  557000    1.0085513   -6.9875746    211.64713  0.031664742  0.032419376            2 
  558000    1.0359049   -7.0315079    211.20087  0.031541348  0.032399804            3 
  559000    1.0361516   -7.0337021    211.96595  0.031598979  0.032380085            1 
  560000    1.0359741   -7.0155907     212.5146  0.031624197   0.03236054            2 
  561000    1.0136099    -7.037012    211.61705  0.031434499  0.032340765            3 
  562000    1.0242732   -7.0411889    212.08961  0.031448637  0.032319896            2 
  563000    1.0548332   -7.0531553    212.36373  0.031433353  0.032298994            2 
  564000    1.0286091   -7.0412792     212.8519  0.031449749  0.032278156            2 
  565000    1.0579551   -7.0210917    212.18937  0.031296368  0.032257385            2 
  566000    1.0667973     -7.04397    212.48805  0.031285048  0.032236251            3 
  567000    1.0286692   -7.0279432    212.51767  0.031234226  0.032215198            2 
  568000    1.0578232    -6.987148    213.39619  0.031308126   0.03219436            6 
  569000    1.0075037   -7.0404505    213.61012  0.031284434  0.032173292            3 
  570000    1.0078057   -7.0485406    213.50707  0.031214484  0.032152117            2 
  571000    1.0166938   -7.0399258    213.29598  0.031129011  0.032130195            4 
  572000    1.0340233     -7.01603    213.44719  0.031096618  0.032108416            2 
  573000    1.0130424   -7.0352969    213.38694  0.031033587  0.032086537            3 
  574000    1.0300924    -7.034852    213.74023  0.031030811  0.032064362            7 
  575000    1.0179096   -7.0054257    214.30231  0.031058306  0.032042444            5 
  576000    1.0444104   -7.0068289    214.19895  0.030989432  0.032020255            2 
  577000    1.0178193   -7.0751806    214.52464  0.030982762  0.031997816            3 
  578000     1.047889   -7.0516857    215.14561  0.031018687  0.031975488            2 
  579000    1.0139182   -7.0650263    214.92925  0.030933973  0.031953037            3 
  580000    1.0242496   -7.0329386    215.79574  0.031005135  0.031931125            2 
  581000    1.0404453   -7.0199027    215.42248  0.030898233  0.031909281            4 
  582000    1.0176687   -7.0379531    215.33373  0.030832435  0.031887155            1 
  583000    1.0141515   -7.0065799    215.93444  0.030865414  0.031865278            3 
  584000    1.0140804   -7.0646332    215.86086  0.030802063  0.031843064            1 
  585000    1.0027788   -7.0660472    215.97301  0.030765385  0.031820739            2 
  586000    1.0433987   -7.0308667    216.95467  0.030852485  0.031798738            8 
  587000    1.0161686   -7.0433101    216.88194    0.0307896  0.031776761            2 
  588000    1.0334518   -7.0402625    217.61079  0.030840531  0.031754662            3 
  589000    1.0349572   -7.0580064    217.18291  0.030727633  0.031732833            2 
  590000    1.0442073   -7.0367384    217.90452  0.030777474   0.03171113            2 
  591000    1.0329193   -7.0697347    216.93797   0.03058911  0.031688931            2 
  592000    1.0034574   -7.0534608    217.79616  0.030658243  0.031666764            5 
  593000    1.0425042   -7.0623918     217.9626  0.030629932  0.031645009            3 
  594000   0.99812913   -7.0793103     218.3102  0.030627133  0.031622807            2 
  595000    1.0167254   -7.0559079    218.26232  0.030568952  0.031600938            3 
  596000    1.0156663   -7.0899608    218.87311  0.030603063  0.031578897            1 
  597000    1.0203422   -7.0632704     219.0866  0.030581603  0.031556933            5 
  598000    1.0092261   -7.0302158    219.97328  0.030654025  0.031534846            2 
  599000    1.0129146    -7.007473    219.75308  0.030572215  0.031512753            2 
  600000   0.99043432   -7.0936522    219.01038  0.030418109  0.031490512            2 
  601000    1.0235721   -7.0606078    219.32426  0.030411018  0.031468191            3 
  602000    1.0194961   -7.0493765    220.07426  0.030464322  0.031445755            3 
  603000    1.0059174   -7.0801528    220.71085  0.030501776  0.031423837            2 
  604000    1.0046181   -7.1024716    220.63497  0.030440807  0.031401562            6 
  605000    1.0167766   -7.0975456    220.89821   0.03042675  0.031378993            6 
  606000   0.99367939   -7.0644947    220.67671  0.030346082   0.03135642            3 
  607000    1.0229575   -7.0960319    221.22879  0.030371882  0.031334494            3 
  608000   0.99601317   -7.0735867    220.16907  0.030176682     0.031312            3 
  609000   0.99800561    -7.070315    221.81367  0.030352172  0.031289703            3 
  610000    1.0322419   -7.0286492    222.50543  0.030396916  0.031267515            3 
  611000    1.0421645   -7.0642407     222.5847  0.030357979  0.031245454            2 
  612000    1.0170589   -7.0541662    223.06518  0.030373799  0.031223568            3 
  613000     1.004639   -7.0928978    223.34732  0.030362605  0.031202172            6 
  614000    1.0130725   -7.0720095    223.03723  0.030271068  0.031180632            3 
  615000    1.0080833   -7.0858632     223.5742  0.030294608  0.031158919            2 
  616000    1.0001024   -7.0816075    223.30021  0.030208362  0.031136874            2 
  617000    1.0067718   -7.0551981    224.09805  0.030267159   0.03111492            2 
  618000    1.0201486   -7.0414445    223.86491  0.030186746  0.031092987            5 
  619000    1.0024672   -7.0882158    223.96131  0.030150958  0.031070706            6 
  620000    1.0074613   -7.0862018    223.94077  0.030099566  0.031048375            2 
  621000    1.0379683   -7.0967314    223.59156  0.030004236  0.031025464            2 
  622000   0.99183964   -7.0790192    223.69386  0.029969703  0.031002433            3 
  623000   0.99274851   -7.0925495    224.19924  0.029989197  0.030979494            2 
  624000    1.0083798    -7.093659    224.29506  0.029953935  0.030956446            2 
  625000   0.99799342   -7.0966106    224.61755  0.029949006  0.030933675            2 
  626000   0.99383525   -7.0780635    225.42287  0.030008369  0.030910733            3 
  627000    1.0077328   -7.0821569     225.1081  0.029918674  0.030888277            3 
  628000   0.99373133   -7.1079998    224.78602  0.029828294  0.030865632            6 
  629000    1.0250354   -7.0899994    226.43588  0.029999454  0.030843046            1 
  630000    1.0033084   -7.1210344     225.2399  0.029793638  0.030820512            1 
  631000    0.9866916   -7.0980846    225.86066  0.029828402  0.030797289            3 
  632000    1.0199575   -7.0954765    226.16303  0.029821075  0.030774412            6 
  633000   0.98844166   -7.0987569    226.45181  0.029811981  0.030751666            2 
  634000    1.0200214   -7.0708448    226.45916  0.029765926  0.030729181            2 
  635000    1.0137861   -7.0834927    226.92864  0.029780661  0.030706805            5 
  636000    1.0110765   -7.0867317    227.64159  0.029827252  0.030684411            3 
  637000   0.99619502   -7.1018676    227.37376   0.02974539  0.030662455            4 
  638000   0.99822743   -7.0982292    227.67509  0.029738126  0.030640332            2 
  639000   0.97061043   -7.0976082    228.18557   0.02975816  0.030618352            2 
  640000   0.98202303   -7.1038819    228.34215   0.02973205  0.030596198            4 
  641000   0.99691507   -7.0911046    229.22964  0.029801045  0.030574526            3 
  642000    1.0038677   -7.1109294    228.51681  0.029662099  0.030552655            3 
  643000    1.0091151   -7.1436485    228.36766  0.029596638  0.030530677            2 
  644000   0.99574735   -7.1169102    229.15662  0.029652772  0.030508484            3 
  645000   0.98919213   -7.1045354    228.97061  0.029582767  0.030486349            2 
  646000   0.99855187   -7.1160909    229.58138  0.029615761  0.030464401            2 
  647000    1.0129771   -7.1403997    229.83154  0.029602208  0.030442668            2 
  648000   0.98736293   -7.1593777    229.57432  0.029523447  0.030420916            2 
  649000   0.97845235   -7.1308946    229.92604  0.029523117  0.030399277            1 
  650000   0.99826766   -7.0673865    230.98379  0.029613307  0.030377823            3 
  651000    1.0157067   -7.1169708    231.35735  0.029615637  0.030356485            2 
  652000   0.99001976   -7.1027571    231.30115  0.029563031  0.030334977            2 
  653000   0.97333538   -7.1026298    231.34515  0.029523373  0.030313779            2 
  654000    1.0016107   -7.0962743    231.61756  0.029512941  0.030292396            3 
  655000   0.98399554   -7.0909987    232.04714  0.029522537  0.030271005            3 
  656000   0.97132695   -7.0928242    232.76783  0.029569084  0.030250221            2 
  657000   0.99988409   -7.1048086    233.11469  0.029568073  0.030229383            2 
  658000    1.0022695   -7.1298171    232.49836  0.029445081  0.030208428            7 
  659000   0.98636884   -7.1234568    232.51999  0.029403135  0.030187602            4 
  660000   0.99466943   -7.1008006    233.80393  0.029520699  0.030167047            2 
  661000   0.98505251   -7.1643676    233.71091   0.02946431  0.030146728            5 
  662000    1.0065049   -7.0983012    234.88906   0.02956811  0.030126587            3 
  663000   0.97250849   -7.1237921    234.51634  0.029476664  0.030106445            4 
  664000    0.9932408   -7.1128176     234.3027  0.029405459  0.030086003            2 
  665000   0.97748544   -7.1281656    233.97046  0.029319607   0.03006531            3 
  666000   0.97445276   -7.1105815    233.88344  0.029264695  0.030044492            3 
  667000   0.98790844    -7.093422    235.03008  0.029364078  0.030023721            2 
  668000   0.99353018   -7.1477112    234.84313  0.029296797  0.030003188            2 
  669000   0.97708917   -7.1247062    235.10303   0.02928538  0.029982514            6 
  670000   0.98170758    -7.136281     235.2713    0.0292626  0.029961821            2 
  671000   0.99233747   -7.1222283    234.93957  0.029177791   0.02994095            2 
  672000   0.98248658   -7.1421673    235.56154  0.029211501  0.029920031            2 
  673000   0.96927782   -7.1249022    236.19326  0.029246318  0.029899545            3 
  674000    1.0035292    -7.131079    236.22222  0.029206506  0.029878975            2 
  675000   0.98449172   -7.1248592    236.90645   0.02924771  0.029858379            5 
  676000   0.99702475   -7.1320229    236.37293  0.029138675  0.029837595            5 
  677000   0.96922862   -7.1393626    236.67041  0.029132252  0.029816829            2 
  678000   0.97176259   -7.1584314    237.06803  0.029138155   0.02979556            2 
  679000   0.98638267   -7.1370844    236.59015  0.029036591  0.029774457            3 
  680000   0.98007873   -7.1289134    237.04632  0.029049794  0.029753593            1 
  681000    0.9717809   -7.1288377    236.75728  0.028971767  0.029732541            4 
  682000   0.97165502   -7.0897545    238.19047  0.029104407  0.029711626            4 
  683000   0.96585189   -7.1397681    236.95655  0.028911243  0.029690799            4 
  684000   0.97604471   -7.1500588    237.69365  0.028958778  0.029669995            3 
  685000   0.98107035   -7.1265267    237.88175  0.028939386  0.029649147            2 
  686000   0.98609068   -7.1237581    238.56652  0.028980383  0.029628591            5 
  687000   0.96303766   -7.1143943    238.79015  0.028965326  0.029608349            2 
  688000   0.97909537   -7.1238169    239.45701  0.029003999   0.02958786            3 
  689000    0.9934344   -7.1194905    239.38496  0.028953188  0.029567202            1 
  690000   0.98006486   -7.1219858    239.56973  0.028933542  0.029546726            3 
  691000   0.98357289   -7.0958346    239.55261  0.028889606  0.029526228            3 
  692000   0.97429608   -7.1425361    239.29746  0.028817131  0.029505469            2 
  693000   0.97598524   -7.1423069    239.93129  0.028851766   0.02948502            2 
  694000   0.97497443   -7.1161557    240.57558  0.028887557  0.029464684            2 
  695000     1.006401   -7.1066186    240.44824  0.028830724  0.029444533            3 
  696000   0.98723045   -7.1284613    240.81778  0.028833547  0.029424282            1 
  697000   0.95950574   -7.1336158    240.32458  0.028733212  0.029403843            3 
  698000   0.99557115   -7.2194329    240.78609  0.028747145  0.029383007            1 
  699000    0.9885153   -7.1694999    240.04222  0.028617337  0.029362346            3 
  700000   0.99374796   -7.1689566    241.65697  0.028768686  0.029341845            3 
  701000   0.99082264   -7.1735964    240.95768  0.028644518  0.029321752            6 
  702000   0.97220749   -7.1401333    242.15349  0.028745666  0.029301313            3 
  703000    0.9647939   -7.1620139     241.6095  0.028640292  0.029280627            3 
  704000   0.96158588   -7.1341324    241.70867  0.028611348  0.029260254            2 
  705000   0.97648588     -7.13417     241.5311  0.028549776    0.0292394            3 
  706000   0.98183607   -7.1729989    241.70502  0.028529866  0.029218367            2 
  707000    1.0026578   -7.1258626    242.52413  0.028586059  0.029197554            3 
  708000   0.95565037   -7.1253533    242.71587  0.028568252  0.029176919            2 
  709000   0.97211602   -7.1371354    242.32802  0.028482372  0.029156275            2 
  710000    0.9648523   -7.1308561    243.09684  0.028532493  0.029135446            1 
  711000   0.98790272   -7.1779973    242.31922  0.028401221  0.029114378            2 
  712000   0.98023896    -7.136625    243.17458  0.028461445  0.029093502            1 
  713000    0.9355883   -7.1415582    243.88636  0.028504717  0.029072632            3 
  714000    0.9686813   -7.1451065    243.34477  0.028401584  0.029051556            4 
  715000   0.97591597    -7.114993    244.14149  0.028454719  0.029030884            2 
  716000   0.98701896   -7.1563863    243.86267  0.028382527  0.029010295            3 
  717000   0.98861194   -7.1574239    243.79528  0.028335109  0.028989468            2 
  718000   0.97185617   -7.1871091    244.97449  0.028432508  0.028968768            1 
  719000   0.95720329   -7.2061295    244.08107  0.028289415  0.028948006            4 
  720000   0.96300441   -7.1732831    244.64683  0.028315605  0.028927022            3 
  721000   0.96007004   -7.1309457    245.47169   0.02837167  0.028906373            5 
  722000    0.9669053   -7.1661724    245.81222  0.028371679  0.028885606            4 
  723000   0.98610675   -7.1628236    245.18881  0.028260583  0.028864933            2 
  724000   0.94955641   -7.1699907    245.99797  0.028314684  0.028844518            4 
  725000   0.97117634   -7.1712698    245.26245  0.028191086  0.028824133            2 
  726000    0.9817415   -7.1362827    245.50027  0.028179553  0.028803725            2 
  727000   0.97333923   -7.1423174    246.62487    0.0282697  0.028783399            1 
  728000    0.9627636   -7.1712988    246.33457  0.028197638  0.028763031            2 
  729000   0.96518973   -7.1489988    246.24629  0.028148867  0.028742624            7 
  730000   0.97552788   -7.1549908    247.16039  0.028214656  0.028722387            6 
  731000   0.98262991    -7.155625    247.88309  0.028258447  0.028702593            5 
  732000   0.95730699   -7.1929688    247.16463   0.02813805  0.028682728            3 
  733000   0.95285865   -7.1910645     247.4755  0.028135005  0.028662817            1 
  734000    0.9503149    -7.164557    247.99549  0.028155709  0.028642847            3 
  735000   0.99401241   -7.1666084    248.29017  0.028150813  0.028622852            2 
  736000   0.95331822   -7.1899995    248.01664  0.028081594  0.028602868            1 
  737000   0.98011555   -7.1888064    248.50099  0.028098258  0.028582886            3 
  738000   0.98046327   -7.1569668    248.54345  0.028064979  0.028562934            4 
  739000   0.97887159   -7.1611702    249.00034  0.028078523  0.028543228            1 
  740000   0.94169112   -7.1547734    248.94962  0.028034867  0.028523444            3 
  741000   0.95203283   -7.2058577    248.89796  0.027991223  0.028503758            2 
  742000    0.9640167   -7.1892353    249.19194  0.027986517  0.028484101            5 
  743000   0.96535331   -7.1819008     249.2569  0.027956135  0.028464307            2 
  744000   0.96743625   -7.2000936    249.10629   0.02790169  0.028444414            3 
  745000   0.94614063   -7.1876979    249.17093  0.027871469   0.02842461            3 
  746000    0.9512358    -7.172614     249.4225  0.027862209  0.028404555            2 
  747000   0.95540484   -7.2106808    249.64455  0.027849683   0.02838479            3 
  748000   0.96136491   -7.2007812    250.73984  0.027934474  0.028365051            3 
  749000   0.95493878   -7.1734737     250.2112  0.027838362  0.028345071            1 
  750000   0.94742892   -7.2206337    250.43975  0.027826639  0.028325412            6 
  751000    0.9514281   -7.1907069    250.43549  0.027789113  0.028305608            2 
  752000    0.9568652   -7.2032289    251.17764  0.027834401  0.028285767            1 
  753000   0.95640906   -7.1597124    251.48338  0.027831272  0.028265776            3 
  754000    0.9498825   -7.2058395    250.72652  0.027710712  0.028245912            2 
  755000   0.95880722   -7.2050482     250.4992  0.027648918  0.028225641            3 
  756000   0.96247898   -7.1825357    251.72002  0.027746916  0.028205276            4 
  757000   0.95863923    -7.180622    251.47235  0.027682997   0.02818491            2 
  758000   0.96638092   -7.2078457    250.85227  0.027578305  0.028164204            3 
  759000   0.96427331    -7.185609      251.452  0.027607817  0.028143832            3 
  760000   0.93719521   -7.2059611    251.52905   0.02757994  0.028123477            4 
  761000   0.96074072   -7.1427635    251.90421   0.02758478  0.028103163            4 
  762000    0.9234901   -7.1844067    252.45904  0.027609256  0.028083054            2 
  763000    0.9420218   -7.1875139    252.77006   0.02760704  0.028063085            3 
  764000   0.93934851   -7.1986126    252.96834  0.027592533  0.028043019            4 
  765000   0.92595719   -7.2324616    251.90052  0.027440144  0.028022974            5 
  766000   0.95741287   -7.2282106    253.23693   0.02754971  0.028002869            3 
  767000   0.92932559   -7.1907062    253.28322   0.02751882  0.027983101            7 
  768000   0.94526921   -7.2047442    253.43577  0.027499541  0.027963328            2 
  769000   0.94887941   -7.2339933    253.40393  0.027460331  0.027943408            5 
  770000   0.93135886   -7.2132673    253.73066  0.027460028  0.027923499            2 
  771000   0.96444217   -7.1808669    254.15801  0.027470602  0.027903566            2 
  772000   0.95054227   -7.2039116    253.69931  0.027385504  0.027883562            2 
  773000   0.94512451   -7.2035605    253.50672  0.027329314  0.027863608            3 
  774000   0.94594432   -7.2100105    253.59185  0.027303171  0.027843408            3 
  775000   0.95846014   -7.2340256    253.45061  0.027252753  0.027823228            3 
  776000   0.95297589   -7.1980058    254.55266  0.027335981  0.027803151            2 
  777000   0.95534612   -7.1767384    255.05352  0.027354517  0.027783229            2 
  778000   0.93694893   -7.2382288    254.57169  0.027267747  0.027763555            7 
  779000   0.91639305   -7.2327933    254.38657  0.027212941  0.027743532            3 
  780000   0.93160104   -7.2260884    254.94608  0.027237829  0.027723651            2 
  781000   0.92599922   -7.2071994     255.8672  0.027301238  0.027704097            1 
  782000   0.93042715   -7.1998826    256.27262  0.027309528  0.027684493            2 
  783000   0.94747107   -7.2354115    255.96162  0.027241551  0.027664952            3 
  784000   0.94402218   -7.2530996    256.05769  0.027217017  0.027645406            2 
  785000   0.96463393   -7.2366276    257.19138  0.027302695  0.027625983            2 
  786000   0.95333486   -7.2219007    257.31194   0.02728074   0.02760665            3 
  787000   0.94766641   -7.2383366    257.47474  0.027263315  0.027587632            3 
  788000   0.96930036   -7.2399983    257.70448  0.027253012  0.027568816            2 
  789000   0.94086134   -7.2640838    258.04922  0.027254882  0.027550028            5 
  790000   0.92365561   -7.2219883    257.04475  0.027114426  0.027531185            3 
  791000   0.94530145   -7.2469435    257.97872  0.027178541  0.027512216            2 
  792000   0.94942861   -7.2246099    258.16916  0.027164263  0.027493292            4 
  793000   0.92638592   -7.2109343    258.10864  0.027123648  0.027474456            3 
  794000   0.93377911   -7.2700081    258.36247  0.027116128  0.027455592            6 
  795000   0.93531386   -7.2297574    258.95708  0.027144348  0.027436669            2 
  796000   0.93906768   -7.2333047    258.75669  0.027089268  0.027417776            2 
  797000   0.93006646   -7.2259729    258.59728  0.027038612  0.027398865            1 
  798000   0.91490953   -7.2298832    258.91776  0.027038196  0.027379876            1 
  799000    0.9526769   -7.2189859    259.95917  0.027112971   0.02736091            3 
  800000   0.93871455   -7.2397472    258.93265  0.026972151  0.027341903            5 
  801000   0.92145849     -7.22157     260.3737  0.027088399   0.02732308            3 
  802000   0.93860376   -7.2257234    259.75235  0.026990061   0.02730432            3 
  803000   0.92508635    -7.258782    259.63419  0.026944187  0.027285648            4 
  804000   0.90920669   -7.2248034    260.67684  0.027018743  0.027267166            1 
  805000   0.92046031   -7.2721396    260.13015  0.026928587  0.027248327            3 
  806000   0.92956013   -7.2465115    259.92081  0.026873533  0.027229364            1 
  807000   0.94051464   -7.2183282    260.59972  0.026910339  0.027210483            2 
  808000   0.93659002   -7.2476585    260.14553   0.02683019  0.027191892            4 
  809000   0.93826444   -7.2667516    260.82539  0.026867057   0.02717295            4 
  810000   0.92595858   -7.2493786       260.57  0.026807614  0.027154125            2 
  811000   0.93437064    -7.236023    261.36969  0.026856729  0.027135233            3 
  812000   0.92729284   -7.2699044    261.11857  0.026797883  0.027116504            3 
  813000   0.91484734   -7.2652478    261.78033  0.026832752  0.027097541            1 
  814000   0.93993498   -7.2808902    261.93017  0.026815128  0.027078708            4 
  815000   0.92413535   -7.2418051    261.80166  0.026769086  0.027059914            3 
  816000   0.94301536   -7.2396588    261.86621  0.026742872  0.027041051            2 
  817000   0.91758636   -7.1741144    262.24087  0.026748355  0.027022216            3 
  818000   0.92103582   -7.2406945    261.79227  0.026669954  0.027003362            2 
  819000   0.91604326   -7.2361084    262.05309  0.026663928  0.026984126            2 
  820000   0.92909451   -7.2705002    260.94424  0.026518724  0.026964471            3 
  821000   0.90320234   -7.2508057    261.65467  0.026558533   0.02694477            2 
  822000   0.93197199   -7.2550088    261.38273  0.026498655  0.026925049            7 
  823000   0.91813695   -7.2571058    261.54051  0.026482434  0.026905668            2 
  824000   0.91064588   -7.2546783    261.53023  0.026449254  0.026886213            4 
  825000   0.90244874   -7.2477154    262.65266  0.026530571  0.026866772            3 
  826000   0.91415605   -7.2474017    262.45585  0.026478597   0.02684761            2 
  827000   0.92822288   -7.2385518    263.28861  0.026530493  0.026828213            2 
  828000   0.92954805   -7.2747434    263.38244  0.026507894  0.026808743            3 
  829000    0.9389386   -7.2588053    262.86496    0.0264239  0.026789568            2 
  830000   0.91180946   -7.2453623    263.12082  0.026417753  0.026770429            3 
  831000   0.92122672   -7.2426361    263.26315  0.026400236  0.026751275           11 
  832000   0.94400341   -7.2146761    264.12361  0.026454689  0.026732145            2 
  833000   0.91128189   -7.2867614     262.7455  0.026285064  0.026712945            3 
  834000    0.9298032   -7.2655578    262.88152  0.026267138  0.026693653            6 
  835000   0.90684499   -7.2559053    263.82686  0.026330026  0.026674476            2 
  836000   0.92580747   -7.2552159    264.66803   0.02638238  0.026655419            3 
  837000   0.91935626   -7.2283171    264.22237  0.026306488  0.026636296            4 
  838000   0.93171299   -7.2388695    264.09288   0.02626222  0.026617019            4 
  839000   0.89929929   -7.2700357    264.57201  0.026278507  0.026597794            4 
  840000   0.92415148   -7.2656242    264.56566  0.026246594  0.026578536            2 
  841000   0.91019553   -7.2738998    264.72423  0.026231097  0.026559379            1 
  842000   0.92430894   -7.2508995    264.49341  0.026177099  0.026540165            3 
  843000   0.93420763   -7.2763556    265.19876  0.026215773  0.026521165            3 
  844000   0.92216078   -7.3011702    265.53041  0.026217458  0.026502161            7 
  845000   0.92707393   -7.2766147    264.95697  0.026129878  0.026483226            4 
  846000   0.92845817   -7.2784138    265.63893  0.026166167   0.02646408            4 
  847000   0.90663122   -7.2724924    265.35294  0.026107137  0.026445016            2 
  848000   0.91671272   -7.3013198    265.75589  0.026115948  0.026426109            2 
  849000   0.90133143   -7.2317791    265.42248  0.026052462  0.026406993            5 
  850000   0.88997748   -7.2773757    266.15766  0.026093888  0.026387923            6 
  851000   0.93566386   -7.2774945    266.37588  0.026084594  0.026368978            5 
  852000   0.90017527   -7.2868811    266.20412  0.026037179  0.026349892            3 
  853000   0.92275779   -7.2864526    266.60273  0.026045597  0.026330995            2 
  854000   0.89568329    -7.308942    266.94032   0.02604804  0.026312294            2 
  855000   0.90655082   -7.2948891    267.10382   0.02603351  0.026293366            5 
  856000   0.90744501   -7.2944952    266.80669  0.025974171  0.026274566            3 
  857000   0.92077056   -7.2668638     266.3552  0.025899961   0.02625557            3 
  858000   0.91797091    -7.287851     267.0844  0.025940599  0.026236644            5 
  859000   0.90754178   -7.3229738    267.36641  0.025937758  0.026217486            4 
  860000   0.89522235   -7.2873999    267.19008  0.025890512  0.026198555            1 
  861000   0.92755376   -7.2827771    267.84377   0.02592371  0.026179617            3 
  862000   0.93652302   -7.2501052    267.84224  0.025893488  0.026160742            4 
  863000   0.91005184   -7.2839003    267.41233  0.025821971  0.026142082            7 
  864000   0.92543095   -7.2898499    267.88186  0.025837371  0.026123189            2 
  865000   0.90829333   -7.2794361     268.2432  0.025842312  0.026104365            4 
  866000   0.92603059   -7.2973991     268.3085  0.025818755  0.026085583            3 
  867000   0.90301938   -7.2725053    269.07914  0.025863047  0.026066827            5 
  868000   0.92444062   -7.2947899    268.78387  0.025804903  0.026048165            2 
  869000   0.90309295   -7.2900593    268.22871  0.025721971  0.026029393            1 
  870000   0.89126747   -7.3181679    268.54876  0.025723061  0.026010414            8 
  871000   0.90369093   -7.3014981    269.20167  0.025755996  0.025991712            3 
  872000   0.90714444   -7.3156108     269.3399  0.025739669  0.025972833            4 
  873000   0.88133184   -7.2574949    269.44357  0.025720081   0.02595431            3 
  874000   0.91010456   -7.3140815    269.78736  0.025723433  0.025935953            5 
  875000   0.92439959   -7.2814578    270.12775  0.025726452   0.02591744            3 
  876000   0.91203145   -7.2951782     270.7529  0.025756555  0.025899428            2 
  877000   0.91281023   -7.3191352    270.89124  0.025740331   0.02588135            3 
  878000   0.89013101   -7.2557123    270.66505  0.025689546  0.025863116            8 
  879000   0.91169119   -7.3143447    270.76483  0.025669779  0.025844893            4 
  880000   0.90556359   -7.3007407    271.15588   0.02567764  0.025826729            4 
  881000    0.9087516   -7.3121211    270.89178  0.025623513  0.025808304            3 
  882000   0.91219669   -7.3089407    270.64871  0.025571496  0.025790028            2 
  883000   0.89768491   -7.3066566    271.35958  0.025609625  0.025771885            6 
  884000    0.9176464   -7.2953139    271.78938  0.025621171  0.025753811            2 
  885000   0.91140141   -7.2646179    272.52037  0.025661052  0.025736013            1 
  886000   0.91207018   -7.3239046    271.77275  0.025561771  0.025718258            2 
  887000   0.89687234   -7.3035513    271.49623  0.025506974  0.025700302            2 
  888000   0.91316861   -7.2978766     272.3299  0.025556485  0.025682439            3 
  889000   0.87571066   -7.3220302     272.9919  0.025589792  0.025664605            3 
  890000   0.89896891   -7.3043464    272.76841  0.025540113  0.025646807            5 
  891000    0.8981139   -7.2928679    272.78545  0.025513043  0.025629019            3 
  892000   0.92114022   -7.2975464    272.23763  0.025433262  0.025611209            3 
  893000    0.8841551    -7.277396     273.4775  0.025520483  0.025593314            1 
  894000   0.90445673   -7.2870392    273.28547  0.025474037  0.025575616            7 
  895000   0.89239599   -7.3328841    272.67654  0.025388877  0.025557573            7 
  896000   0.90776072   -7.3433222    272.69248  0.025362024   0.02553946            3 
  897000   0.89872161   -7.2909266    272.64643  0.025329471  0.025521245            4 
  898000    0.8839499   -7.3614329    272.67897  0.025304285  0.025502957            3 
  899000   0.88454287   -7.2956429    273.00567  0.025306421  0.025484757            3 
  900000   0.88730763   -7.2728237    273.06547   0.02528384  0.025466748            3 
  901000   0.89627495   -7.3350826    273.60933  0.025306079  0.025448605            2 
  902000   0.89933542   -7.2904701    274.02536  0.025316459  0.025430586            3 
  903000   0.88198161   -7.3006574    273.80956  0.025268508  0.025412732            1 
  904000   0.88279073   -7.2971858    274.44665  0.025299286  0.025394973            3 
  905000    0.9177866   -7.3290828    274.99794  0.025322094  0.025377193            3 
  906000   0.88988659   -7.2830997    275.25901  0.025318158  0.025359643            3 
  907000   0.88213227   -7.3177345    274.97484  0.025264135  0.025342134            6 
  908000   0.85678778   -7.3380705     275.0175  0.025240226  0.025324434            2 
  909000   0.88240055    -7.315593    275.34328  0.025242324  0.025306734            3 
  910000   0.89229266   -7.2960464    275.65021  0.025242694  0.025289144            6 
  911000   0.89775924   -7.3377289    275.89177  0.025237081  0.025271615            3 
  912000    0.9086289   -7.3385244    276.09899  0.025228344   0.02525404            3 
  913000   0.88543002   -7.3880708    275.24716  0.025122961  0.025236547            3 
  914000   0.91490659   -7.3291674     276.6048  0.025219256  0.025219104            5 
  915000   0.86929702    -7.337556    275.88269  0.025125928  0.025201609            5 
  916000   0.87920884   -7.3286928    276.16871  0.025124519  0.025184289            3 
  917000   0.88819387   -7.3321031    276.53142  0.025130082  0.025166922            3 
  918000   0.88207258   -7.3404915     276.8415  0.025130855  0.025149414            4 
  919000   0.89517536   -7.3274843    277.13367  0.025130003  0.025132067            3 
  920000   0.87282595   -7.3013103    277.31205  0.025118845  0.025114831            4 
  921000   0.89827183   -7.3695115    276.32361  0.025002136  0.025097465            2 
  922000   0.89046595   -7.3282334    276.62862  0.025002587  0.025080086            3 
  923000   0.88275648   -7.3640479    277.04032  0.025012669  0.025062764            7 
  924000   0.88062125   -7.3584628    277.18266  0.024998436    0.0250455            3 
  925000   0.87885218   -7.3617151    277.26526  0.024978853  0.025028182            3 
  926000   0.88373865   -7.3564182    277.92426  0.025011183  0.025010948            3 
  927000   0.86709792   -7.4033936    277.28798  0.024927003  0.024993615            5 
  928000   0.88473697   -7.3514048    278.35799  0.024996228  0.024976406           10 
  929000   0.88357671   -7.3280432    279.05016  0.025031411  0.024959488            3 
  930000   0.87176438   -7.3759692    278.59067  0.024963322  0.024942588            8 
  931000   0.88011949   -7.3392756    279.04971  0.024977597  0.024925815            4 
  932000   0.88111874   -7.3275946    279.73667   0.02501222   0.02490911            5 
  933000   0.86563615   -7.3450348    279.46871  0.024961478  0.024892469            4 
  934000   0.88043204   -7.3307537    279.67032  0.024952741  0.024876023            6 
  935000   0.87231835   -7.3120157    279.64494  0.024923791  0.024859602            3 
  936000   0.88324304    -7.324641    280.68806  0.024990034  0.024843322            2 
  937000   0.87096205   -7.3540317    281.12789   0.02500248  0.024826954            2 
  938000     0.893279   -7.3424924    280.12869  0.024887055   0.02481072            4 
  939000   0.86896235   -7.3505707    281.58499  0.024989793  0.024794532            3 
  940000   0.88193586   -7.3647838    281.23158  0.024931878  0.024778232            2 
  941000   0.87877504   -7.3727566    280.85125  0.024871702  0.024761888            3 
  942000   0.90657805    -7.370816    281.04096  0.024862081  0.024745473            1 
  943000     0.877863   -7.3547197    281.46811  0.024873463  0.024729204            5 
  944000   0.86544219   -7.3922691    280.88063  0.024795253  0.024712898            3 
  945000   0.87089696   -7.3551497    281.88646  0.024857712  0.024696547            6 
  946000    0.8686455   -7.3620801    282.13114   0.02485299  0.024680261            2 
  947000   0.89105646   -7.3383871    281.85681  0.024802606  0.024664029            4 
  948000   0.86379518   -7.3756354    281.87219  0.024777794  0.024647829            5 
  949000   0.89005596   -7.4167262    281.38255  0.024708689  0.024631528            3 
  950000    0.8830872   -7.3896047    281.97568  0.024734709  0.024615236            5 
  951000   0.85887588   -7.3859985    282.23532  0.024731451  0.024598944            3 
  952000   0.87043102    -7.354595    282.62799  0.024739845  0.024582738            3 
  953000   0.86126442   -7.3923448    281.94801  0.024654426  0.024566457            3 
  954000   0.87635674   -7.3939138    282.40734  0.024668706  0.024550022            6 
  955000   0.87917954     -7.41868    282.28393  0.024632106  0.024533605            5 
  956000    0.8754904   -7.3706215    282.75832  0.024647692  0.024517102            5 
  957000    0.8662539   -7.3766468    283.02192   0.02464489  0.024500714            6 
  958000   0.87842853   -7.3871799    283.21884  0.024636294   0.02448446            4 
  959000   0.87900148   -7.4066699    282.42939  0.024542005  0.024468185            5 
  960000    0.8830408   -7.3521799    283.65643  0.024622954  0.024451971            3 
  961000   0.86187076   -7.3610328    283.14396  0.024552893  0.024435761            5 
  962000   0.88204509   -7.3420274     283.8958  0.024592498  0.024419722            3 
  963000   0.88734011   -7.3618522    284.26816  0.024599183  0.024403753            3 
  964000   0.86545658   -7.3640525     283.2588  0.024486411  0.024387545            2 
  965000   0.87662541   -7.3563971    283.57929  0.024488712  0.024371335            2 
  966000   0.85439753   -7.3640223    283.46772  0.024453737  0.024355144            5 
  967000   0.88496971   -7.3861677    283.90754  0.024466351  0.024338666            2 
  968000   0.85817531   -7.3889166     283.6628  0.024420007  0.024322074            2 
  969000   0.85493627   -7.4024965    284.04561  0.024427727  0.024305479            5 
  970000   0.87077441   -7.3980219    284.05841  0.024403644  0.024289061            4 
  971000   0.86080421   -7.3820712    283.54391  0.024334356  0.024272555            3 
  972000    0.8832264   -7.3721009    284.25555  0.024370332  0.024256038            2 
  973000   0.86995848   -7.4269665    284.14766  0.024336044  0.024239537            2 
  974000   0.87633149   -7.4066134    283.95076  0.024294213  0.024222962           10 
  975000   0.83151216   -7.3923765    284.75599  0.024338119   0.02420632            3 
  976000   0.87098449   -7.4081505    284.73567  0.024311448  0.024189727            2 
  977000   0.87624422   -7.3860054    284.70026  0.024283543  0.024173232            2 
  978000   0.87603936   -7.3593243    285.40356   0.02431864  0.024156765            3 
  979000   0.84403572    -7.404761    284.82152  0.024244256  0.024140277            4 
  980000   0.84781192   -7.4004146    284.95001  0.024230443  0.024123707            2 
  981000   0.85819793   -7.3992233     284.7505  0.024188795  0.024107159            3 
  982000   0.88077567   -7.4208259    284.39106  0.024133661  0.024090512            3 
  983000   0.84933861   -7.4305891    285.72744    0.0242224  0.024073995            2 
  984000   0.88477688   -7.3864676    286.18669  0.024236678   0.02405754            5 
  985000    0.8593796   -7.3940191    285.62997  0.024164972  0.024041155            3 
  986000   0.85330791   -7.3794984    285.40233  0.024121225  0.024024711            5 
  987000   0.84358098   -7.3821077    286.78129  0.024213212  0.024008456            5 
  988000   0.86760728   -7.4137256    286.22218  0.024141547  0.023992291            3 
  989000   0.86743737   -7.4404399    286.12533  0.024108976  0.023976064            4 
  990000   0.84180036   -7.4181492    286.22876   0.02409333  0.023959815            3 
  991000   0.85958321    -7.388987    286.52243  0.024093713  0.023943612            4 
  992000   0.85226849   -7.4154961    286.57183  0.024073574  0.023927419            3 
  993000   0.86073664   -7.4251315    286.86767  0.024074158  0.023911185            3 
  994000   0.86278625   -7.3917434    288.03983  0.024148209  0.023895136            3 
  995000    0.8706256    -7.406703     287.1953  0.024053208  0.023879216            7 
  996000   0.85697659     -7.38843    287.68193  0.024069773  0.023863152            4 
  997000   0.87708975   -7.4061855    287.93488  0.024066774  0.023847058            3 
  998000   0.85785678   -7.4079542    287.07153  0.023970568  0.023830871            2 
  999000   0.84287101   -7.3886526    287.38222   0.02397249  0.023814767            4 
 1000000   0.84078862   -7.4293039    287.45324  0.023954436  0.023798583            4 
 1001000   0.87527656   -7.3928649    287.26795   0.02391508  0.023782384            2 
 1002000   0.85131328   -7.3916105     287.4844  0.023909215  0.023766135            2 
 1003000    0.8451828   -7.4209495    287.09282  0.023852843   0.02374978            3 
 1004000   0.83915137   -7.4405179    287.59174  0.023870496  0.023733443            4 
 1005000   0.84421572   -7.4387165    287.64785  0.023851397  0.023717092            5 
 1006000   0.83895438   -7.4417067    288.35165  0.023885988  0.023700803            5 
 1007000   0.85414897   -7.4166614    287.77616  0.023814644  0.023684473            3 
 1008000   0.86417238   -7.4118725     286.7474  0.023705969  0.023668119            3 
 1009000   0.84405239   -7.4298367    288.36659  0.023816204  0.023651836            5 
 1010000   0.84324131   -7.4487044    287.55776  0.023725888  0.023635414            6 
 1011000   0.82595867   -7.4188514    288.02936  0.023741292  0.023619005            2 
 1012000   0.85736759   -7.4632931    287.82728  0.023701192  0.023602601            3 
 1013000   0.84979356   -7.4045632     288.7892  0.023756927  0.023586344            2 
 1014000    0.8557712   -7.4656425    288.22762  0.023687345  0.023570006            3 
 1015000   0.85460414   -7.4376919    288.46508  0.023683504  0.023553596            2 
 1016000   0.83391389   -7.4347354    288.80077  0.023687727  0.023537352            3 
 1017000   0.82496112   -7.4504843    288.42183  0.023633385  0.023520997            3 
 1018000   0.84921582   -7.4443512    288.13246  0.023586482  0.023504561            3 
 1019000   0.83809385   -7.3996471    289.20665  0.023651182   0.02348821            3 
 1020000   0.85375595   -7.4098852    289.80912  0.023677215  0.023472036            3 
 1021000   0.84646548   -7.4103398    288.89481    0.0235794  0.023455801            1 
 1022000   0.85737042   -7.4292947    288.76841  0.023546022  0.023439576            5 
 1023000   0.82831281   -7.4145628    289.98178  0.023621846  0.023423233            2 
 1024000   0.82286383   -7.4240124    289.59815  0.023567558  0.023406954            3 
 1025000   0.86869795   -7.4396061    289.31693  0.023521702  0.023390652            3 
 1026000   0.85116045   -7.4101498    289.39871  0.023505418  0.023374569            3 
 1027000    0.8487361   -7.4139497    289.18915  0.023465526  0.023358379            3 
 1028000    0.8473936   -7.4127425    290.50023  0.023548981  0.023342258            2 
 1029000   0.84747626   -7.3922873    290.66456  0.023539404  0.023326217            4 
 1030000   0.83980942   -7.4516024    290.00905  0.023463516  0.023310092            3 
 1031000   0.84908191   -7.4414582    289.65304  0.023411982  0.023293953            4 
 1032000   0.84866586   -7.4656819    290.40483  0.023450003  0.023277802            3 
 1033000   0.83173476     -7.43589    291.26484   0.02349668  0.023261807            3 
 1034000   0.83376591   -7.4552675      290.971  0.023450274  0.023245863            2 
 1035000   0.84280143   -7.3936675     290.3686  0.023379114  0.023229913            8 
 1036000    0.8368415   -7.4493278    290.38181   0.02335761  0.023213853            4 
 1037000   0.84452476   -7.4483025    289.83228  0.023290925  0.023197721            3 
 1038000    0.8573493   -7.4602205    290.91714  0.023355583  0.023181524            2 
 1039000   0.83252945   -7.4443128    290.82596  0.023325791   0.02316545            3 
 1040000   0.84967505   -7.4444428    291.26455  0.023338505  0.023149334            3 
 1041000   0.84686174   -7.4396178    291.28184  0.023317471   0.02313325            3 
 1042000   0.83791626   -7.4402981    291.85256  0.023340735   0.02311714            3 
 1043000   0.84523348   -7.4264173    291.09586  0.023257899  0.023101051            4 
 1044000   0.83301949   -7.4397859    290.81244  0.023212998  0.023084985            3 
 1045000   0.84700743   -7.4487704    291.62906  0.023255905  0.023068969            4 
 1046000   0.83884127   -7.4716209     291.1924  0.023198885  0.023052848            3 
 1047000   0.85264629     -7.46682     291.0193   0.02316295   0.02303663            5 
 1048000   0.82741522   -7.4731693    291.69899  0.023194894  0.023020458            2 
 1049000   0.83658227   -7.4669923    291.87933  0.023187109  0.023004488            7 
 1050000   0.83489392   -7.4310774    291.43917  0.023130093  0.022988455            2 
 1051000   0.83764657   -7.4572907      291.768  0.023134158  0.022972429            4 
 1052000   0.83460366   -7.4718531    291.48573  0.023089807  0.022956375            5 
 1053000   0.83406404   -7.4577376     292.0792  0.023114847  0.022940242            5 
 1054000   0.84213559   -7.4503981    291.50159  0.023047247  0.022923982            3 
 1055000   0.83817831   -7.4882867    292.09352  0.023072158  0.022907674            5 
 1056000   0.81777281   -7.4857867    291.85623  0.023031584  0.022891541            4 
 1057000   0.84079882   -7.4707947    291.64487   0.02299313  0.022875343            9 
 1058000   0.83991216   -7.4573582    291.93559  0.022994296  0.022859112            3 
 1059000   0.83756944   -7.4608389    292.05646  0.022982094  0.022842827            2 
 1060000   0.80698094   -7.4655137    292.34102  0.022982785  0.022826689            6 
 1061000   0.82460406   -7.4847467    291.83019  0.022921002   0.02281046            3 
 1062000   0.81872195   -7.4776335    292.08321  0.022919272  0.022794182            2 
 1063000   0.81280315   -7.4738921    292.55149  0.022934422  0.022777916           10 
 1064000    0.8345756   -7.4649923    292.84285  0.022935687  0.022761643            6 
 1065000   0.82023846   -7.4731307    292.08458  0.022854819  0.022745437            4 
 1066000   0.83940199   -7.4424258    292.72612   0.02288353  0.022729284            4 
 1067000   0.85516269   -7.4821253    293.05538  0.022887799  0.022713101            3 
 1068000   0.83239954   -7.4663396    292.90896  0.022854944  0.022696825            2 
 1069000   0.81946856   -7.5033905     292.4666   0.02279908  0.022680423            3 
 1070000   0.82839069   -7.4489856    293.52054  0.022859855  0.022664179            5 
 1071000   0.82460127   -7.4758284     293.9464  0.022871647  0.022648091            5 
 1072000   0.83447403    -7.471427    293.58864    0.0228225  0.022632202            3 
 1073000   0.82339892    -7.462185    293.39265  0.022786009  0.022616171            5 
 1074000   0.81135745   -7.4586469    293.07012  0.022739767  0.022600228            6 
 1075000   0.80674319   -7.4810714    293.26217  0.022733502  0.022584144            3 
 1076000    0.8286336   -7.4562949    294.40877  0.022801175   0.02256812            9 
 1077000   0.83526612   -7.4927485    294.41849  0.022780756  0.022552064            2 
 1078000   0.82927358    -7.499436    293.61128  0.022697223  0.022535838            3 
 1079000   0.83704418   -7.4990353    293.08993  0.022635923  0.022519609            4 
 1080000   0.82780229   -7.4701493    294.13561  0.022695649  0.022503345            4 
 1081000   0.82260822   -7.4749192    293.90396  0.022656796  0.022487244            2 
 1082000   0.83098332   -7.4488618    294.30155  0.022666478  0.022471196            4 
 1083000   0.82806793   -7.4689003    293.87054  0.022612384  0.022455143            4 
 1084000    0.8289211   -7.4931994    294.07362  0.022607135  0.022439028            4 
 1085000    0.8173102   -7.4805701    294.20469  0.022596367  0.022422853            2 
 1086000   0.82819187    -7.523278    293.38677  0.022512797  0.022406582            2 
 1087000    0.8229816   -7.4848639     294.3043  0.022562427  0.022390467            3 
 1088000   0.82609784    -7.484545    294.16895  0.022531323  0.022374342            6 
 1089000   0.81517267   -7.4812656    295.04389  0.022577586  0.022358179            2 
 1090000   0.82097758   -7.4870881    294.58324  0.022521654  0.022342219            3 
 1091000   0.80550586   -7.4876767    294.28803  0.022478463  0.022326276            5 
 1092000   0.81451968   -7.5308435     293.9504  0.022432112  0.022310375            2 
 1093000   0.82646807   -7.4914671    294.83647  0.022479145  0.022294418            4 
 1094000    0.8120294   -7.5167673    295.11811  0.022480051  0.022278519            3 
 1095000    0.8196639   -7.4990121    296.19726  0.022541649  0.022262654            2 
 1096000   0.83885567   -7.5179695    294.95096   0.02242632  0.022246697            3 
 1097000   0.79359528   -7.5137962    294.85096   0.02239828  0.022230589            4 
 1098000      0.80254    -7.536667    295.11688  0.022398063  0.022214518            5 
 1099000   0.81316857   -7.5229348    295.25446  0.022388115  0.022198377            8 
 1100000   0.80099252   -7.4832762     294.9001  0.022340916  0.022182292            3 
 1101000   0.83531197   -7.5337693    294.89618  0.022320329  0.022166248            2 
 1102000    0.8211064   -7.5275361      294.808  0.022293406  0.022150178            4 
 1103000   0.79455489   -7.5039696    294.73311  0.022267536  0.022134026            5 
 1104000   0.80642478   -7.5215072    295.19456  0.022282198  0.022117967            1 
 1105000   0.82364295   -7.5308221     294.9083  0.022240445  0.022101935            2 
 1106000   0.80044517   -7.5052274    295.45652  0.022261642  0.022085919            4 
 1107000   0.79832427    -7.490616    295.94131  0.022278027  0.022069968            4 
 1108000   0.82739822   -7.4984015    296.36722  0.022289954  0.022054037            8 
 1109000   0.80221767   -7.4819021    296.33541  0.022267464  0.022038179           11 
 1110000   0.81618275   -7.5252867    295.79784  0.022207045  0.022022247            3 
 1111000   0.79041609   -7.5242607    295.40173  0.022157345  0.022006299            3 
 1112000   0.79355062   -7.5453022     296.0538  0.022186286  0.021990428            3 
 1113000   0.81378381   -7.5190968    296.52893  0.022201927  0.021974625            2 
 1114000   0.79726209   -7.5090483    296.70853  0.022195431  0.021958754            3 
 1115000   0.82832207   -7.5292706    296.73381  0.022177415  0.021942991            5 
 1116000   0.79217974   -7.5298229    296.69702  0.022154795  0.021927194            7 
 1117000   0.79370354   -7.5253242    297.11312  0.022166004  0.021911422            7 
 1118000   0.80925074   -7.5050361    297.22112  0.022154228  0.021895681            3 
 1119000   0.80462019   -7.4938701    296.35855  0.022070193  0.021879917            5 
 1120000   0.78199423   -7.5250025    296.70998  0.022076635   0.02186415            3 
 1121000   0.82616233   -7.5163033    296.62543  0.022050656  0.021848306            5 
 1122000    0.7950643   -7.5009622    297.18646  0.022072672  0.021832474            6 
 1123000   0.80871875   -7.5387103    296.86245  0.022028974   0.02181659            9 
 1124000   0.79356766   -7.5280129    296.72888  0.021999472  0.021800697            4 
 1125000   0.79734232   -7.5508334    296.36512  0.021952972  0.021784827            6 
 1126000   0.80126703   -7.5521117    296.45624  0.021940219  0.021768849            2 
 1127000   0.81927464   -7.5531003    296.85505   0.02195024  0.021752867            2 
 1128000   0.81074529   -7.5696858    297.04214  0.021944602  0.021737006            7 
 1129000   0.82341279   -7.5415792    297.29691  0.021943971  0.021721162            3 
 1130000   0.80302456   -7.5712826    297.46576  0.021937003  0.021705389            4 
 1131000   0.81750297    -7.553606    296.74228    0.0218643  0.021689526            4 
 1132000   0.80113578   -7.5449467    297.53374  0.021903249  0.021673699            2 
 1133000   0.82384236   -7.5433132    297.64969  0.021892446  0.021657887            6 
 1134000   0.80489924    -7.533972    298.37941  0.021926764  0.021642217            5 
 1135000   0.79302953   -7.5541741    297.77529  0.021863091    0.0216265            4 
 1136000   0.79239675   -7.5633317    297.64889  0.021834572  0.021610773            2 
 1137000   0.81596931   -7.5668981    297.77541  0.021824641   0.02159506            3 
 1138000   0.80446026   -7.5366904     298.4343  0.021853712  0.021579468            3 
 1139000   0.79964401   -7.5420299    298.88293   0.02186735  0.021563879           10 
 1140000   0.79636685   -7.5484809    299.14296  0.021867175  0.021548273            3 
 1141000   0.80282291   -7.5726735    298.81366   0.02182396  0.021532749            8 
 1142000   0.78673692   -7.5206539    299.32551    0.0218422   0.02151727            4 
 1143000    0.8048943   -7.5354018    298.75555  0.021781536  0.021501827            2 
 1144000   0.79823524   -7.5406786    298.83723  0.021768446  0.021486348            3 
 1145000   0.79472781   -7.5165209    298.76422  0.021744121  0.021470765            4 
 1146000   0.79682098   -7.5204517    298.60599  0.021713641   0.02145517            4 
 1147000   0.80791638    -7.543227    299.24731  0.021741304  0.021439643            2 
 1148000   0.79432638   -7.5571496    298.60595  0.021675809  0.021424148            4 
 1149000   0.79999663   -7.5504187    299.54405  0.021724982  0.021408604            2 
 1150000   0.80646787   -7.5487079    298.94873  0.021662951  0.021393019            3 
 1151000   0.79389463   -7.5456358    298.77501  0.021631553  0.021377501            3 
 1152000   0.79647174   -7.5261303    299.59046  0.021671763  0.021361957            4 
 1153000   0.78735877   -7.5382027    298.55508  0.021578135  0.021346453            2 
 1154000   0.78918005   -7.5527805    298.69754  0.021569724   0.02133093            3 
 1155000   0.77317169    -7.540992    298.85875   0.02156268  0.021315378            7 
 1156000   0.80905808    -7.564939     299.4372  0.021585726  0.021299816            3 
 1157000   0.78895921   -7.5627078    298.80091  0.021521241  0.021284267            3 
 1158000   0.79308187   -7.5463019    299.68213  0.021566072  0.021268741            1 
 1159000   0.78795645   -7.5506141    299.04161   0.02150141  0.021253156           10 
 1160000   0.81575605   -7.5896644    298.76963  0.021463335  0.021237556            3 
 1161000   0.78209205   -7.5536826    299.65747  0.021508575  0.021222018            2 
 1162000   0.78873313   -7.5414541    299.19934   0.02145721  0.021206479            2 
 1163000   0.80722072   -7.5569161    299.63189  0.021469755  0.021190912            3 
 1164000   0.79519604    -7.583601    299.60693  0.021449523  0.021175307            2 
 1165000   0.77787046   -7.5706599     300.3202  0.021482132  0.021159821            3 
 1166000   0.77489914    -7.558363    299.37717   0.02139631  0.021144392            4 
 1167000   0.79027637   -7.5531808    300.33735   0.02144654  0.021128947            4 
 1168000   0.80986194    -7.571259    299.86667  0.021394597  0.021113498            4 
 1169000   0.78402621   -7.5386646    300.45404  0.021418166  0.021098095            2 
 1170000   0.78829371   -7.5686016    300.27722  0.021387266  0.021082685            3 
 1171000   0.78282017   -7.5361789    300.95709  0.021417385  0.021067269            4 
 1172000   0.76053828   -7.5675559    300.32983   0.02135451   0.02105187            4 
 1173000   0.78505072   -7.5688426    300.84805  0.021373121  0.021036421            6 
 1174000   0.80416177   -7.5605263    300.16892  0.021306709   0.02102109            5 
 1175000   0.79317597   -7.5532811    301.19121  0.021361079  0.021005647            4 
 1176000    0.8021691   -7.5808026    300.16677  0.021270321  0.020990249            5 
 1177000    0.7755523   -7.5931919    299.81492  0.021227338  0.020974786            7 
 1178000   0.76484497   -7.5864645    300.08885  0.021228696  0.020959373            7 
 1179000   0.79809463   -7.5873537    301.21689  0.021290422  0.020944046            4 
 1180000   0.78482524   -7.5723615     300.8509  0.021246532  0.020928838            7 
 1181000   0.79130412   -7.5803265    300.44573  0.021199953  0.020913629            3 
 1182000   0.77621153   -7.5453788    300.82603  0.021208829  0.020898358            5 
 1183000    0.7783174   -7.5591182    300.92851   0.02119812  0.020883094            2 
 1184000    0.7868858   -7.5618761    300.66617  0.021161752  0.020867816            4 
 1185000    0.7913653   -7.5890751     300.7452  0.021149451  0.020852482            3 
 1186000   0.78409318   -7.5986657    300.95505  0.021146364  0.020837171            3 
 1187000   0.76526977    -7.600569    300.45365  0.021093348  0.020821808            4 
 1188000   0.78876316   -7.5846148     301.1801   0.02112655  0.020806372            3 
 1189000   0.77614131   -7.6126013    300.50541  0.021061495  0.020790888            2 
 1190000   0.78640289   -7.6270074    300.76343  0.021061865  0.020775505            8 
 1191000   0.79261874   -7.6071445    301.08368  0.021066588   0.02076011            2 
 1192000    0.7965286   -7.6024749    301.62637  0.021086855  0.020744702            4 
 1193000   0.78414184   -7.6126382    301.10473  0.021032742  0.020729325            2 
 1194000   0.77298881   -7.6059407    301.58743  0.021048815  0.020713968            3 
 1195000   0.78390825   -7.6112425     301.3075  0.021011681  0.020698625            7 
 1196000   0.77346112   -7.6171173    301.21596  0.020987734  0.020683377            6 
 1197000   0.77328385   -7.6024728    302.04337  0.021027803  0.020668086            4 
 1198000   0.79324762   -7.5744464      301.856  0.020997218  0.020652794            4 
 1199000   0.77682876   -7.5819583    301.86159  0.020980094  0.020637597            2 
 1200000   0.77778745   -7.5754904    301.89597  0.020964998  0.020622485            2 
 1201000   0.76361384   -7.6206159    301.76806  0.020938667  0.020607419            7 
 1202000   0.77527689   -7.5836097    302.56165  0.020976265  0.020592376            5 
 1203000   0.77310418   -7.5871215    302.29737  0.020940522  0.020577358            8 
 1204000   0.78997297   -7.6069014    302.46493  0.020934726  0.020562352            4 
 1205000   0.77683012   -7.5759936    302.45389   0.02091659  0.020547373            4 
 1206000    0.7841122   -7.6072835    302.70859  0.020916845  0.020532434            4 
 1207000   0.75619759   -7.6469396    302.37946  0.020876793  0.020517479            3 
 1208000   0.78060302   -7.5944835    301.88732   0.02082556  0.020502388            5 
 1209000   0.77659044   -7.6455364    302.27181  0.020834837  0.020487332            3 
 1210000   0.77502216   -7.5934116    302.34884  0.020822923  0.020472367            5 
 1211000   0.76486597   -7.5849358    303.19906  0.020864235  0.020457436            5 
 1212000    0.7839039   -7.6039903    302.97837  0.020831846  0.020442511            3 
 1213000   0.77896719    -7.613837    302.88066  0.020807959  0.020427571            3 
 1214000    0.7792562   -7.6191735    302.86755   0.02078992   0.02041255            4 
 1215000   0.75352768   -7.6123423    303.09058  0.020788105  0.020397573            2 
 1216000   0.75822991   -7.5965664    302.52833  0.020732479   0.02038256            5 
 1217000   0.78199946   -7.6244072     302.7491   0.02073056  0.020367638            2 
 1218000   0.77452868   -7.6140765     303.0798  0.020736166  0.020352714            3 
 1219000   0.74944216   -7.6064827    303.27137  0.020732251  0.020337831            2 
 1220000   0.77161851   -7.5812033    302.41822  0.020656982  0.020322945            3 
 1221000   0.75511267   -7.5925947    303.30658  0.020700694  0.020308049            5 
 1222000   0.76458516   -7.6329185    302.84492  0.020652272  0.020293088            4 
 1223000   0.75568802   -7.6350226    302.70969  0.020626171  0.020278034            2 
 1224000   0.76785815    -7.622679     301.9956  0.020560703  0.020262979            3 
 1225000   0.75918965    -7.580983    303.20097  0.020625916  0.020247904            3 
 1226000   0.77449627   -7.6148663    303.29009   0.02061515  0.020232939            7 
 1227000   0.77352671   -7.6158189    302.79451  0.020564691  0.020217965            6 
 1228000   0.78032365   -7.6126696     303.3039  0.020582512  0.020202926            2 
 1229000   0.76428769   -7.5843022    302.98525  0.020544159  0.020187906            3 
 1230000    0.7679375   -7.6299704    302.95712   0.02052555  0.020172901            4 
 1231000   0.76629589    -7.620913    303.55836  0.020549578  0.020157899            7 
 1232000   0.77357642   -7.6434254    303.90903  0.020556617     0.020143            2 
 1233000   0.76194283   -7.5830518     304.1035  0.020553089  0.020128148            2 
 1234000   0.75265387   -7.6273626    304.04592  0.020532545  0.020113351            3 
 1235000   0.77383904   -7.6104052    303.22569  0.020460573  0.020098484            5 
 1236000   0.77107188   -7.6408064    303.57493  0.020467565   0.02008363            5 
 1237000    0.7541983   -7.6298977     303.6247  0.020454372  0.020068811            3 
 1238000   0.77228618   -7.6018521    303.86699  0.020454159   0.02005399            2 
 1239000   0.73889745   -7.6355163    304.08618  0.020452393  0.020039236            7 
 1240000   0.76350006   -7.6368737    304.44369  0.020459925  0.020024464            6 
 1241000   0.74787911   -7.6286772    303.99018  0.020412985  0.020009701            3 
 1242000   0.74363115   -7.6207324    304.43923  0.020426679  0.019994969            4 
 1243000   0.76158271   -7.6320369    304.54507  0.020417342  0.019980256            6 
 1244000   0.74582428   -7.6436775    303.96854  0.020362308  0.019965519            8 
 1245000   0.76502179   -7.6491399    304.34394  0.020371081  0.019950751            5 
 1246000   0.76634409   -7.6211696    303.33264  0.020287095  0.019936003            9 
 1247000   0.75276454   -7.6167855    304.85854  0.020372798  0.019921284            4 
 1248000   0.75912635   -7.6681776    303.61495  0.020273434  0.019906566            4 
 1249000   0.75033327   -7.6281186    304.39616  0.020309325  0.019891737            4 
 1250000    0.7548446   -7.6745685    304.34345  0.020289563  0.019876962            5 
 1251000   0.75717503   -7.6017599    304.97201  0.020315215  0.019862248            3 
 1252000    0.7455107   -7.6561096    303.68239  0.020213152  0.019847519            4 
 1253000   0.75697405   -7.6662589    304.23464  0.020233748  0.019832755            2 
 1254000   0.75747637   -7.6685378    303.81526  0.020189743  0.019817941            7 
 1255000    0.7547523   -7.6501183    304.56762  0.020223613  0.019803176            5 
 1256000   0.75990378   -7.6493956    305.00967  0.020236841  0.019788388            7 
 1257000   0.76314835   -7.6745882    304.48219  0.020185773  0.019773622            3 
 1258000   0.74556749     -7.64646    304.45788  0.020168116   0.01975891            2 
 1259000   0.73547803   -7.6541074    304.80588  0.020175131  0.019744206            4 
 1260000   0.77744986   -7.6367726    304.51615  0.020139957   0.01972956            3 
 1261000   0.74985148   -7.6505403    305.02021  0.020157297  0.019714835            3 
 1262000   0.75336337   -7.6458946    305.51739  0.020174154  0.019700138            3 
 1263000   0.75516505   -7.6552617      305.183  0.020136117   0.01968546            5 
 1264000   0.76906265   -7.6419727    304.87899  0.020100144  0.019670817            4 
 1265000   0.74985112   -7.6645407    304.65701  0.020069632  0.019656164            5 
 1266000   0.76338368   -7.6814494    304.24154  0.020026431   0.01964148            4 
 1267000    0.7557418   -7.6977624     304.9456  0.020056932  0.019626713            5 
 1268000   0.75630732   -7.6793103    303.97758  0.019977496  0.019611917            4 
 1269000   0.75090431   -7.6832727     304.1741  0.019974659  0.019597124            4 
 1270000   0.74296813   -7.6775588    304.68147  0.019992222  0.019582356            2 
 1271000   0.74552664   -7.6632722    304.80166  0.019984373  0.019567618            5 
 1272000   0.74175503   -7.6438468    304.97532  0.019980039  0.019552963            4 
 1273000   0.73645328   -7.6811161    305.05882   0.01996981  0.019538244            3 
 1274000   0.74512799   -7.6750096    304.90886  0.019944326  0.019523571            5 
 1275000   0.74459679   -7.6651509     304.8402  0.019924196  0.019508882            7 
 1276000   0.74338063   -7.6672836    304.86558  0.019910239  0.019494188            4 
 1277000   0.73343124   -7.6459351    304.42529  0.019865916  0.019479406            3 
 1278000   0.74409236   -7.6603053    305.19247  0.019900396  0.019464696            2 
 1279000   0.74289795   -7.6920952    305.08438  0.019877794  0.019449949            4 
 1280000   0.75389973   -7.6528573    305.36347  0.019880435  0.019435231           10 
 1281000    0.7454389    -7.667831    305.32201  0.019862218  0.019420542            4 
 1282000   0.74164354   -7.6610636    304.86857   0.01981725  0.019405861            4 
 1283000   0.74319507    -7.679745    304.96438  0.019808027  0.019391135            5 
 1284000   0.72516251   -7.6841456    305.10162  0.019801507   0.01937642           13 
 1285000   0.73799131      -7.6815    305.39661  0.019805227  0.019361703            7 
 1286000   0.74206783   -7.6681591    304.42895  0.019727122  0.019347024            4 
 1287000   0.74629427   -7.6787129    304.87556  0.019740712  0.019332324            5 
 1288000   0.73222735   -7.6825456    305.51108  0.019766504  0.019317684            3 
 1289000   0.74435206    -7.667543    305.40152  0.019744086  0.019303042            5 
 1290000   0.73708149   -7.6820779    304.66358   0.01968111  0.019288405            3 
 1291000   0.75256948   -7.6934546    304.92149  0.019682513  0.019273742            9 
 1292000   0.75288883   -7.6612611    305.04243  0.019675079  0.019259043            2 
 1293000    0.7466652    -7.696027    305.15985   0.01966743  0.019244394            3 
 1294000   0.74470452   -7.7018622     304.9861  0.019641042  0.019229734            3 
 1295000   0.74496446    -7.705264    305.17563  0.019638071  0.019215056            4 
 1296000    0.7393155   -7.6878834    304.92048  0.019606512  0.019200416            5 
 1297000   0.72969238   -7.7043568    305.43731  0.019624602  0.019185747            5 
 1298000   0.72789264   -7.6796986    305.34099  0.019603299  0.019171127            3 
 1299000   0.72722321   -7.6808634    305.67904  0.019609895  0.019156575            2 
 1300000   0.74856472    -7.691553    305.11183   0.01955845  0.019142034            4 
 1301000   0.73674726   -7.6754901    305.92766  0.019595674  0.019127508            2 
 1302000   0.74217271   -7.6622405    306.25455  0.019601546  0.019113016            3 
 1303000   0.74049043   -7.6832653    304.94404  0.019502688  0.019098524            3 
 1304000   0.73882614   -7.6679708    306.04752  0.019558252  0.019084047            4 
 1305000   0.72149749   -7.6853244    305.59621  0.019514445  0.019069538            3 
 1306000   0.74169916   -7.6785856    305.53111  0.019495349  0.019055027            8 
 1307000   0.72669745   -7.6478657    306.64691  0.019551576  0.019040531            5 
 1308000   0.73118425   -7.7008032    306.36312  0.019518547  0.019026055            2 
 1309000   0.73007243   -7.6989202    305.72368  0.019462928  0.019011555            4 
 1310000   0.72173415   -7.7029085    306.17451   0.01947675  0.018997037            4 
 1311000   0.73761334    -7.704738    305.82754  0.019439839  0.018982564            3 
 1312000   0.73447721   -7.6859703    305.86801  0.019427592  0.018968068            5 
 1313000   0.71437473    -7.683987    305.76115  0.019406014  0.018953633            5 
 1314000   0.73536686   -7.6884686    306.34802  0.019428464  0.018939241            9 
 1315000   0.74469541    -7.694889    306.30157  0.019410746  0.018924922            3 
 1316000   0.71901213   -7.6923142     306.4841  0.019407554  0.018910635            4 
 1317000    0.7411575   -7.7074869    307.32062  0.019445749  0.018896371            4 
 1318000    0.7196679   -7.7017754    306.23975  0.019362655  0.018882084            4 
 1319000   0.72452127    -7.709502    306.17606  0.019343951  0.018867791            5 
 1320000   0.72434498   -7.6835779    306.85293  0.019372028   0.01885356            4 
 1321000   0.72549539   -7.6929625    306.93683  0.019362656  0.018839312            3 
 1322000   0.74093934   -7.6931729    306.93652   0.01934799  0.018825012            5 
 1323000   0.73844243   -7.6961253    306.37341  0.019297897  0.018810734            2 
 1324000   0.73049937   -7.7295684    306.23592  0.019274668  0.018796406            4 
 1325000   0.72771072   -7.7345672    306.02949  0.019247138  0.018782046            3 
 1326000   0.73138763   -7.7200287    305.86793  0.019222469  0.018767621            4 
 1327000   0.74140263   -7.6925666    306.39581  0.019241134  0.018753226            2 
 1328000   0.72694231   -7.7233944    306.88772  0.019257513  0.018738914            4 
 1329000   0.72805879   -7.7260977    306.16911  0.019197963  0.018724598            6 
 1330000   0.72566989   -7.7443207    306.34977  0.019194848  0.018710247            8 
 1331000   0.72388602   -7.7167666    305.95628   0.01915579  0.018695917            6 
 1332000   0.72805456   -7.7218239    306.37021  0.019167306  0.018681556            3 
 1333000   0.74531784   -7.7373313    306.16935   0.01914037  0.018667222            8 
 1334000   0.73414843   -7.7244036    306.83344  0.019167506  0.018652933            4 
 1335000   0.70881222   -7.7253216    306.15595  0.019110858  0.018638643            2 
 1336000   0.71344495   -7.7287707    306.56931  0.019122337  0.018624321            1 
 1337000   0.71281913   -7.7063508    306.92136  0.019129977  0.018609986            3 
 1338000   0.71408396   -7.7358004    306.40945  0.019083797  0.018595653            3 
 1339000   0.71252774    -7.733167    306.72755  0.019089342  0.018581306            5 
 1340000   0.72591444   -7.7267793    306.34685  0.019051421  0.018567029            6 
 1341000   0.72853951   -7.7541087    306.00728  0.019016112  0.018552664            5 
 1342000   0.72573937   -7.7234439    305.77034  0.018987229  0.018538328            3 
 1343000   0.71382581   -7.7019957    306.49061  0.019017784  0.018523975            3 
 1344000   0.70972825   -7.7510181    306.11245  0.018980187  0.018509658            4 
 1345000   0.71012694   -7.7227106    306.76002  0.019006197  0.018495442            3 
 1346000   0.71075083   -7.7349172    306.02738  0.018946718  0.018481202            6 
 1347000    0.7320147   -7.7429122    306.76661  0.018978385  0.018466944            5 
 1348000   0.72108271   -7.7190983    306.72381   0.01896166  0.018452756           10 
 1349000    0.7168875   -7.7274578    306.80522  0.018952633  0.018438573           10 
 1350000   0.72742262   -7.7261035    306.37917  0.018912294  0.018424412            6 
 1351000   0.71066105   -7.7488494    306.53805  0.018908096  0.018410189           17 
 1352000   0.70851816   -7.7433835    307.18904  0.018934236  0.018396029           14 
 1353000   0.72077812   -7.7418126    306.87014    0.0189006   0.01838189            3 
 1354000   0.71061109   -7.7361075    306.87493  0.018886936  0.018367767            2 
 1355000   0.73187775   -7.7358465    307.57326  0.018915945  0.018353647            3 
 1356000   0.71665365   -7.7436973    307.27503  0.018883667  0.018339524            2 
 1357000   0.70851257   -7.7542906    307.11001  0.018859617  0.018325442            3 
 1358000   0.69981848   -7.7551839    307.18641  0.018850418  0.018311349            3 
 1359000   0.69718153   -7.7488283    307.20999  0.018837993  0.018297263            4 
 1360000   0.72302492   -7.7615815    307.19143  0.018823004  0.018283203            7 
 1361000   0.72339242   -7.7600625    306.70257  0.018779241  0.018269124           11 
 1362000   0.69779596   -7.7576037    307.53209  0.018816207  0.018255085           10 
 1363000   0.70324496   -7.7322925    307.63375  0.018808617  0.018241054            9 
 1364000   0.70176811   -7.7228547     307.6181  0.018793872  0.018227081            7 
 1365000   0.71328711   -7.7251877    306.99141  0.018741845   0.01821307           12 
 1366000   0.70103414    -7.738198    307.25108  0.018743966  0.018199048            3 
 1367000   0.70774054   -7.7332159    307.42215  0.018740682  0.018185076            4 
 1368000    0.7268993   -7.7389665     307.3553   0.01872291  0.018171096            3 
 1369000   0.70108242   -7.7450259    306.91455  0.018682405    0.0181571            7 
 1370000   0.69745329      -7.7495    307.47048  0.018702584   0.01814307            7 
 1371000   0.70139105   -7.7563009      307.584  0.018695843  0.018129099           15 
 1372000   0.70864524   -7.7449087    308.04563  0.018710255  0.018115138           11 
 1373000   0.70787775   -7.7642072    306.96835  0.018631242  0.018101152            6 
 1374000    0.6916375   -7.7494449    307.47169   0.01864821  0.018087179            5 
 1375000   0.70020646   -7.7344344    307.06762  0.018610159  0.018073205            4 
 1376000   0.72122564      -7.7646    307.60164  0.018628975  0.018059211            4 
 1377000   0.69942812   -7.7522191    307.10737  0.018585534  0.018045184            4 
 1378000   0.69388686   -7.7627297    306.89628  0.018559282  0.018031153            3 
 1379000   0.70562617   -7.7581834    307.12516  0.018559654  0.018017117            5 
 1380000   0.71808065   -7.7936545    306.86869  0.018530718  0.018003073           11 
 1381000   0.69456392   -7.7516729    306.75329  0.018510336  0.017988982            3 
 1382000   0.69966869   -7.8121029    306.81134  0.018500443   0.01797487           10 
 1383000   0.69767525   -7.7844968    306.98008  0.018497233  0.017960805           11 
 1384000   0.69965566   -7.7753742    306.84937  0.018475998  0.017946765            4 
 1385000   0.70337926   -7.8017002    306.92355  0.018467121  0.017932758            4 
 1386000   0.69801822    -7.778969    307.91627  0.018513484  0.017918752            6 
 1387000   0.70709199   -7.7807942    306.82638  0.018434654  0.017904755            3 
 1388000   0.69125503   -7.7822833    306.77944  0.018418554  0.017890738            5 
 1389000   0.70962386   -7.7785173    307.17223   0.01842886   0.01787671            7 
 1390000   0.70042814   -7.7727248     307.3276  0.018424916  0.017862725            7 
 1391000   0.69833513   -7.7943827    307.07952  0.018396808  0.017848768           19 
 1392000   0.70089883   -7.7882121    307.41648  0.018403764  0.017834777           11 
 1393000   0.70315597    -7.766684    307.38746  0.018388817  0.017820843            7 
 1394000   0.69584956     -7.79091    307.30083  0.018370447  0.017806935           12 
 1395000   0.68573687   -7.8004436    306.83772  0.018329613  0.017793026           10 
 1396000   0.70222658   -7.7647907    307.85523  0.018377223  0.017779151            6 
 1397000   0.69416044   -7.7726784    307.44395  0.018339534  0.017765258            9 
 1398000   0.67997544   -7.8093409    306.83545  0.018290143  0.017751358            5 
 1399000   0.70397497   -7.7834751    306.98226  0.018285815  0.017737452            3 
 1400000    0.7195523   -7.7997139    307.75696  0.018318867  0.017723549            3 
 1401000   0.67979236   -7.7952054    306.46623  0.018229017  0.017709656            6 
 1402000   0.69630874   -7.8195364     307.4483  0.018274388  0.017695771            2 
 1403000   0.68779419   -7.7805569    306.98738  0.018233985  0.017681896            6 
 1404000   0.69492075   -7.8129576    307.05292  0.018224888  0.017668087            6 
 1405000    0.7063271   -7.7641698    307.62761  0.018246003  0.017654278            4 
 1406000   0.70821397     -7.80666    307.40027  0.018219552  0.017640493            5 
 1407000   0.69212113   -7.8041723    307.89537  0.018235925  0.017626658            7 
 1408000   0.69983065   -7.8249275    307.77165  0.018215651  0.017612832            4 
 1409000   0.70291818   -7.8111973    306.82786  0.018146904  0.017598976           14 
 1410000   0.68673816   -7.8059678    306.98338  0.018143226  0.017585182           10 
 1411000   0.68464227   -7.8046486    307.10429  0.018137508  0.017571408            3 
 1412000   0.69071389    -7.819586    307.77179  0.018164057  0.017557642            3 
 1413000   0.68412132   -7.8060093    307.31022  0.018123981  0.017543871            6 
 1414000   0.68587392   -7.8128628    307.40544  0.018116775  0.017530103            6 
 1415000   0.69309671   -7.8048206     308.0038  0.018139211  0.017516364            2 
 1416000   0.68240721   -7.7992616    308.71507   0.01816826  0.017502643            7 
 1417000   0.69232222   -7.7902042    307.63867  0.018092135  0.017488929            4 
 1418000    0.7039659   -7.7842949    307.72123  0.018084228  0.017475218            3 
 1419000   0.68449586   -7.8232538     307.0221  0.018030426  0.017461546            4 
 1420000    0.6887527    -7.794152    307.89573  0.018068998  0.017447878            4 
 1421000   0.69541491   -7.8291117    307.80529  0.018050979  0.017434243            3 
 1422000   0.67724894   -7.8058745    307.36532  0.018012501  0.017420603            7 
 1423000   0.68528102   -7.8305251    307.52075  0.018008946  0.017406972            4 
 1424000   0.70225251   -7.8247944     307.1651  0.017975486  0.017393345           10 
 1425000    0.6817831   -7.8115443    308.07387  0.018016016  0.017379737            9 
 1426000   0.68820946   -7.8127401    307.95714   0.01799656  0.017366182            3 
 1427000   0.66738306   -7.8072876     308.4674  0.018013747  0.017352647            3 
 1428000   0.68199222   -7.8002726    308.10991   0.01798027  0.017339112            3 
 1429000   0.69313428   -7.8069617    308.43313  0.017986537  0.017325594            3 
 1430000    0.6836354   -7.8372572    308.19502  0.017960083  0.017312057            2 
 1431000   0.67536147   -7.8174745    308.81371  0.017983561  0.017298583            7 
 1432000   0.69043679   -7.8058717    308.34106  0.017943498  0.017285098            3 
 1433000     0.687758   -7.8033695    308.20163  0.017922868  0.017271614            8 
 1434000   0.68627095   -7.8233907    308.49023   0.01792714  0.017258152            7 
 1435000   0.67855052   -7.8330607    307.87053   0.01787866  0.017244691            9 
 1436000   0.68673599   -7.8127482    308.55424  0.017905887  0.017231286            6 
 1437000   0.67246038    -7.802422     308.2554  0.017876096  0.017217849            4 
 1438000   0.67280993   -7.8111711    308.06982   0.01785291  0.017204452            3 
 1439000   0.65273243   -7.8371559    308.04737  0.017839204  0.017191035            7 
 1440000   0.69072286   -7.8287745    308.80613  0.017870725  0.017177669            4 
 1441000   0.69371212   -7.8108007    308.81527  0.017858852  0.017164321            3 
 1442000   0.66814661   -7.8366541    308.52774  0.017829851  0.017150955            3 
 1443000   0.66866371   -7.8205419    308.62807  0.017823289  0.017137587            3 
 1444000   0.69231278   -7.8028244    308.76709  0.017818968  0.017124266            5 
 1445000   0.66787272   -7.8068856     308.0764  0.017766805  0.017110964            4 
 1446000   0.68372577   -7.8211856    307.84847  0.017741382  0.017097621            5 
 1447000     0.673572   -7.8111751    308.27628   0.01775376  0.017084286            2 
 1448000   0.67874842   -7.8366855    308.46194  0.017752183  0.017070915            5 
 1449000   0.67788479   -7.8600812    308.38927  0.017735753  0.017057566            8 
 1450000   0.66900256   -7.8317514    308.27061  0.017716702  0.017044215            3 
 1451000   0.66931015   -7.8483785    307.83904  0.017679706  0.017030857            6 
 1452000   0.67056427   -7.8442188     308.0383  0.017678966  0.017017534            4 
 1453000    0.6725489   -7.8232724    307.80352  0.017653334  0.017004208            4 
 1454000   0.65611245   -7.8174344    308.63013  0.017688568  0.016990936            6 
 1455000   0.67575671   -7.8033561    307.85626  0.017632088  0.016977661            7 
 1456000   0.66628718   -7.8286835    308.37541  0.017649692  0.016964355            4 
 1457000   0.65343568   -7.8335182     309.1028  0.017679181  0.016951079            3 
 1458000   0.66022663   -7.8237684    308.10062  0.017609775  0.016937815            3 
 1459000   0.65699675   -7.8531521    308.39668  0.017614615  0.016924544            3 
 1460000   0.67715262   -7.8422847    308.91464  0.017632114   0.01691127            4 
 1461000   0.66056575   -7.8670777    308.07471  0.017572137  0.016898019            2 
 1462000   0.67162205   -7.8433116    307.96267  0.017553732  0.016884751            4 
 1463000   0.65537869   -7.8455035     308.3194  0.017562053  0.016871489            5 
 1464000   0.67188529   -7.8305069    308.48912  0.017559718   0.01685822            2 
 1465000    0.6735419   -7.8214968    308.13553  0.017527618  0.016844957            3 
 1466000   0.67472909   -7.8549806    307.71481  0.017491747  0.016831679            3 
 1467000   0.67041082    -7.830224    308.82475  0.017542874   0.01681843            2 
 1468000   0.65570414   -7.8255766     307.8404  0.017475046  0.016805211            4 
 1469000   0.68545754   -7.8512423    307.87013  0.017464836  0.016791961            2 
 1470000    0.6646903   -7.8508266    308.54734  0.017491346   0.01677875            2 
 1471000   0.66850979   -7.8386323    307.94519  0.017445343  0.016765491            3 
 1472000   0.66665972   -7.8764915    307.96595  0.017434667  0.016752253            4 
 1473000   0.65671429   -7.8676071    307.89901  0.017419043  0.016738978            6 
 1474000   0.65841774   -7.8397512    307.54179   0.01738703  0.016725752            5 
 1475000   0.66151073   -7.8769501    307.88277  0.017394507  0.016712546            1 
 1476000   0.65907161   -7.8638167    307.75446  0.017375477  0.016699363            2 
 1477000   0.66493578   -7.8237198    308.40431  0.017400379  0.016686169            3 
 1478000   0.67040395   -7.8828871     308.2414   0.01737942  0.016672972            4 
 1479000   0.66283154   -7.8588334    308.12886  0.017361329  0.016659803            3 
 1480000   0.67216367   -7.8805459    307.83794  0.017333217  0.016646631            4 
 1481000   0.65956005   -7.8427509    308.21162   0.01734254  0.016633488            5 
 1482000   0.65150607   -7.8720285    308.28187  0.017334788  0.016620361            6 
 1483000   0.66633465   -7.8962813    307.52411  0.017280519  0.016607202            8 
 1484000   0.65841927   -7.8691681     308.0605  0.017298995  0.016594047            6 
 1485000   0.68273045   -7.8827032    307.82235  0.017273981   0.01658089            3 
 1486000   0.66195881    -7.890012    308.28466  0.017288283  0.016567752            5 
 1487000   0.65011641   -7.9034141    308.04759  0.017263371  0.016554621            4 
 1488000   0.66623487    -7.885931    307.37285  0.017213981  0.016541489            5 
 1489000   0.65662128   -7.8729837    308.10599  0.017243452  0.016528355            3 
 1490000   0.66247078   -7.8912818    307.58378  0.017202672  0.016515248            8 
 1491000   0.65461872   -7.9022369    308.33118  0.017232907  0.016502143            5 
 1492000   0.65907544   -7.8849957    308.27612  0.017218282  0.016488998            5 
 1493000   0.64672195   -7.8789286     308.0026  0.017191483    0.0164759            5 
 1494000   0.66255551   -7.9048485    307.98298  0.017178881  0.016462809            6 
 1495000   0.64872073   -7.8885305    307.54978  0.017143243  0.016449725            5 
 1496000   0.63992563    -7.861796    308.15707  0.017165612  0.016436646            8 
 1497000   0.66361619   -7.8761204    307.78032  0.017133173  0.016423587            8 
 1498000   0.66743499   -7.8769264    308.47988  0.017160652  0.016410535            3 
 1499000   0.65628621    -7.878014    308.15822  0.017131322  0.016397512            4 
 1500000   0.65808407   -7.8876032    307.94138  0.017107855  0.016384496            6 
 1501000   0.65343861   -7.8934781    307.98589  0.017098928  0.016371474            3 
 1502000   0.64205969   -7.8952322    308.09901   0.01709382  0.016358444            5 
 1503000   0.63907309   -7.9106641    308.17927  0.017086897  0.016345427            3 
 1504000   0.65737791   -7.8866851    308.11215  0.017071817  0.016332423            3 
 1505000   0.66372355   -7.8790515    308.29842  0.017070787  0.016319439            6 
 1506000   0.63602968   -7.8938508    307.85611  0.017034978   0.01630645            2 
 1507000   0.65240117   -7.8850072    307.86566  0.017024201  0.016293469            4 
 1508000   0.65410071   -7.8788102    308.21353  0.017032136  0.016280521            5 
 1509000   0.64713478   -7.8936897    308.62576  0.017043614   0.01626758            4 
 1510000   0.64945506    -7.865316    308.22332  0.017010117  0.016254664            5 
 1511000   0.63663862   -7.8768335    308.50234  0.017014248  0.016241758            3 
 1512000   0.65188316   -7.8806368    308.33502  0.016993773  0.016228903            7 
 1513000   0.64364273   -7.8656439    308.20588  0.016975429  0.016216069            6 
 1514000   0.63151853   -7.8596856    308.66634  0.016989561  0.016203268            3 
 1515000   0.65882891   -7.8901664    308.64843  0.016977362  0.016190474            8 
 1516000   0.63834183    -7.879364    308.22853  0.016943081  0.016177717            5 
 1517000   0.65420795   -7.8600634     309.0368  0.016976313  0.016164956            2 
 1518000   0.65451271   -7.8708543    308.21875  0.016920221  0.016152198            3 
 1519000   0.65034755   -7.8793293    308.73107  0.016937189  0.016139434            5 
 1520000   0.64683386   -7.8678455    308.23305  0.016898742  0.016126634            5 
 1521000   0.66059883   -7.8969789    308.54057   0.01690448  0.016113835            6 
 1522000   0.63754256   -7.9013309    308.95444  0.016916034  0.016101054           10 
 1523000   0.63822221   -7.8986946    308.69331  0.016890638  0.016088293           11 
 1524000   0.63993194   -7.8987358    308.16909  0.016850891  0.016075545            5 
 1525000   0.63755917   -7.8966953    308.45769  0.016855611  0.016062827            8 
 1526000   0.63218248   -7.8882078    308.82145  0.016864431  0.016050127            3 
 1527000   0.63736669   -7.8866039    309.11233   0.01686926  0.016037447            4 
 1528000    0.6382882   -7.8891711    308.93237  0.016848406    0.0160248            5 
 1529000   0.65086685    -7.882525    308.81622  0.016831056  0.016012131            3 
 1530000   0.63446507   -7.9198337    308.38244  0.016796429  0.015999482            4 
 1531000   0.63619748     -7.89138    308.92958   0.01681524  0.015986809            3 
 1532000   0.64291142   -7.8830207    308.70032  0.016791793  0.015974136            8 
 1533000   0.63482779   -7.8871147    308.24959  0.016756338  0.015961484            6 
 1534000   0.63593138   -7.9093394     308.8402  0.016777499  0.015948845            3 
 1535000   0.63919436   -7.9092355    308.58781  0.016752867  0.015936218            6 
 1536000   0.64456062   -7.8952835    309.13504   0.01677165  0.015923617            5 
 1537000   0.63032709   -7.9028554    308.95645  0.016751054  0.015911002            5 
 1538000   0.63041524    -7.887781    307.74663  0.016674612  0.015898404            6 
 1539000   0.64467531   -7.8959279    309.01493  0.016732453  0.015885824            8 
 1540000   0.64026507   -7.9069623    309.57833  0.016752074  0.015873247            8 
 1541000   0.63148889   -7.9078616    308.30897   0.01667256  0.015860681            3 
 1542000   0.65475928    -7.928272    308.67474  0.016681514  0.015848096            4 
 1543000   0.61643187   -7.9202226    308.47676  0.016660011  0.015835507            6 
 1544000   0.63112657   -7.9292424    308.52362   0.01665175  0.015822949            4 
 1545000   0.63126244   -7.9173588     308.4385  0.016636381    0.0158104            7 
 1546000   0.65589777   -7.9160286     308.8716  0.016648965  0.015797876            5 
 1547000   0.65036446   -7.9202992    308.35312  0.016610274  0.015785346            6 
 1548000    0.6436685   -7.9303137    308.11018  0.016586465  0.015772762            7 
 1549000    0.6219228   -7.9395314    308.12972  0.016576809  0.015760214            7 
 1550000    0.6348298   -7.9332486    308.53582  0.016587947  0.015747673            4 
 1551000   0.62650173   -7.9355482     307.9149  0.016543891  0.015735134            8 
 1552000   0.63905981    -7.922158    308.21329  0.016549253  0.015722616            6 
 1553000   0.64510887   -7.9388054    308.57355  0.016557928  0.015710125            5 
 1554000   0.64723113   -7.9156596    308.43598  0.016539896  0.015697648            7 
 1555000   0.63643408   -7.9079897    308.31028  0.016522523  0.015685175            5 
 1556000   0.63635423   -7.9152547    308.37032   0.01651512  0.015672736            5 
 1557000   0.63250065   -7.9294732    308.26952  0.016499118  0.015660271            7 
 1558000    0.6369185   -7.9511549    308.31773  0.016491107  0.015647798            5 
 1559000   0.63368061   -7.9319988    308.98873  0.016516396  0.015635361            3 
 1560000    0.6307507   -7.9339896    308.29074  0.016468522  0.015622937            3 
 1561000   0.62846625   -7.9338394    308.91087  0.016491078  0.015610513            3 
 1562000   0.61996343   -7.9375129    308.92525  0.016481287  0.015598137            5 
 1563000   0.62937453   -7.9238687    308.75574  0.016461705  0.015585757            2 
 1564000   0.62435072   -7.9367651    308.37575  0.016430933  0.015573387            3 
 1565000   0.62715795   -7.9418323     308.7197  0.016438749  0.015561024            6 
 1566000   0.62684594   -7.9482301    308.45429  0.016414128  0.015548657            8 
 1567000   0.61374619    -7.940516    308.94348  0.016429668  0.015536318            9 
 1568000   0.63586063   -7.9271754    308.35533  0.016387932  0.015523987            8 
 1569000   0.63303611   -7.9492055    308.20255  0.016369373  0.015511637            6 
 1570000   0.62377655   -7.9233499    308.51345  0.016375449  0.015499298           12 
 1571000   0.63386077   -7.9240547    308.78051  0.016379191  0.015486986            3 
 1572000    0.6275189   -7.9705694     308.1642  0.016336101   0.01547467           10 
 1573000   0.63425498   -7.9477737    308.39944  0.016338178  0.015462354            7 
 1574000   0.61579086   -7.9606035    308.54975  0.016335756  0.015450059            5 
 1575000   0.61343753   -7.9514453     308.6993  0.016333296  0.015437756           10 
 1576000   0.63012642    -7.937988    308.85692  0.016331267  0.015425484            7 
 1577000   0.62136428   -7.9404198    308.19048  0.016285694  0.015413245            8 
 1578000   0.61044352    -7.940333    308.86573  0.016311033  0.015401027            5 
 1579000   0.61603264   -7.9472826    309.37698  0.016327685  0.015388819            8 
 1580000    0.6262098   -7.9606104    309.47195   0.01632236  0.015376661            7 
 1581000   0.61061593   -7.9352561     309.2638  0.016301065  0.015364508            8 
 1582000   0.62527697    -7.920238    309.10267  0.016282273  0.015352332            5 
 1583000    0.6301985   -7.9518297    309.39576  0.016287416  0.015340162           13 
 1584000   0.61511052    -7.943748    309.10013  0.016261581  0.015328025           10 
 1585000   0.62923488   -7.9373735    309.34857  0.016264383  0.015315889            5 
 1586000   0.61952054   -7.9433275    309.09017  0.016240551  0.015303754            6 
 1587000   0.62067618   -7.9725418    309.05933  0.016228698  0.015291631            9 
 1588000   0.62463405    -7.959171      309.015  0.016216153  0.015279513            3 
 1589000   0.61017007   -7.9607401    309.11152  0.016211009  0.015267433            5 
 1590000   0.59919847   -7.9337206    308.91017   0.01619026  0.015255381            5 
 1591000   0.63419723   -7.9486359    308.56181  0.016161838  0.015243319            4 
 1592000   0.61059682   -7.9667553    308.86942  0.016167788  0.015231237            5 
 1593000   0.60485704   -7.9735455    308.57864  0.016142427   0.01521916            5 
 1594000   0.60614117   -7.9673671    309.27444  0.016168676  0.015207086            7 
 1595000   0.61103464   -7.9562128    308.67503  0.016127222  0.015195031           13 
 1596000   0.60680233   -7.9758968    308.90601  0.016129178  0.015182987            5 
 1597000   0.61280263   -7.9728224    308.99344   0.01612364  0.015170934            7 
 1598000   0.62216214   -7.9743493    309.56141  0.016143169    0.0151589            5 
 1599000   0.60740253   -7.9948528    309.10071  0.016109064  0.015146884            6 
 1600000   0.60788623   -7.9894733    309.30284  0.016109523  0.015134856            5 
 1601000   0.61177872   -7.9556389    308.58823  0.016062265  0.015122824            7 
 1602000   0.62223531   -7.9649772     309.2263   0.01608543  0.015110783           11 
 1603000   0.61776755   -7.9565514    308.49786  0.016037527   0.01509879            8 
 1604000   0.59500532    -7.973215    308.40416   0.01602266  0.015086783           12 
 1605000   0.61055569   -7.9848605    308.45887  0.016015517  0.015074747           13 
 1606000   0.60391278   -7.9948882    308.74237  0.016020256  0.015062721            4 
 1607000   0.61685449   -7.9903765    308.72994  0.016009642  0.015050715           11 
 1608000    0.6144252   -7.9887254    308.58338  0.015992091  0.015038716            4 
 1609000   0.61548339   -7.9708531    308.82005  0.015994409  0.015026722            9 
 1610000   0.61047777   -7.9741014    308.15426  0.015950014  0.015014718           13 
 1611000   0.61046019   -7.9831216    308.57567  0.015961911  0.015002755           10 
 1612000   0.59551402   -7.9729972    308.99442  0.015973657  0.014990769            8 
 1613000   0.60982922   -7.9805053    308.11778  0.015918464  0.014978807           12 
 1614000   0.59962203   -7.9941749    308.15165   0.01591035  0.014966859           10 
 1615000   0.60532341   -8.0001287    308.50951  0.015918963  0.014954921            9 
 1616000   0.60505549   -7.9829617    308.11553  0.015888796  0.014942993            7 
 1617000   0.60763258   -7.9917015    308.86094  0.015917385  0.014931076           19 
 1618000   0.60424806   -7.9789901    308.53857  0.015890944  0.014919174            8 
 1619000   0.59829199   -7.9950407    308.52375  0.015880366  0.014907302           12 
 1620000   0.60343492    -7.995833    308.59105  0.015874025  0.014895425           15 
 1621000   0.59567291   -7.9934633    308.54888  0.015862065  0.014883566           10 
 1622000   0.60029619   -7.9949091     308.5829  0.015854033  0.014871688           10 
 1623000   0.61132176   -7.9991372     308.5045  0.015840239  0.014859802            7 
 1624000   0.61526987   -7.9941456     307.8338   0.01579607  0.014847931           11 
 1625000   0.61119972    -8.015256    308.12458  0.015801261  0.014836067            9 
 1626000   0.60759464   -7.9998954    308.33579  0.015802368  0.014824212           10 
 1627000   0.60083112    -8.002433    308.76888  0.015814837  0.014812385            8 
 1628000   0.60876264   -8.0112101    308.62135  0.015797571  0.014800569           12 
 1629000   0.61758836   -8.0062571     308.2116  0.015766912  0.014788771            7 
 1630000   0.59101475    -7.989291    308.71414  0.015782932  0.014776979           13 
 1631000   0.60867396   -8.0096425     308.6068   0.01576777  0.014765195           10 
 1632000   0.60579863   -8.0146476    308.36127  0.015745571  0.014753423            5 
 1633000   0.60323594   -7.9975693    308.43985  0.015739939  0.014741652            7 
 1634000   0.60062792   -8.0064864    308.51856  0.015734321  0.014729862            6 
 1635000   0.59941068    -7.995284    308.22272  0.015709619  0.014718087           12 
 1636000   0.59391446   -7.9870733    308.87228  0.015733103   0.01470632            9 
 1637000   0.60774376   -7.9931227    308.01391  0.015679796  0.014694571           16 
 1638000   0.59551627   -7.9957145     307.8903  0.015663935  0.014682847           11 
 1639000   0.59315771    -8.019914    308.01111   0.01566052  0.014671129           12 
 1640000   0.58779868   -8.0070225    308.08611  0.015654782  0.014659405            5 
 1641000   0.59163716   -7.9731135    308.32785  0.015657518  0.014647699            9 
 1642000   0.60584704   -8.0158908    308.38153  0.015650707  0.014636016           10 
 1643000   0.58839664   -8.0062734    309.30701  0.015688122   0.01462434            5 
 1644000   0.59699126   -8.0176677    308.24158  0.015624573  0.014612647            4 
 1645000   0.60483403   -7.9986623    308.67505  0.015637034  0.014600991            7 
 1646000   0.59199657   -8.0098984    308.18428  0.015602687  0.014589326            5 
 1647000   0.60464603   -7.9985157     308.5916  0.015613823  0.014577654            9 
 1648000   0.58598047   -7.9904748    308.28742  0.015588967  0.014566017            4 
 1649000   0.58801207   -8.0252437    307.61173  0.015545367  0.014554373            6 
 1650000   0.59135522    -7.996167    308.41963  0.015576749  0.014542738            6 
 1651000   0.59186929   -8.0210722    307.90351  0.015541263  0.014531139            5 
 1652000   0.60187422   -8.0135766    308.27956  0.015550825  0.014519541            9 
 1653000   0.59156527   -8.0099869    309.09508  0.015582531  0.014507967            8 
 1654000   0.60684434   -8.0115781    308.13175  0.015524574  0.014496383            8 
 1655000   0.58500877   -8.0289911    307.54893  0.015485847  0.014484799           11 
 1656000   0.58531916   -8.0178345    308.37386  0.015518008  0.014473228            4 
 1657000   0.59257988   -8.0198203    308.31639  0.015505753  0.014461661            8 
 1658000   0.57525743   -8.0421841    307.98457  0.015479723   0.01445009            5 
 1659000   0.59295315   -8.0364688    308.29586  0.015486029  0.014438544            7 
 1660000   0.58423405   -8.0129367    308.34548  0.015479191  0.014426997            6 
 1661000   0.57694826   -8.0273341       307.98  0.015451535  0.014415466            8 
 1662000   0.58161984    -8.045839    307.83519  0.015434977  0.014403937            9 
 1663000   0.57186858   -8.0256619    307.81302  0.015424585  0.014392398            7 
 1664000   0.58185041    -8.022897    307.99817  0.015424588  0.014380875            6 
 1665000   0.56984913   -8.0253811    308.00836  0.015415834  0.014369359            9 
 1666000   0.58755035   -8.0310675    307.94912  0.015403618  0.014357837            8 
 1667000   0.59702019   -8.0428432    308.14491  0.015404165  0.014346314            5 
 1668000   0.58790236   -8.0366795    307.76191  0.015375795  0.014334804            6 
 1669000   0.59496275    -8.039493    308.20046  0.015388479  0.014323322           10 
 1670000   0.57363171   -8.0472659    307.87809  0.015363178  0.014311852           11 
 1671000   0.60110529   -8.0490065    308.09114  0.015364609  0.014300367            4 
 1672000   0.58998516   -8.0479865    307.82125  0.015341968  0.014288928            9 
 1673000   0.58150317   -8.0547695    307.92965  0.015338198  0.014277483            3 
 1674000   0.57515243   -8.0444715    308.01274  0.015333171  0.014266025            5 
 1675000   0.58777084   -8.0461536    307.80513  0.015313688  0.014254582            6 
 1676000   0.58240552    -8.037537    307.66472   0.01529757  0.014243161            6 
 1677000   0.58393898   -8.0488797    307.84806  0.015297558  0.014231738            5 
 1678000   0.57402959   -8.0429415    307.81178   0.01528664  0.014220334            6 
 1679000    0.5866522   -8.0341433    307.47591  0.015260865  0.014208934            9 
 1680000   0.57635289   -8.0718739    307.88479  0.015272063  0.014197526            6 
 1681000   0.58213992   -8.0564479    307.46369  0.015242102  0.014186132            5 
 1682000   0.57956105   -8.0375427    307.69657  0.015244578  0.014174756            5 
 1683000   0.57610059   -8.0606079    308.22972  0.015261919  0.014163389            5 
 1684000   0.57851097   -8.0460138     307.8152  0.015232343  0.014152013            6 
 1685000    0.5737304   -8.0411659    307.69647  0.015217432  0.014140654            5 
 1686000   0.57080316   -8.0806674    307.52926  0.015200141  0.014129312            7 
 1687000   0.59203323   -8.0535178    307.40598  0.015185041  0.014117959            5 
 1688000   0.58419427    -8.050161    307.85293  0.015198111  0.014106628            3 
 1689000   0.57693572   -8.0391228    307.31283  0.015162464  0.014095307            3 
 1690000   0.57683619   -8.0464513    307.85217  0.015180087     0.014084            7 
 1691000   0.58976524    -8.058276    308.18082  0.015187307    0.0140727            9 
 1692000   0.59067427   -8.0425559    307.62137  0.015150777  0.014061429            5 
 1693000   0.58243298   -8.0427417    308.11916   0.01516633   0.01405016            6 
 1694000   0.59536965   -8.0546831    308.15913  0.015159343  0.014038909            2 
 1695000   0.57920228   -8.0470892    307.21487  0.015103976  0.014027652            7 
 1696000    0.5808569   -8.0517979    307.09902  0.015089378  0.014016411           10 
 1697000   0.57164896   -8.0442046    308.23089  0.015136068  0.014005194            7 
 1698000   0.57866381    -8.050903    307.64278  0.015098291  0.013993982            4 
 1699000   0.56141337   -8.0557102    307.45164   0.01508003  0.013982755            6 
 1700000   0.57608446   -8.0655612    308.21911   0.01510878  0.013971531            8 
 1701000   0.56808849   -8.0643345    307.70872  0.015074893  0.013960327            5 
 1702000   0.57926402   -8.0550998    307.08978  0.015035731  0.013949124            4 
 1703000   0.57186951   -8.0525068    307.76981  0.015060179  0.013937965           11 
 1704000   0.57341612   -8.0712576    307.58141  0.015042127  0.013926778            7 
 1705000   0.57488627   -8.0802292    307.31045  0.015020061  0.013915601            6 
 1706000   0.57515747   -8.0551052    307.85065  0.015037644   0.01390442            7 
 1707000   0.57870622   -8.0585953    307.79769  0.015026249  0.013893262            4 
 1708000   0.56224599   -8.0935926    307.43298  0.014999658  0.013882112            3 
 1709000    0.5624715   -8.0673092    308.24431  0.015030442   0.01387097            4 
 1710000     0.576008    -8.092092     307.6369  0.014992052  0.013859822            5 
 1711000   0.54933145   -8.0667331    307.13488  0.014958839  0.013848699            2 
 1712000   0.57354135   -8.0520814    307.54319  0.014969976  0.013837568            5 
 1713000    0.5751574   -8.0832182    307.27333  0.014948109  0.013826467            2 
 1714000   0.56428633   -8.0909647    307.43335  0.014947168  0.013815367            6 
 1715000   0.55870054   -8.0722282    307.75671  0.014954165  0.013804277            5 
 1716000   0.56051657   -8.0761019    307.32009  0.014924247  0.013793193            3 
 1717000   0.57097862   -8.0718233    307.37736  0.014918335  0.013782111            4 
 1718000   0.55807633   -8.0874829    307.61194  0.014921029  0.013771044            6 
 1719000   0.56973647   -8.0710321     307.1648  0.014890673  0.013759986            4 
 1720000   0.56503723   -8.0765175     307.5079  0.014898638  0.013748948            7 
 1721000   0.57629903   -8.0960012    307.62148  0.014895481  0.013737908            3 
 1722000   0.57245296    -8.081905    308.16395  0.014913083  0.013726888            4 
 1723000   0.56033515   -8.0782499    307.33898  0.014864528  0.013715884            4 
 1724000   0.56488665   -8.0943407    307.81982  0.014879148   0.01370489            3 
 1725000   0.55504886   -8.0703407    307.26475  0.014843708    0.0136939            5 
 1726000   0.55876976   -8.0937342    307.70408  0.014856319  0.013682916            5 
 1727000     0.558462   -8.0738034    307.29933  0.014828186  0.013671932            3 
 1728000   0.55273503    -8.060386    307.09795  0.014809893  0.013660965            4 
 1729000   0.55455706   -8.0851246    307.95623  0.014842695  0.013649997            4 
 1730000   0.57070387   -8.0876617    307.98956   0.01483572   0.01363904            4 
 1731000   0.55306901   -8.0832722    307.22343  0.014790267  0.013628093            5 
 1732000   0.55943772   -8.0698954     307.0554  0.014773643  0.013617145            3 
 1733000    0.5446371   -8.0716281    307.36678  0.014780091  0.013606212            6 
 1734000   0.56828011   -8.0923044    307.81273  0.014792999  0.013595295            5 
 1735000   0.56886534   -8.0923989     307.6629  0.014777277  0.013584373            3 
 1736000   0.56552248   -8.0689412    307.36615  0.014754519  0.013573475            2 
 1737000   0.56038962   -8.0903813    307.74512  0.014764206  0.013562578            4 
 1738000   0.55855917   -8.0970678    306.69709  0.014705461  0.013551701            3 
 1739000   0.56100926   -8.0775455    307.83438  0.014751504  0.013540823            3 
 1740000   0.56169244   -8.0767967    307.41142  0.014722769  0.013529961            9 
 1741000   0.54692327   -8.0779156    307.00322  0.014694774    0.0135191            4 
 1742000   0.55152233   -8.0976055    306.77508  0.014675425  0.013508248            3 
 1743000   0.57484957   -8.0842926    307.14334  0.014684612  0.013497414            3 
 1744000   0.55330356     -8.09103    308.06247   0.01472011  0.013486569            4 
 1745000   0.55517485   -8.0966525    307.05395  0.014663513  0.013475734            6 
 1746000   0.55746252    -8.103452    307.19684  0.014661934  0.013464915            6 
 1747000   0.57657621   -8.0932583    307.20208  0.014653791   0.01345411            3 
 1748000    0.5528257   -8.0955221    306.93502  0.014632677  0.013443311            5 
 1749000   0.56397697   -8.1032336    307.33721  0.014643473  0.013432508            3 
 1750000   0.55699844   -8.1158928    307.40068  0.014638128  0.013421732            4 
 1751000   0.55297582   -8.1132288    307.55851  0.014637279  0.013410964            3 
 1752000   0.55293868   -8.0975027    307.58594  0.014630229  0.013400197            5 
 1753000   0.57054159   -8.1035076    307.10559  0.014599049  0.013389426            3 
 1754000   0.55420349   -8.1172592    306.68848  0.014570908  0.013378655            3 
 1755000   0.54514936   -8.1067767    307.09541  0.014581928  0.013367902            3 
 1756000   0.55960964   -8.0998503    307.22135  0.014579601  0.013357169            3 
 1757000   0.55066037   -8.1094318    306.54686  0.014539312  0.013346451            7 
 1758000   0.54138522   -8.1168913    307.04851  0.014554821  0.013335736            7 
 1759000    0.5447424   -8.1140558    306.89479  0.014539264  0.013325047            4 
 1760000   0.56299553   -8.1109434    306.78009  0.014525573  0.013314356            3 
 1761000   0.55551472   -8.1094719     306.8769  0.014521905  0.013303664            6 
 1762000   0.54389124   -8.1020306    307.26451  0.014531995   0.01329299            5 
 1763000    0.5412734   -8.1184239    306.71528  0.014497791  0.013282322            4 
 1764000   0.57016613   -8.1141014    307.22466  0.014513637  0.013271659            4 
 1765000   0.54348506   -8.1055052    306.69214  0.014480271  0.013261019            3 
 1766000   0.53817984    -8.123531    306.44738  0.014460522  0.013250379            4 
 1767000   0.53291657   -8.1140733    307.14035  0.014485019   0.01323975            7 
 1768000   0.54774864    -8.097748    307.15716  0.014477619  0.013229137            3 
 1769000   0.54044783   -8.1128052    306.78049  0.014451691  0.013218536            4 
 1770000   0.53631359   -8.1194757    306.74696  0.014441947  0.013207939            3 
 1771000   0.53658742   -8.1188319     306.8521   0.01443874  0.013197346            7 
 1772000   0.54161598   -8.1154823    306.62565  0.014419942   0.01318677            5 
 1773000   0.54734106   -8.1020185    307.14682  0.014436305  0.013176191            8 
 1774000   0.54915988   -8.1061583    306.96609  0.014419677  0.013165647            6 
 1775000   0.55790091   -8.0915738    306.95756  0.014411153  0.013155103            2 
 1776000   0.54838657    -8.140085    306.81328  0.014396269  0.013144569            6 
 1777000   0.53665283    -8.114514    306.73136  0.014384326  0.013134038            5 
 1778000   0.55058133   -8.1332347     306.8164  0.014380221  0.013123512            4 
 1779000    0.5227482   -8.1129214     307.1289  0.014386776  0.013113002            5 
 1780000   0.53480324   -8.1113282    307.12977  0.014378735  0.013102494            2 
 1781000   0.54941367   -8.1191754     307.0438  0.014366639  0.013092006            3 
 1782000   0.54760923   -8.1192215    307.37956  0.014374278  0.013081526            3 
 1783000   0.53665619    -8.129362    307.25611  0.014360446  0.013071054            5 
 1784000   0.54014864   -8.1295249      306.648  0.014323991  0.013060576            6 
 1785000   0.54092939   -8.1265378    306.65322   0.01431621  0.013050125            8 
 1786000   0.53127416   -8.1210817    306.60285  0.014305844  0.013039679            9 
 1787000   0.53713423    -8.126785    306.76108  0.014305217  0.013029222            5 
 1788000   0.53692403   -8.1352377    306.63593  0.014291384  0.013018778            7 
 1789000   0.54246791   -8.1163382    306.41255   0.01427299  0.013008339            5 
 1790000   0.53288293   -8.1246486    306.46469  0.014267444  0.012997897            3 
 1791000   0.52463718   -8.1298489    307.22371  0.014294794  0.012987486            8 
 1792000   0.52492456   -8.1219855    307.05892  0.014279154  0.012977087            3 
 1793000   0.53270845   -8.1315093    306.95209  0.014266224  0.012966696           10 
 1794000   0.52283311   -8.1235211    306.77713  0.014250146  0.012956313           10 
 1795000   0.54552667   -8.1317108     306.4229  0.014225762  0.012945948            4 
 1796000   0.53542509   -8.1367484    306.77952  0.014234388  0.012935597            7 
 1797000   0.53214814   -8.1355772    306.35785  0.014206912  0.012925243            6 
 1798000   0.53269036   -8.1346751    306.53215  0.014207089   0.01291488            6 
 1799000   0.53026054    -8.141752    306.31988  0.014189359  0.012904553            5 
 1800000   0.54414304   -8.1327915     305.8476  0.014159611   0.01289421            7 
 1801000    0.5393584    -8.134889    306.78414  0.014195083   0.01288389            6 
 1802000   0.53670099   -8.1164218    306.99141  0.014196791  0.012873586            4 
 1803000   0.52639717   -8.1477556    306.82399  0.014181179   0.01286328            6 
 1804000   0.53663048    -8.131705     307.0519  0.014183846  0.012852987            8 
 1805000   0.52171497   -8.1416264    307.10456  0.014178419    0.0128427            6 
 1806000   0.53398359   -8.1575442    306.76249  0.014154785  0.012832418            7 
 1807000   0.53675662   -8.1379639    306.78099  0.014147804  0.012822164            6 
 1808000   0.53346008   -8.1261985    306.60334  0.014131791  0.012811919            6 
 1809000   0.51409014   -8.1459369    306.26494  0.014108391  0.012801667            8 
 1810000   0.53692663   -8.1261999    306.36044  0.014104992  0.012791417            7 
 1811000   0.53602036   -8.1472082    306.15036  0.014087537  0.012781178            6 
 1812000   0.52471679   -8.1455829    307.08826  0.014122897  0.012770941            9 
 1813000   0.52611882   -8.1276917    306.91512  0.014107148  0.012760721            7 
 1814000   0.53588015   -8.1439918     306.5258  0.014081487  0.012750508            7 
 1815000   0.53086154    -8.136238    306.46603  0.014070984  0.012740309            6 
 1816000   0.51798221   -8.1451548    306.68147  0.014073122  0.012730118            5 
 1817000   0.53982637   -8.1397257    306.55004  0.014059349  0.012719923            7 
 1818000   0.53596377   -8.1435403    306.85276  0.014065491  0.012709758            7 
 1819000   0.52421975   -8.1538923    306.69647  0.014050599  0.012699603           13 
 1820000   0.53589512   -8.1421156    306.36357  0.014027636  0.012689462            7 
 1821000    0.5302149   -8.1512423    306.60211  0.014030849  0.012679327            9 
 1822000   0.53190232   -8.1348827    306.44013  0.014015739  0.012669198            8 
 1823000   0.52729725   -8.1462171    306.89242  0.014028726  0.012659078           10 
 1824000   0.51420409   -8.1546521    306.29589  0.013993781  0.012648965            8 
 1825000   0.51942885   -8.1380986     306.5407  0.013997292  0.012638866            7 
 1826000   0.51612918   -8.1339122    306.58621  0.013991704  0.012628785            8 
 1827000   0.52758418   -8.1439939    306.43373  0.013977091  0.012618702            6 
 1828000   0.52460309   -8.1509691    306.52791  0.013973738  0.012608626            8 
 1829000   0.52350896    -8.142786    306.39814  0.013960185  0.012598572            3 
 1830000   0.51643926   -8.1478324    306.43521  0.013954245  0.012588499            7 
 1831000   0.53219698   -8.1490297    306.32256  0.013941496   0.01257844           11 
 1832000   0.51748415   -8.1605559    306.64398  0.013948507  0.012568406            7 
 1833000   0.51141156   -8.1204472     306.1704  0.013919367  0.012558387           10 
 1834000   0.52079775   -8.1642463      306.702  0.013935932  0.012548366            4 
 1835000   0.51312747   -8.1331912    306.42665  0.013915834  0.012538354           12 
 1836000   0.52356618   -8.1562294    306.87539  0.013928621  0.012528359            8 
 1837000   0.51551586   -8.1532579    306.99733  0.013926571   0.01251837            9 
 1838000   0.51950367   -8.1677778    306.10952  0.013878742  0.012508396           16 
 1839000   0.53099571   -8.1446706    306.13836  0.013872501  0.012498419            8 
 1840000   0.51908015   -8.1562569    306.41229  0.013877368  0.012488455           13 
 1841000   0.52095895   -8.1693536    306.73192  0.013884298  0.012478486            7 
 1842000   0.51355049   -8.1501771    306.31053  0.013857697  0.012468532            5 
 1843000   0.52017987   -8.1598857    306.34705  0.013851829  0.012458585            5 
 1844000    0.5166212   -8.1522102    306.70144  0.013860333  0.012448643            8 
 1845000   0.51779715   -8.1563821    306.28939  0.013834209  0.012438722           13 
 1846000   0.51178865   -8.1657938    306.13373  0.013819688  0.012428811           10 
 1847000   0.51759193   -8.1662008    306.40286  0.013824349  0.012418905           10 
 1848000   0.52634169   -8.1722881    306.12125  0.013804169  0.012408995           10 
 1849000   0.51506163   -8.1631251    306.35896  0.013807417    0.0123991            6 
 1850000   0.52235429   -8.1622314    305.76466  0.013773183  0.012389214            4 
 1851000   0.49717332    -8.165814    306.24521  0.013787376  0.012379334            4 
 1852000   0.51112634   -8.1752506    306.42739   0.01378813  0.012369463            7 
 1853000   0.51069001   -8.1637339    306.16074  0.013768697  0.012359604            4 
 1854000   0.51159961   -8.1788514    306.15866  0.013761177  0.012349745            4 
 1855000   0.50441433   -8.1481552    305.51667  0.013724918  0.012339898            6 
 1856000   0.51426595   -8.1693639    306.59289  0.013765844  0.012330071            4 
 1857000   0.50592468   -8.1824175    305.75413  0.013720792  0.012320254            8 
 1858000    0.5168651   -8.1765995    306.33743  0.013739569   0.01231044            7 
 1859000   0.50524182   -8.1690667    305.94442  0.013714561   0.01230063            9 
 1860000   0.52101563   -8.1616613    305.96828  0.013708256  0.012290847            7 
 1861000   0.50703953   -8.1854232    305.95754  0.013700409  0.012281076            6 
 1862000     0.511199   -8.1819343    306.57201  0.013720552  0.012271302            5 
 1863000   0.51556502   -8.1691823    306.37284  0.013704278  0.012261534            6 
 1864000   0.51911572   -8.1801581    306.31799  0.013694474  0.012251787            9 
 1865000   0.49742939    -8.162461    306.23054  0.013683224  0.012242049            6 
 1866000   0.50200724   -8.1858878    306.14211  0.013671941  0.012232318           11 
 1867000   0.51307612   -8.1684787    305.89076  0.013653399  0.012222581            7 
 1868000   0.49907977   -8.1730204    306.03257  0.013652417  0.012212864           11 
 1869000   0.50638001   -8.1809521    306.29793  0.013656944  0.012203154            9 
 1870000   0.51751005   -8.1700303    305.49649  0.013613926   0.01219345            9 
 1871000   0.50097395   -8.1760192    306.08805  0.013632997  0.012183761           12 
 1872000   0.50061845   -8.1875654    306.35287  0.013637503  0.012174086           11 
 1873000    0.5006357   -8.1713722    305.97657   0.01361348  0.012164426            5 
 1874000   0.50580377   -8.1817819    305.91916  0.013603662   0.01215477            6 
 1875000   0.49959149   -8.2018463    306.46726  0.013620767  0.012145115            7 
 1876000    0.5080923   -8.1659129    306.42544  0.013611649   0.01213547           10 
 1877000   0.50933815   -8.1732706    305.92023  0.013581967  0.012125834           10 
 1878000   0.50568849     -8.17412    306.16695  0.013585683  0.012116203            7 
 1879000   0.50133686   -8.1898585    305.95236  0.013568936   0.01210659            4 
 1880000   0.51122466   -8.1787533    306.05588  0.013566307  0.012096977           11 
 1881000   0.50508255   -8.1966465    305.98894  0.013556129  0.012087376            7 
 1882000   0.51271137    -8.197803    306.00525  0.013549648  0.012077782            6 
 1883000    0.5078177   -8.1857664     305.9808   0.01354137  0.012068192            4 
 1884000   0.49831197   -8.1831592    305.66877  0.013520381  0.012058611            8 
 1885000   0.50300099   -8.2023777    306.07254  0.013531058  0.012049039            7 
 1886000   0.49418562   -8.1866665    305.92995  0.013517583  0.012039468           10 
 1887000   0.49332022   -8.1900659    306.21366  0.013522949  0.012029925            8 
 1888000   0.48925401   -8.1808457    306.50477  0.013528636  0.012020385            7 
 1889000   0.49191169   -8.2016274    306.08324  0.013502878  0.012010863           11 
 1890000   0.49871137   -8.1631766    305.59447  0.013474183  0.012001343           13 
 1891000   0.49893236   -8.2006476    306.04086  0.013486729  0.011991847            4 
 1892000   0.50663421   -8.1845936    305.89724  0.013473275  0.011982351            2 
 1893000   0.49519553   -8.1997368    305.90875  0.013466665  0.011972854            5 
 1894000   0.50080138   -8.1761294    305.75344  0.013452721  0.011963365            5 
 1895000   0.50424793   -8.1811836    306.24336  0.013467166   0.01195389            5 
 1896000   0.49422249    -8.198697    305.92986  0.013446284  0.011944426           12 
 1897000   0.48154167   -8.1851713    305.39283  0.013415605  0.011934958            4 
 1898000    0.4900081   -8.2035384     305.4953  0.013413036  0.011925505           11 
 1899000   0.48927724   -8.1986299    306.14084  0.013434301  0.011916055            7 
 1900000   0.49522692   -8.1948863    306.31859  0.013435026  0.011906629            4 
 1901000   0.50070437   -8.2131445    305.98172  0.013413191  0.011897208            6 
 1902000   0.49684635   -8.1895481    305.71103  0.013394279  0.011887797            8 
 1903000   0.50751149   -8.1931091    305.63658  0.013383981  0.011878382            5 
 1904000   0.49381195   -8.1919907    305.51303  0.013371544  0.011868982            7 
 1905000   0.49288975   -8.1991846    305.09505   0.01334624   0.01185959            7 
 1906000   0.49547799   -8.2005005    306.39857   0.01339623  0.011850213           14 
 1907000   0.48448692   -8.1889037    306.01848  0.013372596  0.011840835           11 
 1908000   0.49936089   -8.1975314    306.22306  0.013374522  0.011831476           10 
 1909000    0.5000299    -8.192491      305.994  0.013357517  0.011822118            5 
 1910000   0.49140796   -8.1991302    305.53385  0.013330447  0.011812765            6 
 1911000   0.50024961   -8.2013196    306.24756  0.013354594  0.011803419            6 
 1912000   0.48581709   -8.2008995    305.60306   0.01331952  0.011794082            8 
 1913000   0.47685109   -8.2123735    305.66308  0.013315172  0.011784752            9 
 1914000    0.4916327   -8.2126538    305.38147  0.013295954  0.011775427           12 
 1915000   0.49407969   -8.1976484    306.05831  0.013318464  0.011766112           13 
 1916000   0.48376711   -8.2012241    305.82078  0.013301182  0.011756806           10 
 1917000    0.4943996   -8.2098353    305.33824  0.013273267  0.011747512           12 
 1918000   0.50457515   -8.1961623    305.52823  0.013274602  0.011738221            7 
 1919000   0.49729964   -8.2072532    305.66164  0.013273477  0.011728939           12 
 1920000   0.48618695   -8.2001923    305.98033  0.013280396  0.011719674           12 
 1921000   0.47440902   -8.2101415    305.59345    0.0132567  0.011710419           10 
 1922000   0.49398141   -8.2095501    306.07638  0.013270741  0.011701163           12 
 1923000   0.48354099   -8.2046698    305.80647  0.013252144  0.011691921           13 
 1924000   0.48553894   -8.2257426    305.75562  0.013243053  0.011682682           10 
 1925000   0.48655971   -8.2033864    305.76523   0.01323659  0.011673453            4 
 1926000   0.47266749   -8.2194815    305.59023  0.013222146  0.011664232           10 
 1927000   0.47955452   -8.2072349    305.85123  0.013226571  0.011655018           10 
 1928000   0.48446593   -8.2199928    305.50205  0.013204618  0.011645813            8 
 1929000   0.47711028   -8.2252182    305.71422  0.013206939  0.011636615            3 
 1930000    0.4809744   -8.2075371    305.85574  0.013206206  0.011627421           15 
 1931000   0.47400155   -8.1993003    305.60581  0.013188582  0.011618238           12 
 1932000   0.48989682   -8.2086452    305.39203  0.013172534  0.011609066           12 
 1933000   0.48586042   -8.2248144    305.83386  0.013184767  0.011599902            9 
 1934000   0.48396918   -8.2078157    305.15919  0.013148879   0.01159075            7 
 1935000   0.47980173   -8.2137686    305.44118  0.013154228  0.011581597            7 
 1936000   0.47717276   -8.2124779     305.4102    0.0131461  0.011572467            5 
 1937000   0.48116866   -8.2172421     305.7623  0.013154461  0.011563346           11 
 1938000   0.48917446   -8.2263351     305.4137  0.013132684  0.011554234            5 
 1939000   0.47672778   -8.2074908    305.06944  0.013111116  0.011545117            5 
 1940000   0.47449571    -8.220245    305.53081  0.013124176  0.011536025            7 
 1941000    0.4783998   -8.2089876    305.28597  0.013106902  0.011526937            8 
 1942000   0.47335077   -8.2083456     304.9416  0.013085376  0.011517856            7 
 1943000   0.47576625   -8.2254224    305.32193  0.013094953  0.011508775            9 
 1944000   0.49042096   -8.2246255    305.09019  0.013078283  0.011499707            7 
 1945000   0.48220823   -8.2338065    305.49331  0.013088831  0.011490652            9 
 1946000   0.47076873    -8.228975    305.65148  0.013088878  0.011481599            6 
 1947000   0.47457153   -8.2191656    305.13874   0.01306021  0.011472562           13 
 1948000   0.46454554   -8.2300123    305.21802  0.013056897  0.011463533            7 
 1949000   0.47044251   -8.2288409     305.7879  0.013074564  0.011454509            7 
 1950000   0.48472493   -8.2456815    305.48984  0.013055122  0.011445486            8 
 1951000   0.46919784   -8.2347354    304.85647  0.013021377  0.011436477            7 
 1952000   0.46997937   -8.2316435    305.01528  0.013021486  0.011427476            4 
 1953000   0.46994636   -8.2306601    305.13107  0.013019759   0.01141849            9 
 1954000   0.47440643   -8.2440182    305.26286  0.013018716   0.01140951            7 
 1955000   0.48263371   -8.2539138    305.61072  0.013026885  0.011400533            6 
 1956000   0.47499143   -8.2473955     305.5846  0.013019112  0.011391569            5 
 1957000   0.47175746   -8.2309448    304.91762  0.012984058   0.01138261            8 
 1958000   0.47333149   -8.2359574    305.30556  0.012993938  0.011373664            6 
 1959000   0.46048473   -8.2269138     305.1648  0.012981317  0.011364721            6 
 1960000    0.4763613   -8.2375205    305.19255  0.012975874   0.01135579           10 
 1961000   0.47628734   -8.2289811    305.08739  0.012964788  0.011346874            9 
 1962000   0.47037648   -8.2310908    305.34868  0.012969278  0.011337971            6 
 1963000   0.46464518   -8.2321198    304.99431  0.012947628  0.011329067            4 
 1964000   0.47305526   -8.2489191    305.30572  0.012954248  0.011320174            7 
 1965000   0.47810367   -8.2396247    305.65385   0.01296242  0.011311292            6 
 1966000   0.46168853   -8.2502066    304.92215  0.012924812  0.011302415            8 
 1967000   0.46578053   -8.2305169    305.41689  0.012939201  0.011293543            9 
 1968000   0.47440972   -8.2327844    305.24807  0.012925477  0.011284692            7 
 1969000   0.48087392   -8.2367665    305.06164  0.012911022  0.011275835            5 
 1970000   0.46822432   -8.2399403    304.91245  0.012898158  0.011266989            6 
 1971000   0.46495201   -8.2241159    305.24544  0.012905693  0.011258152            5 
 1972000   0.46335005   -8.2423448    305.00642  0.012889047  0.011249313            6 
 1973000    0.4732666   -8.2412223     305.0547  0.012884554  0.011240491            9 
 1974000   0.46529513   -8.2375135    304.80898  0.012867654  0.011231673           15 
 1975000   0.45028414   -8.2327756    305.34588  0.012883792  0.011222875           12 
 1976000   0.45850176   -8.2365189    305.31038  0.012875775  0.011214082            8 
 1977000   0.45696135   -8.2403707    305.01636  0.012856869  0.011205296            9 
 1978000   0.46717115   -8.2339161    305.52778  0.012871915  0.011196507            6 
 1979000   0.47332187   -8.2320574    304.74908  0.012832621  0.011187732           11 
 1980000   0.46231686   -8.2467423    304.92464  0.012833529  0.011178952            9 
 1981000   0.46199455   -8.2523357    304.65552  0.012815729  0.011170184           10 
 1982000   0.44983291   -8.2423898    305.32577  0.012837444  0.011161418           11 
 1983000   0.46024409   -8.2536607    304.96123  0.012815651   0.01115267            5 
 1984000   0.44908276   -8.2555151    305.05367  0.012813074  0.011143928            9 
 1985000   0.46802132   -8.2685042    305.04051  0.012806067  0.011135183            7 
 1986000    0.4650203   -8.2467799    304.81756  0.012790264  0.011126452            7 
 1987000    0.4566921   -8.2649826    304.99915  0.012791442  0.011117728            4 
 1988000   0.45553345   -8.2521362    304.68718  0.012771931   0.01110902            7 
 1989000   0.45891354   -8.2496249    304.43109   0.01275478  0.011100318            5 
 1990000   0.46464471   -8.2434395    304.63241  0.012756801  0.011091617           15 
 1991000   0.45514608    -8.252101    304.87058  0.012760363   0.01108292           15 
 1992000   0.45444802   -8.2461971    304.98675  0.012758816  0.011074231            6 
 1993000   0.46962172   -8.2467872    304.80231  0.012744703  0.011065556            9 
 1994000   0.45435029   -8.2695649    304.90381  0.012742553  0.011056898            5 
 1995000   0.45422906    -8.247029    304.96337  0.012738654  0.011048243           16 
 1996000   0.45361079    -8.264529    304.66394   0.01271977  0.011039596            9 
 1997000   0.46368486    -8.256522    304.43004  0.012703641  0.011030955            8 
 1998000   0.46062441   -8.2724451    304.76761  0.012711362  0.011022331           11 
 1999000   0.45634607   -8.2693164    304.59603   0.01269785  0.011013707           10 
 2000000   0.45632405   -8.2609099    304.42969   0.01268457  0.011005091            7 
 2001000   0.45210529   -8.2595469    304.90052   0.01269784  0.010996483            5 
 2002000   0.45627068   -8.2594606    304.60957  0.012679386  0.010987886           10 
 2003000   0.44624636    -8.259686    304.60631   0.01267292  0.010979302            4 
 2004000    0.4527264   -8.2606832    304.85243  0.012676831  0.010970717            4 
 2005000   0.45329606   -8.2657106     305.0179  0.012677386  0.010962146           10 
 2006000   0.45094579    -8.257394    304.56899  0.012652417   0.01095358            8 
 2007000   0.44879986   -8.2598331    304.57788  0.012646482  0.010945023            8 
 2008000   0.45606505   -8.2528264    304.98913  0.012657251   0.01093647            8 
 2009000   0.45144799   -8.2506131    304.61482  0.012635425  0.010927924            7 
 2010000   0.45672809   -8.2677288    304.84253  0.012638579  0.010919384           20 
 2011000   0.44688857   -8.2655631     304.5548  0.012620371  0.010910848            7 
 2012000   0.45709948   -8.2713274    304.67197  0.012618952  0.010902335            7 
Loop time of 4677.76 on 48 procs for 2000000 steps with 4000 atoms

Performance: 73881.512 tau/day, 427.555 timesteps/s
99.4% CPU use with 48 MPI tasks x no OpenMP threads

MPI task timing breakdown:
Section |  min time  |  avg time  |  max time  |%varavg| %total
---------------------------------------------------------------
Pair    | 282.98     | 298.86     | 315.13     |  46.8 |  6.39
Neigh   | 29.583     | 30.816     | 32.142     |  10.2 |  0.66
Comm    | 279.65     | 301.73     | 319.31     |  55.3 |  6.45
Output  | 4.106      | 4.1079     | 4.14       |   0.2 |  0.09
Modify  | 3985.9     | 3996.9     | 4015       |  10.5 | 85.44
Other   |            | 45.38      |            |       |  0.97

Nlocal:        83.3333 ave          89 max          73 min
Histogram: 1 1 1 2 2 9 12 8 10 2
Nghost:        1942.02 ave        1962 max        1919 min
Histogram: 2 2 4 8 8 5 5 5 3 6
Neighs:        12324.0 ave       13814 max       10604 min
Histogram: 1 1 3 6 9 11 9 5 1 2
FullNghs:      24650.2 ave       26686 max       21595 min
Histogram: 1 3 1 2 7 7 9 10 6 2

Total # of neighbors = 1183212
Ave neighs/atom = 295.80300
Neighbor list builds = 107464
Dangerous builds = 0

#clear
#
#next RN
#
#jump SELF
Total wall time: 1:18:01
