
units lj                  # Use reduced LJ style units
atom_style atomic         # Uncharged point particles
atom_modify map hash      # Needed for indexing of clusters etc
                          # Used to be able to find where atoms are in relation to each other.

lattice fcc 1.0 spacing 1 1 1
Lattice spacing in x,y,z = 1.5874011 1.5874011 1.5874011
region box block 0 10 0 10 0 10 units lattice
create_box 2 box
Created orthogonal box = (0.0000000 0.0000000 0.0000000) to (15.874011 15.874011 15.874011)
  3 by 4 by 4 MPI processor grid
create_atoms 1 box
Created 4000 atoms
  using lattice units in orthogonal box = (0.0000000 0.0000000 0.0000000) to (15.874011 15.874011 15.874011)
  create_atoms CPU = 0.002 seconds
set type 1 type/fraction 2 0.23 78393
Setting atom values ...
  954 settings made for type/fraction
mass 1 1.0
mass 2 1.0
pair_style lj/cut  3.5
pair_modify tail  yes
pair_coeff 1  1  1.0  1.0   # Intearaction between 1 and 1 set with epsilon = 1 and sigma = 1
pair_coeff 1  2  1.5  0.8
pair_coeff 2  2  0.5  0.88

write_data data.0
System init for write_data ...
Neighbor list info ...
  update every 1 steps, delay 10 steps, check yes
  max neighbors/atom: 2000, page size: 100000
  master list distance cutoff = 3.8
  ghost atom cutoff = 3.8
  binsize = 1.9, bins = 9 9 9
  1 neighbor lists, perpetual/occasional/extra = 1 0 0
  (1) pair lj/cut, perpetual
      attributes: half, newton on
      pair build: half/bin/atomonly/newton
      stencil: half/bin/3d
      bin: standard
WARNING: Not all mixed pair coeffs generated from mixing. Use write_data with 'pair ij' option to store all pair coeffs. (../write_data.cpp:312)


#############################
#   M E L T   S Y S T E M   #
#############################

velocity all create 2.4 6583654 mom yes dist gaussian # Assign velocities
                                                    # Temperature 2.4, random number seed, zero linear momentum
                                                                                # Gaussian distribution

timestep 0.002   # simulation timestep
thermo 1000       # output thermodynamic data every 1000 steps bf 100

# Define a fix  in this case with index 1 applied to all
# particles in the simulation. This fix is for simulations
# in the anisotropic NPT ensemble. Note that we use the MTK
# correction.
fix 1 all npt temp 2.4 2.4 0.1 iso 5.68 5.68 0.5 mtk yes tchain 5 pchain 5 # Use NPT ensemble
                                                                         # Set temperature and pressure and damping
                                                                         # Numbers of thermostats in chain and in barostat
run 10000          # run for 10000 steps
Per MPI rank memory allocation (min/avg/max) = 3.642 | 3.644 | 3.648 Mbytes
Step Temp E_pair E_mol TotEng Press Volume 
       0          2.4   -6.8530311            0   -3.2539311   -3.7471165         4000 
    1000    2.3852262   -4.9181654            0   -1.3412205    5.7637428    4344.5402 
    2000    2.3595674   -4.9267737            0   -1.3883075    5.6150507    4350.6313 
    3000    2.4028438   -4.9479923            0   -1.3446277    5.9429821    4312.5288 
    4000    2.3970401   -4.8710005            0   -1.2763393      5.82854     4363.138 
    5000    2.3523633   -4.9117185            0   -1.3840557     5.771628    4344.3929 
    6000    2.3958525   -4.9030496            0   -1.3101694    5.8645275    4336.8736 
    7000    2.3512743    -4.924852            0   -1.3988223    5.5951596    4352.8728 
    8000    2.4567728   -4.8689082            0   -1.1846703    5.8587057    4374.9716 
    9000    2.3851564   -4.8647973            0   -1.2879571     5.641473    4382.7355 
   10000    2.4687687   -4.9284045            0   -1.2261772    5.9520205    4331.1995 
Loop time of 2.30512 on 48 procs for 10000 steps with 4000 atoms

Performance: 749635.067 tau/day, 4338.166 timesteps/s
99.6% CPU use with 48 MPI tasks x no OpenMP threads

MPI task timing breakdown:
Section |  min time  |  avg time  |  max time  |%varavg| %total
---------------------------------------------------------------
Pair    | 0.95338    | 1.0523     | 1.1148     |   3.2 | 45.65
Neigh   | 0.19832    | 0.20615    | 0.2132     |   0.7 |  8.94
Comm    | 0.6906     | 0.77954    | 0.88665    |   4.2 | 33.82
Output  | 0.0002387  | 0.00024491 | 0.00040054 |   0.0 |  0.01
Modify  | 0.22119    | 0.25229    | 0.27878    |   3.4 | 10.94
Other   |            | 0.01456    |            |       |  0.63

Nlocal:        83.3333 ave          92 max          72 min
Histogram: 1 2 0 2 8 12 8 9 3 3
Nghost:        1552.04 ave        1592 max        1517 min
Histogram: 2 3 3 6 14 7 9 2 1 1
Neighs:        8805.46 ave        9932 max        7412 min
Histogram: 2 1 2 4 9 11 8 5 3 3

Total # of neighbors = 422662
Ave neighs/atom = 105.66550
Neighbor list builds = 910
Dangerous builds = 230

# Equilibrate just above the melting temperature to avoid step fn in T

fix 1 all npt temp 1.25 1.25 0.1 iso 5.68 5.68 0.5 mtk yes tchain 5 pchain 5
run 2000
Per MPI rank memory allocation (min/avg/max) = 3.643 | 3.645 | 3.649 Mbytes
Step Temp E_pair E_mol TotEng Press Volume 
   10000    2.4687687   -4.9284045            0   -1.2261772    5.9520205    4331.1995 
   11000    1.2611507   -6.6323943            0   -4.7411412    5.7124599    3556.6082 
   12000    1.2500624   -6.6477666            0   -4.7731418    6.0521503    3528.6551 
Loop time of 0.510252 on 48 procs for 2000 steps with 4000 atoms

Performance: 677311.899 tau/day, 3919.629 timesteps/s
99.6% CPU use with 48 MPI tasks x no OpenMP threads

MPI task timing breakdown:
Section |  min time  |  avg time  |  max time  |%varavg| %total
---------------------------------------------------------------
Pair    | 0.23133    | 0.24953    | 0.27378    |   1.9 | 48.90
Neigh   | 0.033266   | 0.035265   | 0.037559   |   0.5 |  6.91
Comm    | 0.15226    | 0.16928    | 0.18624    |   2.1 | 33.17
Output  | 4.8255e-05 | 4.9881e-05 | 6.3843e-05 |   0.0 |  0.01
Modify  | 0.041245   | 0.051808   | 0.060464   |   2.7 | 10.15
Other   |            | 0.004327   |            |       |  0.85

Nlocal:        83.3333 ave          91 max          75 min
Histogram: 1 3 0 12 5 9 9 3 4 2
Nghost:        1784.17 ave        1817 max        1762 min
Histogram: 4 7 6 7 9 5 2 5 1 2
Neighs:        10826.0 ave       12072 max        9670 min
Histogram: 2 0 11 5 9 7 4 6 2 2

Total # of neighbors = 519649
Ave neighs/atom = 129.91225
Neighbor list builds = 145
Dangerous builds = 13

#############################
# L I N E A R  Q U E N C H  #
#############################

# Define solid atoms. This closely follows ten Wolde  Ruiz-Montero and Frenkel  Faraday Discuss  1996  104  93-110
# Compute components of the per-atom q6 vector
compute q6 all orientorder/atom degrees 1 6 components 6 nnn NULL cutoff 1.3 # compute the Q6 parameter.
                                                                             # Use all neighbours within 1.3 unit cell.

# get number of connections
compute coord_number all coord/atom orientorder q6 0.5

# An atom is solid if it has 8 or more connections (of a possible 14)
variable is_solid atom c_coord_number>=8
group solid dynamic all var is_solid    # Must be dynamic to update
dynamic group solid defined

# do clustering
compute cluster solid cluster/atom 1.3 # Create a cluster where all atoms within are solid and max 1.3 units from another member

# define chunks one chunk per cluster
compute clus_chunks solid chunk/atom c_cluster nchunk every compress yes  # Says which atoms are in which chunk

# count the size of each chunk
compute size_chunks solid property/chunk clus_chunks count


# Find the maximum entry in the vector of chunk sizes
variable max_n equal max(c_size_chunks)


# Thermo style which includes this variable
# thermo_style custom step temp pe vol v_max_n

thermo ${N}  # Print the thermo information every 100 steps
thermo 1000  

# Reset the npt fix at a lower temperature (below freezing)
fix 1  all npt temp  ${temp} ${temp}  0.1  iso  5.68  5.68  0.5  mtk yes tchain  5  pchain  5
fix 1  all npt temp  0.45 ${temp}  0.1  iso  5.68  5.68  0.5  mtk yes tchain  5  pchain  5
fix 1  all npt temp  0.45 0.45  0.1  iso  5.68  5.68  0.5  mtk yes tchain  5  pchain  5

dump dmp2 all dcd ${N} traj.dcd
dump dmp2 all dcd 1000 traj.dcd


compute msd all msd com yes
variable twopoint equal c_msd[4]/6/(step*dt+1.0e-6)
fix 9 all vector 10 c_msd[4]
variable fit equal slope(f_9)/6/(10*dt)
thermo_style custom step temp pe c_msd[4] v_twopoint v_fit v_max_n

fix 1 all npt temp 1.25 ${temp} 0.1 iso 5.68 5.68 0.5 mtk yes tchain 5 pchain 5
fix 1 all npt temp 1.25 0.45 0.1 iso 5.68 5.68 0.5 mtk yes tchain 5 pchain 5
run 5000000 # 5000000  # Run for this many steps
Neighbor list info ...
  update every 1 steps, delay 10 steps, check yes
  max neighbors/atom: 2000, page size: 100000
  master list distance cutoff = 3.8
  ghost atom cutoff = 3.8
  binsize = 1.9, bins = 9 9 9
  4 neighbor lists, perpetual/occasional/extra = 1 3 0
  (1) pair lj/cut, perpetual
      attributes: half, newton on
      pair build: half/bin/atomonly/newton
      stencil: half/bin/3d
      bin: standard
  (2) compute orientorder/atom, occasional
      attributes: full, newton on
      pair build: full/bin/atomonly
      stencil: full/bin/3d
      bin: standard
  (3) compute coord/atom, occasional
      attributes: full, newton on
      pair build: full/bin/atomonly
      stencil: full/bin/3d
      bin: standard
  (4) compute cluster/atom, occasional
      attributes: full, newton on
      pair build: full/bin/atomonly
      stencil: full/bin/3d
      bin: standard
Per MPI rank memory allocation (min/avg/max) = 9.783 | 9.788 | 9.793 Mbytes
Step Temp PotEng c_msd[4] v_twopoint v_fit v_max_n 
   12000    1.2500624   -6.6477666 8.5433636e-31 5.9328911e-33 8.3333333e+20            1 
   13000    1.2631682   -6.6028019   0.54856594 0.0035164482  0.044481243            1 
   14000    1.2714221    -6.703214    1.0283049 0.0061208624  0.043538888            1 
   15000    1.2365476   -6.6563946    1.5134013 0.0084077845  0.042001191            2 
   16000    1.2464537   -6.6793076    2.0071797  0.010454061  0.041404355            1 
   17000    1.2556797    -6.689268    2.5113437  0.012310508  0.041198163            2 
   18000    1.2516712   -6.6610296    3.0517522  0.014128482  0.041452657            2 
   19000    1.2434929   -6.6547412    3.5750677  0.015680121  0.041899954            1 
   20000     1.249118    -6.664642    4.0366479  0.016819366  0.042105695            3 
   21000    1.2704041   -6.6812325    4.5139094  0.017912338  0.041948577            1 
   22000    1.2231178   -6.7096325    4.9697362  0.018824758  0.041690808            2 
   23000     1.282966   -6.6416588    5.4495642  0.019744797  0.041410486            3 
   24000    1.2385715   -6.6845304     6.021487  0.020907941  0.041315711            1 
   25000    1.2705465   -6.6586744     6.544923   0.02181641  0.041373862            2 
   26000    1.2407961    -6.662702    7.0106128  0.022469912  0.041442831            4 
   27000    1.2631182   -6.6622978    7.4755491  0.023072682  0.041435061            1 
   28000    1.2570756    -6.657897    8.0305466  0.023900436  0.041405499            2 
   29000    1.2443238   -6.6780367      8.49253  0.024403821  0.041477664            1 
   30000    1.2472463   -6.6490887    9.0357239  0.025099233  0.041498943            1 
   31000    1.2486768   -6.7404266    9.5282214  0.025613498  0.041562157            2 
   32000    1.2459917   -6.6979231    10.055133  0.026185242  0.041594294            2 
   33000    1.2399682   -6.6840879    10.482585  0.026471175  0.041601447            1 
   34000    1.2362183   -6.6638018     10.96756  0.026881275  0.041534669            1 
   35000    1.2590018   -6.6576857    11.440996  0.027240467   0.04148895            1 
   36000    1.2500573   -6.6359356    11.969679   0.02770759  0.041445834            1 
   37000    1.2495876   -6.6891691    12.469555  0.028084584  0.041436813            1 
   38000    1.2387367   -6.6923164    12.966308  0.028434887  0.041422603            1 
   39000    1.2451156   -6.6913734    13.425528  0.028687025  0.041379282            2 
   40000    1.2266913   -6.6436683    13.875755  0.028907823  0.041359851            4 
   41000    1.2400912   -6.6900528    14.392035  0.029252104   0.04131836            2 
   42000    1.2243388   -6.6692691    14.909054  0.029581455  0.041277045            1 
   43000    1.2639336   -6.6527309    15.337578  0.029723987  0.041240877            1 
   44000    1.2510701   -6.6746731    15.791867   0.02990884  0.041183159            1 
   45000    1.2622348   -6.6864961    16.209277   0.03001718  0.041121342            1 
   46000    1.2543319   -6.6334454    16.684107   0.03022483  0.041042601            1 
   47000    1.2494663   -6.6971671    17.061226  0.030250401  0.040945911            1 
   48000    1.2378738   -6.6521606     17.58665  0.030532378  0.040851449            1 
   49000    1.2417113   -6.6998207    18.077253  0.030743627  0.040780653            2 
   50000     1.249704   -6.6571147    18.506612  0.030844354  0.040729533            2 
   51000    1.2216405   -6.6854217    19.023533  0.031084204  0.040676638            2 
   52000    1.2612634   -6.6680151    19.553074  0.031335054  0.040639076            1 
   53000    1.2491015   -6.6938876    19.964633  0.031390933   0.04060117            1 
   54000    1.2327074   -6.6742323    20.612719  0.031809751  0.040583144            1 
   55000       1.2502   -6.6864973     21.03637  0.031873288  0.040596809            5 
   56000    1.2331651    -6.679532    21.562903  0.032087653    0.0405912            3 
   57000    1.2482792   -6.6766141     21.94384  0.032081637  0.040569561            5 
   58000    1.2553513   -6.6738499    22.552117  0.032402467  0.040558405            1 
   59000    1.2626316   -6.6867998     22.97837  0.032455324  0.040551099            1 
   60000    1.2477729   -6.6500718    23.611834  0.032794213  0.040551768            1 
   61000    1.2305986   -6.6985002    23.938899  0.032703414  0.040555512            1 
   62000    1.2420431   -6.7063027     24.56023  0.033011062  0.040576853            2 
   63000    1.2563339   -6.7129534    25.077837  0.033171742  0.040605339            2 
   64000     1.234139   -6.6811695    25.578489  0.033305324  0.040621189            2 
   65000      1.22526   -6.6798336     25.97994  0.033307615  0.040623258            2 
   66000    1.2413157   -6.6065571    26.484823  0.033440432  0.040624728            2 
   67000    1.2546336   -6.6714069     27.02233  0.033609863  0.040623764            1 
   68000    1.2421492   -6.6909287    27.326054  0.033487812  0.040626693            1 
   69000    1.2333103   -6.6565642    27.861143  0.033648723  0.040619415            2 
   70000    1.2344437    -6.691522    28.479377   0.03390402  0.040629657            2 
   71000    1.2538333    -6.690454    29.214673  0.034289522  0.040655146            1 
   72000    1.2159217   -6.6957784    29.715575  0.034393027  0.040691676            1 
   73000    1.2421677   -6.7177233    30.142723  0.034409501  0.040730849            3 
   74000    1.2834508   -6.7111092    30.633673   0.03449738  0.040755789            1 
   75000    1.2357446   -6.6654944    31.173171  0.034636856  0.040779707            2 
   76000    1.2631453   -6.6820004    31.572004  0.034618425  0.040800783            1 
   77000    1.2303346   -6.7242635    31.977964  0.034608186  0.040811649            1 
   78000    1.2252837   -6.6456358    32.816659  0.035060533  0.040836084            1 
   79000    1.2238396   -6.6643108    33.240508  0.035063827  0.040862896            3 
   80000    1.2721713   -6.7076469    33.506766  0.034902881  0.040879276            3 
   81000    1.2136005   -6.7082003    33.840432  0.034815259  0.040877404            1 
   82000    1.2425158   -6.6576692    34.405668   0.03496511  0.040878403            2 
   83000    1.2537453   -6.6900621    34.861924  0.035001931  0.040870272            2 
   84000    1.2380529   -6.7118714    35.485393  0.035203762  0.040866021            1 
   85000    1.2064265   -6.6829704    35.966271  0.035261049  0.040860959            3 
   86000    1.2577876   -6.6941227    36.216071  0.035093091  0.040853659            4 
   87000    1.2339899   -6.6381519    37.066577  0.035504384  0.040846768            2 
   88000    1.2244275    -6.697469    37.628669  0.035633209  0.040860541            1 
   89000    1.2523016    -6.677226    38.075541  0.035651255  0.040875736            1 
   90000    1.2445967   -6.6414194    38.653376  0.035790162  0.040890162            1 
   91000    1.2437742    -6.729861    38.494479  0.035251354  0.040887134            1 
   92000    1.2516168   -6.6689339    39.013714  0.035338509  0.040865386            1 
   93000     1.252164   -6.6628082    39.667198  0.035544084  0.040844821            1 
   94000    1.2476932   -6.7058398    40.207792  0.035645206  0.040827899            2 
   95000    1.2700516   -6.6787848    40.702997  0.035704383  0.040823879            1 
   96000    1.2518288   -6.6914533    41.358444  0.035901427  0.040830374            3 
   97000    1.2459906   -6.7010608    41.817512  0.035925697  0.040839862            1 
   98000    1.2587908    -6.707018    42.236708  0.035915568  0.040846364            3 
   99000    1.2244894   -6.7075368    42.878702  0.036093183   0.04084824            1 
  100000    1.2308647   -6.7191567    43.106816  0.035922347  0.040852871            2 
  101000    1.2245713    -6.697994    43.840837  0.036172308  0.040857751            1 
  102000    1.2519203   -6.7006203    44.264201  0.036163563  0.040862854            2 
  103000    1.2445399   -6.6913594    44.685586  0.036153387  0.040867883            2 
  104000    1.2299919   -6.7066702    45.275323  0.036278303  0.040874106            1 
  105000    1.2342904   -6.7207753    45.780071   0.03633339  0.040878463            1 
  106000    1.2451696       -6.696    46.328187   0.03642153  0.040883878            1 
  107000    1.2609576   -6.6840618    46.885015  0.036514809  0.040896081            1 
  108000    1.2340194   -6.7172816    47.163102  0.036391282  0.040903278            2 
  109000     1.240224   -6.7406665    47.817871  0.036558005  0.040908934            1 
  110000     1.255522   -6.7242507    48.237034  0.036543208  0.040913645            1 
  111000     1.238072   -6.7169145    48.212766   0.03619577  0.040905696            1 
  112000     1.230643   -6.7104156    48.768262  0.036285909  0.040890628            2 
  113000    1.2283553   -6.6789431    49.488719  0.036496105  0.040880084            3 
  114000    1.2456754    -6.679075    50.244636  0.036728535   0.04087824            4 
  115000    1.2197318   -6.7482542    50.594418  0.036662622  0.040879335            1 
  116000    1.2260025   -6.6774775    51.359918  0.036896493  0.040884783            1 
  117000    1.2401728   -6.6716658    51.722166  0.036839149  0.040889415            1 
  118000    1.2170142   -6.7345827    52.161715  0.036837369  0.040893842            2 
  119000    1.2333982   -6.6933504    52.744298  0.036935783  0.040895844            2 
  120000     1.231321   -6.6691697    53.043865  0.036836017  0.040899652            1 
  121000    1.2558535   -6.7444548    53.624882  0.036931737  0.040896312            2 
  122000    1.2276683   -6.6792411    54.208874   0.03702792   0.04089619            2 
  123000    1.2333239   -6.7202139    54.509535  0.036930579  0.040900966            2 
  124000    1.2233782   -6.6830444    54.922676    0.0369104  0.040901802            2 
  125000    1.2364392   -6.6820974     55.26085  0.036840566  0.040895579            1 
  126000    1.2140918   -6.6731958    55.447827  0.036671843  0.040885246            2 
  127000    1.2361418   -6.7248148    55.824056  0.036629958  0.040865266            1 
  128000    1.2101523   -6.6991721    56.635903  0.036872333  0.040846687            2 
  129000    1.2333693   -6.7269722    56.935083  0.036779769  0.040831641            3 
  130000    1.2186884   -6.6581212    57.538123  0.036883412  0.040815225            1 
  131000    1.2289531   -6.6583489    57.945353  0.036860912  0.040798615            3 
  132000    1.2303089   -6.7158396    58.372203  0.036851138  0.040775555            1 
  133000    1.2542946   -6.6838965    58.944922  0.036932909  0.040759886            3 
  134000    1.2399611   -6.6997321     59.26053  0.036853563  0.040747139            1 
  135000    1.2471621   -6.6886257    60.070907  0.037080807  0.040732617            2 
  136000    1.2146542   -6.6496516    60.344146  0.036975579  0.040720199            2 
  137000    1.2250817   -6.6620617    60.939471  0.037067805   0.04070873            1 
  138000    1.2424558   -6.6791027    61.529243   0.03715534  0.040702771            2 
  139000    1.2278518   -6.7264473    61.875504  0.037095626  0.040695738            1 
  140000    1.2129154   -6.7143045    62.569465  0.037243729  0.040688558            1 
  141000    1.2199382   -6.7124788    63.050122  0.037263665  0.040684548            3 
  142000    1.2582252   -6.7152837    63.659818  0.037359048  0.040684152            1 
  143000    1.2173815   -6.7172825    64.137592  0.037376219  0.040683297            2 
  144000     1.217604   -6.7068333     64.58894  0.037377859  0.040682334            1 
  145000    1.2113694    -6.734401    65.111008  0.037420119  0.040681608            2 
  146000     1.218109   -6.7061677    65.233625  0.037233804  0.040676131            2 
  147000    1.2369297     -6.72677    65.524734  0.037145541  0.040666455            1 
  148000     1.197689   -6.7131723    66.102886  0.037220094  0.040653667            1 
  149000    1.1957866   -6.6783897    66.667768  0.037286224   0.04064227            1 
  150000    1.2404062   -6.7095848    67.108375  0.037282431   0.04063144            1 
  151000    1.2387713   -6.7043697    67.193044  0.037082254  0.040613668            3 
  152000     1.217176   -6.6977922    67.569158  0.037044494   0.04059396            3 
  153000     1.256239   -6.7297585    68.039808  0.037058719  0.040573697            2 
  154000    1.2365339   -6.6736245    68.510485  0.037072773  0.040554141            2 
  155000    1.2381931   -6.7502606    69.147299  0.037175967  0.040536858            2 
  156000    1.2070714   -6.7209701    69.841677  0.037308588  0.040524712            1 
  157000    1.2392364   -6.7271011    70.222135  0.037272895  0.040514956            3 
  158000    1.2260835   -6.7184935    70.652474  0.037263963  0.040505714            2 
  159000    1.2364019   -6.7118812    71.431308  0.037437792  0.040497158            2 
  160000    1.2313824   -6.7488834    71.974599   0.03748677  0.040490675            2 
  161000    1.2552621   -6.7142417     72.85109  0.037707603  0.040487295            1 
  162000     1.222372   -6.6965655    73.459439  0.037787777  0.040489343            1 
  163000    1.2433704   -6.7109289    73.942985  0.037803162  0.040495005            1 
  164000    1.2144775   -6.7234227    74.516537  0.037864094  0.040503867            2 
  165000    1.2367483   -6.7636957    75.034498  0.037896211   0.04051358            2 
  166000    1.2297481    -6.711808     75.63136   0.03796755  0.040522782            4 
  167000    1.2066771   -6.6691969    76.476721  0.038162036  0.040533842            2 
  168000    1.2317642   -6.7163639    76.405337  0.037899472  0.040544204            2 
  169000    1.2395013   -6.7427733    76.752551  0.037846425  0.040551921            2 
  170000    1.2296828   -6.7040302    77.358134  0.037920654  0.040559076            1 
  171000    1.2124832   -6.6842627    78.227807  0.038122713  0.040569283            2 
  172000     1.211227   -6.7222262    78.667453  0.038114076  0.040581149            2 
  173000    1.2347887   -6.7087834    79.398437  0.038245875  0.040594393            4 
  174000    1.2148515   -6.7254344    79.485067  0.038067561  0.040607084            4 
  175000     1.237958   -6.7292157    80.415521  0.038293105  0.040618562            2 
  176000     1.194318   -6.7635921    80.309029  0.038025108  0.040627851            1 
  177000    1.1992798   -6.7420628    81.289156   0.03827173  0.040636886            2 
  178000    1.2203142   -6.7193679     82.02166  0.038399653  0.040647597            2 
  179000     1.218159   -6.6837934    82.078682  0.038211677  0.040654867            2 
  180000     1.232153   -6.7065724    82.014969  0.037969893  0.040655291            2 
  181000    1.2063932   -6.7148853    82.773683   0.03810943  0.040658089            2 
  182000    1.2264462   -6.6996248    83.247662  0.038117061  0.040660223            1 
  183000    1.2167806   -6.7115217    83.579618  0.038059935  0.040659126            1 
  184000    1.2232408   -6.6820319    83.769796  0.037939219  0.040657147            3 
  185000    1.2166728   -6.7351101    84.552931  0.038086906  0.040657716            1 
  186000    1.2266327   -6.6897928    85.302109  0.038217791  0.040660128            1 
  187000    1.2320535   -6.7323419    85.701056  0.038191201   0.04066371            3 
  188000    1.2121429   -6.7209019    86.350952  0.038276131  0.040668505            2 
  189000    1.2220023   -6.7635258    86.950263  0.038337858  0.040672961            2 
  190000    1.2307726   -6.6911539    87.468422  0.038363343  0.040677084            3 
  191000    1.2303361   -6.7259634    87.677444  0.038253684  0.040681467            2 
  192000    1.2278837   -6.6864374    88.517835  0.038419199  0.040685782            2 
  193000    1.2183238   -6.7114136     89.16482   0.03849949  0.040692154            1 
  194000    1.2402523   -6.7218743     89.15587  0.038297195  0.040697185            1 
  195000    1.2526239   -6.7154819    89.938825  0.038435395  0.040702261            2 
  196000    1.2000684    -6.769666    90.146366  0.038327536  0.040707808            2 
  197000    1.2355473   -6.7180011    90.664879  0.038352318  0.040711184            2 
  198000    1.1993974   -6.7227019    91.241086  0.038401131  0.040712995            2 
  199000    1.2066276   -6.7309406    91.802283  0.038443167  0.040715993            1 
  200000    1.2252428   -6.7108487    92.016108  0.038340045  0.040718841            2 
  201000    1.2182954   -6.7183178     92.36244  0.038292886  0.040719907            2 
  202000     1.215678    -6.723182    92.952371  0.038346688  0.040718853            1 
  203000    1.1847202   -6.7047994    93.629888  0.038435915   0.04072054            1 
  204000    1.2212238    -6.717409    94.581522  0.038636242   0.04072354            1 
  205000    1.2187458    -6.725963     94.60158  0.038455927  0.040727841            2 
  206000    1.2194539   -6.7720012    94.744698  0.038327143  0.040731796            1 
  207000     1.191988    -6.715605    95.898124   0.03860633  0.040732733            3 
  208000     1.204021   -6.7370299    95.956866  0.038444257  0.040734842            2 
  209000    1.2059743   -6.7369335     96.70781  0.038559733  0.040735857            2 
  210000    1.2105812    -6.707905    97.360619  0.038635166  0.040737227            1 
  211000    1.2001378   -6.7485889    97.209926  0.038392546  0.040738071            4 
  212000     1.205236   -6.7054393    97.975252  0.038512285  0.040739918            2 
  213000    1.1763112   -6.7162745    98.505164  0.038538796  0.040742395            2 
  214000    1.2218134   -6.7228108    98.848063  0.038492236  0.040740063            1 
  215000    1.2097095    -6.761747    99.234475  0.038462975  0.040739122            7 
  216000    1.2292407   -6.7551695    99.576809  0.038416979  0.040739149            1 
  217000    1.2425051   -6.7012355    100.78989  0.038705797  0.040739706            1 
  218000    1.2132241   -6.7114497    100.95366   0.03859085  0.040741462            1 
  219000     1.200813    -6.724166    101.57293  0.038650277  0.040744581            1 
  220000    1.2088712   -6.7421553    101.79861  0.038560081   0.04074599            2 
  221000    1.2116818   -6.7589879    102.33493   0.03858783  0.040746905            1 
  222000    1.2031907   -6.7603839    102.70623  0.038553389  0.040746876            1 
  223000    1.2223543    -6.764196    103.45211  0.038659233  0.040746788            3 
  224000    1.2487215   -6.7104704    103.89859  0.038652749  0.040749172            2 
  225000     1.193149   -6.7380502    104.18335  0.038586427  0.040749941            1 
  226000    1.2110781    -6.723243    104.89536  0.038678229  0.040749707            3 
  227000    1.1996145   -6.7219292    104.98263  0.038539879  0.040750096            2 
  228000    1.2232878   -6.7227976    105.72762  0.038643135  0.040749548            1 
  229000    1.2449626   -6.7486226       106.29  0.038679038  0.040749328            2 
  230000    1.2460457   -6.7126157    107.04133   0.03878309  0.040750168            4 
  231000    1.2036843    -6.743891    107.05346  0.038619574      0.04075            2 
  232000    1.2246502   -6.6981248    108.22973  0.038875621  0.040749615            1 
  233000    1.2366207   -6.7836229    107.73058   0.03853025  0.040750159            3 
  234000     1.179616   -6.7172219    108.92886  0.038792329  0.040752349            5 
  235000    1.2148954   -6.7274364    109.10753  0.038690613  0.040756216            1 
  236000    1.2028388   -6.7007338    109.89612  0.038805127  0.040757385            2 
  237000    1.2092028   -6.7685519    109.81301  0.038612169  0.040758599            1 
  238000    1.2189351   -6.7301566    110.76778  0.038784235  0.040760987            2 
  239000    1.2063768   -6.7120257    111.22522  0.038781456  0.040764788            1 
  240000    1.2221596   -6.7495266    111.68103  0.038778136  0.040768586            2 
  241000    1.2127389   -6.7579383    112.24752  0.038813112  0.040770816            1 
  242000    1.2100219   -6.7648104    112.72811   0.03881822  0.040773842            1 
  243000    1.2499661   -6.7139432    113.42715  0.038898199   0.04077835            1 
  244000    1.2109961   -6.7067111    114.03009  0.038944704  0.040781634            3 
  245000    1.2237183   -6.7067337    114.56279  0.038966934  0.040782277            1 
  246000    1.2151508   -6.7480995     114.2997  0.038719412  0.040780989            3 
  247000    1.2219853   -6.7440583    114.98844  0.038795019  0.040780811            1 
  248000    1.2026546    -6.709767    115.73217  0.038888498  0.040780841            2 
  249000    1.2234725   -6.7570072    115.78297   0.03874932  0.040779278            1 
  250000    1.2032024   -6.7732138     116.3457    0.0387819  0.040777534            2 
  251000    1.2317243   -6.7392521    116.94327  0.038825786  0.040775331            3 
  252000    1.2018732   -6.7316866      116.772   0.03861508  0.040772527            1 
  253000    1.2176016   -6.7506692    117.25191  0.038620523  0.040767434            3 
  254000    1.2207256   -6.7707471    117.28169  0.038478244  0.040759906            1 
  255000    1.2384109   -6.7536066    118.11436  0.038599465  0.040752629            3 
  256000    1.2244396   -6.7056005    118.81039  0.038675256   0.04074695            1 
  257000    1.2148326   -6.7510794     119.2999  0.038683495  0.040741813            1 
  258000    1.1999286   -6.7496338    119.66647  0.038651961  0.040736803            2 
  259000    1.2107605   -6.7330691    120.25691  0.038692701  0.040730565            2 
  260000    1.2147137   -6.7571605    120.38589  0.038585219  0.040724285            2 
  261000    1.2214517   -6.7850719     120.9725   0.03862468  0.040717009            1 
  262000    1.2149077   -6.7303255    121.69952    0.0387085  0.040711995            1 
  263000    1.2019369   -6.7660079    121.45764  0.038484678  0.040705492            3 
  264000    1.2310716   -6.7538583    122.36025  0.038623815  0.040696525            2 
  265000    1.2069644   -6.7587125     122.6242   0.03856107   0.04068936            2 
  266000    1.2160768   -6.7203246    123.53639  0.038701876  0.040682023            3 
  267000    1.2267829   -6.7224989    123.56712  0.038566517  0.040673636            2 
  268000    1.2031491   -6.7537834    124.57011  0.038734488  0.040666603            3 
  269000    1.2026303   -6.8003217    124.77106  0.038652746  0.040661133            4 
  270000    1.1931664   -6.6880764    125.70777  0.038798695  0.040658571            1 
  271000    1.1916372   -6.7848476    125.67593  0.038645736  0.040655905            1 
  272000    1.2202187   -6.7670083    126.00868  0.038605601  0.040650512            2 
  273000    1.1905407   -6.7873462    126.65075   0.03866018   0.04064446            1 
  274000    1.2138274   -6.7385313    126.90805  0.038597338  0.040639555            1 
  275000    1.2024922   -6.7288509    127.58748  0.038662872  0.040632825            1 
  276000    1.2289119   -6.8034785    127.91285  0.038621028  0.040626575            2 
  277000    1.2318285   -6.7446097    128.56425  0.038677573   0.04062085            1 
  278000    1.2133585    -6.745223    129.37116  0.038780323  0.040615478            2 
  279000    1.1900318   -6.7676842    129.70682  0.038741584  0.040610304            1 
  280000    1.2192519   -6.7752151     130.4656  0.038829046  0.040606573            2 
  281000    1.2192645   -6.7799308    130.88433  0.038815044  0.040603448            2 
  282000    1.2128677   -6.7052537    131.90517  0.038979068  0.040601263            2 
  283000    1.1976354   -6.7617242    131.68412  0.038776241  0.040600241            1 
  284000    1.2002432   -6.7452345    133.09224  0.039052886  0.040599447            2 
  285000    1.2356456   -6.6956607    133.19537  0.038946015  0.040599084            3 
  286000    1.1957846   -6.6661041    134.58025  0.039213358  0.040601095            4 
  287000     1.207196    -6.708648    134.83968  0.039152057  0.040602853            1 
  288000    1.1996806   -6.7700557    135.33434  0.039159242   0.04060457            4 
  289000    1.2083929   -6.7257713    135.49454  0.039069935   0.04060755            2 
  290000    1.2184191   -6.7243287    136.29498  0.039165225  0.040610548            1 
  291000    1.2243332    -6.706295    136.67191  0.039138576  0.040612915            1 
  292000    1.2041507   -6.7167331     136.8103  0.039044037  0.040614512            2 
  293000    1.1955895    -6.764403    137.28648  0.039046211  0.040614777            1 
  294000    1.2362762    -6.722299    138.40911  0.039231607   0.04061652            2 
  295000    1.2071357   -6.7966366    137.93048  0.038963412  0.040617171            1 
  296000    1.2187488   -6.7152515    139.13266   0.03917023  0.040618447            1 
  297000    1.1775108   -6.8023351    139.41585  0.039117803  0.040620205            1 
  298000    1.2094431   -6.7480229    139.44264  0.038994027  0.040620159            2 
  299000    1.2052349   -6.7400729    140.02548  0.039026055  0.040620296            1 
  300000     1.173317   -6.7620586    141.18846  0.039219017  0.040620517            2 
  301000    1.2040943   -6.7885454    140.90541  0.039010358  0.040619656            1 
  302000    1.2065288   -6.7560682    141.16212  0.038952019   0.04061876            1 
  303000    1.2170686   -6.7298095     142.2598  0.039125358  0.040617752            2 
  304000    1.1991728   -6.7860434    142.62926  0.039097932  0.040618573            1 
  305000    1.1857459   -6.7201615    143.29628  0.039151989  0.040619362            1 
  306000    1.2206459   -6.7619946    144.16062  0.039259429  0.040621439            1 
  307000    1.2260762   -6.7418919    144.77331  0.039297857  0.040624945            2 
  308000    1.1761769   -6.7462765    145.29792  0.039312208  0.040628227            1 
  309000    1.1983286   -6.7113089    146.16411  0.039418585  0.040631087            1 
  310000    1.1977368   -6.7846727    145.52987  0.039120933  0.040633788            2 
  311000    1.1871043   -6.7623565     146.2587  0.039190433  0.040636615            3 
  312000    1.2410744   -6.6803472    147.87245  0.039495848  0.040640708       -1e+20 
  313000    1.1831379   -6.7199812    147.97693   0.03939748  0.040644565            1 
  314000     1.189169   -6.7548449    147.43541  0.039128293  0.040645792            2 
  315000    1.1756097   -6.7167745    147.96114  0.039143158   0.04064698            1 
  316000     1.189469   -6.7657409    148.70173  0.039214591  0.040648239            1 
  317000    1.1598484    -6.742181    149.20244  0.039222514  0.040649225            2 
  318000    1.2272211   -6.7669849    149.65851  0.039218688  0.040650367            5 
  319000    1.2207887   -6.7660757    149.70568  0.039108066  0.040651073            1 
  320000    1.2046769   -6.8000532    150.62182  0.039224433  0.040651542            1 
  321000    1.1742363   -6.6976489     151.2486  0.039264953  0.040651648            3 
  322000    1.2118494   -6.7749052    151.32752  0.039163436  0.040651204            1 
  323000    1.1858117   -6.7747741    151.79253  0.039162161  0.040650726            2 
  324000    1.1995112   -6.7656876    152.23042  0.039153914  0.040649354            3 
  325000    1.1733758   -6.7459942     153.2667  0.039299154   0.04064822            2 
  326000    1.2029406   -6.7652463    152.84249  0.039070166  0.040648522            2 
  327000    1.2032229   -6.7390763    153.71258  0.039172421  0.040648109            1 
  328000    1.1839407   -6.7437361    153.62864  0.039031666  0.040645497            2 
  329000    1.1961206   -6.7315562    153.67457  0.038924662  0.040641147            2 
  330000    1.1931409   -6.7462173    154.42449  0.038996083  0.040636335            1 
  331000    1.1681626   -6.7913933    154.67796  0.038942084  0.040631767            1 
  332000    1.2079245   -6.7633704    155.05669  0.038919851   0.04062577            2 
  333000    1.1863242   -6.7443308    155.08659  0.038810459  0.040619928            1 
  334000    1.2222428   -6.7675882    155.76226  0.038862839  0.040613684            4 
  335000    1.2075375    -6.742255    156.51477  0.038934023  0.040607401            2 
  336000    1.2038518    -6.782888    156.74101  0.038874259  0.040601596            4 
  337000    1.1882912   -6.7876735     156.9605   0.03881318   0.04059548            2 
  338000     1.184588   -6.7705049    157.33681  0.038791125  0.040587929            2 
  339000    1.1986969   -6.7806938    158.11867  0.038868897  0.040580399            1 
  340000    1.2014386   -6.7541187    158.60532  0.038873854  0.040573044            2 
  341000    1.2201673   -6.7828594    158.95175  0.038844512  0.040565289            2 
  342000    1.1947336   -6.7795244    158.59682  0.038644449  0.040555619            2 
  343000    1.1981212   -6.7665968    159.57471  0.038769366  0.040546527            1 
  344000    1.1734372   -6.7392362     160.3523  0.038845034  0.040537109            3 
  345000     1.191689   -6.7763761    160.26124  0.038710446  0.040526175            4 
  346000    1.1756512   -6.7973753    160.13947  0.038569238  0.040515237            1 
  347000    1.2102795   -6.7410059    160.55793  0.038558581  0.040504335            1 
  348000     1.194685   -6.7984771    160.61494  0.038461432  0.040491985            2 
  349000    1.1977269   -6.7978855    160.39402  0.038298477  0.040478215            2 
  350000    1.1986796    -6.745513    161.39909  0.038428354  0.040462493            2 
  351000    1.1768375    -6.803114    161.08456  0.038244198  0.040445598            3 
  352000    1.2016696   -6.8201002    161.27898  0.038181577   0.04042996            3 
  353000    1.1924179   -6.8101357    161.50013  0.038125621  0.040412949            3 
  354000    1.1801258   -6.7503826    162.85252  0.038336279  0.040396089            2 
  355000    1.1931025   -6.7500257    163.31558  0.038336989  0.040380449            3 
  356000    1.2095691    -6.788496    163.12318  0.038184264  0.040365292            2 
  357000    1.1967923   -6.7736348    164.18374   0.03832487  0.040350683            2 
  358000    1.1960165   -6.7962487     165.0809  0.038426653  0.040337162            1 
  359000    1.1925664   -6.7263539    164.94192  0.038287354  0.040322887            1 
  360000    1.1952644   -6.7601347    165.39105  0.038284966  0.040308731            3 
  361000    1.2024114   -6.7666286    165.66533  0.038242227  0.040294106            2 
  362000    1.1933751   -6.7957693    165.87348  0.038184503  0.040279368            4 
  363000    1.1867669   -6.8008541    166.27894  0.038172393  0.040263474            1 
  364000    1.2155795   -6.7463691    166.25128  0.038061189  0.040247456            6 
  365000    1.1991949   -6.7389693    166.59301  0.038034934   0.04022962            1 
  366000    1.1927282   -6.8109739     166.4717  0.037903392  0.040211004            1 
  367000    1.1938564   -6.8192306    167.08413  0.037939176   0.04019217            1 
  368000    1.2187963   -6.7971963    167.75759  0.037988585     0.040174            2 
  369000    1.1922141   -6.7934727    168.88143  0.038139437   0.04015683            3 
  370000    1.1905974   -6.7878376    168.93201  0.038047751  0.040140592            2 
  371000    1.2041928   -6.7933738    169.49494  0.038071639  0.040124809            2 
  372000     1.188296   -6.7805468    169.74805  0.038025996  0.040109628            1 
  373000    1.2039317   -6.7934914    170.76135  0.038150436  0.040094382            2 
  374000    1.1680717   -6.7993118    170.66566  0.038027109  0.040078515            2 
  375000    1.1887045   -6.7664389    171.59442  0.038132094  0.040062501            1 
  376000    1.2083832   -6.7622086    171.55322  0.038021547  0.040046199            3 
  377000    1.1931028   -6.7318781    172.29227  0.038084056  0.040029754            3 
  378000    1.1753717   -6.7257081    172.54963  0.038040042  0.040014612            1 
  379000    1.1579038   -6.8308694    172.72765  0.037978815  0.039997714            2 
  380000     1.206259   -6.7625162     174.0893  0.038177478  0.039982073            3 
  381000    1.1926733   -6.7915385    173.59862  0.037969951  0.039966287            2 
  382000    1.2017093   -6.7649267    174.39508  0.038044303  0.039951533            2 
  383000     1.224624    -6.815629    174.97465  0.038071072   0.03993715            2 
  384000    1.1868709   -6.7791564    175.08764  0.037996449  0.039923115            1 
  385000    1.1804323   -6.8079765     175.6939  0.038028982  0.039908024            1 
  386000    1.2017272   -6.7979562    176.27248  0.038055371   0.03989314            2 
  387000    1.1885932   -6.8421811    176.48841  0.038003534  0.039878032            1 
  388000    1.1701926   -6.7966508    176.30505  0.037866206  0.039861987            4 
  389000    1.1691972   -6.7577206    177.68699  0.038064907  0.039847057            1 
  390000    1.1898992   -6.7777596    177.96371  0.038026434   0.03983197            2 
  391000    1.1942976   -6.8085736    177.61549  0.037854963  0.039816239            2 
  392000    1.1901245   -6.7961738    178.38234  0.037921416  0.039800888            2 
  393000    1.1654978   -6.7883093    178.55474   0.03786148  0.039784324            2 
  394000    1.1659488   -6.8007075    179.19662  0.037901147   0.03976735            2 
  395000    1.2019299   -6.7982331    179.50422  0.037870088  0.039750955            3 
  396000    1.2004041    -6.804964    179.29712  0.037730874   0.03973507            1 
  397000    1.1828226   -6.7824304    179.90948  0.037764374  0.039718403            1 
  398000    1.2095962   -6.7784714    180.16155  0.037722268  0.039701963            2 
  399000    1.1991101    -6.782153     180.7382  0.037748163  0.039685578            1 
  400000    1.1702539   -6.8082198    180.98523  0.037705257  0.039668501            2 
  401000    1.2115744   -6.8124507    181.56997  0.037732746  0.039651937            2 
  402000    1.2126001   -6.7757952    182.16316  0.037761849  0.039635464            1 
  403000    1.1977367   -6.7595464    183.25553  0.037894029   0.03961938            2 
  404000    1.1868359   -6.8262679    183.53553  0.037857989  0.039603876            2 
  405000     1.190884   -6.8478325    183.50728  0.037758699  0.039587623            4 
  406000    1.1978832   -6.7712589    184.55876   0.03788152  0.039573136            1 
  407000    1.2107257   -6.7942511    184.40618  0.037757202  0.039558706            3 
  408000    1.1844357   -6.7888216    184.43047  0.037669623  0.039543424            2 
  409000    1.1944592   -6.7470782    185.29841  0.037754361   0.03952705            1 
  410000    1.1872581   -6.7730614     185.6505  0.037733841  0.039511922            3 
  411000    1.1875048   -6.7935122    186.40252  0.037794509  0.039496571            3 
  412000    1.1863106   -6.8022282    186.27168  0.037676311  0.039481154            4 
  413000    1.1766478   -6.7745288    186.98148  0.037728306   0.03946567            1 
  414000    1.1895499   -6.7464278     187.4429  0.037730053  0.039450159            4 
  415000    1.1913817   -6.7386658    187.70847  0.037692463   0.03943414            2 
  416000    1.1746967   -6.7869068    188.25662  0.037711662  0.039418838            2 
  417000    1.1913646   -6.7934836    188.79184  0.037728185  0.039402702            2 
  418000    1.2098599   -6.7398189    189.37587  0.037754361  0.039388154            1 
  419000    1.1474804   -6.7708996     189.7025  0.037729217  0.039373407            2 
  420000    1.1690817   -6.7821281    190.33924  0.037765721  0.039358392            8 
  421000    1.1798434   -6.7890569     190.6328  0.037734125   0.03934429            2 
  422000    1.1917757    -6.761645    191.06205  0.037729474  0.039330062            1 
  423000    1.1877619   -6.7888599    191.33101  0.037693264  0.039316042            2 
  424000    1.1952561   -6.7893116    191.28909  0.037596126  0.039301242            1 
  425000    1.2006851   -6.8106265    192.14403    0.0376753  0.039286864            1 
  426000    1.1655258   -6.8170673    192.03763  0.037566047   0.03927227            4 
  427000    1.1945174   -6.7858344    193.35579  0.037735321  0.039258692            3 
  428000    1.1834782   -6.7935354    193.66563  0.037707482  0.039244441            4 
  429000    1.1936383   -6.7871785     194.1695  0.037717462  0.039230053            1 
  430000    1.1992366   -6.8245536     194.4974  0.037693295  0.039216701            2 
  431000    1.1753906   -6.7726784    195.27069  0.037755355  0.039203583            2 
  432000    1.1899799    -6.765786    195.77273  0.037764801  0.039191085            2 
  433000    1.1943451   -6.7695507    196.44387  0.037806749  0.039179284            1 
  434000     1.202469   -6.7949627    196.17061  0.037667167  0.039167025            1 
  435000    1.1785811   -6.7693288    196.42263  0.037628857  0.039153218            1 
  436000    1.1798817   -6.8179929    196.69254   0.03759414  0.039140772            1 
  437000    1.1537515   -6.8204096    197.31729  0.037627249  0.039128548            1 
  438000    1.1788199   -6.7608234     199.0029  0.037862042  0.039115982            2 
  439000    1.1812287   -6.7967193    198.43435  0.037667873   0.03910334            2 
  440000    1.1763561   -6.8039452     198.4648   0.03758803  0.039090496            3 
  441000    1.1353762   -6.8232024    199.06858   0.03761689   0.03907689            2 
  442000    1.1877311   -6.8086802    199.66303  0.037643859  0.039064387            1 
  443000    1.1943687   -6.8037772    199.52604  0.037533114   0.03905268            2 
  444000    1.1841705    -6.792808    200.65881  0.037661189  0.039039857            2 
  445000    1.2007657   -6.7964982    200.14701  0.037480713  0.039027438            2 
  446000     1.179212   -6.7790643     201.3033  0.037612724  0.039014581            1 
  447000    1.1806973    -6.816056     201.6834   0.03759944  0.039002424            1 
  448000    1.1761229   -6.8062183    201.65283  0.037509827  0.038990176            4 
  449000    1.1983425   -6.8252163    201.87031   0.03746665   0.03897759            2 
  450000    1.1743227   -6.7798103    202.70207   0.03753742  0.038965162            1 
  451000    1.2045143   -6.8274402    202.68463  0.037450966   0.03895161            1 
  452000    1.1813375   -6.7773894    203.87832  0.037588186  0.038939878            3 
  453000    1.1965921   -6.8381344    204.19123  0.037562772  0.038928307            1 
  454000    1.1938735   -6.8016377    204.54474  0.037544923  0.038916774            2 
  455000    1.1875496   -6.7909603    205.68505  0.037671254  0.038906185            3 
  456000    1.1836729   -6.7995723     206.1106  0.037666411   0.03889627            2 
  457000    1.1849152   -6.7981933    206.66884  0.037685783  0.038886301            3 
  458000    1.2047956   -6.8406412    207.28864  0.037716273  0.038875928            2 
  459000    1.1937813   -6.7728674    207.50507  0.037673398  0.038866067            2 
  460000    1.1687345   -6.8144453    208.70074  0.037808104  0.038856603            1 
  461000    1.1996756    -6.836392    207.66827  0.037539456    0.0388473            2 
  462000    1.1786148    -6.806371    208.51686  0.037611267  0.038838462            2 
  463000    1.1957417   -6.7309351    210.36743  0.037863108  0.038830374            2 
  464000    1.1661946   -6.8152105    209.91994  0.037701138  0.038822609            1 
  465000    1.1593481   -6.7829868    211.01582  0.037816456  0.038814274            1 
  466000     1.194672   -6.7921121     211.9393  0.037900447  0.038806622       -1e+20 
  467000    1.1805645   -6.8007876    211.36144  0.037716174  0.038798677            1 
  468000    1.1367878   -6.8390705    211.25249  0.037616185  0.038789773            2 
  469000    1.1942294   -6.8366732    212.20777  0.037705715  0.038781078            4 
  470000    1.1622401   -6.7943274    212.70034  0.037712827  0.038772746            1 
  471000    1.2068782   -6.7803347    213.17457  0.037716662  0.038763939            3 
  472000    1.1743108    -6.857858    212.92312  0.037592359   0.03875527            1 
  473000    1.1752209   -6.8143653    214.09294  0.037718982  0.038746572            2 
  474000    1.2149461    -6.773181    214.44308  0.037700964   0.03873696            1 
  475000    1.1634437   -6.8102173    214.85367  0.037693626  0.038727529            1 
  476000    1.1692459   -6.8236848    214.74213   0.03759491  0.038717956            1 
  477000    1.1785632   -6.7762898     215.3785  0.037627271  0.038709546            1 
  478000    1.1738461   -6.8409235    215.91182   0.03764153  0.038701064            4 
  479000    1.1574477   -6.8218378    216.29405  0.037629446  0.038692107            2 
  480000    1.1487665   -6.8018523    216.88666  0.037653934  0.038683657            3 
  481000    1.1750936     -6.84175    217.09342  0.037611472  0.038674513            2 
  482000    1.1523374   -6.8529026    216.67022  0.037460273  0.038664861            2 
  483000    1.1699184   -6.7882725    217.24864  0.037482512  0.038654587            1 
  484000    1.1533842   -6.7904448    218.63316   0.03764345   0.03864522            2 
  485000    1.1576273    -6.816718    218.61392  0.037562528  0.038636345            1 
  486000    1.1782699   -6.8040124    219.32845  0.037607759  0.038627953            3 
  487000    1.1645794   -6.7947184     219.4683  0.037554467  0.038620084            3 
  488000    1.1720799   -6.7891314    220.41751  0.037639603  0.038611576            3 
  489000     1.152509   -6.8053948    220.62841   0.03759857  0.038603007            2 
  490000    1.1940444   -6.7985026    221.62412  0.037691176  0.038595735            1 
  491000     1.197083   -6.8007347    221.73842  0.037633812  0.038588318            1 
  492000    1.1854008   -6.7979554    221.43701  0.037506268  0.038580885            1 
  493000    1.1938583   -6.8441955    221.77859  0.037487929  0.038572601            1 
  494000    1.1906752   -6.8132654    223.11264  0.037637084  0.038565202            1 
  495000    1.1643125   -6.8122815    223.88317  0.037690769  0.038558902            1 
  496000    1.1609648   -6.8072776    224.50446  0.037719164  0.038552176            3 
  497000    1.1739456   -6.7802835    225.72469  0.037847868  0.038545914            1 
  498000    1.1575221   -6.8029581     225.2881  0.037698813  0.038539926            1 
  499000    1.1751653   -6.8185981    225.11657  0.037594617  0.038532991            3 
  500000    1.1601627   -6.8005872    225.64076  0.037606793  0.038526349            3 
  501000    1.1844946   -6.8280506    226.31173  0.037643336  0.038519427            4 
  502000    1.1618189   -6.7983675    227.11056  0.037700955  0.038513163            4 
  503000    1.1849148   -6.7970233    227.43789  0.037680233  0.038506001            1 
  504000    1.1706442   -6.8425566    227.65733  0.037641755  0.038498718            1 
  505000     1.187572   -6.8801711    227.42469  0.037528826  0.038490478            2 
  506000    1.1634806   -6.8763725    227.45628  0.037459862  0.038482706            2 
  507000    1.1752268   -6.8693495    228.59024  0.037572361   0.03847512            2 
  508000    1.1743727    -6.815348    229.63739  0.037670175  0.038468056            4 
  509000    1.1670515   -6.7972885    230.14224  0.037678821  0.038461376            1 
  510000     1.176104   -6.8610142    230.21324  0.037616543  0.038454738            1 
  511000    1.1663118   -6.8143859    230.88564  0.037652583  0.038447985            2 
  512000    1.1715211   -6.8232821    231.33994  0.037652985   0.03844063            2 
  513000     1.168166   -6.8324387    231.29201  0.037571802  0.038433597            2 
  514000    1.1593805   -6.8166861    231.90942  0.037598804  0.038426319            2 
  515000    1.1776948   -6.8439231    232.26003  0.037582529   0.03841881            1 
  516000    1.1537536   -6.8283611    232.66674  0.037575378  0.038410997            1 
  517000    1.1846108   -6.8525487    233.28962  0.037603098  0.038404203            3 
  518000    1.1683711   -6.8534734    232.53492  0.037409093  0.038396227            6 
  519000     1.154721   -6.8180686    234.02143  0.037575695    0.0383884            2 
  520000    1.1678421   -6.8513105    233.36684  0.037398531  0.038380262            1 
  521000    1.1544353    -6.795662    234.21581  0.037462541  0.038372656            1 
  522000    1.1720322   -6.8173416     234.7576  0.037477267  0.038364949            2 
  523000    1.1567259   -6.8074554     235.3719  0.037503489  0.038357276            1 
  524000    1.1580733   -6.8620306    235.29152  0.037419135  0.038349461            2 
  525000    1.1898347   -6.8223711    235.02232   0.03730513  0.038340445            1 
  526000    1.1592932   -6.8243756    235.58497  0.037323347   0.03833175            2 
  527000    1.1657798   -6.8009696    236.63749  0.037418958  0.038322733            3 
  528000    1.1542087    -6.824609    236.59908  0.037342026  0.038313889            1 
  529000    1.1606676   -6.8275764    236.73182  0.037292347   0.03830523            2 
  530000    1.1524133    -6.830294    237.87963  0.037402457  0.038297387            2 
  531000      1.16486   -6.8020805    237.92804  0.037339617  0.038289489            2 
  532000    1.1849866   -6.7954204    239.40619   0.03750097  0.038281946            2 
  533000    1.1271747    -6.796435    239.25795  0.037407434  0.038273914            2 
  534000    1.1677512   -6.8588695    239.70842  0.037407681  0.038266409            1 
  535000    1.1575873    -6.819217    241.97763   0.03769122  0.038259907            3 
  536000    1.1649939    -6.858103    240.27164  0.037355665  0.038253299            2 
  537000     1.166313   -6.8188707     241.3245  0.037449487  0.038246554            2 
  538000    1.1934494   -6.7923645    241.92684  0.037473178  0.038239815            2 
  539000    1.1675669   -6.7959073    242.40307  0.037477284  0.038233179            1 
  540000    1.1750989    -6.831317    242.00973  0.037347181  0.038226422            1 
  541000     1.154916   -6.8398282    243.82232   0.03755735  0.038219669            1 
  542000    1.2051083   -6.8086162    243.96204  0.037509539  0.038213097            1 
  543000    1.1702045   -6.7920596    244.37071  0.037503178  0.038206118            1 
  544000    1.1691725    -6.857036    243.51052  0.037302469  0.038199135            3 
  545000    1.1595425    -6.872512    244.36781  0.037365108  0.038192067            3 
  546000    1.1625979   -6.7989085    244.46789  0.037311949  0.038184937            2 
  547000    1.1879895   -6.7769179    245.66339  0.037425866  0.038178229            2 
  548000    1.1311326   -6.8069747    246.14078  0.037430167  0.038171622            3 
  549000    1.1731672   -6.8047373    246.14769  0.037363037  0.038164844            1 
  550000    1.1677791   -6.8565943    246.23034  0.037307627  0.038157633            3 
  551000    1.1644741   -6.8462387      247.482  0.037429219   0.03815032            1 
  552000    1.1642736   -6.8645139    247.09039  0.037302294  0.038143533            2 
  553000    1.1746985   -6.8174012    248.47465  0.037443437  0.038137367            1 
  554000    1.1600886   -6.8907231     248.1847  0.037332236  0.038131224            2 
  555000    1.1790414   -6.8163732    249.29894  0.037432273  0.038125348            1 
  556000    1.1352079   -6.8462342    250.01735  0.037472625  0.038119507            1 
  557000     1.199156     -6.78803    251.27637  0.037593712  0.038113669            1 
  558000    1.1545041   -6.8636951    249.96845  0.037331011    0.0381079            2 
  559000    1.1965027   -6.8395971    251.72088  0.037525474   0.03810107            1 
  560000    1.1757728    -6.816341    250.93971  0.037342219  0.038095176            1 
  561000    1.1387671   -6.8543786    252.01577  0.037435498  0.038089059            2 
  562000     1.148679   -6.8456758    251.45343  0.037285503  0.038082272            1 
  563000    1.1623047   -6.8371777    251.79722  0.037270163  0.038075239            2 
  564000    1.1462484   -6.8180321    252.16256  0.037258061  0.038068684            3 
  565000    1.1241616   -6.8143214    253.17656  0.037341675  0.038061724            2 
  566000    1.1839148   -6.8281096    253.99594   0.03739634  0.038054337            1 
  567000    1.1309481   -6.8574787    254.01373     0.037333  0.038047488            1 
  568000    1.1782397   -6.8271975     254.5877  0.037351482  0.038040874            1 
  569000    1.1816627   -6.8394969    255.07004  0.037356479   0.03803446            3 
  570000    1.1661997   -6.8245749    254.87932  0.037263058  0.038028235            1 
  571000    1.1470944   -6.8784781    254.84968  0.037193474  0.038021598            3 
  572000    1.1588003   -6.8586954    255.70097  0.037252473  0.038015058            2 
  573000    1.1837611   -6.8282855    256.64691   0.03732503  0.038008913            2 
  574000    1.1641809   -6.8217339    257.36984  0.037364959  0.038002598            2 
  575000    1.1705126   -6.7916087    258.26769    0.0374301  0.037995984            1 
  576000    1.1643239   -6.8129202    257.48764  0.037252263  0.037989686            1 
  577000    1.1740102   -6.8745425    257.37833  0.037171914  0.037982535            1 
  578000    1.1402369   -6.8918138      258.457  0.037263119  0.037975119            3 
  579000    1.1297217   -6.8493839    258.32045  0.037179109  0.037967965            1 
  580000    1.1584017    -6.847441    260.06735  0.037365998  0.037961148            3 
  581000    1.1741217   -6.8546262     258.6786  0.037102496  0.037953977            1 
  582000    1.1172524   -6.8249547    259.46188  0.037150899  0.037946211            2 
  583000    1.1725963   -6.8586191    259.67231  0.037117254  0.037939072            3 
  584000    1.1406677   -6.8273665    261.33132  0.037290429  0.037931793            2 
  585000    1.1499446   -6.8132073    260.80638  0.037151907  0.037924194            3 
  586000    1.1723769   -6.8638013    260.99315  0.037115067  0.037916742            1 
  587000    1.1506543   -6.8830046    261.04867   0.03705972   0.03790865            3 
  588000    1.1495373   -6.8145555     261.5177  0.037063166  0.037900425            2 
  589000    1.1399175   -6.8299346    262.40565  0.037125871  0.037892612            3 
  590000     1.146801   -6.8363321    262.87846  0.037129726  0.037884745            3 
  591000    1.1463135   -6.8397065    263.21347  0.037114139  0.037877347            1 
  592000    1.1407668   -6.8497548    262.64004  0.036970726  0.037870051            2 
  593000    1.1616454   -6.8457742    263.63039  0.037047553  0.037862467            1 
  594000    1.1804189   -6.8597193     265.2995  0.037219346  0.037855762            1 
  595000    1.1341152   -6.8287542    264.99114  0.037113605  0.037849465            3 
  596000    1.1755245   -6.8422956     266.1869  0.037218527  0.037842701            3 
  597000    1.1827404   -6.8408946    265.91271   0.03711791  0.037835509            2 
  598000    1.1575456   -6.8675908    266.44715  0.037130316  0.037828946            2 
  599000    1.1657574   -6.8595659    266.71414  0.037105473  0.037822408            2 
  600000    1.1620691   -6.8634055    267.01394  0.037085269  0.037815725            2 
  601000    1.1481938   -6.8538491    267.36533  0.037072286  0.037808544            1 
  602000      1.14167   -6.8740276    266.91844  0.036948842  0.037801111            2 
  603000    1.1619782   -6.8795458    267.38205  0.036951638  0.037792771            1 
  604000    1.1473039   -6.8300314    267.19953  0.036865277  0.037784488            3 
  605000     1.162867   -6.8504365    266.80868  0.036750507  0.037775477            2 
  606000    1.1863918   -6.8222538    268.44852  0.036915364  0.037766352            1 
  607000     1.122091   -6.8705581    268.55649  0.036869369  0.037757299            2 
  608000    1.1659348   -6.8370833    269.62964  0.036955817  0.037748561            2 
  609000    1.1403969   -6.8383772    268.46394  0.036735624  0.037739757            1 
  610000    1.1437611   -6.8433664    269.62217   0.03683363  0.037730761            1 
  611000    1.1455714   -6.8547736    270.02634   0.03682847   0.03772117            1 
  612000    1.1464531   -6.8158318    270.63691  0.036851431   0.03771225            1 
  613000    1.1537376   -6.8880011    271.04186  0.036846365  0.037703785            2 
  614000    1.1397052    -6.854012    271.45517   0.03684245  0.037695469            2 
  615000    1.1560941   -6.8458333    271.57362  0.036798593  0.037686704            2 
  616000    1.1412512   -6.8759353      271.602  0.036742694  0.037678517            1 
  617000      1.14347   -6.8461881    273.38174   0.03692352  0.037670815            1 
  618000    1.1586558   -6.8771691    272.90412  0.036799369  0.037662962            2 
  619000    1.1557004   -6.8737288    274.00063  0.036887538  0.037654792            3 
  620000    1.1555434   -6.8752081    275.24323  0.036995058  0.037647051            2 
  621000     1.160811   -6.8417181    275.39914  0.036956406   0.03763937            2 
  622000    1.1228355   -6.8828596    275.50229   0.03691081  0.037631525            2 
  623000    1.1463567   -6.8484079    274.81556  0.036759706  0.037623429            1 
  624000    1.1544402   -6.8417565     275.7704  0.036828312  0.037615345            1 
  625000    1.1404194    -6.881521    275.09713  0.036679617  0.037607542            4 
  626000    1.1453913   -6.8532096    277.27197  0.036910539  0.037599345            5 
  627000     1.145231    -6.832543      276.111  0.036697368  0.037590327            2 
  628000    1.1486002   -6.8524862    276.54411  0.036696406  0.037581161            2 
  629000    1.1331396   -6.8683606    276.92232  0.036688171  0.037571753            2 
  630000    1.1474418   -6.8610418    277.03773  0.036645203  0.037562227            1 
  631000    1.1485503   -6.8797978    277.12702   0.03659892   0.03755286            2 
  632000    1.1267021    -6.833724      277.622  0.036606277  0.037543506            3 
  633000    1.1679638   -6.8430851     278.4361  0.036655621  0.037534625            1 
  634000    1.1547392   -6.8442418    278.84406  0.036651427  0.037526226            1 
  635000    1.1666291   -6.8644535    280.39348  0.036797045  0.037517572            2 
  636000    1.1508362   -6.8954206    279.65576  0.036642526  0.037508837            2 
  637000    1.1566415   -6.8313112    280.48543  0.036693541   0.03749988            2 
  638000    1.1797735   -6.8547438    281.01663  0.036705412  0.037491318            1 
  639000    1.1619021   -6.8514002    281.52682  0.036714504  0.037482628            1 
  640000    1.1544732   -6.8627147    281.82674  0.036696191  0.037473441            2 
  641000    1.1724884   -6.8488911    281.91928  0.036650972  0.037464391            2 
  642000    1.1629464   -6.8607328      281.601   0.03655257  0.037455106            3 
  643000    1.1458849    -6.879754    282.53767  0.036617116   0.03744565            3 
  644000    1.1631634   -6.8554261    281.64188  0.036444343  0.037436027            2 
  645000    1.1572995   -6.8697405    282.66332  0.036519808  0.037426295            1 
  646000    1.1501411   -6.8648491    282.49565  0.036441647   0.03741711            1 
  647000    1.1250841   -6.8714912    283.34226  0.036494366  0.037407657            2 
  648000    1.1301338   -6.8587411    284.19793  0.036548087  0.037398353            2 
  649000    1.1545289   -6.8305268    285.60182  0.036672036  0.037389348            1 
  650000    1.1177867   -6.8804965    284.86054  0.036520583  0.037380507            4 
  651000    1.1377831    -6.851452    285.85856  0.036592238   0.03737182            1 
  652000    1.1911355   -6.8075904    287.74224  0.036776871  0.037363673            1 
  653000    1.1310729   -6.8565074    287.30216   0.03666439  0.037355858            1 
  654000    1.1623291   -6.8701245    287.17306  0.036591878  0.037347341            2 
  655000    1.1253543   -6.8430896    287.75767   0.03661039  0.037339032            2 
  656000    1.1469079   -6.8545223    287.59201  0.036533538  0.037330975            4 
  657000    1.1346957   -6.8729539    287.80519  0.036504971  0.037323026            3 
  658000    1.1415505   -6.8697954    288.75731  0.036570075  0.037314496            1 
  659000    1.1563847   -6.9005696    288.62888  0.036498341  0.037306327            2 
  660000    1.1584058   -6.8889774    289.40496  0.036541031  0.037297911            2 
  661000    1.1466773   -6.8722126    289.03412  0.036438996  0.037289108            3 
  662000    1.1345917   -6.8424493    291.85361  0.036738874  0.037280598            3 
  663000    1.1374199   -6.8510852    290.61773  0.036528121  0.037272521            4 
  664000    1.1327704   -6.9232716    289.32805  0.036311251  0.037264396            3 
  665000    1.1654596   -6.8835271     292.5666  0.036662481  0.037256333            3 
  666000    1.1487108    -6.885169    291.66784  0.036494974  0.037247838            2 
  667000    1.1276787   -6.8956339    292.78286  0.036579567  0.037239679            2 
  668000    1.1573946   -6.8730634      292.842  0.036532186  0.037231904            1 
  669000    1.1600714   -6.8431572    292.57773   0.03644466  0.037223976            2 
  670000    1.1589501   -6.8864446    293.14063  0.036460277  0.037215576            3 
  671000    1.1371511   -6.8692963    294.14053  0.036530121  0.037207416            3 
  672000    1.1166804   -6.8883601    293.85874  0.036440816  0.037199902            1 
  673000    1.1458957   -6.8724782     294.4044  0.036454235  0.037192203            2 
  674000    1.1579947   -6.8547294    295.14261  0.036491421  0.037184387            2 
  675000    1.1442841   -6.9394929     294.8239  0.036398013  0.037176828            4 
  676000    1.1566187   -6.8364445    296.20057  0.036513877  0.037168879            4 
  677000    1.1488382   -6.8327664    296.56962  0.036505369  0.037161543            1 
  678000    1.1312509   -6.8672605    297.44512  0.036559134  0.037154235            3 
  679000    1.1512766   -6.8945559    296.85542  0.036432918  0.037146667            4 
  680000    1.1135672   -6.8791216    298.13613   0.03653629  0.037139346            2 
  681000    1.1282799   -6.8972195    297.79875  0.036441355  0.037131487            2 
  682000    1.1455374   -6.8844393    298.13043   0.03642845  0.037124374            6 
  683000    1.1242839   -6.9041069    299.02011  0.036483664  0.037117086            1 
  684000    1.1595682   -6.8935736    300.28572  0.036584517  0.037110033            2 
  685000    1.1375206   -6.8477591    300.88481  0.036603992    0.0371037            2 
  686000    1.1564109   -6.8763748    301.09808  0.036576541  0.037097269            2 
  687000    1.1617818   -6.8475668    302.07611  0.036641935    0.0370907            1 
  688000    1.1723995    -6.847628    302.41745   0.03663002  0.037084315            2 
  689000    1.1513224   -6.8499074    302.21807  0.036552742  0.037077841            5 
  690000    1.1369021   -6.9033725    301.57948  0.036422643   0.03707144            1 
  691000    1.1292703   -6.8986625    303.06888  0.036549552  0.037065091            2 
  692000     1.144558    -6.927328    303.08764  0.036498993  0.037059063            1 
  693000     1.141292   -6.8527762    303.57487  0.036504915  0.037052721            2 
  694000    1.1582558   -6.8829757    305.07379  0.036632299  0.037046312            3 
  695000    1.1279187   -6.9070082    305.11628  0.036584686   0.03704011            2 
  696000    1.1801723   -6.9118189    304.60257  0.036470614  0.037034083            3 
  697000    1.1277464   -6.8687014    305.71048  0.036550751  0.037027969            1 
  698000    1.1519918   -6.9021946    306.74868  0.036622335  0.037022242            1 
  699000    1.1295953   -6.9210309     306.6628  0.036559705  0.037016098            2 
  700000    1.1277417   -6.8623639    307.66089  0.036626297  0.037010553            1 
  701000    1.1420891    -6.891395    308.74755  0.036703227   0.03700506            1 
  702000    1.1393686   -6.9135156    307.78267  0.036536404  0.036999426            1 
  703000    1.1476314   -6.8510643    308.95165  0.036623003  0.036994072            2 
  704000    1.1441446   -6.8575698    309.77893  0.036668907    0.0369885            1 
  705000     1.146645   -6.8949039    308.81282  0.036502697  0.036982922            2 
  706000    1.1652991   -6.8948514     308.9384  0.036465817  0.036976711            4 
  707000    1.1340334   -6.8881974    310.30849   0.03657573  0.036970276            1 
  708000    1.1231827   -6.9069771    308.81506  0.036348288  0.036963644            2 
  709000    1.1398431   -6.8600451    310.20593  0.036460499  0.036957305            3 
  710000     1.134434   -6.8682709    310.38892  0.036430624  0.036950572            2 
  711000    1.1184753   -6.9053453    309.87947  0.036319675  0.036943745            1 
  712000    1.1365734   -6.8976169    311.16901  0.036419593  0.036937011            1 
  713000    1.1123473   -6.8868538    310.35325  0.036273171  0.036929947            3 
  714000    1.1563191   -6.8987474    311.92673  0.036406014  0.036923375            2 
  715000    1.1456821    -6.892511    311.85919  0.036347224  0.036916588            2 
  716000    1.1533561   -6.8526472     313.7182  0.036512826  0.036910198            1 
  717000    1.1657491   -6.8769656    313.45829  0.036431693  0.036903573            1 
  718000    1.1386238   -6.8745636    313.65995  0.036404358  0.036896805            3 
  719000    1.1688495   -6.9188727    313.30791  0.036312924  0.036889991            3 
  720000     1.124741   -6.8702647    314.99777  0.036458075   0.03688355            2 
  721000    1.1474525    -6.899808    313.29692  0.036210925   0.03687696            3 
  722000    1.1461608   -6.8822521    313.99667  0.036241537  0.036870007            3 
  723000    1.1302153   -6.8959664    314.72312   0.03627514  0.036862592            2 
  724000    1.1527743   -6.9096096    314.94095  0.036250109  0.036855118            2 
  725000    1.1345806   -6.9086676    314.77076  0.036180547  0.036847404            2 
  726000    1.1405663   -6.8935446    315.64916  0.036231538  0.036839926            2 
  727000    1.1372736   -6.9020041    315.65696  0.036182596  0.036832359            2 
  728000    1.1122331   -6.8770224    318.00266  0.036401403  0.036825519            2 
  729000    1.1292426   -6.8605384    318.84393  0.036447637  0.036818858            1 
  730000    1.1246871   -6.9427729    317.16609  0.036206175  0.036812109            4 
  731000    1.1412296    -6.863359    318.01939  0.036253921  0.036805503            1 
  732000    1.1634675   -6.8909623    319.67913  0.036393343   0.03679896            2 
  733000    1.1337245   -6.9041713    318.91476  0.036256794   0.03679245            2 
  734000    1.1515409   -6.8982216    318.95426  0.036211882  0.036785973            1 
  735000    1.1297095   -6.8990761    319.83481   0.03626245  0.036779036            1 
  736000    1.1311183   -6.8754661    319.98297  0.036229956  0.036771933            2 
  737000    1.1376582   -6.9011217    320.72084  0.036264228  0.036764666            3 
  738000    1.1442876   -6.8908353    320.04171  0.036138404  0.036757231            2 
  739000    1.1257465   -6.9104802    320.48408  0.036139386  0.036749501            2 
  740000    1.1417669   -6.8892817    320.75377   0.03612092  0.036741896            2 
  741000    1.1223728   -6.9034944    321.30038  0.036133646  0.036734514            1 
  742000     1.103374    -6.885598    322.56156   0.03622659  0.036727519            2 
  743000    1.0993834    -6.893268    322.73368  0.036197138  0.036720623            1 
  744000    1.1326746   -6.8858532    323.31291  0.036213363  0.036713904            2 
  745000    1.1530451   -6.9437153    323.55376  0.036191695  0.036706701            4 
  746000    1.1077262   -6.8887494     324.2264   0.03621832  0.036699886            2 
  747000    1.1292392   -6.9311236    323.88294  0.036131519  0.036692907            2 
  748000    1.1025175    -6.855464    324.32759  0.036132753   0.03668542            3 
  749000    1.1442062   -6.9384092    323.75658  0.036020981  0.036677942            2 
  750000    1.1357659   -6.9141869    325.06084  0.036117871   0.03667054            2 
  751000    1.1423047   -6.9132249     324.5652  0.036014781  0.036662679            5 
  752000    1.1487254   -6.8888997    325.09054  0.036025104  0.036654699            3 
  753000    1.1425289   -6.9062845     325.8137  0.036057293  0.036646621            1 
  754000    1.1445316   -6.9372227    325.10664  0.035931326  0.036638597            3 
  755000    1.1108674   -6.8995146    326.02304  0.035984883  0.036630887            2 
  756000    1.1163802   -6.9021522    326.81156  0.036024202  0.036622764            2 
  757000    1.1428246   -6.8689198    328.14589  0.036123502  0.036615052            4 
  758000    1.1396246   -6.8810515    328.32776   0.03609584  0.036607514            4 
  759000    1.1130159   -6.9028297     327.4377   0.03595056  0.036599628            2 
  760000    1.1494743   -6.8880257    328.26623  0.035994104  0.036591692            3 
  761000    1.1245424   -6.8988705    328.43235  0.035964997  0.036583758            3 
  762000    1.1372334   -6.9134088    327.87725  0.035857092  0.036575933            1 
  763000    1.1176273   -6.8956891    328.65024  0.035894521  0.036568123            3 
  764000    1.1376323   -6.9091364    329.25824  0.035913857  0.036560446            3 
  765000    1.1192971   -6.8973028    330.13816  0.035962762  0.036552831            1 
  766000    1.1160095   -6.9093981     329.6511  0.035862827  0.036544687            3 
  767000    1.1404497   -6.8662728    330.34951   0.03589195  0.036536492            4 
  768000    1.1523938   -6.8957537    330.82959  0.035897308  0.036528346            2 
  769000    1.1402321   -6.9342588    330.24021  0.035786759  0.036519857            1 
  770000      1.12037   -6.8830387    332.25749  0.035958603   0.03651128            1 
  771000    1.1126069   -6.8883966     330.8161  0.035756171  0.036502803            2 
  772000    1.1505833   -6.9282489    330.93004  0.035722155  0.036494137            1 
  773000     1.137653   -6.8954758    332.97463  0.035896359  0.036485927            2 
  774000    1.1255816   -6.8953093    332.76146   0.03582703  0.036477305            2 
  775000    1.1429153   -6.9073551    332.49707  0.035752373  0.036468877            2 
  776000    1.1305471   -6.8987736    334.53331  0.035924969   0.03646038            1 
  777000    1.1063705     -6.94208    332.34624   0.03564417  0.036451454            2 
  778000    1.1514976   -6.9222401    333.48481  0.035720309  0.036442115            2 
  779000    1.1437605    -6.894035    334.34854  0.035766853  0.036433033            3 
  780000    1.1334106   -6.9341199    333.52193  0.035632684   0.03642384            2 
  781000    1.1247733   -6.8950985    334.23337  0.035662971  0.036414381            1 
  782000    1.1380803   -6.9087373    333.95161  0.035587341  0.036404714            3 
  783000    1.1098288   -6.9319051    334.95196  0.035648357  0.036395107            2 
  784000    1.1183527   -6.9324336    334.18263  0.035521113  0.036385608            3 
  785000    1.1339358   -6.9549613    334.25595  0.035483646  0.036376078            2 
  786000    1.1089254   -6.9112612    336.03708  0.035627341  0.036366714            1 
  787000     1.138969   -6.9211231    337.14675  0.035699571  0.036357418            1 
  788000    1.1273392   -6.9202856    336.45984  0.035581625   0.03634821            1 
  789000    1.1359899   -6.8900246    336.14369  0.035503135   0.03633893            1 
  790000    1.1288891   -6.8544139    337.38414  0.035589045  0.036329788            7 
  791000     1.120057   -6.9281981    336.84641  0.035487401  0.036320349            1 
  792000    1.1093605   -6.9130637    337.42447  0.035503417  0.036310859            1 
  793000    1.1192101   -6.9102765    338.77299  0.035600356  0.036301476            2 
  794000    1.1415055   -6.8889029    338.32045  0.035508024  0.036291914            1 
  795000     1.108058   -6.8771334    339.29565  0.035565582  0.036282596            2 
  796000     1.109998   -6.9321808     337.7896  0.035363233  0.036273024            2 
  797000    1.1480771   -6.9042204    338.20259  0.035362044  0.036263487            4 
  798000    1.1299409   -6.9248162    338.76124   0.03537607  0.036253833            3 
  799000    1.1459763   -6.8912235    340.31354  0.035493694  0.036244156            1 
  800000    1.1560854   -6.9108767    339.45054  0.035359431  0.036234466            1 
  801000    1.1598372   -6.9553272     340.1478  0.035387828  0.036225005            3 
  802000    1.1284895    -6.900083    341.32563  0.035466088  0.036215807            2 
  803000     1.150845   -6.8958564    342.37079  0.035530385  0.036206836            3 
  804000    1.1190211    -6.917278    341.72008  0.035418748  0.036197979            1 
  805000    1.1363611   -6.9167664    341.93337   0.03539683  0.036188435            2 
  806000    1.1048917   -6.9236752    342.47033  0.035408429  0.036178906            2 
  807000    1.1305444   -6.9120262    342.82264  0.035400933   0.03616948            3 
  808000    1.1107027   -6.9343377      342.302  0.035303424  0.036159799            1 
  809000     1.144662     -6.94127     342.2265  0.035252009  0.036149922            3 
  810000    1.1275128   -6.8744964    343.53949  0.035343569  0.036139979            2 
  811000    1.1180696   -6.9203229    342.86213  0.035230387  0.036130323            1 
  812000     1.137461   -6.8629195    343.90387  0.035293911  0.036120587            2 
  813000    1.1335477     -6.94158    343.37665  0.035196459  0.036110439            4 
  814000    1.1007689    -6.961395    344.84652  0.035303698  0.036100771            2 
  815000    1.1337058   -6.8960479    345.26106  0.035302767  0.036091225            1 
  816000    1.1289177   -6.8952783    345.77091  0.035311572  0.036081431            5 
  817000    1.1377773   -6.9250321    344.83152  0.035172534  0.036071939            4 
  818000    1.1212956   -6.9024474    347.35832  0.035386951  0.036062715            2 
  819000    1.1548146   -6.9191826    347.02913   0.03531025  0.036053777            1 
  820000    1.1006418   -6.9072784    348.02836  0.035368735  0.036044657            1 
  821000     1.124491   -6.9147762    348.31089  0.035354333  0.036035447            3 
  822000    1.1169987   -6.9400335    347.46232  0.035225296   0.03602641            2 
  823000    1.1290296   -6.9123422    347.75593  0.035212225   0.03601703            2 
  824000    1.1094567   -6.9268595    347.80376  0.035174329  0.036007986            2 
  825000    1.1113067   -6.9242167    348.53786  0.035205844   0.03599856            1 
  826000    1.1235189   -6.9315762    349.37548  0.035247728  0.035989141            4 
  827000     1.139209   -6.9824541    348.91908  0.035159117  0.035979766            3 
  828000    1.1277813   -6.9236817    348.94361  0.035119124  0.035970098            1 
  829000    1.1205199   -6.9168035    349.82023   0.03516488  0.035960527            2 
  830000     1.103114   -6.9307709    349.77046  0.035117516  0.035950689            2 
  831000    1.1026973    -6.874343    350.21491  0.035119827   0.03594087            2 
  832000    1.1204325   -6.8909313    350.73676  0.035129884  0.035931345            3 
  833000     1.117067   -6.8954373    351.48962  0.035163028  0.035921842            2 
  834000    1.1381978   -6.9734051    351.05521  0.035077459   0.03591236            1 
  835000    1.1240606   -6.9338702    352.87711  0.035217277  0.035902708            1 
  836000    1.1306717   -6.9574167     352.0357  0.035091278  0.035893119            2 
  837000    1.1198712   -6.9344239    352.24116  0.035069809  0.035883089            4 
  838000    1.1221924   -6.9443658    352.28934   0.03503275  0.035872787            1 
  839000    1.1272025   -6.9343868    353.05426  0.035066971  0.035862652            1 
  840000    1.1301024   -6.9118916    353.90919  0.035110039  0.035852799            1 
  841000    1.1310696   -6.9021491    354.78422  0.035154996  0.035842982            2 
  842000    1.1122923    -6.905009    354.42209  0.035077404  0.035833511            1 
  843000    1.1602346   -6.9095053    354.86315  0.035079394  0.035823893            1 
  844000    1.1142817   -6.9505443    354.75204   0.03502686  0.035814329            2 
  845000    1.1154078   -6.9417182    354.68541  0.034978837  0.035804897            2 
  846000    1.0999291   -6.9157849    356.80211  0.035145992  0.035795588            1 
  847000    1.1123921    -6.954452    357.21702  0.035145319  0.035786558            2 
  848000    1.1351867   -6.9415235    357.49902  0.035131586  0.035777698            2 
  849000    1.1107234   -6.9146047    358.06756  0.035146011  0.035768578            2 
  850000    1.1133109   -6.9341107    358.84374  0.035180759   0.03575985            2 
  851000    1.1057019    -6.909793    359.41587  0.035195443  0.035751029            2 
  852000    1.1178073   -6.9690984    358.26818  0.035041879  0.035741878            2 
  853000     1.128167   -6.9490308    358.40828  0.035014486  0.035732942            3 
  854000    1.1068104   -6.9172835    360.25632  0.035153817  0.035723809            2 
  855000    1.1234173    -6.931131    360.12454  0.035099858  0.035714845            3 
  856000    1.0913699   -6.9239583    359.34981  0.034983431  0.035705761            2 
  857000    1.1207971   -6.9330162    359.37356   0.03494492  0.035696743            2 
  858000    1.1106276   -6.9143533    361.67312  0.035127537  0.035687661            2 
  859000    1.1217653   -6.9183493    361.65625  0.035085007   0.03567889            3 
  860000    1.1006034   -6.9484633    360.96981  0.034977695  0.035669615            2 
  861000    1.0920431   -6.9069942    361.85699  0.035022937  0.035660443            1 
  862000    1.1140571   -6.9268804    362.22363  0.035017752  0.035651324            2 
  863000    1.1184288    -6.931042    361.41262  0.034898862  0.035641759            3 
  864000     1.091559   -6.9651303      361.002  0.034818866  0.035632318            3 
  865000    1.0987574   -6.9354887    362.29646   0.03490332  0.035622927            2 
  866000    1.1455023   -6.9367329    363.85992  0.035013464  0.035613717            1 
  867000    1.1035101   -6.8919109    363.74432  0.034961968  0.035604697            3 
  868000    1.1095037    -6.914706    363.67611  0.034915141  0.035595213            2 
  869000    1.1079553   -6.9538725    364.12055  0.034917582  0.035585754            3 
  870000    1.1543012   -6.9185645    363.86466  0.034852936  0.035576611            2 
  871000     1.106668   -6.9503163    365.10274  0.034931376  0.035567535            2 
  872000    1.1149744   -6.9468777    366.01809  0.034978793  0.035558578            3 
  873000    1.1164762   -6.9460436    364.93588  0.034835422  0.035549569            2 
  874000    1.1030452   -6.9258519    364.90965  0.034793063  0.035540235            4 
  875000    1.1066259   -6.9530333    366.03689  0.034860656  0.035531049            2 
  876000    1.1147301   -6.9357075     366.3598  0.034851579  0.035521615            2 
  877000     1.111377   -6.9786833      366.255  0.034801881  0.035512678            3 
  878000    1.1300726    -6.965854    366.69109  0.034803634  0.035503225            2 
  879000    1.1058867   -6.8992729    367.53366  0.034843919  0.035493979            4 
  880000    1.1114674   -6.9526114    368.27053  0.034874103  0.035484904            1 
  881000    1.1071564   -6.9186476    367.80145  0.034790149  0.035475927            1 
  882000    1.0962321   -6.9821849    368.29327  0.034797172  0.035466381            2 
  883000    1.1030864   -6.9590181     368.7762  0.034803341  0.035456802            2 
  884000    1.0890893   -6.9546595    369.17633   0.03480169  0.035447645            2 
  885000    1.1111367   -6.9463712    369.62149  0.034804283  0.035438493            1 
  886000    1.1145383   -6.9542488    369.05971  0.034712162  0.035429353            1 
  887000    1.1011864   -6.9251584    370.67949  0.034825206  0.035420218            2 
  888000    1.1218785   -6.9309257    370.45548  0.034764966  0.035410837            2 
  889000    1.1292978    -6.959715    369.67261  0.034652476  0.035401367            1 
  890000    1.1201939   -6.9017308    370.62805  0.034703001  0.035391806            2 
  891000    1.0897849   -6.9574725    370.90288  0.034689757  0.035382415            4 
  892000    1.0964135   -6.8770369    371.81587  0.034736162  0.035373047            1 
  893000    1.1017322   -6.9385079    372.16731  0.034730059  0.035363726            3 
  894000    1.1019555   -6.9544666    371.86904  0.034663408  0.035354159            1 
  895000    1.1217492    -6.954801    370.73515  0.034519101  0.035344372            2 
  896000    1.1149828   -6.9754247    370.79518  0.034486159  0.035334339            2 
  897000    1.1398554   -6.9547602    370.53249  0.034423308  0.035324412            2 
  898000    1.1039688   -6.9003509    372.85616  0.034600609  0.035314421            1 
  899000    1.0949317    -6.984031    372.52315  0.034531253   0.03530435            2 
  900000    1.1073171   -6.9600524    373.84753  0.034615512  0.035294217            6 
  901000    1.1105505   -6.9678957     372.6147  0.034463069  0.035284052            3 
  902000    1.1002514    -6.957702    373.01453  0.034461801  0.035273836            3 
  903000    1.1133776    -6.908875    373.85823  0.034501498  0.035263429            2 
  904000    1.1135857   -6.9623472    372.86885  0.034372129  0.035253193            1 
  905000     1.091243   -6.9328997    374.27036  0.034463201    0.0352425            3 
  906000    1.1269848   -6.9493662    373.30959  0.034336791  0.035231983            1 
  907000    1.1272557   -6.9791497    373.43734  0.034310671  0.035221255            1 
  908000    1.0715658   -6.9858504    374.64637  0.034383845  0.035210399            1 
  909000    1.0853025   -6.9403027    374.40257  0.034323668  0.035199871            1 
  910000    1.0804129   -6.9477145    374.59587  0.034303651  0.035189444            2 
  911000    1.1106597   -6.9396315      375.157  0.034317326  0.035178959            2 
  912000    1.1069687   -6.9486648    375.37354  0.034299483  0.035168412            2 
  913000    1.1181648   -6.9407568    375.53607   0.03427675   0.03515797            1 
  914000    1.1242473   -6.9620804     376.0203  0.034283397  0.035147511            2 
  915000    1.0786617   -6.9634387    377.43495  0.034374768  0.035136886            1 
  916000    1.0990598   -6.9371951    376.94428  0.034292602  0.035126056            1 
  917000    1.1021798   -6.9398295    377.40939  0.034297472  0.035115305            1 
  918000    1.1027246   -6.9508782    377.67923  0.034284607  0.035104626            2 
  919000    1.1133794   -6.9576075    377.58553  0.034238804  0.035094075            4 
  920000    1.1146048   -6.9447898    378.49528  0.034283993  0.035083519            2 
  921000    1.0987875   -6.9635079    377.16216  0.034126146  0.035072617            1 
  922000    1.1221861    -6.945569    377.61462  0.034130027  0.035061882            2 
  923000    1.1131641    -7.001667    377.90217  0.034119011  0.035051095            1 
  924000    1.1009819   -6.9388747    378.79036  0.034162189  0.035039928            2 
  925000    1.0933294   -6.9205292    378.95675  0.034140248  0.035028814            1 
  926000     1.118702   -6.9445287    378.90752  0.034098949  0.035017899            3 
  927000    1.1294837   -6.9390085    379.17646  0.034086341  0.035007189            2 
  928000    1.1053236   -6.9115777    381.39463    0.0342488  0.034996601            3 
  929000    1.1132761   -6.9453008    380.38258   0.03412115  0.034985887            3 
  930000    1.0660358   -6.9911231    381.36111  0.034172143  0.034975099            2 
  931000    1.1033211   -6.9599753    381.62814  0.034159339  0.034964646            3 
  932000    1.0957524   -6.9542621     383.5714  0.034296441  0.034954514            1 
  933000    1.1167093   -6.9576155    382.45232  0.034159729  0.034944523            2 
  934000    1.1345676   -6.9886658    383.15725   0.03418605  0.034934567            2 
  935000    1.0959565   -6.9215632    383.05031  0.034139956   0.03492462            2 
  936000    1.1245023   -6.9688834    384.33964  0.034218273  0.034914901            2 
  937000    1.1241777    -6.940664    384.73447  0.034216868  0.034905025            1 
  938000    1.1238119   -6.9984783    383.45936  0.034067107  0.034895112            1 
  939000    1.1254683   -7.0001178    385.06855  0.034173638  0.034885129            3 
  940000    1.0889291   -6.9547412    385.43215  0.034169517  0.034875194            2 
  941000    1.1062094   -6.9533434    385.03938  0.034098422  0.034865369            2 
  942000    1.0802091   -6.9420299    386.08384  0.034154622  0.034855541            2 
  943000      1.09634   -6.9568873    386.52368  0.034157271  0.034845466            5 
  944000    1.1043697   -6.9244797    386.80593  0.034146004  0.034835223            2 
  945000    1.1148225   -6.9366894    385.69144   0.03401159  0.034825096            3 
  946000     1.083237   -6.9663698    386.83974  0.034076791  0.034814756            2 
  947000    1.0852959   -6.9687548    387.78576  0.034124055  0.034804406            3 
  948000    1.1064469   -6.9413878     387.7269  0.034082885  0.034794044            2 
  949000    1.1038109   -6.9806483    388.21308  0.034089663  0.034783627            1 
  950000    1.0789245   -6.9757592    387.88565  0.034025057  0.034773012            1 
  951000    1.0929001   -6.9521186    387.50382   0.03395582  0.034762538            2 
  952000    1.0986431   -6.9703148    387.49057  0.033918992  0.034752031            2 
  953000    1.0946163   -7.0021646    387.49215  0.033883539  0.034741564            1 
  954000    1.1135388   -6.9868121    388.29604  0.033918242  0.034730864            2 
  955000      1.10526   -6.9806167    389.35312  0.033974967  0.034720186            5 
  956000    1.1075547   -6.9650398    388.89293  0.033899314  0.034709423            1 
  957000    1.1098291    -6.979275    388.88889   0.03386354   0.03469878            1 
  958000    1.0864345   -6.9729267    390.41261  0.033960735   0.03468825            1 
  959000    1.0914367   -6.9643696     389.4835  0.033844586  0.034677676            2 
  960000    1.1052129   -6.9919518    389.86657  0.033842584  0.034666711            3 
  961000    1.1015689    -6.961567    391.16853  0.033920268  0.034656085            3 
  962000    1.0878551   -6.9664303    390.17106  0.033798601  0.034645334            2 
  963000    1.0857187   -6.9272186    391.90673  0.033913701  0.034634795            3 
  964000    1.0951414   -6.9474493     391.3485  0.033830264  0.034624443            6 
  965000    1.0949264   -6.9563375    391.46429  0.033805206  0.034613892            2 
  966000    1.1034624    -6.933543    393.68019  0.033961369  0.034603452            4 
  967000    1.0727112   -6.9342236    393.91738  0.033946689  0.034592989            2 
  968000    1.0797478    -6.944542     393.2753  0.033856345  0.034582685            2 
  969000    1.1236886    -6.943897    393.52125  0.033842556   0.03457284            6 
  970000    1.0963889   -6.9742194    394.00268  0.033849027  0.034562845            2 
  971000    1.0809386   -6.9726755    393.83484  0.033799763  0.034552837            1 
  972000    1.1082761   -6.9629445    395.20106  0.033882121  0.034542913            2 
  973000    1.0876125   -6.9836083    396.76237  0.033981019  0.034533413            2 
  974000    1.0955404   -6.9512253    396.01666  0.033882329  0.034523852            3 
  975000    1.0873233   -7.0119203    395.87741  0.033835676  0.034514134            2 
  976000    1.0790302   -6.9591101    396.66859  0.033868561  0.034504359            3 
  977000    1.0924838    -6.964993    397.74591  0.033925786  0.034494754            4 
  978000    1.1001865   -6.9683446    396.15982   0.03375595  0.034485006            2 
  979000    1.0739431   -7.0148813     397.4051  0.033827468  0.034474988            1 
  980000    1.0972672   -6.9421797    397.74899  0.033822193  0.034464969            1 
  981000     1.095673   -6.9660968    397.68123   0.03378196  0.034455043            3 
  982000    1.0846874   -6.9290396    397.64766   0.03374471  0.034445132            2 
  983000    1.0871014   -6.9641862    399.13256  0.033836263  0.034435242            1 
  984000    1.0943404   -6.9685838    398.31968  0.033733035   0.03442539            1 
  985000    1.0960388   -6.9966779    399.96614  0.033838082  0.034415641            1 
  986000    1.0848207    -6.947786     400.3613  0.033837162  0.034406111            1 
  987000    1.1074612   -6.9666625    399.05056  0.033692212  0.034396022            3 
  988000    1.0967567    -6.920611    400.93066  0.033816689  0.034386379            1 
  989000     1.079616   -6.9474856    401.02866  0.033790754  0.034376833            2 
  990000    1.0844874    -6.973389    399.55175  0.033632302  0.034367252            2 
  991000    1.0792146   -6.9733102    399.58674  0.033601307  0.034357259            2 
  992000    1.0861017    -6.935958    401.56239    0.0337334  0.034347262            2 
  993000    1.1031989   -6.9828813    401.22811  0.033671376  0.034337399            3 
  994000    1.0889572   -6.9479455    401.60402  0.033669016  0.034327364            2 
  995000    1.1014161   -6.9736888    401.79988  0.033651581  0.034317183            1 
  996000     1.107362   -6.9367022    402.63503   0.03368767  0.034307274            1 
  997000    1.0971573   -6.9934812    402.56627  0.033648133  0.034297312            4 
  998000    1.0805318   -6.9565658    402.52484  0.033610959  0.034287453            6 
  999000    1.0958717   -6.9939022    403.15911  0.033630223  0.034277447            4 
 1000000    1.1079432   -6.9166704    405.37087  0.033780906  0.034267684            1 
 1001000    1.1010428   -6.9739625    404.43506  0.033669253  0.034257756            3 
 1002000    1.1001426   -6.9889737    404.50199  0.033641216  0.034247772            2 
 1003000    1.0895598   -6.9507895    404.39834  0.033599065  0.034238025            4 
 1004000    1.0945965   -6.9602197    404.87837  0.033605443  0.034228178            4 
 1005000    1.1046548   -6.9430788    406.27374  0.033687707  0.034218617            3 
 1006000    1.0967477   -7.0168077    404.36636  0.033496219  0.034208878            2 
 1007000    1.0747249    -6.970878    405.23563  0.033534892  0.034199272            5 
 1008000    1.0642343   -6.9768393     406.3733  0.033595676  0.034189783            1 
 1009000     1.075875   -6.9678185    405.56888  0.033495943   0.03418004            3 
 1010000    1.0897046   -6.9932484    406.90539  0.033573052  0.034169977            2 
 1011000     1.050645   -6.9778411    406.64714  0.033518557   0.03415998            3 
 1012000    1.0951888   -7.0217982    406.88141  0.033504728  0.034150191            4 
 1013000    1.0927648   -6.9602809    406.73211   0.03345937  0.034140529            3 
 1014000    1.0921545   -6.9913232    407.55179  0.033493737  0.034130831            2 
 1015000    1.0860488   -6.9966381    407.72781   0.03347519   0.03412112            2 
 1016000     1.053433   -6.9633087    408.65978  0.033518682  0.034111256            1 
 1017000    1.0768014   -7.0010428    408.32134  0.033457992  0.034101403            3 
 1018000    1.0906871   -6.9698023    410.20158  0.033579042  0.034091512            2 
 1019000     1.081282   -6.9612838    409.21951  0.033465776  0.034081721            6 
 1020000     1.089913   -7.0036582    408.94767  0.033410757  0.034071994            2 
 1021000    1.0915925   -6.9854968    409.85982  0.033452483   0.03406213            3 
 1022000    1.0971386   -7.0192301    408.64698  0.033320857  0.034051827            3 
 1023000    1.0744844   -6.9925171    410.53948  0.033442447  0.034042149            2 
 1024000    1.1066161   -7.0151905    411.05185  0.033451485  0.034032486            3 
 1025000    1.0816841   -6.9695549    410.87105  0.033404151  0.034022826            2 
 1026000    1.0919302   -6.9911195    411.53708  0.033425688  0.034013159            1 
 1027000     1.087975   -6.9574993    414.25436  0.033613629  0.034003828            5 
 1028000    1.1008689   -6.9989704    411.05628  0.033321683   0.03399444            2 
 1029000    1.0897441   -6.9845276    412.42576  0.033400208  0.033984901            2 
 1030000    1.1073498   -6.9504947    413.81576   0.03348024  0.033975262            2 
 1031000      1.08534   -7.0406036    412.25405  0.033321536  0.033965562            1 
 1032000    1.0962213   -6.9718253    412.64423  0.033320755   0.03395614            2 
 1033000    1.0633089   -6.9920031    413.46507  0.033354716  0.033946542            3 
 1034000    1.1178415   -7.0132649    412.94191  0.033280296  0.033936836            1 
 1035000    1.0956304   -6.9847974    415.22461  0.033431934   0.03392729            1 
 1036000     1.082147   -6.9705817    415.72702  0.033440075  0.033917871            2 
 1037000    1.1115351   -7.0098585    414.15205  0.033281264  0.033908219            3 
 1038000     1.077365   -6.9726579    416.10956  0.033406355  0.033898816            3 
 1039000    1.1113357   -6.9858232    414.63804  0.033256179  0.033889461            1 
 1040000    1.0924892   -7.0078214     414.9272  0.033247372  0.033880064            1 
 1041000    1.1059835   -6.9877132    416.78075  0.033363813  0.033870619            1 
 1042000    1.0965658   -6.9894045    418.54414   0.03347282   0.03386147            7 
 1043000    1.0967119    -6.989509    417.06276  0.033322368  0.033852349            2 
 1044000    1.0763869   -6.9922772    417.90667  0.033357812  0.033843245            2 
 1045000    1.0894324   -7.0168009    417.81021  0.033318198  0.033834081            1 
 1046000    1.0532318   -6.9700908     420.0077  0.033461416   0.03382491            2 
 1047000    1.0907671   -6.9980318    418.15005  0.033281602  0.033815819            3 
 1048000     1.089761   -6.9679697    419.93801  0.033392017    0.0338065            3 
 1049000    1.0842453   -6.9867473    418.79806  0.033269626  0.033797259            2 
 1050000    1.0647817   -7.0247685    418.68565   0.03322902  0.033788165            4 
 1051000    1.0965921    -6.962264    421.29462  0.033404267  0.033779265            1 
 1052000      1.08221   -6.9751252    421.72906  0.033406928  0.033770438            2 
 1053000    1.0779377    -6.985204    421.58646  0.033363918  0.033761468            3 
 1054000    1.1089169   -7.0258811    421.58555  0.033332191  0.033752706            1 
 1055000    1.0894276   -6.9894643    421.23643   0.03327302  0.033743927            2 
 1056000     1.060399    -6.982796    421.46563  0.033259598  0.033734943            2 
 1057000    1.0790468   -7.0140012    421.36913  0.033220524  0.033725958            1 
 1058000    1.0868516   -6.9981289    422.49385  0.033277713  0.033717129            2 
 1059000    1.0702451   -6.9934343    422.49665   0.03324651  0.033708226            2 
 1060000    1.0793904   -7.0194971    423.02156  0.033256412  0.033699164            2 
 1061000    1.0678085   -7.0132665    422.16692  0.033157942  0.033690342            4 
 1062000    1.0726133   -7.0166245    423.43774  0.033226439  0.033681415            4 
 1063000    1.0928988   -7.0184997    424.05663  0.033243699  0.033672345            1 
 1064000    1.1142608   -6.9892891    424.86235   0.03327556  0.033663391            2 
 1065000    1.0664107   -7.0087433    424.57285  0.033221663  0.033654772            3 
 1066000    1.0781725   -6.9930712    425.60533  0.033271211   0.03364619            4 
 1067000    1.0790854   -7.0080413    425.21796  0.033209775  0.033637526            3 
 1068000    1.0918502   -7.0056473    425.13325   0.03317207  0.033628828            2 
 1069000    1.0430199   -6.9841414    426.05631  0.033212996  0.033620204            2 
 1070000     1.082845    -6.986452    426.27135  0.033198703   0.03361156            1 
 1071000    1.0836213   -6.9985871    427.06619  0.033229551  0.033602961            2 
 1072000    1.1082345   -6.9889687    427.00647  0.033193911  0.033594412            3 
 1073000    1.0710289   -6.9817553    428.07905  0.033246276  0.033585542            2 
 1074000    1.0710403   -6.9964821    428.93173  0.033281481  0.033577085            3 
 1075000    1.0777501   -6.9962245    428.87328  0.033245991  0.033568643            2 
 1076000     1.096218   -6.9945229    428.35949  0.033175301  0.033560256            3 
 1077000    1.0778316   -6.9855829    429.18133  0.033208088  0.033552049            2 
 1078000    1.0858316   -7.0442897    429.29764  0.033186274    0.0335438            2 
 1079000    1.0881743   -7.0220645    428.74259   0.03311265  0.033535678            1 
 1080000    1.0848238   -6.9740303    431.04153  0.033259378  0.033527535            3 
 1081000    1.1190846    -7.026115    429.81112  0.033133759  0.033519357            2 
 1082000     1.069781   -7.0226708    429.71191  0.033095495  0.033510912            3 
 1083000    1.0836979   -6.9994546     430.7755  0.033146776  0.033502536            5 
 1084000    1.0846188   -6.9929276    432.09561  0.033217682  0.033494116            3 
 1085000    1.0956149   -7.0106025    430.94973  0.033099057  0.033485663            1 
 1086000    1.0823428   -7.0077258    432.65152  0.033199165  0.033477381            2 
 1087000    1.0643081   -7.0081346    431.64884  0.033091754  0.033469044            2 
 1088000     1.090333    -7.013184    433.95595  0.033238048  0.033460518            1 
 1089000    1.0760742   -7.0365201    431.69594  0.033034584  0.033452221            3 
 1090000    1.0654436    -6.958678    434.56018  0.033223256  0.033444058            2 
 1091000    1.0587756   -6.9978554    435.16055  0.033238661  0.033436062            2 
 1092000    1.0407199     -7.00486      434.246  0.033138431   0.03342804            3 
 1093000    1.0633316   -7.0113899    434.16093  0.033101626  0.033419689            1 
 1094000    1.0718143   -7.0092107    434.33518  0.033084642  0.033411654            1 
 1095000    1.0664908    -6.987822    435.65373  0.033154774  0.033403687            1 
 1096000    1.0528045   -7.0109364    434.39171  0.033028567  0.033395704            1 
 1097000     1.068204   -7.0359915    436.45088  0.033154883  0.033387567            2 
 1098000    1.0750551   -7.0311349    435.53806  0.033055409  0.033379424            2 
 1099000    1.0598559   -7.0039068    437.63217   0.03318412  0.033371217            3 
 1100000    1.0808228   -7.0029024    435.91931   0.03302419   0.03336299            2 
 1101000    1.0533164   -7.0160656    436.12958   0.03301011  0.033354887            2 
 1102000    1.0696097   -6.9792016    438.93931  0.033192628  0.033346641            1 
 1103000    1.0922084   -7.0320516    437.56833  0.033058955  0.033338608            1 
 1104000    1.0531221   -7.0019395    437.62957  0.033033633  0.033330462            2 
 1105000    1.0755203   -6.9925007    437.31712  0.032980175  0.033322303            2 
 1106000    1.0964592   -7.0299339    437.18055  0.032940065  0.033313982            3 
 1107000    1.0561368   -7.0503638    437.47163  0.032932221  0.033305754            1 
 1108000    1.0446685   -7.0182019     439.8014  0.033077722  0.033297527            3 
 1109000    1.0744596   -6.9889085    439.16595  0.033000147  0.033289514            1 
 1110000    1.0589203   -7.0024323    440.12707  0.033042573  0.033281314            5 
 1111000    1.0760388   -7.0466002    440.48056  0.033039346  0.033273326            1 
 1112000    1.0765934   -6.9589369    440.83428  0.033036142  0.033265443            1 
 1113000     1.056204   -6.9939831    442.27074  0.033114012  0.033257457            1 
 1114000    1.0852409   -7.0368551    441.89335  0.033056055   0.03324977            2 
 1115000    1.0673947   -7.0103699    442.30401  0.033057101  0.033241967            2 
 1116000    1.0798579   -7.0277958    441.04067  0.032933145  0.033233837            1 
 1117000    1.0645414   -7.0116326    443.14367  0.033060554  0.033225848            1 
 1118000    1.0555188   -7.0289234    441.85078  0.032934614  0.033218137            1 
 1119000    1.0713854   -7.0130656    441.40521     0.032872  0.033210133            1 
 1120000    1.0884486   -7.0073382    443.68268  0.033012104  0.033202318            3 
 1121000    1.0603497   -7.0104805     443.5494  0.032972748  0.033194575            2 
 1122000    1.1066016   -7.0224489    442.72568  0.032882181  0.033186707            3 
 1123000    1.0623686   -7.0318688     444.1022  0.032955046  0.033178715            4 
 1124000    1.0882915   -7.0032114    444.64428  0.032965916  0.033170949            2 
 1125000    1.0563161   -7.0027133    444.28012  0.032909639  0.033163024            6 
 1126000    1.0715318   -6.9813838    445.12401  0.032942866   0.03315526            2 
 1127000    1.0775859   -7.0186361    447.05424  0.033056362  0.033147481            1 
 1128000    1.0689332    -7.031122     445.9229  0.032943477  0.033139628            2 
 1129000    1.0849892   -6.9967221    445.01661  0.032847402  0.033131905            2 
 1130000    1.0667047   -7.0087051    446.13169  0.032900567  0.033124112            1 
 1131000    1.0638722   -7.0175424    446.19743  0.032876321  0.033116269            3 
 1132000    1.0697427   -7.0261163     445.8617  0.032822563  0.033108206            6 
 1133000    1.0482918   -7.0300059    446.46394  0.032837889  0.033100114            1 
 1134000    1.0595241   -7.0434614    446.60363  0.032819197  0.033092048            2 
 1135000    1.0770874   -7.0141715    447.12861  0.032828826  0.033084116            4 
 1136000    1.0693003    -7.011484    447.56215  0.032831731  0.033076173            3 
 1137000    1.0507162   -7.0306023    448.98381  0.032907052   0.03306816            2 
 1138000    1.0893566   -7.0975564    447.35024  0.032758512  0.033060244            3 
 1139000    1.0732963   -7.0337843    447.53652   0.03274338  0.033052246            1 
 1140000    1.0669576   -7.0288812    449.04081   0.03282462  0.033044313            3 
 1141000    1.0436833   -6.9805846    450.62661  0.032911672  0.033036585            2 
 1142000     1.068491   -7.0275572    448.98267  0.032762892   0.03302884            3 
 1143000    1.0669427   -7.0234313    448.71326  0.032714586   0.03302111            4 
 1144000    1.0556259   -7.0316158     449.9846  0.032778599  0.033013227            3 
 1145000    1.0728458   -7.0270733    448.90499  0.032671397  0.033005388            2 
 1146000    1.0915158   -7.0784901    449.04529   0.03265309  0.032997418            2 
 1147000    1.0730282   -7.0002634    451.25101  0.032784874  0.032989324            3 
 1148000    1.0889549   -6.9892882    450.49113  0.032701156  0.032981385            2 
 1149000    1.0551799   -7.0620838    451.41824  0.032739936  0.032973389            1 
 1150000    1.0650357   -6.9968821    452.23161  0.032770406  0.032965468            2 
 1151000    1.0610387    -7.025945    451.57179  0.032694164  0.032957452            2 
 1152000    1.0673277   -7.0640473    451.32539  0.032647959  0.032949382            3 
 1153000    1.0558918   -7.0312353    452.34111  0.032693055  0.032941263            3 
 1154000    1.0687826   -7.0096964    453.01836  0.032713631  0.032933294            2 
 1155000    1.0739648   -7.0280973    452.73022  0.032664518  0.032925475            2 
 1156000    1.0898725   -7.0173172    452.97876  0.032654178  0.032917709            2 
 1157000    1.0987936   -7.0450044    454.39682  0.032728091  0.032909893            1 
 1158000    1.0711873   -7.0351356    454.01499  0.032672351  0.032902007            1 
 1159000     1.063038   -7.0286509    452.23482  0.032516165  0.032893961            3 
 1160000    1.0610266   -7.0268436    455.16383  0.032698551  0.032885926            2 
 1161000    1.0834471   -7.0614814    454.77766  0.032642669  0.032877979            3 
 1162000    1.0648006   -7.0502491     455.1818   0.03264356  0.032870023            2 
 1163000    1.0586098   -7.0358282    456.12494  0.032683071  0.032862034            2 
 1164000    1.0701155   -7.0134654    455.84672  0.032635075  0.032854161            2 
 1165000    1.0598986   -7.0334007    454.96337  0.032543875  0.032846177            2 
 1166000     1.076231   -7.0474959    455.94504  0.032586124   0.03283819            2 
 1167000    1.0808774   -6.9913631    456.98349  0.032632355  0.032830485            1 
 1168000    1.0718576    -7.037948    457.88147  0.032668484  0.032822732            3 
 1169000    1.0603555   -7.0142517    459.71372  0.032771152  0.032815009            3 
 1170000    1.0579462   -7.0196552    458.72891  0.032672999  0.032807496            3 
 1171000    1.0916793   -7.0116522     458.4405  0.032624573  0.032800037            2 
 1172000     1.054872   -7.0679879       458.56  0.032605233  0.032792468            2 
 1173000    1.0782832   -7.0396247    457.42311  0.032496669  0.032784742            1 
 1174000     1.074828    -7.054742    459.53403  0.032618827  0.032776995            3 
 1175000    1.0577419   -7.0512078     457.9283  0.032477185  0.032769205            2 
 1176000    1.0540179   -7.0915687    458.62314  0.032498805  0.032761343            3 
 1177000    1.0806657   -7.0676871    457.95002  0.032423536  0.032753372            4 
 1178000    1.0712302   -7.0696136    459.14765  0.032480733  0.032745229            1 
 1179000    1.0613082   -7.0401854    458.57584  0.032412768   0.03273738            4 
 1180000    1.0681107   -7.0417518     459.2677   0.03243416  0.032729151            2 
 1181000    1.0459837   -7.0255585    460.30473  0.032479871  0.032721083            1 
 1182000    1.0470537   -7.0353063    459.48178  0.032394372  0.032712549            6 
 1183000    1.0523249   -7.0367842    458.11443   0.03227067  0.032704037            1 
 1184000    1.0693826   -7.0336594    458.87986  0.032297287  0.032695396            1 
 1185000     1.036411   -6.9971625      460.601  0.032391069  0.032686896            5 
 1186000    1.0401691   -7.0416091    458.33026  0.032204206  0.032678418            2 
 1187000    1.0272697   -7.0390501    461.27719  0.032383965  0.032669765            2 
 1188000    1.0684024   -7.0338282    461.40782  0.032365868  0.032661285            3 
 1189000    1.0577317   -7.0419214    459.24116  0.032186793  0.032652704            1 
 1190000    1.0505693   -7.0296472    461.14343  0.032292958  0.032644142            2 
 1191000    1.0680758   -7.0234774    461.01834  0.032257091  0.032635583            2 
 1192000    1.0428741   -7.0786794    461.49604  0.032263425  0.032626803            2 
 1193000    1.0820042   -7.0441111     459.9102  0.032125607  0.032617962            2 
 1194000    1.0611054   -7.0290509    461.61162   0.03221745  0.032609255            2 
 1195000    1.0593675   -7.0429773    463.24849  0.032304636  0.032600461            2 
 1196000    1.0426079   -7.0399909    462.89192  0.032252781  0.032591894            2 
 1197000    1.0586203   -7.0469716    464.38106  0.032329509   0.03258348            3 
 1198000    1.0534402   -7.0338001    465.09715  0.032352334  0.032574937            3 
 1199000    1.0700325   -7.0437683    464.06075  0.032253318  0.032566558            2 
 1200000    1.0889032   -7.0687393    462.49136  0.032117456  0.032558047            2 
 1201000    1.0791908   -7.0243368    464.98553  0.032263775  0.032549511            1 
 1202000    1.0473828   -7.0228984    465.83927  0.032296122  0.032541205            2 
 1203000    1.0401864    -7.031973    465.35884  0.032235996  0.032532956            2 
 1204000    1.0393601    -7.061961    465.85666  0.032243678   0.03252468            2 
 1205000    1.0578375   -7.1083488    466.02542  0.032228591  0.032516398            2 
 1206000    1.0594256   -7.0644613    467.89999  0.032331398  0.032508147            2 
 1207000    1.0781719   -7.0634405    466.54422  0.032211007  0.032499949            1 
 1208000    1.0457702   -7.0478677    467.33845  0.032239131  0.032491802            5 
 1209000    1.0778862   -6.9992517    469.30181  0.032347795  0.032483803            3 
 1210000    1.0310396   -7.0425094    469.65886  0.032345651  0.032476075            1 
 1211000    1.0595746   -7.0536684    469.25489  0.032291143  0.032468091            6 
 1212000    1.0446592   -7.0672134    467.64273  0.032153653  0.032459938            2 
 1213000    1.0710766   -7.0554815     469.2363  0.032236624  0.032451962            1 
 1214000    1.0780889   -7.0328419    469.54478  0.032231245  0.032444045            4 
 1215000    1.0321579    -7.065768    469.64304  0.032211457  0.032436303            1 
 1216000     1.068221   -7.0407549    470.87173   0.03226917  0.032428689            2 
 1217000    1.0771132    -7.057674    471.85299  0.032309846  0.032421016            2 
 1218000    1.0634312   -7.0742204    470.32856   0.03217902  0.032413206            3 
 1219000    1.0540274   -7.0383385    471.85389  0.032256897  0.032405475            2 
 1220000    1.0593049   -7.0348101    472.49081  0.032273963  0.032397867            2 
 1221000    1.0293155   -7.0801239    472.03039  0.032216106  0.032390319            4 
 1222000    1.0489275   -7.0277478    473.05437  0.032259572  0.032382958            3 
 1223000      1.06118   -7.0624817    473.19308  0.032242646  0.032375396            2 
 1224000    1.0834925   -7.0678663    472.94905   0.03219969  0.032367883            3 
 1225000    1.0461366   -7.0429717    474.89996   0.03230612  0.032360444            3 
 1226000    1.0327843   -7.0698412      473.374  0.032176047  0.032352883            4 
 1227000    1.0654866   -7.0586502    475.12488  0.032268737   0.03234518            1 
 1228000    1.0632584   -7.0684367    473.23358  0.032114114  0.032337365            1 
 1229000    1.0403902   -7.0616668     474.0401   0.03214267  0.032329664            1 
 1230000     1.046268   -7.0894236    473.88302  0.032105896  0.032322051            3 
 1231000    1.0521326   -7.0562167    476.87284  0.032282212  0.032314498            2 
 1232000      1.05297   -7.0529572    476.58137  0.032236294  0.032306969            3 
 1233000    1.0264312   -7.0603233    476.79222    0.0322244  0.032299262            1 
 1234000    1.0400979   -7.0706901    474.34069  0.032032731  0.032291466            3 
 1235000    1.0672602   -7.0583415    475.35487  0.032075228  0.032283725            2 
 1236000    1.0509627   -7.0817068    476.14335  0.032102437  0.032275929            6 
 1237000    1.0429473   -7.0586696    476.65403  0.032110888  0.032268304            1 
 1238000    1.0700655   -7.0576187    476.80833  0.032095337  0.032260332            2 
 1239000    1.0579142   -7.0545445    476.91723  0.032076758  0.032252534            2 
 1240000    1.0582961   -7.0659972     477.1335  0.032065423  0.032244717            3 
 1241000    1.0427663   -7.0467742     477.5251  0.032065881  0.032236929            2 
 1242000    1.0640265   -7.0407477    477.98121  0.032070666  0.032229042            1 
 1243000    1.0522735   -7.0920366    478.41205   0.03207375   0.03222114            2 
 1244000    1.0669382   -7.0533472    478.43497  0.032049502  0.032213244            2 
 1245000    1.0540936   -7.0640241    476.75841   0.03191154  0.032205206            3 
 1246000     1.052888   -7.0524817    478.49262  0.032001914  0.032197348            2 
 1247000    1.0602576   -7.0787325    478.18729  0.031955847  0.032189319            3 
 1248000    1.0502558   -7.0315621    479.88924  0.032043886  0.032181423            3 
 1249000    1.0447945   -7.0934302    479.08923  0.031964854  0.032173443            5 
 1250000    1.0515879   -7.0514452    477.68243  0.031845495  0.032165629            3 
 1251000     1.040813   -7.0509991    478.86982  0.031899135  0.032157633            3 
 1252000    1.0396443   -7.0823486    479.44978  0.031912259  0.032150012            2 
 1253000     1.061246   -7.0999091    480.69643  0.031969701  0.032142137            2 
 1254000    1.0371354   -7.0329128    481.38919  0.031990244  0.032134172            3 
 1255000      1.07835   -7.0834512    479.68746  0.031851757   0.03212636            2 
 1256000    1.0448579   -7.0669815    480.16613  0.031858156    0.0321183            2 
 1257000    1.0312816   -7.0941258    480.08891  0.031827692   0.03211042            2 
 1258000    1.0405872   -7.0901105    481.82399  0.031917329  0.032102491            2 
 1259000    1.0567249   -7.0876302    481.08696  0.031843193  0.032094515            2 
 1260000    1.0679967   -7.0627052    482.28872  0.031897402  0.032086543            2 
 1261000    1.0646485   -7.0392423    483.00219  0.031919256  0.032078916            2 
 1262000    1.0547528   -7.0739412    483.21168  0.031907797  0.032071152            4 
 1263000    1.0557959   -7.1070214    481.17781  0.031748338   0.03206338            2 
 1264000    1.0425234   -7.0860137    484.46994  0.031940265  0.032055865            2 
 1265000    1.0659108   -7.0907534    484.90379  0.031943596  0.032048315            1 
 1266000      1.04933   -7.0648355    485.03228  0.031926822  0.032040727            3 
 1267000    1.0281871   -7.0606416    484.91071  0.031893627  0.032033058            2 
 1268000    1.0461312   -7.0384278    486.16797  0.031951102  0.032025619            1 
 1269000    1.0679929   -7.0976927    485.76517  0.031899473  0.032018192            2 
 1270000    1.0325881   -7.0612482      484.895  0.031817257  0.032010703            2 
 1271000    1.0378415   -7.0257205    487.64705  0.031972663  0.032003311            2 
 1272000    1.0450777   -7.0626962    486.91247  0.031899402   0.03199593            4 
 1273000     1.027753    -7.079659    487.05199  0.031883477  0.031988427            2 
 1274000    1.0538396   -7.0647539    488.42154  0.031948034  0.031981053            1 
 1275000    1.0520786   -7.0785702    486.65167  0.031807299  0.031973579            2 
 1276000    1.0182327   -7.0563293    488.77497   0.03192104  0.031966183            6 
 1277000    1.0223353   -7.0515897    489.57666  0.031948359   0.03195901            4 
 1278000    1.0509988    -7.065414    490.24954  0.031967237  0.031951906            1 
 1279000    1.0472693   -7.0820846    488.82626  0.031849509   0.03194476            5 
 1280000    1.0448294   -7.0960738    488.28252  0.031789226  0.031937532            1 
 1281000    1.0438592   -7.0530032    489.94865  0.031872798  0.031930504            3 
 1282000    1.0427159   -7.0000328    491.70587   0.03196216  0.031923505            3 
 1283000    1.0604177     -7.07392    491.37502  0.031915758  0.031916632            1 
 1284000    1.0518054   -7.0968201    491.01061  0.031867251  0.031909542            2 
 1285000    1.0536402   -7.0660801    491.03509   0.03184404  0.031902441            3 
 1286000    1.0416014   -7.0842805    492.04627  0.031884802  0.031895151            1 
 1287000    1.0645549   -7.1089534     490.3244  0.031748537   0.03188789            4 
 1288000    1.0461372     -7.08072    490.49103  0.031734668  0.031880644            5 
 1289000    1.0458679   -7.0579233    492.84526  0.031862249  0.031873594            4 
 1290000    1.0431163   -7.0536564    493.82095  0.031900578  0.031866523            1 
 1291000    1.0454846   -7.0459459    493.79935  0.031874474  0.031859439            1 
 1292000    1.0524055   -7.0640773    491.59778  0.031707803  0.031852283            2 
 1293000    1.0674822   -7.0815159    493.93873  0.031834154  0.031845187            2 
 1294000     1.027239   -7.0651595    493.90831  0.031807593  0.031838065            3 
 1295000    1.0384353    -7.100267     493.7728  0.031774311  0.031830964            2 
 1296000    1.0528528   -7.0956699    493.53081  0.031734234  0.031823695            2 
 1297000    1.0215688    -7.078528    493.65538  0.031717771  0.031816542            4 
 1298000    1.0635028   -7.0724373    494.67218  0.031758614  0.031809236            2 
 1299000    1.0314759   -7.0791865    495.77385   0.03180484  0.031802011            4 
 1300000     1.043457   -7.0856976    494.59643  0.031704899  0.031794712            3 
 1301000    1.0452598   -7.0647865     494.7214  0.031688535   0.03178744            2 
 1302000    1.0502349   -7.0911008    495.32664  0.031702934  0.031779977            4 
 1303000    1.0582905    -7.042141    494.68283  0.031637429  0.031772398            1 
 1304000    1.0612039   -7.0910516     492.6775  0.031485014  0.031764783            2 
 1305000    1.0572947   -7.0558617    496.26606  0.031690042  0.031757169            2 
 1306000    1.0524649   -7.0420154    497.07338  0.031717291  0.031749655            1 
 1307000    1.0280058    -7.058946    496.47754  0.031655033    0.0317421            3 
 1308000    1.0534065   -7.0964481    497.48228  0.031694844   0.03173459            3 
 1309000    1.0658438   -7.0729875    496.33205  0.031597406  0.031726978            2 
 1310000    1.0376596   -7.0934409     496.2919  0.031570732  0.031719256            3 
 1311000    1.0329844   -7.0834298     497.6634  0.031633829  0.031711612            2 
 1312000    1.0477513   -7.0595977     497.5659  0.031603525    0.0317039            4 
 1313000    1.0298359   -7.0855151    497.05678  0.031547143  0.031696179            4 
 1314000    1.0722817   -7.0774278    495.85844  0.031447136   0.03168843            1 
 1315000     1.066825   -7.0480345    497.84528  0.031549131  0.031680733            2 
 1316000    1.0209971   -7.1137505    498.27375  0.031552289  0.031673066            3 
 1317000    1.0542558   -7.0696265    498.17588  0.031522138  0.031665398            2 
 1318000    1.0481608   -7.1436854    496.89096   0.03141698  0.031657581            3 
 1319000    1.0464784   -7.0660184    498.16589  0.031473711  0.031649771            1 
 1320000    1.0327687   -7.0789456    498.81263  0.031490696  0.031642012            1 
 1321000     1.037407   -7.0898893    499.19688  0.031491098  0.031634336            2 
 1322000    1.0285773   -7.0598965    499.64102  0.031495274  0.031626782            3 
 1323000    1.0268272   -7.0763711    499.99867  0.031493995  0.031619234            1 
 1324000    1.0408377    -7.118307    500.82044  0.031521931  0.031611757            3 
 1325000    1.0020929   -7.0704146    501.18569  0.031521112  0.031604181            1 
 1326000    1.0688703   -7.0757587    501.49564   0.03151682  0.031596565            1 
 1327000    1.0187324   -7.1040879    500.39834  0.031424161  0.031588945            1 
 1328000    1.0567552   -7.1052383    501.53067  0.031471553   0.03158148            2 
 1329000    1.0506182   -7.0792806    503.11137  0.031546988  0.031574138            2 
 1330000    1.0358036   -7.0981072    502.30791  0.031472926  0.031566767            2 
 1331000    1.0399442   -7.0734469    501.96738   0.03142796  0.031559434            4 
 1332000    1.0559497   -7.1114544    502.64882  0.031446998  0.031551935            4 
 1333000    1.0217316   -7.1024354    503.27112  0.031462311  0.031544423            2 
 1334000    1.0503507   -7.0875461    503.34694  0.031443462  0.031536891            4 
 1335000    1.0400056   -7.0811402    503.72017  0.031443207   0.03152941            6 
 1336000     1.039413   -7.0971788    503.59461  0.031411839  0.031521916            4 
 1337000    1.0137531   -7.1330889    502.63043  0.031328249  0.031514316            1 
 1338000    1.0533968   -7.1158961     503.3235  0.031348001  0.031506566            1 
 1339000    1.0180916   -7.0760914    503.63863  0.031344202  0.031498887            1 
 1340000    1.0347544   -7.1049629    504.75282  0.031390101  0.031491267            1 
 1341000    1.0466921   -7.1183667    502.94103  0.031254103  0.031483558            1 
 1342000    1.0240079   -7.1116465    504.58422  0.031332851  0.031475699            2 
 1343000    1.0574445   -7.1301699     502.5215  0.031181528   0.03146773            2 
 1344000    1.0296026   -7.0941736    504.76452  0.031297403  0.031459875            4 
 1345000    1.0163252   -7.0866446    504.32513   0.03124691  0.031452072            3 
 1346000    1.0296793   -7.0896598    507.24236  0.031404306  0.031444409            4 
 1347000    1.0491799   -7.1221089    505.74844   0.03128857  0.031436666            1 
 1348000    1.0336604    -7.101251    505.66489  0.031260193  0.031428843            1 
 1349000    1.0403164    -7.110398    505.14684  0.031205018  0.031421022            3 
 1350000    1.0557854   -7.0790425    506.67859  0.031276456  0.031413141            2 
 1351000    1.0524617   -7.1016598    507.36422  0.031295597  0.031405394            2 
 1352000     1.057187   -7.0759512    506.44332  0.031215688  0.031397671            3 
 1353000    1.0388883   -7.1395897    506.54841  0.031199089  0.031389846            1 
 1354000    1.0394452   -7.0930575    507.51918  0.031235794  0.031381972            5 
 1355000    1.0331988   -7.1220042    507.49961  0.031211538   0.03137417            2 
 1356000    1.0460955   -7.0811881    507.10836  0.031164476  0.031366421            2 
 1357000     1.027794   -7.1241362    507.15127  0.031144146  0.031358618            2 
 1358000    1.0301155   -7.0986322    508.61369  0.031210953  0.031350819            1 
 1359000    1.0281111   -7.0874206    508.58497  0.031186226  0.031343015            2 
 1360000    1.0247178   -7.0944618    510.17076  0.031260463  0.031335326            1 
 1361000    1.0296009   -7.0856398    510.81361  0.031276856  0.031327478            1 
 1362000    1.0518856   -7.0923351    508.28007  0.031098878  0.031319655            2 
 1363000    1.0105624   -7.0985567    508.67103  0.031099965  0.031311937            2 
 1364000    1.0166885     -7.11977    508.87593  0.031089683  0.031304198            1 
 1365000    1.0299205   -7.0972696    510.70759   0.03117873    0.0312964            1 
 1366000    1.0323962   -7.0930846    511.03752  0.031176032  0.031288731            3 
 1367000    1.0368819   -7.0986113    509.69494  0.031071381  0.031281113            6 
 1368000    1.0533347   -7.0856458    512.75964  0.031235358  0.031273528            2 
 1369000    1.0213907   -7.1062267    510.91558  0.031100291  0.031266011            1 
 1370000    1.0354967   -7.1374901    509.90824  0.031016316  0.031258269            2 
 1371000    1.0291062   -7.0893171    511.30721  0.031078727  0.031250414            5 
 1372000    1.0296533   -7.0698361    511.49789  0.031067656  0.031242518            1 
 1373000    1.0365849   -7.1101976      512.043  0.031078113  0.031234745            5 
 1374000    1.0566952   -7.1109312    511.61414  0.031029484  0.031227002            2 
 1375000    1.0165932   -7.1339698    511.04341  0.030972328  0.031219123            3 
 1376000    1.0340563   -7.1042172    513.63902  0.031107014  0.031211316            1 
 1377000     1.015105   -7.0967218    512.47309  0.031013864  0.031203561            2 
 1378000    1.0210987   -7.0834256    513.71318  0.031066351   0.03119586            1 
 1379000    1.0230485   -7.0812822    514.97294   0.03111995  0.031188102            1 
 1380000    1.0322016   -7.1162751    513.10609  0.030984667  0.031180369            5 
 1381000    1.0276532   -7.0747443    514.97839   0.03107521  0.031172701            3 
 1382000    1.0194587   -7.1159891    511.95931  0.030870677  0.031165054            2 
 1383000    1.0333377   -7.0965148    514.92351  0.031026965  0.031157306            1 
 1384000    1.0255836   -7.0974444     515.4687  0.031037373  0.031149813            1 
 1385000    1.0289273   -7.1118255    515.54004  0.031019256  0.031142166            2 
 1386000    1.0298125     -7.13558    514.35047  0.030925353  0.031134435            4 
 1387000    1.0267137   -7.1329356      515.445  0.030968817   0.03112666            1 
 1388000    1.0288252   -7.1266095    515.26102   0.03093546  0.031118959            2 
 1389000    1.0523296     -7.07716    517.34067  0.031037957  0.031111399            4 
 1390000    1.0191156   -7.1101459    516.72934  0.030978977  0.031103728            3 
 1391000    1.0258343   -7.0982903    517.90273  0.031027003  0.031096267            2 
 1392000   0.99336499   -7.1368057    517.67261  0.030990937  0.031088768            1 
 1393000    1.0386699   -7.0966494    518.82559  0.031037664  0.031081271            1 
 1394000    1.0352071   -7.1202683    520.32887  0.031105265  0.031073957            8 
 1395000    1.0189847   -7.0904764    519.40458  0.031027753  0.031066685            5 
 1396000    1.0138677   -7.1003673    518.78613  0.030968609  0.031059532            5 
 1397000    1.0520659   -7.0628204    519.50062  0.030989061  0.031052191            2 
 1398000    1.0411979   -7.1034063    519.47877  0.030965592  0.031044981            2 
 1399000    1.0107692   -7.1472074    520.78841  0.031021468  0.031037723            2 
 1400000    1.0227831   -7.1177049    520.02011  0.030953578  0.031030415            5 
 1401000    1.0141939   -7.1397541    521.64154  0.031027929  0.031023258            2 
 1402000    1.0376015   -7.1083794    520.88871   0.03096105  0.031016224            2 
 1403000    1.0244073   -7.0978056    523.25019  0.031079246   0.03100919            2 
 1404000    1.0145481   -7.1079171    522.04459  0.030985552  0.031002137            2 
 1405000      1.04308    -7.160564    521.50785  0.030931664  0.030995011            2 
 1406000    1.0441907   -7.1244195    520.61975  0.030857026  0.030987839            2 
 1407000    1.0332632   -7.1011254    524.05912  0.031038801  0.030980816            2 
 1408000    1.0142033   -7.1484427    523.02994  0.030955844  0.030973714            1 
 1409000    1.0209727   -7.1165127    523.56324  0.030965415  0.030966588            2 
 1410000    1.0119216   -7.0785188    524.38433  0.030991981  0.030959565            4 
 1411000    1.0441465   -7.1345816    522.54964  0.030861661  0.030952321            2 
 1412000    1.0341626   -7.1218604    523.63642  0.030903944  0.030945024            3 
 1413000    1.0187962   -7.0910795    523.87431  0.030896102  0.030937706            2 
 1414000    1.0127247   -7.1437142    523.45608  0.030849604  0.030930254            2 
 1415000    1.0315583    -7.112862    525.11621  0.030925572  0.030922899            2 
 1416000    1.0197729   -7.1263096    524.49093  0.030866933  0.030915679            3 
 1417000   0.99771955   -7.1213968    524.09477  0.030821852   0.03090836            4 
 1418000    1.0344083   -7.1355467    525.45219  0.030879889  0.030901117            3 
 1419000    1.0127967   -7.1109408    525.96688  0.030888354  0.030893935            3 
 1420000     1.011455    -7.103178    524.66598  0.030790257   0.03088675            2 
 1421000     1.042383   -7.0926519    525.41377  0.030812443  0.030879428            8 
 1422000    1.0127879   -7.1549804    524.75597  0.030752225  0.030872114            2 
 1423000    1.0436149   -7.1292196    524.47511  0.030714167  0.030864769            3 
 1424000     1.023157   -7.1213365    525.69934   0.03076424  0.030857377            3 
 1425000    1.0102707   -7.1331724    526.07647  0.030764706  0.030850031            3 
 1426000    1.0040731   -7.1431465    525.76912  0.030725171  0.030842685            2 
 1427000    1.0161519   -7.1178714     527.3948  0.030798575  0.030835271            1 
 1428000    1.0267874   -7.1342637    525.83333  0.030685886  0.030827887            3 
 1429000    1.0329702    -7.138841    526.19743  0.030685645  0.030820241            1 
 1430000    1.0309208   -7.1203347    527.53633   0.03074221  0.030812712            1 
 1431000    1.0352808   -7.1380163    527.44784  0.030715574  0.030805119            2 
 1432000    1.0315979    -7.155187    526.46303  0.030636815  0.030797526            2 
 1433000    1.0394196     -7.15831    526.37616  0.030610384  0.030789976            2 
 1434000     1.025134   -7.1378852    526.21558  0.030579706  0.030782379            2 
 1435000    1.0395647   -7.1470118    528.17493   0.03067218  0.030774858            2 
 1436000    1.0246042    -7.113588    528.30576  0.030658412  0.030767282            3 
 1437000    1.0352936   -7.0929969    529.80218  0.030723856  0.030759672            1 
 1438000   0.99949062   -7.1421627    528.52796  0.030628649  0.030752182            2 
 1439000    1.0334798   -7.1071339    529.83282  0.030682929  0.030744682            3 
 1440000    1.0161278   -7.1223786    528.26372  0.030570817  0.030737209            3 
 1441000    1.0386801   -7.1292107    530.87805   0.03070079  0.030729694            2 
 1442000    1.0043907   -7.1063164    529.25461   0.03058568  0.030722195            3 
 1443000    1.0242841   -7.1241897    530.42766  0.030632228  0.030714703            1 
 1444000    1.0143382   -7.1455331    529.77362   0.03057327  0.030707264            1 
 1445000    1.0204848   -7.1354312    530.77458  0.030609837   0.03069984            2 
 1446000    1.0407405    -7.136446    532.02159  0.030660534  0.030692475            2 
 1447000     1.010196   -7.1831914    531.08002   0.03058512  0.030684999            2 
 1448000     1.016386   -7.1582669    532.28003  0.030633059  0.030677634            2 
 1449000    1.0253403   -7.1188536    533.79529  0.030699062  0.030670344            2 
 1450000    1.0342388   -7.1407566    531.30106  0.030534544  0.030662952            2 
 1451000     1.021498   -7.1159252    532.94451  0.030607886  0.030655508            2 
 1452000    1.0320853   -7.1388776    532.37985  0.030554399  0.030647934            1 
 1453000     1.031981   -7.1439398    533.40422  0.030592121  0.030640418            2 
 1454000    1.0075908   -7.1112854    532.70468  0.030530988  0.030632946            3 
 1455000    1.0049235   -7.1411269    532.08356   0.03047443  0.030625303            3 
 1456000    1.0067867   -7.1369809    533.67861  0.030544792  0.030617762            2 
 1457000    1.0112414   -7.1370799    532.70178  0.030467958  0.030610197            2 
 1458000    1.0158496   -7.1201773    532.88891  0.030457757  0.030602659            2 
 1459000    1.0405825   -7.1281063     534.1799  0.030510618  0.030595106            4 
 1460000   0.99983976   -7.1078841    535.69882  0.030576417  0.030587707            1 
 1461000    1.0023586   -7.0891162    534.66189  0.030496343  0.030580307            4 
 1462000     1.012741   -7.1909912    532.58665  0.030357196  0.030572717            2 
 1463000    1.0221275   -7.1623456    534.66827  0.030455016  0.030565178            2 
 1464000    1.0285963   -7.1344845    535.67553  0.030491549  0.030557614            1 
 1465000    1.0248223   -7.1494436    533.43123  0.030343073  0.030550098            2 
 1466000    1.0150655   -7.1418322    535.38295  0.030433319   0.03054239            3 
 1467000    1.0391294   -7.1824917    534.38547  0.030355912  0.030534708            5 
 1468000     1.016639   -7.1311069    536.08544  0.030431735  0.030526955            1 
 1469000      1.05969   -7.1331185     535.3462  0.030369083  0.030519268            2 
 1470000    1.0318308   -7.1221884    535.91954  0.030380926  0.030511579            1 
 1471000    1.0138677   -7.0970736     536.7341  0.030406419   0.03050387            2 
 1472000   0.99514264   -7.1594548    536.31775  0.030362191  0.030496432            4 
 1473000    1.0231467    -7.150275     537.0868  0.030385087  0.030488947            2 
 1474000    1.0040183   -7.1598088     536.7515  0.030345517  0.030481474            2 
 1475000    1.0200758   -7.1500971     538.8143  0.030441486  0.030474012            1 
 1476000    1.0035997   -7.1436856    539.96753  0.030485972  0.030466591            2 
 1477000    1.0384262   -7.1393405    538.23089  0.030367349  0.030459083            3 
 1478000   0.99471616   -7.1288312    538.73671  0.030375322  0.030451699            3 
 1479000   0.99221638     -7.17948    536.52837  0.030230357  0.030444148            2 
 1480000    1.0313866   -7.1598442    537.41809  0.030260027  0.030436618            2 
 1481000   0.99483219   -7.1758802    537.72458  0.030256841  0.030429095            2 
 1482000    1.0218335   -7.1167575    539.61339  0.030342633  0.030421638            1 
 1483000    1.0248601   -7.1427515    539.32328  0.030305871  0.030414256            3 
 1484000   0.99118115   -7.1316369    540.53132  0.030353286  0.030406902            2 
 1485000    1.0128407   -7.1403836    541.43173  0.030383374  0.030399448            2 
 1486000    1.0211285   -7.1549128     539.8685  0.030275264  0.030391919            8 
 1487000    1.0179706   -7.1364423    541.60608   0.03035228  0.030384512            4 
 1488000    1.0112187    -7.111381    543.75171  0.030452045  0.030377197            2 
 1489000    1.0165635   -7.1212636    542.89871  0.030383855  0.030370001            3 
 1490000    1.0162715   -7.1331294    542.18514  0.030323554  0.030362607            3 
 1491000    1.0226753   -7.1771518    541.39777  0.030259209  0.030355144            2 
 1492000    1.0120774   -7.1502263    541.08235  0.030221311  0.030347632            3 
 1493000    1.0064088   -7.1550394    542.34261  0.030271412  0.030340116            2 
 1494000    1.0167559   -7.2081348    541.96276  0.030229962  0.030332574            6 
 1495000    1.0113834   -7.1679159    544.36733  0.030343775  0.030325179            2 
 1496000    1.0358723   -7.1309204    542.78962  0.030235607  0.030317645            3 
 1497000    1.0109561   -7.1390983    541.55368  0.030146609  0.030310158            3 
 1498000     1.012909    -7.163529    542.18299  0.030161492  0.030302462            2 
 1499000    1.0276386   -7.1142443    544.28801  0.030258395  0.030294994            1 
 1500000    1.0271413   -7.1300978    542.72603  0.030151446  0.030287389            3 
 1501000    1.0189755   -7.1605212    543.10226  0.030152246  0.030279667            2 
 1502000    1.0271645   -7.1505782    543.41589  0.030149572  0.030271929            3 
 1503000    1.0316967   -7.1564933    542.93883  0.030103062  0.030264187            2 
 1504000   0.98731801   -7.1883444    542.86077  0.030078722  0.030256485            4 
 1505000   0.99230255   -7.1598956    543.23626  0.030079527  0.030248575            2 
 1506000    1.0103817   -7.1397122     545.0692  0.030160978  0.030240887            2 
 1507000   0.99453307   -7.1659982    543.69897  0.030065194  0.030233158            5 
 1508000    1.0096462   -7.1577905    545.07516  0.030121306  0.030225469            5 
 1509000    1.0131346   -7.1546586    545.66957  0.030134171  0.030217798            1 
 1510000   0.99006522   -7.1593108    545.00002  0.030077264  0.030210138            2 
 1511000   0.97458145    -7.157635    545.18236  0.030067415  0.030202517            3 
 1512000    1.0494861   -7.1555802    545.81624  0.030082465  0.030194802            2 
 1513000   0.99730274   -7.1423172     545.9226   0.03006844  0.030187092            4 
 1514000   0.98993276   -7.1458591    544.71192  0.029981942  0.030179293            2 
 1515000    1.0104481   -7.1640075    545.14459  0.029985951  0.030171552            3 
 1516000    1.0194423   -7.1543267     545.4124  0.029980893   0.03016374            2 
 1517000    1.0317942   -7.1484974    547.25644  0.030062428  0.030156125            3 
 1518000   0.99516108   -7.1436143     546.2124   0.02998531  0.030148348            1 
 1519000     1.033548   -7.1458182     546.2143  0.029965674  0.030140475            1 
 1520000    1.0041269   -7.1557671    546.33432  0.029952539  0.030132692            2 
 1521000   0.99958433   -7.1643503    546.30648  0.029931322  0.030124813            4 
 1522000     1.001167   -7.1683553    547.54225  0.029979317  0.030116789            2 
 1523000    1.0029885   -7.1549084    545.92702  0.029871253  0.030108654            5 
 1524000    1.0042145   -7.1572283    547.46041  0.029935499  0.030100612            3 
 1525000    1.0295162   -7.1534916      547.742  0.029931257  0.030092708            2 
 1526000    1.0413607   -7.1672165    546.76243  0.029858149  0.030084784            2 
 1527000    1.0059061   -7.1650752    548.42223  0.029929177   0.03007667            2 
 1528000    1.0037121   -7.1515128    547.27788  0.029847179  0.030068738            1 
 1529000   0.98808673   -7.1761547    547.49387   0.02983943  0.030060636            2 
 1530000    1.0113051   -7.1843458    547.56469  0.029823785  0.030052547            1 
 1531000    1.0192103   -7.1567191    546.58159  0.029750794  0.030044472            2 
 1532000      1.03686   -7.1464171    549.71174   0.02990164  0.030036414            3 
 1533000    1.0052703    -7.155952    548.70287  0.029827292  0.030028398            4 
 1534000     1.002345   -7.1569861     547.3297  0.029733252  0.030020443            1 
 1535000    1.0067187   -7.1411921    549.80933  0.029848498  0.030012395            1 
 1536000    1.0167191   -7.1361454    550.21892  0.029851287  0.030004408            2 
 1537000    1.0011866   -7.1568652    549.87126  0.029813016  0.029996617            6 
 1538000    1.0396534   -7.1107449    552.12126  0.029915543   0.02998877            2 
 1539000   0.99844429   -7.1848305    550.12423   0.02978797  0.029980828            1 
 1540000      1.00057   -7.1762602    550.62778  0.029795876  0.029972879            2 
 1541000    1.0083875   -7.1638806    551.01029  0.029797225  0.029965027            3 
 1542000    1.0187872   -7.1727567    550.87945   0.02977083  0.029957179            3 
 1543000    1.0108001   -7.1519288    551.13233  0.029765194  0.029949366            3 
 1544000    1.0010427   -7.1762511    551.07054  0.029742581  0.029941451            2 
 1545000   0.99926443   -7.1713144    551.71468  0.029758074  0.029933521            2 
 1546000    1.0381138    -7.157718    553.92739  0.029858096  0.029925727            2 
 1547000    1.0245133   -7.1985357    551.47851   0.02970688  0.029917888            4 
 1548000    1.0132664   -7.1569192    553.66568  0.029805431  0.029910152            2 
 1549000   0.99767212   -7.1677293    553.94188  0.029801048  0.029902303            2 
 1550000   0.98866852   -7.1065367    555.89001   0.02988656  0.029894707            2 
 1551000    1.0055501   -7.1699474    553.88004  0.029759297  0.029887036            2 
 1552000    1.0147188   -7.1376587    553.81024  0.029736375  0.029879416            2 
 1553000    0.9926959   -7.1595959    555.17782  0.029790611  0.029871768            3 
 1554000   0.99011566   -7.1890296    553.60004  0.029686832  0.029864097            6 
 1555000    1.0082002    -7.161653    555.37633  0.029762933  0.029856418            2 
 1556000   0.99389258     -7.16605    554.64502  0.029704639    0.0298487            2 
 1557000    1.0020407   -7.1184997    555.55507  0.029734269   0.02984089            3 
 1558000    1.0144398   -7.1429876    556.94258  0.029789398  0.029833149            4 
 1559000    0.9924059   -7.1661679    555.73169  0.029705564   0.02982547            2 
 1560000    1.0138041    -7.180395    555.75304  0.029687662  0.029817859            3 
 1561000    1.0306924   -7.1464695    555.88134  0.029675493  0.029810248            3 
 1562000   0.98979047   -7.1806034      556.264   0.02967691  0.029802743            6 
 1563000   0.99339487   -7.1660514    557.16855   0.02970615  0.029795114            2 
 1564000    1.0027073      -7.1715    556.44247  0.029648469  0.029787472            3 
 1565000    1.0143693   -7.1554992    557.44557  0.029682937  0.029779857            2 
 1566000    1.0037348   -7.1630041    557.47659  0.029665634  0.029772207            2 
 1567000   0.99693619   -7.1484075    556.83905  0.029612798  0.029764626            2 
 1568000   0.99234524   -7.1502078    558.60659   0.02968785  0.029756923            3 
 1569000    1.0024662   -7.1780133    557.86134  0.029629347  0.029749453            1 
 1570000   0.98229992    -7.186658    558.59531  0.029649433  0.029741855            1 
 1571000   0.99538151   -7.1593084    558.92709  0.029648159  0.029734224            2 
 1572000    1.0154532   -7.1938121    556.28909  0.029489456  0.029726574            3 
 1573000    0.9941864   -7.1658309    558.65156  0.029595865  0.029718885            2 
 1574000   0.99574685   -7.1658955    559.76113  0.029635807  0.029711396            5 
 1575000    1.0095103   -7.1504146    558.91174   0.02957205  0.029703906            3 
 1576000    0.9746817   -7.1477134    560.42286  0.029633188  0.029696427            1 
 1577000    1.0152183   -7.1822781    561.87187  0.029690967  0.029688948            2 
 1578000    1.0100147   -7.1550785    562.48861  0.029704722  0.029681575            2 
 1579000   0.99459032   -7.2016845    561.05991  0.029610508  0.029674083            2 
 1580000   0.99384707   -7.2032332      561.685  0.029624736  0.029666706            3 
 1581000    1.0094394   -7.1731488    562.57455  0.029652886  0.029659332            3 
 1582000    1.0285917    -7.168129    561.46841  0.029575875   0.02965178            2 
 1583000   0.99388934    -7.165065    560.89697  0.029527109  0.029644291            3 
 1584000   0.99730731   -7.1949373    560.37462  0.029480988  0.029636715            3 
 1585000   0.99783313   -7.1440032    562.51876  0.029575119  0.029629339            3 
 1586000   0.99538567   -7.1804178     563.0628  0.029585057  0.029621923            1 
 1587000    1.0246161   -7.2129018    561.07585   0.02946208  0.029614358            2 
 1588000   0.97898889   -7.1734224     561.3324   0.02945699  0.029606782            2 
 1589000   0.97273527   -7.1727852    562.21959   0.02948498  0.029599255            2 
 1590000    1.0084473   -7.1632579    563.06846  0.029510925  0.029591745            3 
 1591000   0.98372933   -7.2128932    562.74571  0.029475472  0.029584191            3 
 1592000   0.98462611   -7.1631702    562.56366  0.029447428  0.029576577            3 
 1593000    1.0078132   -7.1959667    563.17787  0.029461073  0.029568879            1 
 1594000    1.0011255   -7.2051627    562.23893  0.029393503  0.029561297            2 
 1595000    1.0142811   -7.1691363     565.2023  0.029529901  0.029553702            2 
 1596000   0.97616385   -7.1944069    564.06752  0.029452147  0.029546179            2 
 1597000   0.99436706   -7.1742336    565.37765  0.029502069  0.029538754            2 
 1598000   0.97739382   -7.1928033    563.51277  0.029386356  0.029531265            2 
 1599000   0.98077606   -7.1901481    564.83843  0.029437066  0.029523615            1 
 1600000    1.0093613   -7.1871971    565.88226  0.029473034  0.029516088            2 
 1601000   0.99782039   -7.1785561    565.42766  0.029430963  0.029508598            2 
 1602000   0.99771108   -7.1662942    568.23016  0.029558373  0.029501299            4 
 1603000    0.9932172   -7.1881707    564.80499  0.029361873  0.029494014            1 
 1604000    0.9958495   -7.1774178    566.90476  0.029452658  0.029486465            3 
 1605000    1.0065472   -7.2078483    567.55277  0.029467953  0.029479073            2 
 1606000   0.99793919    -7.202748    566.08477  0.029373431  0.029471645            1 
 1607000   0.97201187   -7.1893127    568.00745  0.029454856  0.029464301            1 
 1608000   0.97249209   -7.1647995    568.51185  0.029462679  0.029456983            1 
 1609000    1.0061803     -7.17117    569.50992  0.029496059  0.029449613            1 
 1610000    1.0138664   -7.2161944    568.78299  0.029440114  0.029442195            3 
 1611000    0.9998345   -7.1938781    568.52643  0.029408568  0.029434829            4 
 1612000    0.9948196   -7.1939137    569.01236  0.029415444  0.029427586            2 
 1613000    1.0096839   -7.1885422    570.14137  0.029455537    0.0294204            6 
 1614000   0.98929678    -7.170925     570.7581   0.02946913  0.029413259            3 
 1615000    0.9837672   -7.2050118    568.81776  0.029350762  0.029406077            1 
 1616000    0.9984394   -7.1944051    570.43122  0.029415801  0.029398875            1 
 1617000   0.97922417   -7.1772911    570.75009  0.029414043  0.029391639            1 
 1618000   0.97846958    -7.140251    572.55891  0.029489025  0.029384387            4 
 1619000   0.99624093   -7.2120538    570.16158  0.029347415  0.029377293            1 
 1620000   0.97904837   -7.2015548    570.22518  0.029332571  0.029370132            1 
 1621000   0.99384397   -7.1739292    571.30522  0.029369999  0.029362978            3 
 1622000   0.98387181   -7.1512236    572.38693  0.029407467  0.029355853            2 
 1623000    0.9825604   -7.2189818    571.95005  0.029366916  0.029348602            4 
 1624000    1.0137421   -7.2008882    571.51698   0.02932661  0.029341397            1 
 1625000   0.99447712     -7.20573    571.16391  0.029290457  0.029334035            3 
 1626000   0.99129395   -7.1720532     571.6322  0.029296443   0.02932668            1 
 1627000   0.99415853   -7.2038139    572.16657  0.029305807  0.029319284            4 
 1628000    1.0347882   -7.1963365     573.3608  0.029348935  0.029311932            4 
 1629000   0.97570858   -7.1943618    571.94273  0.029258376  0.029304561            2 
 1630000   0.99477587   -7.2014442    571.53743  0.029219705  0.029297213            4 
 1631000    0.9888167   -7.1868514    573.66365  0.029310426  0.029289792            4 
 1632000    1.0167405   -7.1869206    574.09852  0.029314671  0.029282614            2 
 1633000    1.0133312   -7.1994178    575.22397  0.029354153  0.029275409            1 
 1634000   0.97267388   -7.1851642    574.26114  0.029287084  0.029268191            1 
 1635000   0.96548409   -7.1932286    575.42609  0.029328547  0.029261038            2 
 1636000   0.98333227   -7.2013929    576.32274  0.029356293  0.029253894            3 
 1637000    1.0088278   -7.1664695     573.7091   0.02920531  0.029246832            3 
 1638000    1.0026146    -7.167482    575.45354  0.029276228  0.029239789            4 
 1639000    1.0077806   -7.1799185    575.96694  0.029284469   0.02923277            2 
 1640000   0.95967877   -7.2387908    573.91757  0.029162478  0.029225682            2 
 1641000   0.98553598    -7.198107    575.84441  0.029242556  0.029218431            4 
 1642000   0.97510821   -7.2006258    576.14662  0.029240084  0.029211383            1 
 1643000    1.0072829   -7.1941192    576.92635  0.029261835  0.029204308            3 
 1644000    1.0164613   -7.1806035    578.23322  0.029310281  0.029197151            1 
 1645000   0.98960262   -7.1904816     576.7305  0.029216337  0.029190061            2 
 1646000    1.0031876   -7.1884163    577.20197  0.029222457  0.029182968            1 
 1647000    0.9907137   -7.1716643    578.05191  0.029247719  0.029176024            3 
 1648000   0.98788005   -7.2107848    577.08603   0.02918113  0.029168999            3 
 1649000     0.973582   -7.2070583    578.40277  0.029229976   0.02916189            1 
 1650000   0.98742764   -7.2232488    578.83927  0.029234306  0.029154805            3 
 1651000   0.99223893   -7.1888347    578.06516  0.029177527  0.029147732            2 
 1652000    0.9969859   -7.2016732    578.66998  0.029190374  0.029140667            2 
 1653000   0.97758191    -7.208004    579.70333   0.02922481  0.029133532            2 
 1654000   0.98391192   -7.1887312    578.83244  0.029163263  0.029126441            2 
 1655000   0.96792195   -7.2000255    579.50363  0.029179438  0.029119395            2 
 1656000   0.96322615   -7.1887554    579.44449  0.029158841  0.029112363            5 
 1657000    1.0047083   -7.2608446    579.97795  0.029168072  0.029105243            2 
 1658000   0.98938558   -7.2096161    581.13279  0.029208524  0.029098144            3 
 1659000   0.99212011   -7.1889903    581.66906  0.029217855  0.029091168            2 
 1660000   0.98044746   -7.1962987    581.58154   0.02919586  0.029084213            3 
 1661000   0.97639841   -7.2149025    580.92846  0.029145518  0.029077255            2 
 1662000   0.98312988   -7.2271152    580.62339  0.029112685  0.029070299            3 
 1663000   0.96969874   -7.1796028    582.40725  0.029184568  0.029063334            1 
 1664000   0.96985505   -7.2456296    581.79102  0.029136169  0.029056362            2 
 1665000   0.97492215   -7.1608133    581.36764   0.02909748  0.029049357            5 
 1666000   0.99991998   -7.2263272    582.60175  0.029141744  0.029042428            2 
 1667000    0.9943669   -7.2604074    582.91261  0.029139802  0.029035611            2 
 1668000   0.97018549   -7.2134561    582.88884  0.029121145  0.029028687            2 
 1669000   0.99287586    -7.193875    582.77056  0.029097791  0.029021698            4 
 1670000    1.0066482   -7.1892787    583.82319  0.029132894  0.029014817            3 
 1671000   0.97182676   -7.2233444    585.24379  0.029186305  0.029007902            3 
 1672000   0.99241583   -7.2070653    583.62424   0.02908813   0.02900088            2 
 1673000   0.98544611   -7.2342622    584.37145  0.029107962   0.02899395            2 
 1674000   0.97864806   -7.1784466    583.40804  0.029042615   0.02898704            4 
 1675000   0.97441487   -7.2129136     584.6881   0.02908896  0.028979997            1 
 1676000   0.96104599   -7.2368379    583.13778   0.02899452  0.028973098            1 
 1677000   0.96957241   -7.2015831    584.35825  0.029037878  0.028966203            2 
 1678000   0.97862821   -7.1774728    586.65127  0.029134449  0.028959263            2 
 1679000   0.96904933   -7.2162992    586.37083  0.029103178  0.028952412            1 
 1680000    0.9982551   -7.2206301    585.09918  0.029022777  0.028945464            2 
 1681000   0.96514165   -7.2087952    586.50219  0.029075064  0.028938608            1 
 1682000    0.9880823   -7.2192542    584.50282  0.028958721   0.02893175            1 
 1683000   0.98113222   -7.2442386    585.36026   0.02898397  0.028924638            2 
 1684000   0.98273739   -7.2255126     584.4056  0.028919517  0.028917616            2 
 1685000    1.0015403   -7.2274141    585.01957  0.028932719  0.028910513            4 
 1686000   0.98272755   -7.1832188    588.08273   0.02906696  0.028903588            1 
 1687000   0.93543855   -7.2106012    586.20595  0.028957022  0.028896615            1 
 1688000   0.99675374   -7.2189777    586.42439  0.028950651  0.028889578            3 
 1689000   0.96864478   -7.2304014    587.37372  0.028980349  0.028882551            1 
 1690000   0.99025487   -7.2214526    586.85235  0.028937493  0.028875498            2 
 1691000   0.97561115   -7.2032819    588.03245  0.028978536  0.028868631            2 
 1692000   0.99898535   -7.2392691    587.15759  0.028918321  0.028861737            3 
 1693000   0.97937543   -7.2186937    587.85613  0.028935624  0.028854746            2 
 1694000   0.97127304   -7.2270732    588.26439  0.028938626  0.028847867            2 
 1695000   0.96636371   -7.2092433     589.3604  0.028975438  0.028840963            2 
 1696000   0.99977327   -7.2180478    587.19194  0.028851805  0.028833991            3 
 1697000   0.98839228   -7.2133331    589.99662  0.028972531  0.028826981            3 
 1698000   0.97088875   -7.2173951    589.53773  0.028932947  0.028819933            2 
 1699000   0.97857229   -7.2412674    589.11877  0.028895368   0.02881292            2 
 1700000   0.99596849   -7.2273068    588.06572  0.028826751   0.02880582            7 
 1701000   0.98479782   -7.2110049    589.13103  0.028861994  0.028798756            2 
 1702000   0.96873759   -7.2158537    589.40767  0.028858582  0.028791723            4 
 1703000   0.99562959   -7.2225958    589.52209  0.028847235  0.028784777            4 
 1704000   0.98718144   -7.1878216    590.61814  0.028883907   0.02877779            4 
 1705000    1.0066247   -7.2285018    589.92859  0.028833264  0.028770757            2 
 1706000   0.96388978   -7.1808607    592.00246  0.028917666  0.028763641            2 
 1707000   0.98374065   -7.2345536    590.15953  0.028810756  0.028756502            5 
 1708000    1.0013922   -7.2374328    589.71038  0.028771974  0.028749262            2 
 1709000   0.99766601   -7.2384326    591.12518  0.028824126  0.028742057            1 
 1710000   0.94999108   -7.2226922    589.41308  0.028723834  0.028734764            4 
 1711000   0.99557393   -7.2240906    591.04131  0.028786349  0.028727603            2 
 1712000   0.97752621   -7.2219339    591.16802  0.028775702   0.02872057            4 
 1713000    0.9831852   -7.2365131    590.86201  0.028744017   0.02871345            2 
 1714000   0.96845053   -7.2076072    591.93987  0.028779651  0.028706446            3 
 1715000   0.99614511   -7.2151157    593.23217  0.028825664  0.028699469            3 
 1716000    0.9833884   -7.2310751    591.66208  0.028732618  0.028692447            2 
 1717000   0.97197072   -7.2121326    593.32718  0.028796699  0.028685508            2 
 1718000   0.99398344   -7.2013304    594.37272  0.028830652  0.028678634            2 
 1719000   0.98834029   -7.2341349    591.08266  0.028654385  0.028671726            3 
 1720000   0.98016862   -7.2226921    593.24655  0.028742565  0.028664595            1 
 1721000   0.95081679   -7.2568927    593.37007  0.028731845  0.028657536            4 
 1722000    0.9837455   -7.2617277    591.62377  0.028630651  0.028650373            2 
 1723000   0.96985046   -7.2123302    591.78019  0.028621599  0.028643166            2 
 1724000   0.97827919   -7.2433271     594.2332  0.028723569  0.028636062            2 
 1725000    0.9854928   -7.2128846    596.33313  0.028808364  0.028628992            2 
 1726000   0.96908986   -7.2306816    594.00734  0.028679381    0.0286219            4 
 1727000   0.97736315   -7.2143141    592.80246  0.028604635  0.028614813            1 
 1728000   0.96625357   -7.2200998    595.99285  0.028741939  0.028607719            2 
 1729000   0.97212575   -7.2383019    593.54728  0.028607446  0.028600722            2 
 1730000   0.97627161   -7.2228969    594.49007  0.028636323  0.028593696            2 
 1731000   0.97555673   -7.2188196    595.30176  0.028658856  0.028586655            2 
 1732000    0.9626226    -7.218156    594.92344  0.028624107  0.028579688            2 
 1733000   0.94669725   -7.1961082    597.74775    0.0287434  0.028572656            2 
 1734000   0.97359131   -7.2271408    596.22329  0.028653561  0.028565759            3 
 1735000    0.9947653   -7.2163132    596.67017   0.02865851  0.028558881            1 
 1736000   0.96426524   -7.2476977    596.33033  0.028625688  0.028551984            2 
 1737000   0.98342549   -7.2002311    594.28314  0.028510993  0.028545175            1 
 1738000   0.99955811   -7.2148878    597.27953  0.028638259  0.028538294            2 
 1739000   0.99665336   -7.2610139    595.67046  0.028544684  0.028531377            4 
 1740000   0.96458827   -7.2243086    597.23812  0.028603358   0.02852431            3 
 1741000   0.95462201   -7.2453996    596.67651  0.028560047  0.028517386            3 
 1742000   0.97654385   -7.2133426     597.5703  0.028586409  0.028510349            5 
 1743000   0.96760457   -7.2471695    597.41351  0.028562512  0.028503287            4 
 1744000   0.96829569   -7.2152591    598.38648  0.028592626  0.028496271            2 
 1745000   0.99074601   -7.2270533    598.78921  0.028595473   0.02848944            2 
 1746000   0.97648858   -7.2309787    598.04513  0.028543582   0.02848252            2 
 1747000   0.97009219   -7.2403391    598.80947  0.028563703  0.028475693            3 
 1748000   0.95736764   -7.2515878    597.82785  0.028500565  0.028468882            2 
 1749000   0.97808956   -7.2379654    599.13927  0.028546754  0.028461996            3 
 1750000    0.9883598   -7.2138751    600.07664  0.028575078  0.028455106            3 
 1751000   0.97818877   -7.2283785    600.35968  0.028572229  0.028448222            2 
 1752000   0.95802822   -7.2039605    601.10041  0.028591154  0.028441373            1 
 1753000   0.97580567   -7.2342531    600.48827  0.028545744  0.028434602            2 
 1754000   0.97066982   -7.1933724    602.18293  0.028609983  0.028427842            2 
 1755000   0.95428278   -7.1960578    603.52741  0.028657522   0.02842111            2 
 1756000   0.96585522   -7.2603484    600.23179  0.028484804  0.028414327            1 
 1757000   0.95823732   -7.2613004    602.07361  0.028555948  0.028407525            4 
 1758000   0.96051277    -7.281686    601.73559  0.028523682  0.028400669            2 
 1759000    0.9722941   -7.2756899    599.96494  0.028423581  0.028393776            2 
 1760000   0.97133593   -7.2323978    602.15114  0.028510944  0.028386916            5 
 1761000   0.96852412   -7.2217189    601.90912  0.028483301  0.028380128            2 
 1762000   0.98883133   -7.2622694    601.60927  0.028452955  0.028373278            2 
 1763000    0.9744779   -7.2457124    602.24098  0.028466675  0.028366442            1 
 1764000   0.96516206    -7.237231    603.05519  0.028489002  0.028359659            4 
 1765000   0.93348431   -7.2596474    602.86028  0.028463658  0.028352822            1 
 1766000   0.98853424   -7.2470158    603.11869  0.028459734  0.028345922            3 
 1767000   0.96442755   -7.2590979    603.45737  0.028459601  0.028339023            5 
 1768000   0.96901857   -7.2426444    601.71832  0.028361534  0.028332109            2 
 1769000    0.9637496   -7.2206527    605.30785  0.028514596  0.028325302            3 
 1770000   0.95824561   -7.2064922    604.52996  0.028461863  0.028318586            5 
 1771000    0.9406044   -7.2332411    605.17144  0.028475976  0.028311923            3 
 1772000   0.97175196   -7.2166064    605.13019  0.028457966  0.028305245            4 
 1773000    0.9650779   -7.2471185    604.38329   0.02840681  0.028298527            2 
 1774000   0.97079731   -7.2496467    604.63731   0.02840273  0.028291875            2 
 1775000   0.94139861   -7.2326825      605.319  0.028418732  0.028285117            1 
 1776000   0.96918409    -7.223104    606.50499   0.02845838  0.028278279            3 
 1777000   0.97301691    -7.239164    606.97666  0.028464484  0.028271543            2 
 1778000    0.9711148   -7.2290514    604.53196  0.028333894   0.02826471            2 
 1779000    0.9926471   -7.2477027    603.49336  0.028269316  0.028257884            3 
 1780000   0.95882946   -7.2391127    606.60965  0.028399328  0.028250996            3 
 1781000   0.96023538   -7.2488597    605.48583  0.028330799  0.028244169            3 
 1782000   0.96531348   -7.2460986    605.51092  0.028316074  0.028237188            3 
 1783000   0.97682802   -7.2393015    608.13199  0.028422695  0.028230343            3 
 1784000   0.96877641   -7.2355225    605.30744  0.028274824  0.028223394            2 
 1785000   0.96838293   -7.2774288    604.46351  0.028219585  0.028216339            4 
 1786000   0.95671812   -7.2196807    606.79423  0.028312534  0.028209311            3 
 1787000   0.94304682   -7.2490267     607.2477  0.028317837  0.028202475            1 
 1788000   0.97407616   -7.2583849     605.6643  0.028228202  0.028195462            2 
 1789000   0.94734056   -7.2577257    606.15754  0.028235399  0.028188345            2 
 1790000   0.96689497   -7.2628937    607.64045  0.028288662  0.028181263            3 
 1791000   0.96816762   -7.2049654    607.95269  0.028287395  0.028174193            2 
 1792000   0.97899315   -7.2565007     605.3078  0.028148614  0.028167035            6 
 1793000   0.96297068   -7.2412932    606.69198  0.028197248   0.02815995            2 
 1794000   0.97645592   -7.2134136    607.29743  0.028209654   0.02815288            2 
 1795000    0.9764462   -7.2554837    608.09207   0.02823083  0.028145855            2 
 1796000   0.96794523   -7.2400215    607.26096  0.028176548  0.028138685            2 
 1797000   0.98250179   -7.2486679    607.88107  0.028189625  0.028131573            3 
 1798000   0.93645607   -7.2525426    607.13102  0.028139183  0.028124421            4 
 1799000   0.95584684   -7.2811323    606.74868  0.028105831  0.028117225            3 
 1800000   0.96545425   -7.2195825    608.12107  0.028153753  0.028110081            3 
 1801000   0.97290765   -7.2575881    608.09094  0.028136727  0.028102943            3 
 1802000   0.96958593   -7.2635378    607.12418  0.028076405  0.028095782            3 
 1803000   0.99644663   -7.2797105     606.2556  0.028020688  0.028088577            2 
 1804000   0.98066738    -7.244571    607.66931   0.02807046  0.028081381            3 
 1805000   0.97554933   -7.2250935    608.45353  0.028091114  0.028074261            2 
 1806000   0.96110716   -7.2980099    606.63158  0.027991491  0.028067195            4 
 1807000   0.95238446    -7.259039    608.15552  0.028046279  0.028060021            3 
 1808000   0.96881081   -7.2361345    608.18493  0.028032122   0.02805293            3 
 1809000   0.96377962   -7.2811348     609.0857  0.028058122  0.028045783            5 
 1810000    0.9646756   -7.2648966    608.81777  0.028030284  0.028038637            1 
 1811000     0.947962    -7.255509    608.58721  0.028004197  0.028031465            3 
 1812000   0.97942937   -7.2700035    612.30869  0.028159892  0.028024347            2 
 1813000   0.96140621   -7.2503608    610.31383  0.028052667  0.028017208            1 
 1814000    0.9780597   -7.2500912    610.06133  0.028025603  0.028010074            3 
 1815000     0.936445   -7.2582241    611.37678  0.028070559  0.028002873            3 
 1816000   0.96705318   -7.2715182    607.85156  0.027893335  0.027995697            2 
 1817000   0.96135346   -7.2347672    611.88653   0.02806304   0.02798851            3 
 1818000   0.95433485   -7.2508898    611.81161   0.02804417  0.027981332            2 
 1819000   0.95157311    -7.296882    610.80472  0.027982624  0.027974187            2 
 1820000   0.97248855   -7.2435076    610.90205  0.027971705   0.02796706            2 
 1821000   0.95571235   -7.2923596    611.36864  0.027977697  0.027959908            3 
 1822000   0.96186087   -7.2286802    612.15094  0.027998122  0.027952854            2 
 1823000   0.95923768   -7.2896114    611.85348  0.027969166  0.027945884            2 
 1824000   0.95575823   -7.2243859    612.18394   0.02796893   0.02793876            4 
 1825000   0.96452634   -7.2378161    613.74378   0.02802483  0.027931706            4 
 1826000   0.96052806      -7.2806    613.69804  0.028007395  0.027924676            2 
 1827000   0.96866223   -7.2536478    612.94029  0.027957503  0.027917654            5 
 1828000   0.96688054   -7.2435453     613.1458  0.027951577  0.027910528            4 
 1829000   0.95823528   -7.2939889    611.51272  0.027861888  0.027903475            6 
 1830000   0.93363573    -7.245644    614.01389   0.02796056  0.027896423            4 
 1831000   0.97237818     -7.24741    613.82312  0.027936607  0.027889433            3 
 1832000   0.96408851   -7.3030008    613.43743  0.027903813  0.027882307            4 
 1833000   0.96306061   -7.2458283    614.86237  0.027953372  0.027875277            2 
 1834000   0.94257049   -7.2738337    614.82863  0.027936597  0.027868276            3 
 1835000   0.95670631   -7.2856386    613.63221   0.02786704  0.027861172            2 
 1836000   0.95960765   -7.2535513    615.32829  0.027928844  0.027854056            2 
 1837000   0.96633509   -7.2779108    614.16641  0.027860933   0.02784692            3 
 1838000   0.96025913   -7.2542927    615.81442  0.027920494  0.027839779            1 
 1839000   0.95858633   -7.2636302    615.41873  0.027887381  0.027832658            3 
 1840000   0.95657311   -7.2746256    615.48124  0.027875056  0.027825614            2 
 1841000   0.97707983     -7.26186    616.57499  0.027909424   0.02781857            4 
 1842000    0.9821925   -7.2726547     614.2275   0.02778807  0.027811505            3 
 1843000   0.94880503    -7.285639    616.57941  0.027879337  0.027804444            2 
 1844000   0.96778893   -7.2554828    616.79834  0.027874112  0.027797492            3 
 1845000   0.94442121   -7.2386505    615.32757  0.027792573  0.027790514            3 
 1846000   0.96400503   -7.2457717    616.52894  0.027831751  0.027783527            2 
 1847000   0.94828122   -7.2695078    616.42001  0.027811767  0.027776522            1 
 1848000   0.97649984   -7.2795661    617.03926  0.027824642  0.027769529            3 
 1849000   0.95997732   -7.2817201     615.3253  0.027732346  0.027762482            3 
 1850000   0.94612349   -7.2669334     617.6728  0.027823099  0.027755421            2 
 1851000   0.94110533   -7.2775526    618.71494  0.027854986  0.027748343            2 
 1852000   0.98030613   -7.2717929    616.82634  0.027754965  0.027741312            5 
 1853000   0.95599167   -7.2521961    617.55285  0.027772659   0.02773426            2 
 1854000    0.9614004   -7.2757703    617.28504  0.027745642  0.027727179            2 
 1855000   0.94613111   -7.2747647    617.64472  0.027746843  0.027720179            3 
 1856000   0.96397353   -7.3103479    618.15209  0.027754673  0.027713019            2 
 1857000   0.94966912   -7.2852612    617.75791  0.027722038  0.027705851            2 
 1858000   0.96064802   -7.3156677    617.96102  0.027716228  0.027698644            3 
 1859000   0.96370686   -7.2840579     616.0524  0.027615761  0.027691477            2 
 1860000   0.95306281   -7.2804694    620.12624  0.027783434  0.027684294            2 
 1861000   0.96302514   -7.2863273    620.93051  0.027804519  0.027677163            1 
 1862000   0.96145897   -7.2744383    620.21375  0.027757508  0.027670081            2 
 1863000   0.94279673   -7.2604334    618.43331  0.027662968  0.027663036            3 
 1864000   0.94826317   -7.2872414    619.59106  0.027699886  0.027655934            2 
 1865000   0.95282219   -7.2772127    618.56989  0.027639405  0.027648825            2 
 1866000   0.95313668   -7.3182935    618.37135  0.027615727    0.0276417            2 
 1867000   0.95983541   -7.2652845    622.22928  0.027773133  0.027634602            3 
 1868000    0.9324041   -7.2102884    622.24751  0.027759079  0.027627567            1 
 1869000   0.95487913   -7.2974829    621.07306  0.027691861  0.027620624            3 
 1870000   0.95466713   -7.2658485    622.41502  0.027736855  0.027613665            3 
 1871000   0.95397411   -7.3195135    620.07659  0.027617878  0.027606643            3 
 1872000   0.95444689   -7.2757998     620.9121  0.027640318  0.027599551            3 
 1873000   0.95389441   -7.2994992    621.07723  0.027632908  0.027592438            3 
 1874000   0.94688165   -7.2940557    621.92058  0.027655664  0.027585331            4 
 1875000   0.96254096   -7.3006561    621.02911  0.027601294  0.027578187            2 
 1876000   0.97174753   -7.2535283    620.06098  0.027543576  0.027571055            1 
 1877000   0.94911094   -7.2880937    620.45476  0.027546384  0.027563898            2 
 1878000   0.97306475   -7.2914487     621.4172  0.027574423  0.027556674            2 
 1879000   0.95123927   -7.2993229    620.67771  0.027526952  0.027549367            3 
 1880000   0.95503753   -7.3461253    621.27582  0.027538822  0.027542005            5 
 1881000   0.95435321   -7.3002799    620.75452  0.027501086  0.027534639            3 
 1882000   0.93814378   -7.3041337     622.3692   0.02755797  0.027527433            7 
 1883000   0.97091592   -7.2605766    621.46868  0.027503482  0.027520242            3 
 1884000   0.95880911   -7.2980207    623.61294  0.027583729  0.027513052            2 
 1885000   0.95953748   -7.2863085    621.92942  0.027494669  0.027505926            6 
 1886000   0.93306197   -7.2635226    624.86567   0.02760983  0.027498915            2 
 1887000    0.9516103   -7.2478261    623.10485  0.027517437  0.027491853            3 
 1888000   0.95038939   -7.2860447    624.41725  0.027560789   0.02748471            2 
 1889000   0.95359507   -7.2602291    623.80712  0.027519284  0.027477657            4 
 1890000   0.95097405   -7.3005358    625.07719  0.027560723  0.027470584            2 
 1891000    0.9381676   -7.2891569    624.26657  0.027510425  0.027463441            2 
 1892000   0.93784775   -7.2704394    626.06004  0.027574879   0.02745629            3 
 1893000   0.96490121   -7.2899313    623.88054  0.027464366  0.027449184            2 
 1894000   0.95552362   -7.2895904    622.98879   0.02741063  0.027442019            3 
 1895000   0.93486402   -7.2973405    625.62576  0.027512127  0.027434874            2 
 1896000   0.93938717   -7.2615074    624.57715  0.027451527  0.027427726            4 
 1897000   0.94366851   -7.2854646    626.24561   0.02751035  0.027420645            1 
 1898000   0.94856837   -7.2609849    627.05942  0.027531587  0.027413575            2 
 1899000   0.95697741    -7.285339    625.36016   0.02744252  0.027406609            2 
 1900000   0.94124346   -7.3016401      626.635  0.027483991  0.027399577            3 
 1901000   0.94726035   -7.2889392    626.99422  0.027485281  0.027392519            2 
 1902000   0.93871929   -7.3040265    626.85219  0.027464607  0.027385486            3 
 1903000    0.9638398   -7.3008942    628.03573  0.027502002  0.027378566            3 
 1904000   0.94380725   -7.3037865    626.22287  0.027408214  0.027371684            4 
 1905000    0.9636441   -7.3056866    627.83661  0.027464419  0.027364737            1 
 1906000   0.95188682    -7.277447    628.27895  0.027469349  0.027357849            4 
 1907000     0.945467   -7.2734055    628.22632  0.027452645  0.027350985            5 
 1908000   0.93828153   -7.2880214    627.78625  0.027419036   0.02734404            3 
 1909000   0.96007555   -7.3095745    627.47257   0.02739098  0.027337178            3 
 1910000   0.92913668   -7.2825495    628.87047   0.02743763  0.027330383            3 
 1911000      0.96127   -7.2976727    630.37117  0.027488713  0.027323573            3 
 1912000   0.95900337   -7.3048443     630.7332  0.027490115  0.027316705            4 
 1913000   0.95630715   -7.2567878    628.71881  0.027387995  0.027309812            4 
 1914000   0.93808862   -7.3137329    627.57103  0.027323712  0.027302893            5 
 1915000   0.93451533   -7.3004904    629.66776  0.027400686  0.027296025            2 
 1916000   0.95960457   -7.3089882    628.87802  0.027352036  0.027289081            3 
 1917000   0.94414507   -7.2869455    629.69788  0.027373408   0.02728222            2 
 1918000   0.93453197   -7.2738338    630.53717  0.027395602  0.027275266            2 
 1919000   0.94960039   -7.3095482    628.13796  0.027277139  0.027268301            5 
 1920000   0.94373434   -7.3076096    629.67517  0.027329652  0.027261258            2 
 1921000   0.90473985   -7.2959075    631.42886    0.0273915  0.027254348            3 
 1922000   0.94826098   -7.2701655    630.86902  0.027352975  0.027247589            1 
 1923000   0.94710418   -7.2343362    631.52251   0.02736707  0.027240846            4 
 1924000   0.94445963   -7.3091894    630.83192  0.027322935  0.027234086            4 
 1925000   0.93673468   -7.2699132    632.56017  0.027383557  0.027227305            2 
 1926000   0.93278488   -7.2984817    631.28747  0.027314273  0.027220347            2 
 1927000    0.9488295   -7.2875315     633.0141  0.027374766  0.027213496            7 
 1928000   0.94399874   -7.2674761    632.84185  0.027353123  0.027206644            2 
 1929000   0.94890904   -7.3004923    632.45279  0.027322135  0.027199768            8 
 1930000   0.95075105   -7.2992952    630.77789   0.02723566  0.027192876            2 
 1931000   0.95150534   -7.3106882    630.94545  0.027228787  0.027185962            2 
 1932000   0.92500961   -7.3179873    632.15204  0.027266737  0.027179038            2 
 1933000   0.93693031    -7.310435    632.75026  0.027278421  0.027172074            3 
 1934000   0.93751304   -7.3002007    633.15102  0.027281585  0.027165228            2 
 1935000   0.93038819   -7.3050775    633.69758  0.027291024  0.027158369            3 
 1936000   0.94322095   -7.2892163    634.20558  0.027298794  0.027151567            4 
 1937000   0.96998835   -7.2952111    633.86914  0.027270226  0.027144786            2 
 1938000   0.94483053   -7.2914532    634.91626  0.027301181  0.027137997            2 
 1939000   0.92883593   -7.2849101    634.78311  0.027281378  0.027131105            2 
 1940000    0.9260642   -7.2853456    635.06786  0.027279547  0.027124288            2 
 1941000   0.92859661    -7.274318     634.6107  0.027245865  0.027117459            3 
 1942000   0.95279958   -7.3041168    635.17864  0.027256207  0.027110636            2 
 1943000   0.90932814   -7.3276519    632.75585  0.027138268  0.027103724            4 
 1944000   0.95076893   -7.2819249    634.31327   0.02719107   0.02709684            4 
 1945000     0.943106   -7.3357987    634.61065  0.027189831  0.027089989            5 
 1946000   0.92438705   -7.3324079    633.76457  0.027139627  0.027083094            2 
 1947000   0.95531733   -7.2827704    634.93618  0.027175834  0.027076204            3 
 1948000   0.93173688   -7.3323048    636.19339  0.027215665  0.027069372            1 
 1949000   0.96722403   -7.2929047     636.9464  0.027233898  0.027062601            2 
 1950000   0.94412861   -7.3281358    636.45779  0.027199051  0.027055778            4 
 1951000   0.95126097   -7.2990462    635.94115  0.027163042  0.027048963            3 
 1952000   0.94496951   -7.3222689    633.56941  0.027047874  0.027042135            2 
 1953000   0.94199243   -7.3006967    637.03352  0.027181837  0.027035332            5 
 1954000   0.94258734   -7.2958587    637.06678  0.027169344  0.027028552            2 
 1955000   0.92911114   -7.3217245    635.75861  0.027099685  0.027021762            2 
 1956000   0.95476989    -7.314903    638.85526   0.02721776  0.027014919            4 
 1957000   0.90885732   -7.3341432    636.83173  0.027117686  0.027008137            3 
 1958000   0.96057786   -7.3178043    636.97289  0.027109844  0.027001327            4 
 1959000   0.93731728   -7.3121188    638.64118  0.027166972  0.026994516            2 
 1960000   0.93696335    -7.289999    638.11677  0.027130815  0.026987828            7 
 1961000   0.94565203   -7.2924095    638.55026  0.027135401  0.026981091            8 
 1962000   0.92627741   -7.2691025     640.8826  0.027220634  0.026974386            3 
 1963000   0.94061222   -7.2996852    637.74872  0.027073727  0.026967711            1 
 1964000    0.9498948   -7.3104679    638.67287  0.027099154  0.026961031            6 
 1965000   0.95329676   -7.2431713    641.06071  0.027186629   0.02695433            4 
 1966000   0.92737296   -7.3236759     639.8947  0.027123377  0.026947536            3 
 1967000   0.94584726   -7.2709743    639.41685  0.027089343  0.026940786            2 
 1968000    0.9483803   -7.3221277    638.56689  0.027039587  0.026933992            3 
 1969000   0.93373523   -7.2920867    639.27245  0.027055716  0.026927133            3 
 1970000   0.92569169   -7.3521402    641.04861  0.027117115  0.026920293            4 
 1971000   0.91704396   -7.2979134    639.87504  0.027053739  0.026913344            5 
 1972000   0.93258803   -7.2996706    639.03888  0.027004686  0.026906483            3 
 1973000   0.93834715   -7.2888398    640.27567  0.027043236  0.026899525            2 
 1974000    0.9241811    -7.334503    638.13732  0.026939265  0.026892606            3 
 1975000   0.92007391   -7.3128689    639.90841  0.027000355  0.026885708            3 
 1976000   0.93074984   -7.2955513    637.22081  0.026873347  0.026878748            3 
 1977000   0.91666886   -7.2993857     640.2776  0.026988602  0.026871733            2 
 1978000   0.94667585   -7.3249111    637.20052   0.02684532  0.026864691            2 
 1979000    0.9348325   -7.3476602    638.85799  0.026901549  0.026857567            2 
 1980000   0.94430369   -7.3517765    637.49761  0.026830707  0.026850531            2 
 1981000     0.941197   -7.3085766    639.91506  0.026918857  0.026843499            5 
 1982000    0.9469363   -7.2879641    639.40071  0.026883649  0.026836469            2 
 1983000   0.93165338   -7.2947674    640.15039  0.026901597  0.026829404            2 
 1984000   0.95185662   -7.3605046     637.7903  0.026788907  0.026822328            3 
 1985000   0.93699212   -7.3100921    640.58645  0.026892798  0.026815238            2 
 1986000    0.9239311   -7.3105118    639.68331  0.026841361  0.026808127            2 
 1987000   0.93930197   -7.3424413    639.83461  0.026834198  0.026801072            1 
 1988000   0.93585244   -7.3508304    639.98265  0.026826905  0.026793977            3 
 1989000   0.93521401   -7.3154211    640.56468  0.026837803  0.026786881            1 
 1990000   0.92303762   -7.3024493      641.178      0.02685  0.026779763            2 
 1991000   0.94670393    -7.327911    639.61688  0.026771174  0.026772664            2 
 1992000   0.93931801   -7.3002321    640.37964  0.026789644  0.026765512            2 
 1993000   0.93749335   -7.3120337     640.8027  0.026793891  0.026758379            1 
 1994000   0.92531788   -7.3316193    641.62658  0.026814885  0.026751346            4 
 1995000   0.93576029   -7.3555195    641.36952  0.026790707  0.026744286            2 
 1996000   0.94434929   -7.3349703    642.47045  0.026823249  0.026737222            2 
 1997000   0.93567325   -7.3475835    642.61733  0.026815946  0.026730202            3 
 1998000   0.93885699   -7.3529037    641.04282  0.026736854  0.026723096            2 
 1999000   0.93519734   -7.3312476    641.86556  0.026757777  0.026716018            4 
 2000000   0.93550062   -7.3165248    642.64585   0.02677691  0.026709018            3 
 2001000   0.92149703   -7.3178585    641.86538  0.026731025  0.026702028            3 
 2002000   0.91906596   -7.3120706    644.70939  0.026836055  0.026695108            2 
 2003000    0.9355782   -7.3411616    643.71771  0.026781399  0.026688216            2 
 2004000   0.93388765   -7.3499626    642.96909  0.026736905  0.026681173            3 
 2005000   0.94814463   -7.3175872    644.32795  0.026780048  0.026674258            4 
 2006000   0.94381317   -7.3096383    645.47263   0.02681425  0.026667388            3 
 2007000   0.93975761   -7.3191229    645.64128  0.026807892  0.026660517            3 
 2008000   0.92949836   -7.3009239    645.36322  0.026783002  0.026653643            2 
 2009000   0.92307092   -7.2850919    645.93528    0.0267934  0.026646828            2 
 2010000    0.9348292   -7.2909261    646.08054  0.026786092  0.026639945            3 
 2011000   0.94207339   -7.3155083     644.0073   0.02668686  0.026633056            2 
 2012000   0.92231222   -7.3062788    646.00285  0.026756248  0.026626178            2 
 2013000   0.91432141   -7.3291541    646.76983  0.026774707   0.02661933            5 
 2014000   0.93327075   -7.3422285     643.6895  0.026633958  0.026612383            3 
 2015000   0.92974388   -7.3648433    643.07121   0.02659517    0.0266054            3 
 2016000   0.90942672   -7.3024981    647.12386  0.026749498  0.026598436            3 
 2017000   0.96658205   -7.3121064     647.7527  0.026762217  0.026591599            1 
 2018000   0.91397765   -7.3267671    644.39036  0.026610107  0.026584717            3 
 2019000   0.92841388   -7.3217043    646.10466  0.026667684  0.026577861            5 
 2020000   0.92741408   -7.3019514    647.67444  0.026719243  0.026571009            3 
 2021000   0.93616068   -7.3123892    647.37327  0.026693603  0.026564248            3 
 2022000   0.93704656   -7.3431557    646.94559  0.026662776  0.026557329            2 
 2023000   0.92806566   -7.3062275    648.03034   0.02669428  0.026550433            3 
 2024000   0.92419117   -7.3095839    647.28916  0.026650575   0.02654349            8 
 2025000   0.92309198    -7.336315    645.33069  0.026556818  0.026536499            2 
 2026000   0.93121901    -7.348985    646.24008  0.026581115  0.026529531            2 
 2027000   0.93082516   -7.3036271    645.71758  0.026546521   0.02652255            2 
 2028000   0.93243032   -7.3408661    645.77296  0.026535707  0.026515525            3 
 2029000   0.93874724    -7.335307    647.33586  0.026586819  0.026508443            3 
 2030000   0.92618969   -7.3296134    647.50337  0.026580598  0.026501479            3 
 2031000   0.93267931   -7.3274613    647.87237  0.026582651  0.026494529            5 
 2032000   0.92867161   -7.2959002    648.24379  0.026584801  0.026487615            5 
 2033000   0.90500929   -7.3643474    648.78643  0.026593967  0.026480737            1 
 2034000   0.94105808   -7.3576139    648.29385  0.026560712  0.026473787            3 
 2035000   0.92143888   -7.3510382    647.61019  0.026519664  0.026466878            3 
 2036000   0.90989971   -7.3470556    648.38082   0.02653818  0.026460005            2 
 2037000   0.92505204   -7.3178538    647.01259  0.026469178  0.026453025            2 
 2038000   0.93335215   -7.3454413    648.28046  0.026508033  0.026446065            2 
 2039000   0.93129361   -7.3378492    648.78037  0.026515464  0.026439029            2 
 2040000   0.93283289   -7.3416609    648.51811  0.026491753  0.026432052            4 
 2041000   0.92972755    -7.342218    647.85233   0.02645159  0.026425057            2 
 2042000   0.90450372   -7.3475206    649.11637  0.026490221  0.026418106            5 
 2043000   0.92726878   -7.3117292    647.98787  0.026431223  0.026411089            3 
 2044000   0.92133455   -7.3631476    648.80259  0.026451508  0.026404025            3 
 2045000   0.93671608   -7.3268622    648.95459  0.026444767  0.026397001            4 
 2046000   0.92029422   -7.2819964    648.07107  0.026395857  0.026389942            3 
 2047000   0.92773373   -7.3489172    649.82928  0.026454538  0.026382958            2 
 2048000   0.93245207   -7.3151767    649.94053  0.026446148  0.026375944            3 
 2049000   0.88921498   -7.3435728    650.08036  0.026438928  0.026368865            3 
 2050000   0.91375001    -7.332524    648.66119  0.026368341  0.026361783            4 
 2051000   0.90943545   -7.3387713    650.14629  0.026415825  0.026354635            4 
 2052000   0.93065651   -7.3316053    648.28538  0.026327379   0.02634741            3 
 2053000   0.92630161   -7.3510498    650.29476  0.026396118  0.026340264            5 
 2054000   0.94085029   -7.3708791    648.07973    0.0262934  0.026333074            2 
 2055000    0.9223725    -7.305705    651.16893  0.026405877  0.026325916            3 
 2056000   0.94241675   -7.3509582    651.43398  0.026403777  0.026318824            5 
 2057000   0.90911279   -7.3605666    649.37777  0.026307639  0.026311663            5 
 2058000   0.93266134   -7.3443626    647.85508  0.026233199  0.026304529            3 
 2059000    0.9203566   -7.3236728    651.48062  0.026367194  0.026297523            3 
 2060000   0.90023753   -7.3251358    653.05042  0.026417897  0.026290573            2 
 2061000   0.93108735   -7.3267487    650.70143  0.026310102  0.026283572            1 
 2062000   0.92712781   -7.3475126    651.66818  0.026336412   0.02627653            4 
 2063000    0.8915747   -7.3405942    650.28418  0.026267741  0.026269474            5 
 2064000   0.91170128   -7.3350899      651.871  0.026319081  0.026262468            2 
 2065000   0.90099023   -7.3547453    652.39556  0.026327504  0.026255441            3 
 2066000   0.91977501   -7.3619064     650.9492  0.026256422  0.026248427            1 
 2067000   0.89154484   -7.3474008    651.35696  0.026260158  0.026241392            3 
 2068000   0.92948769   -7.3373022     653.4778  0.026332922  0.026234262            3 
 2069000   0.92148344   -7.3383005    652.31517  0.026273368  0.026227173            3 
 2070000   0.91153922    -7.343334    653.96393   0.02632705  0.026220015            2 
 2071000   0.92525172   -7.3110001    654.34279  0.026329583  0.026212951            2 
 2072000   0.92090438   -7.3022881    653.38875  0.026278505  0.026205897            5 
 2073000    0.9178922   -7.3162954    655.29246  0.026342357   0.02619883            3 
 2074000   0.92908634   -7.3464544    653.18747  0.026245077  0.026191682            2 
 2075000    0.9204508   -7.3729619    651.91597  0.026181364  0.026184608            3 
 2076000    0.9417304   -7.3954007    652.20399  0.026180314  0.026177527            4 
 2077000   0.93824791   -7.3837403    653.22354  0.026208616  0.026170397            2 
 2078000    0.9084516   -7.3582415    653.11909  0.026191815  0.026163258            5 
 2079000   0.89834598   -7.3498374    655.82884  0.026287832  0.026156171            2 
 2080000   0.89786444   -7.3512334    653.81867  0.026194658  0.026149077            3 
 2081000   0.91798725   -7.3185494    655.62956  0.026254588  0.026142092            3 
 2082000   0.91481248   -7.3707291    653.31987   0.02614953  0.026135088            2 
 2083000   0.93854663   -7.3544957    653.02779  0.026125292  0.026127965            3 
 2084000   0.90913562   -7.3580898    653.07478  0.026114634  0.026120855            5 
 2085000   0.92454043   -7.3448545    654.55617  0.026161318   0.02611371            3 
 2086000   0.93184562   -7.3524462    655.35482  0.026180681  0.026106594            3 
 2087000   0.91459731   -7.3319442    655.19741  0.026161852  0.026099495            2 
 2088000   0.90384929    -7.339215     653.9889   0.02610109  0.026092463            3 
 2089000   0.93491092   -7.3784882    655.10531   0.02613313  0.026085374            3 
 2090000   0.89929154   -7.3562001    654.76627  0.026107108  0.026078275            3 
 2091000   0.92895271   -7.3949176    652.62333  0.026009219  0.026071056            2 
 2092000   0.92727209   -7.3910683    652.21384  0.025980475  0.026063783            3 
 2093000   0.90294049    -7.375323    653.60981  0.026023643  0.026056442            2 
 2094000   0.94566797   -7.3231017    654.62741  0.026051712  0.026049229            4 
 2095000   0.92222827   -7.3475818    653.74806  0.026004298  0.026041987            1 
 2096000   0.92568383   -7.3403662    654.37514  0.026016823  0.026034736            2 
 2097000   0.90617678   -7.3665274    653.96981  0.025988309  0.026027517            3 
 2098000   0.91953213   -7.3498026     653.7669  0.025967862  0.026020296            4 
 2099000   0.89722734   -7.3670427    656.20602  0.026052327  0.026013163            3 
 2100000    0.9116502   -7.3715387    656.24556  0.026041491  0.026005991            4 
 2101000   0.92164441   -7.3904026    656.43875  0.026036758  0.025998851            4 
 2102000   0.92671659   -7.3640022     656.3788  0.026021995  0.025991751            4 
 2103000   0.90871854   -7.3237127    655.07807  0.025958079  0.025984644            2 
 2104000   0.91536926   -7.3713736    656.58606  0.026005468  0.025977501            4 
 2105000   0.89554905   -7.3340535    656.59878  0.025993618  0.025970273            4 
 2106000    0.9268753   -7.3432549    657.19392  0.026004824  0.025963108            4 
 2107000   0.91997357   -7.3747987    656.37298  0.025960013  0.025955968            3 
 2108000    0.9176883   -7.3595387    658.03481  0.026013394  0.025948845            4 
 2109000   0.91488255   -7.3848988    657.32325  0.025972943  0.025941675            9 
 2110000   0.91695139   -7.3479342    658.27309  0.025998147  0.025934515            3 
 2111000   0.90306141    -7.365594    656.13787  0.025901542  0.025927382            3 
 2112000    0.9046145   -7.3830603    658.44543  0.025980328  0.025920227            2 
 2113000   0.92669023   -7.3328126    656.97979   0.02591023  0.025913059            2 
 2114000   0.92571284   -7.3825177    658.12368  0.025943065  0.025905871            1 
 2115000   0.89955153   -7.3436332    656.83841  0.025880158  0.025898652            5 
 2116000   0.88938373   -7.3740864    655.92733  0.025832047  0.025891449            2 
 2117000    0.8913313   -7.3743754    657.98228  0.025900735  0.025884291            2 
 2118000   0.92604894   -7.3862294    658.02602  0.025890228  0.025877149            1 
 2119000   0.94782923   -7.3666515    656.87309  0.025832668  0.025869994            2 
 2120000   0.91482441   -7.3883573    657.31331  0.025837787  0.025862773            3 
 2121000    0.9075884   -7.3604014    658.72222  0.025880961  0.025855571            2 
 2122000   0.90578666   -7.3840483    657.67872  0.025827785  0.025848324            3 
 2123000   0.90957671   -7.3760423    658.32799  0.025841105  0.025841165            2 
 2124000    0.9159099   -7.3573735    660.11177  0.025898924  0.025834031            4 
 2125000   0.89697817   -7.3410396    658.85587  0.025837485   0.02582695            3 
 2126000   0.90939125   -7.3146041      658.709  0.025819575  0.025819865            4 
 2127000   0.92006276   -7.3829915    658.62546  0.025804163  0.025812742            4 
 2128000   0.89649161   -7.3626594    657.35925  0.025742452   0.02580555            3 
 2129000   0.92002015   -7.3538109    658.88553  0.025790102  0.025798357            6 
 2130000   0.89949599   -7.3879408    658.43012  0.025760177  0.025791119            2 
 2131000   0.91304768   -7.3510781    660.95205  0.025846709  0.025783803            3 
 2132000   0.91844962   -7.3388245     659.8661   0.02579214  0.025776576            3 
 2133000   0.91148517   -7.3613529    658.11577  0.025711665  0.025769364            2 
 2134000   0.91579168   -7.3807386    658.68479  0.025721836  0.025762124            6 
 2135000   0.91485909   -7.4010368    658.09482  0.025686761  0.025754841            4 
 2136000   0.92277687   -7.3416241    661.79327  0.025819026  0.025747555            3 
 2137000   0.90487711   -7.3592417    659.90206  0.025733195  0.025740341            2 
 2138000   0.92211019    -7.339381    659.93027  0.025722259  0.025733115            5 
 2139000   0.91923766   -7.3759222    659.70062  0.025701286  0.025725833            5 
 2140000   0.91825385   -7.3737715    660.76515   0.02573073  0.025718533            2 
 2141000    0.9226722   -7.3506874    659.31617  0.025662314  0.025711282            1 
 2142000   0.91208659   -7.3566907    660.71227  0.025704648  0.025704027            3 
 2143000   0.92303585   -7.3814281    659.63554  0.025650783  0.025696799            4 
 2144000   0.89602692   -7.4182727      658.763  0.025604905  0.025689479            3 
 2145000   0.89371017   -7.4007588    659.32672  0.025614869  0.025682183            2 
 2146000   0.88678352   -7.3628975    659.82968  0.025622464  0.025674865            7 
 2147000   0.89668314   -7.3546357    660.18277  0.025624234  0.025667564            3 
 2148000   0.91859667   -7.3535236    661.91559  0.025679531  0.025660278            2 
 2149000   0.90635932   -7.3771033    660.13754  0.025598633  0.025653053            7 
 2150000   0.91273537   -7.3486999     662.2414  0.025668271  0.025645869            4 
 2151000    0.9182977    -7.362423    660.71184  0.025597081  0.025638636            3 
 2152000    0.9088198   -7.3935548    660.87836  0.025591634  0.025631419            2 
 2153000   0.91315501   -7.3532083     663.0362  0.025663268  0.025624192            3 
 2154000   0.92419514   -7.3514406     663.1873    0.0256572  0.025617042            3 
 2155000    0.9114479   -7.3757645    661.89739  0.025595413  0.025609762            4 
 2156000   0.88537065   -7.3601725    662.41397  0.025603508  0.025602566            2 
 2157000   0.90027722   -7.3994519    661.05227  0.025539031  0.025595287            3 
 2158000   0.89501017   -7.3981399    662.98526   0.02560184  0.025588055            2 
 2159000   0.92074536   -7.4241185      662.209   0.02556002  0.025580825            3 
 2160000   0.92488327   -7.3551754    664.67744   0.02564342  0.025573675            2 
 2161000   0.90369726   -7.3584726    664.17239  0.025612077  0.025566497            2 
 2162000   0.91662384   -7.3496448    665.99185  0.025670361  0.025559349            3 
 2163000   0.91168797   -7.3563136    663.66439  0.025568824  0.025552241            2 
 2164000   0.90135691   -7.3878061    661.77405  0.025484213  0.025545087            3 
 2165000   0.91762228   -7.3623612     664.5395  0.025578888   0.02553794            4 
 2166000   0.92461296   -7.3691347    662.80667   0.02550041  0.025530788            1 
 2167000   0.89460787   -7.3690138    664.96283  0.025571559  0.025523674            2 
 2168000   0.88777195   -7.3658357    666.55923  0.025621127  0.025516541            2 
 2169000   0.90720002   -7.3665712    664.74437  0.025539587  0.025509456            4 
 2170000   0.92055834   -7.3596282    665.93417  0.025573509  0.025502316            2 
 2171000   0.90617548   -7.3777707    666.26499  0.025574428  0.025495224            4 
 2172000   0.91895086   -7.3747547    666.10238  0.025556414  0.025488103            3 
 2173000   0.91817184   -7.3942524    664.04133  0.025465613   0.02548103            2 
 2174000   0.90555049    -7.363479    665.66436  0.025516113  0.025473897            2 
 2175000   0.90585052   -7.3950667    665.41501  0.025494828  0.025466784            4 
 2176000   0.89127396   -7.3901946    665.35643  0.025480868  0.025459667            6 
 2177000   0.89018758   -7.3642934    666.01596   0.02549441  0.025452543            4 
 2178000   0.91494483     -7.36623    665.75972    0.0254729   0.02544549            2 
 2179000   0.90628983   -7.3832127    667.66035  0.025533897  0.025438432            3 
 2180000   0.91166492   -7.3877892    666.49407  0.025477602  0.025431297            4 
 2181000   0.90588132   -7.3846687    666.98082  0.025484518  0.025424172            3 
 2182000   0.88914395   -7.3815301    666.49783  0.025454393  0.025417067            3 
 2183000   0.89608407    -7.391623    665.94012  0.025421443  0.025409867            5 
 2184000   0.91638837   -7.3907352    665.20927  0.025381916  0.025402729            3 
 2185000   0.91994924   -7.4051902    665.57778  0.025384355   0.02539553            2 
 2186000   0.90069389   -7.3762465    666.09518  0.025392467  0.025388321            3 
 2187000   0.92002623   -7.4028914    666.18296  0.025384201  0.025381105            2 
 2188000   0.89969523   -7.3877381    666.93561  0.025401265  0.025373934            1 
 2189000   0.90025157    -7.371576    665.48522  0.025334446  0.025366777            2 
 2190000   0.90884879   -7.4036521    667.70432  0.025407318  0.025359632            2 
 2191000    0.9047435   -7.4205283     666.2196  0.025339252  0.025352476            6 
 2192000   0.90592286   -7.4012994    666.95733  0.025355738  0.025345262            3 
 2193000   0.89034264    -7.374106    668.05549  0.025385906  0.025338124            3 
 2194000   0.91335517   -7.3953463    668.00783  0.025372525  0.025331022            3 
 2195000   0.90820954   -7.3873358    667.69539  0.025349104   0.02532382            1 
 2196000   0.91319743   -7.3885291     667.8306  0.025342691  0.025316663            2 
 2197000   0.93354082   -7.3568123    669.15198  0.025381277   0.02530955            2 
 2198000   0.88983036   -7.4068748    667.91094  0.025322677  0.025302424            2 
 2199000   0.89484213   -7.4086742    665.83532  0.025232504  0.025295248            4 
 2200000   0.89725115   -7.3925957    669.72555  0.025368392  0.025288051            1 
 2201000   0.89537579   -7.3904001    667.51468  0.025273159  0.025280837            4 
 2202000   0.89694607   -7.3808567    668.36849  0.025293994  0.025273613            2 
 2203000   0.86842126   -7.4135897     668.2351  0.025277466  0.025266422            4 
 2204000   0.90806628   -7.3899993    667.96728  0.025255871  0.025259198            2 
 2205000   0.89324723   -7.3961569    667.88854  0.025241441  0.025251963            5 
 2206000   0.88821115   -7.3700523    668.94729  0.025269995    0.0252447            2 
 2207000   0.89350053   -7.3907534    668.86389  0.025255395  0.025237523            3 
 2208000   0.91282008   -7.3783002    668.87818  0.025244497  0.025230358            5 
 2209000   0.89467125   -7.3978893    668.64435  0.025224247  0.025223154            2 
 2210000   0.89990622   -7.4490191    667.65106  0.025175379  0.025215912            3 
 2211000   0.87507232   -7.3943814    670.17144  0.025258987  0.025208682            3 
 2212000   0.89556821   -7.4111921    670.43955  0.025257668  0.025201472            4 
 2213000   0.87032668   -7.4048066    669.14562   0.02519753  0.025194298            2 
 2214000   0.89670651   -7.3947896     668.6428  0.025167224  0.025187095            2 
 2215000   0.89636067   -7.3992838    670.09149  0.025210365  0.025179902            2 
 2216000   0.89510175   -7.3810719    669.95281  0.025193773  0.025172755            3 
 2217000    0.9093552   -7.4003437    670.16907  0.025190538   0.02516559            4 
 2218000   0.89923174   -7.4073415    670.18988  0.025179962  0.025158439            2 
 2219000   0.90623656   -7.4258864     668.9091  0.025120516  0.025151254            2 
 2220000   0.87816998   -7.3856649    670.70154  0.025176484  0.025144099            4 
 2221000   0.87678392   -7.4017625    670.77801  0.025168018  0.025136994            4 
 2222000   0.89686041   -7.3742227    670.79885  0.025157473  0.025129927            3 
 2223000   0.90436275   -7.4230375    670.35921  0.025129675  0.025122786            3 
 2224000   0.89373838   -7.4356242    670.14464  0.025110336  0.025115626            2 
 2225000   0.89307297    -7.416975    671.92249  0.025165636  0.025108506            4 
 2226000   0.87787395   -7.3972222     669.9981  0.025082289  0.025101352            2 
 2227000   0.88028834   -7.3710959    672.82722   0.02517689    0.0250942            4 
 2228000   0.90524305   -7.4025456    671.40506  0.025112397  0.025087076            2 
 2229000   0.86662539   -7.4021464    672.32495  0.025135522   0.02507994            2 
 2230000   0.87814616   -7.4258245     670.5939  0.025059563  0.025072675            3 
 2231000   0.89883594   -7.4130468    670.10634  0.025030119  0.025065402            2 
 2232000   0.91061565   -7.4013491    670.78238  0.025044145  0.025058134            4 
 2233000   0.88727634   -7.4110413     669.1189   0.02497085  0.025050891            3 
 2234000   0.89525873   -7.3990129    673.65717   0.02512896  0.025043687            2 
 2235000   0.89719398    -7.410057    673.08591  0.025096417  0.025036556            2 
 2236000   0.90940768   -7.4077113    673.44057  0.025098411  0.025029395            4 
 2237000   0.89223116   -7.4074588    673.45817  0.025087847  0.025022327            3 
 2238000   0.90363338   -7.3830885    673.35458   0.02507278  0.025015199            2 
 2239000   0.89468694   -7.3895821    671.87089   0.02500636  0.025008024            2 
 2240000   0.87874895   -7.4320853    671.27611   0.02497307  0.025000834            2 
 2241000   0.88400285   -7.4116422    671.66256  0.024976296  0.024993669            2 
 2242000   0.89322984   -7.4191354    673.60334  0.025037293    0.0249865            3 
 2243000   0.88795423   -7.4318216    670.70365    0.0249184  0.024979285            4 
 2244000   0.90697055   -7.4067352    672.41933  0.024971009  0.024972112            8 
 2245000   0.90098936   -7.4111496    671.76742  0.024935688  0.024964874            3 
 2246000   0.91464907   -7.4089565    672.43692  0.024949426  0.024957658            3 
 2247000   0.90558089   -7.4207458    673.73113   0.02498632   0.02495045            4 
 2248000   0.90360072   -7.4240859    670.90976  0.024870617  0.024943243            2 
 2249000    0.8835625   -7.4319338    674.17117  0.024980405  0.024936005            2 
 2250000   0.88925521   -7.4148912    673.94597  0.024960962  0.024928815            3 
 2251000   0.89202821   -7.4009842    675.21004   0.02499667   0.02492171            2 
 2252000   0.87857649   -7.3973983    675.56699  0.024998778  0.024914659            2 
 2253000   0.88740491   -7.3771018    675.28652  0.024977309  0.024907593            2 
 2254000   0.90305995   -7.4135987    675.17471  0.024962094  0.024900475            2 
 2255000   0.88912047   -7.4094601    676.76722  0.025009875  0.024893412            4 
 2256000   0.86926339   -7.4208734    672.63515  0.024846157  0.024886337            2 
 2257000    0.8957437   -7.4233052    674.69104  0.024911056  0.024879225            2 
 2258000   0.88037432   -7.3909709    675.51647  0.024930487  0.024872182            4 
 2259000    0.8955288   -7.4449147     674.0465  0.024865224  0.024865118            4 
 2260000   0.88437694   -7.4003805    676.48918  0.024944291  0.024858096            4 
 2261000   0.88457626   -7.4276283    676.24853  0.024924389  0.024851077            3 
 2262000   0.89035423   -7.4040819     674.8837  0.024863089  0.024843995            2 
 2263000   0.87969398   -7.4166596    676.74878  0.024920783  0.024837005            2 
 2264000   0.87809714   -7.4113948    676.44456  0.024898578  0.024830022            6 
 2265000   0.90714089    -7.411083    676.75226  0.024898906  0.024822993            2 
 2266000   0.89129723   -7.4463333    676.39983  0.024874957  0.024815913            3 
 2267000   0.89260334   -7.4346868    675.29744  0.024823461  0.024808889            2 
 2268000   0.88889907    -7.443748    674.88507  0.024797364  0.024801847            3 
 2269000   0.87738276   -7.3986927    677.16531  0.024870182  0.024794838            2 
 2270000   0.87304474   -7.3789805    676.51235  0.024835255  0.024787833            3 
 2271000   0.88362451   -7.4204859    676.82589  0.024835825  0.024780819            2 
 2272000   0.88133014   -7.4525804    677.15666  0.024837025  0.024773772            6 
 2273000   0.88370547   -7.4571494    676.12817  0.024788391  0.024766714            6 
 2274000   0.89332976   -7.4408711    677.78941  0.024838369  0.024759674            3 
 2275000   0.88434607   -7.4313642    677.87413  0.024830554  0.024752642            2 
 2276000   0.86908121   -7.3989842    680.07742  0.024900315  0.024745631            2 
 2277000   0.88788476   -7.4101504    677.89236  0.024809412  0.024738604            2 
 2278000   0.88306819   -7.4303361    676.08117  0.024732264  0.024731533            3 
 2279000   0.90597985   -7.4299445    678.21897  0.024799582  0.024724472            1 
 2280000   0.88849539   -7.4344565    677.39467  0.024758577  0.024717405            2 
 2281000   0.87980413    -7.443705    678.86519  0.024801447  0.024710337            4 
 2282000   0.89422726   -7.4441524    678.19084  0.024765952  0.024703258            4 
 2283000   0.89954314   -7.4163098    679.49267  0.024802623  0.024696154            4 
 2284000   0.88160879   -7.4293399    677.27745   0.02471094  0.024689121            5 
 2285000    0.8957377   -7.4309603    679.03563  0.024764246  0.024682074            3 
 2286000   0.89845745   -7.4174077    678.66667  0.024739963  0.024675012            1 
 2287000   0.88588248   -7.3934066    678.75373  0.024732318  0.024667939            3 
 2288000   0.89338705   -7.4084666    679.75828  0.024758096  0.024660894            1 
 2289000   0.88052939   -7.4140953    678.65857  0.024707244  0.024653858            3 
 2290000   0.89505143    -7.447567    678.73806  0.024699347  0.024646807            3 
 2291000   0.87808188   -7.4389226    678.97956   0.02469735  0.024639687            8 
 2292000   0.88557065   -7.4413368    680.13835  0.024728707   0.02463256            4 
 2293000   0.87318212   -7.4540756    678.99262  0.024676284  0.024625472            3 
 2294000   0.87692765    -7.436847    678.08371  0.024632509  0.024618341            3 
 2295000   0.87804489   -7.4191395    679.79717  0.024683993  0.024611281            5 
 2296000   0.90812085   -7.3921278    682.50835  0.024771644  0.024604229            6 
 2297000   0.86964464    -7.444718    679.17529  0.024639939  0.024597204            3 
 2298000   0.88732756   -7.4296258     679.1846  0.024629555  0.024590131            3 
 2299000   0.89698826   -7.4184595     679.8101  0.024641515  0.024583081            4 
 2300000   0.86475041   -7.4307956    679.29811   0.02461225  0.024576019            1 
 2301000   0.87997692   -7.4507227     679.7909  0.024619401  0.024568939            3 
 2302000   0.87871339    -7.454524    679.85545  0.024611043  0.024561805            3 
 2303000   0.90406541   -7.4137715     680.3561  0.024618472  0.024554664            2 
 2304000    0.8929882   -7.4087235    680.15201  0.024600405  0.024547582            2 
 2305000   0.86822367   -7.4217463    681.37723  0.024634028  0.024540482            1 
 2306000   0.87434871    -7.432153    680.17223    0.0245798  0.024533357            2 
 2307000   0.88912629   -7.4355514    679.72514  0.024552996  0.024526241            2 
 2308000   0.86984924   -7.4082465    681.27255  0.024598229  0.024519146            3 
 2309000   0.87312487   -7.4543175    679.33622  0.024517692  0.024512046            4 
 2310000   0.88643995   -7.3962735    681.04107  0.024568581   0.02450499            2 
 2311000    0.8834732   -7.4184121    681.70501  0.024581891   0.02449796            2 
 2312000   0.88586757   -7.4624034    681.41343  0.024560749  0.024490847           12 
 2313000   0.87616632   -7.4654448    680.27517  0.024509121  0.024483728            5 
 2314000    0.8823673   -7.4065197     681.7225  0.024550652  0.024476621            4 
 2315000   0.88902869   -7.4009336     680.4076  0.024492714  0.024469538            2 
 2316000   0.89819326   -7.4487815    681.13719  0.024508391  0.024462522            3 
 2317000   0.89271627   -7.4395623    681.21095  0.024500466  0.024455432            2 
 2318000   0.88272857   -7.4078674     682.4403  0.024534092  0.024448356            3 
 2319000   0.86868203   -7.4651034    680.94078  0.024469627  0.024441216            3 
 2320000    0.8691468   -7.4215205    680.71776  0.024451069  0.024434102            2 
 2321000   0.86754486   -7.4379067    682.97041  0.024521413  0.024427038            2 
 2322000   0.88305238    -7.430037    682.05348  0.024477946  0.024420008            7 
 2323000     0.881661    -7.438159    682.19522  0.024472493  0.024412946            7 
 2324000    0.8916478   -7.4130001    683.38001  0.024504447  0.024405962            3 
 2325000   0.88394489   -7.4063351    684.21519  0.024523842  0.024398919            2 
 2326000   0.87987915   -7.4743399    681.86865  0.024429229  0.024391907            4 
 2327000   0.86144116   -7.4573316    684.35274   0.02450769   0.02438487            2 
 2328000   0.84854573   -7.4324018    683.07783  0.024451526    0.0243779            3 
 2329000    0.8883249    -7.437429    683.81573   0.02446743  0.024370915            3 
 2330000   0.87336956   -7.4276738    682.87817  0.024423397  0.024363907            4 
 2331000   0.88585644   -7.4306741    683.73143  0.024443423  0.024356869            2 
 2332000   0.88037106   -7.4377213    682.76458  0.024398391  0.024349833            2 
 2333000   0.88608286   -7.4210887    682.69209  0.024385344  0.024342785            4 
 2334000   0.87263868    -7.424954    684.42281   0.02443669  0.024335769            5 
 2335000   0.88796225   -7.4418111    683.70044  0.024400444  0.024328701            4 
 2336000   0.88265151   -7.4266336    684.30452  0.024411548  0.024321598            2 
 2337000   0.86606779   -7.4279851    685.75046  0.024452662  0.024314553            3 
 2338000   0.90061231   -7.4124693    683.27772  0.024354068  0.024307527            4 
 2339000   0.89591992   -7.4622693    682.74187  0.024324564  0.024300518            5 
 2340000   0.87113889   -7.4284847    683.34288  0.024335573  0.024293468            2 
 2341000   0.86381976   -7.4384405      684.777  0.024376228  0.024286443            4 
 2342000   0.88679421   -7.4466356    685.42007  0.024388702  0.024279405            4 
 2343000   0.88252079   -7.4445018    683.69969  0.024317104  0.024272319            3 
 2344000   0.87386774    -7.442561    684.30699   0.02432832  0.024265221            3 
 2345000   0.88143777   -7.4434992    683.31833  0.024282812  0.024258139            3 
 2346000   0.89624982   -7.4223357    684.01927   0.02429736  0.024251048            2 
 2347000   0.88634664   -7.4530161    683.94786  0.024284472  0.024243921            1 
 2348000   0.88537871   -7.4975453    683.33263  0.024252294  0.024236764            3 
 2349000   0.87180917   -7.4627205    684.25869  0.024274822  0.024229544            2 
 2350000   0.85367038   -7.4540658    681.91522  0.024181391  0.024222311            2 
 2351000   0.88309296   -7.4520665     685.0647  0.024282741  0.024215148            3 
 2352000   0.87803583   -7.4425447    683.47949  0.024216252  0.024207996            2 
 2353000    0.8867073   -7.4574222    683.02151  0.024189741  0.024200827            4 
 2354000   0.85907466   -7.4482339     686.0173  0.024285518   0.02419371            2 
 2355000   0.88551574   -7.4551682    684.91928  0.024236351  0.024186684            3 
 2356000   0.89159107   -7.4499651    684.89998  0.024225381  0.024179627            5 
 2357000   0.88800623   -7.4375279    685.71786   0.02424402  0.024172536            2 
 2358000   0.90178234   -7.4601858    684.17787  0.024179314  0.024165412            3 
 2359000   0.87497142   -7.4807466    685.16035  0.024203771  0.024158267            1 
 2360000   0.86759735   -7.4794187    686.29608  0.024233619  0.024151154            2 
 2361000   0.86557398   -7.4324879    683.89412  0.024138575   0.02414407            3 
 2362000   0.84935035   -7.4390593    686.15434  0.024208098  0.024136995            3 
 2363000   0.88156676   -7.4423884     685.9473  0.024190552  0.024129934            6 
 2364000   0.85261444   -7.4571431    686.31494  0.024193279  0.024122891            3 
 2365000   0.86931882   -7.4583813    685.27815  0.024146517  0.024115846            4 
 2366000   0.86445175   -7.4398019    685.66072  0.024149786  0.024108785            6 
 2367000   0.87794662   -7.4404453    686.34959  0.024163836  0.024101703            3 
 2368000   0.88014389   -7.4774007     686.1772  0.024147565  0.024094668            2 
 2369000   0.85939202   -7.4590551    688.13986  0.024206411  0.024087578            4 
 2370000   0.86288973    -7.472444     687.8916  0.024187468  0.024080518            2 
 2371000   0.87143717   -7.4158659    687.71438  0.024171038   0.02407344            9 
 2372000   0.85577463   -7.4570425    686.06571  0.024102927  0.024066407            3 
 2373000   0.87421264   -7.4706652    687.91816  0.024157823  0.024059421            9 
 2374000   0.87668786   -7.4706827    685.19761  0.024052149  0.024052324            4 
 2375000   0.88202835   -7.4249983    688.66153  0.024163562  0.024045281            3 
 2376000   0.87183169   -7.4710065    687.81866  0.024123831   0.02403823            7 
 2377000   0.88615071   -7.4926426    686.55389  0.024069341   0.02403114            6 
 2378000   0.87633826   -7.4363093    688.42626  0.024124834  0.024024069            1 
 2379000   0.86755363   -7.4868653    688.27075  0.024109246  0.024016968            3 
 2380000   0.87520438   -7.4460081     687.9086  0.024086436  0.024009897            3 
 2381000   0.87995117   -7.4757865    685.38566  0.023988018  0.024002776            5 
 2382000   0.85813339   -7.4531391    687.63209  0.024056538  0.023995645            3 
 2383000   0.88709643   -7.4788386    686.74582   0.02401545  0.023988509            2 
 2384000   0.85149555   -7.4611229    688.06756  0.024051579  0.023981339            3 
 2385000   0.88397741   -7.4619323    688.20051  0.024046139  0.023974249            4 
 2386000   0.86846042   -7.4558092    687.78128  0.024021419  0.023967139            4 
 2387000   0.87698675   -7.4574574    687.85524  0.024013938  0.023960024            2 
 2388000   0.87099565   -7.4242072    686.63743  0.023961384  0.023952941            3 
 2389000   0.86691722   -7.4434066    687.74853  0.023990112  0.023945916            2 
 2390000   0.87722067   -7.4688714    687.08933   0.02395709  0.023938753            2 
 2391000   0.86264369   -7.4799882    687.66931  0.023967284  0.023931583            2 
 2392000   0.85843566   -7.4430132    687.64507   0.02395642  0.023924432            4 
 2393000   0.85348658   -7.4820103    687.10079  0.023927455  0.023917282            4 
 2394000   0.88242499    -7.459582    687.82152  0.023942548  0.023910128            3 
 2395000   0.86995608   -7.4839696    688.32327  0.023950009  0.023903047            2 
 2396000   0.86354465   -7.4743378    686.96867    0.0238929   0.02389591            5 
 2397000    0.8583272   -7.4625975    688.40961  0.023933028  0.023888815            2 
 2398000   0.85973985   -7.4387977    688.53013  0.023927236  0.023881696            4 
 2399000   0.87974106   -7.4753775    688.27688  0.023908465  0.023874553            3 
 2400000   0.87672195   -7.4781511    687.59616  0.023874867  0.023867421            1 
 2401000   0.87559332   -7.4822533    689.68869   0.02393755  0.023860292            4 
 2402000   0.85105048    -7.447454    691.24927  0.023981726    0.0238532            3 
 2403000   0.85492099   -7.4504758    689.84671  0.023923107   0.02384618            2 
 2404000   0.87728479   -7.4657508    689.51399  0.023901622    0.0238392            2 
 2405000   0.86831723   -7.4810125    689.05013  0.023875611  0.023832155            1 
 2406000   0.89474829   -7.4775753    691.69202  0.023957191  0.023825132            2 
 2407000   0.86568451   -7.4728939    690.28025  0.023898361    0.0238181            1 
 2408000    0.8724937   -7.4542857    691.67416  0.023936675  0.023811066            4 
 2409000   0.87176708   -7.4653966     688.9842  0.023833686  0.023804072            3 
 2410000   0.86813337   -7.4634568     691.3009  0.023903904  0.023797065            3 
 2411000   0.84910932   -7.4732113    691.24064  0.023891906  0.023790091            5 
 2412000   0.86480828   -7.4670982     690.1613  0.023844711  0.023783127            3 
 2413000   0.86452942     -7.42822    692.86008  0.023928031  0.023776166            2 
 2414000   0.85307872   -7.4447255    691.23532  0.023862031   0.02376919            2 
 2415000   0.85965058   -7.4641995    690.74784  0.023835329  0.023762189            5 
 2416000   0.86760633   -7.4393309     692.1473  0.023873734  0.023755261            8 
 2417000   0.85751323   -7.4519673    691.78293  0.023851294  0.023748312            4 
 2418000   0.85249877   -7.4926935    690.61127   0.02380105   0.02374131            3 
 2419000   0.85202288   -7.4619253    691.33552  0.023816161  0.023734273            3 
 2420000   0.85026474   -7.4853606    691.53456  0.023813174   0.02372726            3 
 2421000   0.85566543   -7.4647402    691.00966   0.02378527  0.023720213            3 
 2422000   0.87125369   -7.4711161    691.80111  0.023802681  0.023713222            4 
 2423000   0.86552069   -7.4689293    692.20221  0.023806652    0.0237062            2 
 2424000    0.8562881   -7.4535753    692.51734  0.023807664  0.023699227            2 
 2425000   0.88792778   -7.4829764    690.93677  0.023743532  0.023692205            2 
 2426000   0.86526343   -7.4849137    693.20787  0.023811757  0.023685205            3 
 2427000   0.88181968   -7.4613609    692.21544   0.02376787  0.023678209            1 
 2428000   0.85472701   -7.4446339    691.48474  0.023733002  0.023671258            5 
 2429000   0.86296125   -7.4985847    692.10741  0.023744593  0.023664274            4 
 2430000   0.86041188   -7.4866755    692.40782  0.023745124  0.023657266            2 
 2431000   0.86768661    -7.471453    692.13014  0.023725838  0.023650282            2 
 2432000   0.85509852   -7.4813577    693.15738  0.023751281  0.023643221            2 
 2433000   0.85538036    -7.497776    690.73436  0.023658527  0.023636147            2 
 2434000   0.87566167   -7.4820033     689.8933  0.023620012  0.023629088            2 
 2435000   0.86600707    -7.475701    693.51806  0.023734362  0.023622085            4 
 2436000    0.8634038   -7.4591986    692.54253  0.023691247  0.023615041            3 
 2437000    0.8650332   -7.4549114     691.4432  0.023643934   0.02360799            3 
 2438000   0.83510237   -7.4713972    692.57324  0.023672862  0.023600977            3 
 2439000   0.86091218   -7.4836957    691.67834   0.02363258  0.023593981            2 
 2440000   0.86176588    -7.485217    693.72492  0.023692791  0.023586946            4 
 2441000   0.87290847     -7.49399    691.88945  0.023620424  0.023579869            5 
 2442000   0.88791423   -7.5036449    690.93665  0.023578237  0.023572809            4 
 2443000   0.84730946   -7.4757924    692.05403    0.0236067  0.023565689            2 
 2444000   0.86435087   -7.4768657    693.03345  0.023630437  0.023558607            2 
 2445000   0.85413159   -7.4787965    693.06768  0.023621938  0.023551514            2 
 2446000   0.86064731   -7.4923233    691.30511  0.023552232  0.023544476            4 
 2447000   0.85618693   -7.5140886    691.67233  0.023555113  0.023537367            2 
 2448000   0.86904664    -7.487438    693.66079  0.023613181  0.023530237            2 
 2449000   0.86291713   -7.4902179    692.31725  0.023557821  0.023523169            3 
 2450000   0.83440657     -7.47067    692.24644  0.023545797  0.023516147            2 
 2451000   0.85758099   -7.4995755    694.00872  0.023596108   0.02350907            2 
 2452000    0.8502025   -7.4809548     693.1283  0.023556563  0.023502018            4 
 2453000   0.84707978   -7.4962387    692.95138  0.023540949   0.02349496            3 
 2454000   0.84578059   -7.4530764    693.50502  0.023550157  0.023487898            4 
 2455000   0.85928906   -7.4856126     693.1901  0.023529874  0.023480872            2 
 2456000   0.85611117   -7.4721325    694.99676  0.023581595  0.023473841            4 
 2457000   0.86120966   -7.4616624    693.31066   0.02351481  0.023466777            2 
 2458000   0.86152807   -7.4866197    693.23926  0.023502823  0.023459736            4 
 2459000   0.86147492   -7.4745818    692.74019  0.023476352  0.023452674            5 
 2460000    0.8567152   -7.4755455    693.27572   0.02348495  0.023445639            2 
 2461000   0.86025068    -7.492233    694.49666   0.02351675  0.023438554            2 
 2462000   0.85284638   -7.4803163     692.9294   0.02345415  0.023431541            3 
 2463000   0.85199587   -7.4755937     695.0242  0.023515503  0.023424458            2 
 2464000   0.85051195    -7.495424    693.12282  0.023441654  0.023417357            4 
 2465000   0.85664902   -7.4686768    692.58352  0.023413912  0.023410292            4 
 2466000   0.85776701   -7.4904419    694.93808  0.023483985  0.023403216            2 
 2467000   0.85992688   -7.4665358    693.38218  0.023421908  0.023396101            3 
 2468000   0.86638362    -7.465687    694.46885   0.02344911  0.023389044            3 
 2469000   0.86031729   -7.4952438    694.52061   0.02344136  0.023382007            4 
 2470000   0.85430669   -7.4793651    694.24608  0.023422607  0.023374959            2 
 2471000   0.84477797   -7.5040153      693.207  0.023378086  0.023367859            2 
 2472000   0.84720488   -7.5239836    695.99358  0.023462567    0.0233608            2 
 2473000   0.86933937    -7.493801    693.82026  0.023379844  0.023353704            7 
 2474000   0.85199854   -7.4739479    696.78652  0.023470309  0.023346637            5 
 2475000   0.87240781   -7.5125595    694.94947  0.023398972  0.023339613            4 
 2476000   0.88046215   -7.5237612    695.98731  0.023424452  0.023332551            2 
 2477000   0.84421311   -7.5031014    694.67527  0.023370854  0.023325485            6 
 2478000   0.84402321   -7.5001377    695.46618  0.023388021  0.023318451            2 
 2479000   0.85331108   -7.4877821    695.31238  0.023373416   0.02331142            4 
 2480000   0.84945145    -7.529287    695.75771  0.023378955  0.023304378            3 
 2481000   0.85274352   -7.5034213     694.4353  0.023325114  0.023297316            1 
 2482000   0.86688788   -7.4993982    696.65438  0.023390222  0.023290203            2 
 2483000   0.83453918   -7.5199675    695.22413  0.023332801  0.023283141            7 
 2484000   0.87227228   -7.5027199    694.30094  0.023292436  0.023276117            2 
 2485000   0.85615096   -7.4931133    697.21786   0.02338088  0.023269088            3 
 2486000   0.86244185   -7.4978965    695.62611  0.023318118  0.023262097            4 
 2487000   0.84968045   -7.5136527    695.52134  0.023305232  0.023255116            1 
 2488000   0.85333402   -7.5029403    698.34217  0.023390346  0.023248098            2 
 2489000   0.85059862   -7.4977774    695.29829  0.023279038  0.023241102            3 
 2490000   0.86464594   -7.5077834    696.88547  0.023322807  0.023234154            8 
 2491000   0.85078507   -7.5026919    696.74748  0.023308828  0.023227234            2 
 2492000   0.86058606   -7.5110405    699.05061  0.023376492  0.023220244            2 
 2493000   0.85827236   -7.5109587    697.86034  0.023327328  0.023213248            2 
 2494000   0.85857888   -7.4986251    697.39977  0.023302585   0.02320627            5 
 2495000   0.85040334   -7.5142976     698.2688  0.023322271  0.023199336            3 
 2496000   0.86743298   -7.4901935    697.27689  0.023279811  0.023192428            8 
 2497000   0.85140769   -7.5027872    697.16705  0.023266822  0.023185519            4 
 2498000   0.84387809   -7.4883283    699.41598  0.023332532  0.023178573            3 
 2499000   0.85775424   -7.5089401     698.0991  0.023279282  0.023171642            3 
 2500000   0.84546356   -7.4846962    699.02438  0.023300813    0.0231647            3 
 2501000   0.85140811   -7.4842176    700.05492  0.023325834  0.023157777            3 
 2502000   0.85895422    -7.503937    699.04561  0.023282894  0.023150864            3 
 2503000   0.87122232   -7.4913294    698.28576  0.023248294  0.023143954            4 
 2504000   0.84948565   -7.5243296    697.85138  0.023224553  0.023137019            3 
 2505000   0.84407622   -7.4978931    698.10937  0.023223865   0.02313006            5 
 2506000   0.86479328   -7.4936841    700.31265  0.023287864  0.023123162            4 
 2507000   0.85864073   -7.5088616    699.06844  0.023237217   0.02311627            1 
 2508000   0.84535406   -7.5156051    697.84765  0.023187389  0.023109324            4 
 2509000   0.84687794   -7.4914388    699.92258  0.023247063  0.023102343            2 
 2510000   0.83376729   -7.5243842    698.89867  0.023203807  0.023095386            3 
 2511000   0.85812207   -7.5177195    697.15194  0.023136597  0.023088434            2 
 2512000   0.85928706   -7.4881582    699.52119  0.023205984  0.023081515            1 
 2513000   0.85957376   -7.5170516    700.41855  0.023226507  0.023074587            2 
 2514000     0.851159    -7.515871    699.31344  0.023180636  0.023067672            2 
 2515000   0.82902953   -7.5120895    698.62698  0.023148674  0.023060791            1 
 2516000   0.85394203   -7.5009539    700.44049  0.023199539  0.023053867            2 
 2517000   0.84864302   -7.5193118    698.66937  0.023131684  0.023046933            4 
 2518000   0.83812623   -7.5257553    699.10606  0.023136949  0.023039969            6 
 2519000   0.84363657   -7.5195101    700.37168  0.023169634  0.023032988            2 
 2520000   0.85543998   -7.4995675    700.00215  0.023148219  0.023026056            3 
 2521000   0.83287647   -7.5238948    697.52139  0.023057034  0.023019107            1 
 2522000   0.85330147   -7.5086143    699.98814  0.023129399   0.02301208            1 
 2523000   0.84781277   -7.5047009    699.82863  0.023114963  0.023005098            1 
 2524000    0.8728069   -7.4907753    699.38931  0.023091301  0.022998112            1 
 2525000   0.84887986    -7.516464    699.37752  0.023081766  0.022991111            2 
 2526000   0.84178757   -7.5231497    698.87205  0.023055953  0.022984083            2 
 2527000   0.84099549   -7.5167344    697.20637    0.0229919  0.022977048            2 
 2528000    0.8447518   -7.4967987    699.95265  0.023073334  0.022970043            2 
 2529000   0.85320326   -7.4995391    700.25778  0.023074265  0.022963065            2 
 2530000   0.84403753   -7.4953415    701.24162   0.02309755  0.022956071            3 
 2531000   0.82802097   -7.5119939    698.85237  0.023009758  0.022949125            4 
 2532000   0.84987446   -7.5281749    701.42876  0.023085465  0.022942126            2 
 2533000   0.83834551   -7.5400485    700.87232  0.023058045  0.022935107            2 
 2534000   0.82894638    -7.529176    699.55513  0.023005628  0.022928149            2 
 2535000    0.8546381   -7.5166317    700.55985  0.023029581  0.022921199            3 
 2536000   0.83917811   -7.5296899    700.11168  0.023005773  0.022914289            3 
 2537000   0.83028957   -7.5114167    702.11577  0.023062533  0.022907387            2 
 2538000   0.84146812   -7.4936733    701.82439  0.023043879  0.022900545            4 
 2539000   0.82634053   -7.5024059    702.00524  0.023040739  0.022893698            2 
 2540000   0.83634081   -7.5135807      702.478  0.023047179   0.02288687            4 
 2541000   0.85636811   -7.5132525      702.564  0.023040929  0.022880025            3 
 2542000   0.83633838   -7.5311535    701.07699  0.022983117  0.022873216            4 
 2543000   0.83418482   -7.5292332    703.28798  0.023046532  0.022866432            2 
 2544000   0.83937157   -7.4989771    702.45392  0.023010152  0.022859605            4 
 2545000   0.84742895   -7.5048102    703.63868  0.023039904  0.022852769            2 
 2546000   0.85735974   -7.5349013    702.71974  0.023000777  0.022845972            2 
 2547000   0.83840693    -7.524934    702.72373  0.022991877  0.022839132            2 
 2548000   0.85379452   -7.5109074    703.62014  0.023012171  0.022832316            2 
 2549000   0.85352138   -7.5289264    703.41083    0.0229963  0.022825451            4 
 2550000   0.84601222   -7.5087816    703.13915  0.022978404  0.022818649            4 
 2551000   0.85421083   -7.5273795    703.40045  0.022977932  0.022811875            6 
 2552000   0.83248283   -7.4943277    705.71998   0.02304467  0.022805074            3 
 2553000   0.83645081   -7.4947258    703.19538  0.022953237  0.022798313            2 
 2554000   0.82399267   -7.5227556    703.40268  0.022951014  0.022791494            2 
 2555000   0.85060863   -7.5263246    704.21091  0.022968392   0.02278468            3 
 2556000   0.84132116   -7.5409796    701.40751  0.022868007  0.022777852            3 
 2557000   0.84286935    -7.510267    703.30597  0.022920935  0.022771015            7 
 2558000    0.8404458   -7.5282543    703.24354  0.022909941  0.022764171            6 
 2559000   0.84672004   -7.5412382    702.51148  0.022877149  0.022757302            4 
 2560000    0.8383841    -7.505828    703.74269  0.022908291  0.022750465            3 
 2561000   0.84565494   -7.5301108    706.05268  0.022974511  0.022743668            5 
 2562000   0.83200615   -7.5499574    702.98444  0.022865744  0.022736856            2 
 2563000   0.85887956   -7.5402675     702.3192  0.022835193   0.02273006            4 
 2564000   0.84108699   -7.5080283    705.85961  0.022941355  0.022723282            6 
 2565000   0.84113247    -7.515593    705.29131  0.022913948  0.022716491            2 
 2566000   0.84609274   -7.5180245    705.30466  0.022905452  0.022709698            2 
 2567000   0.83254297   -7.5132493    705.07939  0.022889215  0.022702931            1 
 2568000   0.84072044   -7.4889706    704.95974  0.022876419  0.022696171            1 
 2569000   0.82022005    -7.522463    705.66597  0.022890423  0.022689409            4 
 2570000   0.85678597   -7.5188553    706.44551  0.022906793  0.022682618            3 
 2571000   0.85293209    -7.519187    706.32133  0.022893859  0.022675864            2 
 2572000   0.83469033   -7.5268421    706.22605   0.02288187  0.022669119            4 
 2573000   0.83518771   -7.5327035    705.25555  0.022841545  0.022662376            3 
 2574000   0.82107477    -7.536763    703.48769  0.022775437  0.022655601            3 
 2575000   0.83013695   -7.5611472     703.0394  0.022752084   0.02264871            3 
 2576000     0.828341   -7.5503469    705.18768  0.022812748  0.022641853            4 
 2577000   0.84199646   -7.5564194    703.64654   0.02275406  0.022634994            3 
 2578000   0.85281192   -7.5241508    707.14563  0.022858341  0.022628126            2 
 2579000   0.82711387   -7.5654203    703.42867  0.022729374  0.022621284            2 
 2580000   0.86690704   -7.5280649    705.62596  0.022791536  0.022614446            3 
 2581000   0.84688931   -7.5471335    706.23221   0.02280228  0.022607634            1 
 2582000   0.84572843   -7.5518371    705.02774  0.022754575  0.022600839            3 
 2583000   0.83415091    -7.512982    705.55796  0.022762871  0.022594059            3 
 2584000   0.83238466   -7.5482397     704.9193  0.022733466  0.022587276            8 
 2585000   0.84435973   -7.4931339    706.11955  0.022763364  0.022580477            4 
 2586000   0.83529323   -7.5100809    706.23463   0.02275827  0.022573703            3 
 2587000   0.82611221    -7.544335    705.64276  0.022730407  0.022566888            2 
 2588000   0.84346564   -7.5724689    705.03712  0.022702122  0.022560078            4 
 2589000   0.83741222   -7.5301748    707.15922  0.022761659  0.022553304            2 
 2590000   0.82860323   -7.5444521    705.89936  0.022712335  0.022546475            3 
 2591000   0.82670035   -7.5233308    706.80925  0.022732833  0.022539649            3 
 2592000   0.83853229   -7.5547042    704.12493  0.022637761  0.022532816            2 
 2593000   0.82856126   -7.5264428    705.41666  0.022670544  0.022525993            2 
 2594000   0.85882434   -7.5471239    707.18728  0.022718687  0.022519209            2 
 2595000   0.83271126   -7.5391741    706.40448  0.022684794  0.022512472            5 
 2596000   0.83274231   -7.5377338     708.5167  0.022743859  0.022505722            2 
 2597000    0.8268945   -7.5334777     707.9235  0.022716067  0.022499002            4 
 2598000   0.83788798   -7.5158893    708.14588  0.022714456  0.022492294            2 
 2599000   0.83848307   -7.5298316      707.433  0.022682859   0.02248556            5 
 2600000   0.82961738   -7.5561056    707.51235  0.022676678  0.022478829            3 
 2601000   0.82366926   -7.5202372    706.43646  0.022633489  0.022472064            3 
 2602000   0.83775933   -7.5401411    708.05637  0.022676671  0.022465368            3 
 2603000   0.83393801   -7.5301897    707.96353  0.022664987  0.022458612            2 
 2604000   0.84920342   -7.5661449    707.61047  0.022644984  0.022451839            2 
 2605000   0.86213404   -7.5322579    708.66236  0.022669941  0.022445081            4 
 2606000   0.83767881    -7.531818    707.04302   0.02260946  0.022438342            2 
 2607000      0.81992   -7.5192721    706.04741  0.022568962  0.022431582           10 
 2608000   0.83710035   -7.5580921    706.21258  0.022565586  0.022424823            3 
 2609000   0.84226547   -7.5313656    709.10239  0.022649239  0.022418087            4 
 2610000   0.84091337   -7.5752885    706.05823  0.022543366  0.022411301            3 
 2611000   0.84235769   -7.5659091    705.96838  0.022531865   0.02240455            3 
 2612000   0.84914071   -7.5463812    707.41308   0.02256933  0.022397767            6 
 2613000   0.82088508   -7.5456044     707.9999  0.022579407  0.022390984            2 
 2614000   0.82838064   -7.5372456    707.08812  0.022541702  0.022384208            3 
 2615000   0.83910489   -7.5694421    706.36832  0.022510144  0.022377444            3 
 2616000    0.8283273   -7.5381679    708.08325  0.022556169   0.02237071            5 
 2617000    0.8386988   -7.4996595    709.33233  0.022587324  0.022364022            4 
 2618000   0.83570139   -7.5423703    707.44385  0.022518584  0.022357279            7 
 2619000   0.83506674   -7.5676242    708.37494  0.022539612  0.022350545            3 
 2620000   0.86072956   -7.5383947    709.42773  0.022564495  0.022343784            2 
 2621000   0.84870387   -7.5448993     706.7873  0.022471935  0.022337053            2 
 2622000   0.83433991   -7.5389554    707.26365  0.022478504  0.022330284            7 
 2623000   0.81499764   -7.5284537    709.24396  0.022532849  0.022323518            2 
 2624000   0.84215833   -7.5340325    709.06947   0.02251872  0.022316768            3 
 2625000   0.82522867   -7.5299549    708.57369  0.022494403  0.022310064            3 
 2626000    0.8507013   -7.5707115    709.44624  0.022513526  0.022303328            3 
 2627000   0.83176131   -7.5477311     708.7128   0.02248169  0.022296586            2 
 2628000   0.83052249   -7.5393565    709.40242  0.022495003  0.022289838            2 
 2629000   0.82728623   -7.5636506    707.63661  0.022430475  0.022283073            2 
 2630000   0.82571811   -7.5572494    707.25415  0.022409827  0.022276313            5 
 2631000   0.81349572   -7.5419093    708.74028  0.022448381  0.022269534            4 
 2632000   0.82827304   -7.5638651    708.37799  0.022428381  0.022262737            2 
 2633000   0.84127174   -7.5598545    708.43022  0.022421516  0.022255905            4 
 2634000   0.81544858   -7.5430583    709.14581  0.022435643  0.022249113            2 
 2635000   0.83490493    -7.538019    711.49615   0.02250146  0.022242331            4 
 2636000   0.80447797   -7.5586904    710.11672  0.022449315  0.022235536            3 
 2637000   0.82453071   -7.5492232    708.01692  0.022374444  0.022228743            2 
 2638000   0.83545611   -7.5734148    709.93679  0.022426611  0.022221982            2 
 2639000    0.8207752   -7.5538587    707.49388  0.022340971  0.022215185            4 
 2640000   0.83929203   -7.5706339    709.22458   0.02238714  0.022208402            5 
 2641000   0.84734703   -7.5501293    709.49171  0.022387092  0.022201624            3 
 2642000   0.84221833   -7.5740942    708.84039  0.022358074  0.022194831            7 
 2643000   0.82115017   -7.5563728    710.17206  0.022391602  0.022188042            4 
 2644000   0.84100479   -7.5656173    709.31143  0.022356008  0.022181297            3 
 2645000   0.83291161   -7.5339885     708.4369  0.022320003  0.022174533            2 
 2646000   0.81564128   -7.5176752     709.8083  0.022354759  0.022167801            5 
 2647000   0.82728507   -7.5640099    710.19804  0.022358583  0.022161114            2 
 2648000     0.848906   -7.5390373    710.08329  0.022346529  0.022154412            2 
 2649000    0.8208732    -7.511166    710.42965  0.022348989  0.022147761            5 
 2650000   0.82891061    -7.539862    711.10835  0.022361898  0.022141086            4 
 2651000   0.82956064   -7.5547502    710.86074  0.022345679  0.022134429            2 
 2652000   0.82224922   -7.5661414    710.92433  0.022339251  0.022127738            2 
 2653000   0.82333908   -7.5713051     710.5105  0.022317832  0.022121039            4 
 2654000   0.83587127    -7.555864    710.47579  0.022308333  0.022114339            3 
 2655000   0.84142282   -7.5631749    713.11052  0.022382628   0.02210768            4 
 2656000    0.8276527   -7.5723049    710.88417  0.022304348     0.022101            2 
 2657000   0.83178703    -7.571167    711.74918  0.022323083  0.022094307            1 
 2658000   0.82821467   -7.5606893    714.52134  0.022401597  0.022087636            2 
 2659000   0.81313223   -7.5850829    711.37929    0.0222947  0.022080961            2 
 2660000   0.81491667   -7.5403848    711.30249  0.022283913  0.022074293            4 
 2661000   0.83591502   -7.5497912    710.06177  0.022236683  0.022067647            7 
 2662000   0.81846326   -7.5581626     711.4912  0.022273078  0.022060965            4 
 2663000   0.83505276   -7.5779653    713.81699  0.022337495  0.022054266            2 
 2664000   0.81887466   -7.5716624    712.12221  0.022276095  0.022047578            5 
 2665000   0.82072911   -7.5630051    712.30376  0.022273414  0.022040917            2 
 2666000   0.84420205   -7.5729568    711.45215  0.022238439  0.022034272            3 
 2667000   0.81012766   -7.5476926    713.29942  0.022287821  0.022027647            1 
 2668000   0.85218248   -7.5491841    712.25668  0.022246898  0.022021059            3 
 2669000   0.81932162   -7.5828937    711.87573  0.022226668  0.022014456            4 
 2670000   0.81872223   -7.5514429    712.72973  0.022244998  0.022007825            1 
 2671000   0.83388545   -7.5535541    713.23691  0.022252493  0.022001184            2 
 2672000   0.81872593   -7.5861509    713.06194  0.022238708  0.021994554            6 
 2673000   0.83883307    -7.561135    711.60109  0.022184845  0.021987911            4 
 2674000    0.8026433   -7.5676586    712.34894  0.022199855  0.021981245            3 
 2675000   0.82412712   -7.5515271    712.09703  0.022183708  0.021974623            3 
 2676000   0.81603675   -7.5686919    713.42029  0.022216626  0.021967991            2 
 2677000   0.81197729   -7.5665202    712.10552  0.022167399  0.021961348            2 
 2678000   0.82224896   -7.5906924    713.61545  0.022206107  0.021954728            3 
 2679000   0.82232717   -7.5541066    714.83658  0.022235802  0.021948124            2 
 2680000   0.82417836   -7.5673857     716.4438  0.022277481  0.021941563            4 
 2681000   0.82114923   -7.5798723    713.12936  0.022166149   0.02193495            6 
 2682000   0.81895084   -7.5371538    713.77297  0.022177882  0.021928349            3 
 2683000   0.83149679   -7.5957153    713.27384  0.022154113  0.021921736            3 
 2684000    0.8297905   -7.5707022    713.44406  0.022151144  0.021915101            3 
 2685000   0.80772587   -7.5638683    714.41782  0.022173117  0.021908481            5 
 2686000   0.82279396   -7.5701146    714.88453  0.022179341  0.021901887            6 
 2687000   0.83308578   -7.5642772    714.29179  0.022152704  0.021895272            2 
 2688000   0.83523585   -7.5888293    713.90023  0.022132324  0.021888651            4 
 2689000   0.80366886   -7.5883549    714.26077  0.022135266   0.02188201            3 
 2690000   0.82564052   -7.5784621    712.86411   0.02208377  0.021875377            2 
 2691000   0.82602207   -7.5758033     713.3651  0.022091078  0.021868759            2 
 2692000   0.81966074   -7.5518309    712.80856  0.022065644   0.02186219            6 
 2693000    0.8217342   -7.5993598    713.42823  0.022076626   0.02185563            4 
 2694000   0.81845444   -7.5658287    713.96806  0.022085129  0.021849065            2 
 2695000   0.83792036   -7.5708832    714.09423  0.022080836  0.021842513            4 
 2696000   0.81131656   -7.5784875    714.32725  0.022079848  0.021835971            3 
 2697000     0.815806   -7.5818139    714.53037  0.022077937  0.021829423            2 
 2698000   0.80015444   -7.5488028    714.26895   0.02206168  0.021822877            2 
 2699000   0.81529428   -7.5345784    716.75445  0.022130247  0.021816386            4 
 2700000   0.83639891   -7.5432313    716.19902  0.022104908  0.021809894            3 
 2701000    0.8238949   -7.5668367    717.94115  0.022150474  0.021803432            3 
 2702000   0.81199735   -7.5530785    717.18163  0.022118851  0.021796894            6 
 2703000   0.82972757   -7.5654181    715.25742  0.022051345  0.021790359            4 
 2704000   0.82836471   -7.5684399    716.73179  0.022088628  0.021783782            3 
 2705000   0.82595311   -7.5696779    716.09129   0.02206073  0.021777244            1 
 2706000   0.81674464   -7.6120012    715.95327  0.022048327   0.02177069            3 
 2707000      0.82894   -7.5697382    715.10916  0.022014196  0.021764144            5 
 2708000   0.82466529   -7.5889407     715.9775  0.022032789  0.021757525            3 
 2709000   0.81562304   -7.5787051    715.35424  0.022005483   0.02175096            5 
 2710000   0.81580229   -7.5896582    715.09555  0.021989408  0.021744396            6 
 2711000   0.83075606   -7.5881213    716.88005  0.022036151  0.021737809            2 
 2712000   0.81976738   -7.5824319    715.21148  0.021976754  0.021731243            2 
 2713000   0.82774725   -7.6189844    716.10787  0.021996187  0.021724645            4 
 2714000    0.8153021   -7.5901347    714.61998  0.021942397  0.021718034            8 
 2715000   0.79692491   -7.5809838    717.13839  0.022011614   0.02171144            3 
 2716000   0.81238378   -7.5698681    716.21046  0.021975039  0.021704904            3 
 2717000    0.8195255   -7.5849674    716.74887  0.021983464  0.021698394            3 
 2718000   0.83033753   -7.5987125    717.72315  0.022005247  0.021691902            3 
 2719000   0.81485442   -7.5946387    717.64394  0.021994727   0.02168539            2 
 2720000   0.81466347     -7.57039    715.01943  0.021906233  0.021678861            6 
 2721000   0.83680529   -7.6179464    715.50021  0.021912906  0.021672288            7 
 2722000    0.8254652   -7.5395756    716.02562  0.021920941  0.021665741            3 
 2723000   0.80195347   -7.5835796      716.097  0.021915075  0.021659207            5 
 2724000   0.83034711   -7.5785473    714.73811  0.021865459  0.021652656            5 
 2725000   0.82249547   -7.6024039    715.36861  0.021876716  0.021646086            5 
 2726000   0.81801165   -7.5932957    717.68859  0.021939612  0.021639523            3 
 2727000   0.81211554   -7.5938238    717.01958  0.021911123  0.021632981            5 
 2728000   0.81777622   -7.5728884    717.77325  0.021926113  0.021626473            5 
 2729000   0.81764202   -7.5690723    718.76646  0.021948408  0.021619987            4 
 2730000   0.80757583   -7.5913402    716.63169  0.021875204  0.021613458            5 
 2731000   0.82707493   -7.5800435    718.81244  0.021933737  0.021606915            3 
 2732000   0.81809336   -7.6022087    716.49161  0.021854917  0.021600385            2 
 2733000   0.82212466   -7.6006911    715.69973  0.021822775  0.021593814            6 
 2734000   0.80742026   -7.5945057    716.78223  0.021847788   0.02158722            5 
 2735000   0.82257465    -7.603517    716.09467   0.02181885  0.021580642            6 
 2736000   0.82766731   -7.6215471    716.27659  0.021816417  0.021574024           10 
 2737000   0.79963469   -7.6012262    716.60565  0.021818464  0.021567398           10 
 2738000   0.82911691   -7.6376036    715.65786  0.021781649  0.021560786            3 
 2739000   0.82657538   -7.6524883     717.0013   0.02181457  0.021554197            3 
 2740000   0.80642328   -7.6171835    715.40604  0.021758091  0.021547607            5 
 2741000   0.80222055   -7.5992855    716.49904  0.021783383  0.021541047            2 
 2742000   0.79528327   -7.5767082    716.86349  0.021786515  0.021534514            5 
 2743000   0.81426456   -7.5924444    717.03379  0.021783746  0.021528008            2 
 2744000   0.81498461   -7.6219152     715.1751  0.021719361  0.021521467            5 
 2745000   0.81419149   -7.5921387    718.90007  0.021824532  0.021514909            3 
 2746000   0.80838513   -7.5826028    718.12579  0.021793087  0.021508389            4 
 2747000   0.81918637   -7.5854716    719.17928  0.021817112  0.021501881            2 
 2748000    0.8271234   -7.5971257    717.31384  0.021752603  0.021495357            4 
 2749000    0.8215627   -7.5819564    718.06647  0.021767505  0.021488793            4 
 2750000   0.81835217   -7.6042747    715.59058  0.021684563  0.021482236            4 
 2751000   0.81524246   -7.6381715    717.02132  0.021720021  0.021475637            3 
 2752000   0.80271559   -7.5859646    717.44579  0.021724981   0.02146903            4 
 2753000   0.81726326   -7.5525282    719.07363  0.021766365  0.021462474            2 
 2754000    0.7860622   -7.5716047    718.68629  0.021746741  0.021455935            1 
 2755000   0.79854216   -7.6212411    718.81298  0.021742679   0.02144938            3 
 2756000   0.82723674    -7.619372    718.24589  0.021717643  0.021442806            3 
 2757000   0.81303596    -7.584613    718.10511  0.021705511  0.021436249            2 
 2758000   0.81053901   -7.6081218    715.86373  0.021629917  0.021429675            6 
 2759000   0.82693887   -7.6135117    718.03589  0.021687686  0.021423129            3 
 2760000   0.78926486   -7.6134467    717.28992  0.021657304    0.0214166            3 
 2761000   0.81736312   -7.5895659    719.09793   0.02170403  0.021410107            5 
 2762000   0.81312238   -7.6227296    718.98394  0.021692733  0.021403609            2 
 2763000   0.78372565   -7.5873615     717.9367  0.021653296  0.021397061            1 
 2764000   0.81730147   -7.5982398     718.0485  0.021648833  0.021390497            2 
 2765000   0.83312048   -7.5873303    719.29717  0.021678637  0.021383959            3 
 2766000   0.79492551   -7.5733621    719.31596  0.021671365  0.021377453            2 
 2767000   0.81857059   -7.5981026    718.53725  0.021640081  0.021370916            3 
 2768000   0.80876043   -7.5954698    719.31807   0.02165577  0.021364421            3 
 2769000   0.79493345   -7.6085061    717.24389  0.021585527  0.021357909            7 
 2770000    0.7977119   -7.5950612    719.57523  0.021647871  0.021351398            6 
 2771000   0.80009539   -7.6114388    719.62104  0.021641436  0.021344952            4 
 2772000   0.79215085    -7.572238    720.48794   0.02165969  0.021338497            2 
 2773000   0.80676568   -7.6266421    719.91506  0.021634663  0.021332046           11 
 2774000   0.79568973   -7.5790497    720.83047  0.021654364  0.021325565            2 
 2775000   0.81830877   -7.6091332    719.15055  0.021596113  0.021319073            4 
 2776000   0.81480807   -7.6169572    719.23562  0.021590887  0.021312621            4 
 2777000   0.82967576   -7.5983971    721.26634  0.021644051  0.021306136            5 
 2778000   0.81593218   -7.5922963    718.68519  0.021558831  0.021299663            5 
 2779000   0.79956479   -7.6004566     722.0873  0.021653092   0.02129318            2 
 2780000   0.79216618   -7.6195871     720.2263  0.021589517   0.02128668            2 
 2781000   0.78070012   -7.6108842    720.89655  0.021601839  0.021280223            5 
 2782000   0.78795632   -7.5988639    720.80994  0.021591479  0.021273793            3 
 2783000   0.80921676   -7.6101781    721.35898  0.021600161  0.021267369            2 
 2784000   0.80861544   -7.6130232    721.55992  0.021598417  0.021260966            3 
 2785000   0.79897742   -7.5887034    723.56579  0.021650682  0.021254578            3 
 2786000   0.79326352   -7.6231958    720.74083  0.021558412  0.021248203            2 
 2787000   0.81628149   -7.6288527    721.07463  0.021560658  0.021241819            4 
 2788000   0.81229711   -7.6056092    719.97154  0.021519953  0.021235379            2 
 2789000   0.79945847    -7.620287     720.6662  0.021532993  0.021228901            3 
 2790000   0.80795787   -7.5974066    720.06391  0.021507285  0.021222455            4 
 2791000   0.82116174   -7.6166169    720.07543  0.021499923  0.021216036            3 
 2792000   0.81096981    -7.615649    719.97795  0.021489313  0.021209571            2 
 2793000    0.8098248   -7.6121892    720.37032  0.021493326  0.021203157            2 
 2794000   0.80773029   -7.6139822    718.83524  0.021439848  0.021196714            1 
 2795000   0.80806679   -7.6255485    720.67509  0.021487033  0.021190289            4 
 2796000   0.80278576   -7.5893888    723.82456  0.021573217   0.02118388            4 
 2797000    0.7949142    -7.595772    723.56558  0.021557787  0.021177505            2 
 2798000   0.79825422   -7.6037783    722.79361  0.021527091  0.021171155            2 
 2799000   0.80150278   -7.6261245     720.8892  0.021462701  0.021164774            3 
 2800000   0.80429527    -7.607652    721.16843  0.021463346  0.021158423            2 
 2801000   0.78269383   -7.5947642    722.11806  0.021483936  0.021152046            2 
 2802000   0.81079691   -7.6452207    722.24648  0.021480088  0.021145671            4 
 2803000   0.81538505    -7.620388     721.9948  0.021464942  0.021139268            4 
 2804000   0.80458826   -7.6347484    720.90146  0.021424794  0.021132838            3 
 2805000   0.81669569   -7.6182218    722.25413  0.021457342  0.021126462            3 
 2806000   0.81427801   -7.6119671    724.18791  0.021507125  0.021120099            2 
 2807000   0.81185524    -7.619146     722.9049  0.021461373  0.021113762            2 
 2808000   0.79695817   -7.6259453    722.69772  0.021447582  0.021107423            2 
 2809000   0.78780041   -7.6155553     723.1745  0.021454091  0.021101096            4 
 2810000   0.80951672   -7.6531624    723.38453  0.021452685  0.021094757            4 
 2811000   0.80375687   -7.6345229    721.41667  0.021386715  0.021088408            1 
 2812000   0.81007933   -7.6361617    721.79066  0.021390193  0.021082057            4 
 2813000   0.81412273   -7.6300717    721.50334  0.021374077  0.021075665            2 
 2814000   0.80507557   -7.6147486    722.75666  0.021403597  0.021069275            3 
 2815000   0.80347067   -7.6101958    722.50454   0.02138853  0.021062885            3 
 2816000   0.79430101   -7.6206942    722.80154  0.021389724  0.021056506            3 
 2817000   0.79812002   -7.6337577      723.586  0.021405337   0.02105009            1 
 2818000    0.7976363   -7.6182288    723.72523  0.021401858   0.02104372            3 
 2819000   0.79877672   -7.6208451    722.97283  0.021372024  0.021037332            3 
 2820000   0.81399648   -7.6070559    725.33487  0.021434245  0.021030973            2 
 2821000   0.80520211   -7.6419883     723.3023  0.021366604  0.021024592            3 
 2822000   0.78686317    -7.623351    723.22159   0.02135665  0.021018244            4 
 2823000   0.81820638   -7.5969181    721.90873   0.02131033  0.021011898            6 
 2824000   0.79693809   -7.5952746    723.79787   0.02135853  0.021005587            2 
 2825000   0.80903126   -7.6186184    724.25672  0.021364505   0.02099927            4 
 2826000   0.79529963    -7.613561     725.4444  0.021391968  0.020992954            2 
 2827000   0.80326313   -7.6014657    725.44141  0.021384312  0.020986621            3 
 2828000   0.80595029   -7.6408709    724.03585  0.021335333  0.020980285            3 
 2829000   0.80147236   -7.6733361     723.4073  0.021309276  0.020973903            2 
 2830000   0.79349336   -7.6425311     722.0026  0.021260383  0.020967521            5 
 2831000   0.80217618   -7.6473816    725.38123  0.021352326  0.020961212            4 
 2832000   0.81275954   -7.6104839    724.61072  0.021322114  0.020954869            7 
 2833000   0.80647298   -7.6104051    724.87115  0.021322248  0.020948532            4 
 2834000   0.79762339   -7.6233992    724.26797  0.021296988  0.020942213            2 
 2835000   0.81047265   -7.6399499    723.85061  0.021277208  0.020935906            3 
 2836000   0.80462222   -7.6068934    725.72989  0.021324926  0.020929585            2 
 2837000   0.79517571   -7.6145943    725.06815  0.021297972   0.02092324            4 
 2838000   0.79808246   -7.6242285    723.29953  0.021238535  0.020916881           12 
 2839000   0.81249241   -7.6430831    724.93431  0.021279039  0.020910549            3 
 2840000   0.79941974   -7.6517393    723.68288  0.021234826  0.020904194            2 
 2841000   0.78265376    -7.629289    723.93217  0.021234664  0.020897869            6 
 2842000   0.77619449   -7.6013033    726.20453  0.021293823  0.020891566            3 
 2843000   0.80158951   -7.6571065    724.70531  0.021242388  0.020885243            3 
 2844000   0.81823185   -7.6194612    726.35835  0.021283355   0.02087893            4 
 2845000   0.79283551    -7.624572    725.47709  0.021250061  0.020872633            2 
 2846000   0.79749736   -7.6318032    725.26765  0.021236462  0.020866321            2 
 2847000   0.79602895   -7.6562864    725.26028  0.021228787  0.020860009            3 
 2848000   0.80567704   -7.6435993    725.11372  0.021217045  0.020853699            4 
 2849000      0.80356   -7.6067205     726.7882  0.021258576  0.020847447            2 
 2850000   0.78767268   -7.6355326       726.74  0.021249708  0.020841232            3 
 2851000   0.81196064   -7.6180367    728.07583    0.0212813  0.020835011            3 
 2852000   0.78374129   -7.6135204    726.09464  0.021215949  0.020828762            3 
 2853000   0.80550988   -7.6364764    724.91493  0.021174054  0.020822501            7 
 2854000    0.7878053   -7.6749636    727.14378  0.021231715  0.020816253            3 
 2855000   0.77449658   -7.6158414     728.8396  0.021273777  0.020810016            3 
 2856000   0.79179076   -7.6543602    726.58753  0.021200617   0.02080383            2 
 2857000   0.79565398   -7.6540327    727.76223   0.02122746  0.020797625            2 
 2858000   0.78909281   -7.6611848    727.30622  0.021206736  0.020791408            5 
 2859000   0.77122687   -7.6503916    727.98888  0.021219217  0.020785206            3 
 2860000    0.7694635   -7.6538139    728.27539  0.021220145  0.020779016            2 
 2861000   0.80732773   -7.6257492    728.13488  0.021208636  0.020772858            3 
 2862000   0.79348991   -7.6240064    729.61797  0.021244409  0.020766714            2 
 2863000   0.79732706   -7.6339993    728.30468  0.021198762  0.020760565            4 
 2864000    0.7899449   -7.6267349    728.73144  0.021203778  0.020754407            3 
 2865000   0.78681381   -7.6300287    728.26195  0.021182721   0.02074827            3 
 2866000   0.79933328   -7.6435366    728.24379  0.021174802  0.020742101            5 
 2867000   0.80090642   -7.6499602    728.26213  0.021167949  0.020735937            8 
 2868000   0.78781348   -7.6540128    726.83342  0.021119056  0.020729779            4 
 2869000      0.79229   -7.6836172     727.5318   0.02113198  0.020723599            2 
 2870000   0.77407454   -7.6516259    728.41661  0.021150308    0.0207174            3 
 2871000   0.79340973   -7.6519647    729.18504  0.021165246  0.020711219            3 
 2872000   0.78943509   -7.6581492    727.28854  0.021102847  0.020705033            7 
 2873000    0.7813161   -7.6652728    728.02215  0.021116781  0.020698864            4 
 2874000   0.79732054   -7.6341465    729.01342  0.021138176  0.020692705            3 
 2875000   0.79431736   -7.6283166    729.83616  0.021154671  0.020686566            6 
 2876000   0.77765225   -7.6438053    727.63197  0.021083448  0.020680382            2 
 2877000   0.80362829   -7.6552806    729.04249  0.021116976  0.020674195            4 
 2878000   0.78472668   -7.6704981    727.48485  0.021064537   0.02066799            3 
 2879000   0.78759516   -7.6356754    729.47943  0.021114954  0.020661791            2 
 2880000    0.8026462   -7.6164834     729.2772  0.021101771   0.02065561            1 
 2881000   0.77640678    -7.645778    729.61498  0.021104217  0.020649432            6 
 2882000   0.79475108   -7.6311838     729.8576  0.021103909  0.020643253            4 
 2883000   0.80351193   -7.6324909    729.32541  0.021081206  0.020637101            5 
 2884000   0.79034208   -7.6481292    727.27226  0.021014571  0.020630938            8 
 2885000   0.80672485   -7.6506546    728.80009  0.021051418   0.02062474            3 
 2886000   0.79333964    -7.636159    728.78096  0.021043571  0.020618549            4 
 2887000   0.79225166   -7.6431391    728.50144  0.021028214  0.020612392            3 
 2888000   0.78126594    -7.675895    727.42866  0.020989977   0.02060622            5 
 2889000   0.79478236   -7.6294864    729.01595  0.021028498  0.020600026            4 
 2890000   0.79292824   -7.6450021      728.572   0.02100842  0.020593837            6 
 2891000    0.7777653   -7.6605764    730.20059  0.021048097  0.020587686            4 
 2892000   0.78074253   -7.6436142    729.14046  0.021010272  0.020581525            4 
 2893000   0.79297039   -7.6415189    731.37499  0.021067375  0.020575377            2 
 2894000   0.78122556   -7.6247434    731.40721  0.021061023  0.020569255            3 
 2895000   0.77733742    -7.676323    728.64716  0.020974299   0.02056309            3 
 2896000    0.7794539   -7.6305577    728.19525  0.020954053  0.020556941            3 
 2897000   0.80892462    -7.646616    729.04672  0.020971313  0.020550769            2 
 2898000   0.78454417   -7.6496899    731.01926  0.021020798  0.020544612            3 
 2899000   0.78836438   -7.6685218    729.28057  0.020963567  0.020538449            2 
 2900000   0.78604332   -7.6247364    731.14682  0.021009966  0.020532286            3 
 2901000   0.79795428   -7.6689242    730.49924  0.020984121   0.02052614            4 
 2902000   0.81432082   -7.6607019    729.62606  0.020951816      0.02052            2 
 2903000   0.79712295   -7.6498224    729.37454  0.020937379  0.020513836            3 
 2904000   0.77591314   -7.6762813    730.78407  0.020970617  0.020507676            3 
 2905000   0.79082301   -7.6790663     729.4155  0.020924139  0.020501516            3 
 2906000   0.79056075   -7.6759213    729.30982  0.020913909  0.020495335            2 
 2907000    0.7747085   -7.6759897    730.14553  0.020930671  0.020489148            3 
 2908000   0.79807314   -7.6697858    730.89001  0.020944808  0.020482972            7 
 2909000   0.78527339     -7.67395    729.76146  0.020905278  0.020476807            3 
 2910000   0.77773487   -7.6601874    728.73659  0.020868745  0.020470679            5 
 2911000   0.79197932   -7.6605776    729.77113  0.020891192  0.020464509            3 
 2912000   0.79189633   -7.6286114    731.45917  0.020932325  0.020458347            2 
 2913000   0.77469575   -7.6653247    731.95875  0.020939431  0.020452205            3 
 2914000    0.7823318   -7.6438396    731.55475  0.020920692  0.020446058            4 
 2915000    0.7937049   -7.6492148    730.07798  0.020871297  0.020439937            2 
 2916000   0.78771497   -7.6492862    730.22071  0.020868219  0.020433815            6 
 2917000   0.77404764   -7.6722562    730.11433  0.020858026  0.020427695            7 
 2918000   0.76965571   -7.6937954    731.92142  0.020902485  0.020421545            2 
 2919000   0.77954018   -7.6513454    731.66693  0.020888059  0.020415414            2 
 2920000   0.79307682   -7.6419102    732.12717   0.02089404  0.020409274            5 
 2921000   0.78156321   -7.6726276    730.88466   0.02085144  0.020403151            5 
 2922000   0.78561635   -7.6718901    730.33256  0.020828558  0.020397031            1 
 2923000    0.7929756   -7.6758821    730.28689   0.02082013  0.020390927            6 
 2924000   0.79382344   -7.6729144    731.84985  0.020857554  0.020384792            2 
 2925000    0.7789389   -7.6798952    732.06199  0.020856467  0.020378681            4 
 2926000   0.77877861   -7.6252579     732.7694  0.020869486  0.020372594            2 
 2927000   0.78277839   -7.6578124    731.29103  0.020820266  0.020366495            4 
 2928000   0.79591535   -7.6541749    729.68548   0.02076746  0.020360383            3 
 2929000   0.77285524   -7.6664729    730.09498  0.020772021  0.020354246            3 
 2930000   0.77042748   -7.6376238    730.69016  0.020781859  0.020348101            2 
 2931000   0.77620922   -7.6606667    728.39894  0.020709625  0.020341964            2 
 2932000    0.7785731   -7.6961677    729.75808  0.020741192  0.020335785            2 
 2933000   0.78657115   -7.6483746    730.81996   0.02076429   0.02032962            4 
 2934000   0.78558837    -7.684214    730.63927  0.020752081  0.020323515            3 
 2935000   0.78575761   -7.6876563    730.30786  0.020735601  0.020317357            3 
 2936000   0.77322707    -7.702614    731.35496  0.020758258  0.020311212            2 
 2937000   0.78828629   -7.6903313    730.33026  0.020722116  0.020305087            3 
 2938000   0.76793964   -7.6815507    730.71172  0.020725883  0.020298938            4 
 2939000   0.78051573   -7.6749537    730.14708  0.020702821  0.020292787            4 
 2940000   0.76816206    -7.703786    731.56079   0.02073585  0.020286612            6 
 2941000   0.78019067   -7.6702806    732.09152  0.020743838  0.020280427            4 
 2942000   0.78038281   -7.6796215    731.73694  0.020726743  0.020274279            5 
 2943000   0.78823436   -7.6545676    732.01855  0.020727675  0.020268126            7 
 2944000   0.77929983    -7.676732    730.98402   0.02069135  0.020261988            4 
 2945000   0.78562159   -7.6747548    731.46169  0.020697841  0.020255864            4 
 2946000   0.77671954   -7.6703953    731.02366  0.020678424   0.02024973            3 
 2947000   0.77356379   -7.6756951    731.43001  0.020682898  0.020243586            3 
 2948000   0.77962143   -7.6650943    732.19434  0.020697488  0.020237457            2 
 2949000   0.77639195   -7.6654792     732.3259  0.020694187  0.020231339            3 
 2950000   0.78586566   -7.6821632    730.79621  0.020643961  0.020225224            3 
 2951000   0.77319456   -7.6494066    732.82871  0.020694361   0.02021912            4 
 2952000   0.77198685   -7.6545684    732.02727  0.020664727  0.020213008           10 
 2953000   0.79270367   -7.6670989    733.05898  0.020686843  0.020206908            2 
 2954000   0.77447741   -7.6697443    731.29222  0.020629999   0.02020077            2 
 2955000   0.79265154   -7.6766177    732.31607  0.020651892  0.020194635            2 
 2956000   0.79148342   -7.6887926    730.86255  0.020603929  0.020188489            6 
 2957000   0.78239979   -7.6560833    732.43787  0.020641356  0.020182376            4 
 2958000   0.77351333   -7.6736856    732.13503  0.020625846  0.020176226            3 
 2959000   0.80315679   -7.6727472    731.23454  0.020593515  0.020170085            3 
 2960000   0.78773987   -7.6808895    732.16456  0.020612741  0.020163982            3 
 2961000      0.78161   -7.6888851    732.34303  0.020610802  0.020157842            4 
 2962000   0.79255842   -7.6844734    732.58992   0.02061079  0.020151709            3 
 2963000   0.78688627   -7.6997841    731.39136  0.020570125  0.020145555            2 
 2964000   0.76902302   -7.6428784    734.16761   0.02064124  0.020139421            7 
 2965000    0.7549005   -7.6479225    731.72495  0.020565625   0.02013332            3 
 2966000   0.78036228   -7.6701446    734.08976  0.020625134  0.020127215            4 
 2967000   0.77596213    -7.696236    732.68154   0.02057863  0.020121077            3 
 2968000   0.77355492   -7.6669485    730.74663  0.020517369   0.02011494            4 
 2969000   0.75908617   -7.6998666    731.60341  0.020534507  0.020108811            4 
 2970000   0.78102921    -7.676145    733.05684  0.020568374   0.02010269            2 
 2971000    0.7770362   -7.6816668     732.4892  0.020545529  0.020096589            4 
 2972000     0.782936   -7.6923194    733.40576  0.020564316   0.02009048            2 
 2973000   0.76671857   -7.6484029    732.47781  0.020531388  0.020084404            3 
 2974000    0.7690471    -7.688608    732.65583  0.020529473  0.020078287            3 
 2975000   0.78022574    -7.663723    732.19778  0.020509742  0.020072195            6 
 2976000   0.77000197    -7.694018    730.10815  0.020444337  0.020066086            3 
 2977000   0.78419777   -7.6662593    734.03369  0.020547354  0.020059966            3 
 2978000   0.77929407   -7.6811203    732.45133  0.020496176  0.020053862            4 
 2979000   0.77551638   -7.7137477    732.49132  0.020490414  0.020047762            2 
 2980000   0.77513643   -7.6878397    731.98113  0.020469271   0.02004167            3 
 2981000    0.7709906   -7.7078869    731.73877  0.020455629  0.020035574            4 
 2982000    0.7829582   -7.6807925    734.27369  0.020519609  0.020029476            5 
 2983000    0.7551114   -7.6708278     734.1574  0.020509481  0.020023406            2 
 2984000   0.77143135   -7.6876758     732.2588  0.020449587  0.020017357            1 
 2985000   0.76374683   -7.6973114    733.50057  0.020477403  0.020011285            5 
 2986000   0.78143556   -7.6806696    733.02345   0.02045723  0.020005181            3 
 2987000   0.76674566   -7.6875008    732.44334  0.020434197  0.019999097            1 
 2988000   0.77826063   -7.7072251     734.0168   0.02047124  0.019993003            4 
 2989000   0.76927562   -7.7081076    732.96801  0.020435151  0.019986882            9 
 2990000   0.78081518   -7.7057373    733.14966   0.02043338  0.019980808            2 
 2991000   0.76742759   -7.6966769    734.00042  0.020450251  0.019974741            6 
 2992000   0.77566842   -7.7005868    736.13553  0.020502884  0.019968645            4 
 2993000   0.76038368   -7.6849476    734.56721  0.020452367  0.019962568            3 
 2994000   0.76981515   -7.6817418    733.92724  0.020427723  0.019956498            3 
 2995000   0.77878706   -7.6891048    735.17775  0.020455697  0.019950431            3 
 2996000   0.76025733   -7.7302583    732.68046  0.020379408  0.019944346            4 
 2997000   0.79350148   -7.6921795     730.9209  0.020323682  0.019938217            4 
 2998000   0.78739276   -7.6652746        733.3  0.020383033  0.019932129            4 
 2999000   0.78887897   -7.6765552     734.3709  0.020405994  0.019926035            6 
 3000000   0.76789577   -7.6957032    734.38994  0.020399721  0.019919972            3 
 3001000   0.76573793   -7.6919849     732.7618  0.020347712  0.019913912            4 
 3002000   0.77575767   -7.6628196    733.49868  0.020361389  0.019907831            3 
 3003000   0.76712129   -7.7000927    733.77976  0.020362409  0.019901754            2 
 3004000   0.77064293    -7.698583    732.19231  0.020311593   0.01989565            2 
 3005000   0.77648449     -7.71906    732.55428  0.020314872  0.019889561            2 
 3006000   0.76189798   -7.6970557    733.28549  0.020328385  0.019883475            4 
 3007000   0.79040539   -7.7208941    734.84163   0.02036475  0.019877382            4 
 3008000   0.76296313   -7.7132448    734.15976  0.020339089  0.019871283            2 
 3009000   0.77676227   -7.6991995    731.36636  0.020254967  0.019865204            2 
 3010000   0.76891245   -7.7264665    732.09548  0.020268424  0.019859114            4 
 3011000   0.77551178   -7.7070572    733.56975  0.020302495  0.019853016            3 
 3012000   0.74700474   -7.6984788    734.05126  0.020309076  0.019846946            3 
 3013000   0.76860326   -7.6952518    735.00531  0.020328723  0.019840903            5 
 3014000   0.76377711    -7.683384    735.64893  0.020339774  0.019834873            4 
 3015000   0.75460848   -7.6919719    734.36928  0.020297658  0.019828836            3 
 3016000   0.76866053   -7.6788002    734.48318  0.020294076  0.019822806            3 
 3017000   0.76250358   -7.6726791    736.41873  0.020340811  0.019816772            5 
 3018000   0.75632014    -7.688968    733.62309  0.020256878  0.019810716            7 
 3019000   0.77322192   -7.6965958    734.60556  0.020277287  0.019804655            4 
 3020000   0.78002908   -7.7019211    734.89999  0.020278697  0.019798621            4 
 3021000   0.77886946   -7.6988902    734.60867  0.020263949  0.019792556            9 
 3022000   0.76989524    -7.702924     733.2364  0.020219402  0.019786477            6 
 3023000   0.77230262     -7.71452     732.8055  0.020200835  0.019780397            3 
 3024000   0.78844951   -7.7319819    733.55124  0.020214706  0.019774295            3 
 3025000   0.76804248   -7.7383405    734.37157  0.020230622  0.019768204            6 
 3026000    0.7720968   -7.7283243    734.72307  0.020233616  0.019762116            2 
 3027000   0.76261038   -7.7112295    734.27238  0.020214524  0.019756049            4 
 3028000    0.7679159   -7.6687949    736.01678  0.020255856  0.019750015            5 
 3029000   0.75534572   -7.7054258    735.86582  0.020245016  0.019743992            3 
 3030000   0.76659134   -7.6779062    735.65052  0.020232412  0.019737977            2 
 3031000   0.75437948   -7.7231014    735.26907   0.02021525  0.019731966            3 
 3032000   0.76748626   -7.6715202    735.43133  0.020213042  0.019725961            4 
 3033000   0.75014712   -7.7416428     734.3729  0.020177297  0.019719951            3 
 3034000    0.7738835   -7.6926522    736.28949  0.020223289  0.019713912            4 
 3035000   0.78012317   -7.6693548    734.91451  0.020178872  0.019707917            2 
 3036000   0.75570656   -7.7120468    734.92954  0.020172638   0.01970193            2 
 3037000   0.75556553   -7.6734536    737.38929   0.02023349  0.019695937            4 
 3038000   0.76505312   -7.7038721     735.6744  0.020179789  0.019689915            3 
 3039000   0.76629129   -7.7224785    733.98092  0.020126712  0.019683907            2 
 3040000   0.75378921   -7.7167909    733.96524  0.020119661  0.019677873            8 
 3041000   0.76928101   -7.7111928    734.96636  0.020140479  0.019671844            4 
 3042000   0.75437879   -7.6771302    735.73115  0.020154809  0.019665817            3 
 3043000    0.7588999    -7.699936    734.95777  0.020127006  0.019659786            3 
 3044000   0.76341522   -7.7126848    735.46677  0.020134329  0.019653739            2 
 3045000   0.75815543   -7.7270642    733.44536  0.020072396    0.0196477            3 
 3046000   0.76488338   -7.7185771    733.79863  0.020075471  0.019641653            6 
 3047000   0.77935983    -7.718878    735.33451  0.020110888  0.019635598            5 
 3048000   0.76652686     -7.72039    736.71019  0.020141901  0.019629541            5 
 3049000   0.78270431   -7.6930652     734.7318  0.020081223  0.019623503            4 
 3050000   0.76830777   -7.6881158    736.57924  0.020125116  0.019617479            2 
 3051000    0.7527478   -7.6818346    735.77395  0.020096524  0.019611484            5 
 3052000   0.76292954   -7.6888982    735.90044  0.020093393  0.019605457            7 
 3053000    0.7569059   -7.6830245    734.60182  0.020051365  0.019599449            2 
 3054000   0.76547007    -7.722411    735.36735  0.020065688   0.01959342            2 
 3055000   0.75725708   -7.7279741       735.45  0.020061375  0.019587379            2 
 3056000   0.77052268   -7.7320895     736.9167  0.020094805   0.01958133            2 
 3057000   0.76431403   -7.7083952     734.4614  0.020021301  0.019575287            5 
 3058000   0.75731783    -7.754554    734.23266   0.02000852  0.019569236            9 
 3059000   0.76162964   -7.6983823    737.47824  0.020090396  0.019563195            3 
 3060000   0.76198661   -7.7081946     734.6126   0.02000579  0.019557166            3 
 3061000    0.7435391     -7.68771    735.35344  0.020019423  0.019551153            2 
 3062000   0.76091896   -7.6881557     738.2272  0.020091095  0.019545154            3 
 3063000   0.78457581   -7.7159397    735.66336  0.020014783  0.019539158            3 
 3064000   0.76949446   -7.6894506    735.10386  0.019993034   0.01953314            2 
 3065000   0.76740958   -7.6895259    736.04061   0.02001198  0.019527104            5 
 3066000   0.77154148   -7.7247926    733.93811  0.019948307  0.019521056            4 
 3067000   0.75125401   -7.7249399    736.16916  0.020002423  0.019514996            3 
 3068000   0.76488792   -7.7327372    735.58716  0.019980095  0.019508962            5 
 3069000   0.77150945   -7.7004202     735.6525  0.019975358  0.019502945            2 
 3070000   0.76408172    -7.704137    737.94329  0.020031034  0.019496925            4 
 3071000   0.75631657   -7.6931473    734.81728  0.019939685  0.019490905            3 
 3072000    0.7511953   -7.7090138    735.13614  0.019941844  0.019484905            3 
 3073000   0.76404212   -7.7246619    736.45173  0.019971031  0.019478856            3 
 3074000   0.76264278   -7.7278976    735.71843  0.019944655  0.019472802            2 
 3075000   0.74321878   -7.6929444    736.14844  0.019949822  0.019466772            2 
 3076000   0.77450924   -7.7130889    735.01818  0.019912716  0.019460754            4 
 3077000   0.75500114   -7.7392201    734.39653  0.019889409  0.019454715            4 
 3078000   0.75183337   -7.7039022    735.59468  0.019915386  0.019448682            5 
 3079000   0.74936403   -7.7082496    735.29193  0.019900724  0.019442629            3 
 3080000   0.76081262   -7.7513735    734.43324  0.019871029  0.019436554            2 
 3081000   0.75245183   -7.7124334    734.63316  0.019869987  0.019430477            3 
 3082000   0.76699534   -7.7418865    734.35618  0.019856051  0.019424381            3 
 3083000   0.76703724   -7.7186113    736.22194  0.019900042  0.019418305            3 
 3084000   0.75346205   -7.7323074    735.26676  0.019867779  0.019412225            5 
 3085000   0.75006831   -7.7065774    734.40779  0.019838136  0.019406167            7 
 3086000    0.7592406   -7.7379598    735.72946  0.019867397  0.019400069            3 
 3087000   0.77770968   -7.7586214    735.64899  0.019858789  0.019393992            3 
 3088000      0.77369   -7.7489596    734.28261  0.019815485  0.019387902            2 
 3089000   0.77116879   -7.7678605    735.24721  0.019835093  0.019381826            3 
 3090000   0.75695525   -7.7196482    736.06725  0.019850789  0.019375765            3 
 3091000   0.73982152    -7.748188    734.95373  0.019814346  0.019369709            6 
 3092000   0.75484696   -7.7059098    734.63286   0.01979929  0.019363644            2 
 3093000   0.76197665   -7.7238594    735.99576  0.019829609  0.019357588            3 
 3094000    0.7639918   -7.7393818    733.98649  0.019769082   0.01935154            9 
 3095000   0.74430848   -7.7247584    735.17255   0.01979463  0.019345498            5 
 3096000   0.74822411   -7.7073328    734.14866  0.019760677  0.019339453            2 
 3097000   0.75777351   -7.7387764    734.76056  0.019770761  0.019333403            2 
 3098000   0.75974682   -7.7200852    736.24115  0.019804206  0.019327351            5 
 3099000   0.76982156   -7.7325014    734.36746  0.019747431  0.019321295            3 
 3100000   0.75645037   -7.7105591     735.7629  0.019778573  0.019315236            6 
 3101000    0.7700658   -7.7350524    735.64003  0.019768893  0.019309179            3 
 3102000   0.75863534    -7.730881    736.18496  0.019777159  0.019303111            2 
 3103000   0.76278909   -7.7069191    735.90922   0.01976338  0.019297025            6 
 3104000   0.75335805   -7.7248471    734.60018  0.019721869  0.019290944            4 
 3105000   0.76633001   -7.7599863    733.98224  0.019698933  0.019284847            5 
 3106000   0.75582673   -7.7162803    734.94734  0.019718484  0.019278768            3 
 3107000   0.73841475   -7.7542928    735.65018  0.019730989   0.01927269            2 
 3108000    0.7380572   -7.7637065    735.45218  0.019719331  0.019266613            3 
 3109000   0.75260247   -7.7445302     733.5731  0.019662622  0.019260529            4 
 3110000   0.76013755   -7.7300524    736.57002  0.019736603  0.019254448            3 
 3111000   0.74907073   -7.7522258    734.01421  0.019661797  0.019248344            3 
 3112000   0.77853959   -7.7350748    736.51573  0.019722465  0.019242256            2 
 3113000   0.74358516   -7.7276728    734.84482    0.0196714  0.019236178            5 
 3114000   0.76418598   -7.7333636    735.14434  0.019673098  0.019230094            3 
 3115000   0.77515054   -7.7455791    735.87263  0.019686266  0.019223999            2 
 3116000   0.74163709   -7.7624148    733.64558  0.019620389  0.019217916            3 
 3117000   0.77100176   -7.7201685    735.94289  0.019675513  0.019211838            3 
 3118000   0.73884521   -7.7424868    734.71657  0.019636428  0.019205758            6 
 3119000   0.76240733   -7.7804826    733.85297  0.019607058   0.01919965            9 
 3120000   0.75496144   -7.7685956    735.05251  0.019632813  0.019193532            2 
 3121000     0.756481   -7.7603615    737.17324  0.019683147  0.019187421            3 
 3122000   0.77277157   -7.7261614    736.66702  0.019663331  0.019181339            2 
 3123000   0.74674774   -7.7344133    734.96172  0.019611531  0.019175271            5 
 3124000   0.75880727   -7.7633296    734.82053  0.019601487  0.019169198            3 
 3125000   0.74388045   -7.7297913    735.21797  0.019605812  0.019163104            3 
 3126000   0.73219651   -7.7686254    735.73588  0.019613347  0.019157005            2 
 3127000   0.75314705    -7.733156    735.78941  0.019608501  0.019150934            2 
 3128000    0.7648553   -7.7611334    734.07834  0.019556648  0.019144852            3 
 3129000   0.73823096   -7.7413872    735.00554  0.019575092  0.019138761            2 
 3130000   0.73998778    -7.723844    737.24897  0.019628567  0.019132723            6 
 3131000   0.76489182   -7.7190476    735.15422  0.019566545  0.019126675            4 
 3132000   0.77200649    -7.749344    735.73566  0.019575768  0.019120628            3 
 3133000   0.74517792   -7.7409037    736.43084   0.01958801  0.019114578            3 
 3134000    0.7602925   -7.7140483    737.64887  0.019614148  0.019108531            2 
 3135000   0.74163751   -7.7361428    738.60956  0.019633428  0.019102493            1 
 3136000   0.75358708   -7.7532423    735.26735  0.019538354  0.019096449            2 
 3137000   0.74379373   -7.7441275     735.9304   0.01954974  0.019090431            4 
 3138000   0.74522812   -7.7496676    735.73394  0.019538293  0.019084424            3 
 3139000   0.74407279   -7.7661744    735.20433  0.019518008  0.019078387            2 
 3140000     0.749156   -7.7415578     735.3395  0.019515379  0.019072355            5 
 3141000    0.7555003   -7.7617396    736.22351   0.01953262  0.019066324            4 
 3142000   0.74019283   -7.7573092    736.46248  0.019532741  0.019060281            6 
 3143000   0.74975424   -7.7085592    736.87827  0.019537551  0.019054281            2 
 3144000   0.73517931    -7.731578    736.28379   0.01951558  0.019048291            2 
 3145000    0.7458859   -7.7381307    737.21321  0.019534001  0.019042299            4 
 3146000   0.73724867   -7.7183527    735.21958  0.019474984   0.01903629            3 
 3147000   0.75139072   -7.7389628    737.57137  0.019531071  0.019030315            3 
 3148000   0.73970877   -7.7315812    736.50981  0.019496765  0.019024331            3 
 3149000   0.74551023    -7.724445    737.81196  0.019525033  0.019018357            2 
 3150000   0.73383846   -7.7614023    736.29094  0.019478596  0.019012381            2 
 3151000   0.76431707   -7.7309739    738.80193  0.019538822  0.019006397            4 
 3152000   0.73487652   -7.7539844    737.23612  0.019491226  0.019000442            2 
 3153000   0.74145135   -7.7558078    738.00892  0.019505469  0.018994438            4 
 3154000   0.74481684   -7.7683546    735.92894  0.019444328  0.018988425            4 
 3155000   0.73666389   -7.7656792     737.1993  0.019471719  0.018982407            4 
 3156000   0.75884568   -7.7495434    735.95377  0.019432662  0.018976406            6 
 3157000   0.76490026    -7.739083    736.02021   0.01942826  0.018970418            4 
 3158000   0.73097921   -7.7400133     736.6898  0.019439777  0.018964439            3 
 3159000   0.74957584   -7.7852354    737.83322  0.019463786   0.01895848            7 
 3160000   0.74330539   -7.7617745    739.47111   0.01950082  0.018952522            3 
 3161000   0.74963485   -7.7376706    739.29188  0.019489926  0.018946578            2 
 3162000   0.75298756   -7.7607974    738.22283  0.019455588  0.018940629            5 
 3163000   0.73149952   -7.7267818    737.48209  0.019429921  0.018934696            3 
 3164000    0.7406252   -7.7420578     737.9348  0.019435704  0.018928788            2 
 3165000   0.76258481   -7.7543209     738.5031  0.019444526   0.01892289            3 
 3166000   0.75172404   -7.7265122    738.36369  0.019434715  0.018917003            6 
 3167000   0.74474662   -7.7427448    738.37431  0.019428858  0.018911109            8 
 3168000     0.748146   -7.7499325    738.62097  0.019429213    0.0189052            5 
 3169000   0.74858095   -7.7675724    738.05057  0.019408083  0.018899289            2 
 3170000   0.74992718   -7.7495437    736.72196  0.019367034  0.018893369            3 
 3171000   0.74846475   -7.7625981     737.9628  0.019393535  0.018887447            2 
 3172000   0.74943115   -7.7666393    737.79017  0.019382886  0.018881519            1 
 3173000   0.72980679   -7.7463527    738.57195  0.019397309  0.018875594            4 
 3174000   0.73725684   -7.7561036    741.05292  0.019456336  0.018869701            5 
 3175000    0.7361175   -7.7525159    737.97781  0.019369496  0.018863791            2 
 3176000   0.75549328   -7.7439794    738.65089  0.019381058  0.018857876            9 
 3177000   0.74716125   -7.7208884    740.04479   0.01941152  0.018851997            4 
 3178000   0.73737165   -7.7508418      740.222  0.019410059  0.018846102            8 
 3179000   0.73928886   -7.7569004    738.61885  0.019361929  0.018840218            3 
 3180000   0.75365566   -7.7673638    739.21584  0.019371484  0.018834325            3 
 3181000   0.76270075   -7.7689536    738.10706  0.019336348  0.018828419            2 
 3182000   0.73733992   -7.7617782    738.89224  0.019350834  0.018822514            4 
 3183000   0.74877358   -7.7444661    739.17118  0.019352057  0.018816619            2 
 3184000   0.72491453   -7.7541827    738.30987  0.019323437  0.018810737            3 
 3185000    0.7421483   -7.7427892    738.64671  0.019326183  0.018804834            3 
 3186000   0.75672765   -7.7842956    738.22026  0.019308963  0.018798924            3 
 3187000   0.76277916    -7.767709    740.45777   0.01936141  0.018793018            6 
 3188000    0.7414404   -7.7789049    739.35134  0.019326415   0.01878711            4 
 3189000   0.75663975   -7.7809177    739.19805  0.019316349  0.018781187            5 
 3190000   0.74647762   -7.7911893     739.1708  0.019309582  0.018775275            2 
 3191000   0.74133733   -7.7386884    737.99641  0.019272861  0.018769367            3 
 3192000   0.72650062   -7.7604251    739.43232  0.019304311  0.018763482            9 
 3193000   0.73082408   -7.7550288    738.23922  0.019267126  0.018757557            2 
 3194000   0.75271375   -7.7674427    738.88116  0.019277843  0.018751632            5 
 3195000   0.72754903   -7.7825064    740.99222  0.019326871  0.018745711            4 
 3196000   0.72145488   -7.7538525    737.88163  0.019239717  0.018739825            5 
 3197000   0.72647235   -7.7436399    739.68968  0.019280828  0.018733928            3 
 3198000   0.75253706   -7.7506314    738.54272  0.019244911  0.018728038            9 
 3199000   0.73857151   -7.7706146    737.78226  0.019219086  0.018722127            2 
 3200000   0.75657369   -7.7623464    737.72872  0.019211686  0.018716239            2 
 3201000   0.74151457   -7.7659699    739.00998  0.019239039  0.018710322            3 
 3202000   0.73527128    -7.784619    739.15227  0.019236734  0.018704399            6 
 3203000   0.73722616   -7.7776113    737.29994  0.019182536  0.018698458            5 
 3204000   0.71772883   -7.7982401    738.12147  0.019197916  0.018692533            2 
 3205000   0.74141257    -7.782586    738.32069  0.019197106  0.018686606            2 
 3206000   0.73317044   -7.7808737    739.10744  0.019211568  0.018680683            3 
 3207000   0.72246252   -7.7814165    739.71683  0.019221412  0.018674782            5 
 3208000   0.74975361   -7.7764963    739.32811  0.019205323  0.018668885            2 
 3209000   0.75252603   -7.7868396    740.88551  0.019239782  0.018662986            4 
 3210000   0.73489871   -7.7701329    738.85905   0.01918118  0.018657106            4 
 3211000   0.74456843   -7.7869948    738.66296  0.019170117   0.01865121            5 
 3212000   0.73787732    -7.761558    740.50473  0.019211933  0.018645335            3 
 3213000   0.73035073    -7.753524    739.36638  0.019176428  0.018639479            2 
 3214000   0.74551659   -7.7606722    740.60204  0.019202501  0.018633629            4 
 3215000   0.73887027   -7.7925457    739.51712  0.019168407  0.018627755            4 
 3216000   0.72655636   -7.7806457    741.19482  0.019205919  0.018621903           11 
 3217000   0.75417321   -7.7908749    738.85935  0.019139451  0.018616029            7 
 3218000   0.74631271   -7.7779933    738.58155  0.019126309  0.018610146            4 
 3219000   0.74227614   -7.7852474    739.02106  0.019131745  0.018604254            5 
 3220000   0.71782554   -7.7821186    740.39147   0.01916127  0.018598392            2 
 3221000   0.72385026   -7.7897451    741.12621   0.01917433  0.018592513            5 
 3222000   0.73759687   -7.7696731    739.04362  0.019114515  0.018586637            3 
 3223000   0.74588656   -7.7953044    738.90098  0.019104897  0.018580755            4 
 3224000   0.74137565   -7.7589328    739.52421   0.01911508  0.018574894            2 
 3225000   0.73204647   -7.7846009    739.32209   0.01910393  0.018569029            3 
 3226000   0.73930088   -7.7776558     740.9677  0.019140517  0.018563176            4 
 3227000   0.73049235   -7.7750893    740.91483  0.019133221  0.018557341            6 
 3228000   0.73099226   -7.7381523    740.97433  0.019128829  0.018551508            3 
 3229000    0.7410123   -7.7789757    738.94817  0.019070615  0.018545662            3 
 3230000    0.7410092   -7.7641279    740.21551  0.019097407  0.018539814            4 
 3231000   0.74031286   -7.7573095    740.97463  0.019111076   0.01853396            4 
 3232000   0.73368822   -7.7740339    740.33351  0.019088632  0.018528114            3 
 3233000   0.74050633   -7.7973043    739.83677  0.019069924  0.018522259            4 
 3234000   0.72408282   -7.7693473    738.64435  0.019033301  0.018516418            2 
 3235000   0.71067527   -7.7595515    738.33762  0.019019516  0.018510558            3 
 3236000   0.72286965   -7.7876986    740.98329   0.01908177  0.018504695            3 
 3237000   0.74907451   -7.7505712    741.42798  0.019087323  0.018498872            2 
 3238000   0.72599981   -7.7487468    740.32259   0.01905298  0.018493061            2 
 3239000   0.73626826   -7.7623154    740.76692  0.019058529  0.018487235            3 
 3240000   0.74517226   -7.7624037    739.72375  0.019025817  0.018481404            5 
 3241000   0.72904046   -7.7798925    739.20507   0.01900661  0.018475558           16 
 3242000   0.72064443   -7.7925225    739.76399  0.019015114  0.018469703            4 
 3243000   0.72794897   -7.7725345    740.27505  0.019022383  0.018463874            4 
 3244000   0.72764246   -7.7894686     741.4675  0.019047151  0.018458029            1 
 3245000   0.72440899   -7.7754605      740.146  0.019007345  0.018452187            2 
 3246000    0.7274474   -7.7670437    741.60346  0.019038906  0.018446366            5 
 3247000   0.73825078   -7.7966966    740.98536  0.019017179  0.018440539            6 
 3248000   0.72726025   -7.7951343    740.46572  0.018997992   0.01843471            3 
 3249000   0.73060698   -7.7776705    739.90529   0.01897777  0.018428856            8 
 3250000   0.75079745   -7.7929221    740.66601  0.018991436  0.018422998            6 
 3251000   0.71789571   -7.7738273    740.37944  0.018978249  0.018417162            4 
 3252000   0.73704943   -7.7792438    740.55691  0.018976961  0.018411325            3 
 3253000   0.73184362   -7.7852237    740.31691  0.018964979   0.01840548            3 
 3254000   0.72787891   -7.8077254     741.5528  0.018990801  0.018399626            2 
 3255000   0.73271581   -7.8004442    740.72533  0.018963782  0.018393788            2 
 3256000   0.72585366   -7.7808197     740.7417  0.018958377  0.018387952            3 
 3257000   0.73706058   -7.7594146    741.07561  0.018961099  0.018382132            3 
 3258000   0.71312989   -7.7842677    741.48711  0.018965805  0.018376315            5 
 3259000    0.7482856    -7.814638    740.35199   0.01893096  0.018370493            3 
 3260000   0.71121943   -7.8039614    739.63579  0.018906845  0.018364646            3 
 3261000   0.74378144    -7.817778    740.15088   0.01891421  0.018358795            2 
 3262000   0.72150812   -7.7940329     739.5367  0.018892722  0.018352957            3 
 3263000   0.72456931   -7.7806967    741.33593  0.018932882  0.018347138            3 
 3264000   0.73813803   -7.8146376    740.30635  0.018900795  0.018341315            2 
 3265000   0.73764315   -7.8010258    740.21957  0.018892791  0.018335458            3 
 3266000   0.71764952   -7.8129369    741.28432  0.018914174   0.01832963            4 
 3267000   0.72446117    -7.774652    741.94115  0.018925139  0.018323801            5 
 3268000   0.72842824     -7.77225    741.50529  0.018908234  0.018318005            2 
 3269000   0.74100993   -7.8183968    739.87677  0.018860935  0.018312185            4 
 3270000   0.74279924   -7.7958424    738.81854  0.018828199   0.01830636            2 
 3271000   0.73298857   -7.7955219    740.26986  0.018859418  0.018300552            5 
 3272000   0.72722743   -7.8013966    741.81201   0.01889293  0.018294756            2 
 3273000   0.72417084   -7.7792823    740.60701  0.018856477  0.018288961            5 
 3274000   0.73596033   -7.7751449     741.8509  0.018882379  0.018283182            4 
 3275000   0.73339556   -7.7797256     740.9363  0.018853341  0.018277401            4 
 3276000    0.7307598   -7.7971978    740.69322  0.018841403    0.0182716            9 
 3277000   0.73544753   -7.7953688    739.88406  0.018815076  0.018265834            2 
 3278000   0.73526159   -7.7961801    741.05263  0.018839044  0.018260063            2 
 3279000   0.73273294   -7.7918825    741.96264  0.018856426  0.018254287            1 
 3280000    0.7272771   -7.7874812    740.28537  0.018808063  0.018248512            5 
 3281000   0.71908607   -7.7890444    741.49315  0.018833007  0.018242733            9 
 3282000   0.73051301   -7.7988683    740.94387  0.018813322   0.01823695            4 
 3283000   0.72143537   -7.8113848    741.64719  0.018825444  0.018231172            7 
 3284000   0.72742747   -7.8038554     740.4239   0.01878867  0.018225373            6 
 3285000   0.75042212   -7.7952598    741.50249  0.018810312  0.018219589            8 
 3286000   0.72950071    -7.781906    742.29327  0.018824642  0.018213801            4 
 3287000   0.72543598   -7.7948681    741.35076   0.01879502  0.018208018            4 
 3288000   0.74249371   -7.7862328    742.60529  0.018821099   0.01820224            2 
 3289000   0.72492374   -7.8008201    740.09616  0.018751803  0.018196456            4 
 3290000   0.72762795    -7.803152    740.00802  0.018743871  0.018190656            4 
 3291000   0.73322805   -7.8222002    740.99161  0.018763081  0.018184856            4 
 3292000   0.72954053   -7.8150153    740.56958  0.018746699  0.018179046            3 
 3293000   0.72572425   -7.8166584    739.82164  0.018722078  0.018173231            3 
 3294000   0.72215354    -7.806689    740.52756  0.018734253  0.018167424            4 
 3295000   0.73406072   -7.8147051    739.92179  0.018713247  0.018161633            5 
 3296000   0.71169774   -7.7903176    740.72042  0.018727761  0.018155842            3 
 3297000    0.7104291     -7.81823    740.43488  0.018714864  0.018150044            2 
 3298000   0.73345866   -7.8377668    741.29407  0.018730899  0.018144266            2 
 3299000   0.71224452   -7.8132286     742.0634  0.018744655  0.018138482            3 
 3300000   0.72747693    -7.780041    741.62573  0.018727922  0.018132686            3 
 3301000   0.74329255   -7.8135535     741.3831  0.018716124    0.0181269            3 
 3302000   0.74062556   -7.7863414    739.82265  0.018671074  0.018121129            4 
 3303000   0.72348489   -7.8002374    740.85245  0.018691403  0.018115335            5 
 3304000   0.73191438   -7.8090181    740.66112   0.01868092  0.018109558            2 
 3305000   0.71790928   -7.8073882    741.47076  0.018695682  0.018103763            5 
 3306000   0.71980774   -7.8006926     739.3903  0.018637586  0.018097956            4 
 3307000   0.71063781   -7.7908131    739.71094   0.01864003  0.018092171            6 
 3308000   0.69787669   -7.8278016    740.51197  0.018654574   0.01808638            2 
 3309000   0.71216382   -7.7896243     741.5292  0.018674554  0.018080596            5 
 3310000   0.71133912    -7.791746    743.03231  0.018706755  0.018074815            2 
 3311000   0.71473832   -7.8317095    741.89601  0.018672506  0.018069052            3 
 3312000   0.73020644    -7.804136    741.58223  0.018658973  0.018063296            4 
 3313000   0.71921795   -7.8203055    741.21122  0.018644009  0.018057514            3 
 3314000    0.7090392      -7.8342    740.07892  0.018609911  0.018051748            5 
 3315000   0.72067934   -7.8064948    739.97259  0.018601624  0.018045976            4 
 3316000   0.71667711   -7.8165529    740.21444  0.018602092   0.01804021            3 
 3317000    0.7368696   -7.8104429     741.4491  0.018627502  0.018034465            2 
 3318000   0.72042124   -7.8114381     741.7475  0.018629383  0.018028733            4 
 3319000   0.73451272   -7.8025391    741.49681  0.018617475  0.018022986            3 
 3320000   0.73966973   -7.8246945    740.87276  0.018596204  0.018017213            2 
 3321000   0.70818225   -7.8174257    742.44958  0.018630171  0.018011467            3 
 3322000   0.72396372   -7.7901528    742.35393  0.018622163  0.018005712            3 
 3323000   0.72433978   -7.8007113     741.2354  0.018588509  0.017999974            2 
 3324000   0.72217565   -7.8190657     740.8319  0.018572801  0.017994222            4 
 3325000   0.71488807   -7.8035375    741.85557  0.018592871  0.017988469            7 
 3326000   0.72627185   -7.8052768    740.88983  0.018563085  0.017982709            4 
 3327000   0.72432221   -7.8389538    740.95647  0.018559174   0.01797695            6 
 3328000   0.73119924   -7.8441299    740.65391  0.018546021  0.017971172            3 
 3329000    0.7245075   -7.8499758    738.95303  0.018497873    0.0179654            4 
 3330000    0.7155619   -7.7908459    739.39974  0.018503497  0.017959624            6 
 3331000    0.7068818   -7.8556279    740.26231  0.018519521   0.01795386            4 
 3332000   0.70603552   -7.7920924     741.4078  0.018542612  0.017948094            3 
 3333000   0.70584869   -7.8477036    740.13313  0.018505179  0.017942319            5 
 3334000   0.71884877   -7.8224933    739.68383  0.018488398  0.017936542            5 
 3335000   0.72722151   -7.7989841    740.01021   0.01849101  0.017930769            4 
 3336000   0.71600394    -7.817875    739.77762  0.018479657  0.017924994            9 
 3337000   0.72174172   -7.7985831    740.32004  0.018487665   0.01791924            5 
 3338000   0.70944107   -7.8117595    741.85576  0.018520465  0.017913501            3 
 3339000   0.72153735   -7.7881639    743.58428  0.018558058  0.017907791            4 
 3340000   0.70061816   -7.8044168    744.21982  0.018568359  0.017902087            4 
 3341000   0.72159009   -7.8227815    741.06535   0.01848412  0.017896365           14 
 3342000   0.72724296   -7.8181095    739.92187  0.018450077  0.017890632            5 
 3343000   0.71148193   -7.8186068    739.78858  0.018441235  0.017884895            4 
 3344000   0.70984502   -7.8379099    739.96799  0.018440191  0.017879138            4 
 3345000   0.71358398   -7.8128625     742.0951  0.018487671  0.017873384            2 
 3346000   0.73810102    -7.848676    741.36328  0.018463919  0.017867639            4 
 3347000   0.69887469   -7.8182253    740.61431  0.018439755  0.017861897            4 
 3348000   0.70463538   -7.8123834    741.22025  0.018449329  0.017856144            7 
 3349000   0.72069237   -7.8300324    740.09642  0.018415856  0.017850411           14 
 3350000   0.72531423   -7.8139464    741.88719  0.018454905  0.017844688           14 
 3351000   0.72193806   -7.8393408    742.29039  0.018459425  0.017838968            3 
 3352000   0.72603202   -7.8279914    741.41368  0.018432122  0.017833235            5 
 3353000   0.72641855   -7.8281804    740.27373  0.018398293  0.017827504            8 
 3354000   0.71695043   -7.8375404    739.91471  0.018383888  0.017821752            4 
 3355000   0.70156554   -7.8209491    741.15552  0.018409228  0.017816007            2 
 3356000   0.70839174   -7.8470234    741.99279  0.018424533  0.017810273            7 
 3357000   0.73135714   -7.8410446     740.6162  0.018384872  0.017804539            3 
 3358000   0.71779909   -7.8047634    741.46376  0.018400431   0.01779882            5 
 3359000   0.70849607   -7.8231356    740.90732  0.018381148  0.017793107            4 
 3360000   0.71950399   -7.8265318    741.83972  0.018398803   0.01778739            3 
 3361000   0.71863624   -7.8211857    741.87353  0.018394167  0.017781671            3 
 3362000   0.71752712   -7.8015017    741.07462  0.018368893  0.017775949            2 
 3363000   0.70959768   -7.8072072    742.21596  0.018391713   0.01777024            3 
 3364000   0.71362735   -7.8323556    740.28397  0.018338386  0.017764518            3 
 3365000   0.70029494   -7.8561808     742.1376  0.018378841   0.01775878            3 
 3366000   0.68897026   -7.8066432    741.45358  0.018356446  0.017753068            6 
 3367000   0.71216463   -7.8313654    742.11669  0.018367407  0.017747366            6 
 3368000   0.70789793   -7.8285196    740.63927  0.018325398   0.01774166            5 
 3369000   0.69900302    -7.829957    741.86432   0.01835026  0.017735941            2 
 3370000   0.72145665   -7.8415117    741.85308  0.018344537  0.017730221            3 
 3371000   0.70936769   -7.8412495    740.33508  0.018301569  0.017724498            2 
 3372000   0.71709638   -7.8222202    739.22874    0.0182688  0.017718753            3 
 3373000   0.70148965   -7.8582559    740.83229  0.018303002  0.017713012            3 
 3374000   0.71558536   -7.8651451    739.25254  0.018258559  0.017707262            1 
 3375000   0.70188094   -7.8684947    739.74399  0.018265284  0.017701493            5 
 3376000   0.70931271   -7.8614398    739.99125  0.018265977  0.017695731            4 
 3377000   0.72004187   -7.8565098    740.11288  0.018263569  0.017689982            5 
 3378000   0.71205841   -7.8518386    740.34501  0.018263889  0.017684244            6 
 3379000   0.71702225   -7.8213036    740.88512  0.018271804  0.017678523            4 
 3380000   0.71707387   -7.8686291    741.78281  0.018288531  0.017672806            3 
 3381000   0.72377592   -7.8322642    740.27683  0.018246003  0.017667079            5 
 3382000   0.70770595   -7.8521521    741.33214  0.018266611  0.017661376            4 
 3383000   0.72019681    -7.828366    742.27795   0.01828451  0.017655682            4 
 3384000   0.70154666   -7.8428034    742.59188  0.018286837  0.017649978            3 
 3385000   0.70373799   -7.8338878     741.7549   0.01826083  0.017644291            5 
 3386000   0.68965542    -7.853255    741.87635  0.018258426  0.017638607            4 
 3387000   0.70886906   -7.8454489    741.95254  0.018254909  0.017632916            2 
 3388000   0.70369295   -7.8624019    741.81613  0.018246166   0.01762721            4 
 3389000    0.6909898   -7.8352424    741.34817  0.018229275  0.017621515            4 
 3390000   0.70635916   -7.8650775    742.32777  0.018247979  0.017615824            3 
 3391000    0.7063479     -7.83765    740.93158  0.018208286  0.017610131            9 
 3392000   0.71541969   -7.8523278    741.79794  0.018224202  0.017604423            5 
 3393000   0.69880861   -7.8507688    742.70675  0.018241152  0.017598732            5 
 3394000   0.70457308   -7.8882542    741.14651  0.018197469  0.017593032            3 
 3395000   0.70623317   -7.8644794    741.59634   0.01820315  0.017587351            4 
 3396000   0.71382432   -7.8702712    741.25658  0.018189453  0.017581648            4 
 3397000   0.70631624    -7.844652    741.98094  0.018201868  0.017575955            3 
 3398000    0.6979141   -7.8543157    742.28787  0.018204038  0.017570265            4 
 3399000   0.69500889   -7.8655503    740.50295  0.018154922  0.017564565            3 
 3400000   0.70837784   -7.8761462    742.14661  0.018189868   0.01755888            4 
 3401000   0.71100787   -7.8589018      741.402  0.018166275  0.017553199            5 
 3402000    0.7190682   -7.8562938    741.57929  0.018165277  0.017547521            4 
 3403000   0.71916677   -7.8677095    740.71648  0.018138811  0.017541842            4 
 3404000   0.71333525   -7.8683775    741.42521  0.018150833   0.01753617           10 
 3405000   0.70755519   -7.8585927    742.38919  0.018169094  0.017530487            5 
 3406000   0.71726995    -7.867711    743.00294  0.018178776  0.017524814            3 
 3407000   0.70960995   -7.8393388    742.22473  0.018154406  0.017519158            6 
 3408000    0.6928212   -7.8369196    743.31541  0.018175749  0.017513515            5 
 3409000   0.70918528   -7.8619402    741.96864  0.018137495  0.017507858            4 
 3410000   0.71648529   -7.8208056    743.09823  0.018159781  0.017502201            3 
 3411000   0.72025919   -7.8564326    742.19436  0.018132375  0.017496556            4 
 3412000   0.70196193   -7.8480255    742.49676  0.018134446  0.017490913            3 
 3413000    0.6990004   -7.8569504    742.58078  0.018131184  0.017485275            3 
 3414000   0.69416745   -7.8379315    743.52162  0.018148839  0.017479643            5 
 3415000   0.70799393   -7.8431447    742.94446   0.01812944  0.017474027            7 
 3416000   0.71639428   -7.8068766    743.70248  0.018142625  0.017468432           11 
 3417000    0.7231887    -7.862516    740.50768  0.018059401  0.017462825            5 
 3418000   0.70350145   -7.8480332    741.69681  0.018083109  0.017457217            2 
 3419000   0.69201517   -7.8396352     743.5494  0.018122975  0.017451612            3 
 3420000   0.71795891   -7.8354331    742.66376  0.018096095  0.017446012            5 
 3421000   0.71574381   -7.8823009    743.92947  0.018121638  0.017440404            4 
 3422000   0.69953994   -7.8400409    743.82631   0.01811383  0.017434783            5 
 3423000   0.69343349   -7.8596693    742.42686  0.018074468  0.017429165            5 
 3424000   0.70034797   -7.8512084    742.25868  0.018065096  0.017423539            3 
 3425000   0.69159688   -7.8664769     741.6124  0.018044097  0.017417918            3 
 3426000   0.71748942   -7.8647534    742.94693  0.018071291  0.017412297            4 
 3427000   0.71749042    -7.840557    743.06568  0.018068906  0.017406657            2 
 3428000    0.7135847   -7.9004037    741.08059  0.018015378  0.017401028            6 
 3429000   0.70829692   -7.8491152    742.33211  0.018040539  0.017395404            3 
 3430000    0.7111028   -7.8932096     743.2127  0.018056674  0.017389786            2 
 3431000   0.67925506   -7.8673869    742.82996  0.018042115  0.017384175            4 
 3432000   0.71511856   -7.8564336    743.64121  0.018056556  0.017378572            3 
 3433000   0.71257445   -7.8808028    741.26574  0.017993634  0.017372964            6 
 3434000   0.70418489    -7.859489    742.24318  0.018012114  0.017367346            3 
 3435000   0.70881316   -7.8573695    741.48243  0.017988414  0.017361732            5 
 3436000   0.70961765   -7.8601948    742.72909  0.018013414   0.01735614            5 
 3437000   0.69578037   -7.8694666    742.98038  0.018014266  0.017350559            2 
 3438000   0.70817763   -7.8674187     744.1666  0.018037779  0.017344968            3 
 3439000   0.70921062   -7.8508885     744.0342  0.018029325   0.01733939            2 
 3440000   0.70045596   -7.8664869     743.9483  0.018022004  0.017333815            3 
 3441000   0.69315542   -7.8485956    742.56694  0.017983312  0.017328246            3 
 3442000   0.70051227    -7.856187     742.6464  0.017980012  0.017322682            4 
 3443000   0.69671225   -7.8655949    742.64817  0.017974832  0.017317101            4 
 3444000   0.70104876   -7.8562873    744.03866  0.018003258  0.017311526            3 
 3445000   0.69902649    -7.863848     743.6092  0.017987644  0.017305952            2 
 3446000   0.69959945   -7.8652381    742.89661  0.017965192   0.01730036            3 
 3447000   0.69494509   -7.8723664    744.02705  0.017987309  0.017294797            4 
 3448000   0.69938285   -7.8595142    743.42832  0.017967622  0.017289223            6 
 3449000   0.70771351   -7.8493398    745.01474  0.018000743  0.017283665            5 
 3450000   0.70424437    -7.860073    743.57242  0.017960687  0.017278116            7 
 3451000   0.70964514   -7.8288799    744.64253  0.017981323  0.017272568            3 
 3452000   0.70934101   -7.8561742    743.48635  0.017948203  0.017267018            2 
 3453000   0.70477301   -7.8864632    743.08352  0.017933283  0.017261459            3 
 3454000   0.71055787   -7.8763072    744.42935  0.017960561  0.017255896            3 
 3455000   0.70466559   -7.8726894    743.19237  0.017925528  0.017250349            6 
 3456000   0.70672642   -7.8768996    743.03432   0.01791653  0.017244793            3 
 3457000   0.68882802    -7.867503     745.1347  0.017961978  0.017239246            3 
 3458000   0.70337842   -7.8774239    744.59022  0.017943663  0.017233683            4 
 3459000   0.69131146    -7.855237    745.30159  0.017955613  0.017228125            4 
 3460000   0.70681213   -7.8724325     745.1016  0.017945607  0.017222583            4 
 3461000   0.70563645   -7.8706491    743.81593  0.017909466   0.01721702            4 
 3462000   0.70776668   -7.8870149    742.12948  0.017863698  0.017211466            2 
 3463000   0.69182939   -7.8780731    743.42167  0.017889635  0.017205913            9 
 3464000   0.69615843   -7.8782442    744.11644  0.017901185  0.017200371            4 
 3465000   0.69967376    -7.874529    741.77631  0.017839738  0.017194831            4 
 3466000   0.69655229   -7.8720115    744.01157  0.017888334   0.01718928            3 
 3467000   0.69009517   -7.8955728     743.0109  0.017859122  0.017183742            3 
 3468000   0.69294619   -7.8692077    742.40622  0.017839442   0.01717819            4 
 3469000   0.69511148   -7.8795374    742.89164   0.01784596  0.017172637            5 
 3470000   0.68510294   -7.8730658    744.51658  0.017879841  0.017167095            2 
 3471000   0.69041725   -7.8831937    743.00714   0.01783845  0.017161548            4 
 3472000   0.67920056   -7.8923655     742.6214  0.017824054  0.017155994           14 
 3473000   0.71349306   -7.8921405    743.00811  0.017828201  0.017150452            3 
 3474000   0.69933647   -7.8794246    743.48164  0.017834428  0.017144897            4 
 3475000   0.69690061   -7.8580552    743.40151  0.017827374  0.017139355            3 
 3476000   0.69820207   -7.8979767    743.92258  0.017834738  0.017133806            3 
 3477000   0.69288139   -7.9021851    744.26396   0.01783779   0.01712824            4 
 3478000   0.69398665   -7.8910964    742.35994  0.017787041  0.017122673            4 
 3479000   0.68351827   -7.8947711    742.35725  0.017781864  0.017117119            2 
 3480000   0.70507315   -7.8909166    742.24763  0.017774129  0.017111569            3 
 3481000   0.67864067   -7.9052594    742.45318  0.017773944  0.017106014            5 
 3482000   0.70346784   -7.8820065    742.88541  0.017779184  0.017100472            4 
 3483000   0.68163081   -7.8944289    743.76374  0.017795094  0.017094921            6 
 3484000   0.69332706   -7.8982323    742.66644   0.01776374  0.017089361            3 
 3485000   0.68497281   -7.8873003    744.02153  0.017791046  0.017083817            4 
 3486000   0.68839099   -7.9041364     741.6879  0.017730156  0.017078265            5 
 3487000   0.70376702   -7.9062082    743.27155  0.017762918   0.01707272            4 
 3488000   0.69507295    -7.887953    743.04606  0.017752438  0.017067173            5 
 3489000   0.69502777    -7.897477    741.79334  0.017717429   0.01706163           11 
 3490000   0.69931082   -7.9057532    743.03115  0.017741909  0.017056096            3 
 3491000   0.68329271   -7.8981418    743.24155  0.017741849  0.017050569            5 
 3492000   0.67881496   -7.8781912    744.44332  0.017765448  0.017045034            8 
 3493000   0.69867954   -7.8995053    741.15929  0.017682014   0.01703951            2 
 3494000   0.70599123   -7.8859896    741.75266  0.017691105  0.017033965            5 
 3495000   0.68365905   -7.8724187    742.46648  0.017703064  0.017028419            3 
 3496000   0.68213281   -7.8751385    743.27599  0.017717296  0.017022887            3 
 3497000   0.67706842   -7.9052577    743.39944  0.017715171   0.01701735            4 
 3498000   0.70237164    -7.884218    743.24841  0.017706509  0.017011829            5 
 3499000   0.68593575    -7.898556    742.14159  0.017675088  0.017006298            4 
 3500000   0.68980945   -7.8717915    743.05519   0.01769179  0.017000786            3 
 3501000   0.69254258   -7.9012977    743.95404  0.017708132  0.016995279            3 
 3502000   0.70684718    -7.895283    742.17584  0.017660762  0.016989774            3 
 3503000   0.68905586   -7.8946862    742.45698  0.017662408  0.016984265            3 
 3504000   0.68599684   -7.9154267    741.05397     0.017624  0.016978761            7 
 3505000   0.68914848   -7.8877487    742.32904  0.017649288  0.016973242            7 
 3506000   0.66523845   -7.9007048    742.77311  0.017654809  0.016967732            4 
 3507000   0.69148861   -7.8640533    743.83988  0.017675123  0.016962233            6 
 3508000   0.69027066   -7.8872588    743.78538   0.01766879  0.016956735            3 
 3509000   0.68824527   -7.8620113    742.82014  0.017640832  0.016951249            2 
 3510000   0.67314733   -7.8880908    744.26456  0.017670099  0.016945767            2 
 3511000    0.6803408   -7.8920068    742.63731  0.017626443  0.016940279            2 
 3512000   0.67094343   -7.8896875    745.12988  0.017680569  0.016934797            3 
 3513000   0.69601638    -7.876898    743.37065  0.017633804   0.01692933            2 
 3514000   0.68992885   -7.8768725    744.45354  0.017654466  0.016923859            3 
 3515000   0.67143802   -7.8704075     744.6122  0.017653205  0.016918395            4 
 3516000    0.6866598   -7.8855905    744.31612  0.017641167  0.016912918            4 
 3517000   0.68649059    -7.879645    743.11104  0.017607597  0.016907456            5 
 3518000   0.68405913   -7.8897698    744.19182  0.017628193  0.016902002            3 
 3519000   0.68447759   -7.8697049    743.76411  0.017613056  0.016896534            3 
 3520000   0.68876273   -7.8975613    744.95124  0.017636156  0.016891065            5 
 3521000   0.68561938   -7.9031061    743.54778  0.017597931  0.016885608            6 
 3522000   0.68258285    -7.884955     745.0846  0.017629297  0.016880154            4 
 3523000    0.6860159   -7.8670798    744.71247   0.01761549  0.016874717            7 
 3524000   0.71058174   -7.9086525    743.07835  0.017571849  0.016869278            4 
 3525000   0.70096743   -7.8863303    743.69364   0.01758141  0.016863837            3 
 3526000   0.68504649   -7.8683266    744.01639  0.017584052   0.01685839            4 
 3527000   0.69036188    -7.874126     744.2912  0.017585559  0.016852945            2 
 3528000   0.67825412   -7.8776557    743.90333  0.017571413  0.016847507            5 
 3529000   0.69550387   -7.8629106    743.92331  0.017566905  0.016842084            3 
 3530000   0.69876446   -7.8680347      744.427   0.01757382  0.016836662            3 
 3531000   0.67821199   -7.8775369    744.76507  0.017576821  0.016831242            2 
 3532000   0.68498036   -7.8824311    743.81432  0.017549413  0.016825821            4 
 3533000   0.69230708    -7.899049    744.61403  0.017563309  0.016820395            3 
 3534000    0.6844162   -7.8606157    745.51942  0.017579688  0.016814981            3 
 3535000   0.69820478   -7.8908298    744.87969  0.017559634  0.016809566            2 
 3536000   0.69438891   -7.8827048    743.24869   0.01751623   0.01680413            8 
 3537000   0.69227164   -7.9146742     742.1435  0.017485239    0.0167987            8 
 3538000    0.6708433   -7.9012314    745.01137  0.017547847  0.016793268            3 
 3539000   0.69598602   -7.9097921    744.41123  0.017528756  0.016787824            3 
 3540000   0.68105343   -7.9006369    745.73658  0.017555004  0.016782385            3 
 3541000    0.6666678   -7.8927603    744.46122  0.017520032  0.016776971            4 
 3542000   0.69404942   -7.9120093    743.87254  0.017501236  0.016771546            4 
 3543000   0.67617541   -7.8982894    742.76977  0.017470359  0.016766128            9 
 3544000   0.69698223   -7.9186691    743.32529  0.017478492  0.016760708            3 
 3545000   0.68210994   -7.8960181    744.40435  0.017498927  0.016755286            7 
 3546000   0.67716164   -7.8966629     745.0126  0.017508286  0.016749865            5 
 3547000   0.68916968   -7.9061831    743.11795  0.017458837  0.016744439            3 
 3548000   0.69305889   -7.9144908     743.5396   0.01746382  0.016739006            3 
 3549000   0.68029121   -7.8893782    744.48851   0.01748118  0.016733584            5 
 3550000   0.68987442    -7.917079    745.05365  0.017489522  0.016728148            4 
 3551000   0.69484155   -7.9363423    743.33705  0.017444313  0.016722711            3 
 3552000   0.68283038   -7.9164993    744.01356  0.017455273  0.016717282            4 
 3553000   0.69108167   -7.9233666    744.86142  0.017470246   0.01671184            2 
 3554000   0.69635485   -7.8885769     743.9552  0.017444082  0.016706423            3 
 3555000   0.68745507    -7.904457    744.81878  0.017459418  0.016701011            7 
 3556000   0.68678355   -7.9006382    741.63176  0.017379822  0.016695585            7 
 3557000   0.68875679   -7.9179044    744.23546  0.017435935  0.016690166            4 
 3558000   0.67899425   -7.9253265    743.12438  0.017405012  0.016684764            5 
 3559000   0.68365242   -7.8856266    743.87152  0.017417615  0.016679355            5 
 3560000   0.69818023   -7.8987222    743.36971  0.017400976  0.016673959            7 
 3561000   0.67998147   -7.9018247    743.87506  0.017407916  0.016668565            8 
 3562000   0.66605615   -7.9085646     744.2046  0.017410738  0.016663176            6 
 3563000   0.67934853   -7.8871217    747.11933  0.017474023  0.016657799            4 
 3564000   0.67003729   -7.8756185    745.10746  0.017422079  0.016652426            3 
 3565000   0.68786633   -7.9134086    742.85274  0.017364487  0.016647028            3 
 3566000   0.68017096   -7.9200524      744.544   0.01739914  0.016641618            3 
 3567000   0.69450345   -7.9165074     745.5281  0.017417253  0.016636218            7 
 3568000   0.67348772   -7.9064829    744.38538  0.017385682   0.01663081            3 
 3569000   0.68280719   -7.9113688    743.96321  0.017370954  0.016625403            2 
 3570000   0.68359417   -7.8884551    742.34863  0.017328399  0.016619994            3 
 3571000   0.68305731   -7.8969348    744.30225  0.017369137  0.016614585            5 
 3572000   0.68259418   -7.8970825    743.63064  0.017348606  0.016609193            8 
 3573000   0.67889546   -7.9164818    742.75347  0.017323292  0.016603786            6 
 3574000   0.67473546   -7.9236883    744.01453  0.017347849  0.016598391            4 
 3575000   0.67658195   -7.9102092    743.17844  0.017323507  0.016592985           10 
 3576000   0.67197913    -7.928727    742.42994   0.01730122  0.016587583            7 
 3577000   0.66757721   -7.9299328    743.27771  0.017316133  0.016582182            2 
 3578000   0.67090324    -7.922983     742.7239  0.017298395  0.016576785            4 
 3579000   0.67931093   -7.9136564    744.49102  0.017334708  0.016571384            4 
 3580000   0.67500817   -7.9027991    744.30424  0.017325518  0.016565989            3 
 3581000    0.6803644   -7.9068202    742.15157  0.017270585  0.016560595           12 
 3582000   0.68309394   -7.9100932     744.8456  0.017328438  0.016555202            4 
 3583000   0.67165819   -7.9037372    745.39698  0.017336426  0.016549815            2 
 3584000   0.68134017   -7.9472608    742.60512  0.017266674  0.016544422            2 
 3585000   0.67707647   -7.8995058    743.42723  0.017280968  0.016539021            6 
 3586000    0.6789045   -7.9229854    743.44856  0.017276644  0.016533612            3 
 3587000   0.67760907   -7.9233501     745.1642  0.017311686  0.016528214            3 
 3588000    0.6667143   -7.9292103    743.14876  0.017260051  0.016522806            5 
 3589000   0.67461281   -7.9067471    744.19228  0.017279471  0.016517421            5 
 3590000   0.66986856   -7.9238525    743.70278  0.017263296  0.016512028            2 
 3591000   0.68626185   -7.9467443    742.86346  0.017239011   0.01650664            4 
 3592000   0.67452355   -7.9348609      744.704  0.017276912  0.016501231            4 
 3593000   0.67595057   -7.9308525    743.47282  0.017243548  0.016495842            3 
 3594000   0.68109962   -7.9527715    743.42833  0.017237719  0.016490454            3 
 3595000   0.68115906   -7.9280828    743.10142  0.017225346  0.016485087            2 
 3596000   0.67690481   -7.9206899    742.56505  0.017208126  0.016479715            3 
 3597000   0.68186146   -7.9550384    743.47437  0.017224409  0.016474337            3 
 3598000   0.66191581   -7.9242636     743.2813   0.01721515  0.016468962            2 
 3599000   0.67043205   -7.9254754    744.72448  0.017243783  0.016463595            3 
 3600000   0.67804063   -7.9295847    742.91815  0.017197179  0.016458227            3 
 3601000   0.67726123   -7.9020528     744.8098   0.01723618  0.016452876            4 
 3602000   0.68645543   -7.9325369    744.49859  0.017224195  0.016447525            3 
 3603000   0.67995212   -7.9238697    745.11443  0.017233658  0.016442159            9 
 3604000   0.66317254   -7.9384028    743.40629   0.01718938   0.01643681            4 
 3605000   0.66482535   -7.9411857    745.69861  0.017237601  0.016431462            3 
 3606000   0.66653589   -7.9228253    743.49941  0.017181998  0.016426108            3 
 3607000   0.66503736   -7.9241887      744.741  0.017205919  0.016420749            3 
 3608000   0.67335656   -7.9335062    743.45829  0.017171524  0.016415386            7 
 3609000   0.67221646   -7.9422972    744.02909  0.017179946   0.01641002            3 
 3610000   0.68059616   -7.9563937    743.94673  0.017173285  0.016404673            3 
 3611000   0.68559929   -7.9221145    743.16391  0.017150464  0.016399323            5 
 3612000   0.66730004   -7.9104196    744.27199  0.017171281  0.016393978            3 
 3613000   0.67138754   -7.9412048    743.76926  0.017154933  0.016388622            3 
 3614000   0.66788647    -7.944878     743.8208  0.017151374  0.016383262            7 
 3615000    0.6853525   -7.9305167    742.04163  0.017105616  0.016377909            5 
 3616000   0.67601267   -7.9146999    743.88362  0.017143336  0.016372556            5 
 3617000   0.66823628   -7.9425628    744.41219  0.017150774  0.016367192            4 
 3618000   0.67366872   -7.9435377    743.61679  0.017127713  0.016361826            2 
 3619000   0.65751925   -7.9112927    744.00397  0.017131896  0.016356479            4 
 3620000   0.66191559   -7.9294556    742.79779  0.017099397  0.016351117            2 
 3621000   0.68130983   -7.9604571    743.28498  0.017105886  0.016345774            5 
 3622000   0.67194238   -7.9415445    744.64992  0.017132568  0.016340436            6 
 3623000    0.6849151   -7.9468996    743.24321  0.017095483  0.016335104            3 
 3624000   0.68336548   -7.9366491    744.62314  0.017122497  0.016329767            3 
 3625000   0.68321245    -7.918884    744.02423  0.017104005  0.016324438            3 
 3626000   0.66643456     -7.91886    743.44142  0.017085894  0.016319116            8 
 3627000   0.67035238   -7.9223775    743.71343  0.017087433  0.016313797            4 
 3628000   0.64223359   -7.8941371    744.28514  0.017095855  0.016308474            5 
 3629000   0.66775337   -7.9188565    745.41512  0.017117092  0.016303167            5 
 3630000   0.66294869   -7.9393106    744.17696  0.017083952  0.016297846            4 
 3631000   0.67403058   -7.9290107    745.39181  0.017107129  0.016292538            4 
 3632000   0.66362818   -7.9395739    744.05943  0.017071848  0.016287221            3 
 3633000   0.66304772   -7.9494192    744.49672   0.01707718  0.016281891            5 
 3634000   0.69347167   -7.9409144    744.75787  0.017078469  0.016276582            2 
 3635000   0.67104838   -7.9143673    742.85627  0.017030176  0.016271281            4 
 3636000   0.67305799   -7.9304285    743.68026  0.017044377  0.016265971            5 
 3637000   0.67492119   -7.9041953     743.5219  0.017036062  0.016260667            8 
 3638000   0.68635106   -7.9303424     743.5324   0.01703162  0.016255367            6 
 3639000   0.67158903   -7.9450138    744.90855  0.017058454  0.016250045            5 
 3640000   0.66501128   -7.9334744    743.80519  0.017028507  0.016244718            4 
 3641000   0.67142126    -7.942066    743.67234   0.01702079  0.016239395            3 
 3642000   0.66265577   -7.9140606    744.10081   0.01702592  0.016234071            4 
 3643000   0.68142564   -7.9258159    743.09006  0.016998126   0.01622876            3 
 3644000   0.67253147   -7.9274871    745.06599  0.017038648  0.016223458            3 
 3645000   0.67183637   -7.9480935    744.41518  0.017019094  0.016218142            3 
 3646000   0.66180822   -7.9558116     742.3895  0.016968127  0.016212823            3 
 3647000   0.65167019   -7.9558205     744.3844  0.017009058  0.016207509            5 
 3648000   0.66000433   -7.9418014    743.00639  0.016972916  0.016202184            5 
 3649000   0.66781635   -7.9534478    743.81817  0.016986804  0.016196868            4 
 3650000   0.66614921    -7.939432    742.86897  0.016960479  0.016191562            3 
 3651000   0.66443519    -7.936746    743.11597  0.016961471  0.016186251            2 
 3652000   0.68004749   -7.9410876    743.53486  0.016966385   0.01618094            4 
 3653000   0.68013419   -7.9456107    743.98858  0.016972091  0.016175625            3 
 3654000   0.66260169   -7.9578554    743.41146  0.016954284  0.016170314            2 
 3655000   0.66594873     -7.96169    743.06816  0.016941818     0.016165            2 
 3656000   0.67915181   -7.9357283    742.78445  0.016930718    0.0161597            5 
 3657000   0.67370424   -7.9309389    743.51735  0.016942789  0.016154397            3 
 3658000   0.65593616   -7.9236005    746.98398  0.017017131  0.016149109            3 
 3659000    0.6719453   -7.9433934    742.54695  0.016911427  0.016143817            3 
 3660000    0.6703022   -7.9417961    743.23902  0.016922564  0.016138531            5 
 3661000   0.68423309   -7.9288058    742.91432  0.016910551  0.016133243            7 
 3662000   0.66535133   -7.9712912    743.14429  0.016911166  0.016127972            2 
 3663000   0.65399934   -7.9386924    743.53811  0.016915509  0.016122684            3 
 3664000   0.66961455   -7.9790701    744.21452  0.016926276  0.016117408            6 
 3665000   0.67128155   -7.9345585    744.95022  0.016938386  0.016112132            3 
 3666000   0.69216939   -7.9531149    742.82372  0.016885427   0.01610685            3 
 3667000   0.65654419   -7.9709652    742.87404  0.016881966  0.016101556            8 
 3668000   0.67632622   -7.9395927    744.78509  0.016920781  0.016096275            2 
 3669000    0.6625487   -7.9466113    745.80382  0.016939307  0.016090982            4 
 3670000   0.66504094   -7.9606999    743.71064  0.016887163  0.016085691            4 
 3671000   0.66125055   -7.9774249    743.80233  0.016884644  0.016080402            7 
 3672000   0.67370751   -7.9705643    742.43927  0.016849112  0.016075107            5 
 3673000   0.67115329   -7.9622385    743.21362  0.016862093  0.016069807            3 
 3674000   0.66573751   -7.9465277     742.7175  0.016846251   0.01606452            5 
 3675000   0.65886971   -7.9500315    743.70699  0.016864104  0.016059237            4 
 3676000   0.65092917   -7.9596555    742.67348  0.016836087   0.01605395            5 
 3677000   0.65407547   -7.9607898    742.15553   0.01681977  0.016048667            6 
 3678000   0.66504452   -7.9651687    743.79653  0.016852377  0.016043386            4 
 3679000   0.65761801   -7.9489558    743.86227  0.016849286  0.016038105            3 
 3680000   0.66662629   -7.9587112    742.93633  0.016823739  0.016032843            3 
 3681000      0.67072   -7.9630801    742.41296   0.01680732  0.016027583            2 
 3682000   0.65679937    -7.971335    743.31934   0.01682327  0.016022316            5 
 3683000   0.66930702   -7.9392635    743.72553  0.016827892   0.01601705            2 
 3684000   0.65859813     -7.95485    743.46213  0.016817366    0.0160118            2 
 3685000   0.65947845   -7.9688994    742.59722  0.016793243  0.016006539            5 
 3686000   0.67207586   -7.9434657    744.85417  0.016839713  0.016001276            7 
 3687000    0.6733601   -7.9614486    744.27393  0.016822031  0.015996018            3 
 3688000   0.67819865   -7.9454299    743.84426  0.016807761  0.015990752            5 
 3689000   0.65226664    -7.964497    743.32471  0.016791468  0.015985479            5 
 3690000   0.66265841    -7.962748    742.53774  0.016769145  0.015980215            6 
 3691000   0.65935952   -7.9475746    744.85062  0.016816821  0.015974968            5 
 3692000   0.67045703   -7.9395022    744.01791   0.01679347  0.015969718           10 
 3693000   0.65999975   -7.9358049    743.18721  0.016770178  0.015964467            7 
 3694000   0.66318244   -7.9646599    742.94383  0.016760148  0.015959216            3 
 3695000   0.66257592   -7.9694618    743.41955  0.016766341  0.015953957            3 
 3696000   0.64892067   -7.9589895    743.31175  0.016759374  0.015948696            8 
 3697000   0.66646656   -7.9777835    742.37617  0.016733752  0.015943434            4 
 3698000   0.67101637   -7.9537859    743.00413  0.016743378  0.015938174            3 
 3699000   0.65505419   -7.9797671     741.4613  0.016704093  0.015932918            6 
 3700000   0.65058373   -7.9266744    742.65348   0.01672643   0.01592766            5 
 3701000   0.65901938   -7.9525427    743.26811  0.016735749  0.015922408            5 
 3702000    0.6562495   -7.9793298    743.37886  0.016733722  0.015917163            3 
 3703000    0.6580287   -7.9485144    742.87981  0.016717972  0.015911915            3 
 3704000    0.6649328    -7.973052    743.35302  0.016724105  0.015906672            3 
 3705000   0.65823179   -7.9816428    742.39773  0.016698105  0.015901418            6 
 3706000   0.65139233   -7.9481039    743.22372  0.016712172  0.015896174            3 
 3707000   0.65355255   -7.9780037    743.11445  0.016705207  0.015890935            3 
 3708000   0.65941572   -7.9278791    744.11411  0.016723169  0.015885698            3 
 3709000   0.66280015   -7.9688624    743.97749   0.01671559  0.015880474            4 
 3710000   0.66625876   -7.9634723    745.18564  0.016738222  0.015875253            7 
 3711000   0.66098416   -7.9788757    744.64364   0.01672154  0.015870037            3 
 3712000   0.66473306   -7.9597461    743.62978  0.016694275  0.015864821            3 
 3713000    0.6630729   -7.9664108    743.21088  0.016680377  0.015859606            3 
 3714000   0.67231372   -7.9678536       744.35  0.016701445  0.015854385            3 
 3715000    0.6627011   -7.9671796    744.14428  0.016692335  0.015849168            3 
 3716000   0.63529174   -7.9715193     743.7341  0.016678644  0.015843947            2 
 3717000   0.66403406   -7.9452468    743.60004  0.016671151  0.015838736            3 
 3718000   0.64620025   -7.9711439    742.58615  0.016643943   0.01583353            5 
 3719000   0.64919385   -7.9690512     743.9096  0.016669122  0.015828315            7 
 3720000   0.66323977   -7.9642711    741.79155  0.016617194  0.015823108            3 
 3721000   0.64692853   -7.9670107    744.45313  0.016672336    0.0158179            3 
 3722000   0.64660981   -7.9764939    742.68378  0.016628241  0.015812692            7 
 3723000   0.66686134   -7.9659733    742.26433  0.016614386  0.015807491            3 
 3724000   0.66471506   -7.9455076    743.33126    0.0166338    0.0158023            7 
 3725000   0.64901159   -7.9802997    742.64621  0.016614009  0.015797101            3 
 3726000   0.65290269   -7.9732536    743.83443  0.016636125  0.015791904            7 
 3727000   0.66273756   -7.9705774    744.02281  0.016635874  0.015786704            7 
 3728000   0.66064241   -7.9685673    741.98456  0.016585849  0.015781502            8 
 3729000   0.65156018   -7.9851368    744.72152  0.016642565  0.015776303            3 
 3730000   0.65954749   -7.9852213    743.65006  0.016614166  0.015771093            3 
 3731000   0.66729107   -7.9815539    743.63321  0.016609336  0.015765904            5 
 3732000   0.64636577   -7.9797219    743.43213  0.016600396  0.015760721            9 
 3733000   0.65643391   -7.9755477    743.61336  0.016599995  0.015755535            4 
 3734000   0.64866254   -7.9809738     744.1182  0.016606816   0.01575035            3 
 3735000   0.65009592   -7.9808051    743.57476  0.016590244  0.015745162            6 
 3736000   0.64565469   -7.9816281    745.01493  0.016617928  0.015739984            3 
 3737000   0.63976593   -7.9622841    744.01103  0.016591094   0.01573481            4 
 3738000   0.67132017   -7.9699754    744.41164  0.016595587  0.015729637            6 
 3739000   0.67035129   -7.9742899    743.69035  0.016575072  0.015724465            5 
 3740000   0.66996107   -7.9751217    742.64881  0.016547433  0.015719283            4 
 3741000   0.65371406   -7.9720446    743.29202  0.016557338  0.015714102            3 
 3742000   0.65351669   -7.9888743    743.25102     0.016552  0.015708932            9 
 3743000   0.64709297   -7.9819021    743.09867  0.016544186  0.015703756            6 
 3744000   0.63795957   -7.9682035    744.35904   0.01656782  0.015698591            4 
 3745000   0.65496566    -7.970507    744.37727  0.016563802  0.015693425            2 
 3746000   0.64746723   -7.9717174    743.44469  0.016538634   0.01568827            3 
 3747000   0.65318906   -7.9820096    743.26299   0.01653018  0.015683114            4 
 3748000   0.65615111   -7.9666543    744.07177  0.016543751  0.015677954            3 
 3749000    0.6451564    -7.952442    742.39568  0.016502082  0.015672785            4 
 3750000   0.65183191   -7.9530123    743.25824   0.01651685  0.015667626            4 
 3751000   0.65637258   -7.9660765    742.15783     0.016488  0.015662471            4 
 3752000   0.64198689   -7.9976666    742.99352  0.016502166  0.015657315            4 
 3753000   0.65075749   -7.9901036    743.66308  0.016512636  0.015652173            5 
 3754000   0.65006036   -8.0090347    743.89665  0.016513422  0.015647023            6 
 3755000   0.64069129   -7.9780803     744.5109  0.016522656  0.015641863            5 
 3756000   0.64366165   -7.9944953    744.05634  0.016508172  0.015636706            4 
 3757000   0.65300197   -8.0049227    744.07393  0.016504168  0.015631541            8 
 3758000   0.64368379   -7.9786583    743.90701  0.016496075  0.015626391           11 
 3759000   0.66226613   -7.9584371    744.71896  0.016509687  0.015621251            4 
 3760000   0.66304842   -7.9830222    743.24079  0.016472535  0.015616106            6 
 3761000   0.64316529   -7.9798514    743.14076  0.016465939  0.015610965            4 
 3762000   0.64248232   -7.9836047    744.22559  0.016485593  0.015605833           11 
 3763000    0.6486162   -7.9675787     745.0066  0.016498507  0.015600702            4 
 3764000   0.65399727   -8.0041851    743.83263  0.016468133  0.015595576            5 
 3765000   0.64070498   -8.0124549    744.54447  0.016479515  0.015590454            5 
 3766000   0.66067136   -8.0008021    745.38766  0.016493797  0.015585335            4 
 3767000   0.65521031   -8.0085362    744.40553  0.016467692  0.015580212            2 
 3768000   0.65168112   -7.9817639    745.57434  0.016489171   0.01557509            3 
 3769000   0.64958917   -7.9898448    743.37699  0.016436212  0.015569988            9 
 3770000   0.64162715   -8.0133306    743.37128  0.016431726  0.015564868            4 
 3771000   0.64966652    -8.009133    744.94278  0.016462096  0.015559751            6 
 3772000    0.6510976   -7.9926045    744.70858  0.016452558  0.015554637            4 
 3773000   0.65746944   -8.0076256    745.09755  0.016456788  0.015549536            6 
 3774000   0.64928711    -7.973272    745.13412  0.016453235  0.015544429            5 
 3775000   0.64314496   -7.9960798    743.91821  0.016422036  0.015539325            3 
 3776000   0.64497886   -7.9903919    744.18468  0.016423567  0.015534225            3 
 3777000   0.63422627   -7.9983186    744.40464  0.016424072  0.015529135            6 
 3778000   0.64771941   -7.9847263    744.46267  0.016421005  0.015524044            6 
 3779000   0.65375871   -8.0024029    744.35051  0.016414186  0.015518947            5 
 3780000   0.64937607   -7.9927623    743.57381  0.016392721  0.015513849            6 
 3781000   0.63536288   -7.9765314    744.67368  0.016412626  0.015508766            5 
 3782000   0.64049918   -7.9997544    744.90199  0.016413317  0.015503702            4 
 3783000   0.65034015   -7.9490244    746.04831   0.01643423   0.01549864            6 
 3784000    0.6377202   -7.9905566    743.74188  0.016379094  0.015493574           13 
 3785000   0.66121746   -7.9814612    745.14454  0.016405648  0.015488506            3 
 3786000   0.63909889   -7.9920408    743.67228  0.016368909   0.01548344            4 
 3787000   0.64002689   -7.9746046    744.80892  0.016389599  0.015478358            8 
 3788000   0.64575401    -7.997843    743.96851  0.016366783  0.015473267            7 
 3789000   0.63557239   -7.9785782    745.80505  0.016402856  0.015468188            4 
 3790000   0.64916764   -7.9984194    743.85445  0.016355639  0.015463114            3 
 3791000   0.65976944   -7.9989405    742.80651  0.016328289  0.015458035            3 
 3792000   0.64179189   -7.9705335    741.81177  0.016302122  0.015452952            2 
 3793000   0.62741065   -7.9776794    744.08225  0.016347707  0.015447874            6 
 3794000   0.64396135   -7.9818827     745.0577  0.016364824  0.015442795            2 
 3795000   0.64506341   -7.9951507    744.52734  0.016348866  0.015437724            4 
 3796000   0.63965751   -7.9859153    743.57458  0.016323643  0.015432645            4 
 3797000   0.65840459   -7.9900143     744.5105  0.016339885  0.015427567            6 
 3798000   0.64984092   -7.9986379    744.02011  0.016324822  0.015422488            2 
 3799000   0.63740506   -8.0123446    743.43148  0.016307613  0.015417406            2 
 3800000   0.65372603   -8.0062092    743.11677   0.01629642   0.01541232            2 
 3801000   0.63168153   -8.0071307    743.66451  0.016304142  0.015407238            2 
 3802000   0.63642182   -8.0041893    741.95411  0.016262364  0.015402143            3 
 3803000   0.62952559   -8.0449365    743.32667  0.016288164   0.01539705            1 
 3804000   0.63355675   -8.0134063    743.62851  0.016290495  0.015391952            3 
 3805000    0.6531705   -8.0112858    742.40388  0.016259393  0.015386862            3 
 3806000    0.6517361   -8.0284592    741.52669  0.016235915  0.015381773            6 
 3807000    0.6452222   -8.0233072    743.53226  0.016275551  0.015376685            3 
 3808000   0.65101009   -8.0169009    743.52272  0.016271068  0.015371601            7 
 3809000   0.63419866     -8.02102    743.99314  0.016277088  0.015366525            4 
 3810000   0.62746261   -8.0070543    743.58565  0.016263903  0.015361451            5 
 3811000    0.6364498   -8.0078024    744.09022  0.016270669  0.015356381            3 
 3812000   0.65799359   -8.0087929    741.82521  0.016216886  0.015351297            4 
 3813000   0.64746239    -8.018701    743.14436  0.016241463  0.015346226            4 
 3814000   0.62903697   -8.0263825    743.40473  0.016242893  0.015341155            2 
 3815000   0.63966171   -8.0189532    744.05029  0.016252737  0.015336091            5 
 3816000   0.64135503   -8.0054487    744.24188  0.016252661  0.015331032            2 
 3817000   0.63856288    -7.984452    744.23382  0.016248228  0.015325978            5 
 3818000   0.62871385   -8.0033406    742.57493  0.016207764  0.015320925            4 
 3819000   0.65107115   -8.0059961    743.33718  0.016220153  0.015315883            3 
 3820000    0.6430591   -8.0072332    743.75645  0.016225053  0.015310848            2 
 3821000   0.65047576   -7.9894899    743.93751  0.016224756  0.015305805            3 
 3822000    0.6403445   -8.0192211    744.29178  0.016228235  0.015300759            3 
 3823000   0.64775026    -8.000905    743.50565  0.016206854   0.01529572            2 
 3824000   0.64489126   -8.0000693    742.41578  0.016178865   0.01529068            3 
 3825000   0.64191062   -8.0099454    743.49038  0.016198047  0.015285637            7 
 3826000   0.63470604   -8.0155639     744.7294  0.016220801  0.015280593            3 
 3827000   0.65434873   -7.9870826    743.12398  0.016181604  0.015275557            3 
 3828000   0.64039063   -8.0324194    743.09098  0.016176658  0.015270524            4 
 3829000   0.64562566   -8.0200333    745.49131  0.016224674  0.015265488            2 
 3830000   0.62776195   -8.0129239    742.86567  0.016163309  0.015260439            3 
 3831000   0.64122715   -8.0281889     742.0263  0.016140831  0.015255386            2 
 3832000   0.65523981   -8.0144315    741.52711  0.016125764  0.015250336            4 
 3833000   0.65146752   -8.0100356    743.28741  0.016159827  0.015245291            2 
 3834000   0.63678051   -8.0252857    742.36203  0.016135499  0.015240245            5 
 3835000   0.63926342   -8.0266934    744.03661   0.01616768  0.015235195            5 
 3836000   0.63307255   -8.0095539    742.84585  0.016137597  0.015230162            3 
 3837000   0.63372154   -8.0264164    743.42773  0.016146028  0.015225126            5 
 3838000   0.63801531   -8.0470767    743.10924  0.016134906  0.015220084            5 
 3839000   0.64332194   -8.0258639    742.60466   0.01611975  0.015215039            3 
 3840000   0.63529878    -8.025586    742.32259  0.016109431   0.01520999            6 
 3841000   0.62822819   -8.0317208    742.85967   0.01611689  0.015204935            4 
 3842000   0.62940204   -8.0505964    742.53284  0.016105606  0.015199888            3 
 3843000   0.63215249   -8.0220622    741.54445  0.016079982  0.015194834            3 
 3844000   0.62367721    -8.048653    741.72674  0.016079751  0.015189781            7 
 3845000   0.63596571   -8.0263475    743.09928  0.016105316  0.015184723            6 
 3846000   0.63999489   -8.0468512    742.35356  0.016084971  0.015179673            3 
 3847000   0.64411126   -8.0507283    742.08481  0.016074968  0.015174613            5 
 3848000   0.64464814   -8.0262179     742.5748  0.016081402  0.015169567            4 
 3849000   0.63910872   -8.0115233    743.27165  0.016092311   0.01516452            3 
 3850000   0.63313427    -8.028588    742.45832  0.016070526  0.015159474            4 
 3851000   0.64076301   -8.0517183    741.79426  0.016051984  0.015154429            5 
 3852000   0.63316747   -8.0380252    742.61045  0.016065474  0.015149396            4 
 3853000   0.63037673   -8.0227045    742.55734  0.016060155  0.015144363            3 
 3854000   0.64266864   -8.0277681    742.47759  0.016054264  0.015139335            4 
 3855000   0.63045798     -8.03749     742.5881  0.016052488    0.0151343            3 
 3856000   0.63424452   -8.0507262    742.46835  0.016045737  0.015129268            8 
 3857000   0.63636027   -8.0780476    743.39475  0.016061593  0.015124227            5 
 3858000   0.63752353     -8.05304    741.17327  0.016009445  0.015119195            5 
 3859000   0.63416927   -8.0498138    743.01187     0.016045  0.015114167            4 
 3860000    0.6366808   -8.0405935    742.29169  0.016025295  0.015109143            5 
 3861000   0.62394195   -8.0419911    742.87612  0.016033759  0.015104123            4 
 3862000   0.63188476   -8.0375863    741.76535  0.016005639  0.015099095            8 
 3863000   0.63758325   -8.0343156    743.29406  0.016034474  0.015094079            5 
 3864000   0.63553082   -8.0114345    742.83099  0.016020337  0.015089068            7 
 3865000   0.61393364   -8.0518703    740.71956  0.015970668  0.015084049            7 
 3866000    0.6289796   -8.0476017    741.30235  0.015979099  0.015079032            5 
 3867000   0.62896826   -8.0269901    741.32855  0.015975531  0.015074014            4 
 3868000   0.63610797   -8.0364498     743.0942  0.016009441  0.015068993            7 
 3869000   0.61754693   -8.0343473     742.6788  0.015996356  0.015063982            6 
 3870000   0.62684656   -8.0423882    742.48261  0.015987998   0.01505896            8 
 3871000   0.64153885   -8.0200253      742.588  0.015986136  0.015053951            8 
 3872000   0.63751649   -8.0681443    741.49958  0.015958583  0.015048939            5 
 3873000    0.6435927   -8.0462945     739.3596  0.015908417  0.015043921            3 
 3874000   0.63698823   -8.0449739    742.37891  0.015969259  0.015038908            2 
 3875000   0.63058543   -8.0493807    742.30359  0.015963518  0.015033898            4 
 3876000   0.62773471    -8.037184    742.38596  0.015961171  0.015028892            4 
 3877000   0.62485619   -8.0449131    743.29484  0.015976589  0.015023885            8 
 3878000   0.63898918   -8.0446225    742.46096   0.01595455  0.015018894            4 
 3879000   0.63012406   -8.0569098    742.72384  0.015956085  0.015013895            4 
 3880000   0.63543145   -8.0327164    741.12731  0.015917683  0.015008898            4 
 3881000   0.63645078   -8.0115647    742.99412  0.015953666    0.0150039            2 
 3882000   0.62437725    -8.033161    743.34338  0.015957053  0.014998913            3 
 3883000   0.63162226    -8.053082     741.5235  0.015913887  0.014993928            6 
 3884000   0.63508861    -8.040551    744.01844   0.01596332  0.014988958            6 
 3885000   0.63388383   -8.0571933    742.85981  0.015934359  0.014983977            4 
 3886000   0.62287648   -8.0463438    741.83976  0.015908384  0.014979008            4 
 3887000   0.61872186   -8.0567126    741.97893  0.015907275  0.014974027            6 
 3888000   0.64387339   -8.0486971    741.27499  0.015888096  0.014969039            4 
 3889000   0.62550365   -8.0469839    742.49946  0.015910248  0.014964057            2 
 3890000   0.63504128   -8.0724708    742.03853  0.015896284  0.014959077            3 
 3891000   0.62062218   -8.0761286    742.09564  0.015893422  0.014954101            3 
 3892000   0.63069555   -8.0535836    742.13476  0.015890176  0.014949123            2 
 3893000   0.61992424   -8.0680963    741.25818   0.01586733  0.014944141            2 
 3894000   0.64093151   -8.0597822     743.4692  0.015910572  0.014939159            6 
 3895000    0.6279074   -8.0378737    742.47476  0.015885211  0.014934183            3 
 3896000   0.62233134   -8.0545029    742.70939  0.015886152  0.014929216            3 
 3897000   0.61140898   -8.0330839     742.4928  0.015877444  0.014924237            3 
 3898000   0.62826431   -8.0618664    741.95869  0.015861953  0.014919259            3 
 3899000   0.62648824   -8.0593658    741.68477   0.01585203  0.014914282            5 
 3900000    0.6224485   -8.0497338    742.84176  0.015872687  0.014909307            2 
 3901000   0.63315538   -8.0683032    741.43532  0.015838574  0.014904332            4 
 3902000   0.63691842   -8.0598333    742.37663  0.015854618  0.014899368            6 
 3903000   0.62228896   -8.0587581    740.87641  0.015818524    0.0148944           14 
 3904000   0.62806736   -8.0577711    740.43641   0.01580508  0.014889435            3 
 3905000   0.62884573   -8.0739841    741.92356  0.015832769  0.014884467            3 
 3906000   0.63131711   -8.0580483    742.81548  0.015847745  0.014879503            4 
 3907000   0.61995499   -8.0532012    741.72907  0.015820516  0.014874537            5 
 3908000   0.61982305   -8.0601107    742.52297  0.015833397  0.014869582            4 
 3909000   0.61951424   -8.0693558     742.4726  0.015828272  0.014864625            3 
 3910000   0.60840075   -8.0689801    742.49638  0.015824731  0.014859669            3 
 3911000   0.61716856   -8.0432285    742.93829  0.015830101  0.014854722            6 
 3912000    0.6148453   -8.0605882    742.88467  0.015824912  0.014849766            3 
 3913000   0.62624532   -8.0629731    742.60189  0.015814846  0.014844814            4 
 3914000   0.63000234   -8.0601371     741.6807  0.015791192  0.014839871            2 
 3915000   0.62066602   -8.0668052    741.79111  0.015789509  0.014834938            3 
 3916000   0.62621573   -8.0429331     744.4101  0.015841209  0.014830009            8 
 3917000   0.63256777   -8.0601996     741.0295  0.015765243  0.014825084            6 
 3918000   0.61912471   -8.0292074    740.69975  0.015754206  0.014820143            3 
 3919000   0.61580145   -8.0425807     742.1659  0.015781362  0.014815216            5 
 3920000   0.62401918   -8.0551103    742.36123  0.015781489  0.014810294            9 
 3921000   0.62496911   -8.0431478    741.80564  0.015765656  0.014805367            7 
 3922000   0.62921953   -8.0487989    742.22423   0.01577053  0.014800435            4 
 3923000   0.62604894   -8.0107249      743.511  0.015793844  0.014795516           12 
 3924000   0.61927142   -8.0523123    742.72229  0.015773069  0.014790598            2 
 3925000    0.6200259   -8.0601499    742.54639  0.015765316  0.014785673            9 
 3926000   0.62404507   -8.0488301    742.19189  0.015753776  0.014780753            3 
 3927000   0.62440735   -8.0670544    742.21953  0.015750351  0.014775823            8 
 3928000   0.61770892   -8.0522956    742.18889  0.015745691  0.014770906            3 
 3929000   0.62034496   -8.0370088    741.97842  0.015737219     0.014766            3 
 3930000   0.62740627   -8.0501992    742.00081   0.01573369  0.014761094            7 
 3931000   0.62925946   -8.0643122    741.51037  0.015719291  0.014756196            6 
 3932000   0.61196973   -8.0342023    742.71372  0.015740796  0.014751304            9 
 3933000   0.61617513   -8.0480473    744.08572  0.015765864  0.014746413            6 
 3934000   0.61220713   -8.0542189    742.55764  0.015729487  0.014741523            5 
 3935000   0.61635181   -8.0615632    742.14123  0.015716672  0.014736628            4 
 3936000   0.61453133   -8.0504321    742.37111  0.015717546  0.014731736            4 
 3937000   0.61367518   -8.0386005    743.11984  0.015729401  0.014726858            2 
 3938000   0.63519149   -8.0468489    741.67601  0.015694854  0.014721977            7 
 3939000   0.61474598   -8.0257038    742.99842  0.015718846  0.014717106            5 
 3940000   0.62554333   -8.0310549    742.09375  0.015695722  0.014712228            7 
 3941000   0.62354268   -8.0433322     742.1335   0.01569258  0.014707358            8 
 3942000   0.62387286   -8.0414256    744.32673  0.015734964  0.014702476            3 
 3943000   0.62282405   -8.0475054    744.12124   0.01572663  0.014697602            2 
 3944000   0.62900695     -8.06696      743.406   0.01570753  0.014692731            2 
 3945000   0.62717312   -8.0546299    742.92026  0.015693288  0.014687867            4 
 3946000    0.6280956   -8.0189164    742.67533  0.015684139  0.014683006            7 
 3947000   0.63569918   -8.0658306    742.77767  0.015682326  0.014678144            5 
 3948000    0.6239286    -8.022559    742.87415   0.01568039   0.01467328            4 
 3949000   0.62015453   -8.0549815    742.64455  0.015671574  0.014668408            2 
 3950000   0.62210903   -8.0704662    743.59874  0.015687737  0.014663542            5 
 3951000   0.62049434   -8.0636541      742.784  0.015666582  0.014658682            3 
 3952000   0.62393948   -8.0494859    742.54155  0.015657506  0.014653825            4 
 3953000   0.63360517   -8.0657698    741.90995   0.01564023  0.014648971            6 
 3954000     0.610664   -8.0689749    742.04066  0.015639029  0.014644112            6 
 3955000   0.61449333   -8.0532937    743.17409  0.015658957  0.014639265            4 
 3956000    0.6118722   -8.0662871    742.60873  0.015643089  0.014634419            2 
 3957000   0.61614636   -8.0544917    742.05498  0.015627474  0.014629566            3 
 3958000   0.60117869   -8.0576601     743.1415  0.015646402   0.01462473            3 
 3959000   0.61368035   -8.0699699    742.33318  0.015625435  0.014619883            5 
 3960000    0.6152302   -8.0417702    742.86617  0.015632706  0.014615039            4 
 3961000   0.63056263   -8.0534158    743.21528  0.015636104  0.014610202            3 
 3962000   0.60904148   -8.0539721    742.35035  0.015613965  0.014605367            5 
 3963000   0.62854126   -8.0536347     742.9306  0.015622226  0.014600533            3 
 3964000   0.61829735   -8.0407209    743.49297  0.015630108  0.014595696            2 
 3965000    0.6171499   -8.0355307    743.19739  0.015619954  0.014590863            4 
 3966000   0.61849288    -8.056397    742.98435  0.015611539  0.014586032            5 
 3967000   0.61327475   -8.0506592    743.36878  0.015615679  0.014581195            3 
 3968000   0.60742815    -8.056326    741.58667  0.015574317  0.014576351            4 
 3969000   0.60723823    -8.043294    742.48486  0.015589251  0.014571514            2 
 3970000   0.61106901   -8.0637321    743.61274     0.015609  0.014566681            3 
 3971000   0.61926681   -8.0460246    743.07911   0.01559387  0.014561854            2 
 3972000   0.63206106   -8.0597984    742.33503  0.015574334  0.014557021            2 
 3973000   0.62491115   -8.0846243    743.15453  0.015587602  0.014552188            3 
 3974000   0.61286738   -8.0707023      742.379  0.015567417  0.014547355            2 
 3975000    0.6056925   -8.0760527    742.99532  0.015576422  0.014542529            1 
 3976000   0.62530917   -8.0425997    743.44435  0.015581916  0.014537706            4 
 3977000   0.61875087   -8.0566395    741.60251  0.015539404  0.014532893            3 
 3978000   0.62834968   -8.0288624    741.07836  0.015524517   0.01452807            3 
 3979000   0.61450756   -8.0683711    741.51851  0.015529834  0.014523251            5 
 3980000   0.60469378   -8.0548685    743.23412  0.015561854   0.01451844            6 
 3981000   0.61394058   -8.0813358    742.56992  0.015544041  0.014513632            3 
 3982000   0.61746168   -8.0734506    743.15812  0.015552447  0.014508823            3 
 3983000   0.62297536   -8.0790944    743.20086  0.015549436  0.014504027            4 
 3984000   0.61437422   -8.0650834    742.17985  0.015524177  0.014499224            3 
 3985000    0.6064812   -8.0506069    743.51945  0.015548295  0.014494433            4 
 3986000   0.60027593   -8.0745836    742.03519  0.015513363  0.014489642            7 
 3987000   0.60966635   -8.0618193    741.93476  0.015507373   0.01448485            4 
 3988000   0.61574066   -8.0653626    743.19538  0.015529827  0.014480064            5 
 3989000   0.63394164   -8.0504533    743.03609  0.015522606  0.014475283            9 
 3990000   0.61880769   -8.0473716    742.98482  0.015517645  0.014470498            5 
 3991000   0.60510764   -8.0823715    742.21229  0.015497626  0.014465715            4 
 3992000   0.60471348   -8.0670157     742.9614  0.015509381  0.014460925            5 
 3993000   0.61657535   -8.0944864    742.68016  0.015499628  0.014456142            9 
 3994000   0.61930853   -8.0944807    742.82466  0.015498762   0.01445136           13 
 3995000   0.60589219   -8.0872295    741.90486  0.015475696  0.014446576            2 
 3996000   0.61735765   -8.0781185     744.2578  0.015520892  0.014441796            5 
 3997000   0.61175697   -8.0736059    743.76949  0.015506828  0.014437014            4 
 3998000   0.60601811   -8.0725317    742.57202  0.015477989  0.014432233            7 
 3999000   0.62407946   -8.0673129     741.4394  0.015450517  0.014427458            3 
 4000000   0.61501917   -8.0554667    743.22521  0.015483858  0.014422678            6 
 4001000    0.6164734    -8.080307    741.98827  0.015454225  0.014417904            3 
 4002000   0.60980596    -8.076199    742.43334  0.015459632   0.01441314            6 
 4003000   0.60837171   -8.0841986    742.01026  0.015446962  0.014408369            3 
 4004000   0.60744205    -8.075177    741.35479  0.015429462  0.014403596            5 
 4005000   0.62221084   -8.0620483    741.48992  0.015428421  0.014398824            2 
 4006000   0.59697184    -8.097748    742.24053  0.015440184  0.014394049            6 
 4007000   0.59081015   -8.0782933    741.60495  0.015423113  0.014389274            4 
 4008000   0.61017492   -8.0835187    743.03798   0.01544906  0.014384505            6 
 4009000   0.60773144   -8.0716981    742.26406  0.015429119   0.01437974            4 
 4010000   0.62498309   -8.0903515    743.61433  0.015453332  0.014374972            4 
 4011000   0.60292627   -8.0517037    742.89979  0.015434634  0.014370203            4 
 4012000   0.60006425   -8.0406804    740.87913  0.015388815  0.014365438            6 
 4013000   0.60876859   -8.0768226    742.15096  0.015411391   0.01436068            5 
 4014000   0.61761754   -8.0817728    742.38277  0.015412365   0.01435592            3 
 4015000   0.60771438   -8.0451573    742.96025  0.015420512  0.014351172            5 
 4016000   0.61274692   -8.0797277    742.74775  0.015412262  0.014346423            4 
 4017000   0.61013193   -8.0744215    742.01646  0.015393255   0.01434168            2 
 4018000   0.60914391   -8.0651668    742.22349  0.015393718  0.014336934            2 
 4019000   0.59286021    -8.086008    742.17981  0.015388982  0.014332195            3 
 4020000   0.61572743   -8.0805895     742.9705  0.015401544  0.014327447            5 
 4021000   0.61149972    -8.077056    742.93785  0.015397038  0.014322702            4 
 4022000   0.60743787   -8.0778059    741.67202  0.015366982  0.014317954            5 
 4023000   0.60278941    -8.113215    741.39009  0.015357322  0.014313204            5 
 4024000   0.60171279   -8.0990606    742.01048  0.015366354  0.014308461            5 
 4025000   0.60555485   -8.0871958    741.02714  0.015342177  0.014303711            7 
 4026000   0.60114453   -8.0972251    741.52309  0.015348632  0.014298958            4 
 4027000   0.60373302   -8.1248392    741.97248   0.01535412  0.014294216            3 
 4028000   0.60959096   -8.0893076    742.66975  0.015364733  0.014289474            4 
 4029000   0.60532887   -8.0711263    741.34008  0.015333418   0.01428474            6 
 4030000   0.60604456   -8.0927437    742.62413  0.015356165  0.014280004            3 
 4031000   0.60441414   -8.0679636    741.75808  0.015334451  0.014275273            7 
 4032000   0.60026954   -8.0878651    741.79933  0.015331501  0.014270543            2 
 4033000    0.6071644   -8.0864777    742.11005   0.01533412  0.014265811            6 
 4034000   0.60548676   -8.0739505    742.76535  0.015343855  0.014261074            5 
 4035000    0.6143119   -8.0881619    741.51419  0.015314213  0.014256341            3 
 4036000    0.6005536   -8.0792401    742.16837  0.015323926  0.014251613            4 
 4037000   0.61637467   -8.1212034    741.73436  0.015311171  0.014246878            6 
 4038000    0.5853382    -8.108766    741.62369  0.015305095   0.01424215            5 
 4039000   0.59880882   -8.1007341    740.54533  0.015279057  0.014237421            5 
 4040000   0.60771092   -8.0940519    741.94286  0.015304102  0.014232688            3 
 4041000   0.59817463   -8.0866946     741.5591  0.015292401  0.014227955            4 
 4042000   0.59128752   -8.1127134    741.24957  0.015282236  0.014223219            4 
 4043000   0.60626757   -8.1062906    742.41142  0.015302404  0.014218485            4 
 4044000   0.60587413   -8.1017131     741.1691   0.01527302  0.014213748            2 
 4045000   0.60765256   -8.1074217    740.84622  0.015262592  0.014209013            3 
 4046000   0.59262013   -8.1235103    741.57998  0.015273933  0.014204273            4 
 4047000    0.6004526   -8.1229538     741.2756  0.015263891  0.014199541            2 
 4048000   0.61388045   -8.1218419    742.13223  0.015277755  0.014194807            4 
 4049000   0.60220251   -8.1032437    741.46812  0.015260314  0.014190077            3 
 4050000     0.605276   -8.1021872    740.54443   0.01523754  0.014185357            4 
 4051000   0.60231104   -8.1096831    740.05744   0.01522376  0.014180633            8 
 4052000    0.6018702   -8.1153928    741.42282  0.015248084   0.01417591            3 
 4053000   0.60188924   -8.1096538    740.54152  0.015226201  0.014171192            5 
 4054000   0.59653689   -8.1062969     742.2526  0.015257618  0.014166484            3 
 4055000   0.60472029   -8.1129766     741.2973  0.015234223  0.014161773            6 
 4056000   0.59769112   -8.1140266    743.14051  0.015268337  0.014157062            5 
 4057000    0.6006506   -8.0871773    740.79368  0.015216368  0.014152348            3 
 4058000   0.61694498    -8.079048    741.35289  0.015224102  0.014147639            3 
 4059000    0.6068509    -8.105073    742.24087  0.015238582  0.014142938            7 
 4060000   0.61231475    -8.104226    741.09924  0.015211397   0.01413824            4 
 4061000   0.59475474   -8.1120417     740.5087  0.015195533   0.01413354            8 
 4062000   0.60659346   -8.1014927    742.71642  0.015237084  0.014128835            5 
 4063000   0.59822766   -8.0949137    741.03013  0.015198747  0.014124147            7 
 4064000   0.60640974   -8.1032144     742.3372  0.015221809  0.014119452            6 
 4065000   0.60856954   -8.1051208    740.79366  0.015186422  0.014114767            5 
 4066000   0.59612117    -8.119859    741.23397  0.015191711  0.014110076            5 
 4067000   0.59451366   -8.0985718    741.40933  0.015191569  0.014105384            2 
 4068000   0.60063866   -8.1237341    741.51268  0.015189952  0.014100694            6 
 4069000   0.60827471   -8.0909626    740.21424  0.015159626  0.014096006            3 
 4070000   0.60506334   -8.1011424    742.71329   0.01520707  0.014091328            5 
 4071000   0.60521885   -8.1157147    739.77776  0.015143244  0.014086653            3 
 4072000   0.61464176   -8.1243859    740.36061  0.015151453  0.014081968            6 
 4073000   0.61227173   -8.1265518    740.79652  0.015156652  0.014077291            4 
 4074000   0.58606149   -8.0963505    741.54582  0.015168258  0.014072617            4 
 4075000    0.6026156   -8.1269987    740.61254  0.015145451  0.014067941            7 
 4076000    0.6083056   -8.1214905    741.00521  0.015149763  0.014063265            5 
 4077000   0.60084498   -8.1044389     742.7396  0.015181498  0.014058595            3 
 4078000   0.58552032   -8.1088505     741.3308  0.015148986  0.014053926            4 
 4079000   0.59415524   -8.1144705    740.26906  0.015123581  0.014049256            2 
 4080000   0.58991052   -8.1117708    740.78066  0.015130324  0.014044582            4 
 4081000   0.59981539   -8.1132512    740.61944  0.015123324   0.01403992            2 
 4082000   0.60526481   -8.0996604    741.62417  0.015140131  0.014035258            3 
 4083000   0.60172516   -8.1040946    742.65481  0.015157458    0.0140306            5 
 4084000   0.58940596   -8.1148463    741.66113  0.015133471  0.014025943            3 
 4085000   0.58589303   -8.1162635    740.88803  0.015113995  0.014021283            2 
 4086000   0.59303042   -8.1182464    740.94019   0.01511136  0.014016623            5 
 4087000   0.58361173   -8.1172764    741.80629  0.015125322  0.014011967            2 
 4088000   0.61544421   -8.1130343    740.49081  0.015094806  0.014007309            8 
 4089000   0.60802887   -8.1106728    742.66128  0.015135348  0.014002656            8 
 4090000   0.60433462   -8.1221565    741.34756  0.015104881  0.013997999            6 
 4091000   0.58909915   -8.1078863    740.87223  0.015091506  0.013993348            3 
 4092000   0.59326689   -8.1311265    740.37461  0.015077684  0.013988691            6 
 4093000    0.5940163   -8.1108794    740.31727  0.015072833  0.013984039            2 
 4094000   0.59759004   -8.1229649    741.50829  0.015093395  0.013979392            2 
 4095000    0.5913531   -8.1270667      741.055  0.015080484  0.013974751            3 
 4096000   0.59477389   -8.1101812    741.50573  0.015085973  0.013970106            2 
 4097000   0.60481421   -8.1219993    740.64098  0.015064701  0.013965462            8 
 4098000   0.59350106   -8.1131244    741.59755  0.015080477  0.013960813            2 
 4099000   0.58731507   -8.1269035    741.44908   0.01507378  0.013956173            5 
 4100000   0.59750143   -8.1095195    742.83035  0.015098178  0.013951542            9 
 4101000   0.59847477   -8.1502636    740.32828  0.015043654  0.013946898            6 
 4102000    0.6049822   -8.1132255    741.65805  0.015067001  0.013942266            3 
 4103000   0.59345686   -8.1096618    741.12499  0.015052502  0.013937631            6 
 4104000   0.59781535   -8.1045675    740.42165  0.015034553  0.013933001            5 
 4105000   0.60259509   -8.1137088    740.97173  0.015042057  0.013928375            4 
 4106000   0.58320883   -8.1196154    741.09444  0.015040884  0.013923754            4 
 4107000   0.60167398   -8.1276468    740.96007  0.015034495  0.013919133            4 
 4108000    0.5864029   -8.1384343    741.95525  0.015051023  0.013914517            2 
 4109000   0.59221801   -8.1078377    740.99465  0.015027879  0.013909902            4 
 4110000   0.59495188   -8.1158171    740.55469  0.015015302  0.013905284            7 
 4111000   0.59151382   -8.1072172     739.7573  0.014995486   0.01390067            3 
 4112000   0.61043983   -8.1272507    740.88962  0.015014786   0.01389605            1 
 4113000   0.58630733   -8.0976867    742.26693  0.015039041  0.013891442            3 
 4114000   0.58405261   -8.1038211    741.21616  0.015014101  0.013886832            3 
 4115000   0.60542857   -8.1310301    741.66274  0.015019497   0.01388222            3 
 4116000   0.58893634   -8.1351178    740.75503   0.01499747  0.013877613            7 
 4117000   0.60399866   -8.1115922    740.67019   0.01499211  0.013873002            7 
 4118000   0.59321725   -8.1356972    741.31816  0.015001582  0.013868403            3 
 4119000   0.59072992   -8.1294842    741.97214   0.01501117  0.013863804            5 
 4120000   0.59671535   -8.1324904    741.38829  0.014995718  0.013859192            3 
 4121000   0.60240707   -8.1271451    741.56159  0.014995583  0.013854586            3 
 4122000    0.5925312   -8.1577242     739.9993  0.014960361  0.013849985            3 
 4123000   0.60379799   -8.1146392     740.5747  0.014968362  0.013845376            3 
 4124000   0.58359561   -8.1058957    740.80512  0.014969389  0.013840775            3 
 4125000   0.58698017    -8.127416    740.86351   0.01496694   0.01383617            6 
 4126000   0.57920904   -8.1374032    740.26327  0.014951189  0.013831571            6 
 4127000   0.58410357   -8.1442215    740.16292   0.01494554  0.013826975            3 
 4128000   0.58638656   -8.1367569    740.25089  0.014943695  0.013822376            5 
 4129000   0.59061114   -8.1039782    739.67149  0.014928382  0.013817781            2 
 4130000   0.60071246   -8.1223989    740.15141  0.014934451  0.013813193            3 
 4131000   0.58648484   -8.1387308    740.94299  0.014946804  0.013808611            3 
 4132000   0.60098524   -8.1378621     739.9458  0.014923076  0.013804023            4 
 4133000   0.59581798   -8.1151796    742.08354  0.014962568  0.013799437            2 
 4134000   0.59246121   -8.1132706    741.42062  0.014945586  0.013794857            3 
 4135000   0.58463823   -8.1150007    741.65206  0.014946636  0.013790277            5 
 4136000   0.58827373   -8.1168416    741.38887  0.014937719  0.013785703            4 
 4137000   0.60011407   -8.1332054    740.10069   0.01490816  0.013781125            4 
 4138000   0.59218427    -8.133709    739.81349  0.014898773  0.013776552            3 
 4139000   0.58971534    -8.146345    740.95672  0.014918191  0.013771979            4 
 4140000    0.6018781   -8.1411746    739.38825  0.014883016  0.013767401            2 
 4141000   0.59107195   -8.1223831    739.38755  0.014879408  0.013762829            3 
 4142000   0.58487643   -8.1349625    740.50589  0.014898316  0.013758257            2 
 4143000   0.60108321   -8.1446462    741.06224   0.01490591  0.013753679            2 
 4144000   0.57569287   -8.1450651    741.20948  0.014905274  0.013749108            4 
 4145000   0.58413001   -8.1239609    741.26186  0.014902731  0.013744544            2 
 4146000   0.58821317   -8.1260146     741.3214  0.014900334  0.013739979            4 
 4147000   0.57634088   -8.1235644    741.00954  0.014890474  0.013735416            2 
 4148000   0.57368441   -8.1312233    742.08002   0.01490839  0.013730859            3 
 4149000    0.5846039   -8.1226092    741.02199  0.014883546  0.013726299            2 
 4150000   0.57865546    -8.126051    741.48801  0.014889317  0.013721739            2 
 4151000   0.58346685   -8.1352778    741.06195  0.014877177  0.013717179            2 
 4152000   0.58549816   -8.1510608    741.07902  0.014873937  0.013712627            3 
 4153000   0.59482563   -8.1297433    741.23824   0.01487355  0.013708073            3 
 4154000   0.59271395   -8.1278808    741.18585  0.014868919  0.013703526            6 
 4155000   0.58036579   -8.1414379    740.00827  0.014841722  0.013698981            4 
 4156000   0.59846453   -8.1202637    740.75423  0.014853108  0.013694436            5 
 4157000   0.58765575   -8.1275105    741.43032  0.014863089  0.013689893            4 
 4158000   0.59847945   -8.1400247    740.20906  0.014835038   0.01368535            4 
 4159000   0.59189672    -8.129737    740.83678  0.014844049   0.01368081            3 
 4160000   0.58510319   -8.1149027    741.53455  0.014854458  0.013676279            3 
 4161000    0.5807648   -8.1530552    740.92816  0.014838744  0.013671746            4 
 4162000   0.58599125   -8.1118146    741.76628   0.01485196  0.013667215            3 
 4163000   0.59996886   -8.1304445    741.39754  0.014841011  0.013662684            4 
 4164000   0.57898781   -8.1598211    740.23812  0.014814244  0.013658153            5 
 4165000   0.59506299   -8.1274642    740.49122  0.014815751  0.013653621            6 
 4166000   0.59079671   -8.1473776    740.74304  0.014817232  0.013649093            5 
 4167000   0.59392767   -8.1495106    742.39968  0.014846806   0.01364457            2 
 4168000     0.573097   -8.1204149    740.94221  0.014814104  0.013640042            3 
 4169000   0.57746256   -8.1260722    741.37827  0.014819267  0.013635525            8 
 4170000   0.59915105   -8.1172754    741.76137  0.014823369  0.013631007            3 
 4171000   0.59884636   -8.1452502    741.56329  0.014815857  0.013626489            4 
 4172000   0.58622132   -8.1272295    740.94642  0.014799984  0.013621973            2 
 4173000   0.57364474   -8.1242108    739.86851  0.014774912  0.013617459            7 
 4174000   0.58033935   -8.1318225    741.39095  0.014801768   0.01361295            3 
 4175000   0.58754357   -8.1240484    740.38437  0.014778131  0.013608439            3 
 4176000   0.59652454   -8.1387565    741.39599  0.014794779  0.013603934            4 
 4177000   0.59309964   -8.1463816    740.51717  0.014773705  0.013599424            4 
 4178000   0.57624822   -8.1289067     740.6051  0.014771922  0.013594921            2 
 4179000   0.57371715   -8.1253944    741.70415  0.014790304  0.013590416            2 
 4180000   0.57872221   -8.1349301    740.80969  0.014768933   0.01358592            4 
 4181000   0.57903994   -8.1601648    741.12562  0.014771698  0.013581419            7 
 4182000   0.58099433   -8.1199594    740.91407   0.01476395  0.013576931            5 
 4183000   0.58728177   -8.1365402    740.90557  0.014760251  0.013572439            2 
 4184000   0.58305375   -8.1369081    741.98301  0.014778183   0.01356795            4 
 4185000   0.58245147   -8.1155843    741.81762  0.014771358  0.013563458            7 
 4186000   0.58215768   -8.1473252    740.45828  0.014740768  0.013558964            3 
 4187000   0.58043713   -8.1432373     740.3091  0.014734279  0.013554471            3 
 4188000   0.58105885    -8.148595    740.00551   0.01472472  0.013549975            3 
 4189000   0.58627378   -8.1299434    740.52062  0.014731452  0.013545482            3 
 4190000   0.57958403   -8.1404594    740.65868  0.014730682  0.013540988            4 
 4191000    0.5736106   -8.1304044    741.44921  0.014742886    0.0135365            2 
 4192000   0.57792839   -8.1410958    739.06443  0.014691962  0.013532012            6 
 4193000   0.59013087   -8.1313707    741.28817  0.014732653  0.013527524            3 
 4194000   0.58520473   -8.1670192    740.39638  0.014711421  0.013523038            6 
 4195000   0.56638332   -8.1575515    741.45914  0.014729025  0.013518556            3 
 4196000   0.56761591    -8.146154    740.70013  0.014710441   0.01351407            3 
 4197000   0.57681133   -8.1487153    740.63601  0.014705663    0.0135096            7 
 4198000   0.58362426   -8.1427403    741.16075  0.014712576  0.013505126            4 
 4199000   0.58615236   -8.1393359    740.42497   0.01469447  0.013500652            7 
 4200000   0.56802833   -8.1529753    741.46927  0.014711692  0.013496183           10 
 4201000    0.5813715   -8.1511701    740.32627  0.014685517  0.013491714            4 
 4202000   0.57523677   -8.1517045      741.565  0.014706588  0.013487244            5 
 4203000   0.58416994   -8.1376498    741.32164  0.014698264  0.013482775            7 
 4204000   0.58090689   -8.1617184    740.88166  0.014686046  0.013478307            8 
 4205000   0.57459468   -8.1581166    740.38881  0.014672787  0.013473839            5 
 4206000   0.58514657   -8.1474429    739.96438  0.014660889  0.013469376            4 
 4207000   0.58951049   -8.1503294    740.15241  0.014661129   0.01346491            6 
 4208000   0.58190803   -8.1677057    741.11851  0.014676777  0.013460448            6 
 4209000   0.57062011   -8.1519756    740.13027  0.014653724  0.013455988            6 
 4210000   0.57422302   -8.1348445    740.75812  0.014662671  0.013451532            4 
 4211000   0.58170346   -8.1491118    741.30805  0.014670071  0.013447076            5 
 4212000   0.57796906    -8.164833     740.2325  0.014645309  0.013442626            7 
 4213000   0.57726817   -8.1350698    741.76036  0.014672054  0.013438177            4 
 4214000   0.57178115   -8.1516003    741.61793  0.014665756   0.01343373            5 
 4215000   0.57741824   -8.1566251    741.11563  0.014652345  0.013429282            5 
 4216000   0.58726835   -8.1657319    740.94117  0.014645422  0.013424837            7 
 4217000   0.58431376   -8.1500965    739.30319   0.01460958  0.013420389           10 
 4218000    0.5702855   -8.1402258     741.5336  0.014650182  0.013415942            5 
 4219000   0.58151066   -8.1595699    741.28653  0.014641829  0.013411501           12 
 4220000   0.57786642   -8.1610307    741.28459  0.014638321  0.013407059            4 
 4221000   0.58094064   -8.1397685    740.30612  0.014615536  0.013402623            4 
 4222000   0.57777803   -8.1426294    740.91011  0.014623996  0.013398192            4 
 4223000   0.57578791   -8.1417222    739.51631  0.014593028   0.01339376            5 
 4224000    0.5836617   -8.1442015    739.89214  0.014596988  0.013389326            3 
 4225000   0.56594116   -8.1385662    740.51273  0.014605774  0.013384897            5 
 4226000   0.57231067   -8.1652589    740.43708  0.014600826  0.013380463            4 
 4227000   0.57531286   -8.1672604    740.60721  0.014600726  0.013376033            4 
 4228000   0.57428049   -8.1487976     739.6505  0.014578416  0.013371604            8 
 4229000   0.59348331   -8.1535507    740.98999  0.014601363  0.013367174            4 
 4230000   0.56564067   -8.1578089    739.08624  0.014560407  0.013362741            3 
 4231000   0.58056667   -8.1541432    739.42254  0.014563589  0.013358313            6 
 4232000   0.58176967   -8.1256331    740.73721  0.014586035  0.013353888            3 
 4233000   0.57009714   -8.1470532    740.82906  0.014584398  0.013349469            4 
 4234000   0.57100501     -8.14081    739.82691  0.014561229  0.013345046            6 
 4235000   0.57359872   -8.1538868    741.08452  0.014582537   0.01334063            2 
 4236000   0.57146365   -8.1588653    740.41613  0.014565945  0.013336217            3 
 4237000   0.56679412   -8.1301773    739.51419  0.014544768    0.0133318            5 
 4238000   0.56580897   -8.1705746    739.66948   0.01454439  0.013327383            4 
 4239000   0.57566374   -8.1636066    740.99955  0.014567106  0.013322964            4 
 4240000   0.58058608   -8.1802331    741.20186  0.014567647  0.013318542            2 
 4241000   0.57681575   -8.1325368    740.84304  0.014557161  0.013314126            5 
 4242000   0.56704233   -8.1570679    739.55024  0.014528333  0.013309707            3 
 4243000   0.58661357   -8.1564897    740.04986  0.014534721  0.013305297            7 
 4244000   0.57044662   -8.1457055    740.45407  0.014539233  0.013300883            6 
 4245000   0.57288414   -8.1425346    739.84014  0.014523756  0.013296475            3 
 4246000   0.58204013   -8.1610098     738.8644  0.014501185  0.013292064            3 
 4247000   0.57375308   -8.1606501    740.18142  0.014523613  0.013287656            4 
 4248000   0.56796193   -8.1852436    739.41569  0.014505173   0.01328325            8 
 4249000   0.56581329   -8.1784823    740.13499  0.014515866  0.013278847            4 
 4250000   0.56469739   -8.1521382    741.20825  0.014533495  0.013274443            3 
 4251000   0.56903841   -8.1402639    739.56985  0.014497958   0.01327004            4 
 4252000   0.56880421   -8.1608043     740.4674  0.014512139  0.013265637            3 
 4253000   0.56511165   -8.1518431    739.77308  0.014495123  0.013261233            3 
 4254000   0.57429184   -8.1597942    739.59288  0.014488185  0.013256837            3 
 4255000   0.58184928   -8.1569932    740.15983  0.014495884  0.013252445            4 
 4256000   0.56599022    -8.174385    739.37119  0.014477036  0.013248058            5 
 4257000   0.57839567   -8.1640464    741.83798  0.014521924  0.013243669            3 
 4258000   0.58548408   -8.1617646    741.30731  0.014508128  0.013239275            3 
 4259000   0.56865476   -8.1569472    740.37335  0.014486447  0.013234884            2 
 4260000   0.56804069   -8.1616007    740.53482  0.014486205    0.0132305            2 
 4261000   0.57486471   -8.1438986    741.59179  0.014503477  0.013226119            3 
 4262000   0.56281799   -8.1499954    740.77819  0.014484166  0.013221732            5 
 4263000   0.56920296   -8.1717143    739.96538   0.01446488  0.013217346            3 
 4264000   0.56953165   -8.1642779    740.77971  0.014477402  0.013212968            4 
 4265000   0.57777317   -8.1659532    739.52604  0.014449512  0.013208586            2 
 4266000   0.57037047   -8.1574822    740.07369  0.014456823  0.013204202            3 
 4267000   0.57865624   -8.1553099    738.88883  0.014430295  0.013199816            4 
 4268000   0.57733107   -8.1897251    740.53103  0.014458978  0.013195433            5 
 4269000   0.55764085   -8.1539376     740.9921  0.014464592  0.013191059            3 
 4270000   0.56465774   -8.1583898    738.90132  0.014420401   0.01318668            4 
 4271000   0.57055062   -8.1512674    740.15401  0.014441466   0.01318231            5 
 4272000   0.56640903   -8.1755358    740.24057  0.014439774  0.013177937            3 
 4273000   0.56614711   -8.1792904    740.10081  0.014433669   0.01317357            8 
 4274000   0.55804198   -8.1677617    740.11695  0.014430607  0.013169201            3 
 4275000    0.5709191   -8.1797162    739.29804  0.014411268  0.013164832            4 
 4276000   0.55723349    -8.158776    740.25725  0.014426591  0.013160468            3 
 4277000   0.56931602   -8.1553115    739.60099  0.014410432  0.013156105            5 
 4278000    0.5858249   -8.1954153    740.05217  0.014415852   0.01315174            4 
 4279000   0.56152341   -8.1788185    739.59264  0.014403534  0.013147379            6 
 4280000   0.55492477   -8.1805986    740.34208   0.01441476  0.013143024            6 
 4281000   0.55748941   -8.1693222    740.62343   0.01441687  0.013138669            3 
 4282000   0.57321243   -8.1752622    738.78612  0.014377746  0.013134313            3 
 4283000   0.56838986    -8.190031    739.24559  0.014383329  0.013129954            3 
 4284000   0.56400206   -8.1847118    739.29564  0.014380945  0.013125596            6 
 4285000    0.5625545   -8.1925626    739.66145  0.014384703  0.013121242            2 
 4286000   0.57902336   -8.1920778    738.23106  0.014353536  0.013116889            2 
 4287000   0.57640221   -8.1695334    739.37541  0.014372432  0.013112537            5 
 4288000   0.56088593   -8.1694754    739.56245  0.014372716   0.01310819            3 
 4289000   0.56013795   -8.1787914    739.94658  0.014376828   0.01310384            4 
 4290000   0.57362404   -8.1678678    739.72917  0.014369253  0.013099491            4 
 4291000    0.5641321   -8.1619868    739.06762  0.014353057  0.013095148            4 
 4292000    0.5482123   -8.1843087    739.63377  0.014360705  0.013090806            3 
 4293000   0.57566595   -8.1783153    739.53123   0.01435537  0.013086467            3 
 4294000   0.56524591   -8.1946015    739.61115  0.014353578  0.013082122            3 
 4295000   0.56876187    -8.173867    739.03608  0.014339078  0.013077777            4 
 4296000   0.56276071   -8.1884118    738.48634  0.014325076  0.013073437            2 
 4297000   0.56449696    -8.175594    739.69347  0.014345153  0.013069096            2 
 4298000   0.56785754   -8.1934742    739.25354  0.014333286  0.013064764            3 
 4299000   0.58247262   -8.1957123    740.16836  0.014347685  0.013060432            5 
 4300000   0.57852851   -8.1985791    739.11953  0.014324022  0.013056096            6 
 4301000     0.557869   -8.1764461     739.1877  0.014322012  0.013051767            4 
 4302000   0.56167396   -8.1955932     739.6604   0.01432784  0.013047438            4 
 4303000   0.55646361    -8.189105    739.60807  0.014323497  0.013043112            5 
 4304000   0.54889394     -8.19921     738.9827   0.01430806  0.013038776            4 
 4305000    0.5643474   -8.1975014    738.32842  0.014292072  0.013034451            4 
 4306000    0.5569377   -8.2032035    740.09788  0.014322997  0.013030122            4 
 4307000   0.56498164   -8.1848784    739.58802  0.014309806  0.013025801            6 
 4308000   0.56417749   -8.2006386    738.42512   0.01428399  0.013021479            5 
 4309000   0.56109306   -8.1902881    740.41362  0.014319131  0.013017155            2 
 4310000   0.55522111   -8.1816373    739.19753  0.014292296  0.013012833            2 
 4311000   0.57700223   -8.1900989    739.81976  0.014301008  0.013008515            4 
 4312000    0.5614352   -8.1892811    739.21627  0.014286029  0.013004194            4 
 4313000   0.56226467     -8.18982    739.07382  0.014279964  0.012999875            5 
 4314000   0.56088477   -8.1832963    739.25242  0.014280104  0.012995555            4 
 4315000   0.56001818   -8.1938425    738.89575  0.014269906   0.01299124            3 
 4316000   0.55841804   -8.2001725     739.2352  0.014273154  0.012986927            3 
 4317000   0.56015615   -8.2017602    738.61896  0.014257952  0.012982615            4 
 4318000   0.55285938   -8.1950484    739.45048  0.014270698  0.012978302            5 
 4319000   0.56376454   -8.1685271    737.52517  0.014230246  0.012973996            4 
 4320000   0.55122781   -8.1901392    738.71012  0.014249809  0.012969693            4 
 4321000   0.56095115    -8.187896    739.14979  0.014254991   0.01296539            4 
 4322000   0.55093027   -8.1925767    739.85551    0.0142653  0.012961088            3 
 4323000   0.57060504   -8.1781598    740.07552  0.014266241  0.012956794            3 
 4324000   0.55280035    -8.194001    738.06376   0.01422417  0.012952501            4 
 4325000   0.55647976    -8.220524    739.12126  0.014241257  0.012948205            6 
 4326000   0.56712897   -8.1986091      738.964  0.014234936  0.012943909            6 
 4327000   0.55987204   -8.1816123    739.57532   0.01424342  0.012939618            4 
 4328000   0.55982352   -8.1847321    739.46637  0.014238031  0.012935332            3 
 4329000   0.56328859   -8.1939152    740.57658  0.014256113  0.012931048            6 
 4330000   0.54998457   -8.1799713    738.86117  0.014219807  0.012926761            6 
 4331000   0.55956979   -8.1833007    738.86255   0.01421655  0.012922474            3 
 4332000   0.55369483   -8.2005575     739.2852  0.014221399   0.01291819            4 
 4333000   0.56600728   -8.1889238    738.91216  0.014210942  0.012913907            5 
 4334000   0.55551178   -8.1891964    738.93302  0.014208065  0.012909629            4 
 4335000    0.5675404   -8.2030439    739.46359  0.014214986  0.012905349            6 
 4336000   0.55995329   -8.2087922    739.62948  0.014214896  0.012901075            5 
 4337000   0.56413622   -8.1895303    739.35313  0.014206309  0.012896794            4 
 4338000    0.5532248    -8.197349    739.55238  0.014206862  0.012892521            3 
 4339000   0.55019304   -8.1799675    739.32229  0.014199168   0.01288825            4 
 4340000    0.5619519   -8.2025664    738.14441   0.01417328  0.012883976            3 
 4341000   0.56239406   -8.2067765    738.90112  0.014184541  0.012879704            3 
 4342000   0.55522333   -8.2070109    739.25477  0.014188062  0.012875439            4 
 4343000   0.54836141   -8.2028022    737.95794  0.014159911   0.01287117            7 
 4344000   0.55169052   -8.1927261    739.82021  0.014192377  0.012866897            6 
 4345000   0.55497758   -8.1979055    739.26805   0.01417852  0.012862636            5 
 4346000   0.55564793   -8.1872479    738.02064  0.014151339  0.012858376            4 
 4347000   0.56724611   -8.2005857    739.34061  0.014173388   0.01285411            3 
 4348000   0.54822062   -8.1703179    739.10043  0.014165525  0.012849848            5 
 4349000   0.55090887   -8.2281171    739.80372  0.014175744  0.012845587            5 
 4350000    0.5542754   -8.1872243    739.63458  0.014169245  0.012841322            3 
 4351000   0.56925713   -8.2062178    738.22682  0.014139026  0.012837058            5 
 4352000   0.56083388   -8.1986327    738.97093  0.014150025  0.012832803            5 
 4353000   0.56928908   -8.2074688    739.88979  0.014164365  0.012828546            3 
 4354000   0.55858824   -8.1890826    739.85446  0.014160436  0.012824292            3 
 4355000    0.5469599   -8.2032997    738.21023  0.014125722  0.012820043            3 
 4356000   0.55451617     -8.18649      738.368  0.014125497  0.012815791            4 
 4357000   0.56043533   -8.2269484     738.2588  0.014120167  0.012811545            3 
 4358000   0.55565004   -8.2074487    737.78881   0.01410794  0.012807293            2 
 4359000   0.55754608    -8.213432    737.97384   0.01410824  0.012803043            5 
 4360000   0.55411673   -8.1783337    738.55356  0.014116085  0.012798799            5 
 4361000   0.56172511   -8.2315626    739.07013  0.014122719  0.012794552            3 
 4362000   0.55412878   -8.2221399    739.55199  0.014128687  0.012790306            5 
 4363000    0.5532684   -8.2119087    738.92417  0.014113457  0.012786055            4 
 4364000   0.55357561    -8.214154    737.97242  0.014092049  0.012781815            3 
 4365000   0.55075849   -8.2021892     738.6543  0.014101839  0.012777574            5 
 4366000   0.54783617   -8.2087043    738.91457  0.014103576  0.012773335            3 
 4367000   0.55917604   -8.2126706    736.95256  0.014062907  0.012769096            7 
 4368000   0.54811929   -8.2149669    738.36419  0.014086618  0.012764861            4 
 4369000   0.54166264   -8.1961682    738.41626  0.014084387  0.012760633            5 
 4370000   0.55559489   -8.2180375     739.3363  0.014098709  0.012756406            6 
 4371000    0.5531257   -8.1966114     738.5496  0.014080485  0.012752172            6 
 4372000   0.54004479    -8.212652    738.59005  0.014078035  0.012747941            5 
 4373000   0.56195461   -8.1964146    738.88732  0.014080481  0.012743713            2 
 4374000   0.54910611   -8.1953154    737.43576  0.014049607  0.012739482            2 
 4375000   0.56046745   -8.1954667    738.38448  0.014064466   0.01273526            3 
 4376000    0.5599006   -8.2041708    738.45016  0.014062503  0.012731035            6 
 4377000   0.54455234   -8.2101902    738.34316  0.014057253  0.012726812           11 
 4378000      0.55082   -8.2021775    739.20479  0.014070443  0.012722598            4 
 4379000   0.55761052    -8.209146     738.8912  0.014061262  0.012718378            5 
 4380000   0.54780454   -8.2152183    739.25743   0.01406502  0.012714157            5 
 4381000   0.55699823    -8.197461    737.45446  0.014027514  0.012709946            2 
 4382000   0.56395441   -8.1907539    739.60289   0.01406517  0.012705732            7 
 4383000   0.56762753   -8.2070899    737.73631  0.014026472   0.01270152            2 
 4384000   0.55261828   -8.1931593    739.19633  0.014051025  0.012697313            3 
 4385000    0.5362565   -8.2111581    738.20884  0.014029054  0.012693109            3 
 4386000   0.55291653    -8.201328    737.72129  0.014016592  0.012688905            7 
 4387000   0.55596872   -8.2036292     737.6746   0.01401251  0.012684698            7 
 4388000   0.55617281   -8.1971858    738.12069  0.014017789  0.012680496            7 
 4389000   0.54758954   -8.2079367    739.29724  0.014036934    0.0126763            3 
 4390000   0.54120973   -8.1963816    738.01421  0.014009381  0.012672099            3 
 4391000   0.55394884   -8.2224047    739.46041  0.014033637  0.012667895            2 
 4392000   0.55401966   -8.2245106    738.39828  0.014010289  0.012663701            5 
 4393000   0.53272239   -8.2039039    738.48705  0.014008784  0.012659511            3 
 4394000   0.55233922   -8.2192052    737.53848  0.013987606  0.012655319            7 
 4395000   0.54831473   -8.2276832    738.62283  0.014004983  0.012651126            6 
 4396000   0.55887516   -8.2077971     738.9712  0.014008402  0.012646934            5 
 4397000   0.54354161   -8.2096972    737.28163  0.013973194  0.012642742            7 
 4398000   0.55072131   -8.2163036    737.89022  0.013981549  0.012638551            8 
 4399000   0.55446392   -8.2037347    738.25307  0.013985244  0.012634368            7 
 4400000   0.54508335   -8.2046681    739.34728  0.014002789  0.012630182            5 
 4401000   0.55335736   -8.2127648    738.30993  0.013979965  0.012626003            5 
 4402000   0.55232575   -8.1973286    737.57881  0.013962949  0.012621825            4 
 4403000   0.54052826   -8.2097133     737.8327  0.013964583  0.012617644            3 
 4404000    0.5550068   -8.2211377    737.57289  0.013956496  0.012613466            4 
 4405000   0.53967452     -8.19708    738.45901  0.013970091  0.012609287            3 
 4406000   0.54626036   -8.2042937    738.32958  0.013964472  0.012605109            4 
 4407000   0.54545609   -8.2043317    738.66189  0.013967587  0.012600929            7 
 4408000   0.55569868   -8.2013732    737.91783  0.013950352   0.01259675            2 
 4409000   0.54543867   -8.2135101    738.11392  0.013950894  0.012592577            3 
 4410000   0.54231443   -8.2073518    737.75842  0.013941013  0.012588402            3 
 4411000   0.55016131   -8.2229761      738.001  0.013942436  0.012584233            3 
 4412000   0.54196813   -8.2098711    738.64062  0.013951357  0.012580062            5 
 4413000   0.54317284   -8.2186831    738.24595  0.013940742  0.012575891            5 
 4414000   0.53897162   -8.1985065    737.53412  0.013924145  0.012571721            2 
 4415000    0.5428111   -8.2160362    737.39954  0.013918451   0.01256755            3 
 4416000   0.53558299   -8.2155051    738.16741   0.01392979  0.012563381            2 
 4417000   0.55345864   -8.2146839    737.60321  0.013915992  0.012559213            2 
 4418000   0.54767768   -8.2240318    736.40123   0.01389017  0.012555048            3 
 4419000   0.55661209    -8.223489    737.28444  0.013903682  0.012550886            4 
 4420000    0.5462968   -8.2185334    738.27832  0.013919275  0.012546726            4 
 4421000   0.55184007   -8.2202143    737.41859  0.013899921  0.012542565            7 
 4422000   0.54446559   -8.2157407    736.43247  0.013878194  0.012538405            3 
 4423000   0.54242581   -8.2206854    737.05665  0.013886816   0.01253425            4 
 4424000    0.5496394   -8.2341212    738.16013  0.013904463  0.012530099            7 
 4425000   0.54044576   -8.2215844    737.87775  0.013896003  0.012525943            5 
 4426000   0.53381049   -8.2197182    738.16792  0.013898326  0.012521792            5 
 4427000   0.54238107   -8.2075487    737.42759  0.013881251  0.012517646            8 
 4428000   0.54765357   -8.2037127    737.27289  0.013875205  0.012513496            4 
 4429000   0.54632229   -8.2187455    737.97008   0.01388519  0.012509347            6 
 4430000   0.54564679    -8.224995    738.57845    0.0138935  0.012505201            5 
 4431000   0.53788773   -8.2179472    738.71773  0.013892984  0.012501052            4 
 4432000   0.54379361   -8.2293573      737.907  0.013874605  0.012496907            5 
 4433000   0.53874924   -8.2257036    738.26056  0.013878122   0.01249277            4 
 4434000   0.55224862   -8.2199502    737.86276  0.013867515  0.012488628            4 
 4435000     0.551064   -8.2358708    737.98155  0.013866621   0.01248449            4 
 4436000   0.54443714   -8.2232929    737.18901  0.013848606  0.012480357            4 
 4437000   0.54544086   -8.2286946    737.30699  0.013847701  0.012476218            5 
 4438000   0.53882857   -8.2267558    736.69931   0.01383317  0.012472081            4 
 4439000   0.53716503   -8.2348524    737.58834  0.013846744  0.012467944            4 
 4440000   0.54345353   -8.2261848    737.77247  0.013847081  0.012463813            5 
 4441000   0.52885313   -8.2065807    738.17467   0.01385151   0.01245968            6 
 4442000   0.52903917   -8.2147369      737.115  0.013828512  0.012455547            2 
 4443000   0.55021627   -8.2339749    738.36006  0.013848752  0.012451416            2 
 4444000   0.53048874   -8.2235501    738.22161  0.013843039  0.012447281            3 
 4445000   0.53230308   -8.2272698    736.76049  0.013812533  0.012443149            3 
 4446000    0.5414032   -8.2358311     737.8193  0.013829272  0.012439021            5 
 4447000   0.54326699   -8.2140152    738.31926  0.013835531  0.012434892            4 
 4448000   0.53244671   -8.2131801    737.26267  0.013812625  0.012430764            7 
 4449000    0.5344072   -8.2198382    737.50515  0.013814062  0.012426638            2 
 4450000   0.54023159   -8.2421027    736.67857  0.013795479   0.01242252            4 
 4451000   0.53483462   -8.2481484    737.06115  0.013799542  0.012418397            3 
 4452000   0.52192671   -8.2219246    737.20569  0.013799148  0.012414279            5 
 4453000   0.55688609   -8.2280507    737.21078  0.013796144  0.012410162            4 
 4454000   0.54757058   -8.2369221     737.4756  0.013798002  0.012406048            3 
 4455000   0.53750286   -8.2245188    736.64762  0.013779417  0.012401934            3 
 4456000   0.54045314   -8.2260803     736.7035   0.01377737  0.012397822            3 
 4457000   0.53778054   -8.2167025    737.16372  0.013782883  0.012393713            3 
 4458000   0.53982766   -8.2477804    737.13149  0.013779189  0.012389604            4 
 4459000   0.53034461   -8.2508597    736.68784  0.013767808  0.012385496            6 
 4460000   0.54088908   -8.2401921    737.98268  0.013788914  0.012381394            3 
 4461000   0.54124521   -8.2491457    736.11946  0.013751017  0.012377289            2 
 4462000   0.53495726    -8.235059    737.49923  0.013773704  0.012373188            8 
 4463000   0.53561266   -8.2389126     736.9517  0.013760395  0.012369088            4 
 4464000   0.54508166   -8.2325209    736.22245  0.013743699  0.012364991            2 
 4465000   0.54121839   -8.2512796    736.76073  0.013750667  0.012360893            4 
 4466000   0.54164432   -8.2335405    736.85574  0.013749361  0.012356795            3 
 4467000    0.5375033   -8.2184019    737.50666  0.013758426  0.012352698            3 
 4468000   0.54145096   -8.2396178    737.70072  0.013758966  0.012348607            3 
 4469000   0.53215805   -8.2321191    737.19216  0.013746404  0.012344512            6 
 4470000   0.54999269   -8.2505956    737.55192  0.013750036   0.01234042            3 
 4471000   0.53985008   -8.2397534    736.61593  0.013729515  0.012336334            7 
 4472000   0.54638752   -8.2529457    736.77601  0.013729428  0.012332246            3 
 4473000   0.52486528   -8.2404737    737.91778   0.01374763  0.012328159            3 
 4474000   0.53618875   -8.2383585    736.77904  0.013723347  0.012324073            3 
 4475000   0.52609313   -8.2409812    735.82319   0.01370248  0.012319988            5 
 4476000   0.55303358   -8.2330106    736.68766  0.013715513  0.012315906            3 
 4477000   0.52947209   -8.2289059    736.77834  0.013714138  0.012311828            3 
 4478000   0.51931262    -8.252182    737.53348  0.013725128  0.012307747            3 
 4479000   0.54523227   -8.2510748    736.60999  0.013704882  0.012303671            2 
 4480000   0.52942279   -8.2390673    738.31406   0.01373352  0.012299596            3 
 4481000    0.5420576   -8.2446562    736.92668  0.013704654  0.012295524            2 
 4482000   0.53455609   -8.2558075    736.32672  0.013690442  0.012291448            4 
 4483000   0.52915654   -8.2591452    736.93717  0.013698735  0.012287376            3 
 4484000   0.54282422   -8.2332494    738.04374  0.013716246  0.012283307            3 
 4485000   0.54141534   -8.2392096    736.49501  0.013684411   0.01227924            2 
 4486000   0.53134044   -8.2436826    736.52923  0.013681996  0.012275175            4 
 4487000   0.52981334   -8.2498691    736.03521  0.013669772  0.012271116            6 
 4488000    0.5320849   -8.2418723    737.03944  0.013685373  0.012267056            3 
 4489000    0.5312312   -8.2402708    735.55526  0.013654772  0.012262995            3 
 4490000   0.53289443   -8.2536835    735.65464  0.013653575  0.012258933            4 
 4491000   0.52705934   -8.2451533    737.72347  0.013688924  0.012254875            3 
 4492000   0.52783151   -8.2634277    736.46261  0.013662485  0.012250821            4 
 4493000   0.53319576   -8.2457272    736.63313  0.013662607  0.012246769            3 
 4494000   0.53211582   -8.2405489    736.25218  0.013652503  0.012242713            7 
 4495000   0.53299495   -8.2497838    736.61253  0.013656146  0.012238661            4 
 4496000   0.52859008   -8.2363481    737.71066  0.013673463  0.012234612            5 
 4497000   0.53222225   -8.2702091    736.35128  0.013645232  0.012230563            5 
 4498000   0.52771861    -8.247092    737.34498  0.013660608  0.012226519            4 
 4499000    0.5235187   -8.2627934    736.18698  0.013636123  0.012222476            3 
 4500000   0.52363047   -8.2447003    737.03328  0.013648764  0.012218429            5 
 4501000   0.54491057   -8.2435607    735.92012  0.013625123  0.012214379            4 
 4502000   0.53698028   -8.2465872    736.39658  0.013630915  0.012210342            2 
 4503000   0.53827359   -8.2501176    736.48727  0.013629567  0.012206304            3 
 4504000   0.52607605   -8.2545823    738.06654  0.013655761  0.012202271            3 
 4505000   0.52055826   -8.2149816    736.94533  0.013631989   0.01219824            8 
 4506000   0.53499166   -8.2592973    737.24416   0.01363449  0.012194208            6 
 4507000   0.52519941   -8.2414462    737.16428  0.013629988  0.012190174            4 
 4508000   0.53997819   -8.2497372    736.69886  0.013618361   0.01218614            6 
 4509000   0.53421116   -8.2459706    735.94036  0.013601322  0.012182119            1 
 4510000   0.52599982   -8.2410607    738.06178  0.013637505  0.012178097            2 
 4511000   0.53176592   -8.2542505    736.34512   0.01360277  0.012174075            4 
 4512000   0.53666203    -8.253315    736.70679  0.013606435  0.012170057            7 
 4513000   0.53731405    -8.243898    737.32028  0.013614748  0.012166036            9 
 4514000    0.5419572   -8.2451581    736.77487  0.013601663  0.012162013            6 
 4515000   0.52104516   -8.2571023    737.42381  0.013610628  0.012157996            6 
 4516000   0.53435587   -8.2490065    737.77517  0.013614097  0.012153978            4 
 4517000   0.51885232   -8.2599123    737.31537  0.013602601  0.012149961            4 
 4518000   0.51945694   -8.2702931    736.71134  0.013588449  0.012145944            3 
 4519000   0.54321472   -8.2587397    736.88411  0.013588628   0.01214193            2 
 4520000   0.51948208   -8.2608124    737.25937   0.01359254  0.012137917            2 
 4521000   0.52601869   -8.2426061    735.99898  0.013566301  0.012133906            3 
 4522000   0.52317212   -8.2410808     737.6242  0.013593252  0.012129897            7 
 4523000   0.53551712   -8.2241058    736.92508  0.013577365  0.012125894            3 
 4524000   0.53733584   -8.2344715    736.18839  0.013560794  0.012121889            7 
 4525000   0.53908309   -8.2635061    737.55056  0.013582883  0.012117884            4 
 4526000   0.52453012   -8.2212189    736.35371  0.013557846  0.012113885            2 
 4527000   0.51968422   -8.2521879    736.11626   0.01355048   0.01210988            2 
 4528000   0.52397629   -8.2462948    736.97499  0.013563291  0.012105882            4 
 4529000   0.52360278   -8.2601097     735.8128  0.013538912  0.012101882            5 
 4530000   0.52677511   -8.2456692    736.80635  0.013554201  0.012097886            5 
 4531000   0.53391851   -8.2574524    735.53877  0.013527896  0.012093889            2 
 4532000   0.53207928   -8.2567392    736.01984  0.013533757  0.012089893            5 
 4533000   0.53384101   -8.2537233    736.01306  0.013530647  0.012085909            4 
 4534000   0.53704141   -8.2491979    736.28969  0.013532747  0.012081919            4 
 4535000   0.53087605   -8.2639738    736.53623  0.013534293  0.012077926            3 
 4536000   0.53970814   -8.2480565    735.99986  0.013521455  0.012073936            2 
 4537000   0.53945815   -8.2549025    736.79463  0.013533073  0.012069952           10 
 4538000   0.52272263   -8.2612238    736.13428  0.013517965   0.01206597            4 
 4539000   0.52711724   -8.2449208    735.37049  0.013500964  0.012061986            6 
 4540000   0.51922055   -8.2509964    735.57818  0.013501802  0.012058009            5 
 4541000   0.53241938   -8.2334942    736.17221   0.01350973  0.012054028            5 
 4542000   0.51466352   -8.2507718    736.32763  0.013509607  0.012050049            3 
 4543000   0.52451701   -8.2418708    737.01905  0.013519316  0.012046074            3 
 4544000   0.52940407   -8.2494406     735.7012  0.013492173  0.012042097            3 
 4545000   0.51109426   -8.2557447    737.14915  0.013515753  0.012038122            7 
 4546000   0.52681884    -8.250406    736.54357  0.013501679  0.012034152           11 
 4547000   0.52918717   -8.2625549    736.49071  0.013497741   0.01203018            5 
 4548000   0.52563488   -8.2453019    736.06171  0.013486912  0.012026211            3 
 4549000   0.51894394    -8.255157    735.41274  0.013472059  0.012022244            2 
 4550000   0.52927835   -8.2737737    735.95946  0.013479111  0.012018279            6 
 4551000   0.52096885    -8.235387    735.05835  0.013459649  0.012014311            4 
 4552000   0.53197983   -8.2677406    736.16835  0.013477013  0.012010343            2 
 4553000   0.52917617   -8.2546151    736.71022  0.013483971  0.012006376            9 
 4554000   0.51126064   -8.2496757    737.14805  0.013489021  0.012002414            4 
 4555000   0.51269499   -8.2555368    736.45661   0.01347341  0.011998453            6 
 4556000   0.52815766   -8.2565456    735.61096  0.013454985  0.011994495            4 
 4557000   0.51726407   -8.2554372      735.986  0.013458891  0.011990535            5 
 4558000   0.52225269    -8.254843    735.21946  0.013441924  0.011986577            5 
 4559000   0.52134085   -8.2455036    736.25658  0.013457933  0.011982624            4 
 4560000   0.52870397   -8.2437093    736.20788  0.013454091  0.011978667            4 
 4561000   0.52868564   -8.2653095    735.23722  0.013433407  0.011974714            3 
 4562000    0.5282971   -8.2660838    735.85685  0.013441781  0.011970763            6 
 4563000   0.53513162   -8.2808903    735.85052  0.013438719  0.011966815            4 
 4564000   0.52206839   -8.2583918    735.74808  0.013433904  0.011962867           10 
 4565000   0.52088722   -8.2720753    736.00175  0.013435592  0.011958921            4 
 4566000   0.51618409    -8.263182    736.97805  0.013450468  0.011954978            4 
 4567000   0.53398071   -8.2528127    736.00521  0.013429772  0.011951033            4 
 4568000   0.50591804   -8.2762173    735.82298  0.013423507   0.01194709            3 
 4569000   0.51703239   -8.2714471    736.08308  0.013425313  0.011943151            3 
 4570000   0.52007751   -8.2659382    735.60114  0.013413587  0.011939212            2 
 4571000    0.5270305   -8.2393384    735.10164  0.013401547  0.011935276            2 
 4572000   0.52165321   -8.2669586    735.94677   0.01341402  0.011931342            3 
 4573000   0.52769808   -8.2671136    737.43592  0.013438223  0.011927407            3 
 4574000     0.532931   -8.2606371    735.16694  0.013393947  0.011923476            3 
 4575000   0.51638934   -8.2605939    735.87246   0.01340387  0.011919546            2 
 4576000   0.51846271   -8.2452876     735.2087  0.013388853  0.011915623            4 
 4577000   0.52387535   -8.2647762    736.40641  0.013407735  0.011911697            5 
 4578000   0.50952185   -8.2676585     734.8606  0.013376667  0.011907779            3 
 4579000   0.52770563   -8.2553926    735.64042  0.013387938  0.011903853            8 
 4580000   0.50948091   -8.2538232    734.88614  0.013371291  0.011899935            3 
 4581000    0.5089449   -8.2625393    736.27148  0.013393573   0.01189602            4 
 4582000   0.53293947   -8.2858041    734.95789  0.013366759  0.011892104            3 
 4583000   0.51249192   -8.2606131    735.73869   0.01337804  0.011888185            5 
 4584000   0.52590848   -8.2474512    736.65104  0.013391707  0.011884273            8 
 4585000   0.52742607   -8.2749908    737.54356  0.013405008  0.011880364            3 
 4586000   0.51990947    -8.265201    736.00018   0.01337404  0.011876453            4 
 4587000   0.51363892   -8.2824087    735.85023    0.0133684  0.011872543            5 
 4588000   0.50504224   -8.2831343    735.70062  0.013362769  0.011868635            3 
 4589000   0.51816972   -8.2811787     735.5149  0.013356485  0.011864727            2 
 4590000   0.52559307   -8.2636272    734.54408  0.013335949  0.011860816            3 
 4591000   0.51589874   -8.2695562    735.07402  0.013342663  0.011856914            5 
 4592000   0.51744363   -8.2534463    736.13642  0.013359038  0.011853007            8 
 4593000   0.51634944   -8.2773622    736.44626  0.013361751  0.011849108            3 
 4594000   0.51905915   -8.2685999    734.20457  0.013318179  0.011845206            4 
 4595000   0.53220162   -8.2640994     735.2729  0.013334655   0.01184131            4 
 4596000   0.51359798   -8.2802393    736.38867  0.013351985  0.011837417            8 
 4597000   0.51987113   -8.2697233    735.29351  0.013329228  0.011833525            4 
 4598000   0.52011734   -8.2592045    735.15853  0.013323882  0.011829635            3 
 4599000   0.51478147   -8.2805262     735.8914  0.013334265  0.011825744            7 
 4600000   0.51899647   -8.2553553    735.67862  0.013327511  0.011821854            4 
 4601000   0.50995948   -8.2689725    737.41503  0.013356064  0.011817961            4 
 4602000   0.51231235   -8.2570675    736.41736  0.013335096  0.011814075            4 
 4603000   0.52085427   -8.2680946    735.33027  0.013312518  0.011810189            3 
 4604000    0.5150995   -8.2724142    734.73775  0.013298902  0.011806303            3 
 4605000   0.52152286    -8.276622    734.77148  0.013296625   0.01180242            5 
 4606000   0.50650031   -8.2739804    736.05281   0.01331692  0.011798537            3 
 4607000   0.50298929   -8.2857329    735.46523  0.013303401  0.011794654            3 
 4608000   0.50870136   -8.2766831    736.49847    0.0133192  0.011790776            2 
 4609000   0.50445737   -8.2672358     736.3529  0.013313678  0.011786897            4 
 4610000   0.51959311   -8.2639056     736.6635  0.013316405  0.011783023            4 
 4611000   0.50914684   -8.2679503    736.68411  0.013313889  0.011779154            5 
 4612000   0.52259071   -8.2729176    736.40501  0.013305959  0.011775282            4 
 4613000    0.5190965   -8.2703704    736.06065  0.013296854  0.011771414            3 
 4614000   0.50295647   -8.2736925    735.83698  0.013289932  0.011767545            4 
 4615000   0.50742406   -8.2773757      735.423  0.013279578  0.011763681            3 
 4616000   0.51528942   -8.2712849    736.03019  0.013287662  0.011759818            5 
 4617000   0.50880854   -8.2805419    735.67688  0.013278407  0.011755953            3 
 4618000   0.52301884   -8.2866432    735.24723  0.013267779  0.011752088            3 
 4619000   0.51320585   -8.2831555    735.56796  0.013270693  0.011748233            4 
 4620000   0.52033499   -8.2609914    737.00447  0.013293731  0.011744378            6 
 4621000   0.51162285   -8.2609272    737.42646  0.013298465  0.011740524            3 
 4622000   0.50712566   -8.2692247    736.33142  0.013275844   0.01173667            4 
 4623000   0.51995903   -8.2693275    733.68147  0.013225205  0.011732814            2 
 4624000   0.50712984   -8.2727899    735.78523  0.013260259  0.011728963            4 
 4625000   0.50865747   -8.2896399     735.2724  0.013248151  0.011725117            2 
 4626000    0.5071265   -8.2612865    735.24286  0.013244755  0.011721267            5 
 4627000   0.51640828   -8.2714496    735.80394  0.013251998  0.011717423            3 
 4628000   0.51682558   -8.2690905     735.6033  0.013245522  0.011713584            8 
 4629000   0.51641596   -8.2709203    735.23832   0.01323609  0.011709739            7 
 4630000   0.50544613   -8.2740027    736.03686  0.013247604  0.011705898            7 
 4631000    0.5131476   -8.2657548    735.38326  0.013232982   0.01170206            2 
 4632000   0.51909963   -8.2643187    735.53949  0.013232936  0.011698224            3 
 4633000   0.51499597   -8.2783065    735.70374  0.013233034  0.011694388            3 
 4634000   0.50898133     -8.28404    735.54709  0.013227361   0.01169055            8 
 4635000   0.51106272   -8.2956435    735.70908   0.01322742  0.011686718            8 
 4636000   0.51661687   -8.2698023    735.03236  0.013212402  0.011682884            8 
 4637000   0.50474618   -8.2644902    736.45772  0.013235169  0.011679055            3 
 4638000   0.50395938   -8.2656804    735.87945  0.013221925  0.011675229            3 
 4639000   0.50692604   -8.2642096    735.13643  0.013205727  0.011671401            7 
 4640000   0.51186938   -8.2732298    736.18012  0.013221626  0.011667577            7 
 4641000   0.51101842   -8.2794723     735.5086  0.013206719  0.011663754            5 
 4642000   0.50902062   -8.2844402     733.8171  0.013173508  0.011659928            5 
 4643000   0.50489098   -8.2898665    734.65204  0.013185656  0.011656109            4 
 4644000   0.49960787   -8.2707714    735.34305  0.013195217  0.011652291           13 
 4645000   0.50180782   -8.2892573    735.06259  0.013187345  0.011648477            6 
 4646000    0.5061608   -8.2661167    735.69449   0.01319584  0.011644656            5 
 4647000   0.50782367   -8.2750093    735.24527  0.013184945   0.01164084            5 
 4648000   0.50092565   -8.2898927    736.46123  0.013203909  0.011637027            3 
 4649000   0.51312992   -8.2891105    735.33541  0.013180888  0.011633211            3 
 4650000   0.51684329   -8.2895727     736.3325  0.013195923  0.011629402            4 
 4651000   0.50080543   -8.2846063    735.27652  0.013174165  0.011625592            4 
 4652000   0.50468894   -8.2964689    735.87758  0.013182101  0.011621784            3 
 4653000   0.50396766    -8.283159     735.9393  0.013180373  0.011617977            4 
 4654000    0.4943031   -8.2678365    736.26308  0.013183338  0.011614175            6 
 4655000   0.51981436   -8.2596629     735.8135  0.013172458  0.011610372            7 
 4656000   0.51804075   -8.2805155    734.64045  0.013148633  0.011606572            3 
 4657000   0.51438364   -8.2788299    735.63545  0.013163615   0.01160277            4 
 4658000   0.50375099   -8.2954805    734.67351  0.013143579  0.011598969            6 
 4659000   0.51671802   -8.2749261    737.05187  0.013183299  0.011595174            2 
 4660000    0.5050759   -8.2737036    735.57116  0.013153991  0.011591379            5 
 4661000   0.51432729   -8.2842317     735.5723  0.013151189  0.011587585            4 
 4662000   0.50354621   -8.2970513     736.3416  0.013162119  0.011583789            6 
 4663000   0.50535497   -8.2767858    734.40962   0.01312477  0.011579997            7 
 4664000   0.50948845    -8.278773    735.51908  0.013141779  0.011576202            4 
 4665000   0.51272255   -8.2829234    735.32378  0.013135473  0.011572407            6 
 4666000    0.5033591   -8.2879626    735.13903  0.013129358  0.011568616            4 
 4667000   0.50015532   -8.2812541    735.60269  0.013134824  0.011564827            4 
 4668000   0.50918722   -8.2891008     735.8713  0.013136805  0.011561039            5 
 4669000   0.50864127   -8.2839525    734.62842  0.013111809   0.01155725            5 
 4670000   0.49964607   -8.2863183    734.75073  0.013111184  0.011553466            3 
 4671000   0.48710373    -8.290742    735.44308  0.013120729  0.011549682            5 
 4672000    0.5128203   -8.2920002    735.74913  0.013123379  0.011545901            3 
 4673000   0.50680268    -8.292391    735.14118  0.013109729  0.011542122            5 
 4674000   0.49417865   -8.3005769    735.33743  0.013110424  0.011538345            5 
 4675000   0.48890931   -8.2860093    736.73721  0.013132571  0.011534565            4 
 4676000   0.49964687   -8.3056968    735.13302  0.013101173  0.011530787           14 
 4677000   0.50791607   -8.2798037     734.2626  0.013082863   0.01152701            5 
 4678000   0.50185661   -8.2857348    733.85234  0.013072758  0.011523231            5 
 4679000   0.50956697   -8.2897843    735.67671  0.013102456  0.011519459            4 
 4680000   0.52374813   -8.2909278    735.22659  0.013091642  0.011515686            4 
 4681000   0.49394804   -8.2955693    735.60979  0.013095667  0.011511915            9 
 4682000   0.50646867    -8.295024    735.08218  0.013083479  0.011508147            8 
 4683000   0.50246568   -8.2973249     734.3532  0.013067713   0.01150438            5 
 4684000   0.49891404   -8.3030804    734.92084  0.013075022  0.011500616            5 
 4685000   0.50266723   -8.2967566    735.34275  0.013079736  0.011496849            8 
 4686000   0.51746409   -8.2789731    734.96527  0.013070232  0.011493087            3 
 4687000   0.49905406   -8.3042807    734.91752  0.013066594  0.011489325            3 
 4688000   0.50079581   -8.2969684    734.86165  0.013062814  0.011485567            4 
 4689000   0.49438452   -8.3142509    734.30853  0.013050198  0.011481808            5 
 4690000   0.50317506   -8.2843544    736.67287  0.013089426  0.011478053            3 
 4691000   0.50077887   -8.2907839     734.6818  0.013051265  0.011474302            4 
 4692000   0.50544311   -8.2997765    734.43701  0.013044136  0.011470549            7 
 4693000   0.51169322   -8.2921425    735.53237  0.013060806    0.0114668            7 
 4694000   0.49820681   -8.2915459    735.88106  0.013064214  0.011463052            4 
 4695000   0.49694928   -8.2866061    735.99152  0.013063392  0.011459307            7 
 4696000   0.49669355   -8.3043129    735.95396  0.013059944  0.011455558            5 
 4697000   0.50864113   -8.2901188    735.66516   0.01305204  0.011451811            5 
 4698000   0.50158596   -8.2899578    735.01117  0.013037661  0.011448067            3 
 4699000   0.50036001      -8.2989    734.41881  0.013024381  0.011444322            5 
 4700000   0.48997028   -8.2985479     735.6553  0.013043534  0.011440578            3 
 4701000   0.49313262   -8.3117368    734.08596   0.01301294  0.011436837            4 
 4702000   0.50004765   -8.3005735    734.36326  0.013015087  0.011433095            4 
 4703000   0.50249472   -8.3046705    735.30089  0.013028933   0.01142936            4 
 4704000   0.50798563   -8.2986009    734.16444  0.013006031  0.011425621            6 
 4705000   0.50680834   -8.2995804    734.62492  0.013011423  0.011421883            3 
 4706000   0.49514068   -8.2988052    733.39239  0.012986832  0.011418146            5 
 4707000   0.51155228   -8.3071054      735.545  0.013022183  0.011414413            4 
 4708000    0.4932422    -8.308215    734.82595   0.01300669  0.011410683            5 
 4709000   0.50628149   -8.3087712    735.64283  0.013018384  0.011406954            7 
 4710000   0.50805967   -8.2967135    734.80895  0.013000866  0.011403227            6 
 4711000    0.4967518   -8.3150868    734.52334  0.012993054  0.011399498            4 
 4712000   0.50059768    -8.287694    735.16353  0.013001619  0.011395768            3 
 4713000   0.49506108   -8.2986096    735.67886  0.013007972  0.011392044            7 
 4714000   0.49310922   -8.2796267    734.14975  0.012978181  0.011388323            4 
 4715000   0.49445907   -8.3118588    735.75298  0.013003764  0.011384603            7 
 4716000   0.50992554   -8.2997588    736.20997  0.013009082   0.01138088            6 
 4717000   0.49857361   -8.2987997    734.39555  0.012974269  0.011377162            6 
 4718000   0.48506128   -8.3101543    734.64995  0.012976013  0.011373442            5 
 4719000   0.50540212   -8.3053099    734.20383  0.012965385  0.011369723            6 
 4720000   0.49185277    -8.323309    734.84603  0.012973977   0.01136601            4 
 4721000   0.49137151   -8.3155885    734.29803  0.012961555  0.011362297            3 
 4722000   0.50080873   -8.2910516    735.05708  0.012972206  0.011358587            4 
 4723000   0.49347567   -8.3089701    734.50768  0.012959766   0.01135488            5 
 4724000   0.49707182   -8.3177981    733.84064  0.012945255  0.011351171            5 
 4725000    0.4990643   -8.2988232    734.10514  0.012947181  0.011347469            4 
 4726000   0.49568702   -8.3019573    733.88901   0.01294063  0.011343762            6 
 4727000   0.49059011   -8.2919154    734.88861  0.012955515  0.011340061            5 
 4728000   0.49580873   -8.3138055     734.7608  0.012950522  0.011336357            4 
 4729000   0.49700885   -8.3090462    733.90574  0.012932715  0.011332657            7 
 4730000   0.48634717    -8.300178    736.32846  0.012972665  0.011328961            5 
 4731000   0.48322794   -8.3112357    734.28361  0.012933904  0.011325264            4 
 4732000   0.48509917   -8.3013456    734.46964  0.012934447  0.011321573            4 
 4733000   0.48885158   -8.3093385    733.98255  0.012923138  0.011317881            5 
 4734000   0.49151545   -8.3148823    734.56611  0.012930681  0.011314189            4 
 4735000    0.4935704   -8.3018667     734.2434   0.01292227  0.011310499            8 
 4736000   0.50299772    -8.316816    734.18579  0.012918528  0.011306808            5 
 4737000   0.48421793   -8.3134644    734.35944  0.012918856   0.01130312            9 
 4738000   0.49774372   -8.3164709     734.0297   0.01291033  0.011299435            5 
 4739000   0.49381349   -8.3122011    733.86718  0.012904747   0.01129575            6 
 4740000   0.49611394   -8.3073948    734.17336  0.012907408  0.011292065            4 
 4741000    0.5026318   -8.3119959    735.02937  0.012919732  0.011288383            4 
 4742000   0.48264905   -8.3052708    734.87182  0.012914238  0.011284701            3 
 4743000   0.48540168    -8.313888    734.92946  0.012912528  0.011281021            5 
 4744000    0.4901773   -8.3257346    734.14892  0.012896095   0.01127734            3 
 4745000   0.48973568   -8.3095893    733.35414  0.012879419  0.011273659            4 
 4746000   0.49675469   -8.3183398    735.51588  0.012914663  0.011269981            4 
 4747000   0.49083859   -8.3065111    736.01603  0.012920722  0.011266308            5 
 4748000   0.48786708   -8.3126105    734.68545  0.012894648  0.011262637            5 
 4749000   0.49594325   -8.3160921    734.15849  0.012882686  0.011258967            3 
 4750000   0.49623174   -8.3254723    734.12766  0.012879433  0.011255295            3 
 4751000   0.48741586   -8.3341375    735.66007    0.0129036  0.011251629            3 
 4752000   0.50558848   -8.3104765    734.27093  0.012876524  0.011247962            5 
 4753000   0.48564621   -8.3233671    734.88953  0.012884661  0.011244299            4 
 4754000   0.49377462   -8.3220116    734.40282  0.012873419  0.011240638            4 
 4755000   0.49606745   -8.3042586    734.22216  0.012867546  0.011236979            6 
 4756000   0.48897761   -8.3152232    735.25749  0.012882981  0.011233319            2 
 4757000   0.48252309   -8.3182785     734.3379  0.012864163  0.011229659            4 
 4758000   0.49112919   -8.3386157    734.62018  0.012866404  0.011226001            3 
 4759000   0.48552212   -8.3150833    733.75371  0.012848527  0.011222345            4 
 4760000   0.47928889   -8.2977458    735.34707  0.012873723  0.011218693            3 
 4761000   0.50267681   -8.3063059    733.73252  0.012842759  0.011215041            3 
 4762000   0.49057318   -8.3185295    735.36191  0.012868576  0.011211393            5 
 4763000   0.48734527   -8.3043523    733.93165   0.01284085  0.011207744            3 
 4764000   0.48711804   -8.3141187    734.86823  0.012854538  0.011204099            5 
 4765000   0.48915384   -8.3261203    735.34116  0.012860111  0.011200452            8 
 4766000   0.50721228   -8.3178435    734.21974  0.012837805  0.011196807            6 
 4767000   0.47634107   -8.3168218    735.00541  0.012848846  0.011193165            4 
 4768000   0.49438078   -8.3197729    733.60594  0.012821692  0.011189522            2 
 4769000   0.49213771   -8.3184234    734.92838  0.012842112  0.011185881            3 
 4770000   0.49079433   -8.3386258    733.68593  0.012817714  0.011182243            3 
 4771000   0.49794841   -8.3253108    733.77873  0.012816648  0.011178603            4 
 4772000   0.47892517   -8.3290329    733.89313   0.01281596  0.011174968            2 
 4773000   0.49290504   -8.3113872    734.28365  0.012820093  0.011171332            3 
 4774000   0.49800936   -8.3196493    734.04424  0.012813229    0.0111677            2 
 4775000    0.4832713   -8.3241524    734.27871  0.012814637  0.011164067            5 
 4776000   0.48938285   -8.3305319    734.95663  0.012823783  0.011160435            3 
 4777000   0.48415597   -8.3202116    734.42501  0.012811824  0.011156807            2 
 4778000   0.48693728   -8.3118573    735.12973  0.012821434   0.01115318            3 
 4779000   0.49039577   -8.3354624    735.25058  0.012820858  0.011149552            3 
 4780000   0.48335433   -8.3148675    734.93739  0.012812716  0.011145928            3 
 4781000   0.48594844   -8.3169274    734.78825  0.012807437  0.011142308            3 
 4782000   0.48162462   -8.3213746    734.41839  0.012798313  0.011138689            4 
 4783000   0.48453201   -8.3194186    734.86256  0.012803376  0.011135065            3 
 4784000   0.48849068   -8.3126307    733.33615  0.012774111  0.011131445            5 
 4785000   0.48935038   -8.3405193    734.02414  0.012783423   0.01112783            3 
 4786000   0.48160052   -8.3106383    734.28678  0.012785325  0.011124211            6 
 4787000   0.49285491   -8.3298711    734.17123  0.012780643  0.011120597            4 
 4788000   0.49004334   -8.3146895    735.28651  0.012797384  0.011116987            6 
 4789000   0.48270557   -8.3307742    735.10427  0.012791541  0.011113377            5 
 4790000   0.48768771   -8.3152549    733.77725  0.012765784  0.011109768            4 
 4791000   0.49457742   -8.3135024    734.23918  0.012771154  0.011106157            6 
 4792000   0.47863105   -8.3231305    734.54828  0.012773864  0.011102555            4 
 4793000   0.49726312   -8.3419172    735.52007  0.012788095  0.011098948            4 
 4794000   0.49271691   -8.3177511    734.26366  0.012763588  0.011095342            5 
 4795000   0.48278197   -8.3136948    733.76635  0.012752283  0.011091741            3 
 4796000   0.48675122   -8.3118812    733.84344  0.012750963  0.011088139            6 
 4797000    0.4820857   -8.3074227    734.51148   0.01275991  0.011084534            5 
 4798000   0.48065452   -8.3326834    733.87256  0.012746154  0.011080938            3 
 4799000   0.47647594   -8.3353119    733.85803  0.012743246   0.01107734            3 
 4800000   0.48773233   -8.3406059     733.9075   0.01274145  0.011073741            8 
 4801000   0.48296671   -8.3205013    734.54987  0.012749946  0.011070145            2 
 4802000    0.4805347   -8.3192346    734.09609  0.012739416  0.011066549            3 
 4803000   0.47852395   -8.3199249    734.67896  0.012746876  0.011062958            4 
 4804000   0.47822327   -8.3183949    733.30478  0.012720385  0.011059368            4 
 4805000     0.485785   -8.3122431    733.50816  0.012721265  0.011055779            4 
 4806000   0.47796645   -8.3315267    734.24341  0.012731367  0.011052193            3 
 4807000    0.4872106   -8.3207476    734.14738  0.012727054   0.01104861            6 
 4808000   0.47897936   -8.3200752    734.29098  0.012726896  0.011045027            3 
 4809000   0.48005888   -8.3241265     734.6327  0.012730171  0.011041445            4 
 4810000   0.47811611   -8.3260866    735.17239  0.012736874  0.011037865            3 
 4811000   0.47833473   -8.3178807    734.20267   0.01271743  0.011034287            4 
 4812000   0.47689893   -8.3008995      734.592   0.01272153   0.01103071            3 
 4813000    0.4803832   -8.3225978    734.40376  0.012715627  0.011027134            6 
 4814000   0.49137112   -8.3237935    734.52234  0.012715038   0.01102356            7 
 4815000   0.49132935   -8.3308443    734.83627  0.012717831  0.011019984            4 
 4816000   0.48049512   -8.3418795     734.2469  0.012704992  0.011016414            4 
 4817000   0.47832347   -8.3138336    733.70086  0.012692908  0.011012841            3 
 4818000   0.48392326   -8.3156802    734.55212  0.012704997  0.011009275            4 
 4819000   0.47714908   -8.3282897    733.67067  0.012687118  0.011005714            7 
 4820000   0.48734696    -8.328739    734.27954  0.012695013  0.011002151           10 
 4821000   0.47792005   -8.3467956     734.8026  0.012701421  0.010998592            4 
 4822000   0.48176316   -8.3312994    734.26424  0.012689483  0.010995027            3 
 4823000    0.4741881   -8.3252363    735.30983  0.012704918  0.010991465            3 
 4824000   0.46875927   -8.3333636    733.64921  0.012673597  0.010987908            2 
 4825000   0.48850839   -8.3275369    734.24128  0.012681197  0.010984348            4 
 4826000   0.48214015   -8.3383022    733.67098  0.012668721  0.010980795            5 
 4827000   0.48065187    -8.321508    734.22967  0.012675742  0.010977239            5 
 4828000   0.48475958   -8.3297777    734.73057  0.012681762  0.010973687            5 
 4829000   0.47589845   -8.3317436     733.6394  0.012660306  0.010970129            5 
 4830000    0.4701559   -8.3425084    735.01758  0.012681463  0.010966578            3 
 4831000   0.47212749   -8.3254697    733.57564  0.012653965  0.010963028            9 
 4832000    0.4775091    -8.324676    734.63496  0.012669615  0.010959481            8 
 4833000    0.4703501   -8.3383758    734.68886  0.012667923  0.010955932            5 
 4834000   0.47527785   -8.3513704     732.8686  0.012633923  0.010952385            5 
 4835000   0.48304766   -8.3324216    734.18689  0.012654031  0.010948841            6 
 4836000   0.47384429   -8.3466158    733.98732  0.012647976  0.010945295            3 
 4837000   0.47703264   -8.3326535    734.29463  0.012650655  0.010941754            3 
 4838000   0.48139467   -8.3312285    732.79474  0.012622205  0.010938216            6 
 4839000   0.47702705   -8.3296109    734.40358  0.012647303  0.010934673            3 
 4840000   0.47754357   -8.3434561    733.57244   0.01263038  0.010931133            4 
 4841000   0.46480153   -8.3395592    733.77147  0.012631197  0.010927596            4 
 4842000    0.4830185   -8.3411321     733.4704  0.012623406  0.010924059            2 
 4843000   0.47127432   -8.3312047    734.70601  0.012642061  0.010920523            4 
 4844000    0.4840424    -8.332186    732.93563  0.012608994   0.01091699            3 
 4845000   0.47115332   -8.3311619    734.20268  0.012628185  0.010913456            5 
 4846000    0.4797125   -8.3317711    734.32284  0.012627645  0.010909927            5 
 4847000   0.48843389   -8.3414909    733.68585  0.012614089  0.010906396            3 
 4848000   0.47011277   -8.3344418    733.84371    0.0126142   0.01090287            3 
 4849000   0.47558595   -8.3374103    734.52943  0.012623383  0.010899339            3 
 4850000   0.47598882   -8.3281184    734.00091    0.0126117  0.010895809            7 
 4851000   0.47918458   -8.3300794    733.02645   0.01259236  0.010892286            4 
 4852000   0.48176226   -8.3256902    733.28234  0.012594159  0.010888762            2 
 4853000    0.4741681   -8.3425112    733.52867  0.012595794  0.010885239            7 
 4854000   0.46740969   -8.3328306    734.50087   0.01260989  0.010881724            2 
 4855000   0.47089157   -8.3446959    734.48324   0.01260699  0.010878207            6 
 4856000   0.49380786   -8.3427323     734.2207  0.012599888  0.010874695            3 
 4857000   0.46923393   -8.3496784    733.41841  0.012583529   0.01087118            5 
 4858000   0.47314004   -8.3323865    733.62135   0.01258442  0.010867664            6 
 4859000   0.47271174   -8.3438436    734.84711  0.012602852  0.010864151            4 
 4860000   0.48213981   -8.3425014    733.68464  0.012580326  0.010860637            3 
 4861000   0.47672002   -8.3463046     733.2554   0.01257038  0.010857125            2 
 4862000   0.46558581   -8.3389628    731.92691  0.012545025  0.010853614            3 
 4863000   0.47100079    -8.351473    734.48106  0.012586213  0.010850102            3 
 4864000   0.47308057   -8.3444963    733.06674  0.012559395  0.010846594            4 
 4865000   0.47317865   -8.3488987    733.19696  0.012559044  0.010843087            4 
 4866000   0.47493196   -8.3525774    734.58306    0.0125802  0.010839583            3 
 4867000   0.48429135   -8.3483359    734.10882  0.012569496  0.010836081            5 
 4868000   0.47104223   -8.3228924    733.58269  0.012557907  0.010832577            3 
 4869000   0.47038482   -8.3471053    734.06962  0.012563662  0.010829075            3 
 4870000   0.46786162   -8.3367585    734.05712  0.012560868   0.01082558            4 
 4871000   0.46075797   -8.3479286     733.1058  0.012542014  0.010822079            5 
 4872000   0.45937492   -8.3468875    732.98554  0.012537383   0.01081858            5 
 4873000   0.46744005   -8.3277241    733.92288  0.012550839  0.010815081            4 
 4874000   0.47067155   -8.3510479    734.92298  0.012565364  0.010811585            3 
 4875000   0.48372059   -8.3525359    732.98524  0.012529662  0.010808087            3 
 4876000   0.46868943   -8.3376099    734.50195  0.012553014  0.010804594            3 
 4877000   0.47693543   -8.3378512     732.6912    0.0125195  0.010801103            2 
 4878000   0.46969865   -8.3321766    734.64878  0.012550375  0.010797616            5 
 4879000   0.46436007   -8.3451874    733.55769  0.012529167  0.010794132            5 
 4880000   0.47285575   -8.3426229    731.45415  0.012490679  0.010790646            9 
 4881000   0.47020527   -8.3577103    734.34697  0.012537509  0.010787159            4 
 4882000    0.4707466    -8.363108    732.76631   0.01250796  0.010783678            5 
 4883000    0.4707197   -8.3529739    732.51783  0.012501158  0.010780195            4 
 4884000   0.45990121   -8.3348121    734.49442  0.012532324  0.010776713            4 
 4885000   0.47058405   -8.3470899    733.36064  0.012510417  0.010773233            7 
 4886000   0.45897055    -8.334969    733.43862  0.012509186  0.010769759            3 
 4887000   0.48113786   -8.3452343    734.14122  0.012518608  0.010766284            5 
 4888000   0.47139203   -8.3450166    732.99226  0.012496458   0.01076281            3 
 4889000   0.48131784   -8.3418308     733.1852  0.012497191  0.010759338            5 
 4890000   0.47528124   -8.3480348    733.27137  0.012496104  0.010755867            3 
 4891000   0.47909681   -8.3391372    734.08962   0.01250749  0.010752398            5 
 4892000    0.4722561   -8.3316227    734.02313  0.012503801  0.010748932            3 
 4893000   0.47181509   -8.3472316    733.97295  0.012500391  0.010745468            5 
 4894000    0.4641625   -8.3441546    733.98818  0.012498096  0.010742006            4 
 4895000   0.47089382   -8.3463115    733.23868  0.012482783  0.010738545            4 
 4896000   0.46728298   -8.3513883    732.90209  0.012474504  0.010735087            4 
 4897000   0.46964146   -8.3563627     733.3919  0.012480292  0.010731626            6 
 4898000   0.47697079   -8.3511926    734.16805  0.012490949  0.010728168            4 
 4899000   0.47161821   -8.3607511    732.58026  0.012461391   0.01072471            4 
 4900000   0.46679012   -8.3470694    732.54576  0.012458261  0.010721256            4 
 4901000    0.4708981   -8.3440779    734.12534  0.012482577  0.010717801            3 
 4902000   0.46168486   -8.3546622    733.36493  0.012467104  0.010714348            5 
 4903000   0.47427048   -8.3481142    733.11586  0.012460328  0.010710897            4 
 4904000   0.47404808   -8.3325782    733.04892   0.01245665  0.010707447            4 
 4905000   0.46279567   -8.3439218    732.83686  0.012450507  0.010703999            5 
 4906000   0.47512961   -8.3449581    732.79574  0.012447271   0.01070055            8 
 4907000   0.46570696   -8.3558183    732.64775  0.012442221  0.010697103            4 
 4908000   0.46571359   -8.3607963    732.90629  0.012444076  0.010693659            6 
 4909000   0.46686336   -8.3560196    732.74195  0.012438751  0.010690214            6 
 4910000   0.46517645   -8.3494191    733.02241  0.012440978  0.010686773            3 
 4911000   0.46536465   -8.3412182    732.38535  0.012427634  0.010683332            3 
 4912000   0.47055458   -8.3452712    734.32729   0.01245805  0.010679892            4 
 4913000   0.47096356   -8.3538869    733.07581  0.012434287  0.010676456            2 
 4914000   0.46222218   -8.3441324    733.35289  0.012436455  0.010673021            4 
 4915000   0.46472285   -8.3591884     733.1384  0.012430288  0.010669584            3 
 4916000   0.46003069   -8.3670351    732.84113  0.012422721  0.010666149            3 
 4917000   0.46988349   -8.3424081    733.55614  0.012432312  0.010662715            5 
 4918000   0.46156357   -8.3757636    734.27121  0.012441901  0.010659285            5 
 4919000    0.4518593   -8.3539785    732.71761  0.012413052  0.010655854            2 
 4920000      0.46277   -8.3502447    733.44165  0.012422792  0.010652425            4 
 4921000   0.47822183   -8.3483449    733.12972  0.012414985  0.010648997            3 
 4922000   0.46810878   -8.3537682    733.23205  0.012414196   0.01064557            5 
 4923000   0.46781859   -8.3477558    733.62663  0.012418353  0.010642144            4 
 4924000   0.45772493   -8.3453542    732.88572  0.012403292  0.010638719            4 
 4925000   0.45971042   -8.3532744    732.95072  0.012401873  0.010635298            4 
 4926000   0.46277295   -8.3577773    732.47467  0.012391302  0.010631877            3 
 4927000   0.46410423   -8.3745584    733.26174    0.0124021  0.010628458            7 
 4928000   0.46055643    -8.345516     732.6231  0.012388784  0.010625036            2 
 4929000   0.46291796   -8.3592775     733.3833  0.012399122  0.010621617            8 
 4930000   0.47161756   -8.3669753     732.4136  0.012380216    0.0106182            3 
 4931000   0.46421552   -8.3425098    733.42209  0.012394749  0.010614784            5 
 4932000   0.45240978   -8.3658211    732.92083  0.012383766  0.010611371            5 
 4933000   0.46523122    -8.360019    731.79076  0.012362166  0.010607957            3 
 4934000    0.4575191    -8.356794    733.25813  0.012384443  0.010604549            6 
 4935000   0.46773662   -8.3566756    733.08286  0.012378974   0.01060114            3 
 4936000    0.4653044   -8.3609262    733.15426  0.012377672  0.010597734            4 
 4937000   0.47025826   -8.3697784     733.3056  0.012377719  0.010594327            4 
 4938000   0.46728037   -8.3669886    732.98238  0.012369758  0.010590922            6 
 4939000   0.47305561   -8.3615743    733.62665  0.012378124  0.010587521            4 
 4940000    0.4660051   -8.3608044    731.85354  0.012345708   0.01058412            5 
 4941000   0.45801566   -8.3605224    733.36239  0.012368657  0.010580718            4 
 4942000   0.44932855   -8.3511259    732.72602  0.012355423  0.010577318            4 
 4943000   0.46063483    -8.365854    732.70146   0.01235251  0.010573919            3 
 4944000   0.45503448   -8.3637534    732.06627  0.012339305  0.010570521            2 
 4945000     0.474122   -8.3587288    733.49641   0.01236091  0.010567125            5 
 4946000   0.46200191   -8.3606873    732.79823  0.012346648  0.010563732            5 
 4947000   0.46461673   -8.3706189    733.12287   0.01234962  0.010560333            5 
 4948000   0.46401073   -8.3729523     733.9017  0.012360241   0.01055694            3 
 4949000    0.4672856   -8.3573654    732.66376  0.012336899  0.010553549            7 
 4950000    0.4665082   -8.3618564    731.76839  0.012319333  0.010550157            4 
 4951000   0.46512626   -8.3645298     731.3357  0.012309562  0.010546769            7 
 4952000   0.45183206   -8.3611114    731.80911  0.012315043  0.010543381            3 
 4953000   0.45950134    -8.363652     732.3427  0.012321534  0.010539996            4 
 4954000   0.45630175    -8.370115    733.02899  0.012330591   0.01053661            3 
 4955000   0.46177746   -8.3642995    732.41178  0.012317722  0.010533227            5 
 4956000   0.46308515    -8.352371    733.12641  0.012327253  0.010529844            5 
 4957000   0.46157826   -8.3579108    732.98757  0.012322432  0.010526463            4 
 4958000   0.46853566    -8.357343     732.7441  0.012315855  0.010523084            4 
 4959000    0.4571438   -8.3745041    732.35159  0.012306775  0.010519705            8 
 4960000   0.46049731     -8.35132    732.22692    0.0123022  0.010516328            4 
 4961000   0.46856009   -8.3664234    732.91261  0.012311238   0.01051295            4 
 4962000   0.45576739   -8.3694397    733.01989  0.012310558  0.010509573            5 
 4963000   0.45373538   -8.3433087    731.26976  0.012278692  0.010506201            5 
 4964000   0.45483883   -8.3739575    732.81318  0.012302128  0.010502829            3 
 4965000   0.44768727   -8.3758035    733.11603  0.012304734  0.010499461            3 
 4966000   0.46288923   -8.3771328    732.83005  0.012297457  0.010496091            5 
 4967000   0.44722121   -8.3687198    733.03588  0.012298434  0.010492726            7 
 4968000    0.4554701   -8.3663007    732.68442  0.012290063  0.010489358            4 
 4969000   0.44758136   -8.3633409    732.85987  0.012290532  0.010485995            4 
 4970000   0.45393355   -8.3667853    734.04862  0.012307992   0.01048263            3 
 4971000   0.45933175    -8.384565    732.58755  0.012281022  0.010479269            3 
 4972000   0.46473997   -8.3672631    733.54526  0.012294604  0.010475909            4 
 4973000   0.44434008   -8.3713101    733.36066  0.012289039  0.010472549            4 
 4974000   0.44648274   -8.3506631    732.75395  0.012276403  0.010469189            5 
 4975000     0.465163    -8.378118    731.96272  0.012260682   0.01046583            5 
 4976000   0.44826747   -8.3696174    732.89694  0.012273864  0.010462472            5 
 4977000   0.45942079   -8.3805315    731.99491  0.012256294  0.010459114            3 
 4978000   0.46065329   -8.3553651    732.47201  0.012261819  0.010455761            3 
 4979000     0.453003   -8.3901576    733.37496  0.012274469  0.010452408            3 
 4980000   0.45358453   -8.3720651    731.85037  0.012246492  0.010449055            3 
 4981000   0.45858181   -8.3568254    732.70097  0.012258264  0.010445706            4 
 4982000   0.45152003   -8.3686944    731.71938  0.012239385  0.010442357            4 
 4983000   0.46328207   -8.3830444    733.07552  0.012259608  0.010439008            8 
 4984000   0.44515442    -8.378417    732.32477  0.012244595   0.01043566            3 
 4985000   0.45503413   -8.3692273    732.10428  0.012238453  0.010432315            3 
 4986000   0.45607885   -8.3583165    731.94004  0.012233254  0.010428971            6 
 4987000   0.45593411   -8.3757871    732.37517  0.012238072  0.010425631            4 
 4988000   0.46444802   -8.3703705    732.23143  0.012233217  0.010422289            5 
 4989000   0.45541364   -8.3667307    731.70769  0.012222017  0.010418949            4 
 4990000   0.45843293   -8.3858392     732.5337  0.012233362   0.01041561            5 
 4991000   0.45248408   -8.3678993    733.08145  0.012240056  0.010412274            4 
 4992000   0.44261855   -8.3778046    731.89193  0.012217747  0.010408939            6 
 4993000   0.44610188   -8.3645863    732.76045  0.012229796  0.010405606            4 
 4994000    0.4622625   -8.3834088    732.99906  0.012231329  0.010402274            4 
 4995000   0.45553043   -8.3743592    732.92814  0.012227697  0.010398942            3 
 4996000   0.44801685   -8.3640994    732.69779  0.012221407  0.010395613            5 
 4997000   0.45891625   -8.3788262    733.16089  0.012226684  0.010392283            3 
 4998000    0.4501477   -8.3732509    732.54736  0.012214008  0.010388958            5 
 4999000   0.44679003   -8.3605641    733.02384  0.012219508  0.010385633            4 
 5000000   0.44997365   -8.3761164     731.9726  0.012199543  0.010382308            3 
 5001000   0.44462584   -8.3800007    732.31839  0.012202866  0.010378987            3 
 5002000    0.4557911   -8.3811832    733.13782  0.012214078  0.010375665            5 
 5003000   0.45895303   -8.3721625    732.97022  0.012208845  0.010372346            3 
 5004000   0.44799349   -8.3639354    731.92369  0.012188977  0.010369027            4 
 5005000   0.45088448   -8.3878716    732.59382  0.012197699  0.010365708            4 
 5006000   0.44557374   -8.3809027    732.52903  0.012194184  0.010362392            3 
 5007000   0.45719691   -8.3794585    731.72941   0.01217844   0.01035908            5 
 5008000   0.45448064   -8.3865415    731.87608  0.012178449  0.010355766            4 
 5009000   0.44960858   -8.3928368    731.03504  0.012162026  0.010352453            4 
 5010000   0.45316322   -8.3802694    732.49741  0.012183922  0.010349144            4 
 5011000   0.44779953   -8.3829623    732.95792  0.012189149  0.010345837            6 
 5012000    0.4450482   -8.3896506    732.39385  0.012177339  0.010342527            4 
Loop time of 11691.5 on 48 procs for 5000000 steps with 4000 atoms

Performance: 73899.805 tau/day, 427.661 timesteps/s
99.4% CPU use with 48 MPI tasks x no OpenMP threads

MPI task timing breakdown:
Section |  min time  |  avg time  |  max time  |%varavg| %total
---------------------------------------------------------------
Pair    | 747.35     | 793.93     | 837.19     |  82.0 |  6.79
Neigh   | 75.605     | 78.697     | 81.527     |  18.2 |  0.67
Comm    | 736.35     | 781.16     | 832.77     |  93.4 |  6.68
Output  | 15.79      | 15.794     | 15.883     |   0.3 |  0.14
Modify  | 9893.2     | 9913.7     | 9940.2     |   9.0 | 84.79
Other   |            | 108.2      |            |       |  0.93

Nlocal:        83.3333 ave          91 max          78 min
Histogram: 6 4 8 9 4 4 6 3 2 2
Nghost:        1973.29 ave        1993 max        1954 min
Histogram: 2 6 3 8 6 7 4 6 3 3
Neighs:        12562.7 ave       14081 max       11119 min
Histogram: 2 0 7 8 9 9 6 4 0 3
FullNghs:      25123.6 ave       27532 max       23111 min
Histogram: 2 5 10 6 5 8 2 5 2 3

Total # of neighbors = 1205931
Ave neighs/atom = 301.48275
Neighbor list builds = 268303
Dangerous builds = 2

#clear
#
#next RN
#
#jump SELF
Total wall time: 3:14:54
