
units lj                  # Use reduced LJ style units
atom_style atomic         # Uncharged point particles
atom_modify map hash      # Needed for indexing of clusters etc
                          # Used to be able to find where atoms are in relation to each other.

lattice fcc 1.0 spacing 1 1 1
Lattice spacing in x,y,z = 1.5874011 1.5874011 1.5874011
region box block 0 10 0 10 0 10 units lattice
create_box 2 box
Created orthogonal box = (0.0000000 0.0000000 0.0000000) to (15.874011 15.874011 15.874011)
  3 by 4 by 4 MPI processor grid
create_atoms 1 box
Created 4000 atoms
  using lattice units in orthogonal box = (0.0000000 0.0000000 0.0000000) to (15.874011 15.874011 15.874011)
  create_atoms CPU = 0.003 seconds
set type 1 type/fraction 2 0.1 78393
Setting atom values ...
  435 settings made for type/fraction
mass 1 1.0
mass 2 1.0
pair_style lj/cut  3.5
pair_modify tail  yes
pair_coeff 1  1  1.0  1.0   # Intearaction between 1 and 1 set with epsilon = 1 and sigma = 1
pair_coeff 1  2  1.5  0.8
pair_coeff 2  2  0.5  0.88

write_data data.0
System init for write_data ...
Neighbor list info ...
  update every 1 steps, delay 10 steps, check yes
  max neighbors/atom: 2000, page size: 100000
  master list distance cutoff = 3.8
  ghost atom cutoff = 3.8
  binsize = 1.9, bins = 9 9 9
  1 neighbor lists, perpetual/occasional/extra = 1 0 0
  (1) pair lj/cut, perpetual
      attributes: half, newton on
      pair build: half/bin/atomonly/newton
      stencil: half/bin/3d
      bin: standard
WARNING: Not all mixed pair coeffs generated from mixing. Use write_data with 'pair ij' option to store all pair coeffs. (../write_data.cpp:312)


#############################
#   M E L T   S Y S T E M   #
#############################

velocity all create 2.4 9622624 mom yes dist gaussian # Assign velocities
                                                    # Temperature 2.4, random number seed, zero linear momentum
                                                                                # Gaussian distribution

timestep 0.002   # simulation timestep
thermo 1000       # output thermodynamic data every 1000 steps bf 100

# Define a fix  in this case with index 1 applied to all
# particles in the simulation. This fix is for simulations
# in the anisotropic NPT ensemble. Note that we use the MTK
# correction.
fix 1 all npt temp 2.4 2.4 0.1 iso 5.68 5.68 0.5 mtk yes tchain 5 pchain 5 # Use NPT ensemble
                                                                         # Set temperature and pressure and damping
                                                                         # Numbers of thermostats in chain and in barostat
run 10000          # run for 10000 steps
Per MPI rank memory allocation (min/avg/max) = 3.642 | 3.644 | 3.648 Mbytes
Step Temp E_pair E_mol TotEng Press Volume 
       0          2.4   -7.6732445            0   -4.0741445   -3.0506691         4000 
    1000    2.3944749   -4.5686198            0  -0.97780529    5.7394567    4850.0359 
    2000    2.3513985   -4.5815552            0   -1.0553393    5.5910967    4856.4778 
    3000    2.3700854   -4.6182659            0   -1.0640266    5.7754673    4810.2554 
    4000    2.3829073   -4.6247907            0   -1.0513233    5.7705285    4816.6401 
    5000    2.3607667   -4.6283267            0   -1.0880619    5.8306827    4797.0438 
    6000    2.4332237   -4.6450213            0  -0.99609818    5.5457367    4839.3174 
    7000    2.3659012   -4.6031071            0   -1.0551425    5.6448441    4837.6252 
    8000    2.4022545   -4.5579299            0  -0.95544908    5.7209467    4851.9731 
    9000    2.4400143   -4.6105247            0  -0.95141822    5.7475538    4823.6807 
   10000    2.3651374    -4.598187            0   -1.0513679    5.6562759    4836.5338 
Loop time of 2.24476 on 48 procs for 10000 steps with 4000 atoms

Performance: 769791.684 tau/day, 4454.813 timesteps/s
99.6% CPU use with 48 MPI tasks x no OpenMP threads

MPI task timing breakdown:
Section |  min time  |  avg time  |  max time  |%varavg| %total
---------------------------------------------------------------
Pair    | 0.87604    | 0.96161    | 1.1261     |   3.8 | 42.84
Neigh   | 0.19134    | 0.19824    | 0.2324     |   1.6 |  8.83
Comm    | 0.65754    | 0.78431    | 0.89387    |   7.0 | 34.94
Output  | 0.0002379  | 0.00024206 | 0.00030703 |   0.0 |  0.01
Modify  | 0.20971    | 0.28598    | 0.37301    |   9.9 | 12.74
Other   |            | 0.01438    |            |       |  0.64

Nlocal:        83.3333 ave          92 max          74 min
Histogram: 1 4 3 9 5 9 5 4 5 3
Nghost:        1448.83 ave        1474 max        1413 min
Histogram: 2 1 1 4 5 14 5 8 5 3
Neighs:        7864.00 ave        8822 max        6811 min
Histogram: 1 4 5 7 10 2 5 4 6 4

Total # of neighbors = 377472
Ave neighs/atom = 94.368000
Neighbor list builds = 905
Dangerous builds = 194

# Equilibrate just above the melting temperature to avoid step fn in T

fix 1 all npt temp 1.25 1.25 0.1 iso 5.68 5.68 0.5 mtk yes tchain 5 pchain 5
run 2000
Per MPI rank memory allocation (min/avg/max) = 3.642 | 3.644 | 3.648 Mbytes
Step Temp E_pair E_mol TotEng Press Volume 
   10000    2.3651374    -4.598187            0   -1.0513679    5.6562759    4836.5338 
   11000    1.2475024   -6.1928461            0   -4.3220604    5.6715869    3982.0123 
   12000    1.2671343   -6.2182989            0   -4.3180727    5.4075605    3994.0751 
Loop time of 0.470532 on 48 procs for 2000 steps with 4000 atoms

Performance: 734487.852 tau/day, 4250.508 timesteps/s
99.7% CPU use with 48 MPI tasks x no OpenMP threads

MPI task timing breakdown:
Section |  min time  |  avg time  |  max time  |%varavg| %total
---------------------------------------------------------------
Pair    | 0.19986    | 0.2241     | 0.24538    |   1.9 | 47.63
Neigh   | 0.02988    | 0.032809   | 0.035842   |   0.6 |  6.97
Comm    | 0.14005    | 0.15985    | 0.18172    |   2.8 | 33.97
Output  | 5.1177e-05 | 5.2645e-05 | 6.5714e-05 |   0.0 |  0.01
Modify  | 0.039218   | 0.049201   | 0.058693   |   2.8 | 10.46
Other   |            | 0.004513   |            |       |  0.96

Nlocal:        83.3333 ave          92 max          76 min
Histogram: 2 8 3 7 7 7 7 1 5 1
Nghost:        1637.52 ave        1663 max        1613 min
Histogram: 1 0 9 7 7 8 9 3 3 1
Neighs:        9548.46 ave       10892 max        8562 min
Histogram: 3 7 4 6 10 7 6 2 2 1

Total # of neighbors = 458326
Ave neighs/atom = 114.58150
Neighbor list builds = 141
Dangerous builds = 8

#############################
# L I N E A R  Q U E N C H  #
#############################

# Define solid atoms. This closely follows ten Wolde  Ruiz-Montero and Frenkel  Faraday Discuss  1996  104  93-110
# Compute components of the per-atom q6 vector
compute q6 all orientorder/atom degrees 1 6 components 6 nnn NULL cutoff 1.3 # compute the Q6 parameter.
                                                                             # Use all neighbours within 1.3 unit cell.

# get number of connections
compute coord_number all coord/atom orientorder q6 0.5

# An atom is solid if it has 8 or more connections (of a possible 14)
variable is_solid atom c_coord_number>=8
group solid dynamic all var is_solid    # Must be dynamic to update
dynamic group solid defined

# do clustering
compute cluster solid cluster/atom 1.3 # Create a cluster where all atoms within are solid and max 1.3 units from another member

# define chunks one chunk per cluster
compute clus_chunks solid chunk/atom c_cluster nchunk every compress yes  # Says which atoms are in which chunk

# count the size of each chunk
compute size_chunks solid property/chunk clus_chunks count


# Find the maximum entry in the vector of chunk sizes
variable max_n equal max(c_size_chunks)


# Thermo style which includes this variable
# thermo_style custom step temp pe vol v_max_n

thermo ${N}  # Print the thermo information every 100 steps
thermo 1000  

# Reset the npt fix at a lower temperature (below freezing)
fix 1  all npt temp  ${temp} ${temp}  0.1  iso  5.68  5.68  0.5  mtk yes tchain  5  pchain  5
fix 1  all npt temp  0.45 ${temp}  0.1  iso  5.68  5.68  0.5  mtk yes tchain  5  pchain  5
fix 1  all npt temp  0.45 0.45  0.1  iso  5.68  5.68  0.5  mtk yes tchain  5  pchain  5

dump dmp2 all dcd ${N} traj.dcd
dump dmp2 all dcd 1000 traj.dcd


compute msd all msd com yes
variable twopoint equal c_msd[4]/6/(step*dt+1.0e-6)
fix 9 all vector 10 c_msd[4]
variable fit equal slope(f_9)/6/(10*dt)
thermo_style custom step temp pe c_msd[4] v_twopoint v_fit v_max_n

fix 1 all npt temp 1.25 ${temp} 0.1 iso 5.68 5.68 0.5 mtk yes tchain 5 pchain 5
fix 1 all npt temp 1.25 0.45 0.1 iso 5.68 5.68 0.5 mtk yes tchain 5 pchain 5
run 2000000 # 5000000  # Run for this many steps
Neighbor list info ...
  update every 1 steps, delay 10 steps, check yes
  max neighbors/atom: 2000, page size: 100000
  master list distance cutoff = 3.8
  ghost atom cutoff = 3.8
  binsize = 1.9, bins = 9 9 9
  4 neighbor lists, perpetual/occasional/extra = 1 3 0
  (1) pair lj/cut, perpetual
      attributes: half, newton on
      pair build: half/bin/atomonly/newton
      stencil: half/bin/3d
      bin: standard
  (2) compute orientorder/atom, occasional
      attributes: full, newton on
      pair build: full/bin/atomonly
      stencil: full/bin/3d
      bin: standard
  (3) compute coord/atom, occasional
      attributes: full, newton on
      pair build: full/bin/atomonly
      stencil: full/bin/3d
      bin: standard
  (4) compute cluster/atom, occasional
      attributes: full, newton on
      pair build: full/bin/atomonly
      stencil: full/bin/3d
      bin: standard
Per MPI rank memory allocation (min/avg/max) = 9.748 | 9.753 | 9.757 Mbytes
Step Temp PotEng c_msd[4] v_twopoint v_fit v_max_n 
   12000    1.2671343   -6.2182989            0            0 8.3333333e+20            2 
   13000    1.2291451   -6.2593656   0.54819133 0.0035140469  0.044881343            1 
   14000    1.2466097   -6.2651618    1.0922135 0.0065012705  0.045278839            4 
   15000    1.2454533   -6.2020154    1.6341329 0.0090785158  0.045334992            2 
   16000    1.2434246   -6.2351953      2.17314  0.011318437  0.045201943            2 
   17000    1.2519557   -6.2472012     2.746407  0.013462779  0.045451081            2 
   18000    1.2497189   -6.2571629    3.3289678  0.015411887  0.045956542            1 
   19000     1.244604   -6.2150486    3.8395308  0.016840047   0.04585996            3 
   20000     1.249267   -6.1825082    4.4281845  0.018450768  0.046071328            2 
   21000    1.2519298   -6.2632463    5.0374427  0.019989851  0.046399177            3 
   22000    1.2720322   -6.2456147     5.702099  0.021598859  0.046817049            5 
   23000    1.2440139   -6.2288369    6.2568588  0.022669778  0.047332684            3 
   24000     1.245846   -6.2503694    6.6904149  0.023230607   0.04729742            2 
   25000    1.2315779   -6.1774285    7.2414089  0.024138029  0.047116336            3 
   26000    1.2402108   -6.2595678    7.7206252  0.024745593  0.046871837            3 
   27000    1.2715466    -6.209145    8.2149213  0.025354695  0.046456622            2 
   28000    1.2515192   -6.2689605    8.6435538  0.025724862  0.046065175            1 
   29000    1.2480872   -6.2431232     9.152326  0.026299787  0.045671741            2 
   30000    1.2638523   -6.2073147    9.6893146  0.026914762  0.045380468            3 
   31000    1.2243656   -6.2980577    10.099191  0.027148362  0.045060866            3 
   32000    1.2538541   -6.2285607    10.760761  0.028022813  0.044869329            1 
   33000    1.2189949   -6.2377198    11.148416  0.028152565  0.044695563            2 
   34000    1.1989943   -6.2420639    11.670201  0.028603434  0.044508965            2 
   35000    1.2470083   -6.2126401     12.23818  0.029138522  0.044365335            4 
   36000    1.2107856   -6.2611163    12.623753   0.02922165   0.04416111            3 
   37000    1.2404231   -6.2238624    13.278175    0.0299058  0.043998008            3 
   38000     1.212737    -6.223298     13.76123  0.030178135  0.043919897            2 
   39000    1.2345855   -6.2479228    14.237405  0.030421805   0.04382149            5 
   40000    1.2356942   -6.2358505    14.674026  0.030570888  0.043732663            3 
   41000    1.2279248   -6.2568771    15.128091  0.030748151  0.043597484            2 
   42000    1.2336989   -6.2550177    15.540349  0.030834025  0.043430142            1 
   43000    1.2290911   -6.2396549    16.181002   0.03135853  0.043304348            2 
   44000    1.2366229   -6.2145289    16.669992  0.031571955  0.043188525            2 
   45000    1.2061898   -6.2529053    17.177002  0.031809263  0.043088421            2 
   46000     1.257712   -6.2209745    17.786798  0.032222459  0.043019366            3 
   47000    1.2169073   -6.2476087    18.456285  0.032723909  0.043012693            3 
   48000    1.2419483    -6.308795    18.862152  0.032746792   0.04303454            4 
   49000    1.2400148   -6.2280364    19.227617  0.032700029  0.043010591            2 
   50000     1.225128   -6.2276026    19.682373  0.032803955   0.04295752            2 
   51000    1.2568818   -6.2641787    20.109611  0.032858841  0.042889088            4 
   52000    1.2320101   -6.2357285    20.664939  0.033116889  0.042820723            2 
   53000    1.2587508   -6.2551981       21.143  0.033243711  0.042752665            3 
   54000    1.2256881   -6.2610941    21.727025  0.033529359  0.042711915            1 
   55000    1.2194492   -6.2722866    22.156409  0.033570316  0.042678356            4 
   56000     1.224401   -6.2651992    22.654789  0.033712483  0.042635257            1 
   57000    1.2205423   -6.2730594    23.075376  0.033735929  0.042585965            3 
   58000    1.2452653   -6.2129893    23.955956  0.034419476  0.042565526            2 
   59000     1.227317   -6.2613537    24.592834   0.03473564  0.042586005            2 
   60000    1.2330299   -6.2361315    25.024114  0.034755714  0.042613422            3 
   61000     1.245101   -6.2466016    25.436819  0.034749752  0.042629716            2 
   62000    1.2323814   -6.2473308     25.99644  0.034941452  0.042632838            1 
   63000    1.2269667   -6.2410361    26.720297  0.035344308  0.042668841            2 
   64000    1.2361039   -6.2131189    27.341691   0.03560116  0.042737045            1 
   65000    1.2016142   -6.2401233    27.861519  0.035719896  0.042794133            2 
   66000    1.2384633   -6.2725855    28.446546  0.035917356  0.042848835            2 
   67000    1.2455138    -6.263248    29.065859  0.036151566  0.042912727            3 
   68000    1.2316152   -6.2459891     29.59677  0.036270552  0.042984254            2 
   69000    1.2300993   -6.2520602    29.908761  0.036121692  0.043041889            3 
   70000      1.22205   -6.2285023    30.449124  0.036248957  0.043073403            3 
   71000    1.2575052   -6.2764469    30.985467  0.036367919  0.043105691            3 
   72000    1.2280891   -6.2465232    31.648246  0.036629914  0.043155302            7 
   73000    1.2124166   -6.2154869    32.189531   0.03674604  0.043204541            1 
   74000    1.2421743   -6.2867735    32.625877  0.036740853  0.043244336            2 
   75000    1.2015805   -6.2823641    32.987435  0.036652705   0.04326735            2 
   76000     1.206238   -6.2950158     33.69606  0.036947434  0.043285415            2 
   77000     1.211132   -6.2715459    34.292172   0.03711274  0.043311832            2 
   78000     1.238322   -6.2820241    34.687986  0.037059814  0.043337076            1 
   79000    1.2379256   -6.2870997     35.16669  0.037095664  0.043360984            2 
   80000    1.2193406   -6.2558275    35.912929  0.037409301  0.043386184            3 
   81000    1.2257572   -6.2280963    36.546375  0.037599151  0.043431233            4 
   82000    1.2143922   -6.2541071    37.063683  0.037666344  0.043468541            2 
   83000    1.2402125   -6.2977431    37.542577   0.03769335  0.043507016            2 
   84000     1.209252   -6.2357035    38.200993   0.03789781  0.043540124            3 
   85000    1.2246741   -6.2590624    38.409508   0.03765638  0.043562138            2 
   86000    1.2225169   -6.2340184    38.811996  0.037608523  0.043568782            1 
   87000    1.2042576    -6.244027    39.259733  0.037605108  0.043561256            5 
   88000    1.2218306   -6.2559469     39.90096  0.037784999  0.043563779            2 
   89000    1.1962687   -6.2891073    40.400839  0.037828501    0.0435686            2 
   90000    1.2008223   -6.2275465    40.897659  0.037868203  0.043567882            3 
   91000    1.2060433    -6.263452    41.312376  0.037831846  0.043557835            2 
   92000    1.2172533   -6.2520414    41.779368   0.03784363  0.043550063            1 
   93000    1.2052924   -6.2608329    42.421065  0.038011706  0.043541048            1 
   94000    1.2538354   -6.3273321    42.869039  0.038004467  0.043543743            3 
   95000    1.2246723   -6.2857272    43.732521   0.03836186  0.043556678            2 
   96000    1.2393919   -6.2563703    44.324438  0.038476075  0.043573235            1 
   97000    1.2190468   -6.2951495    44.857753  0.038537589  0.043588445            2 
   98000    1.2044384   -6.2522629    45.318638  0.038536257  0.043603566            3 
   99000    1.1944474    -6.258428    45.762708  0.038520798  0.043610128            2 
  100000    1.1970156   -6.3014868     46.11959  0.038432991  0.043613179            2 
  101000    1.2060079   -6.2496562    46.884841  0.038683862  0.043620203            2 
  102000    1.2300625     -6.29028    47.094817  0.038476157  0.043622559            2 
  103000    1.2112668   -6.3003244    47.545293  0.038467065  0.043617978            3 
  104000    1.2123688   -6.2779758    48.311469  0.038711113  0.043611162            2 
  105000     1.230993    -6.301102    48.697679  0.038648951  0.043603768            3 
  106000    1.2203545    -6.303031    49.322535  0.038775578  0.043600461            1 
  107000    1.1920394   -6.3244065    49.708662  0.038713911  0.043594075            5 
  108000    1.2282107   -6.3395401    50.023962  0.038598736  0.043583626            4 
  109000    1.2075717   -6.2522005    50.608933  0.038691844  0.043566354            3 
  110000    1.2229487   -6.2590837    50.898871  0.038559751  0.043546513            2 
  111000     1.215795   -6.2869889    51.689159  0.038805675  0.043530357            2 
  112000    1.2283399   -6.2743088    52.158386  0.038808323   0.04352195            3 
  113000    1.2061247   -6.2857449    52.662868  0.038836923  0.043511005            3 
  114000    1.1849321   -6.2821465    53.202763  0.038890908  0.043501132            3 
  115000    1.2236663   -6.3140026    53.535163  0.038793596  0.043483808            4 
  116000    1.2195689   -6.3022513    53.868202   0.03869842   0.04346006            2 
  117000    1.2056144   -6.2864704    54.554078   0.03885618  0.043439398            2 
  118000    1.2050951   -6.3262696    54.807206  0.038705654  0.043417783            3 
  119000    1.2201008   -6.3100865    55.454644  0.038833784  0.043388797            3 
  120000    1.1868395   -6.2976402    55.935829  0.038844326  0.043368251            4 
  121000     1.203937   -6.3195417     56.64953  0.039014828  0.043354907            3 
  122000    1.2182224    -6.316942    57.273082  0.039120957  0.043349374            2 
  123000    1.2220877   -6.3162594    57.807194  0.039164765  0.043345281            3 
  124000    1.1979629   -6.3230364     58.09835   0.03904459  0.043334146            3 
  125000    1.2117251   -6.3092939    58.610643  0.039073762  0.043322478            1 
  126000     1.203762   -6.2852933    58.961509  0.038995707  0.043300853            2 
  127000     1.201085   -6.2938237    59.412492  0.038984574  0.043275373            2 
  128000    1.2180457   -6.2919583    59.890098  0.038990949  0.043251686            3 
  129000    1.2247545   -6.3146895    60.447423  0.039048723  0.043228746            1 
  130000     1.173422   -6.3077265    60.923214  0.039053342   0.04320673            3 
  131000    1.2146653   -6.3062811    61.389374  0.039051765  0.043184526            8 
  132000    1.1971158   -6.3113586    61.895447  0.039075409  0.043164676            2 
  133000    1.1924515   -6.3115376    62.375312  0.039082276  0.043144389            2 
  134000    1.1921611   -6.3017523    62.796695  0.039052671  0.043124245            3 
  135000    1.2040569   -6.3065466    63.392861  0.039131396  0.043106201            6 
  136000    1.2059818    -6.309626    63.992188    0.0392109  0.043091902            3 
  137000    1.2003174   -6.3235229    64.357229  0.039146733  0.043074923            4 
  138000    1.2107434   -6.3228849    65.133108  0.039331587  0.043062505            4 
  139000    1.1846465   -6.3014941    65.707894  0.039393222  0.043053196            3 
  140000    1.1835237     -6.30841    65.813666  0.039174801  0.043039991            2 
  141000    1.1991783   -6.2843548    66.518679   0.03931364  0.043024746            3 
  142000     1.201621   -6.3419107     66.99412  0.039315798  0.043008659            3 
  143000    1.1914138   -6.3043052    67.403138  0.039279218  0.042992267            3 
  144000    1.1903057   -6.3222775    67.701261   0.03917897  0.042972996            2 
  145000    1.2031171   -6.3230463    68.439612   0.03933311  0.042951862            5 
  146000    1.2033691   -6.3090713    68.812901   0.03927677  0.042934616            3 
  147000    1.1932417   -6.3073174    69.241099  0.039252324  0.042916886            4 
  148000    1.2361995   -6.2935576    69.779281  0.039290136  0.042896808            2 
  149000    1.1976422   -6.3276668    69.924656  0.039107749   0.04287728            4 
  150000    1.2081694   -6.3224444    70.537847  0.039187693  0.042854645            2 
  151000    1.1905802   -6.2972031    71.129678  0.039254789   0.04283041            1 
  152000    1.1916537   -6.3687448    71.337878  0.039110678  0.042808092            4 
  153000    1.2035993   -6.3406092    71.858496  0.039138614  0.042786939            1 
  154000    1.1807359   -6.2912933    72.349263  0.039150034  0.042762219            3 
  155000    1.2056354   -6.3435834    72.885633  0.039185824  0.042737419            1 
  156000    1.1856082   -6.3465714    73.225745  0.039116317  0.042712103            5 
  157000    1.1832633   -6.3355743    73.624331  0.039078732  0.042686367            3 
  158000    1.2124393   -6.2916947    74.167486  0.039117872  0.042658378            2 
  159000    1.1998308   -6.3076137    74.793694  0.039200049  0.042635927            4 
  160000    1.2011195   -6.3059313    75.130679  0.039130562  0.042612161            4 
  161000    1.1732841   -6.3355262    75.745279  0.039205631  0.042588848            2 
  162000    1.2021138   -6.3626553    76.396531  0.039298627  0.042565677            8 
  163000    1.1863477   -6.3114023     77.12336  0.039429121  0.042545896            2 
  164000    1.2073628   -6.3422039    77.406209  0.039332423  0.042528634            2 
  165000    1.1934833   -6.2961951    78.007806  0.039397881  0.042509398            2 
  166000    1.2035401   -6.3285478    78.226371  0.039270267  0.042491964            2 
  167000    1.1898269   -6.3324547    78.535994  0.039189618  0.042474824            3 
  168000    1.2126156   -6.3453362    78.771687  0.039073257  0.042453195            2 
  169000    1.1786869   -6.3609894    79.344569  0.039124541  0.042428178            3 
  170000    1.1865811   -6.3128918    79.551708  0.038995935  0.042403482            1 
  171000    1.1961094   -6.3135172    80.297061  0.039131121  0.042373786            3 
  172000    1.1713049   -6.3667949    80.182385  0.038848055   0.04234043            8 
  173000    1.1960247    -6.310452    81.140869  0.039085197   0.04230681            4 
  174000    1.1853901   -6.3539049    81.537125  0.039050347  0.042274649            5 
  175000     1.174562   -6.3501807     81.75482  0.038930867  0.042242602            5 
  176000    1.1854042   -6.3608568    82.354112  0.038993424  0.042213736            4 
  177000    1.1969544   -6.3703972    82.956447  0.039056708  0.042186222            4 
  178000    1.2077658   -6.3625153    83.053439  0.038882696  0.042159749            4 
  179000     1.180365   -6.3588366    83.973994  0.039094038  0.042133305            3 
  180000    1.1680889   -6.3396737    84.465613   0.03910445  0.042104334            2 
  181000    1.1669037   -6.3511326    84.885354  0.039081655  0.042078564            3 
  182000    1.2081281   -6.3079111    85.321833  0.039066773  0.042055669            2 
  183000    1.1849229   -6.3629536    85.794348  0.039068464  0.042032077            2 
  184000    1.1928403   -6.3556589    86.589215   0.03921613  0.042011728            2 
  185000    1.1892983   -6.3321547    87.021703  0.039198965  0.041989844            2 
  186000    1.2248837    -6.345317    87.443151  0.039177039  0.041968312            3 
  187000    1.1637686   -6.3482622    88.166214  0.039289757   0.04194874            6 
  188000    1.1547454   -6.3289504    88.362461  0.039167757  0.041929148            3 
  189000    1.2112089    -6.340077    88.857886  0.039178962  0.041908523            2 
  190000    1.1862329   -6.3071852    89.459154  0.039236471  0.041889546            6 
  191000    1.1972565   -6.3546976    89.521171  0.039058102  0.041869172            3 
  192000     1.210577    -6.412448    89.825661  0.038986832  0.041846266            2 
  193000    1.1784905    -6.362039    90.269601  0.038976511  0.041821713            7 
  194000    1.1612414     -6.34245    90.599815  0.038917446  0.041795293            2 
  195000    1.1975375   -6.3410364    91.413636  0.039065656  0.041770203            4 
  196000    1.1631667   -6.3482147    91.754055  0.039011078  0.041746582            3 
  197000    1.2053596   -6.3885258    91.858378  0.038857182   0.04172218            2 
  198000    1.1762934   -6.3237974    92.793752  0.039054609  0.041698703            2 
  199000    1.1455844   -6.3664648    93.048753  0.038965139  0.041675716            1 
  200000    1.1765417   -6.3531591    93.377647  0.038907353   0.04165371            4 
  201000    1.1980992   -6.3663507    93.937189  0.038945766   0.04162996            2 
  202000    1.1587703   -6.3534553    94.574206  0.039015762   0.04160817            2 
  203000    1.1888209   -6.3669513    94.926979  0.038968382  0.041588211            2 
  204000    1.2142802   -6.3180966    95.618806   0.03905997   0.04156909            2 
  205000    1.1464588   -6.3231238    95.981259  0.039016772  0.041546892            4 
  206000    1.1855253    -6.372821    96.670768  0.039106297  0.041523943            2 
  207000    1.1634613   -6.3672388    96.854377  0.038991295  0.041500167            3 
  208000    1.1582948   -6.3622258    97.066029  0.038888633  0.041477445            2 
  209000    1.1717197    -6.344616    97.739785  0.038971206  0.041454404            2 
  210000    1.1406371    -6.372838    98.361299  0.039032261  0.041433478            1 
  211000    1.1606855   -6.3943387     98.73635  0.038995399  0.041411829            4 
  212000    1.1576794   -6.3243346    99.312699   0.03903801  0.041390584            3 
  213000    1.1936475   -6.3519129    99.675699  0.038996752  0.041372184            4 
  214000     1.166286   -6.3879159    99.755148  0.038845462  0.041351201            4 
  215000    1.1479997   -6.3787004    100.59646  0.038990874  0.041332863            4 
  216000    1.1797993   -6.3321811     101.4079  0.039123417  0.041315287            3 
  217000    1.1705468   -6.3580524    101.65016  0.039036161  0.041295733            3 
  218000    1.1898641   -6.3853137    102.13727  0.039043298  0.041277803            5 
  219000    1.1700611   -6.3705652    102.69831  0.039078505  0.041260799            2 
  220000    1.1516795   -6.3691174    103.20479  0.039092724  0.041244251            2 
  221000    1.1998592   -6.3819296    103.47022  0.039015918  0.041226314            4 
  222000    1.1786009   -6.3842094    103.54866  0.038869617  0.041206961            4 
  223000    1.1751932   -6.3569921    104.43742  0.039027435  0.041187104            3 
  224000    1.1762072   -6.3589202    104.68869  0.038946687  0.041167145            2 
  225000    1.1879452   -6.3954265    104.73315  0.038790055  0.041147574            3 
  226000    1.1571271   -6.3621781    105.56581  0.038925446  0.041130533            3 
  227000    1.1797207   -6.3815818    106.57658   0.03912503  0.041114625            5 
  228000    1.1531419     -6.36246    106.90641  0.039073982  0.041098775            6 
  229000    1.1561104   -6.3709304    106.76723  0.038852705  0.041080903            3 
  230000    1.1463567   -6.4047761    107.18896   0.03883658  0.041062421            4 
  231000    1.1724032   -6.3546361    107.93002  0.038935794  0.041043471            2 
  232000     1.160753    -6.410693    107.94301  0.038772632  0.041023994            2 
  233000    1.1516759   -6.3733842    108.76255   0.03889934  0.041004363            3 
  234000    1.1422669   -6.3427097    108.92291  0.038790209   0.04098619            7 
  235000    1.1446849    -6.372708    109.68969  0.038897053  0.040968078            4 
  236000    1.1743057   -6.4151467    110.07935  0.038869828  0.040949549            2 
  237000    1.1716106   -6.4063953     110.4308  0.038829396  0.040930354            4 
  238000    1.1441727   -6.3442187    110.41491  0.038660684  0.040910821            4 
  239000     1.162112   -6.3629468    111.05642    0.0387226  0.040889131            2 
  240000    1.1786738   -6.3751847    111.42164  0.038688068  0.040868046            3 
  241000    1.1640157    -6.386838    112.38072  0.038859169  0.040846853            3 
  242000    1.1658899   -6.4113178    112.45132  0.038722905   0.04082668            2 
  243000    1.1599078   -6.3623317    112.62538  0.038623243  0.040805192            1 
  244000    1.1518942   -6.3851349    113.04885   0.03860958  0.040782896            4 
  245000    1.1436065   -6.3503629    113.82168  0.038714856  0.040762386            2 
  246000     1.162018   -6.3825895    113.84252  0.038564538  0.040740729            2 
  247000    1.1656423   -6.4066121    114.19615  0.038527715  0.040716442            3 
  248000    1.1853387   -6.4022743    114.72398  0.038549726  0.040692157            3 
  249000     1.178681   -6.3759013    115.22615  0.038562969  0.040668856            3 
  250000    1.1530629   -6.3749006    115.60404  0.038534678  0.040647106            5 
  251000    1.1684424   -6.3955634    115.95203  0.038496691  0.040624491            3 
  252000    1.1509705   -6.3792282    116.64834  0.038574186  0.040603329            4 
  253000    1.1646071   -6.3907441    116.84982  0.038488084  0.040583614            3 
  254000    1.1691643   -6.3603673    117.94843  0.038696992  0.040565225            2 
  255000    1.1396883   -6.3945981    118.33886   0.03867283  0.040548998            3 
  256000    1.1234586   -6.3773463    119.06515  0.038758185  0.040531003            3 
  257000    1.1647697   -6.3899577    119.04978  0.038602394  0.040511524            2 
  258000    1.1728449   -6.3516192    119.82312  0.038702558  0.040493067            4 
  259000    1.1444865   -6.3831148    120.18633   0.03866999  0.040475611            2 
  260000    1.1510151   -6.3831409    120.95992  0.038769207  0.040458908            3 
  261000    1.1266895   -6.4269261    121.15068  0.038681572  0.040442939            3 
  262000    1.1699483   -6.4111234    121.36658  0.038602602  0.040427316            6 
  263000    1.1623934   -6.3715823    121.88028  0.038618595  0.040411327            4 
  264000    1.1644437   -6.3750273    121.96155  0.038497964  0.040393946            3 
  265000    1.1426517    -6.397225     122.4316  0.038500504  0.040377368            5 
  266000    1.1379529   -6.3762659    123.66276  0.038741467  0.040362908            3 
  267000    1.1344092   -6.4213336    123.81982  0.038645388  0.040348441            3 
  268000    1.1194134   -6.4226106    124.26521  0.038639678  0.040332193            3 
  269000    1.1334352   -6.4308818    124.24701  0.038490401   0.04031529            3 
  270000    1.1332994   -6.3868388    125.13067  0.038620577  0.040298855            3 
  271000    1.1632419   -6.4324871    125.03045  0.038447248  0.040282208            2 
  272000    1.1480669   -6.3804792    126.01805  0.038608471  0.040266893            2 
  273000    1.1458802   -6.3824331    126.86029  0.038724142  0.040250333            4 
  274000    1.1523084   -6.3692639    126.59735  0.038502843  0.040234287            2 
  275000    1.1660923   -6.4082901    127.09389  0.038513299  0.040217183            2 
  276000    1.1457257   -6.4102708    127.21817  0.038411282  0.040199556            2 
  277000    1.1318138   -6.3933768    128.24946  0.038582871  0.040180971            2 
  278000    1.1293711   -6.4061408    128.48295  0.038514075  0.040162279            2 
  279000     1.137562   -6.4268722    128.43485  0.038361664  0.040142554            1 
  280000    1.1645345   -6.4040318    129.29942  0.038481971   0.04012382            1 
  281000    1.1554008   -6.3947369    129.54227  0.038417043  0.040106064            2 
  282000    1.1406715   -6.4052935    129.69778  0.038326766  0.040088515            3 
  283000    1.1414644   -6.3906646    129.79586  0.038220217  0.040068223            1 
  284000    1.1528029    -6.424345    130.26603  0.038223601  0.040047008            4 
  285000    1.1383421   -6.4622128    130.07493  0.038033605  0.040024655            2 
  286000    1.1343458   -6.4020751    131.00626  0.038171986  0.040002394            4 
  287000     1.147043   -6.4095948    131.36936  0.038144413  0.039979648            2 
  288000    1.1203189   -6.4243357    131.79913  0.038136322  0.039957356            3 
  289000    1.1235887   -6.4613983    131.63627  0.037957403  0.039936289            4 
  290000    1.1589158   -6.4609082    132.85579   0.03817695  0.039914176            3 
  291000    1.1233611   -6.4331808    133.03307  0.038096526  0.039892741            2 
  292000    1.1668285   -6.4295798    133.80225  0.038185574  0.039872088            2 
  293000     1.148252   -6.3926944    134.30876  0.038199305   0.03985243            2 
  294000    1.1354148   -6.4347727    134.88935  0.038233944   0.03983375            3 
  295000    1.1193234     -6.42558    135.47665  0.038270241  0.039815861            3 
  296000    1.1197464   -6.4221246    135.31256  0.038094752  0.039796939            3 
  297000    1.1705101    -6.466536    135.98437  0.038154985  0.039777411            3 
  298000     1.141952    -6.411085    136.45428  0.038158357  0.039758993            2 
  299000    1.1199566   -6.4130924    136.67691  0.038092784  0.039741141            3 
  300000    1.1375739   -6.4259913    137.02318  0.038061994  0.039723215            3 
  301000    1.1137176   -6.4499671    138.08112  0.038228437  0.039704575            3 
  302000    1.1320713   -6.4110154    137.98583  0.038075559  0.039686008            3 
  303000    1.1370019   -6.4246752    138.69557  0.038145096  0.039668456            4 
  304000    1.1302158   -6.4002812    139.05264  0.038117499  0.039650428            3 
  305000    1.1261344   -6.4426188    138.92806  0.037958487  0.039630734            2 
  306000    1.1322254   -6.4371029    139.37722  0.037956758  0.039609416            2 
  307000    1.1295305   -6.4912345    139.50459  0.037867696  0.039587078            3 
  308000    1.1079042   -6.3990648    140.12418  0.037912385   0.03956581            2 
  309000    1.1147887   -6.4152592    140.08978  0.037780416  0.039544509            3 
  310000    1.1299983   -6.4364457    140.68678  0.037819027  0.039523143            2 
  311000    1.1347411   -6.4356252     141.2948  0.037860343  0.039501685            3 
  312000    1.1189388   -6.4039612    141.70208  0.037847779  0.039480651            4 
  313000    1.1362496     -6.46382    141.88984  0.037776848  0.039460243            5 
  314000    1.1177916   -6.4425847    142.23289  0.037747581  0.039438839            2 
  315000    1.1399967   -6.3731139    143.32852  0.037917598  0.039417249            2 
  316000    1.1257191   -6.4554645    143.30915  0.037792498  0.039398486            9 
  317000    1.1523026   -6.4657071    143.94216  0.037839684  0.039379406            2 
  318000    1.1229216   -6.4627709    144.00664  0.037737589  0.039359041            4 
  319000    1.1343484   -6.4191087     145.2447  0.037942711  0.039339073            2 
  320000    1.1549389   -6.4209898    145.75813  0.037957846  0.039320349            3 
  321000    1.0968684   -6.4526623    145.75779  0.037839509  0.039301276            2 
  322000    1.1102613   -6.4230575    146.11133  0.037813492  0.039282305            3 
  323000    1.1348568   -6.4373646    146.00177  0.037668156  0.039261971            4 
  324000    1.1360714    -6.424048    146.65403  0.037719657  0.039240796            2 
  325000    1.1256816   -6.4253859    146.95034  0.037679574   0.03921951            2 
  326000    1.1075112   -6.4880957    146.95936  0.037566298  0.039197686            4 
  327000    1.1279995   -6.4396647    147.13161  0.037495314  0.039173934            4 
  328000    1.1356138    -6.452307    147.12636  0.037379664  0.039149945            5 
  329000    1.1215513   -6.4256946    147.59482  0.037384707  0.039126161            6 
  330000    1.1669752   -6.4630625    147.99037  0.037371304  0.039102688            7 
  331000    1.1226462   -6.4797617    148.79122  0.037460026  0.039079914            5 
  332000    1.1238976   -6.4342933    149.09028   0.03742226  0.039057322            5 
  333000     1.123796   -6.4344401    149.86407   0.03750352  0.039035063            2 
  334000    1.1230984   -6.4365226     150.3298  0.037507436  0.039013537            2 
  335000    1.1127343   -6.4740254    150.64375  0.037473569  0.038992159            2 
  336000    1.1002733    -6.459757     150.8253  0.037407069  0.038970561            3 
  337000    1.1339605    -6.473305    151.29648  0.037412582  0.038947745            2 
  338000    1.1316253   -6.4447807    151.57763  0.037371212  0.038924747            2 
  339000    1.1300349   -6.4137622    151.23397  0.037176493  0.038901712            6 
  340000    1.1265578    -6.490468     152.1517  0.037292083  0.038877949            3 
  341000    1.1324427   -6.4526047    152.39201   0.03724145  0.038854322            1 
  342000    1.1263342   -6.4690896     152.5088  0.037161014  0.038830935            3 
  343000    1.1083209   -6.4192674      153.125  0.037202382  0.038806507            2 
  344000    1.1228924   -6.4365679    154.00837  0.037308228  0.038783176            2 
  345000    1.1097789    -6.440863    153.47093  0.037070274   0.03875971            2 
  346000    1.1035453   -6.4481703    154.43795  0.037196038  0.038736218            4 
  347000    1.1091922   -6.4473352    155.22319  0.037277423  0.038713801            2 
  348000    1.1431715   -6.4709913    155.23569  0.037173297  0.038690863            4 
  349000    1.1200858   -6.4938335     155.8339  0.037209622  0.038669111            4 
  350000     1.129674   -6.4566681    156.48473  0.037258269  0.038648136            4 
  351000    1.0954096   -6.4689963    156.98428  0.037270721  0.038628351            3 
  352000    1.0827373   -6.4662538    157.54607  0.037297838   0.03860922            4 
  353000    1.1307807   -6.4712174    157.86112  0.037266554  0.038589804            2 
  354000    1.1197887   -6.4768148     158.3026  0.037265206  0.038570325            4 
  355000    1.1145237   -6.4802223    158.50034  0.037206653  0.038550446            5 
  356000    1.1138585   -6.4689121    159.44524  0.037323325  0.038530951            4 
  357000    1.1137389   -6.4485216    159.41343  0.037211351  0.038510679            2 
  358000    1.1138131   -6.4365755    159.32557  0.037086957  0.038490375            4 
  359000    1.1017963   -6.4961853    159.60133  0.037047662  0.038469608            3 
  360000    1.1155041   -6.4761918    160.17067  0.037076543  0.038448506            5 
  361000    1.1053417   -6.4735228    160.35583   0.03701658  0.038427156            3 
  362000    1.1194898    -6.448148    161.21215  0.037111453  0.038406321            3 
  363000    1.1163795   -6.4674875    161.36242  0.037043715  0.038385389            3 
  364000    1.1073151   -6.4917372    161.59985  0.036996302  0.038363925            3 
  365000    1.1332815   -6.4458369    162.32854  0.037061311  0.038342359            3 
  366000    1.0817472   -6.4745511    162.82717  0.037073581  0.038322436            3 
  367000    1.1111467    -6.461446    162.89991   0.03698908  0.038302162            3 
  368000    1.1199087   -6.4499329    163.51083  0.037026909  0.038282279            2 
  369000    1.0752909   -6.4613383    164.13061  0.037066534  0.038262857            2 
  370000    1.1061268   -6.4849174     164.6897  0.037092274  0.038243068            6 
  371000    1.1109778   -6.4883409    164.63829  0.036980747   0.03822298            1 
  372000    1.0974091   -6.5046223    164.59359  0.036871324  0.038202183            2 
  373000    1.1028094   -6.4747104    165.50191  0.036975404  0.038182034            2 
  374000    1.1025328   -6.4535943    165.44978  0.036864925  0.038162019            3 
  375000    1.1055113    -6.518791    165.76889  0.036837532  0.038142391            2 
  376000    1.0921278   -6.4942415     166.6469  0.036934154   0.03812224            3 
  377000    1.1219207   -6.4965717    167.16367  0.036950412  0.038102501            4 
  378000    1.1048973   -6.5112224    166.97623  0.036811337  0.038082557            5 
  379000    1.0696362   -6.4709391    167.62998  0.036857956  0.038062897            3 
  380000    1.1276091   -6.4813111    168.11896  0.036868193  0.038042865            2 
  381000    1.0839833   -6.4884178     167.9568  0.036735958  0.038022235            6 
  382000     1.103223   -6.4833032    168.70802   0.03680367  0.038001548            7 
  383000    1.1088618    -6.516611    168.94199  0.036758484  0.037980541            4 
  384000    1.1240655   -6.5039182     168.8683  0.036646767  0.037958948            3 
  385000    1.0841625   -6.5088105    168.96596   0.03657272  0.037936192            5 
  386000    1.1105964   -6.4925975    169.62475  0.036620196  0.037914398            4 
  387000    1.1266023   -6.5045563    170.25865  0.036662069  0.037893252            3 
  388000     1.088961   -6.4682189    170.87338  0.036699609  0.037873171            1 
  389000    1.1013547   -6.5042518    171.16783  0.036668345  0.037852669            4 
  390000    1.0692938   -6.4785728    171.20511  0.036582288  0.037831972            2 
  391000    1.0908679   -6.4711358    171.62824  0.036578909   0.03781279            4 
  392000    1.1146901   -6.5129675     172.2144  0.036610203  0.037793926            4 
  393000     1.091031   -6.4900042    173.16187  0.036717953  0.037775071            2 
  394000    1.1160216   -6.4907279    173.22588  0.036638299  0.037755652            2 
  395000    1.0869519   -6.4667782    174.12668  0.036735587  0.037736829            2 
  396000    1.0900676   -6.4814708    173.91074  0.036597379  0.037717901            5 
  397000    1.0931208   -6.4685297    174.90596  0.036714098  0.037699711            3 
  398000    1.0870156   -6.4898849    174.99018  0.036639485  0.037681762            3 
  399000    1.0815165   -6.4773318    175.08894  0.036568284  0.037663364            2 
  400000    1.0924355   -6.4892993    175.56596  0.036576241  0.037645038            2 
  401000    1.0918857   -6.5366038    176.06553  0.036588846  0.037627129            6 
  402000    1.1013684   -6.4903505    176.65439  0.036619899  0.037608948            3 
  403000    1.1043894    -6.511852    176.47434  0.036491799  0.037590952            2 
  404000    1.0867755   -6.5453367    176.93901  0.036497319  0.037573052            3 
  405000    1.0915012   -6.5109167    177.29781   0.03648103  0.037554764            4 
  406000    1.1136434   -6.5226836    177.81964  0.036498285  0.037536336            2 
  407000    1.0640154   -6.5077717    177.62475  0.036368705   0.03751759            3 
  408000    1.0626197   -6.5178423    177.78737  0.036312781  0.037497984            2 
  409000    1.1034595   -6.5203757    178.38857  0.036346489  0.037478269            3 
  410000    1.0935251   -6.4970785    178.69917   0.03632097  0.037458871            1 
  411000    1.0822297   -6.5004536    179.30907  0.036356258    0.0374394            3 
  412000    1.0942694   -6.5018879    179.66071   0.03633914  0.037420806            2 
  413000     1.104136   -6.5124201    180.12536  0.036344908  0.037402256            3 
  414000    1.1143828   -6.4993242    179.87822  0.036207371  0.037383464            3 
  415000    1.0935554   -6.5226025     180.1934  0.036183414  0.037363237            4 
  416000    1.1026881   -6.4936741    181.11274  0.036280597  0.037343725            6 
  417000    1.1122104   -6.5508382    181.78606  0.036328149  0.037324391            3 
  418000    1.0771551   -6.5430728    182.22219  0.036328187  0.037306084            3 
  419000    1.0732583   -6.5041658    182.30604  0.036258161  0.037287972            3 
  420000    1.0743826   -6.5233189    182.58668  0.036227517  0.037270635            5 
  421000    1.0910221   -6.4900903    183.66212  0.036354338  0.037253025            3 
  422000    1.0852603   -6.5094039    184.00754  0.036336402  0.037235722            3 
  423000    1.0762715   -6.5430667    184.28961   0.03630607  0.037218673            3 
  424000    1.0989614    -6.511505    184.70049  0.036301196  0.037201236            9 
  425000    1.0760188   -6.5402032    184.93534  0.036261831  0.037183723            3 
  426000    1.1022458    -6.533439    185.22724  0.036233811  0.037166039            3 
  427000     1.068419   -6.4935746    185.90796  0.036281804   0.03714846            3 
  428000    1.0888731    -6.543944    185.44192  0.036106294  0.037129879            3 
  429000    1.0831906   -6.5126051    186.32265  0.036193212  0.037112334            2 
  430000    1.0965932   -6.5207791    186.84772  0.036210799  0.037094844            3 
  431000    1.0528703   -6.5505103    186.82887  0.036123138  0.037077256            3 
  432000    1.0858066   -6.4913604    187.47252   0.03616368  0.037060044            4 
  433000    1.0766666   -6.5550516    187.18303  0.036024448  0.037042695            3 
  434000    1.0719212   -6.5503974    187.19643  0.035944016   0.03702386            6 
  435000    1.0631593   -6.5301233    187.29724  0.035880697  0.037004427            4 
  436000    1.0620037   -6.5630512    188.27927  0.035986098  0.036984841            4 
  437000    1.0905256   -6.5016301    189.23531  0.036086062  0.036966167            2 
  438000    1.0635727   -6.5477812    189.16862  0.035990985  0.036947942            3 
  439000     1.074605   -6.5575416    189.49081  0.035970161  0.036929139            7 
  440000    1.0848412   -6.5151967    190.56322  0.036091518  0.036910714            4 
  441000    1.0659251   -6.5465401    189.80646  0.035866678  0.036892156            5 
  442000    1.0822397   -6.5042287     191.0988  0.036029186  0.036873775            3 
  443000    1.0949831   -6.5450736    191.28958  0.035983744  0.036855165            3 
  444000    1.0588163   -6.5462305    190.95601  0.035840092   0.03683645            3 
  445000    1.0895378   -6.5071514    191.73252  0.035904967  0.036817488            1 
  446000    1.1015682   -6.5233538    191.86236  0.035848722  0.036798163            3 
  447000    1.0723286   -6.5031286    192.17932  0.035827613  0.036779331            3 
  448000    1.0683121   -6.5393835    191.99554  0.035713456   0.03675991            5 
  449000    1.0914778   -6.5445038    192.08653  0.035650803  0.036739904            7 
  450000    1.0801877   -6.5707942    192.50953  0.035649914  0.036719477            6 
  451000    1.0499045   -6.5221311    192.60306  0.035588149  0.036699339            3 
  452000    1.0654284   -6.5441368     193.5183  0.035678152  0.036679008            2 
  453000    1.0661281   -6.5618016    194.23573   0.03573137  0.036659015            3 
  454000    1.0893688   -6.5257704    193.61255  0.035538281  0.036639769            4 
  455000     1.073097   -6.5867019    194.18435  0.035564899   0.03662004            3 
  456000     1.054625   -6.5581588    194.75082  0.035590428  0.036599933            3 
  457000    1.0858263   -6.5263757    195.29796   0.03561232  0.036580057            5 
  458000    1.0869621   -6.5249771    195.60297   0.03559006  0.036559758            3 
  459000    1.0446129   -6.5213875    195.27385  0.035452769  0.036538607            6 
  460000     1.055788   -6.5509837    196.24421  0.035551487   0.03651812            6 
  461000    1.0773736   -6.5285274    196.40949  0.035504247  0.036497477            2 
  462000    1.0734423   -6.5472274    195.92215  0.035339493  0.036476389            3 
  463000     1.042661    -6.559002    196.21844  0.035316494  0.036454528            6 
  464000    1.0711235   -6.5570772    196.13628  0.035225625  0.036432934            6 
  465000    1.0661561   -6.5420108     197.6842  0.035427277  0.036411639            6 
  466000    1.0596101   -6.5305231    198.13963  0.035432695  0.036391282            3 
  467000     1.031984   -6.5656257     198.1616  0.035360742  0.036370932            5 
  468000    1.0576084   -6.5079016    199.08648  0.035449872   0.03635103            4 
  469000    1.0626255   -6.5640261    198.77582  0.035319087  0.036330997            4 
  470000    1.0679828   -6.5091682    199.84017  0.035432654  0.036311143            3 
  471000    1.0734399   -6.5597712    199.54477  0.035305161  0.036291592            2 
  472000    1.0389531   -6.5427514    200.27994   0.03536016  0.036272224            3 
  473000    1.0467025   -6.5345995    200.82137  0.035380791   0.03625319            3 
  474000    1.0456223    -6.560233    200.55516  0.035259346  0.036233996            3 
  475000    1.0416897   -6.5792264     200.7261  0.035215105  0.036213994            4 
  476000    1.0807258   -6.5640059    201.49724  0.035276127  0.036194468            3 
  477000    1.0775285    -6.574368    201.41087  0.035187084  0.036174471            7 
  478000    1.0441119   -6.5680441    201.95518  0.035208364   0.03615393            4 
  479000    1.0601224   -6.5658418    202.00721  0.035143913  0.036133913            5 
  480000    1.0405849   -6.5463218    202.42401  0.035143058  0.036113419            2 
  481000    1.0794863   -6.5472831    201.81921  0.034965213  0.036092424            4 
  482000    1.0540657   -6.5943035    202.95611   0.03508923  0.036071804            2 
  483000    1.0669536   -6.5605654    202.77721  0.034985716   0.03605099            6 
  484000     1.062065   -6.5884814    202.35514  0.034840761  0.036029399            3 
  485000    1.0572916   -6.5462058    203.33873  0.034937925   0.03600744            2 
  486000    1.0178386   -6.5407319    203.72392  0.034932085   0.03598556            4 
  487000    1.0597579   -6.5603345    203.38544  0.034802437  0.035963888            3 
  488000    1.0672581   -6.5729355    204.12891  0.034858079  0.035941853            2 
  489000    1.0389967   -6.5847664    204.55071  0.034858675  0.035919408            5 
  490000     1.051935    -6.527383    205.09709  0.034880457  0.035896978            1 
  491000    1.0565254   -6.5960503    204.81209  0.034761047  0.035874556            8 
  492000      1.05975   -6.5667402    205.04699  0.034730182  0.035852543            2 
  493000    1.0498993    -6.568174     206.3243  0.034875643  0.035830439            3 
  494000    1.0240736   -6.5666377    205.44814  0.034657244   0.03580811            3 
  495000    1.0562483   -6.5784682    205.93884  0.034669839    0.0357856            7 
  496000    1.0665995   -6.5326474    206.23803  0.034650206  0.035762819           11 
  497000    1.0450076   -6.5887159     206.6983  0.034657662  0.035740463            5 
  498000    1.0983479   -6.5833457    206.25641  0.034514125  0.035717761            4 
  499000     1.062273   -6.5813835    207.06383  0.034579798  0.035694664            7 
  500000    1.0631682   -6.5393916    208.08712  0.034681187  0.035671759            5 
  501000    1.0451173   -6.5519871     208.4431  0.034671174  0.035649787            4 
  502000    1.0386582   -6.5573077    208.61826  0.034631185  0.035627668            5 
  503000    1.0821552   -6.5895192    209.16367  0.034652695  0.035605064            6 
  504000    1.0669842    -6.551331    208.69605  0.034506622  0.035582403            3 
  505000    1.0436228    -6.612891    208.80136   0.03445567  0.035559568            3 
  506000     1.087397   -6.5822152      208.456  0.034330698   0.03553651            7 
  507000    1.0568477   -6.5440829    209.60461  0.034451776  0.035513914            2 
  508000    1.0475703   -6.5864082    210.15364  0.034474022  0.035491384           11 
  509000    1.0403099    -6.585889    210.22622  0.034418176  0.035468856            5 
  510000    1.0362325   -6.5657498    210.56829  0.034406583  0.035446672            4 
  511000    1.0528154   -6.5757762    210.87288  0.034388923   0.03542386            5 
  512000    1.0630367    -6.582743    210.95901  0.034335776  0.035401402            6 
  513000    1.0576635   -6.5995816    210.99561   0.03427479  0.035378851            5 
  514000    1.0625512   -6.5908667    211.09286  0.034223875  0.035355824            4 
  515000    1.0556762   -6.5832642    211.24597  0.034182196  0.035333055            3 
  516000     1.063102   -6.5911005    212.40531  0.034303183  0.035310259            1 
  517000     1.056871   -6.5576332    212.67853  0.034280873  0.035287951            4 
  518000    1.0460291   -6.5813161    213.12186  0.034286013  0.035266224            2 
  519000     1.065864   -6.6169065    213.19069  0.034231004   0.03524389            3 
  520000    1.0310083   -6.5634139    213.57682  0.034227054  0.035221453            2 
  521000    1.0390358   -6.5893771    213.82688  0.034201357  0.035199171            3 
  522000    1.0759608   -6.5890657    213.99726  0.034163036  0.035176997            6 
  523000    1.0228821   -6.5945223    214.54179  0.034184478  0.035154566            3 
  524000    1.0622332   -6.5884868    214.34614  0.034088127  0.035131946            4 
  525000    1.0448169    -6.596877    214.25478  0.034008695  0.035109741            8 
  526000     1.022576    -6.615319    214.07606  0.033915726  0.035086938            4 
  527000    1.0760241   -6.6187566    215.21767  0.034031889  0.035063868            4 
  528000    1.0625746   -6.6295507    214.87911     0.033914  0.035041093            2 
  529000    1.0232036   -6.5590931    216.29968  0.034073673   0.03501881            3 
  530000    1.0496708   -6.5988047      216.841  0.034094496  0.034996674            1 
  531000    1.0387416   -6.6009128    216.17384  0.033925587  0.034974291            4 
  532000    1.0587331   -6.5872148    217.26963  0.034033464  0.034952193            5 
  533000    1.0421232   -6.5948692    217.20143  0.033958948  0.034930298            5 
  534000    1.0417761   -6.5935347    217.08084  0.033876536  0.034908063            2 
  535000    1.0501554   -6.5524202    217.84928   0.03393291  0.034886615            4 
  536000    1.0512452   -6.5845235    218.21573  0.033926575  0.034865347            3 
  537000    1.0320706   -6.5929961    218.59839  0.033922779  0.034843294            5 
  538000    1.0307612   -6.5908537    218.15804  0.033791518  0.034820741            4 
  539000    1.0409749   -6.6280989    219.22469  0.033893736  0.034798051            4 
  540000    1.0401593   -6.5923554    220.37313    0.0340082  0.034775461            4 
  541000    1.0265582    -6.600417    219.98938  0.033886226  0.034753355            7 
  542000    1.0412867   -6.5762055    220.59452  0.033916746  0.034731914            2 
  543000    1.0426517    -6.609374     220.5222  0.033843186  0.034710597            5 
  544000    1.0335475    -6.576946    221.54234  0.033937246   0.03468943            2 
  545000    1.0218368   -6.5932633    221.39845  0.033852974  0.034668096            5 
  546000    1.0343749    -6.614914    220.68379  0.033681897  0.034646355            5 
  547000     1.023021   -6.6229372    220.76929  0.033633346  0.034624237            5 
  548000    1.0216038   -6.5975475    221.44368  0.033674526  0.034601839            4 
  549000    1.0460762   -6.6096633    221.31935  0.033594316  0.034579467            6 
  550000    1.0296421   -6.6472173    221.40416  0.033546084  0.034556991            4 
  551000    1.0683184   -6.6225282    222.08064  0.033587514  0.034534785            2 
  552000    1.0356254   -6.6082222    222.64253  0.033611494  0.034512268            3 
  553000    1.0094002   -6.5731985    222.16291  0.033478438  0.034489655            4 
  554000    1.0295285   -6.6051413    222.80756  0.033514976  0.034467047            3 
  555000    1.0316541   -6.6243709     223.2472  0.033520601  0.034444194            2 
  556000    1.0454772   -6.6209923    224.07361  0.033584174  0.034422405            5 
  557000    1.0305284   -6.6277885    224.00916  0.033514237  0.034400336            5 
  558000    1.0359728   -6.5881559    224.30728  0.033498697  0.034378698            5 
  559000    1.0389789   -6.5943791    224.57356  0.033478468  0.034356853            3 
  560000    1.0277088   -6.6295981    224.78585  0.033450275  0.034334802            4 
  561000    1.0200884   -6.6326202    224.57597  0.033359472   0.03431219           18 
  562000    1.0394832   -6.6601916    224.23434  0.033249457  0.034289108            6 
  563000     1.026927   -6.6347533    225.08374  0.033316125  0.034265855            2 
  564000    1.0333467   -6.6288653    225.57632  0.033329834  0.034243073            2 
  565000     1.042451   -6.6389751    225.69084  0.033287735  0.034219625            9 
  566000     1.028091   -6.6676277    225.30197  0.033171668  0.034196439            6 
  567000    1.0196472   -6.6088515    225.85061  0.033193799  0.034172942            3 
  568000    1.0388183   -6.6241541     226.2636   0.03319595  0.034150038            4 
  569000    1.0408009   -6.6371449    227.03832  0.033251071  0.034127305            4 
  570000    1.0248196   -6.6192902    227.10505  0.033202493  0.034104358            5 
  571000    1.0169426   -6.6447968    227.00377  0.033129564  0.034081411            2 
  572000     1.029161   -6.6164237      227.558  0.033152389  0.034058691            3 
  573000    1.0197074   -6.6020616    227.98487  0.033156612  0.034036264            4 
  574000    1.0156407    -6.629499    228.08167  0.033112903  0.034013533            4 
  575000    1.0136017   -6.6060466     228.3219  0.033090131  0.033990856            3 
  576000    1.0136956   -6.6298317    228.42108  0.033047031  0.033968187            3 
  577000    1.0093464   -6.6421092    228.57575  0.033012096   0.03394554            3 
  578000    1.0128998   -6.6595203    228.49527  0.032943377  0.033922687            4 
  579000    1.0248183   -6.6256333    228.99405  0.032958268  0.033899971            4 
  580000    1.0306012   -6.6185154    229.55147  0.032981533  0.033877441            4 
  581000    1.0453438   -6.6834954    229.45623  0.032911106  0.033854914            3 
  582000     1.046652   -6.6941172    230.05588  0.032940418  0.033832312            3 
  583000    1.0019867   -6.6320982    230.50627  0.032948295  0.033809873            2 
  584000    1.0367414   -6.6154881    230.27686  0.032859142  0.033787246            4 
  585000    1.0126051   -6.6116874    230.92115  0.032894751  0.033764952            3 
  586000    1.0058592   -6.6425097     231.3462  0.032899061  0.033742369            3 
  587000    1.0142294   -6.6346416     230.8753  0.032776164  0.033719908            4 
  588000    1.0103224    -6.651838    231.54063  0.032814716  0.033697265            3 
  589000    1.0113198   -6.6450731    232.22373  0.032855649  0.033674817            8 
  590000    1.0008565   -6.6529684    231.48688  0.032695887  0.033652122            3 
  591000    1.0129319   -6.6446845    232.26424  0.032750175  0.033629573            2 
  592000   0.99472446   -6.6303186    233.01899  0.032801097  0.033607027            5 
  593000    1.0171792   -6.5934726    233.24466  0.032777496  0.033584511            4 
  594000    1.0319475   -6.6582523    233.43331  0.032748781  0.033561752            3 
  595000    1.0342795   -6.6721015     234.1051  0.032787829  0.033539575            2 
  596000    1.0144516   -6.6360318    233.71947  0.032678897  0.033517017            6 
  597000    1.0359524   -6.6649903    232.84245  0.032501738  0.033494122            3 
  598000    1.0210886   -6.6607525    234.05213  0.032615961  0.033471479            2 
  599000    1.0322382   -6.6697333     233.7919  0.032525306  0.033448721            3 
  600000     1.013103   -6.6788271    233.75331  0.032465738  0.033426328            5 
  601000   0.99507026   -6.6545364    234.66455  0.032538069  0.033404375            7 
  602000    1.0234751   -6.6249732    235.11825  0.032546822  0.033382314            6 
  603000    1.0097466   -6.6417529    235.76418  0.032582114  0.033360175            3 
  604000    1.0066375      -6.6369    236.28726  0.032600339  0.033338604            4 
  605000    0.9930927   -6.6142685    236.62257   0.03259264  0.033316846            3 
  606000    1.0412249   -6.6674173    236.48011  0.032519267  0.033295305            6 
  607000    1.0272301   -6.6636583    236.50658  0.032469328  0.033273602            4 
  608000    1.0074723   -6.6800924     236.9279   0.03247367  0.033252068            4 
  609000    1.0205458   -6.6670157    238.05199  0.032574164  0.033230376            2 
  610000     1.004156   -6.6499084    237.14254  0.032396523  0.033208619            3 
  611000    0.9913122   -6.6516713    237.55591  0.032399879  0.033186433            3 
  612000    1.0016889   -6.6739745    237.91463  0.032395783  0.033164631            3 
  613000    1.0273834   -6.6874333    238.64456  0.032442164  0.033143124            2 
  614000    1.0315229   -6.6562913    239.78905   0.03254466  0.033121977            2 
  615000     1.012935   -6.6507199    238.76588    0.0323531  0.033100755            3 
  616000    1.0069861    -6.655101     239.6261  0.032416951  0.033079355            4 
  617000    1.0146964   -6.6599171    239.66657  0.032369877  0.033058048            5 
  618000    1.0065702   -6.6645084    240.27062   0.03239895  0.033036845            3 
  619000    1.0068754   -6.6793897    239.76093  0.032277993  0.033015623            2 
  620000     1.023829   -6.6993948    240.56168  0.032333559  0.032994427            3 
  621000    1.0117092   -6.6370487    240.63137  0.032290844  0.032973357            3 
  622000   0.99556914   -6.6496417    240.82085  0.032264315  0.032952271            3 
  623000    0.9821172   -6.6662738    240.76643  0.032205247  0.032931039            3 
  624000    1.0400392   -6.6302472    241.15121  0.032205022  0.032909575            3 
  625000    1.0067411   -6.7045861    241.01673  0.032135564  0.032887731            4 
  626000    1.0097134   -6.7011701    240.56548  0.032024159  0.032865602            3 
  627000     1.027457    -6.711217    241.53792  0.032102329  0.032843731            9 
  628000    1.0273365   -6.6547919    241.96423   0.03210778  0.032822423            5 
  629000    1.0120454    -6.672616    242.70679  0.032155112  0.032801082            2 
  630000     1.010464   -6.6798935    242.85909  0.032124218  0.032779779            7 
  631000   0.98651884   -6.7040945    242.25154  0.031993072  0.032758469            5 
  632000   0.98960612    -6.645041    243.28358  0.032078531  0.032737189            3 
  633000    1.0111475   -6.6565827    243.58353  0.032067342  0.032716306            5 
  634000   0.99962736   -6.6505329    244.42863  0.032127843   0.03269499            5 
  635000    1.0035051   -6.6627911    244.33961  0.032065566  0.032673413            6 
  636000   0.99769874   -6.6433977    244.28563  0.032008076  0.032652038            4 
  637000    1.0310093    -6.680776    244.10563   0.03193428  0.032630881            3 
  638000   0.99651719     -6.70966    243.63488  0.031822737  0.032609523            5 
  639000     1.012248   -6.6941136    243.95324  0.031814455  0.032587969            5 
  640000   0.98052824   -6.6785805    245.40656  0.031953979  0.032566705            2 
  641000    1.0007877   -6.6848603    245.22864  0.031880998  0.032545496            3 
  642000     1.012128   -6.6788692    244.57707  0.031746764  0.032524026            3 
  643000     1.026899   -6.6766655    245.21669  0.031780287  0.032502284            7 
  644000   0.99064633   -6.6830915    245.14611  0.031721805   0.03248044            2 
  645000   0.98921218   -6.6708334    245.03236  0.031657927   0.03245837            4 
  646000   0.98824033    -6.692455    246.05767  0.031741186  0.032436484            5 
  647000   0.99648802   -6.6967637    246.68238  0.031772588   0.03241471            6 
  648000   0.99676715   -6.6487814    247.00089  0.031764518  0.032393295            4 
  649000   0.98870044   -6.6870709    246.69857  0.031676755  0.032372237            6 
  650000   0.99758866    -6.700066    246.99347  0.031665829  0.032350918            3 
  651000    1.0021864   -6.6921368    246.84387  0.031598037  0.032329163            8 
  652000   0.98229394   -6.6836621     247.8499  0.031678156  0.032307521            6 
  653000   0.98566383   -6.6820092    247.13836  0.031538842  0.032285956            2 
  654000   0.97553952   -6.7041222    248.34995  0.031644999  0.032264821            2 
  655000   0.99388102   -6.6993887    248.45905  0.031610566  0.032243857            3 
  656000   0.99478942   -6.6916347    249.05887  0.031638575  0.032223035            5 
  657000     0.981322   -6.6773222    249.03236  0.031587057  0.032202165            5 
  658000   0.98903225   -6.7025237    249.04332  0.031540441  0.032181353            2 
  659000   0.99479263   -6.7156822    249.12371  0.031502745   0.03216056            4 
  660000   0.98655692   -6.7065613    249.82426  0.031543467  0.032139913            6 
  661000   0.96964801   -6.7089738    250.42578  0.031571581  0.032119246            4 
  662000   0.99433312   -6.7229271    250.36127  0.031515769  0.032098672            5 
  663000    0.9996685    -6.666462      250.335  0.031464932  0.032078085            7 
  664000    0.9808093   -6.7316851    251.27124  0.031535045  0.032057554            4 
  665000   0.98149484   -6.7089687     251.0688  0.031462256  0.032037047            9 
  666000   0.96141759   -6.6681459     251.7154  0.031495921  0.032016458            7 
  667000    0.9648849   -6.7185731     251.1428  0.031377161  0.031995837            7 
  668000   0.97199505   -6.6858387    251.89403  0.031423906  0.031975078            5 
  669000   0.98084061   -6.6825926    252.45465  0.031446768  0.031954691            4 
  670000   0.98436965   -6.7185376    251.63514  0.031297903  0.031933935            6 
  671000   0.97828339   -6.6843427    252.29964  0.031333786  0.031913387            5 
  672000   0.98307157    -6.733672    252.47879  0.031309374  0.031892957            5 
  673000   0.97471715   -6.7065948    254.07323  0.031460281  0.031872651            8 
  674000   0.97764772   -6.7062725    253.45169  0.031336757  0.031852346            5 
  675000   0.96351348   -6.7119193    253.66642  0.031316842  0.031832082            3 
  676000   0.99853104   -6.7095515    253.78122  0.031284667  0.031811892            6 
  677000    0.9938685   -6.7211103     254.6685  0.031347674  0.031791673            6 
  678000   0.99973551   -6.7124056    254.23751  0.031248465  0.031772086            3 
  679000    1.0001576   -6.6961762    254.67443  0.031256066  0.031751993            2 
  680000   0.98246312     -6.73819    254.55833  0.031195873  0.031732053            3 
  681000   0.97808305   -6.6856898    255.31829  0.031243061  0.031712273            4 
  682000   0.96777822   -6.7009716    255.45872  0.031214409  0.031692498            3 
  683000    0.9796224   -6.6973861    255.95069  0.031228732  0.031672593            3 
  684000    1.0010118   -6.7087547    256.71355  0.031276018  0.031652901            4 
  685000   0.95284809   -6.7358672    255.72672  0.031110306  0.031633144            9 
  686000   0.99186169   -6.7062915    257.10053  0.031231843  0.031613503            9 
  687000   0.97060488   -6.7174638    256.57203  0.031122274  0.031593953            5 
  688000   0.99494314   -6.6968649    257.19672  0.031152704  0.031574257            4 
  689000   0.95696262   -6.7513128    256.79328  0.031058694  0.031554428            9 
  690000   0.99540543   -6.7233578    257.55439  0.031105603  0.031534935           10 
  691000   0.98800505   -6.6963943    258.42355  0.031165406  0.031515185            2 
  692000   0.97063451   -6.7015701    258.07551  0.031078457  0.031495644            8 
  693000   0.96850124   -6.7172894    258.47904  0.031082136  0.031476346            6 
  694000   0.99897361   -6.7082301    258.36766  0.031023974  0.031456617            7 
  695000   0.95676856   -6.7331854    259.04482   0.03106053  0.031437049            5 
  696000   0.97787516   -6.7135331    259.13847  0.031027116  0.031417778            7 
  697000   0.97819543   -6.7516272     259.2953  0.031001351  0.031398358            5 
  698000    1.0009019   -6.7453562    259.87994  0.031026736  0.031378616            6 
  699000     0.977452   -6.7106029    259.96802   0.03099285  0.031359264            7 
  700000    1.0057322   -6.7013897    259.53655  0.030897209    0.0313398            6 
  701000   0.99202211   -6.7246157     258.9858   0.03078766  0.031319994            5 
  702000   0.99839814   -6.7341123    259.63133  0.030820433  0.031300182            4 
  703000   0.95929541   -6.7129106    259.40773  0.030750087  0.031280419            8 
  704000   0.98023944   -6.7278529    260.12639  0.030791476  0.031260802            5 
  705000   0.96083388   -6.7268774    260.91639  0.030841181  0.031241015            5 
  706000    0.9923238   -6.7315991    260.87335  0.030792416  0.031221007            3 
  707000   0.96492832   -6.7194671    260.90551  0.030752653   0.03120111            5 
  708000   0.94250122   -6.7478764     261.5869  0.030789419  0.031181183            7 
  709000   0.95580197   -6.7455805     261.5449  0.030741056  0.031161253            4 
  710000   0.99810021   -6.7231881    262.25066  0.030780594  0.031141499            7 
  711000   0.97950673   -6.7505131    261.07739  0.030599787  0.031121668            5 
  712000   0.96806076   -6.7421523    261.36821  0.030590848  0.031101493            3 
  713000   0.98866273   -6.7587929    262.53675   0.03068452  0.031081461            8 
  714000   0.99089437   -6.7545683     262.1556  0.030597059  0.031061328            4 
  715000   0.97149062   -6.7464198    261.47445  0.030474877  0.031040941            3 
  716000   0.97505012   -6.7120682    262.17847  0.030514253  0.031020792            5 
  717000   0.97232021   -6.7487789    262.18292  0.030472213  0.031000592            8 
  718000    0.9793575   -6.7191208    263.08808  0.030534829  0.030980595            5 
  719000   0.95701274   -6.7604643    263.38439  0.030526703  0.030960666            3 
  720000   0.95671451   -6.7282756    263.31511  0.030476286  0.030940776            3 
  721000   0.96167575    -6.713778    264.51851  0.030573105  0.030920729            3 
  722000    0.9488215   -6.7396806    264.44838  0.030522666  0.030901086            2 
  723000   0.96601041   -6.7515184    264.32874   0.03046666  0.030881445            4 
  724000   0.98324722   -6.7519402    265.61008  0.030572063  0.030862068            3 
  725000   0.95144706   -6.7647869     265.3258  0.030497218   0.03084274            4 
  726000   0.97309596   -6.7605276    265.17733  0.030438169  0.030823421            4 
  727000   0.97242445   -6.7810849    265.02348  0.030378665  0.030804014            6 
  728000   0.97742777   -6.7457766    265.80541  0.030426444  0.030784718            5 
  729000   0.93878742   -6.7552572    266.20751  0.030430672  0.030765403            5 
  730000   0.95904978   -6.7557814    265.57959  0.030317305  0.030746149            2 
  731000   0.94602775   -6.7177368    267.20185  0.030460767  0.030727471            2 
  732000   0.97054659   -6.7502917    267.65019  0.030470194  0.030708612            1 
  733000   0.97342882   -6.7120337    267.52765  0.030414695  0.030689635           12 
  734000   0.95897348    -6.756243     267.5695  0.030378009  0.030670784            6 
  735000   0.97248114    -6.778396    268.26249  0.030415248  0.030652165            6 
  736000   0.95991618   -6.7551877    268.51608  0.030402636  0.030633673            6 
  737000   0.94921156   -6.7363402    268.65243  0.030376801  0.030615222            4 
  738000   0.96380108   -6.7437433    268.55598  0.030324749  0.030596616            4 
  739000   0.96011456   -6.7542633    268.76795  0.030307617  0.030577874            4 
  740000   0.96987405   -6.7459381    269.10461  0.030304573  0.030559079            2 
  741000   0.95789054   -6.7708333    268.93818  0.030244959  0.030540216            6 
  742000   0.95761454    -6.768283    268.54663  0.030160223  0.030521285            5 
  743000   0.95727917   -6.7655118    269.51085  0.030227775  0.030502562            5 
  744000   0.94869404   -6.7556753    269.24631  0.030157517  0.030483642            9 
  745000   0.96149223   -6.7504965    269.72676  0.030170778  0.030464527            6 
  746000   0.95179772   -6.7385225    271.19071  0.030293869  0.030445812            4 
  747000   0.93882694   -6.7873854    270.30194  0.030154165  0.030427196            7 
  748000   0.96035896   -6.7879772    270.36721  0.030121124  0.030408421            4 
  749000   0.95058853    -6.721219    270.61749  0.030108755  0.030389842            3 
  750000   0.96367502   -6.7984613    270.30426  0.030033807  0.030371259            3 
  751000   0.96736678    -6.767273    271.34346  0.030109127    0.0303525            6 
  752000   0.96450556   -6.7493382    271.10795  0.030042991  0.030333751            5 
  753000   0.95278222   -6.7500722    271.06352  0.029998176  0.030315004            4 
  754000   0.93384405   -6.7609418    271.68742  0.030027345  0.030296275            6 
  755000   0.96260606    -6.812399    271.48783  0.029965544  0.030277427            5 
  756000   0.97317902   -6.7806504    270.61501  0.029829696  0.030258231            3 
  757000   0.95783168    -6.794846    271.86795   0.02992822  0.030239231            5 
  758000    0.9273887   -6.7608858    272.53852  0.029962458   0.03022027            6 
  759000   0.96419902   -6.8099636     272.0595  0.029870389  0.030201431            3 
  760000   0.93533643   -6.7393514    273.64567  0.030005007  0.030182758            5 
  761000    0.9380429   -6.7919267    272.85308  0.029878787  0.030163972            3 
  762000   0.96154196   -6.7568807     273.2365  0.029881507  0.030145229            3 
  763000   0.92399605   -6.7605858    273.13679  0.029831454  0.030126429            5 
  764000   0.93924182   -6.7495381    273.90621  0.029876332  0.030107649            6 
  765000   0.95613644   -6.7718711    273.58156  0.029801913  0.030089301            8 
  766000   0.96048584    -6.761758    274.22959  0.029833506  0.030070658            9 
  767000   0.95247217   -6.7679423    274.93401  0.029871144  0.030051987            5 
  768000   0.95565769    -6.764314    274.29047   0.02976242  0.030033395            3 
  769000   0.94657511    -6.769051    273.92879  0.029684525  0.030014595            8 
  770000   0.92471133   -6.8023222    274.52455  0.029710449  0.029995708            8 
  771000   0.94639171    -6.788313    274.71143  0.029692113  0.029976618            5 
  772000   0.92308877   -6.7739104    274.52739  0.029633786  0.029957759            3 
  773000   0.95684197   -6.7740751    275.77684  0.029730147  0.029938859            9 
  774000   0.93841497   -6.8159476    275.15742  0.029625045   0.02991992            4 
  775000   0.95775051   -6.7965675    275.41791  0.029614829  0.029901044            2 
  776000   0.95929878    -6.783853    275.29529  0.029563497  0.029882094            7 
  777000    0.9531701   -6.7795465    276.93141  0.029700924  0.029863367            3 
  778000   0.92722761   -6.7889082    276.62817  0.029630266  0.029844683            5 
  779000   0.93366151   -6.7396681    276.59827  0.029589031  0.029826285            5 
  780000    0.9391926   -6.7776185     276.8341  0.029576292  0.029807707            3 
  781000   0.96172001   -6.7832146    277.66763  0.029627362  0.029789131            4 
  782000   0.94456379   -6.7793082    277.20115  0.029539764  0.029770709            4 
  783000   0.94516232   -6.8205816    276.94667  0.029474954  0.029752153            5 
  784000   0.96671966   -6.7979194    277.30207  0.029475135  0.029733975            5 
  785000    0.9371904   -6.7938463      278.243  0.029537473  0.029715728            5 
  786000    0.9511808   -6.7773667    278.81194  0.029560214  0.029697542            3 
  787000   0.94004746   -6.7976558    278.70904  0.029511758  0.029679219            4 
  788000   0.95035206   -6.7966447    278.44033  0.029445889  0.029661079            5 
  789000   0.92188822   -6.7796399     278.4157  0.029405967  0.029642965            4 
  790000   0.95211664   -6.7994957    278.49141  0.029376731  0.029624526            3 
  791000   0.94181395   -6.8298892    277.75193  0.029261687  0.029605593           12 
  792000   0.92034164   -6.8055283    278.79978  0.029334994   0.02958676            6 
  793000   0.96134186   -6.8129125    279.47999  0.029369482  0.029568225            8 
  794000   0.93133907   -6.7634537    279.99165  0.029386193  0.029549818           12 
  795000   0.93704695   -6.7757741    279.86556  0.029336012  0.029531459            2 
  796000    0.9263652   -6.7949956    279.34683  0.029244853  0.029513135            7 
  797000   0.93534508   -6.8507436    279.23413  0.029196375  0.029494543            6 
  798000   0.95183704   -6.8349671    280.50529  0.029292532  0.029476284            9 
  799000    0.9434401     -6.79736    281.15704  0.029323847  0.029458079            3 
  800000   0.94192643   -6.8064271    280.37871  0.029206115  0.029439764            9 
  801000    0.9312837   -6.7786988    281.46604  0.029282776  0.029421533            4 
  802000   0.94360607   -6.7747454     281.8653   0.02928775  0.029403544            5 
  803000   0.92523773     -6.79235    281.77341   0.02924174  0.029385658            6 
  804000   0.92336513   -6.7923116    281.90954  0.029219479   0.02936753            8 
  805000   0.93132449      -6.8423    281.05043  0.029094248  0.029349391            7 
  806000   0.93063842   -6.7923436    282.08007  0.029164606  0.029330981            4 
  807000   0.93780429   -6.7526561    281.63153  0.029082149  0.029312659            6 
  808000   0.95107184    -6.818024      281.986  0.029082715  0.029294144            5 
  809000   0.96512748    -6.790399    281.88175  0.029036027   0.02927556            3 
  810000   0.93774879   -6.8204606    282.46537  0.029060224  0.029257168            5 
  811000   0.90816367   -6.8030379    282.46829   0.02902469   0.02923862            6 
  812000   0.92664517   -6.8187197    283.07812  0.029051531  0.029219836            2 
  813000   0.93684565   -6.8156907    282.74911  0.028982073  0.029201272            5 
  814000   0.92952664   -6.8123254    283.64156  0.029037834  0.029182829            4 
  815000   0.90090781   -6.8392248    283.63329  0.029001359  0.029164449            4 
  816000   0.93237521   -6.8331611    282.39283  0.028839137  0.029145714            4 
  817000   0.93106029   -6.8447076    283.31902  0.028898309   0.02912733            3 
  818000   0.94156604    -6.825508    282.95896  0.028826299  0.029108874            3 
  819000   0.93720128    -6.812174     283.9067  0.028887535  0.029090481            3 
  820000   0.94442166   -6.8297636    284.36826  0.028899213  0.029072089            4 
  821000   0.93150801   -6.7792952    284.31038  0.028858138  0.029053817            8 
  822000    0.8995419   -6.8292493    284.33555  0.028825583  0.029035414            4 
  823000   0.93262028   -6.8501266    284.48458  0.028805648  0.029016866            4 
  824000   0.92642246   -6.8363813    285.25908  0.028849017  0.028998466            8 
  825000   0.92294707   -6.8427086    285.29228  0.028817402  0.028980025            7 
  826000   0.91400743   -6.8343572    284.40222  0.028692718  0.028961216            4 
  827000   0.94435113   -6.8306418    284.64674  0.028682662  0.028942153            4 
  828000   0.92375691   -6.8005822    285.00082  0.028683657  0.028923184            3 
  829000    0.9120349   -6.8296498    284.99557   0.02864853  0.028904311            4 
  830000   0.93849054   -6.8220728    285.51508  0.028666173  0.028885452            3 
  831000   0.92438633   -6.8306121      285.338  0.028613919  0.028866373            6 
  832000   0.92489954   -6.8379246    285.15945  0.028561644  0.028847248            4 
  833000   0.93285121   -6.8451877    285.62659  0.028574088  0.028828305            6 
  834000   0.93178671   -6.8451373    286.28812  0.028605928  0.028809604            2 
  835000   0.93057234   -6.8214838    286.77948  0.028620707  0.028791291            4 
  836000   0.91741836   -6.8599703    286.51452   0.02856006   0.02877311            4 
  837000    0.9443713   -6.8173607    286.38228  0.028512772  0.028754649            6 
  838000   0.92255822   -6.8138772    287.45207   0.02858513  0.028736432            7 
  839000   0.92208302   -6.8413599    287.99975  0.028605458  0.028718112            4 
  840000   0.90767228   -6.8376631    287.20881  0.028492937  0.028699445            5 
  841000   0.91977373   -6.8408768    287.44101  0.028482066  0.028680994            8 
  842000   0.91565301    -6.843627    288.36159   0.02853935   0.02866271            9 
  843000   0.92175561   -6.8394673    288.33172  0.028502543  0.028644561           12 
  844000   0.89999547    -6.823697    288.96718  0.028531515  0.028626528            2 
  845000   0.90943619   -6.8075079     288.4003  0.028441844  0.028608535            2 
  846000   0.91046949   -6.8278324    288.12803  0.028381405  0.028590405            4 
  847000   0.89090261   -6.8733862    288.68667   0.02840286  0.028572167            4 
  848000   0.93294046    -6.817934    289.17478  0.028417332  0.028554164            5 
  849000   0.91770839   -6.8687974    289.10744  0.028377251  0.028536298            4 
  850000   0.91339361   -6.8669591    289.14734  0.028347779   0.02851841            8 
  851000   0.91743848   -6.8882432    289.01277   0.02830129  0.028500175            4 
  852000   0.89156861   -6.8546821    290.77167  0.028440109   0.02848216            5 
  853000    0.9114187   -6.8074593    290.76335  0.028405954  0.028464528            4 
  854000   0.90867074   -6.8334985    290.36703   0.02833402  0.028446632            4 
  855000    0.9296408   -6.8545451    290.51186  0.028314996  0.028428655            2 
  856000   0.89243076    -6.868735      290.007  0.028232768  0.028410445            9 
  857000   0.89197778   -6.8441822    290.53848  0.028251505  0.028392276            5 
  858000   0.89985114   -6.8737143    290.13862  0.028179742  0.028373911            7 
  859000    0.9100605   -6.8776741    290.19261  0.028152174  0.028355482            6 
  860000     0.919908    -6.871486    290.56387  0.028155414  0.028337126            3 
  861000   0.92911139   -6.8280255    291.10575  0.028175159   0.02831875            7 
  862000   0.90991712   -6.8550454    291.09742  0.028141668  0.028300434            5 
  863000   0.90859734   -6.8670816    291.48936  0.028146906  0.028282069            7 
  864000   0.90257505   -6.8585678     292.4663  0.028208555  0.028263601            3 
  865000   0.90248274   -6.8711564    291.37756  0.028071056  0.028245315            9 
  866000   0.91439053   -6.8739155    291.17589  0.028019235  0.028226781            3 
  867000   0.91323022   -6.8772381    292.24472   0.02808965  0.028208273            5 
  868000   0.91919233   -6.8723337    291.85014  0.028019407  0.028189943            3 
  869000   0.91778426   -6.9007514     292.0513  0.028006453  0.028171774            3 
  870000   0.90498249   -6.8608494    292.27941  0.027996112   0.02815366            3 
  871000   0.92380812    -6.852361    292.59397  0.027994065  0.028135489            2 
  872000   0.90635698   -6.8694337    292.49552  0.027952553  0.028117196            3 
  873000   0.90285032   -6.8491536    293.72026  0.028037444  0.028098864           10 
  874000   0.91963916   -6.8629847    293.01649  0.027938262   0.02808077            4 
  875000   0.87968468   -6.8516547    293.95867  0.027996064  0.028062746            7 
  876000    0.9026806   -6.8741717    293.92382   0.02796079  0.028044819            3 
  877000   0.89028396   -6.8645075    294.32318  0.027966855  0.028026959            4 
  878000   0.91107289   -6.8703822    294.61221  0.027962434  0.028009159            8 
  879000   0.88997474   -6.8642611    294.30934  0.027901909  0.027991364            3 
  880000    0.9270082    -6.840937    295.04154  0.027939539  0.027973692            6 
  881000   0.90618901   -6.8576786    294.11746  0.027820419  0.027955899            5 
  882000   0.87449089   -6.8788776    294.46012  0.027821251   0.02793791            8 
  883000   0.90495414   -6.8990229    294.50378  0.027793863  0.027919937            7 
  884000   0.90219236   -6.8834836    295.58064  0.027863937  0.027902067            5 
  885000   0.91550702   -6.8703463    295.11781  0.027788871  0.027884347            3 
  886000   0.89151009   -6.8638118    295.89941   0.02783102  0.027866819            6 
  887000   0.92714595   -6.8778563    295.99588  0.027808707   0.02784897            4 
  888000   0.89155107   -6.8812027    295.03058  0.027686804  0.027831027            5 
  889000    0.9142128   -6.9083017    296.26562  0.027771431  0.027813318            5 
  890000   0.91071303   -6.8664287    295.77525  0.027694312   0.02779544            5 
  891000   0.88617929   -6.8922639    295.58325  0.027645272  0.027777398            5 
  892000   0.89646508   -6.8863874    296.07209  0.027659949  0.027759507            6 
  893000    0.8898935   -6.8951934    296.23055  0.027643762   0.02774159           10 
  894000   0.90616808   -6.8803153    296.52196  0.027640004  0.027723566            8 
  895000   0.89657154   -6.8902159    296.15234  0.027574706  0.027705522            6 
  896000   0.90764092   -6.8786289    295.94186  0.027524355  0.027687237            5 
  897000   0.90568215   -6.8798857     296.1167  0.027509912  0.027668958            7 
  898000   0.89028344   -6.8951529    295.96567  0.027465263  0.027650708            6 
  899000   0.91623873   -6.9094325    297.46755  0.027573929  0.027632658           13 
  900000   0.90755002   -6.9024541    297.06945   0.02750643  0.027614761            6 
  901000   0.88798482   -6.8698203    297.03426  0.027472647  0.027596722            4 
  902000     0.876943   -6.8946557     297.8963  0.027521832  0.027578704            5 
  903000   0.90867497    -6.897385    297.89527  0.027491258  0.027560735            5 
  904000     0.909396   -6.8623455     297.8603  0.027457623  0.027542938            9 
  905000   0.88076895    -6.900968    298.49224  0.027485473  0.027525402            6 
  906000   0.89608418   -6.8971605    298.29988  0.027437443  0.027507761            3 
  907000   0.90647526   -6.9094462    298.69171  0.027443192  0.027490091            3 
  908000   0.88544859   -6.8580358    298.62264   0.02740663  0.027472463            6 
  909000   0.88175372   -6.8836289    299.17847  0.027427436  0.027455066            4 
  910000   0.88854382   -6.9238671    298.58356  0.027342817  0.027437318            3 
  911000   0.89360941   -6.9069678    299.04786  0.027355274  0.027419389            3 
  912000    0.8922054   -6.9045039    299.71722  0.027386442  0.027401382            6 
  913000   0.88696923   -6.8978095    298.22688  0.027220416  0.027383412            6 
  914000   0.91606064   -6.8972496    298.53446  0.027218678  0.027365353            6 
  915000   0.88392541   -6.9201077     299.3033  0.027258953  0.027347284            6 
  916000   0.88747334   -6.8958342    299.27531  0.027226647  0.027329303            5 
  917000   0.87823423   -6.9026313    298.50739  0.027127171  0.027311055           13 
  918000   0.87956584   -6.9546336    299.06885  0.027148589  0.027292746           15 
  919000   0.87861099   -6.9175996    300.15059  0.027217138  0.027274596           12 
  920000   0.89604948    -6.933401    299.04039  0.027086992  0.027256422            6 
  921000   0.88383443   -6.9058104    299.66094   0.02711373  0.027238203            5 
  922000   0.88424063   -6.9298166    300.14238  0.027127836  0.027220289            6 
  923000   0.89385502   -6.9522206    300.25772  0.027108859  0.027202338            4 
  924000   0.88104317   -6.8976317    300.18149  0.027072645   0.02718437            4 
  925000   0.87622839   -6.9003281    300.66142  0.027086615  0.027166437            4 
  926000   0.89437697   -6.9194045    300.83638  0.027073108  0.027148362            5 
  927000   0.87917823    -6.882094    300.56539  0.027019542   0.02713026            6 
  928000   0.87998114    -6.939273    299.88349  0.026929193   0.02711196            5 
  929000   0.86974902   -6.9396713    300.42734   0.02694899  0.027093772            9 
  930000   0.87623572   -6.9247653    300.95445  0.026967245   0.02707572            6 
  931000    0.8576049   -6.8873078    301.49881  0.026987005  0.027057853            6 
  932000   0.90644563    -6.918301    301.06778  0.026919508  0.027039881            4 
  933000   0.86346864   -6.9105326    301.92427  0.026967155  0.027021903            9 
  934000   0.87341682   -6.9354943    301.82846  0.026929734  0.027003848            3 
  935000   0.89016617     -6.91584    301.12739  0.026838449  0.026985974           11 
  936000   0.87821505   -6.9123104    302.02868  0.026890018  0.026968157            6 
  937000   0.84983975   -6.9064653    302.18066  0.026874836  0.026950313            9 
  938000   0.89241932   -6.9395272    302.35893  0.026862023   0.02693245            6 
  939000   0.86699076   -6.9112964    302.36782  0.026834205   0.02691446            9 
  940000   0.86481532   -6.9335801    302.47235  0.026814925  0.026896422            6 
  941000   0.89319901   -6.9243768    302.78749  0.026814337  0.026878361           12 
  942000   0.88918407     -6.89491    303.76269  0.026872142  0.026860359            6 
  943000   0.89204089   -6.9080709    302.90642  0.026767976  0.026842632            4 
  944000   0.86652516   -6.9069563    303.13706  0.026759981  0.026824867            7 
  945000   0.86416534   -6.9371195    303.24895   0.02674153  0.026807138            5 
  946000   0.87263741   -6.9287277    303.59647  0.026743875  0.026789237            7 
  947000   0.88079137    -6.915244    304.36487  0.026783252  0.026771481            7 
  948000   0.86965202   -6.9372877    303.74549  0.026700553  0.026753681            3 
  949000   0.88854294   -6.9515053      302.877  0.026596154  0.026735912            4 
  950000   0.87824521   -6.9317155    304.31046    0.0266939  0.026718116            4 
  951000   0.86208126   -6.9284658    304.88724  0.026716373  0.026700299           11 
  952000   0.88734242   -6.9461425    304.98205  0.026696608  0.026682652            4 
  953000   0.87273406   -6.9051239     304.3263  0.026611254   0.02666485            4 
  954000   0.87164721   -6.9278892    304.54811  0.026602735  0.026647018            9 
  955000   0.87507244   -6.9590088    303.98183  0.026525465  0.026628942            5 
  956000   0.88564187   -6.9473468    304.60092  0.026551684  0.026610903            4 
  957000    0.8817103   -6.9496997    304.50175  0.026515304  0.026592743            5 
  958000   0.87266749     -6.94283    303.81692  0.026428055  0.026574498            5 
  959000   0.85929341   -6.9637299    304.07504  0.026422927  0.026556329            5 
  960000    0.8498497   -6.9633255    304.22009  0.026407994  0.026538269            4 
  961000   0.85424521   -6.9442758    304.36151  0.026392777  0.026520066            5 
  962000   0.87357494   -6.8837598    305.36993  0.026452696  0.026501809            4 
  963000   0.88321838   -6.9783738    303.72371  0.026282772  0.026483514            5 
  964000   0.87372542   -6.9424052    303.90487  0.026271168  0.026465036            9 
  965000   0.86435817   -6.9520201    304.48253  0.026293828  0.026446612            5 
  966000   0.87421237   -6.9306413    305.33717  0.026340336  0.026428392            5 
  967000   0.87355874   -6.9142466    306.18263  0.026385955  0.026410205            4 
  968000   0.88202347   -6.9379201    305.75378  0.026321779  0.026392087            4 
  969000   0.86596157   -6.9523351     306.3483  0.026345743  0.026373988           18 
  970000   0.85754731   -6.9495671     306.0798  0.026295515  0.026355942            6 
  971000   0.87088226   -6.9352421    305.81838  0.026245999  0.026338002            4 
  972000   0.85015348   -6.9586257    305.91055  0.026226899  0.026319939           11 
  973000   0.87785203   -6.9372801      306.069  0.026213515   0.02630202           10 
  974000    0.8479805   -6.8939705    307.36282  0.026297298  0.026284199            3 
  975000   0.86889546   -6.9442868    305.99447  0.026153374  0.026266207           10 
  976000   0.88297533   -6.9406217     306.2585  0.026149121  0.026248182            5 
  977000   0.85254663   -6.9577231     306.8691  0.026174437   0.02623019            6 
  978000   0.86763677   -6.9489484    306.15915   0.02608718  0.026212079            6 
  979000   0.84841825    -6.937898    306.70057  0.026106619  0.026194018            6 
  980000   0.86527891    -6.953077    307.34398  0.026134692  0.026175968            9 
  981000    0.8525613   -6.9314165    307.43831  0.026116064  0.026157969            4 
  982000   0.89690573   -6.9364395    307.06583  0.026057861  0.026140048            8 
  983000   0.87789794   -6.9439502    307.27476  0.026049064  0.026122001            4 
  984000   0.86275163   -6.9415767      307.176  0.026014228  0.026103846            7 
  985000   0.85326666   -6.9702319      306.906  0.025964974  0.026085674            7 
  986000   0.84688187   -6.9630382    307.05867  0.025951544  0.026067671           10 
  987000   0.87895384   -6.9461123    307.77808  0.025985991  0.026049602            8 
  988000   0.85822123   -6.9546235    307.87362  0.025967748  0.026031555            3 
  989000   0.85499314   -6.9284569    307.59292   0.02591784  0.026013446            6 
  990000    0.8534035   -6.9822563     308.1273  0.025936642  0.025995283            3 
  991000   0.87465309   -6.9674898    307.90145  0.025891477   0.02597717            8 
  992000   0.85180152   -6.9572262    308.32183  0.025900691  0.025959036            7 
  993000    0.8558721   -6.9788463    308.30141  0.025872895  0.025941027            5 
  994000   0.85769952   -6.9575871    308.42329  0.025857083  0.025922988            8 
  995000   0.85475617   -6.9750293     308.8957  0.025870662  0.025904805           10 
  996000      0.86614   -6.9787469    308.11561  0.025779418  0.025886671            6 
  997000   0.86011454   -6.9733385    307.94399  0.025739217  0.025868528           14 
  998000   0.85918558   -6.9938189    308.51618  0.025761204   0.02585031            6 
  999000    0.8575442   -6.9768101    308.48248  0.025732606  0.025832281            7 
 1000000   0.85814115   -7.0109565    308.03918  0.025669931  0.025814127           10 
 1001000   0.87973351   -7.0019193    308.29276  0.025665398   0.02579597            5 
 1002000   0.83777838   -6.9714028    308.78546   0.02568076  0.025777818            6 
 1003000   0.83823605   -6.9998847    308.71828  0.025649575  0.025759677            3 
 1004000   0.84269183   -6.9567304     309.2044  0.025664376  0.025741656            7 
 1005000   0.84689907   -6.9737386    309.41477  0.025656283  0.025723652            4 
 1006000   0.85978263   -6.9979059     309.2783  0.025619474  0.025705685            9 
 1007000   0.83562732   -6.9793238    309.39707  0.025603862  0.025687768            8 
 1008000   0.85565125   -6.9908054    310.83827  0.025697608  0.025669867            4 
 1009000   0.84899595   -6.9786418    310.24605  0.025623228  0.025651976            3 
 1010000   0.84459402   -6.9842718    310.08612  0.025584664  0.025634161            6 
 1011000   0.85589995   -6.9885907    310.08079  0.025558918  0.025616395            8 
 1012000   0.85120153   -6.9599206     311.2236  0.025627767  0.025598578            6 
 1013000   0.84755778   -6.9591659    310.93335  0.025578591  0.025580795            6 
 1014000   0.86185651   -6.9818626     310.7295  0.025536612  0.025562849            7 
 1015000   0.84408751   -6.9840843    309.83396  0.025437928   0.02554498            7 
 1016000   0.84929374   -6.9520828    311.00867  0.025509241  0.025527146            6 
 1017000    0.8560937   -6.9889538    310.56966  0.025448186  0.025509357            6 
 1018000   0.84034482   -7.0032846    311.24458  0.025478437  0.025491559            5 
 1019000   0.85999855   -6.9810853    310.99622  0.025433123  0.025473782            6 
 1020000   0.84162904   -6.9712895    311.51364  0.025450461  0.025456128            5 
 1021000   0.84324648   -6.9981431    312.01146  0.025466166  0.025438477            7 
 1022000   0.85829316   -6.9742492    311.56363  0.025404732   0.02542089            3 
 1023000   0.85591522    -6.967877    311.91209  0.025408284  0.025403347            4 
 1024000    0.8472786   -6.9876145     311.2258  0.025327621  0.025385745            9 
 1025000   0.84394838   -7.0087066    312.09815  0.025373833  0.025367984           11 
 1026000      0.82788   -6.9504887    312.26699  0.025362816  0.025350349            8 
 1027000     0.842954   -6.9744672    311.74146  0.025295477  0.025332722           10 
 1028000   0.84728476   -6.9817031    311.78815  0.025274656  0.025314888            3 
 1029000   0.84656202   -6.9734308    311.90607  0.025259643  0.025296995           11 
 1030000   0.83880103    -6.998864    311.84547  0.025230216  0.025279291            9 
 1031000   0.83182853   -6.9662018    312.66701  0.025272148  0.025261712           12 
 1032000   0.84088549    -7.019535    312.04499  0.025197431  0.025243949            4 
 1033000   0.83478155    -6.974896    313.15916   0.02526292  0.025226232            3 
 1034000    0.8355387   -6.9866316     312.9512  0.025221728  0.025208673            3 
 1035000   0.83492423   -6.9721261    312.93192  0.025195807  0.025191083            4 
 1036000   0.83777407   -6.9847782    312.57899  0.025143098  0.025173436            6 
 1037000   0.84570498   -7.0044549    312.89839  0.025144519  0.025155756           12 
 1038000   0.85376723   -7.0101162     312.0215  0.025049896  0.025138149            5 
 1039000   0.84452229   -6.9915704    313.50003  0.025144372   0.02512053            5 
 1040000   0.82714028   -7.0059471    313.03009  0.025082539  0.025102963            7 
 1041000   0.84691058   -7.0050312    313.48502  0.025094862  0.025085403           11 
 1042000   0.82396058   -6.9988669    314.11378  0.025121064  0.025068032           17 
 1043000   0.84087612   -7.0474834    312.45304  0.024964289  0.025050466           10 
 1044000   0.82678611   -7.0092021    314.26938  0.025085359  0.025033067           14 
 1045000   0.86024066   -7.0147697    314.12165  0.025049573  0.025015566            8 
 1046000   0.84760361   -7.0159412    314.06946  0.025021468  0.024998106           15 
 1047000   0.84094933   -7.0033797     315.0564  0.025076122    0.0249806            7 
 1048000   0.82251469   -7.0174871     314.5697  0.025013494  0.024963154            2 
 1049000   0.82996896   -7.0181792    314.79674  0.025007685  0.024945728            4 
 1050000   0.83314924   -7.0294816    314.26658  0.024941792  0.024928326            4 
 1051000      0.82714   -6.9971803    314.69512  0.024952039  0.024911011            9 
 1052000   0.85120376    -7.015451    315.30302  0.024976475  0.024893764            4 
 1053000    0.8145029   -7.0030901    315.06958  0.024934281  0.024876457            3 
 1054000   0.84118431    -7.020385     315.2642  0.024926012   0.02485907            7 
 1055000   0.82827307   -7.0228534    314.54897  0.024845891  0.024841705            5 
 1056000   0.83478507   -7.0289498    314.85765  0.024846721  0.024824311            8 
 1057000   0.82939956   -7.0541218    314.77471  0.024816675  0.024806779            8 
 1058000   0.83153797   -7.0372335    314.98159  0.024809514  0.024789149            8 
 1059000   0.84089282   -7.0119332    314.92432   0.02478158  0.024771671            9 
 1060000   0.82759575   -7.0340668    315.26396  0.024784903  0.024754253            4 
 1061000    0.8257599   -7.0050347     315.5139  0.024781173  0.024736704            6 
 1062000      0.82752   -7.0067424    316.31492  0.024820694  0.024719249            7 
 1063000   0.82513045    -7.031262    315.00675  0.024694791  0.024701809            5 
 1064000   0.80211934   -6.9947564    316.09483    0.0247568  0.024684476            6 
 1065000   0.84379559   -7.0372082    315.64229  0.024698145  0.024667234            7 
 1066000   0.82466354   -7.0410243    316.38489  0.024733028  0.024649892            7 
 1067000   0.82843766    -7.022447    316.73474  0.024737171  0.024632612            5 
 1068000   0.81739044   -7.0574747    316.35481  0.024684364  0.024615276            8 
 1069000   0.81546592   -7.0047091    316.47459   0.02467061  0.024598061            3 
 1070000   0.82192636   -7.0073315    316.20324   0.02462642  0.024580815            7 
 1071000   0.82956725   -7.0382054    317.12064  0.024674808  0.024563543            6 
 1072000   0.82059987   -7.0320947    316.78233  0.024625492  0.024546239           10 
 1073000   0.84058003   -7.0454591    316.66458  0.024593397  0.024528881            9 
 1074000   0.83024674   -6.9894689    316.38135  0.024548522  0.024511616            5 
 1075000   0.83590194   -7.0139084    317.03933  0.024576692  0.024494594           11 
 1076000   0.84950274   -7.0046905    318.49123  0.024666297   0.02447773            8 
 1077000   0.84627055   -7.0386544      317.987  0.024604379  0.024460836            4 
 1078000   0.81590698   -7.0232385    317.67864  0.024557718  0.024443769           10 
 1079000    0.8409824   -7.0333674    316.94961  0.024478654  0.024426724            5 
 1080000   0.84211597   -7.0312263    318.06168  0.024541797  0.024409732            6 
 1081000   0.82335021   -7.0209821    317.02123  0.024438886  0.024392695            5 
 1082000   0.84238688   -7.0358538     318.3892  0.024521658  0.024375784            9 
 1083000   0.81089828   -7.0310575    317.94835  0.024465093  0.024358907            5 
 1084000   0.79853646   -7.0231059    318.07299  0.024452106  0.024341994           10 
 1085000   0.82490959   -7.0297405    318.30173  0.024447138  0.024325087            7 
 1086000   0.80902598   -7.0412332    318.42781  0.024434301  0.024308064            5 
 1087000   0.79399016   -7.0310184    318.69754    0.0244325  0.024290911            3 
 1088000    0.8305656   -7.0090663    318.37685  0.024385482  0.024273823            6 
 1089000    0.8183437   -7.0439273    318.26067  0.024354199  0.024256785            8 
 1090000    0.8136427   -7.0483096    318.54348  0.024353477  0.024239818            6 
 1091000   0.82944413   -7.0255605    319.11157  0.024374547   0.02422293            4 
 1092000   0.81586668   -7.0374876    320.05932  0.024424552  0.024206078            5 
 1093000   0.82270104   -7.0624272    319.20095   0.02433676  0.024189176            7 
 1094000   0.82771926   -7.0532519    319.16945  0.024312115  0.024172283            6 
 1095000   0.83250711   -7.0580409    318.96934  0.024274683  0.024155378            9 
 1096000   0.82774211   -7.0236684    318.94312  0.024250541  0.024138427           10 
 1097000    0.8136371   -7.0529562    319.61856  0.024279745  0.024121525            8 
 1098000   0.80808646   -7.0267491    318.86171  0.024200191   0.02410457           12 
 1099000   0.81862013   -7.0586757    320.00093  0.024264553  0.024087524            7 
 1100000   0.81830596   -7.0716563    318.90925  0.024159792  0.024070441            7 
 1101000   0.79851702   -7.0709702    319.03364  0.024147263   0.02405347            7 
 1102000   0.81336132   -7.0721514     319.6973  0.024175537  0.024036479           14 
 1103000   0.80892127   -7.0795614    319.09434  0.024108064  0.024019524           12 
 1104000   0.79828774   -7.0428957    320.11162  0.024163015  0.024002592            7 
 1105000   0.81061769   -7.0533851    320.17734  0.024146104  0.023985679            7 
 1106000   0.82184288   -7.0351527     319.8481  0.024099465   0.02396882            5 
 1107000   0.82839481   -7.0228257    319.93273  0.024084065  0.023951972            8 
 1108000   0.80001614   -7.0547253    319.96832  0.024065006  0.023935092           12 
 1109000    0.7935769   -7.1107163     319.9134   0.02403918  0.023918175            4 
 1110000   0.80477299   -7.0892784    319.77856  0.024007399  0.023901231            8 
 1111000   0.79505105   -7.0409317    320.86724   0.02406745  0.023884469            7 
 1112000   0.81446804   -7.0365938     321.2222  0.024072407  0.023867701            6 
 1113000   0.81637327   -7.0631712    321.20107  0.024049197  0.023851068            2 
 1114000   0.80270554    -7.077218    319.94754  0.023933838  0.023834364            8 
 1115000   0.81021443   -7.0696769    320.24236  0.023934406  0.023817589           10 
 1116000   0.79515293    -7.061678     321.2689  0.023989613  0.023800813            5 
 1117000   0.80585853   -7.0509737    321.42397  0.023979705  0.023784134            4 
 1118000   0.81303307   -7.0709893    320.97858  0.023925058  0.023767436            8 
 1119000   0.81459043   -7.0664919    321.37047  0.023932862  0.023750667           13 
 1120000   0.81803191   -7.0671545    321.02774  0.023885993  0.023733978           11 
 1121000   0.80627141   -7.0412625    321.45986  0.023896808  0.023717329            5 
 1122000    0.8088759   -7.0768864    322.05182  0.023919476  0.023700748            7 
 1123000   0.81458542   -7.0802109      321.403  0.023850029  0.023684147            8 
 1124000     0.800873   -7.0778627    321.92155  0.023867256  0.023667522            6 
 1125000   0.79915825   -7.0809321    321.30547  0.023800405  0.023650827           12 
 1126000   0.80836984   -7.0654836    322.15729   0.02384231  0.023634185           12 
 1127000   0.80538577   -7.0962565    322.01174  0.023810392  0.023617571           11 
 1128000   0.79212593    -7.082225    321.54118   0.02375452   0.02360083            6 
 1129000   0.79442692   -7.0814181    321.57021  0.023735622  0.023584134           14 
 1130000   0.79121708    -7.077522     321.5295  0.023711615  0.023567584            5 
 1131000   0.79372201   -7.0594924    322.46268  0.023759408  0.023551077            8 
 1132000   0.79383077   -7.0739824    322.34978  0.023730108  0.023534515            5 
 1133000   0.80303967   -7.0906238    321.90602  0.023676524  0.023517926           12 
 1134000   0.80122888   -7.0983775    321.76242  0.023645092  0.023501283            6 
 1135000   0.80440028   -7.0921745     322.7505  0.023696806  0.023484636            7 
 1136000   0.79814627   -7.0889839     321.6181  0.023592877  0.023467916            9 
 1137000   0.78011764   -7.0731206       322.66   0.02364849  0.023451261            7 
 1138000    0.7985328   -7.0577655    323.00014  0.023652617  0.023434655            5 
 1139000   0.79824042   -7.0820299    322.60097  0.023602646  0.023418168           12 
 1140000   0.80608298   -7.1077129    322.49756  0.023574383  0.023401532            7 
 1141000   0.79323378    -7.085559    323.22783  0.023607057  0.023384993            6 
 1142000   0.79594552   -7.0979618    322.77786  0.023553551   0.02336838            7 
 1143000    0.7824926   -7.0982553      322.428  0.023507437  0.023351655           14 
 1144000    0.7873349   -7.0937059    322.65559  0.023503467  0.023334989            7 
 1145000   0.80127753    -7.093987    323.01361  0.023508997  0.023318347           12 
 1146000   0.81149534    -7.090788    323.48404  0.023522691  0.023301712            6 
 1147000    0.7855435   -7.1297135    322.80592  0.023452914    0.0232851            5 
 1148000   0.78690523   -7.0950241    323.72367  0.023499105  0.023268507           11 
 1149000   0.80180666   -7.0759902     322.7715  0.023409595  0.023251886            4 
 1150000   0.79782808   -7.0707224    322.83859  0.023394101  0.023235279            5 
 1151000   0.80827408    -7.102064    323.27993  0.023405729   0.02321863            7 
 1152000    0.7966021   -7.0712677     322.7978  0.023350536  0.023202013            7 
 1153000   0.80341121   -7.0875745    324.12098  0.023425916  0.023185431           13 
 1154000    0.7957288   -7.0812233    324.02856  0.023398943  0.023168992           11 
 1155000   0.81911565   -7.0955865    323.62944  0.023349887  0.023152489            4 
 1156000   0.79168081   -7.1047052    323.67001  0.023332613  0.023136021            9 
 1157000   0.80332778   -7.1310492    323.64119  0.023310371  0.023119406           14 
 1158000    0.8177801   -7.1130651    323.88698  0.023307929  0.023102802           13 
 1159000   0.78935097    -7.099202    323.88031  0.023287339  0.023086388           17 
 1160000   0.78938476   -7.1075566    324.00301  0.023276079  0.023069975            9 
 1161000   0.80573765   -7.1028512    324.57924   0.02329739  0.023053688            7 
 1162000   0.79678333   -7.0965371    324.61847  0.023280154  0.023037453            9 
 1163000   0.77888872   -7.1276317    324.50748  0.023252184  0.023021046            7 
 1164000   0.78874271   -7.0778736     324.5297  0.023233799    0.0230047            3 
 1165000   0.78979044   -7.1171576    324.08222  0.023181847  0.022988383            8 
 1166000    0.7912681   -7.0960449     325.2266  0.023243754  0.022972078            7 
 1167000    0.8023928   -7.1000502    324.77453  0.023191555  0.022955733           10 
 1168000   0.79467092   -7.1051222    324.95567  0.023184622  0.022939446            6 
 1169000   0.78318101   -7.1153238    325.09528  0.023174742  0.022923174            9 
 1170000   0.79464666   -7.0948744    324.38028  0.023104009  0.022906941            8 
 1171000   0.78194502   -7.1026335    325.16489  0.023140115  0.022890738            7 
 1172000   0.78966175   -7.1087586    324.89128  0.023100916  0.022874489           10 
 1173000   0.77857122   -7.1152249    325.70141  0.023138776  0.022858195            9 
 1174000   0.80040209   -7.1178286    325.34445  0.023093729  0.022841944           10 
 1175000   0.79288276   -7.1202177    325.84685  0.023109706  0.022825701            7 
 1176000   0.76356558   -7.0998351    325.50851  0.023066079  0.022809459           14 
 1177000   0.78004634   -7.1485482    325.18846  0.023023822  0.022793165            5 
 1178000   0.78479075   -7.1382059    325.51298  0.023027234  0.022776909            6 
 1179000   0.77566429    -7.112865    325.49006  0.023006083  0.022760676            6 
 1180000   0.77188088   -7.1310096    325.57364  0.022992489  0.022744451           11 
 1181000   0.78981977    -7.137174    326.38504  0.023030273  0.022728267           11 
 1182000   0.78611168   -7.1176376    325.51954   0.02294977  0.022712044           11 
 1183000   0.77900412   -7.0927687    326.36699  0.022990067  0.022695844           17 
 1184000   0.79299568   -7.1331835    325.43364  0.022904958  0.022679651           16 
 1185000   0.76964715   -7.0978163    326.09709  0.022932285  0.022663456           11 
 1186000   0.78717361   -7.1022894    326.74755  0.022958653  0.022647331            7 
 1187000   0.78235548   -7.0993394      326.912  0.022950857  0.022631183            7 
 1188000   0.78214825    -7.119288    326.74188  0.022919604  0.022615111           14 
 1189000   0.76867224   -7.0942883    326.48372  0.022882234  0.022598922            6 
 1190000   0.76928303   -7.1316416    326.34624  0.022853378  0.022582708            7 
 1191000   0.77738713    -7.138252     327.0479  0.022883284  0.022566493            5 
 1192000   0.77068171   -7.1290013     326.6221  0.022834319  0.022550353            7 
 1193000   0.77334603   -7.1409741    326.70866  0.022821225  0.022534155            7 
 1194000   0.76985306   -7.1429574    325.87052  0.022743615  0.022517922           16 
 1195000    0.7719161   -7.1467315    326.97911   0.02280189   0.02250174           11 
 1196000   0.78479896   -7.1489784    327.53669  0.022821676  0.022485591            8 
 1197000   0.77728872   -7.1180102    327.01917  0.022766581   0.02246964            9 
 1198000   0.77752956   -7.1281503    326.41758   0.02270573   0.02245355            6 
 1199000   0.77547566   -7.1275602    326.40597  0.022685986  0.022437468           10 
 1200000   0.77624535   -7.1422974    326.78854  0.022693649  0.022421351           11 
 1201000   0.76880665   -7.1285677     327.0746  0.022694602  0.022405222            5 
 1202000    0.7887702   -7.1222393    327.49717  0.022705018   0.02238915            5 
 1203000   0.76549355   -7.1411148    326.54029  0.022619859  0.022373042           11 
 1204000   0.78178649   -7.1222548    327.35181   0.02265724  0.022356953           11 
 1205000   0.75762004   -7.1559587    326.57776  0.022584907  0.022340844            8 
 1206000   0.76814801   -7.1330565    326.89384  0.022588021  0.022324799            8 
 1207000   0.76257169   -7.0954311    327.63573  0.022620528  0.022308786            5 
 1208000   0.76022283   -7.1092453    327.06798  0.022562637  0.022292734            7 
 1209000    0.7771214   -7.1529453    326.42882  0.022499919  0.022276608            7 
 1210000   0.77593846   -7.1516302    327.30238  0.022541486  0.022260456            6 
 1211000   0.76051731   -7.1568086    327.73149  0.022552401  0.022244394            7 
 1212000   0.77631537   -7.1226645    327.66663  0.022529334  0.022228293            6 
 1213000   0.77916905   -7.1441404    327.53442  0.022501678  0.022212225            9 
 1214000   0.75988052   -7.1640679    327.59399  0.022487231  0.022196102           15 
 1215000   0.77289681    -7.153022    327.33932  0.022451256  0.022179927           13 
 1216000   0.78676548   -7.1522232     327.9539  0.022474911  0.022163746            7 
 1217000   0.75142402   -7.1347943    327.47003   0.02242331  0.022147579            9 
 1218000   0.77320894   -7.1602939    327.26736  0.022391035  0.022131417            9 
 1219000   0.77968659   -7.1764769    327.96032  0.022420038  0.022115347            7 
 1220000   0.76878796   -7.1439474    327.30182  0.022356682  0.022099256           12 
 1221000   0.76673888   -7.1790494    327.76768  0.022370167  0.022083193            9 
 1222000   0.75232207   -7.1589658    328.03861  0.022370336  0.022067158           12 
 1223000   0.76745997   -7.1466589    327.94269  0.022345509  0.022051115            6 
 1224000   0.78702911   -7.1583419    328.14312  0.022340899  0.022035092           11 
 1225000   0.76972737   -7.1406418    327.69475   0.02229216  0.022019088           14 
 1226000    0.7714029   -7.1498775    328.39629  0.022321662   0.02200312           10 
 1227000   0.76252989   -7.1472261    328.27011    0.0222949  0.021987158            6 
 1228000   0.78216526   -7.1975463     327.8877  0.022250794  0.021971153            6 
 1229000   0.77098086   -7.1767703    327.92619  0.022235299  0.021955132            8 
 1230000   0.77029802   -7.1448884    328.52806  0.022257998   0.02193917            8 
 1231000   0.76187661   -7.1946365     327.8247  0.022192303  0.021923128            8 
 1232000   0.75787429   -7.1970163    327.88341  0.022178261   0.02190707           15 
 1233000   0.74931273   -7.1547704    328.94242  0.022231848  0.021891098            7 
 1234000   0.76782762   -7.1857469    328.42761  0.022179066    0.0218752            8 
 1235000   0.75819132   -7.1615567    328.95382  0.022196614  0.021859297            7 
 1236000   0.77699214   -7.1562075    329.25523  0.022198977   0.02184346            8 
 1237000   0.77660475   -7.1763253    329.08881   0.02216982  0.021827712           11 
 1238000   0.77882152   -7.1495922    329.35172   0.02216961  0.021811925            8 
 1239000   0.75476925   -7.1543435    328.79226  0.022114088   0.02179617            9 
 1240000   0.77592285   -7.1676273    329.18364  0.022122557  0.021780511           11 
 1241000   0.76368194   -7.1453832    329.70835  0.022139964  0.021764843            6 
 1242000    0.7481891   -7.1449389    328.82888  0.022063129  0.021749235           14 
 1243000    0.7615962   -7.1610153    329.19737  0.022070084  0.021733616            9 
 1244000   0.74204939   -7.1469011    330.11279  0.022113665  0.021718052            8 
 1245000   0.76039529   -7.1562583    329.23845  0.022037379  0.021702381            5 
 1246000   0.77174293   -7.1361273    330.12081  0.022078706  0.021686652            5 
 1247000   0.75913622   -7.1826287    329.58138  0.022024952   0.02167098            7 
 1248000   0.75233614   -7.1836892    328.75644   0.02195222    0.0216552           19 
 1249000   0.74995495   -7.1696177    329.12753  0.021959403  0.021639347           10 
 1250000   0.74919778    -7.183126    329.59568  0.021973046  0.021623483            7 
 1251000   0.75916176   -7.1747843    329.66511  0.021960106  0.021607733            6 
 1252000   0.78119052   -7.1660133     328.4563  0.021862107  0.021591903            9 
 1253000   0.75643978   -7.1332391     330.1088  0.021954563  0.021576066            7 
 1254000   0.74537047   -7.1706576    329.59253  0.021902746  0.021560345            5 
 1255000   0.74379904   -7.1848047     328.8479   0.02183585   0.02154452           11 
 1256000   0.75747594   -7.2139557    329.33552  0.021850818  0.021528673            7 
 1257000   0.74731924   -7.1676919    329.76727  0.021862057  0.021512905           12 
 1258000   0.75312915   -7.1809197    329.93091  0.021855519  0.021497197           15 
 1259000   0.73143181   -7.1848729     329.5991  0.021816197  0.021481462           15 
 1260000   0.75465385   -7.1954801    330.01097  0.021826122  0.021465677            6 
 1261000   0.76082863   -7.1833884    329.71369  0.021789168  0.021449796           21 
 1262000   0.73821945    -7.209214    329.87391  0.021782482  0.021434066            6 
 1263000   0.74279386    -7.196959    329.75829  0.021757607   0.02141835           11 
 1264000    0.7504906   -7.2029693    330.37344  0.021780949  0.021402567            9 
 1265000    0.7608522   -7.2089082    329.70441  0.021719658  0.021386768            6 
 1266000   0.72200538   -7.1982653    330.76638  0.021772405  0.021370943           20 
 1267000   0.75013905   -7.1933646    330.31278  0.021725387  0.021355185           17 
 1268000   0.74595238   -7.1971389    329.71374  0.021668884  0.021339505            9 
 1269000   0.73005035   -7.1932806     329.5973  0.021644162  0.021323794           22 
 1270000   0.75285923   -7.1984005    330.50282  0.021686537  0.021308111           33 
 1271000    0.7395852   -7.2196534     330.6355  0.021678173  0.021292467           17 
 1272000   0.74263877   -7.1948444    330.57636  0.021657256  0.021276907           17 
 1273000   0.74877241   -7.1863778     330.8031  0.021655086  0.021261338            7 
 1274000   0.75973422   -7.1972759     329.8179  0.021573646  0.021245701            8 
 1275000   0.72509811   -7.2044978    330.97825  0.021632565  0.021230115           10 
 1276000   0.72004671   -7.2076265    329.88257  0.021544055  0.021214505            6 
 1277000   0.74131326   -7.1920469    331.02571  0.021601782  0.021198931            7 
 1278000   0.74377009   -7.1858923    331.28624  0.021601868  0.021183494           10 
 1279000   0.73624259    -7.197946    331.46351  0.021596528  0.021167974            7 
 1280000   0.74793757   -7.1957261    330.89058  0.021542356  0.021152489            9 
 1281000   0.74158491   -7.2119187    330.40088  0.021493682  0.021136898            9 
 1282000   0.73879599   -7.2208971    331.43036  0.021543835  0.021121346            8 
 1283000   0.76086118    -7.211637    331.30074  0.021518624  0.021105877            9 
 1284000   0.74109506   -7.2189757    331.08686  0.021487984  0.021090448            9 
 1285000   0.74750882   -7.2035204    330.95567  0.021462754  0.021074983           27 
 1286000   0.74103705   -7.1885893    330.81172  0.021436737  0.021059588           19 
 1287000   0.74268175   -7.2340692    330.36387  0.021391082   0.02104414           22 
 1288000   0.73685569   -7.2254143    331.31176  0.021435803  0.021028664           11 
 1289000   0.74687854   -7.2234271    331.32373  0.021419946   0.02101324           12 
 1290000    0.7399668   -7.2239611    331.19211  0.021394839  0.020997864            7 
 1291000   0.72718136   -7.2352796    331.45134     0.021395  0.020982475           12 
 1292000   0.73984681   -7.2248777    331.81749  0.021402057  0.020967026           19 
 1293000   0.73547734   -7.2482076     331.6527  0.021374884  0.020951612           17 
 1294000   0.73147134   -7.2198739    331.93203  0.021376354  0.020936251           18 
 1295000   0.73791094   -7.2262421    332.20951  0.021377704  0.020920948           22 
 1296000   0.73347403   -7.2112524    331.62019  0.021323315   0.02090566           19 
 1297000   0.72944158   -7.2281923    331.38763  0.021291932  0.020890319           22 
 1298000   0.73317032   -7.2409556    331.06218  0.021254634     0.020875           13 
 1299000   0.73383977   -7.2315742    331.74467  0.021282054  0.020859684           17 
 1300000   0.73229256   -7.2500875    332.36337  0.021305344  0.020844395           25 
 1301000   0.75676484    -7.233325    332.10351  0.021272323  0.020829178           19 
 1302000   0.72871881   -7.2335034    332.54331  0.021284134  0.020813933           25 
 1303000   0.73209798   -7.2302715    332.37574  0.021257082  0.020798692           20 
 1304000   0.71916333   -7.2460625    332.47526  0.021247141  0.020783398           11 
 1305000   0.72733796   -7.2190164    331.95237  0.021197469   0.02076819            8 
 1306000   0.73114592   -7.2319078    332.37645  0.021208298   0.02075303           19 
 1307000   0.74189155   -7.2406425    331.94258  0.021164408  0.020737858           11 
 1308000    0.7275449   -7.2399733    332.63371   0.02119226  0.020722676            9 
 1309000   0.73517163   -7.2403113    331.71931  0.021117858  0.020707477            9 
 1310000   0.72382494   -7.2446084    332.14321  0.021128703  0.020692311           18 
 1311000   0.72594107   -7.2434905    332.95699  0.021164314  0.020677121           17 
 1312000   0.73171624   -7.2197352     332.5816   0.02112434  0.020661981           16 
 1313000   0.71025584   -7.2295863    332.74766   0.02111879  0.020646855           15 
 1314000   0.71562357   -7.2446146     333.4013  0.021144172  0.020631835            6 
 1315000   0.74221462   -7.2460658    332.99029  0.021102046  0.020616851           11 
 1316000   0.71519985   -7.2157758    333.84203  0.021139946  0.020601886           13 
 1317000     0.724926    -7.218589    333.37198  0.021094152  0.020586909            7 
 1318000   0.72892567   -7.2270172    333.48957  0.021085582   0.02057202            9 
 1319000   0.73106587   -7.2080609    333.50417  0.021070519  0.020557092            7 
 1320000   0.72178269   -7.2414566     333.3651  0.021045777   0.02054217            6 
 1321000   0.72573095   -7.2226821    333.93939  0.021066073  0.020527284            6 
 1322000   0.70761763   -7.2306978     333.5639  0.021026469  0.020512331           12 
 1323000   0.71625122   -7.2553483     333.6683  0.021017152    0.0204974           13 
 1324000   0.71406844   -7.2683886    333.07703  0.020964062  0.020482448            9 
 1325000   0.70832851   -7.2551885    333.91972   0.02100124  0.020467495            5 
 1326000   0.70499806   -7.2629569    333.44151  0.020955349  0.020452508           13 
 1327000   0.72000267   -7.2235485    334.09421  0.020980546  0.020437615            8 
 1328000   0.71027543   -7.2167618    333.11365  0.020903216  0.020422746           10 
 1329000   0.72826556    -7.225874    333.90979  0.020937409  0.020407913           10 
 1330000   0.71710992   -7.2410697    333.70671  0.020908942  0.020393099           12 
 1331000   0.71936807   -7.2406163    333.60091  0.020886609  0.020378208           14 
 1332000   0.72561865   -7.2457803    334.30145  0.020914755  0.020363416           14 
 1333000    0.7109355   -7.2616728    334.48504  0.020910543  0.020348613            9 
 1334000   0.72212988   -7.2379357      333.159  0.020812032   0.02033385           13 
 1335000   0.71496988   -7.2618665    333.66822  0.020828229  0.020319001           21 
 1336000   0.71942728   -7.2598356    334.58824  0.020870025  0.020304204           15 
 1337000   0.71813126   -7.2590767    333.94945  0.020814601  0.020289354           10 
 1338000   0.71918373   -7.2511336    334.39962  0.020827081   0.02027453           10 
 1339000   0.72091356     -7.23474    334.68989  0.020829592  0.020259718           20 
 1340000   0.71681579   -7.2379887    333.85226  0.020761956  0.020244935           32 
 1341000    0.7168212   -7.2461561    333.61834  0.020731938  0.020230166           11 
 1342000   0.71872782   -7.2496898    333.93311  0.020736035  0.020215379           17 
 1343000   0.70922038   -7.2499074    333.30181  0.020681423  0.020200514           13 
 1344000   0.70145821   -7.2498135    333.83877  0.020699328  0.020185685           14 
 1345000   0.70466445   -7.2480558    333.37125  0.020654972  0.020170839           15 
 1346000   0.72272959   -7.2590819    333.64059  0.020656302   0.02015599            9 
 1347000   0.71889302   -7.2409496    333.32128  0.020621212  0.020141118           16 
 1348000   0.70931648   -7.2560285    334.47866  0.020677464  0.020126267            8 
 1349000    0.7112136   -7.2547534    334.11783  0.020639846  0.020111418            8 
 1350000    0.7009597   -7.2758848    333.74622  0.020601619  0.020096542            8 
 1351000   0.70650513   -7.2975927    333.81377  0.020590536  0.020081708           13 
 1352000   0.72201609   -7.2949731    333.66134  0.020565911  0.020066825           21 
 1353000   0.71255292   -7.2586878    333.74389  0.020555795  0.020052031           25 
 1354000    0.7039937   -7.2725584    333.88202  0.020549115  0.020037203            9 
 1355000   0.71964996   -7.2628443    334.63453   0.02058023  0.020022398           20 
 1356000    0.7141803   -7.2700167    334.39725   0.02055047  0.020007609           26 
 1357000   0.70865805   -7.2712969    333.42539  0.020475644  0.019992741           13 
 1358000   0.71434386   -7.2713607    334.15408  0.020505282  0.019977897            7 
 1359000   0.70307909    -7.313223    333.59763  0.020456073  0.019962981           11 
 1360000   0.70053713   -7.2631406    333.85435  0.020456761  0.019948001           32 
 1361000    0.7342653   -7.2868325     333.8116  0.020439113   0.01993318           20 
 1362000   0.72886638   -7.2769943    334.18533  0.020446973  0.019918336           14 
 1363000   0.70871843   -7.2686044    334.80084  0.020469604  0.019903559            7 
 1364000   0.71181851   -7.2448391    334.90807  0.020461148  0.019888828            9 
 1365000   0.70889103    -7.266927    334.65329  0.020430604  0.019874136           11 
 1366000   0.70536222   -7.2699727    334.70164  0.020418597  0.019859505            5 
 1367000   0.70154418     -7.28615    334.50738  0.020391818  0.019844804           13 
 1368000   0.71843015   -7.2705029    334.81758  0.020395808  0.019830111           12 
 1369000   0.71434474   -7.2540806    335.03136  0.020393922  0.019815554           11 
 1370000   0.70306056   -7.2646029    334.47296   0.02034507  0.019800951            6 
 1371000   0.71480386   -7.2696468    334.49697   0.02033169   0.01978627           12 
 1372000    0.7132027   -7.2901512    334.68203  0.020328111  0.019771608           13 
 1373000   0.70400423   -7.2928053    334.99086   0.02033205  0.019756972           13 
 1374000   0.68933474   -7.3040096    335.33823  0.020338321  0.019742296           13 
 1375000   0.72270029   -7.2794329    334.47116  0.020270979  0.019727595            8 
 1376000   0.69455281   -7.2854472    334.92858   0.02028395  0.019712928            7 
 1377000   0.69560964   -7.2917499    334.99114  0.020273005  0.019698268           21 
 1378000   0.69279184   -7.2998061    334.52838  0.020230309  0.019683593           21 
 1379000   0.70285065   -7.2915504    334.93718  0.020240342  0.019668924            7 
 1380000   0.69493962   -7.2904701    334.77697  0.020216001  0.019654312           26 
 1381000   0.69271987   -7.2606921    334.79625  0.020202525  0.019639711           17 
 1382000   0.69925382    -7.293188    334.94358  0.020196791  0.019625167           29 
 1383000   0.68161646    -7.283025    335.19424  0.020197291  0.019610643           29 
 1384000   0.69625601   -7.2809554    335.41693  0.020196106  0.019596119           29 
 1385000   0.68290844   -7.3521821    335.74886  0.020201496  0.019581562           39 
 1386000   0.70905806   -7.2944746     335.5731  0.020176353  0.019567009           25 
 1387000   0.71216784   -7.2768612    335.11294  0.020134159  0.019552447           15 
 1388000   0.71294698    -7.310387    334.63056  0.020090692  0.019537998           34 
 1389000   0.69421662   -7.3099266    335.34035  0.020118812  0.019523511           18 
 1390000   0.69246539   -7.2957648    335.62895   0.02012164  0.019509038           24 
 1391000   0.68334967   -7.3001723    335.45495   0.02009675   0.01949456           29 
 1392000   0.69686346   -7.3161238    335.30577  0.020073382  0.019480145           15 
 1393000   0.70743805   -7.2697918    336.56283  0.020134172  0.019465779           22 
 1394000   0.68889901   -7.2913461    335.88787   0.02007938  0.019451452           10 
 1395000   0.69290582   -7.3151494    336.00156  0.020071778  0.019437146            7 
 1396000   0.69173575   -7.3003027    336.06326  0.020061083  0.019422817           13 
 1397000   0.69717075   -7.3126082    335.84875  0.020033927  0.019408524           13 
 1398000   0.69444529   -7.2949836    336.55401  0.020061636  0.019394257            9 
 1399000    0.7075125   -7.3184353    335.52237  0.019985845  0.019379959            9 
 1400000   0.69651981   -7.2778583    336.35224  0.020020967   0.01936568           21 
 1401000   0.70045322    -7.306254    336.15598  0.019995003  0.019351422           19 
 1402000   0.69457867   -7.3005178    335.87592  0.019964094  0.019337147           28 
 1403000   0.69828935   -7.2991069     336.2046  0.019969387   0.01932285           11 
 1404000   0.69166932    -7.290922    336.23082   0.01995672  0.019308604           16 
 1405000   0.68460527   -7.2824665    336.69439  0.019970011  0.019294392           19 
 1406000     0.692523   -7.2971684    336.13715   0.01992278   0.01928016           21 
 1407000   0.69095255   -7.2968644    336.76477  0.019945793  0.019266007           49 
 1408000    0.6885724   -7.3185111    336.13419  0.019894306  0.019251788           67 
 1409000    0.6823056   -7.3258611     336.0501  0.019875213  0.019237585           52 
 1410000   0.68796565   -7.3292036    335.23698   0.01981306  0.019223303           22 
 1411000   0.69693326   -7.3228652    336.55948  0.019877125  0.019209037           22 
 1412000   0.69262564   -7.3274229    335.69476  0.019812014   0.01919482           25 
 1413000   0.68878984   -7.3394262    335.60577  0.019792744  0.019180566           26 
 1414000   0.69928107    -7.311641    335.70064  0.019784338  0.019166279           13 
 1415000   0.70413393   -7.3195473    336.08458  0.019792967  0.019152007           17 
 1416000   0.71830561   -7.3097264    335.68909  0.019755714   0.01913781           19 
 1417000   0.68953156   -7.3357133    336.12682  0.019767515  0.019123609           32 
 1418000   0.70911361   -7.3286228     335.5267  0.019718307  0.019109406           17 
 1419000   0.66985491   -7.3464319    335.99474  0.019731897  0.019095186           19 
 1420000   0.69120042   -7.3291469    336.20264  0.019730202   0.01908098           21 
 1421000   0.68126117   -7.3192649    336.50653  0.019734138  0.019066795           11 
 1422000   0.68422305   -7.3364421    336.35652   0.01971147   0.01905264           16 
 1423000   0.68242818   -7.3440704    336.13813  0.019684828  0.019038443            5 
 1424000   0.67195159   -7.3348999    336.15295  0.019671872  0.019024347           28 
 1425000   0.67150147   -7.3309256    336.77293  0.019694324  0.019010268           10 
 1426000   0.69871728   -7.3124462    336.96554  0.019691768  0.018996194           18 
 1427000   0.68917555   -7.3405797    336.31844   0.01964018  0.018982157           10 
 1428000   0.66861682   -7.3176685    336.40197  0.019631301  0.018968086           15 
 1429000   0.68943268   -7.3256281    336.18482    0.0196049  0.018954073            6 
 1430000   0.67073308   -7.3054892    336.68105  0.019620108   0.01894002           12 
 1431000   0.67805325   -7.3317987     336.0834  0.019571594  0.018925941           30 
 1432000   0.68070635   -7.3374028    336.56175  0.019585763  0.018911857           12 
 1433000   0.69141075   -7.3448775    335.83951  0.019530094  0.018897811           17 
 1434000   0.67233696   -7.3439325    336.17605  0.019536033  0.018883712           19 
 1435000   0.67763517   -7.3207003    337.33279  0.019589593  0.018869677           28 
 1436000   0.67644304   -7.3434792    336.49089  0.019527094  0.018855674           33 
 1437000    0.6809176   -7.3494433    336.88533  0.019536379  0.018841661           28 
 1438000    0.6903982   -7.3151065    336.27126  0.019487208  0.018827706           33 
 1439000   0.67751155   -7.3319544     336.5484  0.019489715  0.018813788           29 
 1440000   0.68216526   -7.3110151    337.46642  0.019529307  0.018799873           16 
 1441000   0.68878403   -7.3418304    337.00302  0.019488956  0.018785967           22 
 1442000   0.69830286   -7.3488524    336.83758  0.019465879  0.018772022           12 
 1443000   0.66215862   -7.3583196    336.61188  0.019439356   0.01875803           17 
 1444000   0.67882325     -7.35133    336.72675  0.019432523  0.018744073           29 
 1445000   0.67003038   -7.3575369    336.94808  0.019431838  0.018730095           11 
 1446000   0.67379441   -7.3474325     337.1096  0.019427709  0.018716163           24 
 1447000   0.67941565   -7.3248466    337.02998  0.019409697  0.018702213           16 
 1448000   0.68742266   -7.3570276    337.20904  0.019406598  0.018688332           15 
 1449000   0.67069866   -7.3454037    336.77596  0.019368298  0.018674441           28 
 1450000   0.67417389   -7.3638857    336.95526  0.019365245  0.018660564           23 
 1451000   0.67575342   -7.3309782    337.13279  0.019362095  0.018646639           12 
 1452000    0.6767218   -7.3405966    336.78559  0.019328833  0.018632738           10 
 1453000   0.67429377   -7.3675132     336.5642  0.019302833  0.018618854           22 
 1454000   0.67397187   -7.3411455    336.56985  0.019289881  0.018604952           16 
 1455000   0.68386516   -7.3594199    336.55065  0.019275524  0.018591014           19 
 1456000   0.65497793   -7.3484895    336.37298  0.019252117  0.018577111           10 
 1457000   0.66203282   -7.3536353    337.29864  0.019291846  0.018563225           24 
 1458000   0.67595382   -7.3512917    337.00188  0.019261653  0.018549346           14 
 1459000   0.68010392   -7.3457289     337.3828  0.019270208  0.018535489            9 
 1460000   0.66395297   -7.3586156    336.60685  0.019212719  0.018521629           23 
 1461000   0.67932699   -7.3610609    336.93921  0.019218527  0.018507749           13 
 1462000   0.65652335   -7.3633937    336.71981  0.019192876  0.018493871           17 
 1463000   0.66303821    -7.363515    337.19627  0.019206896  0.018480002           13 
 1464000   0.66346125   -7.3518517     336.8053  0.019171522  0.018466174           24 
 1465000   0.66545495   -7.3629662    337.14361   0.01917768   0.01845235           15 
 1466000   0.66132019   -7.3739737    337.06159  0.019159936  0.018438572           14 
 1467000   0.65274108   -7.3814027    336.74735  0.019129025  0.018424753           19 
 1468000   0.67640003   -7.3487104    337.56508  0.019162414  0.018411017           26 
 1469000   0.66683144   -7.3701738    337.47325   0.01914416  0.018397294           15 
 1470000   0.66641781   -7.3707552    337.38523  0.019126147  0.018383541            8 
 1471000   0.66979177   -7.3730334    337.05936  0.019094684  0.018369781            9 
 1472000   0.67089161   -7.3779124    336.95434  0.019075767   0.01835601           21 
 1473000   0.67772028   -7.3768081    337.30571  0.019082695  0.018342226           14 
 1474000   0.63892639   -7.3690088    337.62539  0.019087822  0.018328488           19 
 1475000   0.65855399   -7.3710836    337.52966  0.019069473  0.018314695           28 
 1476000   0.67511098   -7.3841759    336.51409  0.018999214  0.018300937           13 
 1477000   0.67975207   -7.3621648    337.24482   0.01902758   0.01828719           12 
 1478000   0.66592624   -7.3849784    337.34931  0.019020597  0.018273439           15 
 1479000   0.64520077   -7.3717733    336.98036  0.018986948  0.018259684           17 
 1480000   0.66111706   -7.3705567    337.22138   0.01898769  0.018245876           37 
 1481000    0.6646133   -7.3771559    336.85829  0.018954439  0.018232058            9 
 1482000   0.65677124   -7.3836847    335.94775  0.018890449  0.018218219           16 
 1483000    0.6568994   -7.3927789    336.15661  0.018889448  0.018204407           26 
 1484000   0.66843028   -7.3925182    336.25016  0.018881972  0.018190525           23 
 1485000   0.66608826   -7.3782189    336.02008  0.018856346  0.018176684           23 
 1486000   0.65504793   -7.3787202    336.44025  0.018867219  0.018162855           32 
 1487000   0.66353449   -7.3795223    335.55346  0.018804834  0.018148973           14 
 1488000   0.67014398   -7.3864197    335.64989  0.018797597  0.018135097           25 
 1489000   0.66531125   -7.3779682    335.75083  0.018790622  0.018121236           20 
 1490000   0.66439818   -7.3852153    336.89211  0.018841841  0.018107398           20 
 1491000   0.64725878   -7.3835886    336.26613  0.018794217  0.018093552           22 
 1492000   0.65980387   -7.3830615    336.38401  0.018788204  0.018079755           16 
 1493000   0.66754181    -7.370887    336.58076  0.018786602  0.018065979           21 
 1494000   0.66660986   -7.3792816    335.86112  0.018733887  0.018052184           37 
 1495000   0.65453339   -7.3892565    336.29385  0.018745477  0.018038321           39 
 1496000    0.6622774   -7.3989644    336.65515  0.018753072  0.018024455           23 
 1497000   0.65855131    -7.399943    336.35532  0.018723854  0.018010623           24 
 1498000   0.65534253    -7.392468    335.98819  0.018690932  0.017996773           28 
 1499000   0.64383034   -7.3930734    336.41484  0.018702181  0.017982886           31 
 1500000   0.64027829   -7.4180045    335.42578  0.018634766  0.017969037           42 
 1501000    0.6444289   -7.4108264    336.28794  0.018670217   0.01795515           16 
 1502000   0.65309928   -7.4159863    335.36027  0.018606318  0.017941258           22 
 1503000   0.64827212   -7.4111142      336.577  0.018661399  0.017927371           22 
 1504000   0.64976209   -7.3808683    335.89653  0.018611288  0.017913542           29 
 1505000   0.64975358   -7.3886243    335.78841  0.018592935  0.017899715           21 
 1506000   0.65627989    -7.407165    336.32214  0.018610123  0.017885896           26 
 1507000   0.64473541    -7.400959    335.60805  0.018558286  0.017872115           19 
 1508000   0.66155275   -7.4100114    335.58069  0.018544468   0.01785834           18 
 1509000   0.64069549   -7.3972699    336.30154  0.018571987  0.017844549           23 
 1510000   0.65076881   -7.3961778    335.95695  0.018540671   0.01783077           23 
 1511000   0.63883177   -7.4129618    336.39324  0.018552462  0.017816997           33 
 1512000   0.65546619   -7.3859203    336.50659  0.018546439  0.017803225           31 
 1513000   0.65025775    -7.401076    336.69001  0.018544283  0.017789487           33 
 1514000   0.65712066    -7.390227    336.73764  0.018534656  0.017775771           20 
 1515000   0.66237074   -7.4329276    336.90042  0.018531376  0.017762062           28 
 1516000   0.63874177   -7.4354447    335.72401  0.018454486  0.017748306           55 
 1517000   0.64134995   -7.4199258    335.35278  0.018421928  0.017734571           37 
 1518000   0.65153411   -7.4192658    335.53911  0.018420021  0.017720828           34 
 1519000   0.64132636      -7.4278    334.97194  0.018376779  0.017707091           27 
 1520000   0.64972459   -7.4024552    335.24374  0.018379591  0.017693373           25 
 1521000   0.65144397   -7.4067954    335.51859  0.018382566  0.017679654           27 
 1522000   0.63873813    -7.409837    335.53195  0.018371219  0.017665927           27 
 1523000   0.63510113   -7.4353928    335.74968   0.01837107  0.017652209           48 
 1524000   0.63876889   -7.4191026    334.95208  0.018315402  0.017638468           42 
 1525000   0.64661289   -7.4091296    335.97725  0.018359412  0.017624762           22 
 1526000   0.65159871    -7.406417    335.60498  0.018327052  0.017611047           23 
 1527000   0.64806407    -7.418322    335.46594  0.018307462  0.017597358           32 
 1528000   0.63983758    -7.425602    335.78456  0.018312858  0.017583704           22 
 1529000   0.63223341   -7.4058509    336.05627  0.018315689  0.017570099           31 
 1530000    0.6315056   -7.4142217    336.12535  0.018307481  0.017556487           26 
 1531000   0.64873438   -7.4254834    335.96919  0.018287023  0.017542863           18 
 1532000   0.63975195   -7.4251961    336.31018  0.018293635  0.017529273           41 
 1533000   0.64517183   -7.3952968    336.43607  0.018288545  0.017515671           23 
 1534000   0.65184211    -7.410219     335.7752  0.018240721  0.017502089           24 
 1535000   0.63751443   -7.4249527    336.31501  0.018258144  0.017488506           25 
 1536000   0.64004578   -7.4528504    336.10609  0.018234922  0.017474945           27 
 1537000   0.63635634   -7.4457751    335.22761  0.018175429  0.017461368           25 
 1538000   0.64789517   -7.4155738    336.04952  0.018208145  0.017447789           41 
 1539000   0.63718739   -7.4083855    336.34202  0.018212152  0.017434218           41 
 1540000   0.63748067   -7.4441289    335.91624  0.018177285  0.017420649           29 
 1541000   0.63495181   -7.4356939    335.65811  0.018151531  0.017407099           18 
 1542000   0.62878792   -7.4491221    335.97014  0.018156622  0.017393558           27 
 1543000   0.64472605   -7.4117864    336.83122   0.01819136  0.017380024           20 
 1544000   0.63770008   -7.4403155    336.08941  0.018139541  0.017366468           23 
 1545000   0.62252342   -7.4238702    335.31063  0.018085795  0.017352896           17 
 1546000    0.6280281   -7.4312567    336.11406  0.018117403  0.017339337           20 
 1547000   0.62774145   -7.4514922    335.75148   0.01808616  0.017325781           16 
 1548000   0.63776873   -7.4317669    335.98985  0.018087309  0.017312255           19 
 1549000   0.63247578   -7.4724306    335.05823  0.018025512  0.017298697           11 
 1550000   0.63409275   -7.4318049    335.80501  0.018054033  0.017285163           14 
 1551000   0.62848582   -7.4454889    335.93252  0.018049243  0.017271625           31 
 1552000   0.63901782   -7.4312243    336.19681  0.018051805  0.017258133           21 
 1553000    0.6260639   -7.4397046    335.65695  0.018011212  0.017244645           20 
 1554000    0.6236482     -7.41955    335.80472  0.018007546  0.017231161           17 
 1555000   0.62489352   -7.4467966    335.55122   0.01798238  0.017217707           13 
 1556000   0.62348323   -7.4490126    335.61526  0.017974253  0.017204255           35 
 1557000   0.63158969   -7.4461335    335.44726  0.017953718  0.017190848           30 
 1558000   0.63764661   -7.4496639    335.74976  0.017958374  0.017177417           17 
 1559000   0.63692117   -7.4527218    335.84701  0.017952053  0.017164015           11 
 1560000   0.64292955    -7.451197    335.87008  0.017941778  0.017150617           22 
 1561000   0.64007646   -7.4353908    335.05781  0.017886921  0.017137238           13 
 1562000   0.62697945   -7.4186616    335.47164  0.017897548  0.017123911           11 
 1563000   0.62090027   -7.4507792    335.88826   0.01790831  0.017110555           17 
 1564000   0.64080037   -7.4539319    336.34556  0.017921226  0.017097196           22 
 1565000   0.61955558    -7.453027      335.691   0.01787492  0.017083811            9 
 1566000    0.6325526   -7.4534731    335.13626  0.017833986   0.01707043           20 
 1567000    0.6173294   -7.4528963    335.90099  0.017863273  0.017057042           16 
 1568000   0.62535585    -7.463468    335.36954  0.017823636  0.017043657           10 
 1569000    0.6171783   -7.4580467    335.45042  0.017816572  0.017030291           13 
 1570000   0.61469357   -7.4673889    334.82524  0.017772041  0.017016888           13 
 1571000   0.62908607   -7.4739636    335.72619  0.017808518  0.017003528           18 
 1572000    0.6155263   -7.4685208     335.2822  0.017773654  0.016990177           17 
 1573000   0.62334842   -7.4520546    336.43645  0.017823503  0.016976867           17 
 1574000   0.63360078   -7.4502937    336.18808   0.01779903   0.01696357           22 
 1575000   0.62042422   -7.4597863    335.79155  0.017766749  0.016950275           42 
 1576000   0.61863826    -7.467666    335.51831  0.017741028   0.01693697           20 
 1577000   0.61263761   -7.4334475    336.30552  0.017771376  0.016923703           17 
 1578000   0.62835254   -7.4553905    335.25014   0.01770438  0.016910434           45 
 1579000   0.61892788   -7.4724437    335.72207  0.017718074   0.01689716           13 
 1580000   0.62404959    -7.468335    335.76483  0.017709116   0.01688389           19 
 1581000   0.61593661   -7.4812243    335.42592   0.01768005  0.016870646           17 
 1582000    0.6358247   -7.4696799    335.94444  0.017696188  0.016857425           21 
 1583000   0.62354178   -7.4580759    335.31014  0.017651618  0.016844209            8 
 1584000    0.6225051   -7.4676758    335.78743  0.017665584  0.016830996           29 
 1585000   0.61806748   -7.4681899    335.51684  0.017640212  0.016817795           48 
 1586000   0.62726742   -7.4471879    335.33215  0.017619386  0.016804643           32 
 1587000   0.62500715   -7.4828586    335.90596  0.017638414  0.016791476           22 
 1588000   0.61889901   -7.4810319    335.90439  0.017627224  0.016778345           32 
 1589000   0.61728355   -7.4661525     336.5193  0.017648379  0.016765204           28 
 1590000   0.60885546   -7.4620283    335.39518  0.017578364  0.016752039           42 
 1591000   0.61936493   -7.4623622    336.72917  0.017637187  0.016738907           52 
 1592000   0.61308228   -7.4784534    335.31672  0.017552173  0.016725758           50 
 1593000   0.62509734   -7.4748689    335.50536  0.017551023  0.016712606           52 
 1594000   0.61697628   -7.4926899    335.27187  0.017527806   0.01669948           52 
 1595000   0.60697171   -7.4773234    335.00532   0.01750289   0.01668633           36 
 1596000   0.61568354   -7.4755233    335.21027  0.017502625  0.016673201           38 
 1597000   0.62444641   -7.4621132    335.24743  0.017493604  0.016660081           28 
 1598000   0.61460138   -7.4561284    335.95255  0.017519428  0.016646962           32 
 1599000   0.62116203   -7.4847125    335.14155  0.017466205  0.016633887           26 
 1600000   0.61313223   -7.4863508    335.05251  0.017450652  0.016620843           40 
 1601000   0.61233632   -7.4752688    335.90991   0.01748438  0.016607788           55 
 1602000   0.60322227   -7.4879067    335.62763  0.017458782  0.016594754           62 
 1603000   0.61390212   -7.4807306    335.30595  0.017431168  0.016581696           29 
 1604000    0.5956214   -7.4604199    336.40389  0.017477342  0.016568665           60 
 1605000   0.62136189   -7.4793227    335.01907  0.017394552  0.016555648           35 
 1606000   0.61311734   -7.4705024    335.05552  0.017385612  0.016542624           34 
 1607000   0.62574451   -7.4669671      335.224  0.017383531  0.016529633           34 
 1608000    0.6177198   -7.5049311    335.47683  0.017385822  0.016516631           17 
 1609000   0.62593105   -7.4963694    335.50032  0.017376234   0.01650364           25 
 1610000    0.6078055   -7.4913001     335.2318  0.017351543  0.016490631           59 
 1611000    0.6146353   -7.5024697    335.13357   0.01733569  0.016477632           69 
 1612000   0.60703647   -7.4663035    335.41679  0.017339578  0.016464643           78 
 1613000   0.60971883   -7.4863304    335.25547  0.017320493  0.016451662           70 
 1614000   0.62055076   -7.5069784    335.72182  0.017333841  0.016438704           25 
 1615000   0.59586785   -7.4995132    335.58677  0.017316139  0.016425778           34 
 1616000   0.61679143   -7.5031244    336.01813  0.017327668  0.016412858           24 
 1617000   0.60424246   -7.5072846    335.74305  0.017302775   0.01639998           52 
 1618000   0.60933485   -7.5097172    335.65879  0.017287741  0.016387057           19 
 1619000   0.62036691    -7.511777    335.40178  0.017263835  0.016374179           39 
 1620000   0.61071727   -7.5107761    334.93316  0.017229072  0.016361264           28 
 1621000   0.60845406   -7.5012608    334.89883  0.017216679  0.016348352           42 
 1622000   0.62094566    -7.511451    335.53713  0.017238858  0.016335459           23 
 1623000   0.60263119   -7.4926019    335.29828  0.017215973  0.016322569           26 
 1624000   0.61118215   -7.5280883    334.86527  0.017183152  0.016309676           42 
 1625000    0.6021318   -7.4914646    335.69411  0.017215083  0.016296812           59 
 1626000   0.59541975   -7.5359717    335.35804  0.017187271  0.016283963           35 
 1627000   0.60033243   -7.5025496    335.02685  0.017159744  0.016271118           36 
 1628000   0.59511139   -7.5366078    335.80161  0.017188862   0.01625828           36 
 1629000   0.60228482   -7.5070084    335.90138  0.017183414  0.016245476           34 
 1630000   0.58926254   -7.5074141    335.41071  0.017147787    0.0162327           38 
 1631000   0.60767781   -7.5095921    335.31461  0.017132363   0.01621993           47 
 1632000   0.60833007   -7.5070242    335.28827   0.01712052  0.016207157           32 
 1633000   0.61318179   -7.5160054    335.72611   0.01713238    0.0161944           31 
 1634000   0.60915055   -7.5109687    335.71295  0.017121224   0.01618164           52 
 1635000   0.60706417   -7.4876442    335.74766  0.017112521  0.016168885           46 
 1636000   0.60743828   -7.5039615    335.67092  0.017098152  0.016156175           41 
 1637000   0.59540277   -7.5228159    335.26402  0.017066993  0.016143453           30 
 1638000   0.60159565   -7.5254839    335.21987  0.017054328  0.016130739           26 
 1639000   0.60368721   -7.5075969    335.27244  0.017046595  0.016118003           31 
 1640000   0.59059863   -7.5026088    335.24641  0.017034879  0.016105266           36 
 1641000   0.59264871   -7.5239048    335.47323  0.017036016  0.016092517           33 
 1642000    0.5872316   -7.5413296    335.18286  0.017010904  0.016079792           30 
 1643000   0.60093193   -7.5139554    335.80076  0.017031891  0.016067049           46 
 1644000   0.59751957   -7.5245496     335.4346   0.01700297  0.016054328           28 
 1645000   0.58597573   -7.5390335    335.35031  0.016988364  0.016041636           38 
 1646000    0.5817867   -7.5045272    335.17597  0.016969217  0.016028969           25 
 1647000   0.59874195    -7.518847    335.43336  0.016971937  0.016016326           49 
 1648000   0.59910176   -7.5143992     335.0483  0.016942167  0.016003678           21 
 1649000   0.59091816   -7.5425786    335.75245  0.016967478  0.015991023           31 
 1650000   0.60957781   -7.5257574    335.53767  0.016946347  0.015978423           22 
 1651000   0.59057309     -7.51887    335.49582  0.016933971   0.01596583           34 
 1652000    0.5884904   -7.5296091    335.49642   0.01692375  0.015953246           38 
 1653000   0.60508244   -7.5461899    335.32259  0.016904748  0.015940681           27 
 1654000   0.59004013   -7.5419474    335.48467  0.016902694  0.015928102           41 
 1655000   0.60620608   -7.5248022    335.17952  0.016877116  0.015915551           25 
 1656000   0.59781219   -7.5354628     335.3439  0.016875196  0.015902985           20 
 1657000   0.59971488   -7.5316004    335.74597  0.016885233  0.015890443           24 
 1658000   0.59847743    -7.535834    334.94919  0.016835002   0.01587789           26 
 1659000   0.58523783     -7.52897    335.07432  0.016831139  0.015865358           38 
 1660000   0.58997285    -7.540028    334.67733  0.016801071   0.01585282           21 
 1661000   0.59208755   -7.5310554    335.42947  0.016828691  0.015840306           19 
 1662000   0.58792219   -7.5100443    335.25287  0.016809711  0.015827815           23 
 1663000   0.58073831   -7.5458938    335.82516   0.01682828  0.015815325           20 
 1664000   0.58024937   -7.5320297      335.168  0.016785256  0.015802862           18 
 1665000   0.58553726   -7.5366363    335.37849   0.01678571   0.01579038           36 
 1666000   0.59844565   -7.5091186    334.70613  0.016742003  0.015777934           45 
 1667000   0.59058992   -7.5506751    335.05854  0.016749577  0.015765485           24 
 1668000   0.58504091   -7.5365322    335.07425   0.01674032  0.015753029           36 
 1669000   0.60024601   -7.5458219    335.14317  0.016733731  0.015740584           18 
 1670000   0.58915114   -7.5418727    334.50877  0.016692055  0.015728156           31 
 1671000   0.58752492   -7.5273978     335.1957  0.016716323  0.015715749           22 
 1672000   0.58695081   -7.5518833    335.07018  0.016700069  0.015703338           56 
 1673000   0.58332372   -7.5404821    335.55677  0.016714324  0.015690948           28 
 1674000   0.58397555   -7.5334983    335.24628  0.016688883  0.015678554           62 
 1675000   0.57779097   -7.5367126    335.42336  0.016687729  0.015666181           54 
 1676000   0.59259299   -7.5575325    334.46923  0.016630332  0.015653804           28 
 1677000   0.58112212   -7.5493282    335.01356  0.016647464  0.015641443           66 
 1678000   0.57533379   -7.5496184    335.37279  0.016655383  0.015629074           56 
 1679000    0.5853134   -7.5497933    334.82059  0.016618056  0.015616726           33 
 1680000   0.58344164     -7.53662    335.15362  0.016624684  0.015604346           47 
 1681000   0.59024992   -7.5511145    335.23502  0.016618829   0.01559198           29 
 1682000   0.57885044   -7.5567099      335.322  0.016613258   0.01557964           54 
 1683000   0.58979178   -7.5495109    335.11199  0.016592988  0.015567301           46 
 1684000   0.59219648   -7.5569677    334.80599  0.016567993  0.015554969           51 
 1685000   0.56678977   -7.5328742    335.07142  0.016571287   0.01554265           58 
 1686000   0.58199446   -7.5681706     334.3646  0.016526522  0.015530329           47 
 1687000   0.57040005   -7.5577832    335.29285  0.016562579  0.015518024           50 
 1688000   0.57003017   -7.5269754    334.72736   0.01652485  0.015505742           40 
 1689000   0.57452998   -7.5424824    335.18681  0.016537735  0.015493447           40 
 1690000   0.58330101   -7.5402744    334.84746  0.016511216  0.015481178           57 
 1691000    0.5752004   -7.5336236     335.0076  0.016509344  0.015468922           51 
 1692000   0.58470157   -7.5419929    333.97059  0.016448512  0.015456676           52 
 1693000    0.5812585   -7.5676453    334.80582  0.016479908  0.015444443           59 
 1694000   0.58297644   -7.5808399    334.79403    0.0164696  0.015432216           41 
 1695000   0.57791364   -7.5799929    334.49678   0.01644527  0.015419997           39 
 1696000   0.56999842   -7.5594368    335.55917  0.016487774  0.015407792           38 
 1697000   0.58683598   -7.5664082    334.93939  0.016447623  0.015395597           58 
 1698000   0.58368398   -7.5469636    335.18919  0.016450196  0.015383416           45 
 1699000   0.57201862   -7.5809399    335.05902  0.016434129  0.015371238           63 
 1700000   0.58287216   -7.5610906    335.19054  0.016430909  0.015359067           45 
 1701000   0.55566051   -7.5538003    335.93619  0.016457779  0.015346907           40 
 1702000   0.56185582   -7.5656055    335.04259  0.016404357  0.015334769           43 
 1703000   0.56434408   -7.5551817    335.28726  0.016406697  0.015322645           35 
 1704000   0.56922216   -7.5772066    334.82876  0.016374646  0.015310541           43 
 1705000   0.57509624   -7.5959921    334.95932  0.016371423  0.015298445           49 
 1706000   0.56767521   -7.5564962      335.706    0.0163983  0.015286367           39 
 1707000   0.57354851    -7.565488     334.6349  0.016336404    0.0152743           48 
 1708000   0.57418186   -7.5839398    335.16499  0.016352703  0.015262237           51 
 1709000   0.56590955   -7.5672208    335.38081  0.016353657  0.015250189           81 
 1710000   0.57220239   -7.5343004    335.24911  0.016337676  0.015238168           41 
 1711000   0.57714532   -7.5711019    335.58598  0.016344535  0.015226157           50 
 1712000   0.57066126   -7.5632618     334.7248  0.016293069  0.015214158           47 
 1713000   0.57963063   -7.5826765    334.85706  0.016289991  0.015202147           70 
 1714000    0.5829476   -7.5719631    334.42446  0.016259455  0.015190159           48 
 1715000   0.57241801    -7.587726     334.9346  0.016274762  0.015178164           69 
 1716000   0.58596229   -7.5705894    334.59325  0.016248701  0.015166185           45 
 1717000   0.55616638   -7.5758889    334.96426  0.016257244  0.015154202           78 
 1718000   0.56080287    -7.569057    334.69046    0.0162345  0.015142242           39 
 1719000   0.56853281   -7.5688957    334.58674  0.016220028  0.015130301           77 
 1720000   0.56705402   -7.5747675    334.30507  0.016196951  0.015118369           65 
 1721000   0.56814718   -7.6087989    334.35461  0.016189938  0.015106422           57 
 1722000   0.55942361   -7.5797259    334.13642  0.016169978   0.01509448           64 
 1723000   0.56804849   -7.5820144    334.78681  0.016192049  0.015082533           55 
 1724000   0.57595915   -7.5771689     334.5583  0.016171612   0.01507063           56 
 1725000   0.56551609    -7.584591    334.85757  0.016176694  0.015058728           91 
 1726000   0.56028106   -7.5792883    334.95828  0.016172184  0.015046844           54 
 1727000   0.56461624   -7.5746347    334.86043  0.016158098  0.015034985           45 
 1728000   0.56271501   -7.5772849    334.75356  0.016143594  0.015023146           70 
 1729000   0.55442117   -7.5877951    334.98996  0.016145651  0.015011312           48 
 1730000   0.56058009   -7.5955474    334.91831  0.016132867  0.014999481           39 
 1731000   0.55147014   -7.5950768     334.6339  0.016109855  0.014987666           38 
 1732000   0.56379731   -7.5799401    334.31418   0.01608517  0.014975851           80 
 1733000   0.54481712   -7.5776619    334.60254  0.016089755  0.014964037           66 
 1734000   0.56997096   -7.5982968    334.76715  0.016088387  0.014952219           61 
 1735000   0.55636945   -7.5948122     334.8981  0.016085404   0.01494043           67 
 1736000   0.54864153   -7.5914554    334.51037  0.016057525   0.01492862           47 
 1737000   0.57318585   -7.6021587     335.0884  0.016076012   0.01491683           44 
 1738000   0.55664306   -7.6132566    334.99774  0.016062416   0.01490505           45 
 1739000   0.55823019   -7.5906396    334.53352  0.016030933  0.014893267           60 
 1740000   0.56149879   -7.5873587    334.82409  0.016035637    0.0148815           33 
 1741000   0.55678603   -7.6020844     334.9542  0.016032653  0.014869737           54 
 1742000   0.55543637   -7.6044803    334.60855  0.016006915  0.014857975           57 
 1743000   0.54051615   -7.5869081    334.84962  0.016009257  0.014846248           57 
 1744000   0.54907775   -7.5876978    334.78649  0.015997061  0.014834517           66 
 1745000    0.5527344   -7.6096605    334.58626  0.015978332  0.014822793           49 
 1746000   0.55681746   -7.6250342    334.93342   0.01598575  0.014811089           84 
 1747000    0.5607696   -7.5939517    334.36702  0.015949581   0.01479939           63 
 1748000   0.56117065   -7.6108179    334.22863  0.015933859  0.014787691           62 
 1749000   0.55730733   -7.5984708    333.95123  0.015911532  0.014776005           66 
 1750000   0.54881737   -7.5834448    334.22111  0.015915291  0.014764331          100 
 1751000     0.569178    -7.616637    334.62726  0.015925531  0.014752663           64 
 1752000    0.5546031   -7.6055266    333.91509  0.015882567  0.014741003           41 
 1753000    0.5557385   -7.6072625    334.48972  0.015900823  0.014729352           77 
 1754000   0.54967788   -7.6173467    334.62372  0.015898124  0.014717686           56 
 1755000    0.5534715   -7.6215099    334.25885   0.01587174  0.014706043           96 
 1756000    0.5510561   -7.6240115    333.96286  0.015848655  0.014694415           48 
 1757000    0.5519189   -7.6115526    334.50394  0.015865298  0.014682798           72 
 1758000   0.55146887   -7.6046751    334.55069  0.015858489  0.014671194           59 
 1759000   0.55361921   -7.6074274    334.53883  0.015848912  0.014659596           53 
 1760000   0.55668948   -7.6125165    334.11768  0.015819966  0.014648011           65 
 1761000   0.54467664    -7.606761    334.80027  0.015843284  0.014636438           47 
 1762000   0.56061549   -7.6158804    334.55328  0.015822611  0.014624884           49 
 1763000   0.54871859   -7.6125404    333.87574   0.01578161  0.014613328           59 
 1764000   0.56435817   -7.6126271    334.26065  0.015790847   0.01460177           78 
 1765000   0.55981048   -7.6100245    333.71391  0.015756086  0.014590221           59 
 1766000   0.53171608   -7.6111769    334.18626  0.015769453    0.0145787           61 
 1767000   0.53872374   -7.6132099    333.31629    0.0157195    0.0145672           43 
 1768000   0.55704489   -7.6108597    334.39748   0.01576157  0.014555698           74 
 1769000   0.55121926    -7.613399    334.61977  0.015763132  0.014544195           74 
 1770000   0.55592822   -7.6268158    334.25424  0.015737017  0.014532703           85 
 1771000   0.55186641   -7.6292815    334.46843  0.015738209   0.01452122          107 
 1772000   0.53879267   -7.6263643     334.5003  0.015730827  0.014509744           88 
 1773000   0.55103201   -7.6181803    334.38798  0.015716675   0.01449828           47 
 1774000   0.54380694   -7.6298596    334.02084  0.015690569  0.014486846           73 
 1775000   0.53868105   -7.6109386    334.41173  0.015700081   0.01447543           76 
 1776000   0.53995375   -7.6171277    334.87019  0.015712753  0.014464028           57 
 1777000    0.5442531   -7.6353406    334.40396  0.015682047  0.014452626           53 
 1778000   0.54192368   -7.6487871    334.03699  0.015656027  0.014441236           59 
 1779000   0.53752171   -7.6104933    334.40486  0.015664458  0.014429829           71 
 1780000   0.53302036   -7.6274026    334.25898  0.015648829  0.014418454           53 
 1781000   0.53605341   -7.6479947    334.07469  0.015631419  0.014407076           70 
 1782000   0.55309823   -7.6178113    334.60599  0.015647493  0.014395716           73 
 1783000   0.53466753   -7.6214842    333.88978  0.015605243  0.014384352           77 
 1784000   0.53933588   -7.6279261     333.9995  0.015601621  0.014372993           53 
 1785000   0.53356103   -7.6292503    334.10679  0.015597889  0.014361647           93 
 1786000    0.5331414   -7.6093633    334.09679   0.01558869  0.014350299           53 
 1787000    0.5508968   -7.6310768    334.62623  0.015604655  0.014338958           51 
 1788000   0.53565776    -7.626931    334.25838  0.015578783  0.014327636           63 
 1789000   0.53476385   -7.6477892    334.84606   0.01559745  0.014316318           55 
 1790000   0.53514459    -7.630909    334.02391  0.015550461  0.014304995           58 
 1791000    0.5444823   -7.6260191    333.75465  0.015529251  0.014293683           58 
 1792000   0.53870726   -7.6219344     333.9578  0.015530031  0.014282367           56 
 1793000   0.53943401   -7.6346785     333.8085  0.015514431  0.014271072           72 
 1794000   0.53768792   -7.6347155    333.90076  0.015510069  0.014259779           86 
 1795000   0.53170801   -7.6329822    334.21596  0.015516061  0.014248497           59 
 1796000   0.52611002   -7.6491382    334.14173  0.015503978  0.014237224           52 
 1797000   0.53402366   -7.6315377    333.79466  0.015479255  0.014225961           69 
 1798000   0.53309508   -7.6322818     333.9239  0.015476636  0.014214744           52 
 1799000   0.54523263   -7.6317825    333.25943  0.015437254  0.014203511           54 
 1800000   0.52584342     -7.63303    333.76945  0.015452289  0.014192284           49 
 1801000   0.53241464   -7.6312504    333.79588  0.015444932  0.014181073           54 
 1802000   0.54536389   -7.6584905    334.47472  0.015467754  0.014169885          108 
 1803000   0.53419227    -7.641049    334.20046  0.015446499  0.014158697           60 
 1804000   0.54688884   -7.6388224    333.94931  0.015426335  0.014147514           65 
 1805000   0.52928088   -7.6298015    334.15875  0.015427459  0.014136345           64 
 1806000   0.53116008   -7.6400807    333.96994  0.015410204  0.014125177           74 
 1807000   0.52242933   -7.6526521     333.9804  0.015402158  0.014114008           98 
 1808000   0.53555682   -7.6533248    333.94001  0.015391778  0.014102857           83 
 1809000   0.53669015    -7.640174    333.69684  0.015372067  0.014091715           48 
 1810000    0.5363832   -7.6337005    334.07489   0.01538098  0.014080585           84 
 1811000   0.51644521   -7.6457564    334.00595  0.015369315  0.014069453           58 
 1812000   0.53582402   -7.6627959    334.10833  0.015365541  0.014058336          185 
 1813000   0.53190716   -7.6406883    333.47394  0.015327907  0.014047237           88 
 1814000   0.52468784   -7.6592415    333.85549  0.015336985  0.014036144           83 
 1815000   0.52180304   -7.6470011    333.41741  0.015308421  0.014025054           47 
 1816000   0.52918193   -7.6581549    334.13003  0.015332692  0.014013981           50 
 1817000   0.52955382   -7.6580538    333.30013  0.015286192  0.014002917           72 
 1818000   0.53205499   -7.6603593    333.30642  0.015278072  0.013991853          108 
 1819000   0.52186608   -7.6546984    333.61448  0.015283786  0.013980801           77 
 1820000   0.52376802   -7.6638612    333.62931  0.015276067  0.013969761           97 
 1821000   0.52984462   -7.6523483    333.38113  0.015256321  0.013958711           59 
 1822000   0.52328944   -7.6561841    333.71962  0.015263429  0.013947687          104 
 1823000   0.52632294   -7.6518707    333.35762  0.015238509  0.013936662           47 
 1824000   0.52095743   -7.6573241    333.26422  0.015225887  0.013925638           58 
 1825000   0.52366085   -7.6496607    333.22739  0.015215863  0.013914634           70 
 1826000   0.52925928   -7.6523906    333.36144  0.015213647   0.01390363           52 
 1827000   0.52638933   -7.6570421    333.29736  0.015202397  0.013892634          113 
 1828000   0.53095133    -7.647918    333.59073  0.015207455  0.013881659           84 
 1829000   0.51548696   -7.6629794    333.31604  0.015186625  0.013870683           88 
 1830000   0.51484161   -7.6651722    333.46235  0.015184989  0.013859715           84 
 1831000   0.52376604   -7.6620741    333.49574  0.015178215  0.013848755           77 
 1832000   0.52512624   -7.6452413    333.76479  0.015182169  0.013837808           53 
 1833000   0.52959233   -7.6618067    333.67567  0.015169834   0.01382687           98 
 1834000   0.51506559   -7.6652853    334.41018  0.015194937  0.013815943           63 
 1835000   0.52248542    -7.657958    333.28148  0.015135399  0.013805025          137 
 1836000   0.51339403   -7.6685158    333.51375  0.015137697  0.013794103           80 
 1837000   0.52436486   -7.6453488    333.61107  0.015133872  0.013783185          137 
 1838000   0.52184093   -7.6789119    333.82523  0.015135348  0.013772301           91 
 1839000   0.52995557   -7.6616314    333.03297  0.015091217  0.013761417          142 
 1840000   0.51000307   -7.6670752     333.5337  0.015105693  0.013750541          137 
 1841000   0.51341733   -7.6546397    332.96908   0.01507193  0.013739674          105 
 1842000   0.53094291   -7.6672105    333.16999  0.015072837  0.013728813          116 
 1843000    0.5077575   -7.6816724    333.65366  0.015086528  0.013717956           53 
 1844000   0.52328708   -7.6841042    333.36863  0.015065466  0.013707113           46 
 1845000   0.51741325   -7.6717812    332.83521  0.015033207  0.013696264           73 
 1846000   0.50964228   -7.6873258    333.50837  0.015055452  0.013685418           70 
 1847000   0.50774082   -7.6653631    333.28451    0.0150372  0.013674604           52 
 1848000   0.51782873   -7.6730418    333.68971  0.015047336  0.013663783           55 
 1849000   0.51431616   -7.6711494     333.7189  0.015040513  0.013652991           74 
 1850000     0.513021    -7.673589    333.20404  0.015009191  0.013642214           77 
 1851000   0.52675774   -7.6643122    332.77162  0.014981615  0.013631438           77 
 1852000   0.51453388   -7.6753973    333.13677  0.014989955  0.013620678           95 
 1853000   0.50471842   -7.6686414    332.85624   0.01496925  0.013609918           64 
 1854000   0.51385603   -7.6805387    332.90602  0.014963413  0.013599167           64 
 1855000   0.51008403   -7.6722121     332.3945  0.014932368   0.01358843           53 
 1856000   0.51904587   -7.6812602    332.93178  0.014948445  0.013577705           65 
 1857000   0.51146187   -7.6929255    332.65308  0.014927889  0.013566982           62 
 1858000   0.50653539   -7.6778537     332.7794   0.01492552  0.013556256          116 
 1859000   0.50229317   -7.6947792    332.95954  0.014925567  0.013545537           75 
 1860000   0.51875642   -7.7010893    333.04223  0.014921247  0.013534826           47 
 1861000   0.51406977   -7.6897699    332.78035  0.014901502  0.013524143           52 
 1862000   0.52007388   -7.6718552     332.3549  0.014874458  0.013513468           86 
 1863000   0.51215418   -7.7011454    332.87667  0.014889814  0.013502796           97 
 1864000   0.50312923    -7.690904    332.90505  0.014883094  0.013492126          165 
 1865000   0.51237095   -7.6961919    332.55836  0.014859623  0.013481468           58 
 1866000   0.51141956   -7.6970893    332.77929  0.014861526  0.013470822          126 
 1867000   0.50552274   -7.6919455    332.71769  0.014850816  0.013460195          128 
 1868000   0.51092801   -7.6783641    332.96212   0.01485377  0.013449565          113 
 1869000   0.50401475    -7.683612    332.95361  0.014845444  0.013438949           66 
 1870000   0.51006744   -7.7017876     332.9604  0.014837807  0.013428345          115 
 1871000   0.49420795   -7.7128356     332.9736  0.014830465  0.013417749          114 
 1872000   0.51017097   -7.6924874    332.52858  0.014802732  0.013407165           58 
 1873000   0.50695658   -7.7007378     333.2759  0.014828079   0.01339659          144 
 1874000   0.49932991    -7.724757    332.68077  0.014793702  0.013386016          151 
 1875000   0.50538864   -7.6897883    332.88977  0.014795101  0.013375453           55 
 1876000   0.50143008   -7.6956748    332.85807  0.014785806  0.013364901          101 
 1877000   0.52118806   -7.6855832    332.71787  0.014771705  0.013354374          130 
 1878000   0.49658838   -7.7008951    332.97874  0.014775414  0.013343846           78 
 1879000   0.51380212   -7.6950852    332.59801  0.014750666   0.01333333           96 
 1880000   0.50216171   -7.7157419    333.10052  0.014765094  0.013322816          111 
 1881000   0.49278364   -7.7102315    332.74103  0.014741318  0.013312305          134 
 1882000    0.4988032   -7.7108035    332.86773  0.014739095   0.01330181          116 
 1883000   0.50267566   -7.7190164    332.91385  0.014733309  0.013291333          118 
 1884000   0.50060154    -7.711253    332.61448  0.014712247   0.01328085           54 
 1885000   0.49804095    -7.707474    332.73439  0.014709743  0.013270376          143 
 1886000   0.49975654   -7.7088575    332.53564  0.014693162  0.013259922           65 
 1887000   0.50704697   -7.6977638    332.24856  0.014672698  0.013249469           85 
 1888000   0.49725573   -7.6891117    332.76883   0.01468789  0.013239028          128 
 1889000   0.50346406   -7.7104439    332.57098  0.014671386  0.013228598          124 
 1890000   0.48956449   -7.6872878    332.98769  0.014681997  0.013218187           64 
 1891000   0.49589029   -7.7120549    332.20669  0.014639815  0.013207786          105 
 1892000   0.49790787   -7.7039806    332.90796  0.014662965  0.013197388          100 
 1893000   0.51465256   -7.7241479    333.13734  0.014665317  0.013186999           95 
 1894000   0.50225869   -7.7025798    332.63525  0.014635483  0.013176613           92 
 1895000   0.50339387   -7.6987662    332.53896  0.014623525  0.013166247           66 
 1896000   0.50241063   -7.7109748    332.38166  0.014608898  0.013155886          132 
 1897000   0.50196762   -7.7276963    333.03134  0.014629737  0.013145534           75 
 1898000   0.48859496    -7.711613    332.46183  0.014597025  0.013135185           60 
 1899000   0.49022944   -7.7057125    332.77529  0.014603093  0.013124852           97 
 1900000   0.48722346   -7.7251429    332.67522  0.014591018  0.013114519           50 
 1901000   0.49638207   -7.7035773    332.70182  0.014584509  0.013104203          102 
 1902000   0.49062131   -7.7010563    332.32891  0.014560502  0.013093881          212 
 1903000   0.50100748   -7.7107502    332.44775  0.014558055   0.01308358          123 
 1904000   0.50402387   -7.7090001    332.33794  0.014545603  0.013073285           87 
 1905000   0.48355334   -7.7017287    332.44918  0.014542834   0.01306301          104 
 1906000   0.48319207   -7.7255204    332.60902  0.014542192  0.013052744          189 
 1907000   0.49743223   -7.6979978    332.20443  0.014516887  0.013042493           52 
 1908000   0.49083292   -7.7288636    332.86552  0.014538152  0.013032244           97 
 1909000   0.49425637   -7.7154462    332.38372  0.014509504  0.013022009          122 
 1910000   0.49014979   -7.6986417    332.57559  0.014510279  0.013011777          148 
 1911000   0.49189964   -7.7266832    332.04987  0.014479761  0.013001569           59 
 1912000   0.48826896    -7.704057    332.25319  0.014481049   0.01299136           59 
 1913000   0.49020169   -7.7283991    332.10025  0.014466817  0.012981154          160 
 1914000   0.50066736   -7.7318844    332.88819  0.014493564  0.012970952          101 
 1915000   0.49673801   -7.7381778    332.68228  0.014477036  0.012960764           95 
 1916000   0.48970301   -7.7229242     332.6233  0.014466915  0.012950593           82 
 1917000   0.49359791   -7.7133725    332.85601  0.014469484  0.012940424          195 
 1918000   0.47827724   -7.7165134    332.03059  0.014426077  0.012930265          134 
 1919000   0.48099376   -7.7367719     332.5551  0.014441337  0.012920111           53 
 1920000   0.48724545   -7.7030053    332.64051  0.014437522  0.012909957          117 
 1921000   0.49816384   -7.7280913    332.03546  0.014403759  0.012899823           62 
 1922000   0.47472988   -7.7432603    332.52816  0.014417627  0.012889679          104 
 1923000   0.48509985   -7.7195061    332.13029  0.014392888  0.012879561          120 
 1924000   0.49538912   -7.7381859    332.29085  0.014392362  0.012869444           70 
 1925000   0.48833755   -7.7244443    332.41381  0.014390208  0.012859338           86 
 1926000   0.48058236   -7.7288912    332.36211    0.0143805  0.012849238           71 
 1927000   0.49423779   -7.7264045    331.94347  0.014354933  0.012839136          128 
 1928000   0.49057566   -7.7407245    332.25115  0.014360786  0.012829057          100 
 1929000    0.4888162   -7.7333267    331.90288  0.014338296  0.012819004          117 
 1930000   0.48349125   -7.7243059    332.03645  0.014336634  0.012808944          102 
 1931000   0.48184949   -7.7194343    332.17366  0.014335131  0.012798904          119 
 1932000   0.48772998   -7.7265775    332.44105  0.014339245  0.012788878          125 
 1933000   0.48033893     -7.72369    332.54814  0.014336443  0.012778861          103 
 1934000   0.48777459   -7.7164159    332.24311  0.014315887  0.012768849          109 
 1935000    0.4825267   -7.7507919    332.26213  0.014309308  0.012758848           92 
 1936000   0.47364489   -7.7443217    332.10981   0.01429536  0.012748855           93 
 1937000   0.48539928   -7.7344424    332.28548  0.014295538  0.012738858          197 
 1938000   0.47640009   -7.7293918    332.29952  0.014288765  0.012728882          112 
 1939000   0.47394629   -7.7274056    332.24578  0.014279086  0.012718919           72 
 1940000   0.48822092   -7.7376323    332.02107  0.014262073  0.012708954           93 
 1941000   0.49414948   -7.7353109    332.69176  0.014283521  0.012699003          127 
 1942000   0.46854105   -7.7419773    332.49915  0.014267901  0.012689066           98 
 1943000   0.47032588   -7.7329208    332.37319  0.014255155  0.012679123           81 
 1944000   0.46755975   -7.7379705    332.17651  0.014239391  0.012669204           77 
 1945000   0.47138253   -7.7323562    331.47648  0.014202077  0.012659283           69 
 1946000   0.47920721   -7.7575796    332.20091  0.014225801   0.01264937           98 
 1947000   0.47607003   -7.7376217     332.0242  0.014210932  0.012639462           80 
 1948000   0.47941699   -7.7578508    332.34895  0.014217528  0.012629572          104 
 1949000   0.47793984   -7.7426599    332.36442  0.014210895  0.012619685           84 
 1950000    0.4733313   -7.7305495     331.7113  0.014175697  0.012609815           57 
 1951000   0.47051878   -7.7563149    332.06773  0.014183655  0.012599953           83 
 1952000   0.48101724   -7.7410043    332.13392  0.014179214  0.012590092           91 
 1953000   0.49348175   -7.7485966     331.8507  0.014159869  0.012580243           85 
 1954000   0.47599386   -7.7473412    332.34605  0.014173748    0.0125704           78 
 1955000    0.4737439   -7.7422494    332.00161  0.014151816  0.012560579           80 
 1956000   0.47276024   -7.7291926     331.7137  0.014132315  0.012550759           79 
 1957000   0.45942894   -7.7527112    331.96982     0.014136  0.012540945           67 
 1958000   0.48222511   -7.7508966    332.27271  0.014141671  0.012531154           80 
 1959000   0.46508506   -7.7409642    331.73329  0.014111506  0.012521351          106 
 1960000   0.46411296   -7.7397105    331.56899  0.014097321  0.012511561           98 
 1961000   0.46751729    -7.755672    331.84609  0.014101907  0.012501782           63 
 1962000   0.46963316   -7.7551869    331.67175  0.014087315  0.012492008           69 
 1963000   0.47534777   -7.7409568    331.67328  0.014080204  0.012482248          109 
 1964000   0.47589725   -7.7483479    332.19472  0.014095159  0.012472498           92 
 1965000    0.4595961   -7.7633192    332.09057   0.01408357  0.012462757           69 
 1966000   0.46943763   -7.7625665    331.94457  0.014070217  0.012453029           87 
 1967000   0.45669079   -7.7489234    331.85222  0.014059152  0.012443307           65 
 1968000   0.46939043   -7.7510988    332.39362  0.014074933  0.012433596           70 
 1969000    0.4761696   -7.7419299    331.65923  0.014036704   0.01242388           52 
 1970000   0.45943511   -7.7420364    331.24477  0.014012046  0.012414178          121 
 1971000    0.4654316   -7.7497221    331.89272  0.014032332   0.01240449           50 
 1972000   0.46185938   -7.7274041    331.30856  0.014000531  0.012394816          172 
 1973000   0.46875811   -7.7525998    332.47925  0.014042881  0.012385143           66 
 1974000   0.46165967   -7.7490723    331.91866  0.014012102  0.012375483          111 
 1975000   0.46185855   -7.7506289     332.0768  0.014011679  0.012365835           63 
 1976000   0.47115966   -7.7503162    331.72753  0.013989859  0.012356192           77 
 1977000   0.46979751   -7.7682378    331.86667  0.013988647  0.012346558          121 
 1978000    0.4698106   -7.7621073    331.53563  0.013967628  0.012336931          122 
 1979000   0.45922673   -7.7601198    331.43211  0.013956212  0.012327307           66 
 1980000   0.45627789   -7.7554062    331.47284  0.013950877  0.012317695           96 
 1981000   0.47137537   -7.7434942    330.97627  0.013922946  0.012308098          100 
 1982000   0.46414645   -7.7519524    331.61306  0.013942695  0.012298509          140 
 1983000   0.45296834   -7.7653033    331.41261   0.01392724  0.012288933          100 
 1984000   0.47182884   -7.7729798    331.83585  0.013937998  0.012279364           93 
 1985000    0.4569419   -7.7565829     331.6423  0.013922851  0.012269802          111 
 1986000   0.46256366   -7.7536945     331.5893  0.013913616  0.012260247          109 
 1987000   0.46970389   -7.7694118    331.77979  0.013914603  0.012250693          113 
 1988000   0.45777295   -7.7756986    331.49867   0.01389582  0.012241156           62 
 1989000   0.46062841   -7.7702695    331.79428  0.013901219  0.012231631           81 
 1990000     0.466978   -7.7654953    331.67313  0.013889159   0.01222211          125 
 1991000   0.45431942   -7.7529165     331.2252  0.013863436    0.0122126           74 
 1992000   0.45771159   -7.7539961    331.54156  0.013869711  0.012203105           89 
 1993000   0.45470259   -7.7642337     332.0439  0.013883756   0.01219362          111 
 1994000   0.45424609   -7.7628581    331.00818  0.013833508  0.012184138          128 
 1995000   0.44776438   -7.7601962     331.7989  0.013859603  0.012174664          125 
 1996000    0.4557257     -7.76694    331.75695  0.013850908  0.012165199          133 
 1997000   0.45530671   -7.7655778    331.44465   0.01383094   0.01215574          118 
 1998000   0.45643415   -7.7878074    331.42332  0.013823128  0.012146298           72 
 1999000   0.45785693   -7.7749385    331.09412   0.01380249  0.012136858          121 
 2000000   0.45038432   -7.7677165    331.74521  0.013822717  0.012127423          112 
 2001000   0.45430354   -7.7597735    331.98184  0.013825664  0.012118002           45 
 2002000   0.44846674   -7.7703984    331.63375  0.013804269  0.012108596          111 
 2003000     0.454776   -7.7670993    331.18344  0.013778642  0.012099191          106 
 2004000   0.45619993   -7.7747946    331.58996  0.013788671  0.012089796           79 
 2005000   0.45729245   -7.7714881    331.18082  0.013764789  0.012080401           82 
 2006000   0.45315301   -7.7768897    331.21887  0.013759508  0.012071013           91 
 2007000   0.43919235   -7.7758741    331.58175  0.013767719  0.012061638           76 
 2008000   0.44814577   -7.7733528      331.599  0.013761579  0.012052267           46 
 2009000   0.44525606   -7.7761886    331.68837  0.013758436  0.012042912           55 
 2010000   0.44111963   -7.7797816     331.1651  0.013729897  0.012033562           74 
 2011000   0.44688948   -7.7716605    330.93932  0.013713713  0.012024217           90 
 2012000   0.46227873   -7.7771112    331.07484   0.01371251   0.01201488          101 
Loop time of 4354.33 on 48 procs for 2000000 steps with 4000 atoms

Performance: 79369.182 tau/day, 459.312 timesteps/s
99.4% CPU use with 48 MPI tasks x no OpenMP threads

MPI task timing breakdown:
Section |  min time  |  avg time  |  max time  |%varavg| %total
---------------------------------------------------------------
Pair    | 272.3      | 289.39     | 304.43     |  41.3 |  6.65
Neigh   | 27.165     | 27.959     | 28.521     |   5.8 |  0.64
Comm    | 244.81     | 259.51     | 278.33     |  41.6 |  5.96
Output  | 3.8829     | 3.8849     | 3.9164     |   0.2 |  0.09
Modify  | 3700.5     | 3723.7     | 3739.7     |  17.9 | 85.52
Other   |            | 49.93      |            |       |  1.15

Nlocal:        83.3333 ave          90 max          79 min
Histogram: 7 8 7 5 4 7 3 3 2 2
Nghost:        1817.85 ave        1834 max        1786 min
Histogram: 1 0 0 3 5 5 10 15 5 4
Neighs:        11197.6 ave       12710 max       10171 min
Histogram: 5 5 5 8 7 12 2 0 3 1
FullNghs:      22395.4 ave       24714 max       20872 min
Histogram: 3 6 12 4 9 5 4 2 2 1

Total # of neighbors = 1074979
Ave neighs/atom = 268.74475
Neighbor list builds = 107796
Dangerous builds = 0

#clear
#
#next RN
#
#jump SELF
Total wall time: 1:12:37
