
units lj                  # Use reduced LJ style units
atom_style atomic         # Uncharged point particles
atom_modify map hash      # Needed for indexing of clusters etc
                          # Used to be able to find where atoms are in relation to each other.

lattice fcc 1.0 spacing 1 1 1
Lattice spacing in x,y,z = 1.5874011 1.5874011 1.5874011
region box block 0 10 0 10 0 10 units lattice
create_box 2 box
Created orthogonal box = (0.0000000 0.0000000 0.0000000) to (15.874011 15.874011 15.874011)
  3 by 4 by 4 MPI processor grid
create_atoms 1 box
Created 4000 atoms
  using lattice units in orthogonal box = (0.0000000 0.0000000 0.0000000) to (15.874011 15.874011 15.874011)
  create_atoms CPU = 0.009 seconds
set type 1 type/fraction 2 0.19 78393
Setting atom values ...
  784 settings made for type/fraction
mass 1 1.0
mass 2 1.0
pair_style lj/cut  3.5
pair_modify tail  yes
pair_coeff 1  1  1.0  1.0   # Intearaction between 1 and 1 set with epsilon = 1 and sigma = 1
pair_coeff 1  2  1.5  0.8
pair_coeff 2  2  0.5  0.88

write_data data.0
System init for write_data ...
Neighbor list info ...
  update every 1 steps, delay 10 steps, check yes
  max neighbors/atom: 2000, page size: 100000
  master list distance cutoff = 3.8
  ghost atom cutoff = 3.8
  binsize = 1.9, bins = 9 9 9
  1 neighbor lists, perpetual/occasional/extra = 1 0 0
  (1) pair lj/cut, perpetual
      attributes: half, newton on
      pair build: half/bin/atomonly/newton
      stencil: half/bin/3d
      bin: standard
WARNING: Not all mixed pair coeffs generated from mixing. Use write_data with 'pair ij' option to store all pair coeffs. (../write_data.cpp:312)


#############################
#   M E L T   S Y S T E M   #
#############################

velocity all create 2.4 5833274 mom yes dist gaussian # Assign velocities
                                                    # Temperature 2.4, random number seed, zero linear momentum
                                                                                # Gaussian distribution

timestep 0.002   # simulation timestep
thermo 1000       # output thermodynamic data every 1000 steps bf 100

# Define a fix  in this case with index 1 applied to all
# particles in the simulation. This fix is for simulations
# in the anisotropic NPT ensemble. Note that we use the MTK
# correction.
fix 1 all npt temp 2.4 2.4 0.1 iso 5.68 5.68 0.5 mtk yes tchain 5 pchain 5 # Use NPT ensemble
                                                                         # Set temperature and pressure and damping
                                                                         # Numbers of thermostats in chain and in barostat
run 10000          # run for 10000 steps
Per MPI rank memory allocation (min/avg/max) = 3.642 | 3.644 | 3.648 Mbytes
Step Temp E_pair E_mol TotEng Press Volume 
       0          2.4   -7.1181064            0   -3.5190064   -3.5570023         4000 
    1000    2.4044492   -4.8463061            0    -1.240534    5.8188188    4478.3757 
    2000    2.3840459   -4.8293251            0   -1.2541502     5.553298    4515.2935 
    3000     2.391328   -4.8453433            0   -1.2592481    5.4118226    4530.5583 
    4000    2.4185907   -4.7785837            0   -1.1516045    5.6943024    4537.8531 
    5000    2.4499513   -4.7931146            0   -1.1191063    5.9319495    4492.4219 
    6000    2.4554508   -4.8013598            0   -1.1191044    5.9754582    4489.9704 
    7000    2.4032076   -4.7892496            0   -1.1853395    5.4583246    4542.4027 
    8000    2.3628808   -4.8392873            0   -1.2958522    5.5005321    4514.9999 
    9000     2.377356   -4.8342319            0   -1.2690895     5.461694      4519.61 
   10000    2.4096767   -4.7807115            0      -1.1671     5.680848    4530.9417 
Loop time of 2.27068 on 48 procs for 10000 steps with 4000 atoms

Performance: 761005.001 tau/day, 4403.964 timesteps/s
99.6% CPU use with 48 MPI tasks x no OpenMP threads

MPI task timing breakdown:
Section |  min time  |  avg time  |  max time  |%varavg| %total
---------------------------------------------------------------
Pair    | 0.95006    | 1.0256     | 1.0965     |   3.2 | 45.17
Neigh   | 0.19584    | 0.20381    | 0.22147    |   1.0 |  8.98
Comm    | 0.70779    | 0.78439    | 0.85898    |   3.9 | 34.54
Output  | 0.00026726 | 0.00027039 | 0.00033255 |   0.0 |  0.01
Modify  | 0.19851    | 0.24156    | 0.27677    |   4.3 | 10.64
Other   |            | 0.01501    |            |       |  0.66

Nlocal:        83.3333 ave          96 max          75 min
Histogram: 4 8 5 6 9 8 3 4 0 1
Nghost:        1513.48 ave        1542 max        1478 min
Histogram: 1 4 1 7 6 7 10 6 1 5
Neighs:        8414.06 ave        9878 max        7430 min
Histogram: 5 7 4 5 11 7 5 2 1 1

Total # of neighbors = 403875
Ave neighs/atom = 100.96875
Neighbor list builds = 907
Dangerous builds = 194

# Equilibrate just above the melting temperature to avoid step fn in T

fix 1 all npt temp 1.25 1.25 0.1 iso 5.68 5.68 0.5 mtk yes tchain 5 pchain 5
run 2000
Per MPI rank memory allocation (min/avg/max) = 3.642 | 3.645 | 3.649 Mbytes
Step Temp E_pair E_mol TotEng Press Volume 
   10000    2.4096767   -4.7807115            0      -1.1671     5.680848    4530.9417 
   11000     1.252405    -6.492816            0   -4.6146782     5.472482    3702.3012 
   12000    1.2718553   -6.5072757            0   -4.5999697    5.8572908    3674.5292 
Loop time of 0.514885 on 48 procs for 2000 steps with 4000 atoms

Performance: 671218.006 tau/day, 3884.363 timesteps/s
99.6% CPU use with 48 MPI tasks x no OpenMP threads

MPI task timing breakdown:
Section |  min time  |  avg time  |  max time  |%varavg| %total
---------------------------------------------------------------
Pair    | 0.21787    | 0.24377    | 0.27804    |   2.3 | 47.34
Neigh   | 0.031752   | 0.034223   | 0.038123   |   0.7 |  6.65
Comm    | 0.14704    | 0.17774    | 0.21113    |   3.1 | 34.52
Output  | 5.1138e-05 | 5.219e-05  | 6.6957e-05 |   0.0 |  0.01
Modify  | 0.045805   | 0.054524   | 0.070721   |   3.0 | 10.59
Other   |            | 0.004585   |            |       |  0.89

Nlocal:        83.3333 ave          91 max          75 min
Histogram: 1 1 3 8 4 15 10 1 4 1
Nghost:        1738.96 ave        1759 max        1720 min
Histogram: 2 3 6 7 8 10 1 6 3 2
Neighs:        10382.8 ave       11820 max        8900 min
Histogram: 1 1 1 10 11 10 7 5 1 1

Total # of neighbors = 498372
Ave neighs/atom = 124.59300
Neighbor list builds = 142
Dangerous builds = 10

#############################
# L I N E A R  Q U E N C H  #
#############################

# Define solid atoms. This closely follows ten Wolde  Ruiz-Montero and Frenkel  Faraday Discuss  1996  104  93-110
# Compute components of the per-atom q6 vector
compute q6 all orientorder/atom degrees 1 6 components 6 nnn NULL cutoff 1.3 # compute the Q6 parameter.
                                                                             # Use all neighbours within 1.3 unit cell.

# get number of connections
compute coord_number all coord/atom orientorder q6 0.5

# An atom is solid if it has 8 or more connections (of a possible 14)
variable is_solid atom c_coord_number>=8
group solid dynamic all var is_solid    # Must be dynamic to update
dynamic group solid defined

# do clustering
compute cluster solid cluster/atom 1.3 # Create a cluster where all atoms within are solid and max 1.3 units from another member

# define chunks one chunk per cluster
compute clus_chunks solid chunk/atom c_cluster nchunk every compress yes  # Says which atoms are in which chunk

# count the size of each chunk
compute size_chunks solid property/chunk clus_chunks count


# Find the maximum entry in the vector of chunk sizes
variable max_n equal max(c_size_chunks)


# Thermo style which includes this variable
# thermo_style custom step temp pe vol v_max_n

thermo ${N}  # Print the thermo information every 100 steps
thermo 1000  

# Reset the npt fix at a lower temperature (below freezing)
fix 1  all npt temp  ${temp} ${temp}  0.1  iso  5.68  5.68  0.5  mtk yes tchain  5  pchain  5
fix 1  all npt temp  0.45 ${temp}  0.1  iso  5.68  5.68  0.5  mtk yes tchain  5  pchain  5
fix 1  all npt temp  0.45 0.45  0.1  iso  5.68  5.68  0.5  mtk yes tchain  5  pchain  5

dump dmp2 all dcd ${N} traj.dcd
dump dmp2 all dcd 1000 traj.dcd


compute msd all msd com yes
variable twopoint equal c_msd[4]/6/(step*dt+1.0e-6)
fix 9 all vector 10 c_msd[4]
variable fit equal slope(f_9)/6/(10*dt)
thermo_style custom step temp pe c_msd[4] v_twopoint v_fit v_max_n

fix 1 all npt temp 1.25 ${temp} 0.1 iso 5.68 5.68 0.5 mtk yes tchain 5 pchain 5
fix 1 all npt temp 1.25 0.45 0.1 iso 5.68 5.68 0.5 mtk yes tchain 5 pchain 5
run 2000000 # 5000000  # Run for this many steps
Neighbor list info ...
  update every 1 steps, delay 10 steps, check yes
  max neighbors/atom: 2000, page size: 100000
  master list distance cutoff = 3.8
  ghost atom cutoff = 3.8
  binsize = 1.9, bins = 9 9 9
  4 neighbor lists, perpetual/occasional/extra = 1 3 0
  (1) pair lj/cut, perpetual
      attributes: half, newton on
      pair build: half/bin/atomonly/newton
      stencil: half/bin/3d
      bin: standard
  (2) compute orientorder/atom, occasional
      attributes: full, newton on
      pair build: full/bin/atomonly
      stencil: full/bin/3d
      bin: standard
  (3) compute coord/atom, occasional
      attributes: full, newton on
      pair build: full/bin/atomonly
      stencil: full/bin/3d
      bin: standard
  (4) compute cluster/atom, occasional
      attributes: full, newton on
      pair build: full/bin/atomonly
      stencil: full/bin/3d
      bin: standard
Per MPI rank memory allocation (min/avg/max) = 9.772 | 9.777 | 9.780 Mbytes
Step Temp PotEng c_msd[4] v_twopoint v_fit v_max_n 
   12000    1.2718553   -6.5072757 3.9352326e-30 2.7328003e-32 8.3333333e+20            2 
   13000    1.2605865   -6.4984846   0.56094885 0.0035958258  0.046801434            1 
   14000    1.2251282   -6.5193548    1.1101869 0.0066082554  0.045349433            1 
   15000    1.2465973   -6.5207667    1.7042441 0.0094680222  0.047004865            3 
   16000    1.2515821   -6.4913271    2.2179429  0.011551786  0.046832573            2 
   17000    1.2374254   -6.5165295    2.7461308  0.013461425  0.045951794            3 
   18000    1.2390094   -6.5963939    3.1931548  0.014783124  0.044821079            2 
   19000    1.2461466   -6.5686687    3.6796472  0.016138803  0.044092662            1 
   20000    1.2444575   -6.5064611    4.2534239  0.017722599  0.043632012            2 
   21000    1.2306195   -6.5176923    4.7694284  0.018926303  0.043475724            1 
   22000    1.2535852    -6.512287    5.2815504  0.020005872  0.043418232            2 
   23000    1.2390873   -6.4731801    5.7074389  0.020679126  0.043150726            2 
   24000     1.219735   -6.5232277    6.1704705  0.021425244  0.042786637            6 
   25000    1.2452198   -6.5638981    6.7282096  0.022427365  0.042538808            4 
   26000    1.2498581   -6.5516949    7.1809196  0.023015768  0.042414732            2 
   27000    1.2574477    -6.518515    7.8105412  0.024106608  0.042394887            3 
   28000    1.2288452   -6.5652394    8.1947156  0.024389034  0.042380633            4 
   29000    1.2745502   -6.5193259    8.7868545  0.025249581  0.042317186            2 
   30000    1.2403222   -6.5061487    9.3252658  0.025903516  0.042351126            3 
   31000    1.2384382   -6.5416882    9.8013782   0.02634779  0.042390211            2 
   32000    1.2666227   -6.5253533    10.277801  0.026765106  0.042381718            2 
   33000    1.2434785   -6.5372257    10.741976  0.027126201  0.042311965            3 
   34000    1.2450183   -6.5210424    11.307667  0.027714869  0.042272857            1 
   35000    1.2365954   -6.5443528    11.842882  0.028197338  0.042321861            2 
   36000    1.2204997   -6.5224716    12.449777  0.028818928  0.042420994            2 
   37000    1.2648118   -6.5414288    12.908798  0.029073868  0.042469935            1 
   38000     1.238038   -6.5077565    13.360213  0.029298713  0.042501248            2 
   39000    1.2366908   -6.5165785     13.86301  0.029621815  0.042520514            2 
   40000    1.2365004   -6.5255379    14.549897  0.030312285  0.042578277            5 
   41000    1.2443608   -6.5221131    15.127456  0.030746861  0.042686582            1 
   42000    1.2413406   -6.5687119    15.581579  0.030915831    0.0427716            1 
   43000    1.2489093   -6.5614285    16.182627   0.03136168  0.042860892            1 
   44000    1.2657312   -6.5152116    16.693465  0.031616411  0.042935789            2 
   45000      1.23433   -6.5626297    17.184282  0.031822744  0.043003565            1 
   46000     1.233744   -6.5773087    17.527546  0.031752801  0.043018271            2 
   47000    1.2554449   -6.5519003    17.975887   0.03187214   0.04297384            2 
   48000    1.2322701   -6.5348567    18.500288  0.032118555  0.042949251            2 
   49000    1.2491084   -6.5681375    18.998467  0.032310318  0.042900654            1 
   50000    1.2458825    -6.563148    19.589539  0.032649231  0.042876918            1 
   51000     1.244422    -6.542848    20.013334  0.032701527  0.042862504            1 
   52000    1.2417955   -6.5752663    20.382783  0.032664716  0.042810954            1 
   53000     1.217406   -6.5638899     20.96385  0.032962028   0.04274339            2 
   54000    1.2674106    -6.526191    21.424521  0.033062533  0.042684214            1 
   55000     1.228357   -6.5502175    21.982999  0.033307574  0.042638542            3 
   56000    1.2332141   -6.5697025    22.651173  0.033707103  0.042627674            3 
   57000    1.2224565   -6.5635618    23.063216  0.033718152   0.04262815            2 
   58000     1.256474   -6.5937208    23.578664   0.03387739  0.042620098            1 
   59000    1.2576646   -6.5279796    24.016998  0.033922313  0.042591865            2 
   60000    1.2377352    -6.566069    24.283242  0.033726724  0.042534682            1 
   61000    1.2235889    -6.522441    24.796764  0.033875361   0.04246693            2 
   62000    1.2185724   -6.5592096    25.393991  0.034131709  0.042417711            1 
   63000    1.2233843   -6.5634637    25.788327  0.034111543  0.042369556            3 
   64000    1.2222586    -6.584117    26.331416  0.034285698  0.042319449            3 
   65000    1.2411626   -6.5358619    26.968853  0.034575453  0.042291571            1 
   66000    1.2152742   -6.5570932    27.609952  0.034861051  0.042277628            3 
   67000    1.2282416   -6.5947727     27.82006  0.034602064  0.042260716            1 
   68000    1.2499885   -6.5668423    28.472581  0.034892868  0.042241213            1 
   69000    1.2111057   -6.5122267     29.05334  0.035088575  0.042235517            2 
   70000    1.2523061   -6.5404184    29.453725  0.035063958    0.0422123            1 
   71000    1.2117492   -6.5572417     29.91839   0.03511548  0.042188924            4 
   72000    1.2462497   -6.5805307    30.485781  0.035284469  0.042177854            1 
   73000    1.1992098   -6.5670462     30.90831  0.035283459  0.042166163            1 
   74000    1.2271227   -6.5636383    31.462807  0.035431089  0.042149432            2 
   75000    1.2069142   -6.5912501    32.128119  0.035697909   0.04214796            1 
   76000    1.2008515   -6.5125254    32.687491  0.035841546  0.042156897            1 
   77000    1.2177321   -6.5840741    33.113847  0.035837497  0.042160703            2 
   78000    1.2292109   -6.5765032    33.493163  0.035783294  0.042159175            1 
   79000    1.2327897   -6.5581701    34.050952  0.035918726  0.042160795            2 
   80000    1.2315468   -6.5621047    34.394931  0.035828052  0.042144186            1 
   81000    1.1992277    -6.571538    35.063399  0.036073456  0.042131689            3 
   82000    1.2398883   -6.5841877    35.353249  0.035928098  0.042104425            1 
   83000    1.2098422   -6.6001231    35.983174  0.036127684  0.042088133            4 
   84000    1.2476193   -6.5864047    36.537106  0.036247128  0.042085866            2 
   85000    1.2073714   -6.5578519    37.148001  0.036419609  0.042086237            3 
   86000    1.2282004   -6.5402999    37.638055  0.036470984  0.042092009            1 
   87000    1.2472719   -6.5853213    38.233703   0.03662232  0.042104861            1 
   88000    1.1889994   -6.5513913    38.807256  0.036749295  0.042117841            4 
   89000    1.2371926   -6.5817135    39.164739  0.036671104  0.042124297            2 
   90000    1.1952911   -6.5966423    39.631256  0.036695607  0.042128902            2 
   91000    1.1997448   -6.5945383    40.131294  0.036750269  0.042134111            2 
   92000    1.2443513   -6.6143573    40.312964  0.036515365  0.042120178            2 
   93000    1.2247144   -6.5701923    40.923396  0.036669709  0.042096521            3 
   94000     1.203986   -6.5479977    41.527955  0.036815563  0.042076055            1 
   95000    1.2084206   -6.5949019    41.824109  0.036687815  0.042055316            6 
   96000    1.2225101   -6.5215938    42.298333  0.036717303  0.042025723            2 
   97000    1.2215749   -6.5803784    42.369261  0.036399709  0.041992047            1 
   98000    1.2660722    -6.559773    42.879152  0.036461864  0.041949093            2 
   99000    1.1953403    -6.588647     43.09256  0.036273199  0.041889356            1 
  100000    1.1963803   -6.5823908     43.54509  0.036287575  0.041821688            2 
  101000     1.208354   -6.5725809     43.87181  0.036197863  0.041756902            2 
  102000    1.2051129   -6.5877458     44.37295   0.03625241  0.041690406            3 
  103000     1.227732   -6.5653301    44.992222  0.036401474  0.041632381            2 
  104000    1.2000106   -6.5682516    45.546534   0.03649562  0.041580159            2 
  105000    1.2150741   -6.5515978    45.952244  0.036470035  0.041538775            2 
  106000    1.2310367   -6.6196788    46.397864  0.036476308  0.041492752            3 
  107000    1.2033705   -6.6189677     46.85144   0.03648866  0.041445454            5 
  108000    1.2318175   -6.6131096    47.026493  0.036285874  0.041389903            2 
  109000    1.1939523   -6.5888019     47.64485  0.036425726  0.041334326            2 
  110000    1.1829287   -6.6082453    48.122358  0.036456332  0.041285571            1 
  111000    1.2168776   -6.6161479    48.646224  0.036521189  0.041241389            2 
  112000    1.2143528   -6.5956193    49.367157  0.036731516  0.041199206            2 
  113000    1.2208844   -6.5697439    49.679552  0.036636837  0.041165367            2 
  114000    1.1854699   -6.5648849    50.200722  0.036696434  0.041123906            3 
  115000    1.1958343   -6.5515684    50.569464  0.036644539  0.041082228            2 
  116000    1.2199735   -6.5879797    51.036188  0.036663928    0.0410454            1 
  117000    1.1962299   -6.6205284    51.430102  0.036631127  0.041007439            3 
  118000    1.2078481   -6.6308136    52.061202  0.036766386  0.040970927            1 
  119000    1.2115416   -6.5697584    52.343514  0.036655122  0.040931687            1 
  120000    1.1969776   -6.6280274    53.065801   0.03685125  0.040901646            2 
  121000    1.1902366   -6.5963346    53.469406   0.03682466  0.040880686            2 
  122000    1.2038517   -6.6112972     54.39143  0.037152616  0.040858502            3 
  123000    1.2004173   -6.5874476    54.769139  0.037106462  0.040844562            2 
  124000    1.2261568   -6.6385937    55.201812  0.037097992  0.040829975            1 
  125000    1.1979545   -6.5945712    55.832871  0.037221914  0.040823812            2 
  126000    1.2479423   -6.6212578    56.350677  0.037268966  0.040820544            3 
  127000    1.1966052   -6.6080735    57.012719   0.03740992  0.040819921            2 
  128000    1.2056116   -6.6293237    57.248598  0.037271222  0.040813244            1 
  129000    1.2177646   -6.5997643    58.145351  0.037561596  0.040818554            3 
  130000    1.2208619   -6.6429575    58.791434  0.037686816   0.04082719            2 
  131000    1.2025218    -6.596245    59.234013   0.03768067  0.040835481            3 
  132000    1.1928182   -6.6065701    59.742397  0.037716159  0.040842353            2 
  133000    1.2046669   -6.5597294    60.287955  0.037774408  0.040852222            2 
  134000    1.2098784    -6.603381    61.109597  0.038003481  0.040863491            1 
  135000    1.2003418   -6.6076007    61.429126  0.037919214  0.040877001            1 
  136000    1.2061295   -6.6516844    61.806233  0.037871466  0.040891039            2 
  137000    1.1869941    -6.642752    62.395034  0.037953184  0.040904961            3 
  138000    1.1846131   -6.6310744    62.738085  0.037885317  0.040917652            2 
  139000    1.1899671   -6.5721598    63.270359   0.03793187   0.04092733            2 
  140000    1.2074378   -6.6547932    63.411702  0.037745061  0.040930306            4 
  141000    1.1918296   -6.6233034    64.096772  0.037882253  0.040929509            4 
  142000    1.1966669   -6.6143711    64.430442  0.037811292   0.04093301            1 
  143000    1.1908576   -6.6138798    65.297055  0.038051897  0.040937772            4 
  144000    1.2211776   -6.5792165    65.854375  0.038110171  0.040944265            3 
  145000    1.1927837   -6.6107936    66.207643  0.038050369  0.040950567            1 
  146000    1.2309457   -6.6358581     66.67964  0.038059155  0.040957288            2 
  147000    1.1879812   -6.6551101    67.010217  0.037987651  0.040963778            2 
  148000    1.1965076   -6.6284205     68.00427  0.038290692  0.040969004            2 
  149000    1.2018949   -6.6513246    68.118232  0.038097445  0.040975796            2 
  150000    1.1625643   -6.6451384    68.408699  0.038004833  0.040979855            1 
  151000    1.1736851   -6.5982912    69.028964  0.038095455  0.040982356            1 
  152000    1.2048851   -6.6686488     69.29655  0.037991529  0.040982672            2 
  153000    1.2053173   -6.6157475    69.761124  0.037996255  0.040977524            3 
  154000    1.2151655   -6.6383161     70.36172  0.038074524  0.040973437            2 
  155000    1.2205469   -6.6772229    70.733191  0.038028597   0.04096707            3 
  156000    1.1997544   -6.6379653    71.294775  0.038084816  0.040960921            5 
  157000    1.2004181   -6.5918679    71.549773  0.037977586  0.040958698            3 
  158000    1.1979088   -6.6304831    72.075967   0.03801475  0.040951303            1 
  159000    1.1842918   -6.6256571    72.546558  0.038022305  0.040942412            1 
  160000    1.1899929   -6.6826633    72.712101  0.037870886  0.040933792            6 
  161000    1.1776265   -6.6384036    73.212256  0.037894542  0.040920968            1 
  162000    1.1906138   -6.5974272    73.937217  0.038033548  0.040907295            2 
  163000    1.1889192   -6.6453691    74.172865  0.037920688  0.040894342            1 
  164000    1.2031931   -6.6389088    74.707199  0.037960975   0.04087732            2 
  165000    1.1998286   -6.6429917    75.410404  0.038086063  0.040863012            2 
  166000    1.1960314    -6.630275    75.891581  0.038098183  0.040855271            5 
  167000    1.1876176    -6.613114     76.19898  0.038023443  0.040847311            4 
  168000    1.1850747   -6.6617089    76.907992  0.038148805  0.040839435            2 
  169000    1.1705243   -6.6243648    77.506957   0.03821842  0.040836144            2 
  170000    1.1930202   -6.6594014    77.649784   0.03806362  0.040831742            2 
  171000    1.1723743     -6.66381    78.413548   0.03821323  0.040825223            3 
  172000    1.1477044   -6.6406465    78.632105   0.03809695  0.040816713            1 
  173000    1.1805312   -6.5844948      79.8883   0.03848184  0.040809212            1 
  174000    1.1736335   -6.6875364    80.025933  0.038326596  0.040804957            1 
  175000    1.1718433   -6.6025073    80.614179  0.038387704  0.040803346            1 
  176000    1.1896172   -6.6416449    81.054859  0.038378248  0.040804664            2 
  177000    1.2079666   -6.6340334    81.313749  0.038283309  0.040804441            2 
  178000    1.1726555   -6.6236354    82.166653  0.038467534  0.040807058            1 
  179000    1.1860341    -6.624182    82.717262  0.038508967   0.04080827            2 
  180000    1.1633823   -6.6645238    83.001485  0.038426613  0.040809359            1 
  181000    1.1559045   -6.6416758    83.738619  0.038553692  0.040809362            1 
  182000    1.1944098   -6.6608734    84.042176   0.03848085  0.040810991            1 
  183000    1.1929545   -6.6113266    84.586766  0.038518564  0.040812537            5 
  184000    1.1276116   -6.6757465    84.699106  0.038360102  0.040811269            2 
  185000     1.151882   -6.6276557    85.422585  0.038478642  0.040810198            2 
  186000    1.1794701   -6.6263352    86.052149   0.03855383  0.040810983            1 
  187000     1.165982   -6.6671503    86.346223  0.038478709  0.040810511            1 
  188000    1.1672132   -6.6948942    87.232827  0.038667033  0.040812219            2 
  189000    1.1624395   -6.6388505    87.619423  0.038632902  0.040813512            2 
  190000    1.1774198   -6.6474969    87.676197  0.038454472   0.04081262            2 
  191000    1.1724218   -6.6625316    88.158413  0.038463531  0.040808642            2 
  192000     1.167708   -6.6557529    88.755259  0.038522248  0.040806768            1 
  193000    1.1432622   -6.6868117    89.185038   0.03850822  0.040804427            1 
  194000    1.1608191   -6.6550463    89.626082  0.038499176   0.04080118            2 
  195000    1.1811956   -6.7020405    89.929714  0.038431502  0.040799274            2 
  196000     1.160784   -6.6684715    90.742643  0.038581055  0.040795419            3 
  197000    1.1703274   -6.6589258    91.034107  0.038508505  0.040792223            1 
  198000    1.1690316   -6.6910626    91.143662  0.038360127  0.040788206            3 
  199000    1.1802041   -6.6315853    91.528514  0.038328523  0.040781055            1 
  200000    1.1625249   -6.6590427    92.175845  0.038406602  0.040772547            2 
  201000     1.162594    -6.631793    92.685253  0.038426722  0.040761015            1 
  202000    1.1754501   -6.6658768    92.842776  0.038301475  0.040751409            2 
  203000    1.2008546   -6.6771361    93.510853   0.03838705  0.040741429            2 
  204000    1.1924556   -6.6862675    93.927782  0.038369192  0.040731453            2 
  205000      1.16804   -6.6264388    94.506702  0.038417358  0.040723377            3 
  206000    1.1729069   -6.6758718     94.92223   0.03839896   0.04071217            4 
  207000    1.1568166   -6.6679386    95.167468  0.038312185  0.040699287            1 
  208000     1.165789   -6.6657928    95.723669  0.038350829  0.040686817            5 
  209000    1.1819863   -6.6586379    95.733041  0.038171069  0.040674092            4 
  210000    1.1644728   -6.6507857    96.226975  0.038185308  0.040657289            1 
  211000    1.1537217   -6.6988828    96.808446  0.038233983  0.040641458            2 
  212000    1.1375191   -6.7081508    97.203044  0.038208744   0.04062593            3 
  213000    1.1512712   -6.6870655    97.355372  0.038088956  0.040611082            2 
  214000    1.1677574   -6.6853051    97.617734  0.038013136  0.040592173            1 
  215000    1.1926429   -6.6638399     98.23055  0.038073856  0.040572236            3 
  216000    1.1768473   -6.6494685    98.515431  0.038007496  0.040553389            3 
  217000    1.1593283    -6.650096    99.109744  0.038060577    0.0405316            2 
  218000    1.1833293   -6.6637847    99.463735  0.038021305   0.04051117            3 
  219000    1.1696047    -6.664561    99.967932  0.038039548  0.040492696            4 
  220000    1.1801938   -6.6565905     100.2576  0.037976362  0.040474344            2 
  221000    1.1595353   -6.6891634    100.68664  0.037966305  0.040454537            2 
  222000    1.1604003   -6.6913634    101.25489  0.038008593  0.040435955            4 
  223000    1.1469193   -6.6205168    101.86995  0.038067992  0.040415169            2 
  224000    1.1556937   -6.6550046    101.53908  0.037774956  0.040392298            2 
  225000    1.1513841   -6.6972308    101.98032  0.037770488   0.04036679            2 
  226000    1.1483869   -6.6603195    102.30703   0.03772383  0.040340425            5 
  227000    1.2051246   -6.6762156    102.89451  0.037773317  0.040313109            5 
  228000    1.1825977   -6.6707384    103.13864  0.037696871  0.040286694            3 
  229000    1.1660118   -6.6932493    103.94024  0.037823959  0.040261325            1 
  230000    1.1735037   -6.6728075    104.17535  0.037744692  0.040235285            2 
  231000    1.1489015   -6.6916446    104.13813  0.037567867   0.04020836            3 
  232000    1.1378746   -6.6863925    104.91107  0.037683574  0.040181952            2 
  233000    1.1648213   -6.6643285    105.36924   0.03768571  0.040155737            6 
  234000    1.1498409   -6.6582437    105.29171  0.037497047  0.040129783            6 
  235000    1.1411352   -6.6896942    105.87037  0.037542683  0.040102698            2 
  236000    1.1519912   -6.6819169    106.85902  0.037732705  0.040075693            3 
  237000    1.1501977   -6.6978722    106.99311  0.037620643  0.040049973            2 
  238000    1.1585621    -6.656398    107.75751   0.03773022  0.040023914            2 
  239000    1.1689902   -6.6438727    107.63752  0.037530516  0.039997459            4 
  240000    1.1226619   -6.6922496     107.7958  0.037429096   0.03997083            1 
  241000    1.1641193   -6.6956999    108.56716  0.037540512  0.039943535            2 
  242000    1.1599095   -6.6962789    108.69462  0.037429278  0.039916042            3 
  243000    1.1817762   -6.6599249    108.84215   0.03732584  0.039886654            2 
  244000    1.1919947   -6.6891387    109.64448  0.037446886  0.039857475            2 
  245000    1.1673122   -6.7251797    110.12368  0.037457035  0.039830078            1 
  246000    1.1328251   -6.7147379    110.07251  0.037287436  0.039801774            3 
  247000    1.1502403   -6.6640706    110.70482  0.037349804  0.039774487            4 
  248000    1.1388321   -6.7065889    111.39626  0.037431538  0.039747922            1 
  249000    1.1404547   -6.6890044    111.90586  0.037451759  0.039722201            2 
  250000    1.1617479   -6.7469641    111.78853  0.037262842  0.039694512            1 
  251000     1.145193   -6.6922026     112.9034  0.037484527  0.039670027            3 
  252000    1.1399863   -6.7150597    113.37217  0.037490796  0.039647543            1 
  253000    1.1355372   -6.6945006    113.77254  0.037474487  0.039625495            3 
  254000    1.1752668   -6.6952351    114.26375  0.037488108  0.039602945            1 
  255000    1.1386259    -6.717964    114.67934  0.037476909  0.039580572            3 
  256000    1.1727561   -6.6831126    115.11359   0.03747187   0.03955842            2 
  257000    1.1553472   -6.6760446    115.00812  0.037291868   0.03953307            2 
  258000    1.1495517   -6.6700519    115.40771  0.037276393  0.039507408            3 
  259000    1.1292354    -6.685514    116.04715  0.037338206  0.039481725            3 
  260000    1.1677223    -6.677573    116.20554  0.037245364  0.039454862            2 
  261000    1.1672228   -6.7218282     116.3074  0.037135184  0.039427098            6 
  262000    1.1363008   -6.7223299    116.91069  0.037185335  0.039398724            1 
  263000    1.1511503   -6.7524372    117.01484  0.037076945  0.039370482            2 
  264000    1.1633442   -6.6667068     117.8469  0.037199146  0.039344559            5 
  265000    1.1408626   -6.7200823    118.29222  0.037198811  0.039318802            2 
  266000    1.1604635   -6.7447153    118.54115  0.037136953  0.039293166            3 
  267000    1.1371033   -6.6897121    118.76003  0.037066176  0.039267802            3 
  268000     1.128756   -6.7202223     118.8777  0.036964459  0.039240634            4 
  269000    1.1375403   -6.6977415    120.05623  0.037192142  0.039213693            5 
  270000    1.1507569   -6.7303776    119.99415  0.037035233  0.039188297            1 
  271000     1.159143     -6.74453    120.42836  0.037032092  0.039163433            3 
  272000    1.1056889   -6.7067761     121.3679  0.037183793  0.039138993            1 
  273000    1.1197366   -6.7201329    121.80134  0.037179896  0.039115543            3 
  274000     1.143449   -6.6937614    122.40345  0.037227327  0.039092047            3 
  275000    1.1608153   -6.7324322    122.41189  0.037094511  0.039068826            3 
  276000    1.1287376   -6.6891016    123.24148  0.037210591  0.039046103            1 
  277000    1.1622547   -6.6626775    124.06132  0.037322901  0.039024746            1 
  278000     1.115397   -6.7224228    124.07848  0.037193789  0.039003759            2 
  279000     1.127327   -6.7332681    123.92478  0.037014568   0.03898288            1 
  280000    1.1360228   -6.7198131    124.88154  0.037167124   0.03896101            1 
  281000    1.1315815   -6.7812285    124.90359  0.037041397  0.038938554            2 
  282000    1.1355256   -6.7524027    125.21898  0.037003245  0.038915586            1 
  283000    1.1609979   -6.7465708    125.41315  0.036929669   0.03889126            4 
  284000     1.132385   -6.7512747    125.58657   0.03685052  0.038867426            4 
  285000    1.1553567   -6.7570952     126.2344  0.036910643  0.038843044            3 
  286000    1.1361167   -6.7409266    126.77089  0.036937906  0.038819473            1 
  287000    1.1381101   -6.7128792    126.71735  0.036793656  0.038794394            2 
  288000     1.129093    -6.738115    127.04758  0.036761452   0.03876987            3 
  289000     1.123803     -6.66613    127.78938  0.036848147  0.038743731            1 
  290000    1.1427044    -6.723584    127.64788  0.036680424   0.03871799            2 
  291000    1.1186245   -6.7427922    128.80843   0.03688672  0.038691683            1 
  292000    1.1266377   -6.7239359    128.40524  0.036645331  0.038666693            3 
  293000    1.1086622   -6.7292469    128.46126  0.036536195  0.038640366            3 
  294000     1.140907   -6.7081801    129.61779  0.036739735  0.038614308            2 
  295000    1.1395491   -6.7284097    129.31576  0.036529875  0.038588879            2 
  296000    1.1264186   -6.7155029    129.94606  0.036583913  0.038562667            1 
  297000    1.1354594    -6.731337    130.23446  0.036541654  0.038537869            2 
  298000    1.1257948   -6.7589164    130.47968  0.036487606  0.038510914            2 
  299000    1.1311004   -6.7677584    130.98455  0.036506285  0.038483742            4 
  300000    1.1390183   -6.7572642    131.11299  0.036420275  0.038456015            2 
  301000    1.1218572   -6.7318118    131.63891  0.036444881  0.038427526            2 
  302000    1.0869308   -6.7538756    132.28927  0.036503661  0.038400254            1 
  303000    1.1335023     -6.74381    132.60078  0.036468862  0.038373973            4 
  304000    1.1197968   -6.7616016    132.55433  0.036336166  0.038346555            3 
  305000    1.1156873   -6.7769233    133.44389  0.036460079  0.038319959            4 
  306000    1.1296816   -6.7404929    133.84439  0.036449998  0.038294043            2 
  307000    1.1367944   -6.7666416     134.0789  0.036394925  0.038267679            2 
  308000     1.134273   -6.7516951    134.21946  0.036314789  0.038240565            2 
  309000    1.1493104   -6.7715215    134.58347  0.036295434  0.038214324            2 
  310000    1.1619247   -6.7263086    135.68519  0.036474514  0.038188583            3 
  311000    1.1063709   -6.7530775    136.14774  0.036481174   0.03816391            2 
  312000    1.1372762   -6.7587231    135.88363  0.036293705  0.038137498            5 
  313000    1.1462872   -6.7261333    136.26566  0.036279463  0.038109925            2 
  314000    1.1321608   -6.7495044    136.05908  0.036109097   0.03808284            3 
  315000    1.1249255   -6.7470128    136.73762  0.036173974  0.038054959            2 
  316000     1.133693    -6.783062    136.62205  0.036029023  0.038025415            3 
  317000    1.1238963   -6.7355442    137.12234  0.036046883  0.037995652            2 
  318000    1.1337434   -6.7647794    137.56398   0.03604926  0.037965234            1 
  319000    1.1125045   -6.7699801    137.44122  0.035904184  0.037934431            3 
  320000    1.1016325   -6.7336826     138.2171  0.035994037  0.037903661            2 
  321000    1.1347987   -6.7629079     138.7356  0.036016511  0.037873748            1 
  322000    1.1111031   -6.7582693    138.87883  0.035941726  0.037843861            5 
  323000     1.135605   -6.7851746    139.55856  0.036005819  0.037815117            5 
  324000    1.1484192   -6.7715972    139.71746   0.03593556  0.037785047            1 
  325000    1.1260056   -6.7534358    140.14119  0.035933638  0.037755346            2 
  326000    1.1109437   -6.8054377    139.85238  0.035749587  0.037725595            3 
  327000    1.1067948   -6.7920982    140.79368  0.035880142  0.037696797            2 
  328000    1.1157397   -6.7575389    140.93909  0.035807694  0.037666909            4 
  329000    1.1381572   -6.7554428    141.55477  0.035854806  0.037637531            2 
  330000    1.1060814   -6.7481912    141.68015  0.035777817  0.037608174            3 
  331000    1.0966068   -6.7907866    141.97264  0.035743362  0.037578402            2 
  332000    1.1266865   -6.8091686    141.85975  0.035607368   0.03754962            3 
  333000    1.1029834   -6.7432919    143.27985  0.035855817  0.037520566            1 
  334000    1.1165416   -6.7450188    143.27143  0.035746364  0.037490459            2 
  335000    1.1233904   -6.8043941    142.89529  0.035546093  0.037459897            3 
  336000    1.1251366   -6.7631805    143.07062  0.035483786  0.037429361            2 
  337000    1.1172412   -6.7541752    143.88151  0.035579009  0.037397831            2 
  338000    1.1309934   -6.7647199    143.66836  0.035421193  0.037366977            2 
  339000    1.1135308   -6.8142342    144.54269  0.035531636  0.037335792            7 
  340000    1.1251114   -6.7556064     144.2815  0.035363112  0.037304642            5 
  341000    1.1128523   -6.7971884      144.758  0.035375855  0.037272995            2 
  342000    1.1181747   -6.7703525    145.31575   0.03540832  0.037241684            2 
  343000    1.1025732   -6.7739081    145.46401  0.035341111  0.037209987            3 
  344000    1.1147557   -6.7466115     145.9031  0.035344744  0.037178084            4 
  345000    1.1207361   -6.7774238     145.7968  0.035216618  0.037145883            4 
  346000    1.1036531   -6.7716324    145.85735   0.03512942  0.037113945            1 
  347000    1.1079393   -6.7523132    146.18252  0.035106272  0.037079878            3 
  348000     1.122806    -6.748507    146.75577  0.035142666  0.037045538            3 
  349000    1.1275815   -6.7981051    146.44939  0.034968813  0.037011796            2 
  350000     1.111201   -6.7614834    147.19023  0.035045292  0.036978224            2 
  351000    1.1315209   -6.8016688    147.67378  0.035060253  0.036944242            9 
  352000    1.0975669   -6.7678217    148.33702  0.035117665   0.03691245            2 
  353000    1.1411637   -6.7806956    148.64048   0.03508982  0.036880689            3 
  354000     1.124148   -6.7815764    148.52791  0.034964196  0.036848605            2 
  355000    1.1297081   -6.7790035    148.50376  0.034860037  0.036817044            3 
  356000    1.1108764    -6.756999    149.84225  0.035075433  0.036785174            1 
  357000    1.0982188   -6.7812946    150.01407   0.03501729   0.03675421            1 
  358000    1.1255885   -6.7429471    150.99336  0.035147431  0.036724695            1 
  359000    1.1178043   -6.7600718    150.88108  0.035023464   0.03669554            3 
  360000    1.1064222   -6.7620459    151.40831  0.035048221  0.036666624            2 
  361000    1.1201782   -6.7562055    151.39533  0.034948136  0.036636985            3 
  362000    1.0963731   -6.8110709    151.44504  0.034863039  0.036606068            2 
  363000    1.1409715   -6.7661653    151.91458  0.034874788  0.036574252            4 
  364000    1.1109953   -6.7988616    152.28938  0.034864785  0.036543346            6 
  365000    1.1123279   -6.8271591    151.78991  0.034655229  0.036512475            2 
  366000    1.0980298   -6.8397278    152.49311  0.034720654  0.036479992            3 
  367000     1.101846   -6.7874385    153.39846  0.034831621  0.036449167            1 
  368000    1.1154203   -6.7619823    153.85069  0.034839377  0.036420025            2 
  369000    1.0993442   -6.8038636    153.93779  0.034764632  0.036390431            2 
  370000    1.1026859   -6.8126828    154.16059  0.034720852  0.036360342            3 
  371000    1.0964763   -6.7720153    153.81171  0.034548901  0.036329927            2 
  372000    1.1184608   -6.8194076    154.31107  0.034567893  0.036298652            2 
  373000    1.0848572   -6.8147424    154.79206  0.034582677   0.03626575            1 
  374000    1.1125274   -6.7911853    154.75657  0.034482302  0.036233447            2 
  375000    1.0953481   -6.7790181     154.8758  0.034416845  0.036200207            5 
  376000    1.0931872   -6.8282974    155.04034  0.034361777  0.036167521            2 
  377000     1.105426   -6.7791477    156.26198  0.034540668  0.036136263            1 
  378000    1.1118409    -6.748943    156.80258  0.034568469  0.036106019            4 
  379000    1.0873995   -6.8016488    156.85259  0.034488256  0.036076451            2 
  380000    1.0717033   -6.7971859    157.18545  0.034470494  0.036046261            2 
  381000    1.1249753   -6.7976165     157.3209  0.034409646  0.036015729            2 
  382000    1.0983098   -6.8251298    157.76094  0.034415564  0.035984951            3 
  383000    1.1147612   -6.7899414    158.19942   0.03442111  0.035954041            2 
  384000    1.0790028   -6.8415788    158.10452  0.034310877  0.035923144            2 
  385000     1.097136   -6.8402286    158.63106  0.034335726  0.035892465            6 
  386000    1.1072398   -6.8345849    158.46071  0.034209997   0.03586162            4 
  387000     1.103837   -6.8309674    158.93228  0.034223143   0.03583094            2 
  388000    1.0925091   -6.8052465    160.11143  0.034388195  0.035800491            7 
  389000    1.0969813   -6.8270249    159.78735  0.034230367  0.035770812            4 
  390000    1.1249894   -6.8367373    159.94425  0.034176122  0.035741044            2 
  391000    1.1270125   -6.8162255    161.33915  0.034386008  0.035712833            3 
  392000    1.0903365   -6.8375157    161.38087  0.034307159  0.035685494            2 
  393000    1.1187234   -6.8512164    161.22385  0.034186568  0.035657045            4 
  394000     1.118461   -6.8166541    161.64595  0.034189076  0.035629318            3 
  395000    1.0901459   -6.8292908    162.42511  0.034266901  0.035601694            3 
  396000    1.0901999   -6.8512787     163.0909  0.034320475   0.03557399            1 
  397000    1.0840994   -6.8511594    162.93482  0.034201264  0.035546378            2 
  398000    1.0987806   -6.8182365    163.79829  0.034296125  0.035519868            4 
  399000    1.0591463    -6.788635    164.15183  0.034284008  0.035493054            3 
  400000    1.0910436   -6.8358145    163.89263  0.034144297  0.035467077            3 
  401000    1.0916328   -6.8431974    164.26158  0.034135822  0.035440056            4 
  402000    1.1011498   -6.8137837    164.79741  0.034161983  0.035413006            3 
  403000    1.0745066   -6.8234926    165.43685  0.034209439  0.035386561            2 
  404000    1.0765202   -6.8615438    165.12287  0.034059997  0.035359552            3 
  405000    1.1097963   -6.8401758    165.67075  0.034088632   0.03533324            3 
  406000    1.0894686   -6.8164309    166.05595  0.034083733  0.035306368            1 
  407000    1.0768081   -6.8047747    166.22979  0.034035583  0.035279737            1 
  408000    1.1112004   -6.8423315    166.98023   0.03410544  0.035253588            3 
  409000    1.1386654   -6.8358106    167.16923   0.03406056  0.035228051            2 
  410000    1.0713316   -6.8258555     167.5729  0.034059532  0.035202302            4 
  411000    1.0948759   -6.8427451     167.0402  0.033868655  0.035176058            3 
  412000    1.0943523   -6.7927898    168.41596  0.034064717   0.03515062            1 
  413000    1.1085863   -6.8472801    168.32259  0.033963396  0.035124918            2 
  414000    1.0970949   -6.8320053    168.60537   0.03393828  0.035099046            3 
  415000      1.06834   -6.8490362    168.88908   0.03391347  0.035073495            1 
  416000    1.0907658   -6.8131899     169.5831  0.033970973   0.03504849            2 
  417000    1.0847305   -6.8079233    169.95769  0.033964366  0.035023131            2 
  418000    1.0940206   -6.8447944    169.55823  0.033803475  0.034997778            1 
  419000      1.08921   -6.8633689    169.89859  0.033790491  0.034972066            1 
  420000     1.092622    -6.825839    170.34486  0.033798583  0.034945897            3 
  421000    1.0705031   -6.8338276    170.93686  0.033835483   0.03492113            2 
  422000    1.0696444   -6.8431749    171.19613  0.033806504  0.034896369            2 
  423000    1.0863894   -6.8453044    171.93564  0.033872269  0.034872106            3 
  424000    1.0864195   -6.8426496    171.68143   0.03374242  0.034847999            4 
  425000    1.1019291   -6.8496653    172.06995  0.033739206  0.034823924            2 
  426000    1.0739402   -6.8800205    172.74712  0.033792473  0.034799723            1 
  427000    1.0773505   -6.8340831    173.70659  0.033900583  0.034775351            4 
  428000    1.0688319   -6.8371691    173.75627  0.033831049  0.034751883            1 
  429000    1.0583336   -6.8137722    173.97973  0.033795596  0.034728387            1 
  430000    1.0732699   -6.8745591    173.82238  0.033686508  0.034704705            3 
  431000    1.0809046    -6.834351     174.5009   0.03373954  0.034681792            2 
  432000     1.083306   -6.8114851     174.9671  0.033751369  0.034658428            2 
  433000    1.0603113   -6.8154399    175.69669  0.033813835  0.034634916            8 
  434000    1.0889494    -6.854697    175.36993  0.033673182  0.034612615            2 
  435000    1.0650615   -6.8323946    176.36821  0.033787014  0.034590423            2 
  436000    1.0916586   -6.8516028    176.76604  0.033785559  0.034568869            2 
  437000    1.0786226   -6.8256162    177.04889  0.033762183  0.034547498            3 
  438000    1.0627639   -6.8154942    178.20494   0.03390505   0.03452672            3 
  439000    1.0551109    -6.833402     178.1147  0.033810687  0.034505344            2 
  440000    1.0835958   -6.8607259     177.6139  0.033638997  0.034483076            7 
  441000    1.0935297   -6.8511561    178.24685  0.033682323  0.034461439            3 
  442000    1.0761617   -6.8072009    179.36765  0.033817431  0.034440341            3 
  443000    1.0700703   -6.9044787    178.34671  0.033549042  0.034418941            3 
  444000    1.0644981   -6.8546163    179.24252  0.033641613  0.034397975            6 
  445000     1.082185   -6.8985667    178.97349  0.033515636  0.034376894            4 
  446000    1.0542692   -6.8366397     180.2964  0.033687669   0.03435578            3 
  447000    1.0859147   -6.8230939    180.74597  0.033696117  0.034335097            1 
  448000      1.07157   -6.8362138    180.33113  0.033543737  0.034314316            2 
  449000    1.0899675   -6.9056189    181.02048  0.033596971  0.034294273            1 
  450000    1.0738943   -6.8464995    181.36885  0.033586825  0.034273872            2 
  451000     1.072208   -6.8588585    181.78153  0.033588605  0.034253574            1 
  452000    1.0843711   -6.8625401    181.59839   0.03348053  0.034233115            4 
  453000    1.0777981   -6.8308284    182.01414  0.033483102  0.034211651            2 
  454000    1.0776673   -6.8474544    182.55516  0.033508656  0.034190521            3 
  455000    1.0753218   -6.9066153    182.14448  0.033359796   0.03416939            5 
  456000    1.0642331   -6.8560088    182.29275  0.033313734  0.034147458            2 
  457000    1.0763996   -6.8592836    182.32143  0.033246067  0.034125504            4 
  458000    1.0653756   -6.8690699    182.76427  0.033254051  0.034103309            3 
  459000    1.0590176   -6.8348962    182.62177  0.033155731   0.03408018            1 
  460000    1.0792437   -6.8621322    183.47595  0.033238396  0.034057655            1 
  461000    1.1083448   -6.8852469    183.75769  0.033217226   0.03403451            2 
  462000    1.0714592   -6.8526814    184.24233  0.033232744  0.034011552            2 
  463000    1.0932685   -6.8358798    184.23745  0.033160088  0.033988647            2 
  464000    1.0968307   -6.8330169    184.53068  0.033141286  0.033966686            4 
  465000    1.0598763   -6.8842303    184.55753  0.033074826  0.033944253            1 
  466000    1.0472061   -6.8810912    185.10712  0.033102132  0.033921142            1 
  467000     1.071841   -6.8971692    185.57033  0.033113907  0.033897956            1 
  468000    1.0626776   -6.8948576    185.61033  0.033050273  0.033875207            2 
  469000     1.085358   -6.9069366     186.1034  0.033067413   0.03385274            3 
  470000    1.0686599   -6.8893198    186.40174  0.033049954  0.033831083            3 
  471000    1.0731585   -6.8767331     186.9515  0.033077052  0.033809909            2 
  472000    1.0793795   -6.8492072    187.52096  0.033107514   0.03378876            1 
  473000    1.0467729   -6.8435442    187.76283  0.033080133  0.033767143            4 
  474000    1.0623731   -6.8486471    188.53916  0.033146828  0.033745901            1 
  475000    1.0490236   -6.8497416    187.91923  0.032968286  0.033724887            1 
  476000     1.048635   -6.8416847    188.89201   0.03306933  0.033703556            2 
  477000    1.0483965   -6.8494257     189.0145  0.033021402  0.033682313            3 
  478000    1.0727862   -6.8831443    189.36879  0.033014085  0.033661393            2 
  479000    1.0721343   -6.8849949    189.83304   0.03302593  0.033640445            2 
  480000     1.045797   -6.9053427    189.66856   0.03292857  0.033619723            2 
  481000    1.0581519   -6.8530718    190.27727   0.03296557  0.033599466            3 
  482000    1.0281424   -6.9124289    190.23389  0.032889677  0.033578766            2 
  483000    1.0589859   -6.8460568    190.98127  0.032950529  0.033558088            1 
  484000    1.0608844   -6.8954725    192.12881  0.033080029  0.033537806            2 
  485000    1.0651102   -6.8528512    191.31635  0.032872224  0.033518082            4 
  486000     1.048627    -6.900056    191.83433  0.032893404  0.033497611            3 
  487000    1.0528826   -6.8906027    192.24077  0.032895409  0.033477911            3 
  488000    1.0619641    -6.860624    192.66239  0.032899998  0.033458075            4 
  489000    1.0854553   -6.9190278    192.43357  0.032793724   0.03343845            2 
  490000    1.0893915   -6.8938982     193.2811  0.032870936  0.033418795            2 
  491000     1.050134   -6.8483561    194.21248  0.032962064  0.033399435            3 
  492000    1.0633315   -6.8591945    194.00213  0.032859439  0.033380353            4 
  493000    1.0540176   -6.9087998    194.46037  0.032870245  0.033361444            1 
  494000    1.0495269   -6.8482941    195.38178  0.032959139  0.033342732            2 
  495000    1.0672673   -6.8564562    195.18965   0.03286021   0.03332434            2 
  496000    1.0586108   -6.9223795    195.34397  0.032819888  0.033305294            5 
  497000    1.0638311    -6.895259    195.56224  0.032790449  0.033285998            2 
  498000    1.0496089   -6.9015638    195.79151  0.032762969  0.033266318            4 
  499000    1.0653939   -6.8923508    195.73849  0.032688459  0.033246756            1 
  500000    1.0613713   -6.8995183    196.19165  0.032698609  0.033227825            2 
  501000    1.0321337   -6.9472575    197.12021  0.032787793  0.033209023            3 
  502000    1.0702183   -6.9424834    196.32054  0.032589731  0.033189602            2 
  503000    1.0517949   -6.9382022    196.90095  0.032621098  0.033170095            2 
  504000    1.0406783   -6.9173301    197.27278  0.032617853  0.033150667            1 
  505000    1.0544588   -6.9083725    198.01322  0.032675449  0.033131057            1 
  506000     1.050582   -6.9199987    197.99329   0.03260759  0.033111495            2 
  507000    1.0461204   -6.8765512    198.97203  0.032704146  0.033092938            4 
  508000    1.0543457   -6.8932782    199.79379  0.032774573   0.03307472            3 
  509000    1.0581014   -6.9281523    199.28268  0.032626502  0.033056309            2 
  510000    1.0389084   -6.9038026     199.1789  0.032545573  0.033037908            3 
  511000     1.041411   -6.9007523    199.77137  0.032578502  0.033018867            3 
  512000    1.0511792   -6.9226436    199.78129  0.032516487  0.033000204            2 
  513000    1.0369588   -6.9143287     200.0436  0.032495711  0.032981615            2 
  514000    1.0430353   -6.9042737    200.01878  0.032428467  0.032962832            3 
  515000    1.0362162   -6.8950974    200.71525  0.032478196  0.032943757            5 
  516000    1.0511407   -6.8991556    201.06589  0.032471881  0.032925236            2 
  517000    1.0419596   -6.9079219    200.97094  0.032393769   0.03290646            2 
  518000     1.039687   -6.8983527    201.59213  0.032431166  0.032887653            3 
  519000     1.041507   -6.9099771    202.12893  0.032454871  0.032868577            3 
  520000     1.031938   -6.9187247    202.43061  0.032440803  0.032849348            3 
  521000    1.0687343   -6.8868001    203.03923  0.032475884  0.032830971            5 
  522000    1.0226966   -6.9219507    203.27017  0.032450538  0.032813175            2 
  523000    1.0539188   -6.8858421    203.73277    0.0324622  0.032795341            2 
  524000    1.0345827   -6.8874718    203.97402  0.032438617  0.032777256            2 
  525000    1.0473049   -6.9073897    204.63451  0.032481669  0.032759994            4 
  526000    1.0230039    -6.891722    205.13059  0.032498509  0.032742278            4 
  527000    1.0446848   -6.9109783    204.88123  0.032397411  0.032723858            3 
  528000    1.0428667   -6.9281356    203.85031  0.032173345  0.032705719            2 
  529000    1.0501165   -6.9393878    204.28698  0.032181313  0.032686936            2 
  530000    1.0570191   -6.9391457    205.31849  0.032282782  0.032668424            3 
  531000    1.0325197   -6.9232984    205.86359  0.032307531  0.032650083            4 
  532000    1.0348408   -6.8985894    206.07153  0.032279374  0.032631624            4 
  533000    1.0681398   -6.9215692     206.3699  0.032265463   0.03261381            1 
  534000    1.0345307   -6.9263655    206.48961  0.032223722  0.032595618            4 
  535000    1.0502924   -6.9059197    207.27329  0.032285559  0.032577557            3 
  536000    1.0255824   -6.9765398    206.76677  0.032146574   0.03255959            3 
  537000    1.0541134   -6.9592742    207.90043  0.032262636   0.03254213            2 
  538000    1.0214637   -6.9046294    208.42333  0.032283662  0.032524918            2 
  539000    1.0513569   -6.9345497     208.6408   0.03225739  0.032507639            1 
  540000    1.0295482   -6.9367662    207.81099  0.032069597  0.032489838            2 
  541000    1.0475061   -6.9762119    208.12542  0.032058752  0.032471924            4 
  542000    1.0564923   -6.9422011    208.60434  0.032073238  0.032454397            4 
  543000    1.0356662   -6.9411341    209.10561    0.0320911  0.032436534            2 
  544000    1.0667216   -6.9163737    209.74617  0.032130234  0.032419585            3 
  545000    1.0336226   -6.9274075    210.40818  0.032172505  0.032402596            4 
  546000    1.0307548   -6.9262044    210.67612  0.032154474  0.032385186            2 
  547000     1.032879   -6.9186824     210.5744  0.032080195  0.032367622            3 
  548000    1.0435907   -6.9712451    210.84198  0.032062346  0.032350491            2 
  549000    1.0438623   -6.9343787    211.59873  0.032118811   0.03233401            3 
  550000    1.0084459   -6.9243626    211.82034  0.032093991  0.032317143            2 
  551000    1.0344922   -6.9400498    211.62983  0.032006932  0.032300219            4 
  552000    1.0193628   -6.9384609    212.17542  0.032031314  0.032283146            2 
  553000    1.0368426   -6.9438333    212.64223  0.032043736  0.032266417            2 
  554000    1.0134907   -6.9475064     212.4708  0.031960108  0.032249212            7 
  555000    1.0483726   -6.9821728    213.08004  0.031993999  0.032232133            5 
  556000    1.0238234   -6.9685916     212.9673  0.031919559  0.032215535            2 
  557000    1.0191152   -6.9737178    213.80863  0.031988125  0.032198511            3 
  558000    1.0233929   -6.9372945    214.14266  0.031980683  0.032181658            6 
  559000    1.0168937   -6.9627167    214.30889  0.031948255  0.032164844            3 
  560000    1.0505276   -6.9177582    214.80685  0.031965305  0.032148531            3 
  561000    1.0415201   -6.9642175    214.59694  0.031877145  0.032132199            3 
  562000     1.035922   -6.9690907    215.31205  0.031926461  0.032115805            2 
  563000     1.007816   -6.9740517    215.94276  0.031963108  0.032099888            1 
  564000    1.0239107   -6.9572485    216.33202   0.03196395  0.032084247            2 
  565000     1.028456   -6.9586584    216.32907  0.031906943  0.032068409            2 
  566000    1.0175281    -6.987515    216.97561  0.031945762  0.032052659            5 
  567000    1.0155581   -6.9144003    217.68308  0.031993397  0.032036951            2 
  568000    1.0477781    -6.957698    217.50291  0.031910638  0.032021018            4 
  569000    1.0002829   -6.9484204    217.67301  0.031879468  0.032004742            3 
  570000    1.0361304   -6.9612352    218.00375  0.031871893  0.031988886            3 
  571000    1.0293359    -6.943964    218.13534  0.031835281  0.031973008            7 
  572000    1.0069574   -6.9288335    218.01091  0.031761496  0.031956544            7 
  573000    1.0278539    -6.924939    218.72112  0.031809354  0.031939884            4 
  574000     1.021602   -6.9240038    218.51636   0.03172421  0.031923261            2 
  575000    1.0177146   -6.9566236    219.02996  0.031743472  0.031906658            4 
  576000    1.0080757   -6.9623117    218.63652  0.031631442  0.031889666            2 
  577000    1.0448926   -6.9688407     219.4286  0.031691017  0.031872902            2 
  578000    1.0238629   -6.9715105    219.86734  0.031699444  0.031855975            4 
  579000    1.0150295   -6.9689503    220.20546  0.031693359  0.031839349            2 
  580000    1.0276539   -6.9695151    219.77522    0.0315769  0.031822586            2 
  581000    1.0128127     -6.98734    220.19294  0.031582464  0.031806153            2 
  582000    1.0276042   -6.9586674    221.04769  0.031650586  0.031789666            2 
  583000    1.0086695   -6.9594518    220.83956  0.031566547  0.031773002            2 
  584000    1.0206161    -6.987804    221.15832  0.031557979  0.031756225            3 
  585000    1.0138694   -6.9753528    221.58564  0.031564905  0.031739892            4 
  586000    1.0312953   -7.0093936    220.81979  0.031402132  0.031722999            3 
  587000     1.015867   -7.0112396     221.3865  0.031429089  0.031705995            2 
  588000    1.0435905   -6.9528327    222.41356  0.031521197  0.031689475            5 
  589000    1.0462263   -6.9705463    222.18308   0.03143507  0.031672206            2 
  590000     1.010578   -6.9707685    221.81982  0.031330482  0.031654898            3 
  591000    1.0228467   -6.9036395    222.82814  0.031419648  0.031637775            1 
  592000    1.0439671   -6.9646393    223.03826  0.031396151  0.031620981            3 
  593000    1.0174527    -6.988165    223.30962   0.03138134  0.031603873            3 
  594000    1.0106076   -7.0047003     223.6517  0.031376501  0.031587327            2 
  595000    1.0037874   -7.0001022    223.99278  0.031371538  0.031570806            5 
  596000    1.0217618   -6.9726843    224.20488  0.031348557  0.031554186            6 
  597000    1.0331911   -7.0098053    223.95089  0.031260594  0.031537427            4 
  598000    1.0089075   -6.9541367    225.32416  0.031399687  0.031520942            3 
  599000    1.0251131   -6.9936325    225.33335  0.031348546  0.031504953            2 
  600000    1.0131761   -6.9742453    225.69902  0.031347087  0.031488467            3 
  601000   0.99469342   -6.9644201    226.14045  0.031356136  0.031471963            3 
  602000    1.0187706   -6.9859324    226.82677  0.031399054  0.031455925            2 
  603000    1.0134557   -6.9641459    226.80735  0.031344299   0.03143967            4 
  604000    1.0340526   -6.9806259    226.97812  0.031315966  0.031423113            3 
  605000    1.0089652   -6.9889686    226.74806  0.031232515  0.031406784           10 
  606000    1.0018999   -6.9565213    226.67798  0.031171339  0.031390186            3 
  607000    1.0128039   -7.0010492    227.25029  0.031198557  0.031373438            4 
  608000   0.98738729   -7.0053964    227.18314  0.031138039  0.031356313            2 
  609000   0.98320869    -7.007662    227.29865  0.031102717  0.031339373            4 
  610000    1.0173242   -6.9761174    227.86573  0.031129198  0.031322773            4 
  611000    1.0047517   -6.9951803    228.22711  0.031127538  0.031306522            2 
  612000   0.99582293   -7.0146117    228.99263  0.031180913  0.031289929            3 
  613000   0.99390187   -7.0057036    228.88333  0.031115188  0.031273389            5 
  614000    1.0067158    -7.010557    229.12574  0.031097413   0.03125699            1 
  615000    1.0022554   -6.9882899    228.88414  0.031014111  0.031240553            2 
  616000    1.0084549   -7.0418738     229.6682  0.031069833  0.031224036            2 
  617000   0.99784033   -7.0072442    229.70852  0.031024921  0.031207641            2 
  618000    1.0027678   -6.9910938    230.51237  0.031083113  0.031191796            2 
  619000    1.0128281   -6.9899763    230.72084  0.031060964  0.031175679            3 
  620000    1.0187655    -6.996856     231.1415  0.031067405  0.031159748            2 
  621000     1.014984   -7.0057604    231.77958  0.031103004  0.031143517            2 
  622000    1.0097285   -6.9763847    231.55843  0.031023369  0.031127492            3 
  623000    1.0032228   -7.0305089    232.13341  0.031050483  0.031112027            3 
  624000     1.014458   -6.9641718    232.34991  0.031029635  0.031096202            3 
  625000    1.0165344   -6.9707069    232.23205  0.030964274   0.03108021            4 
  626000      1.00884   -6.9941165     233.1509  0.031037127  0.031064407            4 
  627000   0.99375823   -6.9972073    232.81987  0.030943629  0.031048863            4 
  628000    1.0097816   -6.9959299    233.19136  0.030943652  0.031033076            3 
  629000   0.99234744   -7.0107284    233.30759  0.030909855  0.031017533            2 
  630000   0.99530051   -7.0188195    233.78478  0.030923913   0.03100168            3 
  631000   0.98821345   -6.9887182    233.73641  0.030868517  0.030986282            2 
  632000   0.97847349   -7.0230985    234.07511  0.030864334  0.030970629            3 
  633000   0.99368472    -7.041256    234.43079    0.0308624  0.030954715            7 
  634000    0.9874917   -6.9999745    234.32235  0.030799468  0.030938818            2 
  635000     1.009819   -6.9998385    234.92451  0.030829988  0.030922975            2 
  636000   0.97220185   -7.0103834    234.39269  0.030711831  0.030907193            7 
  637000    1.0072651   -7.0309476    235.45563  0.030802672   0.03089103            3 
  638000   0.99668099   -6.9806353    236.23931  0.030856754  0.030875175            5 
  639000   0.98288906   -6.9818042    236.50377  0.030842954  0.030859662            3 
  640000   0.98032138   -7.0232501      236.329  0.030772006  0.030844193            3 
  641000   0.98703201   -7.0245282    236.05931  0.030688938  0.030828577            3 
  642000    1.0083414   -7.0368094    237.07199  0.030772584  0.030812541            2 
  643000   0.99150401   -7.0688485    236.70103   0.03067665  0.030796577            4 
  644000    1.0295252   -7.0062639     236.7076  0.030629866   0.03078035            2 
  645000   0.99784272   -7.0030193    236.69052  0.030580171  0.030763979            2 
  646000   0.99075303   -7.0159541    236.95726  0.030567241  0.030747611            5 
  647000     1.009467   -7.0145546    236.66967  0.030482956  0.030730839            2 
  648000   0.99571851   -7.0534926    236.92344   0.03046855  0.030713475            1 
  649000   0.99869357   -7.0419255    237.09122  0.030443146  0.030696418            3 
  650000    1.0042411   -7.0285052     237.6792  0.030471693  0.030679092            4 
  651000   0.99214064   -7.0072832    238.46447  0.030525405  0.030661872            3 
  652000    1.0070693   -7.0614327    238.20351  0.030445234   0.03064514            2 
  653000   0.96225816   -7.0002439    238.86818  0.030483432  0.030628552            3 
  654000   0.97548445   -7.0363391    238.12137  0.030341663  0.030611631            2 
  655000   0.97402233   -7.0262902    238.73912  0.030373934   0.03059439            2 
  656000   0.97969447   -7.0538862    238.67336  0.030319279  0.030577376            4 
  657000   0.99868447     -7.03057     239.7833  0.030413915  0.030560603            8 
  658000   0.99092079   -7.0133971    240.02882  0.030398786  0.030544103            3 
  659000   0.98994425   -7.0245529    239.90241  0.030336673   0.03052701            2 
  660000   0.99733719   -7.0066114    239.83624  0.030282353  0.030509838            4 
  661000   0.99787647   -7.0332037     239.9633   0.03025256  0.030492287            2 
  662000   0.98809415   -7.0184703    240.08875  0.030222652  0.030474956            2 
  663000   0.97156805   -7.0636352    240.57886   0.03023867  0.030457778            2 
  664000   0.99055042   -7.0464159    240.33224  0.030162178  0.030440294            2 
  665000   0.97592836   -7.0147193    240.79755  0.030175132  0.030422698            2 
  666000   0.98347863    -7.059614    241.56426  0.030225759  0.030405177            3 
  667000    0.9908313   -7.0342708    241.41171  0.030161383  0.030387831            4 
  668000   0.98449371   -7.0318517    241.86415  0.030172674  0.030370458            3 
  669000   0.99675349   -7.0386711    241.58913  0.030093314  0.030353331            2 
  670000   0.97059747   -7.0340588    241.58526  0.030047918  0.030335802            4 
  671000   0.99826051   -7.0633033    241.94391  0.030047679  0.030318665            4 
  672000    1.0086046   -7.0396646    242.48069   0.03006953  0.030301424            1 
  673000    1.0021011   -7.0118791    242.95112    0.0300831  0.030284257            9 
  674000   0.98147883   -7.0846175     242.4447  0.029975853  0.030266933            5 
  675000   0.96849602   -7.0748968    242.99941  0.029999928  0.030249305            2 
  676000    0.9953096   -7.0483232    243.00943  0.029956784  0.030231665            2 
  677000   0.97106582   -7.0252296    243.60716   0.02998611  0.030214334            2 
  678000   0.98541252   -7.0548022    243.58656  0.029939351  0.030196736            5 
  679000   0.98098729   -7.0955335    243.13616   0.02983998   0.03017895            2 
  680000   0.98691431   -7.0311556    243.59159   0.02985191  0.030161308            1 
  681000   0.97937805   -7.0522987     244.0946  0.029869628  0.030143677            2 
  682000   0.97686558   -7.0666285    243.90038  0.029802099   0.03012576            2 
  683000   0.99159118   -7.0459264    244.94726  0.029886196  0.030107833            2 
  684000    1.0022669   -6.9983132    244.65962  0.029807458  0.030089948            5 
  685000    0.9919336   -7.0577453    244.55298  0.029750971  0.030071837            4 
  686000   0.96781775   -7.0578906    245.58161  0.029832558   0.03005392            5 
  687000   0.99548802    -7.064275    246.12889  0.029855518  0.030036502            2 
  688000   0.99432996    -7.059942    245.75837  0.029767244  0.030019212            2 
  689000   0.97957814   -7.0334699    246.37898  0.029799102  0.030001925            3 
  690000   0.99070408   -7.0746565    246.29124  0.029745319  0.029984442            8 
  691000   0.97814486   -7.0462484    246.70456  0.029752118   0.02996711            3 
  692000   0.98409983   -7.0452618    246.67554  0.029705629  0.029949854            2 
  693000   0.98233148   -7.0568582    247.13809  0.029718385  0.029932527            3 
  694000   0.98963996   -7.0489214    246.67218  0.029619618  0.029915288            3 
  695000   0.99348605   -7.0509661    248.28334  0.029770185  0.029897756            2 
  696000   0.98256083   -7.0784726     247.2838  0.029607734  0.029880424            2 
  697000   0.96372896   -7.0462355    248.03421  0.029654975  0.029863003            2 
  698000   0.99384658    -7.081611    247.26109  0.029520188  0.029845545            2 
  699000   0.97012115   -7.0517654    248.36642  0.029609731  0.029827671            2 
  700000   0.97789725   -7.0721645    248.25245  0.029553863  0.029809715            3 
  701000   0.97460067   -7.0641494    248.70122  0.029565053  0.029792033            3 
  702000   0.98067782   -7.0457055    249.00858  0.029559424  0.029774461            3 
  703000   0.98178797   -7.0403978    249.47033  0.029572111  0.029757075            3 
  704000   0.96610307   -7.1009766    249.35383  0.029516315   0.02973946            3 
  705000   0.97868232   -7.0631806    248.65353  0.029391671  0.029721604            3 
  706000   0.95853357   -7.0727271    249.25011  0.029420456  0.029703637            2 
  707000   0.95978663   -7.1258831    249.77262  0.029440431  0.029685597            2 
  708000   0.97327723   -7.1081881    250.24664  0.029454642  0.029667721            4 
  709000   0.97545868   -7.0762228    249.90658  0.029373129  0.029650016            3 
  710000   0.97203231   -7.0465148    250.07708   0.02935177  0.029632358            4 
  711000   0.98519899   -7.0707933    251.34669  0.029459293   0.02961455            1 
  712000   0.96941246   -7.0491999    251.23883  0.029405293  0.029596965            4 
  713000   0.96909032   -7.0894363    251.16811  0.029355786  0.029579425            2 
  714000   0.98067972   -7.0546244    251.70402   0.02937722  0.029561928            3 
  715000   0.94852418   -7.0641828    252.56655  0.029436661  0.029544736            3 
  716000   0.95782539   -7.0974309    251.64295  0.029288053   0.02952769            4 
  717000   0.95945163   -7.0496437    252.43585   0.02933936  0.029510739            4 
  718000   0.96487292   -7.0844917    252.84261  0.029345707  0.029493887            2 
  719000   0.96616873    -7.057661    252.99891  0.029323007  0.029476766            4 
  720000   0.98959597   -7.0703086    253.80402  0.029375466  0.029459702            4 
  721000   0.97080148   -7.1121432    253.75255  0.029328774  0.029442792            5 
  722000   0.94820496   -7.1078379    254.11108  0.029329533  0.029426212            1 
  723000   0.95695761   -7.0879049    254.18469  0.029297452  0.029409569            2 
  724000   0.96996611   -7.0971776    254.13302  0.029251038  0.029392987            3 
  725000   0.95170326   -7.0886134    253.79442  0.029171772  0.029376242            2 
  726000   0.94488433   -7.0635941    254.79112  0.029245996  0.029359429            4 
  727000   0.95277179   -7.0763815    255.05664  0.029236203  0.029342624            1 
  728000   0.93242476   -7.0738594    255.18237  0.029210437   0.02932602            2 
  729000   0.97869833   -7.1112637    255.74142  0.029234273  0.029309616            2 
  730000   0.94539149   -7.0777878    256.28608  0.029256402  0.029293089            1 
  731000   0.95102381   -7.1115503     255.6591  0.029144904  0.029276562            4 
  732000   0.97186271   -7.0830111    255.37806  0.029073094  0.029259974            3 
  733000   0.97988799   -7.1044918    256.59909  0.029172248  0.029243405            3 
  734000   0.95713771   -7.1197959    256.11538  0.029077587  0.029227049            2 
  735000   0.95624003   -7.1172943    256.81947  0.029117853   0.02921063            4 
  736000   0.95455292   -7.1066294    256.40122  0.029030935  0.029193805            4 
  737000   0.96248475    -7.124037    256.37461  0.028988536  0.029177183            4 
  738000   0.96152669   -7.0909536    256.94705  0.029013895  0.029160225            3 
  739000   0.96949574   -7.1269831    257.14873  0.028997375  0.029143434            1 
  740000   0.96173058   -7.0879504    257.52785  0.029000884   0.02912654            9 
  741000   0.96261383   -7.1056563    258.32781  0.029051711   0.02910964            3 
  742000   0.96215726   -7.0881501    257.67751  0.028939523  0.029092987            2 
  743000   0.95243299   -7.1029862    258.49741  0.028992531  0.029076287            2 
  744000   0.95539072    -7.085201    260.01183  0.029123189  0.029059875            2 
  745000   0.96892624   -7.1255366     259.1699  0.028989921  0.029043616            3 
  746000   0.97448721   -7.0801802    260.35179  0.029083086  0.029027626            5 
  747000   0.96809675     -7.06982    260.44476  0.029054525  0.029011656            3 
  748000   0.96793878   -7.1301153    259.56708  0.028917901   0.02899551            7 
  749000   0.95135494   -7.0745485    259.87891  0.028913986  0.028979245            2 
  750000   0.95004535   -7.1052226    260.03415  0.028892684  0.028962982            1 
  751000   0.96016894   -7.0943618    260.45963  0.028901424  0.028946814            2 
  752000   0.95738712   -7.1294728    259.96351  0.028808013  0.028930953            1 
  753000   0.94766046   -7.1438593    260.40719  0.028818857  0.028914752            3 
  754000   0.97104757   -7.1312636     261.4317  0.028893866  0.028898829            2 
  755000   0.93193756   -7.0896314    262.83512  0.029010499  0.028883142            4 
  756000   0.92849066    -7.085187    261.98327  0.028878226  0.028867406            2 
  757000   0.95135269   -7.1140196    261.22651  0.028756771  0.028851338            4 
  758000   0.96735851   -7.0904078    262.00651  0.028804586  0.028835307            3 
  759000   0.92538026   -7.1029453    262.48399  0.028819059  0.028819381            2 
  760000   0.93060513   -7.0984184    262.48902  0.028781691  0.028803316            2 
  761000   0.94281027   -7.0996419    262.91482  0.028790497  0.028787347            2 
  762000   0.94381269   -7.1109332    263.28765  0.028793488  0.028771304            2 
  763000   0.94178624   -7.1172435    263.65619  0.028796001  0.028755215            6 
  764000     0.973426    -7.135525     263.8041  0.028774444  0.028739049            4 
  765000   0.95737759    -7.118636    264.21806  0.028781924  0.028723097            2 
  766000   0.94207442   -7.1286069    263.24123   0.02863808  0.028706877            2 
  767000   0.95646917   -7.1479875    263.82062  0.028663691  0.028690741            6 
  768000   0.95586454   -7.1209341    263.68302  0.028611439  0.028674672            2 
  769000   0.94521815   -7.1342379    264.73573   0.02868831  0.028658658            2 
  770000     0.940726   -7.1136129     264.6869  0.028645769  0.028642826            2 
  771000   0.93429508   -7.1487935    264.55643  0.028594512  0.028626782            6 
  772000   0.94449781   -7.0944371    265.24712  0.028632029  0.028610696            3 
  773000   0.94944233   -7.1582546    264.21161  0.028483356  0.028594701            4 
  774000   0.93666729   -7.1141001    265.17695   0.02855049  0.028578313            3 
  775000   0.95343519   -7.1076759    265.16618  0.028512493  0.028562021            5 
  776000   0.93004303   -7.1111729    265.04769  0.028463025  0.028545565           10 
  777000   0.94956294   -7.0969245    265.50258   0.02847518   0.02852906            3 
  778000   0.97347268   -7.1235676    265.51413  0.028439817  0.028512492            2 
  779000    0.9481038   -7.1450434    265.75532   0.02842911  0.028496267            4 
  780000   0.91828213   -7.1450527    266.16494  0.028436425  0.028479826            4 
  781000   0.94145515   -7.1206531    266.71164  0.028458348  0.028463639            3 
  782000   0.92644405    -7.144738    266.24357  0.028372077  0.028447514            3 
  783000   0.96397895   -7.1405579    266.65472    0.0283796  0.028431459            3 
  784000   0.94283669    -7.124348    267.23783  0.028405382  0.028415363            3 
  785000   0.95345321   -7.1669655    266.77093  0.028319632  0.028399306            3 
  786000   0.94776407   -7.1752021    267.35576  0.028345606  0.028383177            3 
  787000   0.95086603   -7.1225797    267.45277  0.028319861   0.02836685            2 
  788000   0.93126398   -7.1522813    267.59983  0.028299475  0.028350465            5 
  789000   0.93360809   -7.1177594    267.18456  0.028219747  0.028333807            4 
  790000   0.94836336   -7.1485998    267.44194  0.028211176  0.028317287            3 
  791000   0.92835979   -7.1306998    267.59959  0.028192119  0.028300996            2 
  792000   0.92243867   -7.1341921    268.20577  0.028220304  0.028284804            2 
  793000   0.93649621   -7.1445231    268.72724  0.028239517  0.028268702            3 
  794000   0.95960463   -7.1466361    268.63462   0.02819423  0.028252525            4 
  795000   0.91191287   -7.1464733    268.63704  0.028159019  0.028236311            5 
  796000   0.93691797   -7.1248345    269.75259  0.028240431  0.028219994            3 
  797000   0.92585954   -7.1193584    269.34787   0.02816268  0.028203952            2 
  798000   0.94286871    -7.126633    270.03053  0.028198677  0.028187866            2 
  799000   0.93542309   -7.1597617    269.56269   0.02811459  0.028171688            2 
  800000   0.91658138    -7.163509    269.58014  0.028081265  0.028155271            2 
  801000   0.93219395   -7.1426963     270.3064  0.028121764  0.028138832            2 
  802000   0.93706258   -7.1301058    270.83874  0.028142014  0.028122598            3 
  803000   0.92731756   -7.1134919    270.72543  0.028095209  0.028106454            2 
  804000   0.93855798     -7.12971    270.69972  0.028057599  0.028090321            3 
  805000   0.92738786   -7.1604758    271.28075  0.028082893  0.028074301            2 
  806000   0.93523657   -7.1519119    270.90819  0.028009532  0.028058258            2 
  807000   0.91102702   -7.1881405    271.52274  0.028038284  0.028042228            2 
  808000   0.95800988   -7.1284439    272.12774   0.02806598  0.028026288            4 
  809000   0.94536203   -7.1604082    272.46975  0.028066518  0.028010443            2 
  810000    0.9231541   -7.1645243    271.87893  0.027971083  0.027994512            2 
  811000   0.91864646   -7.1750685    272.55495  0.028006057  0.027978559            4 
  812000    0.9377796   -7.1822125     272.1003  0.027924908  0.027962483            2 
  813000   0.93636239   -7.1755887    272.25962   0.02790689  0.027946453            2 
  814000   0.92611227   -7.1567394    272.36006  0.027882889  0.027930139            3 
  815000   0.90037265   -7.1695733    271.99753  0.027811608  0.027913912            7 
  816000   0.92071492   -7.1329742    273.19385  0.027899698  0.027897558            4 
  817000   0.94499509   -7.1953864    272.64894   0.02780997  0.027881141            2 
  818000   0.94499452   -7.1699026    272.28522  0.027738918  0.027864764            6 
  819000   0.92164972   -7.1584014    272.65189  0.027742357  0.027848198            6 
  820000   0.93940126   -7.1876493    272.70263  0.027713682  0.027831524            5 
  821000   0.93055116   -7.1783899    272.69635  0.027679289  0.027814598            3 
  822000    0.9092298   -7.1619443     273.1933  0.027695996  0.027797826            3 
  823000   0.95166775   -7.1570841    274.01651  0.027745698   0.02778089            2 
  824000   0.92143437   -7.1474937    273.35328  0.027644952  0.027764113            3 
  825000   0.90538019   -7.1495347    273.71806  0.027648289  0.027747332            3 
  826000   0.92756605   -7.1771648    273.98054  0.027641298   0.02773061            5 
  827000   0.93354933   -7.1760517    273.96241  0.027606047   0.02771387            3 
  828000   0.91493355   -7.1841282    274.50579  0.027627394  0.027697107            4 
  829000   0.92240369     -7.14629    274.02115   0.02754535  0.027680181            3 
  830000   0.94837202   -7.1643829    274.48951  0.027559187  0.027663283            4 
  831000   0.91267944   -7.1954008    274.73963  0.027551106  0.027646226            3 
  832000   0.93996993     -7.18935    274.59985  0.027503991  0.027629218            8 
  833000   0.92154391   -7.1885906    274.37969  0.027448949  0.027612157            5 
  834000   0.93301768   -7.1910167    274.42546   0.02742061  0.027595098            2 
  835000   0.91188168   -7.1660377    275.31724  0.027476771  0.027577969            3 
  836000   0.92343392   -7.1879103    275.63426  0.027475504  0.027561163            2 
  837000   0.92365744    -7.186691    274.85914  0.027365506  0.027544162            4 
  838000   0.92733895   -7.1593883    276.05185  0.027451456  0.027527329            8 
  839000    0.9189218   -7.1805249    275.43267  0.027357237  0.027510394            4 
  840000   0.91560874   -7.1614876    274.89496  0.027271325  0.027493319            3 
  841000   0.91409892   -7.1777839    275.55301  0.027304104  0.027476383            3 
  842000   0.93837369   -7.1894111    276.28722   0.02734434  0.027459263            3 
  843000   0.91695375   -7.1866202    276.40679  0.027323724  0.027442149           10 
  844000   0.93680734   -7.2211072    275.57174    0.0272089  0.027424976            2 
  845000   0.93727294   -7.2114817    276.19404  0.027238071  0.027407524            2 
  846000   0.91671236   -7.1487526    276.89196  0.027274622  0.027390242            3 
  847000   0.92997591    -7.175072    276.08275  0.027162805  0.027373148            4 
  848000   0.92249159   -7.2256854     276.5914  0.027180759  0.027355933            5 
  849000   0.93554149   -7.1748076    276.95921  0.027184846   0.02733874            5 
  850000   0.92561711   -7.2321803    276.26804  0.027085102  0.027321277            3 
  851000   0.91839607    -7.210324    277.58224  0.027181967  0.027303661            2 
  852000   0.89884223   -7.1687203    277.22705  0.027115322  0.027286364            7 
  853000    0.9232842    -7.184393    277.82161  0.027141619  0.027269091            4 
  854000   0.92527479   -7.1878653    277.71748  0.027099676  0.027251718            2 
  855000   0.92000561   -7.1840066    278.13294  0.027108473  0.027234557            3 
  856000   0.92858487   -7.2036181    278.22023  0.027085302  0.027217337            3 
  857000   0.92819467   -7.2126827    278.28232  0.027059735  0.027199929            3 
  858000   0.92254047   -7.2045143    277.72329  0.026973902  0.027182388            2 
  859000   0.90521465   -7.2180275    277.23493  0.026895124  0.027164607            2 
  860000   0.91379811    -7.207846    277.87367  0.026925743  0.027146734            4 
  861000   0.93061397   -7.1846311    278.10214  0.026916584  0.027128877            4 
  862000   0.93194237   -7.1848716    278.00426  0.026875896  0.027110911            3 
  863000   0.90665047   -7.2187926    278.37275  0.026880335  0.027093087            3 
  864000   0.91554147   -7.2035809    278.66906  0.026877803  0.027075287            6 
  865000   0.91985958   -7.1944919    278.77247  0.026856692  0.027057494            2 
  866000   0.88624826   -7.1851946    279.03282  0.026850733   0.02703985            2 
  867000   0.91078675   -7.2027349    279.48663  0.026863382   0.02702233            4 
  868000   0.90157162   -7.1974687    279.69905  0.026852827  0.027004868            6 
  869000    0.9270394   -7.2117153    279.28598  0.026782315   0.02698729            4 
  870000   0.89760811   -7.2200623    279.38999  0.026761494  0.026969677            2 
  871000   0.91690737   -7.1933842    280.12699  0.026801281  0.026952172            2 
  872000   0.87295505    -7.194558    280.07273   0.02676536  0.026934446            5 
  873000   0.91693067   -7.2520204     278.9314  0.026625754  0.026916499            4 
  874000   0.90279223   -7.2420034    279.90406   0.02668803  0.026898658            4 
  875000   0.90555375   -7.2031404    280.16704  0.026682575  0.026880775            1 
  876000   0.91059477   -7.2033694    281.01045  0.026732349  0.026862993            5 
  877000   0.90377794   -7.2024202    280.17001  0.026622008  0.026844992            4 
  878000   0.89575028   -7.2216308    280.08887  0.026583985  0.026827195            3 
  879000    0.9090277   -7.2590375    280.01453  0.026546694   0.02680927            4 
  880000   0.88677752   -7.2271499    280.55298  0.026567517  0.026791372            3 
  881000   0.91933222   -7.1792079    281.14579  0.026593434  0.026773584            5 
  882000   0.91231131   -7.2053348    281.91015  0.026635501  0.026755916            3 
  883000   0.90960948   -7.1898437    280.44231   0.02646681  0.026738118            3 
  884000   0.88259179   -7.2258695    282.02549  0.026586114   0.02672051            2 
  885000   0.91547285   -7.2350435     281.1088  0.026469755  0.026702961            3 
  886000   0.90426121   -7.1933261    282.18667   0.02654126  0.026685687            3 
  887000   0.89539042   -7.2263464    282.07903  0.026501224  0.026668106            3 
  888000   0.90087827   -7.2075992    281.95542   0.02645978   0.02665088            4 
  889000   0.89228491   -7.2157419    282.03744  0.026437705  0.026633527            3 
  890000   0.89272377   -7.2185918    282.92406  0.026491017  0.026616172            5 
  891000   0.87005898   -7.2354477    283.20843  0.026487882  0.026598867            2 
  892000   0.88935465   -7.2204432    282.93455    0.0264326   0.02658151            4 
  893000   0.90450843    -7.228439    283.04783  0.026413572  0.026564105            3 
  894000      0.88786   -7.2260529     283.6962  0.026444463  0.026546855            2 
  895000   0.88970351   -7.2301448    283.98527  0.026441832  0.026529482            5 
  896000   0.90147107   -7.2302919    283.57264  0.026373943  0.026512177            2 
  897000   0.90150018   -7.1976477     284.4921  0.026429961  0.026494857            5 
  898000   0.89451009   -7.2459084    283.25245   0.02628549   0.02647751            2 
  899000   0.88001345   -7.2575546    283.65962  0.026293995  0.026459905            7 
  900000   0.90364915   -7.2729042    283.31203  0.026232595  0.026442418            2 
  901000   0.90270615   -7.2574188    283.78752  0.026247459  0.026424871            3 
  902000   0.89848652   -7.2306864    283.74941  0.026214838  0.026407465           12 
  903000   0.88274617   -7.2545703    283.47662  0.026160633  0.026389854            3 
  904000   0.89095876   -7.2389572    285.47462  0.026315876   0.02637224            4 
  905000   0.90674019   -7.2630365    284.38744  0.026186689  0.026354909            2 
  906000   0.90048641    -7.260452    284.63997  0.026181012  0.026337308            3 
  907000   0.88559124   -7.2395224    285.68803  0.026248441  0.026319905            5 
  908000   0.87115184   -7.2498369    284.70371  0.026129195   0.02630254            3 
  909000   0.90775735   -7.2852503    284.85826  0.026114618  0.026285483            3 
  910000   0.89425595   -7.2266143    286.25915  0.026214208  0.026268214            4 
  911000   0.89450744   -7.2501587    285.51724  0.026117567  0.026251117            2 
  912000   0.87548952   -7.2484364    285.53872  0.026090891  0.026233876            2 
  913000   0.88632116   -7.2773079    285.16088  0.026027828   0.02621636            8 
  914000   0.89500172   -7.2495538    285.73693  0.026051872  0.026198872            4 
  915000   0.85982861   -7.2568204    285.22787  0.025977038  0.026181396            2 
  916000   0.88163692   -7.2403474    286.49765  0.026064196  0.026163927            4 
  917000   0.89197501   -7.2761545    285.49498  0.025944655  0.026146452            2 
  918000   0.88725757   -7.2486907    286.50881  0.026008425  0.026129136            7 
  919000   0.89883198   -7.2639457    285.72144  0.025908727  0.026111847            4 
  920000   0.88193812   -7.2489568    287.20503  0.026014948  0.026094632            3 
  921000   0.88558513   -7.2743668    286.64891  0.025936383  0.026077337            6 
  922000   0.89420687   -7.2906196     286.6572  0.025909003   0.02605991            3 
  923000   0.89496119    -7.258118    287.32156  0.025940914  0.026042466            3 
  924000   0.88600042   -7.2746765    286.65448  0.025852677  0.026025179            3 
  925000   0.90809262   -7.2598681    287.07219  0.025862359  0.026007753            3 
  926000   0.88029325   -7.2625733    287.15773  0.025842128  0.025990258            2 
  927000   0.88263704   -7.2593634    286.68296  0.025771571  0.025972585            3 
  928000    0.8780515   -7.2655359    287.16932  0.025787475  0.025955024            1 
  929000   0.87860723    -7.277026    287.97768  0.025832228  0.025937599           12 
  930000   0.87348602   -7.2670708    287.25494   0.02573969  0.025920373            5 
  931000   0.87221489    -7.250601    287.78981  0.025759919  0.025903058            4 
  932000   0.91105527    -7.257554    287.77471  0.025730929  0.025885564            4 
  933000   0.87606195   -7.2523946    287.87566  0.025712367  0.025867959            7 
  934000   0.88013154   -7.2418101    287.15937  0.025620929  0.025850472            3 
  935000   0.86444318   -7.2594556    288.00359  0.025668769  0.025832937            4 
  936000   0.87481822   -7.2607846    288.48699  0.025684383  0.025815411            4 
  937000    0.9049282   -7.2520348    288.62263  0.025669035  0.025798013            4 
  938000   0.88257217   -7.2711682    289.04365  0.025679073  0.025780576            4 
  939000   0.88488053   -7.2187292    289.39033  0.025682493  0.025763206            2 
  940000   0.87494172   -7.2619054    288.75783  0.025599098  0.025745808            3 
  941000   0.85944768   -7.2439108    288.92291  0.025586513  0.025728335            2 
  942000   0.87468646   -7.2692393    289.23205    0.0255867  0.025710796            2 
  943000   0.88906719   -7.2650449    289.23646  0.025559956  0.025693364            3 
  944000   0.88312659   -7.2865968    289.36496  0.025544223  0.025676053            2 
  945000   0.90083695   -7.2639583    289.53422  0.025532118  0.025658845            4 
  946000    0.8559164   -7.2925655    289.58125  0.025509271  0.025641608            3 
  947000   0.88239965   -7.2740019    289.83275  0.025504466  0.025624302            2 
  948000   0.87768091   -7.2670161    289.69332  0.025465306  0.025607068            6 
  949000   0.87080055   -7.2872945     290.5887  0.025517097  0.025589741            2 
  950000   0.89046041   -7.2597305    290.56395  0.025488065  0.025572404            4 
  951000   0.88477575   -7.2652682     290.2845  0.025436777  0.025555055            9 
  952000   0.87675121   -7.2809115    290.12909  0.025396454   0.02553777            4 
  953000   0.88000897    -7.297761    290.26128  0.025381364  0.025520275            3 
  954000   0.88428278    -7.297153    291.03003   0.02542191  0.025502868            3 
  955000   0.86565525    -7.287333    290.43206  0.025343112  0.025485507            6 
  956000   0.87767517   -7.2688298    291.18236  0.025382004   0.02546819            5 
  957000   0.84607097   -7.2788524    291.08188  0.025346733  0.025451005            7 
  958000   0.89962577   -7.2748967    291.94121  0.025395025  0.025433826            4 
  959000   0.89614667   -7.2577122    291.70608  0.025348113  0.025416786            2 
  960000   0.86267819   -7.2770901    291.65597  0.025317359  0.025399648            2 
  961000   0.87475983    -7.258556    291.34056  0.025263663  0.025382472            2 
  962000   0.85777154   -7.3039289    290.97538  0.025205767  0.025365308            4 
  963000   0.85878663   -7.2763576    291.74363  0.025246074  0.025348065            2 
  964000   0.86781438   -7.2978547    291.74158  0.025219708  0.025330863            4 
  965000   0.85708629   -7.2924297    292.01034  0.025216782  0.025313465            5 
  966000   0.86289706   -7.3285729     291.5818  0.025153709   0.02529615            5 
  967000   0.86998368    -7.314086    291.85377  0.025151135  0.025278727            3 
  968000   0.87838519   -7.2906809    292.05654  0.025142608  0.025261267            2 
  969000   0.86582062   -7.3244045    291.89012  0.025102349  0.025243851            5 
  970000   0.87181316   -7.2924834    291.55124  0.025047357  0.025226429            4 
  971000   0.88731483   -7.2923108    292.07265  0.025066311  0.025209203            5 
  972000   0.86912201   -7.2838051    292.70542  0.025094772  0.025192076            7 
  973000   0.85932092   -7.2864984    292.93204   0.02508839  0.025175043            5 
  974000   0.85526459   -7.2986622    292.73969  0.025046175  0.025157883            9 
  975000   0.86598028   -7.2629732    293.48258  0.025083981  0.025140699            6 
  976000   0.86414515   -7.3058526      292.675  0.024989327  0.025123563            7 
  977000   0.88345646   -7.2977035    293.32874  0.025019511  0.025106275            5 
  978000   0.85361417   -7.2956948    294.13729  0.025062823  0.025089267            4 
  979000   0.86387544   -7.2828486    292.69158  0.024914163  0.025072183            2 
  980000   0.86767424   -7.2928655    293.79694  0.024982733  0.025055074            3 
  981000   0.85179263   -7.2774471    294.42432   0.02501056  0.025038059            2 
  982000   0.85785191   -7.3125667    292.94542  0.024859591  0.025020974            5 
  983000   0.85106072   -7.3064748    293.84834  0.024910846  0.025003869            9 
  984000   0.86845379   -7.2826806    294.06949  0.024904259  0.024986805            3 
  985000   0.88002435   -7.2783059    294.14037  0.024884972  0.024969921            3 
  986000   0.85654183   -7.3143843    294.39626   0.02488136  0.024952923            3 
  987000   0.84966172   -7.3086782    294.58962  0.024872477  0.024935787            2 
  988000   0.85588664   -7.3393899    294.17897  0.024812666  0.024918697            5 
  989000   0.88046347   -7.2997425     294.8822  0.024846832  0.024901749            2 
  990000   0.86582984   -7.3113705    294.92731  0.024825532  0.024884763            2 
  991000    0.8754967   -7.3284332    294.88631  0.024797033  0.024867831            7 
  992000   0.84599502   -7.3034372     295.0849  0.024788718  0.024850854            2 
  993000   0.84284988   -7.3321259    295.88131   0.02483059  0.024833833            8 
  994000   0.87366823   -7.3133691    296.26084  0.024837428  0.024817011            2 
  995000   0.86097685   -7.3165058    296.35759  0.024820569  0.024800331            4 
  996000   0.83460671   -7.3310546    296.12754  0.024776401  0.024783681            3 
  997000   0.84858047   -7.3065888    296.31811  0.024767478  0.024767132            6 
  998000   0.85280128   -7.3230542    296.07818  0.024722627  0.024750732            3 
  999000   0.85487615    -7.342112    296.31858  0.024717933  0.024734145            5 
 1000000   0.83385059   -7.2994019    297.32228  0.024776857  0.024717605            5 
 1001000   0.84913794   -7.3520675    297.16945  0.024739382  0.024701125            3 
 1002000   0.86645783   -7.3002537    297.05575  0.024705235  0.024684638            3 
 1003000   0.85776807   -7.3379412    297.91245  0.024751782  0.024668101            2 
 1004000   0.85640983    -7.353343    297.23709  0.024671073  0.024651613            4 
 1005000   0.83149792   -7.3301361    297.38076  0.024658438   0.02463502            7 
 1006000   0.85903315   -7.3135699    297.75111  0.024664605  0.024618556            2 
 1007000   0.84970979   -7.3573343    297.70489  0.024636287  0.024601852            3 
 1008000   0.85090884   -7.3279055    297.74047  0.024614788   0.02458519            4 
 1009000   0.87367036   -7.2973119    297.31052  0.024554883  0.024568612            7 
 1010000   0.84083715   -7.2999468    297.83147  0.024573554  0.024551882            4 
 1011000   0.84511426   -7.3387403     297.8683  0.024552283  0.024535249            6 
 1012000   0.84952348   -7.3575345    297.07474  0.024462676  0.024518541            6 
 1013000    0.8494153   -7.3419717    297.66811   0.02448734  0.024501803            3 
 1014000   0.86213581   -7.3410916    298.00772  0.024491101  0.024485117            2 
 1015000   0.86730382   -7.3546301    298.86576  0.024537419  0.024468516            3 
 1016000   0.83845368   -7.3556333    298.70678  0.024500228  0.024451975            3 
 1017000   0.83778694   -7.3462988    299.33503  0.024527616    0.0244355            4 
 1018000   0.83237355   -7.3620184    298.62201  0.024445155  0.024419147            2 
 1019000    0.8627519   -7.3332896    298.38029  0.024401397  0.024402567            5 
 1020000   0.84136601   -7.3610389    298.60673  0.024395975  0.024386058            4 
 1021000   0.84350656   -7.3486413    298.73188  0.024382295  0.024369547            6 
 1022000   0.84632306   -7.3735671    297.92041  0.024292271  0.024352933            4 
 1023000   0.84971116   -7.3539202    298.53351  0.024318468  0.024336219            6 
 1024000   0.84746474   -7.3521707    298.91535  0.024325794  0.024319668            2 
 1025000   0.87427267   -7.3617045    299.66033  0.024362628  0.024303169            2 
 1026000   0.83699675    -7.315101    299.58997  0.024333168  0.024286775            3 
 1027000   0.84094949   -7.3602509    299.40638  0.024294578  0.024270328            2 
 1028000   0.83088436   -7.3169927    299.31216  0.024263307  0.024253742            6 
 1029000    0.8451712   -7.3624609    299.26451  0.024235869  0.024237232            9 
 1030000   0.86235883   -7.3525505    299.84562  0.024259354  0.024220649            2 
 1031000   0.84413716   -7.3423182    299.45747  0.024204451  0.024204016            3 
 1032000    0.8553082    -7.359842    300.22082  0.024242637  0.024187498            3 
 1033000   0.84473768   -7.3598037    299.46623  0.024158295  0.024170869            4 
 1034000   0.84198734   -7.3672817    300.56962  0.024223858  0.024154335            3 
 1035000   0.84961074   -7.3659926    300.27126   0.02417643  0.024137693            5 
 1036000   0.83520222   -7.3543187    300.58893  0.024178646  0.024121139            3 
 1037000   0.84240363   -7.4069532    299.84045  0.024095182  0.024104611            3 
 1038000   0.82589194   -7.3399734    300.62542  0.024134989  0.024088119            2 
 1039000   0.82122853   -7.3361971    300.50778  0.024102324   0.02407166            2 
 1040000    0.8301798   -7.3505359    299.82097  0.024024116  0.024055109            3 
 1041000   0.83882851   -7.3756235    300.59065  0.024062652  0.024038496            6 
 1042000   0.83320428   -7.3676522    300.42974  0.024026691  0.024021959            3 
 1043000   0.82617761   -7.3466918    300.78424  0.024031979  0.024005381            6 
 1044000   0.84289502   -7.3365981    301.55412  0.024070412  0.023988935            6 
 1045000   0.85690953   -7.3798995    300.99576  0.024002851  0.023972448            3 
 1046000   0.82251206   -7.3659176    301.76266  0.024041002  0.023955952            4 
 1047000   0.84896627   -7.3824664    301.10099  0.023965376  0.023939492            3 
 1048000   0.83084649   -7.3717857    301.18417  0.023949123  0.023923002            4 
 1049000   0.84082055   -7.3767612    301.19072  0.023926813  0.023906365            5 
 1050000   0.82939378   -7.3738378    300.50138  0.023849315    0.0238897            6 
 1051000   0.81500579   -7.3821515    300.75977  0.023847111  0.023873074            2 
 1052000   0.83597194   -7.3568009    301.63227  0.023893557  0.023856296           10 
 1053000   0.83943323   -7.3742748    301.54621  0.023864056  0.023839699            3 
 1054000   0.84016994   -7.3488344    301.69573  0.023853236  0.023823231            3 
 1055000   0.83489846   -7.3781088    301.67624  0.023829087  0.023806734            4 
 1056000   0.84334704   -7.3956507    302.14531  0.023843538  0.023790172            6 
 1057000   0.81410298    -7.398112    301.92929  0.023803949  0.023773481            2 
 1058000   0.83716274   -7.4139669     301.4005    0.0237398  0.023756763            8 
 1059000   0.83392232   -7.3844384    302.33333  0.023790788  0.023740234            3 
 1060000   0.83191202   -7.3941437    301.97398  0.023740093  0.023723715            5 
 1061000   0.87314525   -7.3618439    302.06019  0.023724489  0.023707211            5 
 1062000    0.8180148   -7.3824401    302.29045  0.023720217  0.023690765            3 
 1063000   0.83610569    -7.337609    302.86318  0.023742802   0.02367436            3 
 1064000   0.83340909   -7.3846029    302.38796  0.023683267  0.023657928            3 
 1065000   0.82630637   -7.3681602    303.58661   0.02375482  0.023641525            3 
 1066000   0.83556145   -7.3919958    303.49656  0.023725497  0.023625244            5 
 1067000   0.84054875   -7.4037109    303.54096  0.023706729  0.023608897            8 
 1068000   0.80891711   -7.3851252    302.99342  0.023641809  0.023592619            4 
 1069000   0.83292956   -7.3872197    303.22758  0.023637947  0.023576231            5 
 1070000   0.83365605   -7.4105326    302.99919  0.023598068  0.023559852            3 
 1071000   0.84549071   -7.4029062      303.969  0.023651494   0.02354363            9 
 1072000   0.80098415   -7.4100924    304.07251  0.023637478  0.023527389            3 
 1073000   0.82231739   -7.3744806    304.27207  0.023630947  0.023511193            8 
 1074000   0.81188861   -7.4105834    304.27375  0.023609075  0.023495023            2 
 1075000   0.82563041   -7.3916441    303.02868  0.023490595   0.02347869            5 
 1076000   0.81341482    -7.415135    303.60153   0.02351313  0.023462249            6 
 1077000    0.8356958   -7.3949385    303.56942  0.023488813  0.023445962            5 
 1078000   0.83132145   -7.3527869    304.46551  0.023536295  0.023429682            4 
 1079000   0.82750443   -7.3687332     304.2927  0.023501135  0.023413456            6 
 1080000    0.8213321   -7.3866807     304.0322  0.023459275  0.023397316            5 
 1081000   0.82488386   -7.3979947    304.02341  0.023436896  0.023381063            3 
 1082000   0.82431855   -7.4056053    304.31338  0.023437567  0.023364508            4 
 1083000   0.83333251   -7.3903993    304.08784  0.023398572  0.023348252            5 
 1084000   0.81558281   -7.3914319    304.48207  0.023407293  0.023331933            3 
 1085000   0.82073728   -7.3519264     305.2134  0.023441889  0.023315685            5 
 1086000   0.81412012   -7.3893147    303.88956   0.02331872  0.023299518            3 
 1087000   0.83018096   -7.4066545    304.86802   0.02337228  0.023283326            3 
 1088000   0.82665702   -7.3988619    304.85093  0.023349489    0.0232671            4 
 1089000   0.82615085   -7.4361606    304.48643  0.023300155  0.023250834            4 
 1090000   0.81938816   -7.4261885    304.67285  0.023293031  0.023234465            5 
 1091000   0.82426658   -7.4041051    305.17142  0.023309763  0.023218175           11 
 1092000   0.81452876   -7.4071691    305.00559  0.023275762  0.023201907            3 
 1093000    0.8311335   -7.4138084    304.62466  0.023225424  0.023185538            9 
 1094000    0.8214595   -7.4311053    304.47009   0.02319242  0.023169076            5 
 1095000   0.81947228   -7.4026384    304.42583  0.023167872  0.023152518            3 
 1096000    0.8226444   -7.3934525     304.7455  0.023171039   0.02313598            3 
 1097000   0.81419188   -7.3732445    305.50598  0.023207686  0.023119668            2 
 1098000   0.81559829   -7.4026838    305.67964   0.02319973  0.023103402            8 
 1099000   0.83219319   -7.4191038      304.883  0.023118214  0.023087015            3 
 1100000   0.81193903   -7.4153979     305.4843   0.02314275  0.023070555            5 
 1101000   0.80592103   -7.4066827    305.75746  0.023142405  0.023054231           10 
 1102000   0.81504895   -7.3832585    306.53981  0.023180566  0.023037989            3 
 1103000   0.81299558   -7.4144578    305.32088  0.023067459  0.023021785            2 
 1104000   0.81802932   -7.4062073    305.54291  0.023063323  0.023005457            6 
 1105000   0.81907227    -7.458094    305.94888  0.023073068  0.022989095            6 
 1106000   0.81408508   -7.4322704    305.63028    0.0230282  0.022972777            3 
 1107000   0.81442541   -7.4058124    305.45151  0.022993941  0.022956421            4 
 1108000   0.80342983   -7.4065554     305.5465  0.022980332  0.022940096            4 
 1109000   0.80920955   -7.4183624    306.09635  0.023000928  0.022923794            2 
 1110000   0.81478319   -7.4286724    306.75208  0.023029436  0.022907449            4 
 1111000   0.82725613   -7.4041493    306.08621  0.022958761  0.022891033            3 
 1112000   0.81522271   -7.3934015    306.26928  0.022951835  0.022874674            4 
 1113000   0.81316093   -7.4177695    306.01726  0.022912344  0.022858245            3 
 1114000   0.81876577   -7.4126111    306.20471  0.022905798  0.022841855           10 
 1115000   0.81397354   -7.4117613    306.63135  0.022917141  0.022825466            4 
 1116000   0.80726748    -7.400643    306.73283  0.022904184   0.02280914            4 
 1117000   0.80401042   -7.4338584     306.4643  0.022863645  0.022792716            5 
 1118000   0.78396902   -7.4568353    306.17097  0.022821331  0.022776241            6 
 1119000   0.81848265   -7.4292667    306.22339   0.02280484  0.022759855            3 
 1120000   0.80469113   -7.4339244    306.29209   0.02278959  0.022743484            8 
 1121000   0.80390777    -7.438607    306.15235  0.022758872  0.022726956           12 
 1122000   0.81690915   -7.4376035    306.86081  0.022791207   0.02271042            2 
 1123000   0.80734679   -7.4515837    306.14439  0.022717749  0.022693953            7 
 1124000   0.79098032   -7.4302237    306.87411   0.02275164  0.022677515            6 
 1125000   0.81060725   -7.4153373    307.16018  0.022752606  0.022661184            3 
 1126000   0.81124428   -7.4216094    307.22067  0.022736876  0.022644955            6 
 1127000   0.79272284   -7.4315212    307.13692  0.022710509   0.02262877            4 
 1128000   0.80453182    -7.463874    306.97994  0.022678778  0.022612365            4 
 1129000   0.79142942   -7.4562429    306.47623  0.022621511  0.022596021            6 
 1130000   0.81146731   -7.4606475    307.65357  0.022688316  0.022579724            5 
 1131000   0.81106402   -7.4448171    307.22028  0.022636331  0.022563465            4 
 1132000   0.80925698    -7.442214    307.62811  0.022646357  0.022547256            4 
 1133000   0.79486363   -7.4776766    307.11944  0.022588955  0.022531022            5 
 1134000   0.80619452   -7.4353228    308.15398   0.02264506  0.022514759            3 
 1135000   0.79736617   -7.4541491    307.65888  0.022588758  0.022498467            6 
 1136000   0.79781248   -7.4334975     308.2468  0.022612001  0.022482196            3 
 1137000   0.80106462   -7.4536272    307.01639  0.022501935  0.022465882            4 
 1138000   0.80572548   -7.4588973     308.3273  0.022578156  0.022449617            4 
 1139000   0.77330285   -7.4418849    307.55719   0.02250199  0.022433322            4 
 1140000   0.80142059   -7.4538447    307.52637  0.022479998  0.022417062            5 
 1141000   0.79358023   -7.4269727    307.93778  0.022490343  0.022400895            2 
 1142000   0.80513221   -7.4512288    307.88286  0.022466642  0.022384611            5 
 1143000   0.78799084   -7.4064044    308.35633  0.022481505  0.022368429            3 
 1144000   0.79536922   -7.4736498    307.52195  0.022401074  0.022352146            6 
 1145000   0.78424924   -7.4415436    308.01882  0.022417672  0.022335854            6 
 1146000   0.78238069   -7.4496532    307.72188  0.022376518  0.022319706            5 
 1147000   0.78455236    -7.447916    308.15153  0.022388225  0.022303473            4 
 1148000   0.78122463   -7.4248569    308.48025  0.022392585  0.022287299            5 
 1149000    0.7839468    -7.455276     308.6137  0.022382775  0.022271144            4 
 1150000   0.79677264   -7.4374715    309.01085  0.022392091  0.022255104            5 
 1151000   0.80301386   -7.4682224    308.71881  0.022351492  0.022239025            3 
 1152000   0.78892036   -7.4259416    308.98713  0.022351499  0.022222964            4 
 1153000   0.80394599   -7.4772556    309.17731   0.02234586  0.022206997            5 
 1154000   0.79025684   -7.4668948    309.18968  0.022327389  0.022190923            4 
 1155000   0.79310686   -7.4710099    309.32323  0.022317693  0.022174908            2 
 1156000   0.80741752   -7.4372785    309.23344  0.022291915  0.022158842            3 
 1157000   0.80242057    -7.439179    309.31736  0.022278692  0.022142803            6 
 1158000   0.81106445   -7.4640997    309.58441   0.02227867  0.022126743            4 
 1159000   0.79522093     -7.44335    309.05706  0.022221531    0.0221106            5 
 1160000   0.79519529   -7.4714776    308.68656  0.022175759   0.02209445            6 
 1161000   0.77632104   -7.4502933    308.68784   0.02215675  0.022078271            7 
 1162000   0.76934549   -7.5059188    308.89517  0.022152551   0.02206205            2 
 1163000   0.79884176   -7.4810874    308.85788  0.022130831  0.022045684            6 
 1164000   0.79768305    -7.449665    308.82838  0.022109706  0.022029356            3 
 1165000   0.77837018   -7.4935949     309.3074  0.022124993  0.022012987            3 
 1166000   0.79429474   -7.4813857    308.42446  0.022042915   0.02199666            5 
 1167000   0.80093744   -7.4376675    308.46319  0.022026792  0.021980327            3 
 1168000   0.78490783   -7.4317467    308.01254  0.021975781  0.021963939            6 
 1169000   0.77594428   -7.4759062    308.33972  0.021980305  0.021947588           10 
 1170000   0.79669529   -7.4472436     309.2632  0.022027293  0.021931387            5 
 1171000   0.79884278   -7.4950835    309.11034  0.021997605  0.021915177            3 
 1172000    0.7942005   -7.4958747    309.07865  0.021976582  0.021898833            7 
 1173000   0.79433157   -7.4973832    309.08536  0.021958324  0.021882497            3 
 1174000     0.754374   -7.4700652    308.87549  0.021924723  0.021866205            4 
 1175000   0.79549846   -7.4651555    308.95283  0.021911549   0.02184989            9 
 1176000   0.79517301   -7.4583386    309.07888  0.021901848   0.02183361            7 
 1177000   0.76940833   -7.4485488    309.15279  0.021888473  0.021817388            1 
 1178000   0.77546814   -7.4562936    310.59335  0.021971799  0.021801178            4 
 1179000   0.78742738   -7.5009224    309.58435  0.021881845  0.021784956            2 
 1180000   0.79587147   -7.5029468    309.64141  0.021867331   0.02176872            4 
 1181000    0.7559101   -7.4720448    309.58901  0.021845118  0.021752352            3 
 1182000   0.76972233   -7.4752617    310.28934  0.021876011  0.021736079           16 
 1183000   0.77075563    -7.477431    309.68146  0.021814699  0.021719766            6 
 1184000   0.79026176   -7.4720632    310.03851  0.021821404  0.021703497           10 
 1185000   0.81005938     -7.50651    309.92999  0.021795358  0.021687189            4 
 1186000   0.77591191   -7.4858147    309.51584  0.021747881  0.021670866            4 
 1187000   0.77974651   -7.4827289    310.18572  0.021776588  0.021654633            5 
 1188000   0.78201702   -7.5086355    310.48436  0.021779206  0.021638414            4 
 1189000   0.78346717   -7.4652936    309.52341  0.021693539  0.021622246            3 
 1190000    0.7942576   -7.4898262    309.84252  0.021697655  0.021606097            3 
 1191000   0.78050401   -7.4736274    309.81433  0.021677465  0.021590025            4 
 1192000   0.77340853   -7.5098205    310.28949  0.021692498  0.021573856            3 
 1193000   0.76490644   -7.5035405    309.87032  0.021645035  0.021557739            3 
 1194000   0.78729356   -7.4812371    311.32077  0.021728139  0.021541772            5 
 1195000   0.78658356   -7.5125346    310.55967  0.021656881  0.021525777            3 
 1196000   0.78426103   -7.5141813    310.39523  0.021627315  0.021509761            4 
 1197000    0.8041388   -7.4857777     310.6754  0.021628753  0.021493796            5 
 1198000   0.78138887   -7.4813631    311.14896   0.02164364   0.02147776            4 
 1199000   0.77355778   -7.5005667    311.15028   0.02162568  0.021461768            3 
 1200000   0.77393496   -7.5256363     310.5156  0.021563583  0.021445725            3 
 1201000   0.77341436   -7.5352545    309.77646  0.021494342  0.021429629            4 
 1202000   0.79769717   -7.5077239    310.46196  0.021523985  0.021413527            3 
 1203000   0.76667252   -7.5197443    310.30045  0.021494905  0.021397425            4 
 1204000    0.7728796   -7.5077521     311.0909  0.021531762   0.02138141            4 
 1205000   0.78081405   -7.4879995    310.33153  0.021461378  0.021365354            5 
 1206000   0.79291929   -7.4884984    311.06069  0.021493967  0.021349326            5 
 1207000   0.79562521   -7.5475028    310.43753  0.021433135  0.021333319            7 
 1208000   0.77076263   -7.4970246    311.25112  0.021471518  0.021317262            4 
 1209000   0.76462301   -7.5083933    311.23726  0.021452802   0.02130122            7 
 1210000   0.77440727   -7.4936657    310.70185  0.021398199  0.021285207            6 
 1211000   0.77174278   -7.4791904    311.30782  0.021422228  0.021269126            6 
 1212000     0.771507   -7.5289031    310.74566  0.021365901  0.021253029            5 
 1213000   0.76127622   -7.5330295    311.29636   0.02138612  0.021236902            4 
 1214000   0.74888792   -7.5359259    310.91576  0.021342378  0.021220771            7 
 1215000    0.7796078   -7.5517317    310.64951  0.021306551  0.021204646            9 
 1216000   0.77614498   -7.5088314    311.10286  0.021320097  0.021188631            4 
 1217000   0.76529575   -7.5460769    311.88311  0.021356006  0.021172673            4 
 1218000   0.76148322   -7.5376134    311.12032  0.021286284  0.021156622            6 
 1219000   0.77199734   -7.5462337    310.57855  0.021231785   0.02114053            3 
 1220000   0.74945204   -7.4858675    311.15796  0.021253959  0.021124541            5 
 1221000   0.75255355   -7.5476323    311.38594  0.021252112  0.021108518            8 
 1222000   0.76622317   -7.5203333    310.86965  0.021199513  0.021092483            8 
 1223000   0.77419434    -7.514824    311.54707  0.021228337  0.021076548            5 
 1224000   0.75253848   -7.5315886    313.01334  0.021310821  0.021060592            4 
 1225000   0.75370064   -7.5236096    311.86135  0.021215058  0.021044689            3 
 1226000   0.76176622   -7.5351066    312.01768   0.02120838  0.021028873            3 
 1227000    0.7578593   -7.5234741    311.97627  0.021188283   0.02101301            4 
 1228000   0.76780799   -7.5038088    311.35148  0.021128629  0.020997094            6 
 1229000   0.76376171   -7.5313499    312.45376  0.021186179  0.020981226            3 
 1230000   0.75232811   -7.5328222    311.78832   0.02112387  0.020965358            2 
 1231000     0.763273   -7.5088306    312.55421  0.021158557  0.020949504            2 
 1232000   0.75863595   -7.5251528     311.6542  0.021080506  0.020933617            5 
 1233000   0.76489533   -7.5100674    312.31831  0.021108293  0.020917794            4 
 1234000    0.7463772   -7.5112491    312.09832  0.021076332  0.020902028            6 
 1235000   0.77501539   -7.5265153    311.47331  0.021017093  0.020886162            6 
 1236000   0.75223979   -7.5535322    312.15631  0.021046137  0.020870264            7 
 1237000   0.76411641   -7.5493084    312.06609  0.021023046  0.020854411            7 
 1238000   0.76786566   -7.5525455     311.4232  0.020962789  0.020838499            5 
 1239000   0.75636437   -7.5496706    312.09338  0.020990945  0.020822512            7 
 1240000   0.78234277    -7.558641    311.32048  0.020922075  0.020806434            4 
 1241000   0.78014297   -7.5583581    311.31464  0.020904824   0.02079041            6 
 1242000    0.7601112   -7.5438334    311.98076  0.020932686  0.020774391            3 
 1243000   0.76733804   -7.5485607    311.74281  0.020899894  0.020758377            5 
 1244000   0.75587412    -7.522387    312.03245  0.020902495  0.020742481            4 
 1245000   0.74817597    -7.530855    311.98239  0.020882355  0.020726507            5 
 1246000   0.75424872   -7.5367361    312.33746  0.020889343  0.020710607           11 
 1247000    0.7455977   -7.5154599    311.31271   0.02080411  0.020694751           10 
 1248000   0.75160944   -7.5586679    311.76978  0.020817961  0.020678799            7 
 1249000   0.76610882   -7.5462921    312.24321   0.02083288  0.020662898            7 
 1250000   0.74437455   -7.5561782    311.99471  0.020799647  0.020646935            3 
 1251000   0.76011306   -7.5339844    312.47216  0.020814826  0.020631027            7 
 1252000   0.76144472   -7.5288273    312.32418   0.02078835  0.020615132            2 
 1253000   0.74149429   -7.5531792    312.32112  0.020771556  0.020599308            3 
 1254000   0.75203698   -7.5613933    312.26471  0.020751244  0.020583416            4 
 1255000   0.75242958   -7.5448378    312.17749  0.020728917  0.020567563            7 
 1256000   0.75407084   -7.5635943    311.78182  0.020686161  0.020551727            4 
 1257000   0.75388734   -7.5169062    312.23391  0.020699676  0.020535873           13 
 1258000    0.7496815   -7.5706437    312.60208   0.02070761  0.020520079            4 
 1259000   0.74424158   -7.5621455    311.87169  0.020642818  0.020504202            7 
 1260000   0.74470005   -7.5504743    312.32005  0.020656088   0.02048835            7 
 1261000   0.75007405   -7.5252744    312.95732  0.020681821  0.020472572            6 
 1262000   0.74290343   -7.5318873     312.4418  0.020631392  0.020456833            4 
 1263000   0.74184777   -7.5227378    312.73315   0.02063428  0.020441062            4 
 1264000   0.74706009   -7.5463996    312.47511  0.020600943  0.020425301            3 
 1265000    0.7563899   -7.5478602    312.19612  0.020566279  0.020409441            3 
 1266000   0.72989611   -7.5452564    312.80639  0.020590205  0.020393578            4 
 1267000   0.73371008   -7.5433192    312.15151  0.020530881  0.020377696            3 
 1268000   0.74696706    -7.566576    311.99453  0.020504373  0.020361761            4 
 1269000   0.73919808   -7.5567414    312.82067  0.020542466  0.020345825            4 
 1270000   0.74142964   -7.5947378    312.11856  0.020480221  0.020329919            7 
 1271000   0.75114879   -7.6106503    311.78609  0.020442308  0.020313999            5 
 1272000   0.74674525   -7.5848956    312.83563  0.020494997  0.020298097            5 
 1273000   0.74225795   -7.5723062    312.63206  0.020465571  0.020282203            6 
 1274000   0.74790174   -7.5936414     312.2203  0.020422573  0.020266339            4 
 1275000   0.74003176   -7.5713484    312.92086  0.020452344   0.02025047            4 
 1276000    0.7497396   -7.5693969    312.69097  0.020421302  0.020234565            4 
 1277000   0.76104967    -7.565464    312.40707  0.020386784  0.020218716            2 
 1278000   0.72459973   -7.5859978    312.31904  0.020365091  0.020202833            7 
 1279000   0.74739008   -7.5759777    312.12334  0.020336418  0.020186996            4 
 1280000   0.74863109   -7.5718448    312.65037  0.020354842  0.020171095            3 
 1281000   0.74677679   -7.6137091    311.98228   0.02029549  0.020155167            3 
 1282000   0.73094052   -7.6050647    312.14981  0.020290549  0.020139311            8 
 1283000   0.75403481   -7.5828246    312.25824  0.020281777  0.020123452            3 
 1284000   0.74799926   -7.5880043    312.67637  0.020293119  0.020107637            3 
 1285000   0.74524382   -7.5831054    312.65057  0.020275653  0.020091801            5 
 1286000   0.71830903    -7.570036    312.94812  0.020279168  0.020076047           15 
 1287000   0.74654734   -7.5902885    312.93265  0.020262409  0.020060352            6 
 1288000   0.74031337   -7.5585477    312.98035  0.020249764  0.020044636            4 
 1289000   0.73532209   -7.5607927    313.05773  0.020239057  0.020028972            6 
 1290000   0.73550621   -7.5726275    313.51832  0.020253121  0.020013318            7 
 1291000    0.7456815   -7.6030249    312.63911  0.020180681  0.019997606           10 
 1292000   0.75563019   -7.5884515    312.69547  0.020168696   0.01998192            9 
 1293000   0.73018325   -7.5906396    313.79544  0.020223991  0.019966332            5 
 1294000   0.73841349   -7.5904754    312.88518  0.020149741  0.019950731            9 
 1295000   0.74299807   -7.5647641     313.5079  0.020174253  0.019935164            5 
 1296000   0.73521877   -7.5888774    313.36798   0.02014969  0.019919644            4 
 1297000   0.72109482   -7.5972179    313.31219   0.02013057  0.019904098            8 
 1298000   0.74425198   -7.6088152     313.7213  0.020141326  0.019888488            8 
 1299000   0.73771231   -7.5891384    314.05842  0.020147448  0.019872986            7 
 1300000     0.732358   -7.5932099    313.25122  0.020080206  0.019857527            7 
 1301000   0.73252947   -7.6129196    313.53829   0.02008316  0.019842119            5 
 1302000   0.73577741   -7.5719177     314.7406  0.020144688  0.019826767            6 
 1303000   0.72346179   -7.6040238    314.66577  0.020124442  0.019811518            3 
 1304000   0.75338347   -7.5753558    314.42066  0.020093345  0.019796256            6 
 1305000   0.71319811    -7.616776    313.77581   0.02003677  0.019780945            3 
 1306000   0.73708023   -7.6072044    313.55624  0.020007417  0.019765619            5 
 1307000   0.72356272   -7.5989298    313.34403  0.019978579  0.019750291            6 
 1308000   0.71932613   -7.6298861    313.85671  0.019995968  0.019734926            5 
 1309000   0.74654471   -7.6025215    313.90446  0.019983732  0.019719526            3 
 1310000   0.72838107    -7.613887    314.51222  0.020007139  0.019704141            6 
 1311000   0.74489405   -7.6020202    314.53309  0.019993205  0.019688865            3 
 1312000   0.74211832   -7.6073198    314.35011  0.019966344  0.019673624            4 
 1313000   0.74889168   -7.5884196    314.48485  0.019959688   0.01965838            5 
 1314000    0.7213652   -7.6053105    315.18172  0.019988693  0.019643151            5 
 1315000   0.73711612   -7.5951676    314.99329  0.019961552  0.019627923            9 
 1316000   0.74580874    -7.584143    314.32506  0.019904069  0.019612726            6 
 1317000   0.72588578    -7.584861    313.77117  0.019853909  0.019597443            6 
 1318000   0.74305954   -7.5837868    314.62436   0.01989279  0.019582192            4 
 1319000   0.71619187   -7.6215601    314.45399  0.019866944  0.019566908            6 
 1320000    0.7162495   -7.6014092    314.34536  0.019845035  0.019551599            5 
 1321000   0.72796682   -7.6365416    314.39356  0.019833053  0.019536382            4 
 1322000   0.73649267   -7.5899339    314.66731  0.019835307  0.019521148            8 
 1323000   0.72126242   -7.5946995    314.51627    0.0198108  0.019505875            7 
 1324000   0.73099781   -7.6353332     314.3714   0.01978672  0.019490654            4 
 1325000   0.72771793   -7.6138577    314.88819  0.019804289  0.019475424            5 
 1326000   0.72039829   -7.5891921    314.45834  0.019762339  0.019460248            8 
 1327000   0.72339969   -7.5944668    315.06621   0.01978562  0.019445149            8 
 1328000   0.72995848   -7.6073016    314.97202  0.019764811  0.019430034            4 
 1329000   0.72477688   -7.5959723    315.10216  0.019758099  0.019414916            4 
 1330000   0.73963701   -7.6124919      315.047  0.019739787  0.019399853            4 
 1331000   0.70253969   -7.6123784    314.70848  0.019703761   0.01938478            4 
 1332000   0.71276741    -7.607363    314.67541    0.0196869  0.019369627            6 
 1333000   0.70165299   -7.6234271    315.01525  0.019693376  0.019354493            6 
 1334000   0.72903797   -7.6136778    314.77873  0.019663839  0.019339371            5 
 1335000   0.71744927   -7.6116384    314.93193  0.019658672  0.019324246            5 
 1336000   0.71382314   -7.6049532    314.81817  0.019636862  0.019309203            3 
 1337000   0.73065978   -7.6372888    315.10588  0.019640107  0.019294164            9 
 1338000   0.72083287   -7.6291989    315.20653  0.019631697  0.019279133            5 
 1339000   0.71369555   -7.6259423    314.85716  0.019595293  0.019264183            6 
 1340000   0.69668259   -7.6467447    315.60949  0.019627456    0.0192492            5 
 1341000   0.71791657   -7.6362275    314.59602   0.01954984  0.019234238            5 
 1342000    0.7181937   -7.6344458    315.16779  0.019570777  0.019219274            5 
 1343000   0.71495489   -7.6004382    315.56117  0.019580614  0.019204354            7 
 1344000   0.72057259   -7.6327351    315.39872  0.019555972  0.019189484            7 
 1345000   0.70147967   -7.6367822    315.15218  0.019526157   0.01917456           10 
 1346000   0.71791282   -7.6347752    315.40092  0.019527051  0.019159606            5 
 1347000    0.7216359   -7.6105645    315.89154  0.019542906  0.019144718           13 
 1348000   0.71936991   -7.6376047    315.68607  0.019515707  0.019129875            7 
 1349000   0.71963795    -7.632224    315.79067  0.019507701  0.019115001            2 
 1350000   0.71397675   -7.6198691    315.57508  0.019479943  0.019100112            6 
 1351000    0.7036857   -7.6388233    316.16931  0.019502178  0.019085319            3 
 1352000   0.70795565   -7.6587945    316.10165  0.019483583  0.019070495            7 
 1353000   0.71088134   -7.6613764    315.07801  0.019406135  0.019055614            4 
 1354000   0.70967812   -7.6481808    315.72853   0.01943184  0.019040752            7 
 1355000    0.7051857   -7.6339712    315.51591  0.019404423  0.019025896            4 
 1356000   0.70320585   -7.6302973     315.2582  0.019374275  0.019011005           13 
 1357000   0.69810681   -7.6672732    315.74258  0.019389743   0.01899608            6 
 1358000    0.7167781     -7.65938    315.81411  0.019379854  0.018981134            9 
 1359000   0.71923743   -7.6776826    314.53643  0.019287247  0.018966211            3 
 1360000   0.72972266   -7.6656821    314.58135  0.019275818  0.018951317            6 
 1361000   0.72286557    -7.682497    315.30783  0.019306137  0.018936435            7 
 1362000   0.72060358   -7.6731095    315.53347  0.019305768  0.018921556           11 
 1363000   0.72066868   -7.6662532    314.85657  0.019250218  0.018906685            6 
 1364000   0.69523641   -7.7034336    314.94323    0.0192414  0.018891808           10 
 1365000   0.71818743   -7.6788185     315.0423  0.019233352  0.018876924            4 
 1366000   0.70710124   -7.6490043    315.75039  0.019262469  0.018862125            5 
 1367000   0.70057463   -7.6684856    315.40405  0.019227265  0.018847303            2 
 1368000   0.70073965   -7.6448923    315.14515  0.019197439  0.018832446            4 
 1369000   0.69926698   -7.6449017    315.43172   0.01920086  0.018817579            4 
 1370000   0.70358125   -7.6747024    316.23352  0.019235615  0.018802845            5 
 1371000   0.70398588   -7.6502702    315.39549  0.019170647   0.01878806            4 
 1372000   0.70246207   -7.6381546    315.70206  0.019175295  0.018773283            3 
 1373000   0.71230565    -7.633486     315.7586  0.019164761  0.018758525            4 
 1374000   0.70943887   -7.6275348    315.96213  0.019163157  0.018743802            5 
 1375000   0.71804675   -7.6276158    316.80581  0.019200352  0.018729098            8 
 1376000   0.70821141   -7.6597539    316.09215  0.019143177  0.018714426            7 
 1377000   0.71685202   -7.6496427    315.71178  0.019106257  0.018699711            9 
 1378000   0.71117728   -7.6711772    316.64241   0.01914867   0.01868504            5 
 1379000   0.69184766    -7.650352    316.09679  0.019101812  0.018670391            5 
 1380000   0.70341839   -7.6695026    315.74418  0.019066678  0.018655752            6 
 1381000   0.70036655   -7.6919453    315.51424  0.019038996  0.018641088            4 
 1382000   0.69314489   -7.6679639       316.01  0.019055114  0.018626435            5 
 1383000   0.69833057   -7.6697924    316.22858  0.019054506  0.018611773            3 
 1384000   0.70155277   -7.7094381    315.56004  0.019000484  0.018597104            4 
 1385000   0.69319354   -7.6778653    315.32677   0.01897273  0.018582456            4 
 1386000   0.71493373   -7.6955898     315.9994  0.018999483  0.018567817            4 
 1387000    0.7000425   -7.7032316     316.1001  0.018991835  0.018553219            7 
 1388000   0.70998995    -7.680022    316.90376  0.019026403  0.018538641            6 
 1389000   0.69822265   -7.6888193     316.6901  0.018999886  0.018524108            5 
 1390000   0.70490947   -7.6867943    316.48533   0.01897394  0.018509569            7 
 1391000   0.69390547   -7.6848355    317.32616  0.019010674  0.018495098            5 
 1392000   0.69395842   -7.6630745    316.88276  0.018970472  0.018480681            3 
 1393000   0.69030351   -7.6878379    317.59342  0.018999367  0.018466302            6 
 1394000   0.70139969   -7.7037706    316.66852  0.018930447  0.018451875            2 
 1395000   0.69346538   -7.6700848    316.91187  0.018931414  0.018437466            4 
 1396000   0.68637447   -7.6729538     317.1921  0.018934581  0.018423137            6 
 1397000   0.69223858   -7.6612331    317.14748  0.018918366  0.018408835            9 
 1398000   0.71131274   -7.6635884     316.2349  0.018850435   0.01839447            3 
 1399000   0.68970106   -7.6973086    316.49474  0.018852439   0.01838009            8 
 1400000   0.68177993   -7.7051897    316.68235   0.01885014  0.018365689            3 
 1401000   0.69308114   -7.6768619    316.53688  0.018828032  0.018351318            5 
 1402000   0.69410804   -7.6766948    316.80736   0.01883068  0.018336978            7 
 1403000   0.70521354   -7.6842735    316.03017  0.018771096  0.018322651            6 
 1404000   0.69922899   -7.6685021    316.56637  0.018789552  0.018308289            9 
 1405000   0.70180732   -7.7052525    316.52752  0.018773874  0.018293939           11 
 1406000   0.69541911   -7.7018583    316.64916  0.018767731  0.018279582           10 
 1407000   0.68856694   -7.6730831    316.25013  0.018730759  0.018265228            6 
 1408000    0.6778777   -7.7268817    316.15323   0.01871172  0.018250839            5 
 1409000   0.68991524   -7.7017039    316.62824  0.018726534  0.018236465            7 
 1410000    0.6924703   -7.7009064    316.52072  0.018706898  0.018222072           10 
 1411000   0.70343762   -7.7059226    315.91934  0.018658123  0.018207685           14 
 1412000   0.69342919   -7.6761181    316.86519  0.018700731  0.018193296            9 
 1413000    0.6955204   -7.6872931    317.07624  0.018699944  0.018178968            5 
 1414000   0.67831889   -7.7115375    317.29095  0.018699373  0.018164641           12 
 1415000   0.69121041   -7.7141844     316.2642  0.018625689  0.018150285            8 
 1416000   0.69277117   -7.6898503    316.20243    0.0186089  0.018135965            7 
 1417000   0.69762092   -7.7002774    316.41312  0.018608158  0.018121607            8 
 1418000   0.67926498   -7.7030028    316.10314  0.018576819  0.018107295            4 
 1419000   0.68712246   -7.7085447     316.5997  0.018592888  0.018092967            4 
 1420000   0.67578277   -7.7030136    315.67296  0.018525408  0.018078645           14 
 1421000   0.67968275   -7.7202972    316.56857  0.018564894  0.018064293           10 
 1422000   0.68407598   -7.7202757    316.19448  0.018529916  0.018049946            4 
 1423000   0.69951974   -7.7020006    316.70361   0.01854671  0.018035651            4 
 1424000   0.67073638   -7.7121358    316.45315  0.018519028  0.018021347           10 
 1425000   0.70666395    -7.705522    317.03088  0.018539818  0.018007056            4 
 1426000   0.69250909   -7.6734253    316.91693  0.018520157  0.017992817            4 
 1427000   0.68431098   -7.6981922      316.182  0.018464261  0.017978513            4 
 1428000   0.67096896    -7.726903    316.53294   0.01847181  0.017964281            3 
 1429000   0.67847833   -7.7122675    316.25344  0.018442584  0.017950032            6 
 1430000   0.68389683   -7.7031393    316.86245  0.018465178  0.017935827            5 
 1431000   0.68561715   -7.7210114     316.2828  0.018418518  0.017921622            8 
 1432000   0.68513271   -7.7192365     316.3842  0.018411557  0.017907382            6 
 1433000   0.68476409   -7.7399694    315.84262  0.018367214  0.017893128            6 
 1434000   0.68058942   -7.7236335     316.3633  0.018384664  0.017878886            5 
 1435000   0.67712079   -7.7362303    316.67256  0.018389812  0.017864657            6 
 1436000   0.68468824   -7.7253097    316.73183  0.018380445  0.017850443            5 
 1437000   0.68072174   -7.7374914     316.5123  0.018354923  0.017836254            7 
 1438000   0.67813478   -7.7303098    316.40748  0.018336085  0.017822075            7 
 1439000   0.68157577   -7.7391639    316.61447  0.018335329  0.017807924            5 
 1440000   0.67389708    -7.733676    316.51679  0.018316944  0.017793768            5 
 1441000   0.65998393   -7.7279922    316.93038   0.01832815   0.01777965            7 
 1442000   0.67684527   -7.7257941    317.04654  0.018322153   0.01776553            3 
 1443000   0.68254771   -7.7240715    316.03716  0.018251164  0.017751386            2 
 1444000   0.69161872   -7.7384112    316.65752  0.018274326  0.017737288            6 
 1445000   0.67142044   -7.7285112    316.72289  0.018265449  0.017723206            8 
 1446000   0.67329104   -7.7583858    317.20228  0.018280445  0.017709161            3 
 1447000   0.67362561   -7.7220451    317.05946  0.018259587  0.017695096            5 
 1448000   0.67450289   -7.7130949    317.01899  0.018244647  0.017681054            4 
 1449000   0.66603831   -7.7203076    317.24263  0.018244918  0.017667056            7 
 1450000   0.67965063   -7.7265637    317.07753  0.018222847  0.017653063            4 
 1451000   0.66453558    -7.740162     316.8835  0.018199144  0.017639035            2 
 1452000   0.68104818    -7.760608    316.93883  0.018189786  0.017625038            3 
 1453000   0.67548444   -7.7544828    316.87741  0.018173744  0.017611052            6 
 1454000   0.67176983   -7.7478346    317.03859  0.018170483  0.017597074            8 
 1455000   0.65290546    -7.732702    316.16479  0.018107949   0.01758309            3 
 1456000   0.67708948    -7.738878    316.37153  0.018107345  0.017569091            7 
 1457000   0.68742927   -7.7647745    317.00618  0.018131216  0.017555114            7 
 1458000   0.65554023   -7.7553121    316.33917  0.018080657  0.017541193            3 
 1459000   0.67585265   -7.7482979    316.99776  0.018105881  0.017527253            6 
 1460000   0.68026107   -7.7530765    316.78856  0.018081539  0.017513379            8 
 1461000   0.66512455    -7.744179    317.33331  0.018100235  0.017499484            8 
 1462000   0.66059024   -7.7507855    317.07764  0.018073281  0.017485616            7 
 1463000   0.66889314   -7.7477431    317.62674  0.018092204  0.017471772            7 
 1464000   0.66244155   -7.7615101    316.88752  0.018037768  0.017457876            5 
 1465000    0.6782997   -7.7544295    316.87079  0.018024504  0.017444019            5 
 1466000   0.64911961   -7.7504056    316.47484  0.017989702    0.0174302           15 
 1467000   0.65915029   -7.7667151    317.21993  0.018019764  0.017416332           10 
 1468000     0.671198   -7.7418657    317.25874  0.018009692  0.017402528            5 
 1469000   0.66647821   -7.7651888    316.68174    0.0179647   0.01738869           10 
 1470000   0.65770272   -7.7352021    317.40918  0.017993718  0.017374903            5 
 1471000   0.66291622   -7.7613127    317.17526  0.017968234  0.017361103           16 
 1472000   0.66014311   -7.7612086     316.5384  0.017919973  0.017347264            6 
 1473000   0.66604613   -7.7382163    317.19297  0.017944839  0.017333427            5 
 1474000   0.66346097   -7.7436921     316.9078  0.017916542  0.017319581            9 
 1475000   0.65587553    -7.758151    316.57962  0.017885854  0.017305767            3 
 1476000   0.66953142   -7.7724316    316.84334  0.017888626  0.017291953            8 
 1477000   0.68014621   -7.7733671    316.82185  0.017875302  0.017278155            7 
 1478000   0.68202625   -7.7624002    316.31569  0.017834669  0.017264381            6 
 1479000   0.66174555    -7.775068    316.63072   0.01784036  0.017250637            9 
 1480000   0.65381836   -7.7882515    316.72127  0.017833405  0.017236837            6 
 1481000   0.66108385   -7.7490197     316.0196  0.017781882  0.017223034            6 
 1482000   0.67303378   -7.7741089    317.02884  0.017826633  0.017209233            5 
 1483000   0.65491646   -7.7745374    316.21004  0.017768602   0.01719542            5 
 1484000   0.65342715   -7.7702454    316.81406  0.017790547  0.017181646            7 
 1485000   0.66318566   -7.8051358    316.92032   0.01778453  0.017167898            4 
 1486000   0.67778566   -7.7797227    316.63792  0.017756725  0.017154144            7 
 1487000   0.66594033    -7.780959    316.09837  0.017714547  0.017140428            3 
 1488000   0.65104418   -7.7805266    316.40074  0.017719575  0.017126684            6 
 1489000   0.65007591   -7.7900201    316.81412  0.017730811   0.01711296            9 
 1490000   0.66045564   -7.7822799     316.7025  0.017712668  0.017099234            5 
 1491000   0.67639917   -7.7806245    317.44166    0.0177421  0.017085525            5 
 1492000   0.64131667   -7.7910408    316.48195  0.017676606  0.017071808            5 
 1493000   0.66212127   -7.8145842     316.9333  0.017689959  0.017058089            8 
 1494000   0.65367066   -7.8085088    316.36172  0.017646236   0.01704437            7 
 1495000   0.66428984    -7.798607    316.97831  0.017668802  0.017030685            5 
 1496000   0.65707457   -7.8024787     316.4898  0.017629779  0.017016976            3 
 1497000   0.65631272   -7.7850004    317.42234  0.017669914   0.01700331            3 
 1498000   0.67680448   -7.8253584    316.65207  0.017615269  0.016989655            5 
 1499000   0.65159512   -7.8091308     316.0254  0.017568679  0.016975976            5 
 1500000   0.64974775   -7.8181758    316.66264  0.017592369   0.01696231            4 
 1501000   0.64269718   -7.7641739    316.74827  0.017585403  0.016948681            6 
 1502000   0.64758215   -7.7957657    316.99066  0.017587143  0.016935105            8 
 1503000   0.63550677   -7.8134828    317.15602   0.01758461  0.016921491            4 
 1504000   0.64041844   -7.7653352    316.65267  0.017545028  0.016907906           14 
 1505000   0.67130543   -7.7797824    316.41875  0.017520418  0.016894388            6 
 1506000   0.65802507   -7.7916108    317.12801  0.017548031  0.016880875           16 
 1507000   0.64692146   -7.8042217    316.89686  0.017523604  0.016867342           19 
 1508000   0.64054534   -7.8046451    316.93757  0.017514234  0.016853802            5 
 1509000   0.65571791   -7.8005192    316.97604  0.017504751  0.016840282            6 
 1510000   0.64840552   -7.7891495    317.54855  0.017524754  0.016826795            9 
 1511000   0.64424582   -7.8070572    317.31362    0.0175002  0.016813287            7 
 1512000    0.6617578   -7.8202694    316.81441  0.017461112  0.016799797            8 
 1513000   0.64979907   -7.8049284     317.0817  0.017464293  0.016786297            8 
 1514000   0.65306018   -7.8108048    316.93617  0.017444747  0.016772797            9 
 1515000   0.65664705   -7.8002124    316.01421   0.01738252   0.01675928            4 
 1516000   0.66626016   -7.8207631    316.65918  0.017406507  0.016745794            9 
 1517000   0.64305424    -7.807987    317.20241  0.017424874  0.016732316            6 
 1518000   0.66088562   -7.8133129    316.87607   0.01739548  0.016718845            8 
 1519000   0.64880918   -7.8225692    316.33444  0.017354314  0.016705384           11 
 1520000   0.63218338   -7.8184775    316.84266   0.01737076   0.01669193           20 
 1521000   0.65225142   -7.7999162    316.31196  0.017330263  0.016678497            7 
 1522000   0.65735486   -7.8304076    317.26149  0.017370866  0.016665068            8 
 1523000   0.64997195   -7.8274803     316.6186  0.017324283  0.016651615            4 
 1524000   0.65313965   -7.8237301    316.64112  0.017314147  0.016638166            5 
 1525000   0.65832901   -7.8196008    316.33402  0.017286012   0.01662475            6 
 1526000   0.64746885   -7.8262304    317.03018  0.017312701  0.016611351            8 
 1527000   0.65077532   -7.8006523    316.62649  0.017279332  0.016597991            6 
 1528000   0.64302297   -7.8182367    316.93743  0.017284982  0.016584625            6 
 1529000   0.64255622   -7.8145377    316.67331  0.017259282  0.016571296            8 
 1530000   0.65255946   -7.8126149    316.58074   0.01724296  0.016557958            5 
 1531000   0.63993304   -7.8199178     316.6133  0.017233469  0.016544618            8 
 1532000   0.64121215    -7.823062    316.63978  0.017223661  0.016531275           10 
 1533000   0.64716075    -7.816428    316.57545  0.017208929  0.016517942            5 
 1534000    0.6418853   -7.8306935    316.98828  0.017220137  0.016504577            7 
 1535000    0.6365064   -7.8416948    316.29744  0.017171414  0.016491258            8 
 1536000   0.63938555   -7.8097688    316.73619  0.017184038  0.016477967            9 
 1537000   0.63274324   -7.8522152    316.79801  0.017176209  0.016464672            6 
 1538000   0.63468672   -7.8084778    317.12311  0.017182657  0.016451404           10 
 1539000   0.63385852   -7.8244401    317.65779  0.017200444   0.01643815            4 
 1540000   0.63880463   -7.8436661    316.86341  0.017146288  0.016424905            9 
 1541000   0.63820189   -7.8402901     316.2184  0.017100281  0.016411671            4 
 1542000   0.63992043   -7.8418866    316.76277  0.017118611  0.016398446           16 
 1543000   0.63833562   -7.8071485    317.05229  0.017123152  0.016385233           19 
 1544000   0.63900317   -7.8091995    317.11162  0.017115265  0.016372055            9 
 1545000   0.63501469   -7.8407889    316.55921  0.017074391  0.016358869            7 
 1546000    0.6257326   -7.8375172    317.54495  0.017116481  0.016345706            8 
 1547000   0.63300776   -7.8307224    316.54448  0.017051523  0.016332573            7 
 1548000   0.63575326   -7.8268239    316.19502  0.017021696  0.016319448           12 
 1549000   0.62788069   -7.8176562     316.8736  0.017047213  0.016306289           10 
 1550000   0.63199662   -7.8274632    317.00044  0.017043034  0.016293176           10 
 1551000    0.6351626   -7.8059135    316.97267  0.017030554  0.016280057           15 
 1552000   0.62984821   -7.8369381    316.83193  0.017012024  0.016266946           10 
 1553000   0.64181325   -7.8159965    316.33045   0.01697416  0.016253826           10 
 1554000   0.62683903   -7.8525927    316.66153  0.016980992   0.01624074            5 
 1555000   0.62073978   -7.8152438    316.59726  0.016966627  0.016227682           13 
 1556000   0.64666331   -7.8122873    316.59887  0.016955809    0.0162146           13 
 1557000   0.64299976   -7.8370308    317.02012  0.016967465  0.016201567            6 
 1558000   0.62129683   -7.8231254    317.30748  0.016971945  0.016188546            9 
 1559000   0.62781758     -7.81722    317.39994  0.016966001  0.016175558           11 
 1560000    0.6257879   -7.8218841    317.35195  0.016952562  0.016162615           12 
 1561000   0.62482957   -7.8169617     317.2665   0.01693714  0.016149655           14 
 1562000   0.63503774   -7.8449158    317.04493  0.016914475   0.01613669           13 
 1563000   0.63072039    -7.841448    317.13644  0.016908533  0.016123753            8 
 1564000   0.61889771   -7.8208143    317.04537  0.016892869  0.016110792           10 
 1565000   0.63246373   -7.8620966    316.89667  0.016874157  0.016097866            7 
 1566000   0.63068849   -7.8687062    317.08755  0.016873539  0.016084887           14 
 1567000   0.62651368    -7.873775    317.35724  0.016877113  0.016071941            5 
 1568000   0.62145558   -7.8348774    317.22178  0.016859151  0.016059012            5 
 1569000   0.64640412   -7.8435882    317.31444  0.016853327  0.016046082            6 
 1570000   0.62410938   -7.8656833    316.01657  0.016773703  0.016033145           14 
 1571000   0.62320227   -7.8640739    316.88446  0.016809063  0.016020214            6 
 1572000   0.62815217   -7.8537322    316.42613  0.016774074  0.016007307            8 
 1573000    0.6425578   -7.8540908    316.18435  0.016750601  0.015994388            6 
 1574000   0.64295505   -7.8603499      316.527    0.0167581  0.015981453            5 
 1575000   0.63603044   -7.8500513    316.89731  0.016767053  0.015968555            4 
 1576000   0.63173345   -7.8454422     316.3444  0.016727179  0.015955681            8 
 1577000   0.62226604   -7.8757643    316.95459  0.016748816  0.015942791            7 
 1578000     0.608091   -7.8778386    316.51073  0.016714762  0.015929888           11 
 1579000   0.62664636   -7.8756399     316.4601  0.016701504  0.015917007           26 
 1580000   0.63266772   -7.8739379    316.42028  0.016688833  0.015904135           15 
 1581000   0.61820894   -7.8663012     316.7169  0.016693912  0.015891267           13 
 1582000   0.62620421   -7.8955031     316.3572  0.016664412  0.015878413           10 
 1583000   0.61875961   -7.8677081    317.20729  0.016698636  0.015865603            9 
 1584000   0.63151632   -7.8704208    316.67024   0.01665984  0.015852776           16 
 1585000    0.6168373   -7.8635172    316.67692   0.01664968  0.015839946            4 
 1586000   0.61575142   -7.8855172    316.29041  0.016618874  0.015827128           10 
 1587000   0.61625861   -7.8957403     316.4407  0.016616294  0.015814309            5 
 1588000   0.61509373   -7.8798015    316.15042  0.016590597  0.015801462           10 
 1589000    0.6148698   -7.8961948    316.07795  0.016576356  0.015788614            9 
 1590000   0.63256491   -7.8969168    316.60484  0.016593545  0.015775815            6 
 1591000   0.62052143   -7.8857167    316.33032  0.016568736  0.015763005            5 
 1592000   0.61923673   -7.8773897    316.34142   0.01655891  0.015750217            5 
 1593000   0.61787277   -7.8900644    316.37689  0.016550371  0.015737416            6 
 1594000   0.61526367   -7.8779865    317.15726  0.016580785  0.015724652            3 
 1595000   0.61454435   -7.9078812    316.64621  0.016543689  0.015711878            8 
 1596000   0.60801052   -7.8813971    316.26619  0.016513481  0.015699116            8 
 1597000   0.60732068   -7.8971376    316.27989  0.016503855  0.015686373           10 
 1598000    0.6175649   -7.8979686    316.76467  0.016518809  0.015673632            8 
 1599000   0.62365421   -7.9103681    316.75956  0.016508211  0.015660893            8 
 1600000   0.61135898   -7.8811195    316.53093  0.016485986  0.015648151           16 
 1601000   0.61774566   -7.9035357    316.33346   0.01646541  0.015635413           15 
 1602000   0.60176249   -7.8733731    316.46031  0.016461731  0.015622717           17 
 1603000   0.61606322   -7.8967154    316.54862  0.016456052  0.015610022            8 
 1604000   0.60127688   -7.8930194     316.4682  0.016441615  0.015597331           11 
 1605000   0.60679757   -7.8803687    316.66236  0.016441452  0.015584624            5 
 1606000   0.61600202   -7.9177467    316.26348  0.016410517  0.015571915            7 
 1607000   0.62133242   -7.8994474    315.88575  0.016380717  0.015559199           13 
 1608000   0.61393606   -7.9173713    316.11379  0.016382348  0.015546517            7 
 1609000   0.61206158   -7.8906098    315.88986  0.016360568  0.015533843           15 
 1610000   0.59797436   -7.8957907    316.17874  0.016365359   0.01552121            7 
 1611000   0.61314513   -7.8922573    315.64878  0.016327787  0.015508565           15 
 1612000   0.61373514   -7.9123372    316.37715  0.016355312  0.015495925           10 
 1613000    0.6017082   -7.8756082    316.16596  0.016334261  0.015483321           15 
 1614000   0.61342254   -7.8997545    315.99992  0.016315568  0.015470719           16 
 1615000   0.61920021   -7.8947887    315.50393  0.016279873  0.015458111           18 
 1616000   0.61009193   -7.9023481    316.51632  0.016322005  0.015445506            4 
 1617000   0.61703052   -7.9151032    316.14193  0.016292616  0.015432935            8 
 1618000   0.60857944   -7.8992673    315.69227  0.016259388  0.015420372           12 
 1619000    0.5919396   -7.9027458    316.33467   0.01628241  0.015407829            8 
 1620000   0.60593379   -7.8957105    316.08095  0.016259308  0.015395294           12 
 1621000   0.61767192   -7.9085523    315.94204  0.016242137   0.01538277           17 
 1622000   0.60783761   -7.9041782    316.32676  0.016251889  0.015370262           10 
 1623000   0.61807814   -7.8922808    317.09978  0.016281566  0.015357791           15 
 1624000   0.60966445   -7.8944843    316.20353  0.016225551  0.015345314            5 
 1625000   0.60725916   -7.8536627    316.53377  0.016232501  0.015332879            4 
 1626000   0.60973033   -7.8902724    316.84457  0.016238447  0.015320459            7 
 1627000   0.60164552   -7.9047545    316.11206  0.016190947  0.015308044           15 
 1628000   0.61511732   -7.8934686     316.3422  0.016192783  0.015295629            7 
 1629000   0.60821184     -7.88794    316.67423  0.016199828  0.015283254           11 
 1630000   0.60678888   -7.8965234    316.30556  0.016171041  0.015270848           17 
 1631000    0.5998111   -7.9125517    316.63867  0.016178146  0.015258468           13 
 1632000   0.59785581   -7.9167034    316.04465  0.016137901  0.015246096            8 
 1633000   0.61187769   -7.8937637    316.42507  0.016147432  0.015233733           11 
 1634000   0.59421617   -7.9029992    316.43585  0.016138099  0.015221387           11 
 1635000   0.60788578   -7.9265432    316.47432   0.01613019  0.015209039           12 
 1636000   0.58728907   -7.9207478    316.13468   0.01610303  0.015196702           11 
 1637000   0.60807847   -7.9307031    315.96584  0.016084598  0.015184353           10 
 1638000   0.59512904   -7.8921898    316.09398  0.016081297  0.015172019           19 
 1639000   0.59359044   -7.9210553     316.2215  0.016077969  0.015159686           15 
 1640000    0.5991849   -7.9131486    316.05763  0.016059839  0.015147371           12 
 1641000   0.59166637   -7.9205439    316.58567  0.016076867  0.015135077           18 
 1642000   0.60624629   -7.9003075    316.55747  0.016065645  0.015122778           10 
 1643000   0.60379152   -7.9079596    316.12772   0.01603407  0.015110496           15 
 1644000   0.61668217   -7.9015066    316.19297  0.016027624  0.015098224           10 
 1645000   0.59565209   -7.9061565    316.13407  0.016014897   0.01508599           11 
 1646000   0.59175749   -7.9142435    316.91108  0.016044506   0.01507376           13 
 1647000   0.59419582   -7.8747272    316.68347  0.016023248  0.015061571           13 
 1648000   0.57033416   -7.9225801    316.45546  0.016001995  0.015049369            6 
 1649000   0.60586827   -7.9053276    316.55378   0.01599726  0.015037181           15 
 1650000   0.59228049   -7.9170394    316.13055  0.015966189  0.015024998           19 
 1651000   0.59723543   -7.9065289    316.49337  0.015974832  0.015012821            9 
 1652000   0.59743107   -7.9273363    316.44238   0.01596259  0.015000667            8 
 1653000   0.59933068   -7.9423312    316.15179  0.015938283  0.014988518           22 
 1654000   0.60190924   -7.9247316    316.57158  0.015949798  0.014976367           22 
 1655000   0.58349326   -7.9164445    316.49366  0.015936237  0.014964222           21 
 1656000   0.59580114   -7.9188653    316.49996   0.01592693  0.014952085            9 
 1657000   0.59968815   -7.9079997    315.76161  0.015880186  0.014939963           18 
 1658000   0.59902225   -7.9114346    316.49923  0.015907682  0.014927865            6 
 1659000   0.59567182    -7.908423    315.88845  0.015867413  0.014915778           25 
 1660000   0.59747383   -7.9328391    316.05581  0.015866255  0.014903701           17 
 1661000   0.59171758   -7.9263669    316.33617  0.015870769  0.014891623           13 
 1662000    0.5828082   -7.9274842    316.19831  0.015854307  0.014879576           12 
 1663000   0.59131843   -7.9105001    316.36602  0.015853178   0.01486754           14 
 1664000   0.58647651   -7.9314296    316.16362  0.015833515  0.014855491           17 
 1665000   0.58962799   -7.9065743    316.48198  0.015839939  0.014843467           13 
 1666000   0.59200421   -7.9256849    316.28416  0.015820536  0.014831444           15 
 1667000   0.57256642   -7.9417116    316.12097  0.015802888   0.01481945           10 
 1668000   0.57372424   -7.9368603    316.51841   0.01581327  0.014807445           12 
 1669000   0.57984359   -7.9083809    316.59854  0.015807796  0.014795452           15 
 1670000   0.58652486   -7.9605472    316.26093  0.015781484  0.014783476           23 
 1671000   0.60715425   -7.9227062    316.31017  0.015774495  0.014771496           23 
 1672000   0.59731301   -7.9254266    315.54908  0.015727127  0.014759506           11 
 1673000   0.58588586   -7.9181719    316.12689  0.015746508  0.014747523           17 
 1674000   0.59255083   -7.9263489    315.85544  0.015723588  0.014735571            9 
 1675000   0.57975455   -7.9520392    315.89614  0.015716226   0.01472362           16 
 1676000    0.5943264    -7.935817    316.37683  0.015730749  0.014711672           14 
 1677000   0.56964322   -7.9366078    316.30315  0.015717708  0.014699753            9 
 1678000   0.59430963   -7.9169653    316.82614  0.015734314   0.01468785           12 
 1679000   0.58515463   -7.9468209    316.43553  0.015705555  0.014675956            8 
 1680000   0.58545678   -7.9264866    316.17958  0.015683511  0.014664053           16 
 1681000   0.57538761   -7.9430152    315.18813  0.015625031  0.014652143           19 
 1682000   0.58409475   -7.9389808    315.58632   0.01563547   0.01464023           12 
 1683000    0.5780422   -7.9350789     316.0213  0.015647717  0.014628356           14 
 1684000   0.59411995   -7.9401236     315.5808  0.015616627  0.014616496            9 
 1685000   0.58500959   -7.9305066    316.26963  0.015641426  0.014604628           10 
 1686000   0.58774505   -7.9279484    316.13971  0.015625727  0.014592793           16 
 1687000   0.58858041    -7.941451    315.72907   0.01559618  0.014580967           15 
 1688000    0.5600748   -7.9463057    316.22755   0.01561155  0.014569138           16 
 1689000   0.58101855   -7.9353026    315.77573  0.015580014  0.014557313           14 
 1690000   0.58274701   -7.9492388    316.05362  0.015584498  0.014545501            7 
 1691000   0.58320257   -7.9673847    315.66795  0.015556276  0.014533686            7 
 1692000   0.57760819    -7.939458    316.14735  0.015570693  0.014521913            7 
 1693000   0.57445035   -7.9381683    316.00637  0.015554557  0.014510147           10 
 1694000   0.58849168   -7.9255967    315.61094  0.015525922  0.014498397            7 
 1695000   0.57100907   -7.9381555    315.84324  0.015528183  0.014486638            8 
 1696000   0.58941475   -7.9402821    315.62807  0.015508455  0.014474908            5 
 1697000   0.58046624   -7.9551609    316.17656   0.01552625  0.014463181           10 
 1698000   0.57262605   -7.9581273    315.39563  0.015478781  0.014451457           10 
 1699000   0.58814292   -7.9169054    315.92185   0.01549548  0.014439751            5 
 1700000   0.57608941   -7.9371018    316.10478  0.015495333  0.014428074            9 
 1701000   0.57092379   -7.9487593    315.87345   0.01547489  0.014416404           11 
 1702000   0.58023873   -7.9559891    315.25354  0.015435446  0.014404741           10 
 1703000   0.57765697   -7.9589154    316.05875  0.015465783  0.014393065            9 
 1704000   0.58713964   -7.9642942    315.43798  0.015426349  0.014381396           14 
 1705000   0.57186847     -7.95867    315.58501  0.015424487  0.014369724            9 
 1706000   0.56052916   -7.9638023    315.75073  0.015423541  0.014358069           17 
 1707000   0.56359832   -7.9442558    315.86895  0.015420277  0.014346432           15 
 1708000   0.57351582    -7.961629    316.40888  0.015437592    0.0143348           21 
 1709000    0.5663048    -7.946674     315.6634  0.015392208  0.014323164           12 
 1710000   0.57224837    -7.949936    315.71859  0.015385896  0.014311547            9 
 1711000   0.58111825   -7.9615122    316.18808   0.01539977  0.014299935           14 
 1712000   0.57049507   -7.9696219    315.52933   0.01535871  0.014288332           16 
 1713000   0.57032895   -7.9553521    315.98709  0.015372012  0.014276731           14 
 1714000   0.58640314   -7.9578599     315.6315  0.015345755   0.01426515           20 
 1715000   0.57746469   -7.9665305    315.95622  0.015352586  0.014253572           10 
 1716000   0.56602636   -7.9555793    315.82671   0.01533735  0.014241984           12 
 1717000   0.56929803   -7.9707076    315.91487  0.015332696  0.014230389           14 
 1718000   0.57364445   -7.9686259     315.5256  0.015304889  0.014218824           17 
 1719000   0.57033309   -7.9697828    315.13556  0.015277078  0.014207252           12 
 1720000    0.5753866   -7.9649907    315.31589  0.015276933  0.014195669           15 
 1721000    0.5666089   -7.9895469     314.8968  0.015247763  0.014184104           16 
 1722000   0.55348613   -7.9692782    315.17145    0.0152522  0.014172544            9 
 1723000   0.56932236   -7.9822907    315.51682  0.015260051  0.014161015           12 
 1724000   0.56841362   -7.9823031    314.75145  0.015214204  0.014149493           12 
 1725000   0.57935386   -7.9699347    315.52724  0.015242862  0.014137982           18 
 1726000   0.56693609   -7.9712327    315.70631  0.015242676  0.014126476           19 
 1727000   0.54758322   -7.9857938    315.83592  0.015240104  0.014114982           12 
 1728000   0.56552314    -7.969492    315.48155  0.015214195  0.014103512           21 
 1729000   0.57541225   -7.9558699      315.283  0.015195826  0.014092042           19 
 1730000   0.56671791   -7.9802027    314.64457  0.015156289  0.014080594           16 
 1731000   0.58015411   -7.9885166    314.91357  0.015160484   0.01406914           21 
 1732000   0.55331973   -7.9798952    315.24007   0.01516744  0.014057704           12 
 1733000   0.55671135   -7.9869936    315.63122  0.015177496  0.014046267           16 
 1734000   0.56499715   -7.9893877    315.03508  0.015140094  0.014034836           11 
 1735000   0.56557119   -7.9931481    314.65284  0.015113008  0.014023416           11 
 1736000   0.55600103   -7.9751473     314.8791  0.015115164  0.014012006           21 
 1737000    0.5664535   -7.9779454    315.69473  0.015145593  0.014000598           13 
 1738000   0.55347264   -7.9856065    314.90374  0.015098952  0.013989204           17 
 1739000   0.56505786   -7.9867692    315.64728    0.0151259  0.013977824           22 
 1740000   0.55538241   -7.9698378     315.1486  0.015093324  0.013966461            8 
 1741000   0.56683551   -7.9890315    315.61976  0.015107207  0.013955109           17 
 1742000   0.55611106   -7.9979831    315.07567  0.015072506  0.013943776           14 
 1743000   0.55849323   -7.9903869    314.92959  0.015056875  0.013932429           13 
 1744000   0.55412892   -7.9967209    315.21223  0.015061746  0.013921096           13 
 1745000   0.55638773   -7.9838682    314.66064  0.015026774  0.013909756           15 
 1746000   0.54391386   -8.0035977    314.92868   0.01503096  0.013898435           15 
 1747000   0.54498619    -7.994797    314.98296  0.015024946  0.013887117           13 
 1748000   0.56320567   -7.9782839    315.61081  0.015046282  0.013875831           13 
 1749000   0.54609072   -7.9987823     315.4559  0.015030298  0.013864551           13 
 1750000   0.55528476   -7.9935561    314.81324  0.014991107  0.013853275            8 
 1751000    0.5555231   -7.9954056    315.18983  0.015000468   0.01384201           26 
 1752000   0.55200281   -7.9943862    315.53437  0.015008294  0.013830768            7 
 1753000   0.55309556   -7.9919384    315.33253  0.014990137  0.013819533           13 
 1754000   0.55263209    -7.996083    315.36242  0.014983011  0.013808313           17 
 1755000     0.567842   -7.9995102    315.01081  0.014957778   0.01379708           19 
 1756000   0.54748393   -7.9977126    314.13088  0.014907502  0.013785864           14 
 1757000   0.55171628   -7.9906331    315.26704  0.014952904  0.013774645           20 
 1758000   0.54917746   -7.9809178     314.8484  0.014924554   0.01376342           14 
 1759000   0.55429867   -8.0053424    315.28742  0.014936868  0.013752213           11 
 1760000   0.56215527   -7.9902426    315.39242  0.014933353  0.013741021           18 
 1761000   0.55510535   -8.0032852    314.67168  0.014890767  0.013729815           14 
 1762000   0.55227808   -7.9998424    315.41544  0.014917491  0.013718633           16 
 1763000   0.54586492   -8.0036405    314.87124  0.014883307  0.013707452           13 
 1764000   0.54665533   -8.0167206    314.85377  0.014874044  0.013696285           10 
 1765000   0.55408766   -7.9995163    314.50607    0.0148492  0.013685122           23 
 1766000    0.5522037   -8.0046605    314.57932  0.014844249  0.013673992           21 
 1767000   0.55830389   -8.0141786    314.87871  0.014849967  0.013662861           14 
 1768000   0.55491018   -8.0096343    315.08084  0.014851096  0.013651746           20 
 1769000   0.55584906   -8.0056525    314.76542  0.014827841  0.013640625           22 
 1770000   0.55600412   -8.0148625    314.65582  0.014814304  0.013629525           17 
 1771000   0.53586895   -8.0148666    314.74383   0.01481008  0.013618427           21 
 1772000   0.54788668   -7.9810113    314.31034  0.014781336  0.013607336           14 
 1773000   0.54711717   -8.0263191     314.3997    0.0147772  0.013596255           19 
 1774000   0.56138292   -8.0189028    314.88818  0.014791816  0.013585181           25 
 1775000   0.54448069   -8.0162432    314.18649  0.014750539  0.013574113           20 
 1776000   0.54529274   -8.0070207    314.82936  0.014772399  0.013563061           22 
 1777000   0.55149151    -8.011571    314.42787  0.014745257  0.013552021           30 
 1778000    0.5446531   -8.0099142    314.33969  0.014732831  0.013541002           23 
 1779000   0.54239721   -8.0149483    314.07038  0.014711935  0.013529988           21 
 1780000   0.54809454   -8.0146018    314.42615  0.014720325  0.013518977           15 
 1781000   0.53571315   -8.0123737    314.31711  0.014706958  0.013507976           18 
 1782000   0.54562559   -8.0114759    314.54418  0.014709324  0.013496983           31 
 1783000   0.54532078   -8.0162698    314.42046  0.014695292  0.013486004           18 
 1784000   0.54529172   -8.0217676     314.6963  0.014699939  0.013475046           22 
 1785000    0.5397161   -8.0117207    314.64901  0.014689496  0.013464114           19 
 1786000   0.54694389   -8.0180307    314.55648  0.014676954  0.013453168           20 
 1787000   0.52803042    -8.000325    314.23686  0.014653836  0.013442232           25 
 1788000   0.54524505   -8.0209138    314.42819  0.014654558  0.013431305           25 
 1789000   0.53905162   -8.0225636    314.38299  0.014644261  0.013420384           17 
 1790000   0.54342395   -8.0050272    315.07529  0.014668309  0.013409469           23 
 1791000   0.53591679   -8.0158814    314.87802  0.014650941  0.013398578           21 
 1792000   0.52960557   -8.0063652     314.7284  0.014635807  0.013387693           26 
 1793000   0.54708917   -8.0350701    314.25891  0.014605824  0.013376816           12 
 1794000   0.54768854   -8.0156953    314.70886  0.014618583   0.01336594           16 
 1795000    0.5371192   -8.0340134    314.52754  0.014602021  0.013355066           16 
 1796000   0.52641094   -8.0163351    314.19412  0.014578421  0.013344208           24 
 1797000   0.53664982   -8.0361912    314.63505  0.014590755  0.013333354           22 
 1798000   0.54728729   -8.0245727    313.53222  0.014531527  0.013322512           21 
 1799000   0.53907696    -8.033137     314.5351  0.014569904  0.013311679           23 
 1800000    0.5415967   -8.0273365    314.47219  0.014558898  0.013300856           17 
 1801000   0.53458992   -8.0344256    314.34339  0.014544854  0.013290033           25 
 1802000    0.5366504   -8.0241738    314.55184  0.014546423  0.013279232           14 
 1803000   0.54349133   -8.0399032    314.67732  0.014544154  0.013268432           18 
 1804000   0.53060902   -8.0463327    314.34863  0.014520909  0.013257635           12 
 1805000   0.53498804   -8.0426342    314.37267  0.014513974  0.013246846           20 
 1806000   0.51650058   -8.0478433    314.56658  0.014514885  0.013236075           17 
 1807000   0.54244622    -8.032893    313.93457  0.014477706    0.0132253           18 
 1808000   0.52442387   -8.0425385    314.23251  0.014483431  0.013214544           24 
 1809000   0.53769036   -8.0457704    314.08718   0.01446873  0.013203784           19 
 1810000   0.52246874   -8.0449543    314.20158  0.014466003  0.013193038           18 
 1811000   0.54893957   -8.0298003    313.90737  0.014444477  0.013182291           18 
 1812000   0.52186922   -8.0453068    314.26137  0.014452786  0.013171563           16 
 1813000   0.53342318    -8.044156    313.53954  0.014411636   0.01316085           20 
 1814000   0.52305041   -8.0170356    313.82095  0.014416618  0.013150147           16 
 1815000   0.52998304   -8.0235158     314.2999  0.014430666  0.013139442           21 
 1816000   0.51497487   -8.0303114    313.76481  0.014398165  0.013128744           17 
 1817000   0.52913609   -8.0575141    313.76967  0.014390464  0.013118047           16 
 1818000   0.52577208   -8.0381271    314.19552  0.014402068  0.013107376           15 
 1819000   0.52974915   -8.0459953    314.18719  0.014393769  0.013096723           10 
 1820000   0.51430461   -8.0614253    314.30126  0.014391083   0.01308607           19 
 1821000   0.52491436    -8.060121    314.01557  0.014370107  0.013075425           13 
 1822000   0.54349579   -8.0482204    313.62429  0.014344324  0.013064789           13 
 1823000   0.52281593   -8.0426235    314.01113  0.014354138  0.013054158           11 
 1824000   0.51832341   -8.0407631    314.15026  0.014352625  0.013043536           10 
 1825000     0.529576   -8.0443615    314.05557  0.014340437   0.01303293           11 
 1826000   0.53204102   -8.0557375     314.2923  0.014343387  0.013022329            8 
 1827000   0.51689475   -8.0403236    313.97268  0.014320958  0.013011743           18 
 1828000   0.52159607   -8.0271961    313.92109  0.014310772  0.013001171           10 
 1829000   0.52879926   -8.0520509    313.68529  0.014292204  0.012990605           10 
 1830000   0.52493183   -8.0611889    314.39726  0.014316815  0.012980035           12 
 1831000     0.524064   -8.0582297    313.48944  0.014267679  0.012969487           12 
 1832000   0.51992603   -8.0404674    313.67088  0.014268144  0.012958957           11 
 1833000   0.52185943   -8.0561702    313.76683  0.014264722  0.012948423            7 
 1834000   0.52543061   -8.0621393    314.43615  0.014287357  0.012937898           12 
 1835000    0.5196908   -8.0469565    314.30608  0.014273664  0.012927392           14 
 1836000   0.52804013    -8.062399    313.71482  0.014239053  0.012916892           10 
 1837000   0.51482777   -8.0667355    314.03494  0.014245824  0.012906397            5 
 1838000    0.5162614   -8.0446182    313.92205  0.014232955  0.012895914           10 
 1839000   0.52980259   -8.0454527    313.73859  0.014216902  0.012885434            6 
 1840000   0.50395034   -8.0530671    313.77124  0.014210654  0.012874974           13 
 1841000   0.50616475   -8.0449104    313.71391   0.01420034  0.012864523            5 
 1842000   0.52025153   -8.0599796    313.94746  0.014203197  0.012854075           14 
 1843000   0.50898299   -8.0653462    313.40294  0.014170869  0.012843631           11 
 1844000   0.50576961   -8.0627157    313.91958  0.014186532  0.012833196           15 
 1845000   0.51465205   -8.0518935    313.72068  0.014169859  0.012822773           12 
 1846000    0.5114652   -8.0881606    313.38735  0.014147136  0.012812374           10 
 1847000   0.51713614   -8.0685899    313.86378  0.014160972  0.012801968           14 
 1848000    0.5182879   -8.0650287    314.00382  0.014159624  0.012791585           17 
 1849000   0.51608506   -8.0491027    314.03278  0.014153271   0.01278121           15 
 1850000   0.51921345   -8.0564229    313.28253  0.014111826   0.01277083           16 
 1851000   0.50921138   -8.0663642    313.52042  0.014114912  0.012760466           14 
 1852000   0.51464784   -8.0855607    313.42563  0.014103025  0.012750105           17 
 1853000   0.51898007   -8.0707382    313.13355  0.014082279  0.012739754           10 
 1854000   0.51636397   -8.0662875    313.68343  0.014099399  0.012729417           10 
 1855000   0.51455323   -8.0529282    312.86807  0.014055169  0.012719088           11 
 1856000   0.51439449   -8.0591353    313.92351  0.014094985  0.012708773           20 
 1857000   0.50996502   -8.0675745    313.40123  0.014063958  0.012698469           17 
 1858000   0.52065226   -8.0755604    313.75266   0.01407215  0.012688182           20 
 1859000   0.51994882   -8.0571925    313.04716  0.014032955  0.012677905            9 
 1860000   0.51408531   -8.0852586    313.23739  0.014033933  0.012667636           10 
 1861000   0.50408023   -8.0544968    313.40593  0.014033939  0.012657386           26 
 1862000   0.51143246   -8.0734716    313.59178   0.01403472   0.01264716           13 
 1863000   0.51791403   -8.0774855    313.02081  0.014001646  0.012636935           17 
 1864000   0.50921647   -8.0758817    313.47092  0.014014258   0.01262673           10 
 1865000    0.5011107   -8.0651109    313.16619  0.013993128  0.012616522           19 
 1866000   0.50575288   -8.0969946    313.45415  0.013998488  0.012606325           12 
 1867000   0.50227534   -8.0832347    313.65404  0.013999912  0.012596132           10 
 1868000   0.51022276   -8.0813981    313.56306  0.013988359  0.012585953            9 
 1869000   0.50455565   -8.0814379    313.44191  0.013975473  0.012575781            8 
 1870000   0.50599935   -8.0746694    313.42326  0.013967168  0.012565625           15 
 1871000   0.50154179   -8.0880948    313.34584  0.013956255  0.012555471           18 
 1872000   0.49803065   -8.0659819    313.90491  0.013973687  0.012545335           21 
 1873000   0.49952204    -8.082723    313.13242  0.013931857  0.012535203           13 
 1874000   0.50229767   -8.0815551    313.88024  0.013957677  0.012525073           14 
 1875000   0.50510334   -8.0921407     313.5838  0.013937058  0.012514974           19 
 1876000   0.51337353   -8.0801472    313.42032  0.013922367  0.012504877           17 
 1877000   0.50943961   -8.0692184    313.30803  0.013909964   0.01249478           20 
 1878000   0.50958755   -8.0765622    313.49448  0.013910831  0.012484704           14 
 1879000   0.50846115   -8.0763675    313.54279   0.01390557  0.012474634           17 
 1880000   0.49466837   -8.0849805    313.51056  0.013896744   0.01246457           20 
 1881000   0.49441832   -8.0890562    313.76043  0.013900427  0.012454516           17 
 1882000    0.5009905   -8.0738919    312.88771  0.013854397  0.012444469           16 
 1883000   0.50390014   -8.0858727    313.26964  0.013863942  0.012434423           16 
 1884000   0.50181902    -8.078477    313.47521  0.013865676  0.012424395           14 
 1885000   0.49511566   -8.0933981    313.03501   0.01383886  0.012414379           17 
 1886000   0.50117663   -8.0902622    313.58405  0.013855782  0.012404377           20 
 1887000   0.48826204   -8.1072633    313.31733   0.01383666  0.012394383           19 
 1888000   0.51024666   -8.0810958      312.712  0.013802613  0.012384399           16 
 1889000   0.49304689   -8.0755411    313.39858  0.013825595   0.01237442           16 
 1890000   0.50293381   -8.0959359    312.92775   0.01379752  0.012364446           16 
 1891000   0.49489037   -8.0872673     313.4994  0.013815415  0.012354487           14 
 1892000   0.50453354   -8.1156412     313.3631   0.01380211  0.012344533           16 
 1893000   0.49691134   -8.0877861    313.46444   0.01379928  0.012334588           11 
 1894000   0.50023019   -8.0880992    312.96324  0.013769942  0.012324656           19 
 1895000   0.49953383   -8.1088373    313.07418  0.013767554  0.012314733           21 
 1896000   0.50490646   -8.0995871    312.93428  0.013754144  0.012304821            9 
 1897000   0.49165206   -8.0894381    313.86662   0.01378785   0.01229492           11 
 1898000   0.49365714   -8.0899006    313.49635  0.013764329  0.012285032           19 
 1899000   0.49025147   -8.0866017    313.36055  0.013751121  0.012275142           20 
 1900000   0.49624543   -8.0973418     313.5475  0.013752084  0.012265258           26 
 1901000   0.49618314   -8.0936535    313.33455  0.013735514  0.012255384           21 
 1902000   0.49281883   -8.1149009    313.44896  0.013733305  0.012245528           20 
 1903000   0.49764874   -8.0917914    313.06825  0.013709417  0.012235673           15 
 1904000   0.48712892   -8.1037461    313.02417  0.013700288  0.012225829           18 
 1905000   0.48834779   -8.1097633    313.34779  0.013707252  0.012216004           16 
 1906000   0.49158444   -8.1002778    313.09839  0.013689156  0.012206184           17 
 1907000   0.50175489   -8.1316187    313.10355  0.013682204  0.012196363           13 
 1908000    0.4873168     -8.11244    313.19415   0.01367899  0.012186551           15 
 1909000   0.50206471   -8.1132077    313.23224  0.013673487   0.01217676           11 
 1910000   0.50320118   -8.1204711      313.131  0.013661911  0.012166968           10 
 1911000   0.49221311   -8.1089678    313.29553  0.013661936  0.012157178           13 
 1912000   0.48487006   -8.1035891    313.39308  0.013659043  0.012147408           21 
 1913000   0.49035607   -8.1275615    313.17903  0.013642578  0.012137638           23 
 1914000   0.48164315   -8.1202126    313.36478  0.013643538  0.012127888           16 
 1915000   0.48544136   -8.1004221      313.036  0.013622106  0.012118149           14 
 1916000   0.48320186   -8.1057029    313.34011  0.013628223  0.012108417           23 
 1917000   0.48466047   -8.1094206    313.04831   0.01360843    0.0120987           21 
 1918000   0.48810763   -8.1126429    312.90054  0.013594914  0.012088979           11 
 1919000   0.49140821   -8.1021803    312.83833  0.013585128  0.012079268           18 
 1920000   0.49181486    -8.109304    312.54807  0.013565454  0.012069569           12 
 1921000   0.49086021   -8.1095151    313.46051  0.013597975  0.012059884           13 
 1922000   0.48401709   -8.1294481    313.02808  0.013572151  0.012050208           16 
 1923000   0.48278804   -8.1234925    313.39715  0.013581087  0.012040541            8 
 1924000   0.47628812   -8.1060766    312.70422  0.013544015  0.012030884           13 
 1925000   0.47759169   -8.1145009    312.88652  0.013544871  0.012021249           16 
 1926000   0.47739028   -8.1143602    312.77856  0.013533167  0.012011617           10 
 1927000   0.48808825   -8.0947234    313.10059  0.013540071  0.012001989           13 
 1928000   0.48019114   -8.1233557    312.77193  0.013518842  0.011992369           12 
 1929000   0.48134015   -8.1061529    312.39759  0.013495662  0.011982757           15 
 1930000   0.47256074   -8.1265086    312.90001  0.013510363  0.011973159            7 
 1931000   0.48527664   -8.0999164    313.08097  0.013511176  0.011963556           14 
 1932000   0.48797568   -8.1237972    313.19635  0.013509159  0.011953975           15 
 1933000   0.48275226   -8.1242212    313.32005  0.013507504  0.011944398           21 
 1934000   0.48046681    -8.125942    312.90734  0.013482736  0.011934823           11 
 1935000   0.48998594   -8.1332367    312.54738  0.013460266  0.011925266            6 
 1936000   0.48015086    -8.126646    313.28417  0.013485028  0.011915727           12 
 1937000   0.48601752   -8.1127439    312.86043  0.013459836  0.011906196            9 
 1938000   0.47459182   -8.1276371    313.23939  0.013469186  0.011896673           15 
 1939000   0.48270263   -8.1098608    313.14053  0.013457991  0.011887148            7 
 1940000   0.47027446   -8.1377225    313.20465  0.013453808  0.011877642            8 
 1941000   0.47621711    -8.123717    313.00873  0.013438465  0.011868145           12 
 1942000   0.47930692   -8.1238429    312.91281  0.013427429  0.011858654           10 
 1943000   0.47140002   -8.1173468    313.04011  0.013425978  0.011849161           10 
 1944000   0.47978035   -8.1203304    312.49901  0.013395877  0.011839685           10 
 1945000   0.47000299   -8.1329189    312.40528  0.013384973  0.011830212            8 
 1946000   0.47007514    -8.131853    312.30969  0.013374002  0.011820753           11 
 1947000   0.48313272   -8.1240253    312.52124  0.013376187  0.011811291           11 
 1948000   0.46690101   -8.1304698    312.42156  0.013365057  0.011801835            7 
 1949000    0.4636529   -8.1312331    312.15738  0.013346903  0.011792402           11 
 1950000   0.47000504   -8.1222519    312.94285  0.013373626  0.011782976            5 
 1951000   0.47499661   -8.1149863    312.36696  0.013342173  0.011773563           12 
 1952000   0.48349649   -8.1226626    312.93441  0.013359563  0.011764159            8 
 1953000   0.47519376   -8.1327389    312.58161  0.013337669  0.011754768           10 
 1954000    0.4823861   -8.1333764    312.22029  0.013315434  0.011745379           11 
 1955000   0.47802652   -8.1130647    312.75011  0.013331207  0.011735996            8 
 1956000   0.47706801   -8.1303005    312.53219  0.013315107  0.011726628            5 
 1957000   0.47618993   -8.1364448    312.74938  0.013317551  0.011717273           12 
 1958000   0.47161826   -8.1449444     312.7508   0.01331081  0.011707923            5 
 1959000   0.46892609   -8.1244715    312.67563  0.013300818  0.011698583            7 
 1960000    0.4701381   -8.1269362    312.44037  0.013284029   0.01168926            9 
 1961000   0.47378136   -8.1098589    312.81696  0.013293259  0.011679945            8 
 1962000   0.48582452   -8.1204778    312.13096  0.013257346  0.011670632           11 
 1963000   0.46750826   -8.1230731    312.57077  0.013269263   0.01166133            8 
 1964000   0.45675206   -8.1198501    312.87846  0.013275563  0.011652027            9 
 1965000   0.47230487   -8.1284258    312.31353  0.013244849  0.011642727            8 
 1966000   0.46493386   -8.1420111     312.3524  0.013239759  0.011633431           10 
 1967000   0.47935189   -8.1511307    312.14205  0.013224117  0.011624149            8 
 1968000   0.47368046   -8.1503815    312.53882  0.013234198  0.011614881           13 
 1969000   0.46692411   -8.1332647    312.48385   0.01322515  0.011605624           10 
 1970000   0.45850195   -8.1443474    312.78964  0.013231372   0.01159637           12 
 1971000    0.4636072   -8.1394813    312.28087  0.013203149  0.011587134           14 
 1972000   0.46505174   -8.1285083    312.31792  0.013198019  0.011577906            5 
 1973000   0.45932116   -8.1270131    311.68484   0.01316459  0.011568686            9 
 1974000   0.46634296    -8.150613    312.72107  0.013201666  0.011559474           13 
 1975000   0.46217133   -8.1523972     312.4679    0.0131843  0.011550273           14 
 1976000   0.46787511   -8.1544008     312.4172  0.013175489  0.011541078            8 
 1977000   0.46224765   -8.1329421     312.4794  0.013171447  0.011531896           12 
 1978000   0.46282099   -8.1433444    312.31723  0.013157955   0.01152272           11 
 1979000   0.46773723   -8.1431635    312.72738  0.013168577  0.011513561           11 
 1980000   0.47218322   -8.1448232    312.56955  0.013155284    0.0115044            7 
 1981000   0.45614117    -8.151214    312.41771  0.013142256  0.011495251           11 
 1982000   0.47143676   -8.1640025     312.6026  0.013143399  0.011486111            9 
 1983000    0.4540643   -8.1282699    311.85808  0.013105483  0.011476983           18 
 1984000   0.45870132   -8.1664918    312.35037  0.013119555   0.01146786            8 
 1985000   0.46279807   -8.1404827    312.31779  0.013111578  0.011458749            5 
 1986000   0.46956079   -8.1511063    312.36417  0.013106922  0.011449641           10 
 1987000   0.46960797   -8.1354183    312.46348  0.013104491  0.011440547           10 
 1988000   0.45096351   -8.1511789    312.28326  0.013090345  0.011431465            7 
 1989000    0.4555759   -8.1808589     312.1123  0.013076601  0.011422382           13 
 1990000   0.46610032   -8.1457087    311.91128  0.013061612    0.0114133           11 
 1991000   0.44942021   -8.1436719    311.92347  0.013055561  0.011404232           14 
 1992000   0.46434116   -8.1625331    311.81275  0.013044375  0.011395173           13 
 1993000   0.45677027   -8.1687213    312.29604  0.013058038  0.011386117           10 
 1994000    0.4593898   -8.1638563    312.23588  0.013048975  0.011377073           13 
 1995000    0.4640484   -8.1451001    312.21582  0.013041596  0.011368048           10 
 1996000   0.45619307   -8.1541607    312.38819  0.013042259  0.011359023            8 
 1997000   0.45766517    -8.169595    312.36837  0.013034901  0.011350015            4 
 1998000   0.45172703   -8.1607141    312.59215  0.013037711   0.01134101            9 
 1999000   0.44307821   -8.1666988    312.24653   0.01301678  0.011332012           10 
 2000000   0.45128187   -8.1509748    311.59742  0.012983226  0.011323018            9 
 2001000   0.44815587   -8.1712288    312.30946  0.013006391  0.011314031            8 
 2002000   0.45558833   -8.1625367    312.30696   0.01299979  0.011305056            9 
 2003000   0.45511174   -8.1492567    312.44007  0.012998838  0.011296094            8 
 2004000   0.45573863   -8.1451823    312.02031  0.012974896  0.011287144            8 
 2005000   0.45237964   -8.1503402    312.17817  0.012974986  0.011278207           10 
 2006000   0.46543819   -8.1661522    312.30379  0.012973737  0.011269268            9 
 2007000   0.45626307      -8.1559    312.43587  0.012972757  0.011260348           10 
 2008000     0.444674   -8.1757507    312.17636  0.012955526  0.011251422            9 
 2009000   0.44842049   -8.1648734    312.24615  0.012951972  0.011242509            9 
 2010000   0.45614869   -8.1678914    312.06664  0.012938086  0.011233598            9 
 2011000   0.45447328   -8.1491207     311.8648  0.012923288    0.0112247            8 
 2012000   0.44715746    -8.170536    311.83363  0.012915574  0.011215816           14 
Loop time of 4510.13 on 48 procs for 2000000 steps with 4000 atoms

Performance: 76627.465 tau/day, 443.446 timesteps/s
99.4% CPU use with 48 MPI tasks x no OpenMP threads

MPI task timing breakdown:
Section |  min time  |  avg time  |  max time  |%varavg| %total
---------------------------------------------------------------
Pair    | 298.13     | 310.05     | 323.49     |  31.8 |  6.87
Neigh   | 29.681     | 30.256     | 31.018     |   6.4 |  0.67
Comm    | 270.41     | 288.27     | 299.97     |  36.9 |  6.39
Output  | 4.0622     | 4.0641     | 4.0944     |   0.2 |  0.09
Modify  | 3823.7     | 3834.6     | 3845.1     |   8.5 | 85.02
Other   |            | 42.91      |            |       |  0.95

Nlocal:        83.3333 ave          90 max          78 min
Histogram: 4 5 3 7 9 7 7 4 0 2
Nghost:        1914.10 ave        1934 max        1885 min
Histogram: 1 2 2 4 9 6 7 7 7 3
Neighs:        12066.3 ave       13323 max       10988 min
Histogram: 5 2 4 8 8 6 7 4 2 2
FullNghs:      24131.6 ave       26506 max       22458 min
Histogram: 3 6 4 13 6 4 8 2 0 2

Total # of neighbors = 1158319
Ave neighs/atom = 289.57975
Neighbor list builds = 107515
Dangerous builds = 0

#clear
#
#next RN
#
#jump SELF
Total wall time: 1:15:13
