
units lj                  # Use reduced LJ style units
atom_style atomic         # Uncharged point particles
atom_modify map hash      # Needed for indexing of clusters etc
                          # Used to be able to find where atoms are in relation to each other.

lattice fcc 1.0 spacing 1 1 1
Lattice spacing in x,y,z = 1.5874011 1.5874011 1.5874011
region box block 0 10 0 10 0 10 units lattice
create_box 2 box
Created orthogonal box = (0.0000000 0.0000000 0.0000000) to (15.874011 15.874011 15.874011)
  3 by 4 by 4 MPI processor grid
create_atoms 1 box
Created 4000 atoms
  using lattice units in orthogonal box = (0.0000000 0.0000000 0.0000000) to (15.874011 15.874011 15.874011)
  create_atoms CPU = 0.029 seconds
set type 1 type/fraction 2 0.59 78393
Setting atom values ...
  2375 settings made for type/fraction
mass 1 1.0
mass 2 1.0
pair_style lj/cut  3.5
pair_modify tail  yes
pair_coeff 1  1  1.0  1.0   # Intearaction between 1 and 1 set with epsilon = 1 and sigma = 1
pair_coeff 1  2  1.5  0.8
pair_coeff 2  2  0.5  0.88

write_data data.0
System init for write_data ...
Neighbor list info ...
  update every 1 steps, delay 10 steps, check yes
  max neighbors/atom: 2000, page size: 100000
  master list distance cutoff = 3.8
  ghost atom cutoff = 3.8
  binsize = 1.9, bins = 9 9 9
  1 neighbor lists, perpetual/occasional/extra = 1 0 0
  (1) pair lj/cut, perpetual
      attributes: half, newton on
      pair build: half/bin/atomonly/newton
      stencil: half/bin/3d
      bin: standard
WARNING: Not all mixed pair coeffs generated from mixing. Use write_data with 'pair ij' option to store all pair coeffs. (../write_data.cpp:312)


#############################
#   M E L T   S Y S T E M   #
#############################

velocity all create 2.4 6583654 mom yes dist gaussian # Assign velocities
                                                    # Temperature 2.4, random number seed, zero linear momentum
                                                                                # Gaussian distribution

timestep 0.002   # simulation timestep
thermo 1000       # output thermodynamic data every 1000 steps bf 100

# Define a fix  in this case with index 1 applied to all
# particles in the simulation. This fix is for simulations
# in the anisotropic NPT ensemble. Note that we use the MTK
# correction.
fix 1 all npt temp 2.4 2.4 0.1 iso 5.68 5.68 0.5 mtk yes tchain 5 pchain 5 # Use NPT ensemble
                                                                         # Set temperature and pressure and damping
                                                                         # Numbers of thermostats in chain and in barostat
run 10000          # run for 10000 steps
Per MPI rank memory allocation (min/avg/max) = 3.642 | 3.644 | 3.648 Mbytes
Step Temp E_pair E_mol TotEng Press Volume 
       0          2.4   -4.7762807            0   -1.1771807   -4.0862689         4000 
    1000    2.4013738   -4.4488371            0  -0.84767698    5.5812315    3654.9176 
    2000    2.4316312   -4.4587298            0  -0.81219489    5.8088229    3631.8818 
    3000    2.3767957   -4.5519119            0  -0.98760973    5.9126414     3586.543 
    4000     2.406833    -4.511729            0  -0.90238206    5.5342425    3631.0217 
    5000    2.4868326   -4.4977326            0  -0.76841631     5.770928    3622.9424 
    6000    2.4341062   -4.5027207            0  -0.85247419    5.9053362    3609.9468 
    7000    2.3819968   -4.5114276            0  -0.93932564    5.4573771      3634.01 
    8000    2.4343032   -4.5996495            0  -0.94910764    5.7217044    3575.4603 
    9000     2.429885    -4.474187            0  -0.83027077     5.958898    3622.5404 
   10000    2.4283811    -4.542648            0  -0.90098697    5.5434406    3621.3635 
Loop time of 2.64908 on 48 procs for 10000 steps with 4000 atoms

Performance: 652302.832 tau/day, 3774.901 timesteps/s
99.7% CPU use with 48 MPI tasks x no OpenMP threads

MPI task timing breakdown:
Section |  min time  |  avg time  |  max time  |%varavg| %total
---------------------------------------------------------------
Pair    | 1.1903     | 1.2698     | 1.4186     |   3.6 | 47.93
Neigh   | 0.21775    | 0.22451    | 0.25223    |   1.3 |  8.47
Comm    | 0.73783    | 0.89328    | 0.98893    |   5.4 | 33.72
Output  | 0.00024555 | 0.00024968 | 0.0003163  |   0.0 |  0.01
Modify  | 0.19966    | 0.24593    | 0.31272    |   6.9 |  9.28
Other   |            | 0.01534    |            |       |  0.58

Nlocal:        83.3333 ave          93 max          72 min
Histogram: 1 0 2 8 11 10 5 5 5 1
Nghost:        1753.08 ave        1778 max        1722 min
Histogram: 1 3 5 5 3 8 11 6 1 5
Neighs:        10563.6 ave       11707 max        8894 min
Histogram: 1 0 1 4 10 13 5 5 3 6

Total # of neighbors = 507055
Ave neighs/atom = 126.76375
Neighbor list builds = 907
Dangerous builds = 212

# Equilibrate just above the melting temperature to avoid step fn in T

fix 1 all npt temp 1.25 1.25 0.1 iso 5.68 5.68 0.5 mtk yes tchain 5 pchain 5
run 2000
Per MPI rank memory allocation (min/avg/max) = 3.644 | 3.646 | 3.650 Mbytes
Step Temp E_pair E_mol TotEng Press Volume 
   10000    2.4283811    -4.542648            0  -0.90098697    5.5434406    3621.3635 
   11000     1.271261   -6.6103741            0   -4.7039593    5.5720356    2778.7371 
   12000    1.2403614    -6.684083            0    -4.824006    5.5652399    2760.2149 
Loop time of 0.694413 on 48 procs for 2000 steps with 4000 atoms

Performance: 497686.226 tau/day, 2880.129 timesteps/s
99.5% CPU use with 48 MPI tasks x no OpenMP threads

MPI task timing breakdown:
Section |  min time  |  avg time  |  max time  |%varavg| %total
---------------------------------------------------------------
Pair    | 0.29572    | 0.32084    | 0.34355    |   2.2 | 46.20
Neigh   | 0.041803   | 0.043921   | 0.046267   |   0.5 |  6.32
Comm    | 0.24424    | 0.27012    | 0.30376    |   2.9 | 38.90
Output  | 5.2416e-05 | 5.4315e-05 | 7.4535e-05 |   0.0 |  0.01
Modify  | 0.048052   | 0.054713   | 0.060365   |   1.5 |  7.88
Other   |            | 0.004765   |            |       |  0.69

Nlocal:        83.3333 ave          90 max          73 min
Histogram: 1 1 4 2 7 5 6 13 6 3
Nghost:        2106.06 ave        2147 max        2086 min
Histogram: 8 3 8 11 11 6 0 0 0 1
Neighs:        13836.3 ave       15516 max       11526 min
Histogram: 1 2 1 0 10 13 6 14 0 1

Total # of neighbors = 664142
Ave neighs/atom = 166.03550
Neighbor list builds = 145
Dangerous builds = 15

#############################
# L I N E A R  Q U E N C H  #
#############################

# Define solid atoms. This closely follows ten Wolde  Ruiz-Montero and Frenkel  Faraday Discuss  1996  104  93-110
# Compute components of the per-atom q6 vector
compute q6 all orientorder/atom degrees 1 6 components 6 nnn NULL cutoff 1.3 # compute the Q6 parameter.
                                                                             # Use all neighbours within 1.3 unit cell.

# get number of connections
compute coord_number all coord/atom orientorder q6 0.5

# An atom is solid if it has 8 or more connections (of a possible 14)
variable is_solid atom c_coord_number>=8
group solid dynamic all var is_solid    # Must be dynamic to update
dynamic group solid defined

# do clustering
compute cluster solid cluster/atom 1.3 # Create a cluster where all atoms within are solid and max 1.3 units from another member

# define chunks one chunk per cluster
compute clus_chunks solid chunk/atom c_cluster nchunk every compress yes  # Says which atoms are in which chunk

# count the size of each chunk
compute size_chunks solid property/chunk clus_chunks count


# Find the maximum entry in the vector of chunk sizes
variable max_n equal max(c_size_chunks)


# Thermo style which includes this variable
# thermo_style custom step temp pe vol v_max_n

thermo ${N}  # Print the thermo information every 100 steps
thermo 1000  

# Reset the npt fix at a lower temperature (below freezing)
fix 1  all npt temp  ${temp} ${temp}  0.1  iso  5.68  5.68  0.5  mtk yes tchain  5  pchain  5
fix 1  all npt temp  0.45 ${temp}  0.1  iso  5.68  5.68  0.5  mtk yes tchain  5  pchain  5
fix 1  all npt temp  0.45 0.45  0.1  iso  5.68  5.68  0.5  mtk yes tchain  5  pchain  5

dump dmp2 all dcd ${N} traj.dcd
dump dmp2 all dcd 1000 traj.dcd


compute msd all msd com yes
variable twopoint equal c_msd[4]/6/(step*dt+1.0e-6)
fix 9 all vector 10 c_msd[4]
variable fit equal slope(f_9)/6/(10*dt)
thermo_style custom step temp pe c_msd[4] v_twopoint v_fit v_max_n

fix 1 all npt temp 1.25 ${temp} 0.1 iso 5.68 5.68 0.5 mtk yes tchain 5 pchain 5
fix 1 all npt temp 1.25 0.45 0.1 iso 5.68 5.68 0.5 mtk yes tchain 5 pchain 5
run 500000 # 5000000  # Run for this many steps
Neighbor list info ...
  update every 1 steps, delay 10 steps, check yes
  max neighbors/atom: 2000, page size: 100000
  master list distance cutoff = 3.8
  ghost atom cutoff = 3.8
  binsize = 1.9, bins = 8 8 8
  4 neighbor lists, perpetual/occasional/extra = 1 3 0
  (1) pair lj/cut, perpetual
      attributes: half, newton on
      pair build: half/bin/atomonly/newton
      stencil: half/bin/3d
      bin: standard
  (2) compute orientorder/atom, occasional
      attributes: full, newton on
      pair build: full/bin/atomonly
      stencil: full/bin/3d
      bin: standard
  (3) compute coord/atom, occasional
      attributes: full, newton on
      pair build: full/bin/atomonly
      stencil: full/bin/3d
      bin: standard
  (4) compute cluster/atom, occasional
      attributes: full, newton on
      pair build: full/bin/atomonly
      stencil: full/bin/3d
      bin: standard
Per MPI rank memory allocation (min/avg/max) = 9.847 | 9.850 | 9.854 Mbytes
Step Temp PotEng c_msd[4] v_twopoint v_fit v_max_n 
   12000    1.2403614    -6.684083 9.6694625e-31 6.7149043e-33 8.3333333e+20            1 
   13000    1.2817462   -6.6392332   0.47390155 0.0030378304  0.037797511            3 
   14000    1.2466851   -6.6908933   0.89039283 0.0052999571  0.036901596            2 
   15000    1.2337026   -6.6757524    1.3489776 0.0074943197  0.036280999            4 
   16000    1.2595552   -6.7279141    1.8524322 0.0096480838   0.03763517            3 
   17000    1.2792268   -6.7342149    2.3005546  0.011277228  0.038068187            4 
   18000    1.2465633   -6.7010194      2.71992  0.012592222  0.037992071            3 
   19000    1.2531178   -6.7217242    3.1206874  0.013687225  0.037448551            3 
   20000    1.2119741   -6.6875681     3.546523  0.014777179  0.036989975            2 
   21000    1.2621597    -6.764421    3.9552533  0.015695449  0.036625853            2 
   22000    1.2234798    -6.733447     4.375907  0.016575405  0.036354423            4 
   23000    1.2229434   -6.7643844    4.7733576  0.017294773   0.03611791            1 
   24000    1.2594101   -6.7343034    5.2015549  0.018060954  0.035868191            4 
   25000    1.2303186   -6.7635104    5.6605934  0.018868644  0.035812955            1 
   26000    1.2177539   -6.7644856    6.0597805  0.019422373  0.035800268            3 
   27000    1.2159741   -6.7547612    6.4445067  0.019890452  0.035688125            2 
   28000    1.2219016   -6.7672604    6.8795333  0.020474801  0.035565865            2 
   29000     1.203582   -6.7173058    7.3663855  0.021167774  0.035498255            3 
   30000    1.2210305   -6.8254073    7.6999387  0.021388718  0.035458916            2 
   31000    1.2108842   -6.7966064    8.1466685  0.021899646  0.035405008            2 
   32000    1.1872365   -6.7939861    8.4896812  0.022108545  0.035334097            4 
   33000    1.2163439   -6.7845179    8.9083682  0.022495879  0.035211978            2 
   34000    1.2090488   -6.7652204    9.2673022  0.022713976  0.035088647            5 
   35000    1.2051983   -6.7980112    9.7759269  0.023276016  0.035001616            1 
   36000    1.2286436    -6.808909    10.100552  0.023380908   0.03493129            2 
   37000    1.2328074   -6.8366102    10.519341  0.023692208  0.034842545            3 
   38000    1.2068298   -6.8053431    10.916682  0.023940092  0.034765497            2 
   39000     1.208397   -6.7884516    11.262717  0.024065633  0.034661254            1 
   40000    1.1783595   -6.8172319    11.577004  0.024118757   0.03455569            2 
   41000    1.2038405   -6.7778407    11.839129  0.024063271   0.03437752            3 
   42000    1.2073507   -6.8636968    12.013056  0.023835428  0.034141199            4 
   43000    1.2135494     -6.81645    12.413793  0.024057738  0.033866669            3 
   44000    1.2065366   -6.8470394     12.75882  0.024164432  0.033645469            4 
   45000    1.2205928   -6.8081762    13.209528  0.024462089  0.033431233            3 
   46000     1.178163   -6.8342815        13.64  0.024710145  0.033290455            3 
   47000    1.1954652   -6.8440658    13.947466  0.024729549  0.033166103            3 
   48000    1.1985018   -6.8425624     14.15857   0.02458085   0.03301285            1 
   49000    1.1883791   -6.8147041     14.48248  0.024630068  0.032835185            5 
   50000    1.2036173   -6.8560954    14.848669  0.024747782  0.032655924            1 
   51000    1.1758184   -6.8208523    15.269251  0.024949756   0.03250743            6 
   52000    1.1853662   -6.8863482    15.551148  0.024921711   0.03236395            2 
   53000     1.193952     -6.87214    15.888656  0.024982163  0.032220688            3 
   54000    1.1777096   -6.8953661    16.057806  0.024780565  0.032064148            3 
   55000    1.1868495   -6.8670205    16.432423   0.02489761  0.031895198            4 
   56000    1.2061794   -6.8490835     16.76133  0.024942455  0.031748033            4 
   57000     1.179161   -6.8615046     17.06933   0.02495516  0.031599727            2 
   58000    1.1727686   -6.8710972    17.365915  0.024951027   0.03144662           10 
   59000    1.1612036   -6.9015575    17.715423  0.025021783  0.031300976            3 
   60000    1.1914146   -6.8853383    18.095222  0.025132252  0.031171494            4 
   61000    1.2013427   -6.9077605    18.423128  0.025168207  0.031053459            3 
   62000    1.1815172   -6.9050887     18.77254  0.025231908  0.030944409            7 
   63000    1.1742483   -6.9010945    19.017179  0.025154999  0.030835842            3 
   64000    1.1795431   -6.9023346    19.364707  0.025214462  0.030726033            5 
   65000    1.1685088   -6.9385313     19.61379  0.025145884  0.030621508            3 
   66000    1.1610348   -6.9488557    19.886994  0.025109841  0.030506286            3 
   67000    1.1542377    -6.939877    20.333229  0.025290086  0.030398713            6 
   68000    1.1524525   -6.9280251    20.637478  0.025291026  0.030300753            3 
   69000    1.1692376   -6.9418583    20.879961  0.025217345  0.030206991            2 
   70000    1.1659409   -6.9572955    21.264676   0.02531509  0.030116331            2 
   71000    1.1371075   -6.9506766    21.524928     0.025264  0.030027744            2 
   72000    1.1690371   -6.9869109    21.901919  0.025349443  0.029940837            1 
   73000    1.1745789   -6.9434126    22.233077  0.025380225  0.029866159            3 
   74000    1.1518151   -6.9288914    22.605516  0.025456662  0.029793897            3 
   75000    1.1574363   -6.9456022    22.886908  0.025429898  0.029725872            3 
   76000    1.1394028   -6.9244529    23.328925  0.025579962  0.029661345            2 
   77000    1.1151744   -6.9777361    23.557445   0.02549507  0.029596116            3 
   78000    1.1435967   -7.0015008    24.020003  0.025662396  0.029532043            2 
   79000    1.1171109   -7.0056358    24.250181  0.025580359  0.029475698            3 
   80000    1.1469363    -6.970457    24.473056  0.025492766  0.029414056            4 
   81000    1.1466797   -6.9703689    24.745432  0.025458263   0.02934495            3 
   82000    1.1314645   -6.9935517    25.028311  0.025435275  0.029272893            3 
   83000     1.124192   -6.9556932    25.302304  0.025403919  0.029199527            2 
   84000    1.1157225   -6.9952308    25.726306  0.025522129  0.029134229            2 
   85000    1.1395671   -7.0138234    25.913905  0.025405789  0.029068083            2 
   86000    1.1456905   -7.0027194    26.130473  0.025320226  0.028991512            2 
   87000    1.1306783   -7.0542259     26.20995  0.025105316  0.028915825            1 
   88000    1.1257088   -6.9916631    26.620858  0.025209146  0.028829434            2 
   89000    1.1082967    -6.979085     26.82214  0.025114363  0.028746005            3 
   90000    1.1236888   -7.0642777    27.275057  0.025254683  0.028672887            2 
   91000    1.1333889   -7.0247082    27.612726  0.025286379  0.028605085            2 
   92000    1.1148804   -7.0372155    27.836566  0.025214281  0.028533218            4 
   93000    1.1206301   -7.0618755    28.085983  0.025166651  0.028461124            4 
   94000    1.1356926    -7.055806    28.356183   0.02513846  0.028384091            3 
   95000    1.1022812   -7.0952688    28.490674  0.024991819  0.028306532            6 
   96000    1.1015567   -7.0776296    28.974726  0.025151672  0.028234757            6 
   97000    1.0924786   -7.0271935    29.227843  0.025109831  0.028162258            4 
   98000    1.1307823   -7.0842085    29.577399   0.02515085  0.028096014           19 
   99000    1.1135823   -7.0732984    29.721397   0.02501801  0.028031676            2 
  100000    1.0890812   -7.0598751    29.947499  0.024956249  0.027961518            3 
  101000    1.1100404   -7.0799494     30.14135  0.024869101  0.027891758            6 
  102000    1.1005761   -7.0435679    30.479135  0.024901254  0.027815914            2 
  103000    1.1088612   -7.0740363    30.692493  0.024832114  0.027748229            2 
  104000    1.1134998   -7.0300311    31.116455  0.024933057  0.027679031            4 
  105000    1.0998932   -7.1098354    31.379827  0.024904624  0.027612472            2 
  106000    1.1016428   -7.1158097    31.452641  0.024726919  0.027543184            2 
  107000    1.0837329   -7.1088976    31.895239  0.024840529  0.027475661            2 
  108000    1.0922159   -7.1205385    31.955518  0.024657036  0.027411519            2 
  109000    1.0758123   -7.0652877    32.276722  0.024676393  0.027342058            2 
  110000    1.0825015   -7.1262038     32.45263  0.024585325  0.027274984            6 
  111000    1.1103937   -7.1392252    32.840848  0.024655291  0.027205452            4 
  112000    1.0978946   -7.1185402    32.944471  0.024512255  0.027133257            6 
  113000     1.057194   -7.1881492    33.046792   0.02437079   0.02705764            7 
  114000    1.0853002   -7.1499573    33.471627  0.024467564  0.026984825            8 
  115000    1.1015846   -7.1418049    33.578129  0.024331977  0.026909402            3 
  116000     1.083962    -7.143552    33.760992  0.024253586  0.026832487            2 
  117000    1.0903307   -7.1197655     34.01977  0.024230605  0.026755051            3 
  118000    1.0709154   -7.1315472    34.284411  0.024212154  0.026675677            2 
  119000    1.0610131   -7.2039764    34.307865  0.024025115  0.026596042            2 
  120000    1.0764101    -7.144447    34.663443  0.024071835  0.026517467            4 
  121000     1.071619   -7.1987618    34.871834  0.024016415  0.026439758            9 
  122000    1.0549453   -7.1798759     35.15415  0.024012398  0.026366124            6 
  123000    1.0671462   -7.1736404    35.328533   0.02393532  0.026288629            4 
  124000    1.0957988   -7.1724143    35.686225  0.023982678  0.026215204            2 
  125000    1.0863464   -7.2136716     35.83194   0.02388796  0.026143865            5 
  126000    1.0702216   -7.1796714    36.056457  0.023846863   0.02607123            3 
  127000    1.0714539   -7.1949657    36.254731  0.023789194  0.025996974            3 
  128000    1.0462879   -7.1411486    36.360185  0.023671995  0.025920012            5 
  129000    1.0555649   -7.1943517    36.509978  0.023585257  0.025840317            9 
  130000    1.0629762   -7.2037766    36.780124  0.023577003  0.025761698            4 
  131000    1.0658102   -7.2526926    36.796165   0.02340723  0.025680327            3 
  132000     1.063154   -7.2543405    37.150823  0.023453802  0.025599171            4 
  133000    1.0469716   -7.2532937    37.153194  0.023278943  0.025517474            5 
  134000    1.0567052   -7.1456163    37.650963  0.023414778  0.025437193            6 
  135000    1.0689547    -7.207492    37.680348  0.023259474   0.02536055            3 
  136000    1.0557468   -7.2179273    37.956488  0.023257652  0.025285503            2 
  137000    1.0414851   -7.2137887    38.156883  0.023209783  0.025210356            8 
  138000    1.0578291    -7.192103    38.478556  0.023235843  0.025137719            4 
  139000    1.0439798   -7.2127224    38.619919  0.023153429  0.025066603            4 
  140000    1.0328546   -7.2329346    38.810162  0.023101287   0.02499401            5 
  141000    1.0290935   -7.2452462    38.894243  0.022987141  0.024920611            5 
  142000    1.0298192   -7.2836471    39.163972  0.022983551  0.024845322            6 
  143000     1.033347   -7.2686189    39.395143  0.022957542  0.024771692           10 
  144000    1.0406667    -7.271921    39.520043  0.022870395  0.024696023            4 
  145000    1.0310172   -7.2456221    39.595258  0.022755896  0.024621662            7 
  146000    1.0420038   -7.3113469    39.803288  0.022718771  0.024547585            3 
  147000    1.0407675   -7.2094825    40.120489  0.022744042  0.024472814            3 
  148000    0.9921974   -7.2853562    40.250088  0.022663338  0.024399309            3 
  149000     1.044889   -7.3007096    40.467627  0.022632901  0.024324641            4 
  150000    1.0355486   -7.2712281    40.710897  0.022617165  0.024252241            4 
  151000     1.025624   -7.2979907    40.776108  0.022503371  0.024180022            3 
  152000    1.0356796   -7.3020359     40.82268  0.022380855  0.024105195            8 
  153000    1.0365607   -7.2989506    41.204373  0.022442469  0.024032805            4 
  154000    1.0041195   -7.3101914    41.213058  0.022301438  0.023959659            9 
  155000    1.0232959   -7.3378573    41.350225  0.022231304  0.023885214            3 
  156000    1.0167348   -7.3302563    41.568284   0.02220528  0.023810194            7 
  157000    1.0187387   -7.3158318    41.382329  0.021965143  0.023733677            5 
  158000    1.0073031   -7.3041923    41.663744  0.021974548  0.023654527            4 
  159000    1.0019239   -7.3410403    41.972624   0.02199823  0.023578653            3 
  160000   0.99781924   -7.3471153     42.07764  0.021915438  0.023504454            4 
  161000    1.0014177   -7.3329739    42.358506  0.021924693  0.023428948            5 
  162000   0.99791558   -7.3172102    42.514432  0.021869564  0.023355068            5 
  163000    1.0049954   -7.3278355    42.714405  0.021837631  0.023281983            2 
  164000    1.0263135   -7.3071493    43.000545  0.021849871  0.023211825            3 
  165000     1.005053   -7.3509624    42.996989  0.021715651  0.023142392            2 
  166000   0.98505291   -7.3643293    43.167942  0.021670654  0.023071218            2 
  167000   0.99294923   -7.3653851     43.33299  0.021623249  0.022999638            3 
  168000   0.99748785   -7.3458048    43.413109   0.02153428  0.022929285            4 
  169000   0.98056803   -7.3819033    43.555222  0.021476934  0.022858416            5 
  170000     1.016903   -7.4243173    43.530268  0.021338366  0.022785748            5 
  171000    1.0044008   -7.4124217    43.674796  0.021284013  0.022712221            9 
  172000   0.96500665   -7.4075587    43.930201  0.021284012  0.022637646            4 
  173000    1.0027196   -7.3845225    44.121654  0.021253205  0.022564843            5 
  174000    1.0104433   -7.3604152    44.436769  0.021281977  0.022493606            3 
  175000    0.9781474   -7.3807159    44.437442  0.021160687  0.022423426            5 
  176000    0.9931309   -7.3761211    44.585253  0.021110442  0.022351922            7 
  177000   0.99232798    -7.414587    44.571217  0.020984565   0.02227843            3 
  178000   0.96683326    -7.413782    44.681169   0.02091815  0.022205062            4 
  179000    1.0120599   -7.4203659     44.96364  0.020932793  0.022132127            4 
  180000   0.97962114   -7.4639475    44.799753  0.020740626  0.022059217            6 
  181000    1.0056514   -7.4464233     44.92127  0.020681985  0.021986257            4 
  182000   0.98323549   -7.4279155    45.421275  0.020797287  0.021916346            7 
  183000    0.9679066    -7.481282    45.484528  0.020712444  0.021846966            4 
  184000   0.98961303   -7.4578711    45.687188  0.020691661  0.021779223           16 
  185000   0.93947407   -7.4675214    45.729827  0.020599021  0.021711565            4 
  186000   0.97963186   -7.4859862    45.821296  0.020529254  0.021643605            5 
  187000   0.97152794    -7.438104    46.169242  0.020574528   0.02157528            4 
  188000   0.95952673   -7.4878271    46.143419  0.020453643  0.021507836           12 
  189000   0.97718605   -7.4728432    46.271147   0.02040174  0.021439479            8 
  190000   0.95059791    -7.455543    46.540567  0.020412529   0.02137353            3 
  191000   0.96513532    -7.499464    46.599436  0.020331342  0.021307492            9 
  192000   0.95622097   -7.5397448    46.512138   0.02018756  0.021239766            7 
  193000   0.96446405   -7.4927966    46.805544  0.020209647  0.021173602            2 
  194000   0.97970524   -7.5744567    46.663886  0.020044625  0.021106249            6 
  195000   0.96832184   -7.4786534    47.006197  0.020088118   0.02103842            5 
  196000   0.95907932   -7.4996657     46.98158  0.019975162  0.020970692            5 
  197000    0.9314925   -7.4874858    47.313923   0.02001435  0.020904444            5 
  198000   0.96337101   -7.4852334    47.544589  0.020010349  0.020839836            3 
  199000    0.9553591   -7.5547984    47.356381   0.01983098  0.020773845            6 
  200000   0.95180716   -7.5245338     47.70208  0.019875867  0.020708087           13 
  201000   0.92730425   -7.4615784    47.867121  0.019845407   0.02064246            6 
  202000   0.94849455   -7.5353784    47.735547  0.019692883  0.020575952            5 
  203000   0.93704231   -7.5273707    48.011115  0.019708996  0.020510397            8 
  204000   0.95863365   -7.5668449    47.979521  0.019599477  0.020445899            5 
  205000   0.96084055   -7.5703677    47.976542  0.019502659  0.020379874            8 
  206000   0.94310554    -7.539794    48.142684  0.019475196  0.020313537           13 
  207000   0.92814575   -7.5645822     48.08235  0.019356824  0.020247328            6 
  208000   0.95554398   -7.6014471    48.111076  0.019275271  0.020181056            5 
  209000   0.93464183   -7.5550282    48.455001  0.019320176  0.020115623            2 
  210000   0.95264086    -7.557023    48.641021  0.019301992   0.02005168            5 
  211000   0.93590377   -7.5999456     48.74543   0.01925175  0.019988186            3 
  212000   0.92756608    -7.574605    48.756423  0.019165261  0.019924173            6 
  213000   0.93879275   -7.5757322    48.878041  0.019122864  0.019859779            4 
  214000   0.89246741   -7.5768765     49.00072  0.019081277  0.019795354            5 
  215000   0.93681734   -7.5852307    49.155624  0.019052567  0.019731516            5 
  216000   0.92648043   -7.5959829    49.166526  0.018968567   0.01966773            4 
  217000   0.92684819   -7.5922902    49.379483  0.018962935  0.019603349            7 
  218000   0.94613536   -7.6148459    49.325465    0.0188553   0.01953932            6 
  219000   0.92137793   -7.5874422    49.413803  0.018802817  0.019475099            7 
  220000   0.90074319   -7.6407804    49.291412  0.018670989   0.01941049           10 
  221000   0.91811582   -7.6553636    49.451144  0.018646736  0.019345339           11 
  222000   0.90752267   -7.6377578    49.471706   0.01857046  0.019280326           11 
  223000   0.90316108   -7.6738498    49.483181  0.018491473  0.019215051            7 
  224000   0.89551096   -7.6272053     49.77793  0.018518575  0.019150274           12 
  225000   0.91244244   -7.6464734    49.700317  0.018407525  0.019086183            5 
  226000   0.90129294   -7.6297277    49.923465  0.018408357  0.019022292            8 
  227000   0.92023357   -7.6774255    49.988504  0.018351139  0.018958417            6 
  228000   0.91716855   -7.6922058    49.922794  0.018246635  0.018894222            5 
  229000    0.9100915   -7.6776184    49.828545  0.018132658  0.018829292            7 
  230000   0.89512993   -7.6971138     49.87994  0.018072442  0.018762906            5 
  231000   0.89871257   -7.6815002    50.012519  0.018042034  0.018696569           11 
  232000   0.91619633   -7.7342921    49.940443  0.017938377   0.01863043            6 
  233000   0.88394216   -7.7089399    50.076022  0.017909879  0.018565048            6 
  234000   0.88898806   -7.6807994    50.311623  0.017917245  0.018499671            3 
  235000   0.89578464   -7.7193552    50.244547  0.017817215  0.018434723            6 
  236000   0.89442852   -7.7014593    50.241649  0.017740695  0.018369502            6 
  237000   0.89340601   -7.7345292    50.224259  0.017659725  0.018303349            6 
  238000   0.86601618   -7.7037109    50.367126  0.017635548   0.01823713            8 
  239000   0.88061821   -7.7091995    50.323337  0.017546491  0.018171726            7 
  240000   0.88126776   -7.7387806    50.353429   0.01748383  0.018105966           10 
  241000   0.88887733   -7.7110811    50.574558  0.017487745  0.018041711            6 
  242000   0.87840449   -7.7510028    50.476167    0.0173816  0.017977152           12 
  243000   0.87506357   -7.7223478    50.672066  0.017377252  0.017913079            5 
  244000   0.87449576   -7.7361865    50.774545  0.017341033  0.017849044            5 
  245000   0.86967612   -7.7664264    50.790862  0.017275803   0.01778479            9 
  246000   0.88531455   -7.7553926    50.830156  0.017218887  0.017720655           12 
  247000    0.8665142   -7.7491231    50.843258  0.017153596  0.017657135            5 
  248000   0.86501125   -7.7725868    50.919979  0.017110208   0.01759305            8 
  249000   0.87309686   -7.7700781    50.933148    0.0170459  0.017529331            9 
  250000   0.85851415   -7.8117743    50.999722  0.016999907  0.017465767            8 
  251000   0.85265683   -7.7424418    51.131966  0.016976084  0.017402237            7 
  252000   0.86317546   -7.8027352    50.950426  0.016848686  0.017338771            9 
  253000    0.8592227   -7.8026494    51.045614  0.016813443  0.017274731            7 
  254000   0.86232012   -7.8182733    51.177141  0.016790401  0.017211547            7 
  255000   0.85372282    -7.817928    51.053871  0.016684272  0.017148301            4 
  256000   0.84865468   -7.8218158    51.053013  0.016618819  0.017084421            6 
  257000   0.85469516   -7.8470805    51.237846  0.016614088  0.017020923           23 
  258000   0.86420397   -7.8948292    51.064867   0.01649382  0.016956994            8 
  259000    0.8530951   -7.8296723    51.084447  0.016436437  0.016893072            8 
  260000   0.84271978   -7.8257825    51.177603  0.016403078  0.016829278           10 
  261000   0.83357776   -7.8994616    51.097218  0.016314565  0.016765751           11 
  262000   0.84913375   -7.8409843    51.108511  0.016255888  0.016702487           15 
  263000    0.8655741   -7.8496902    51.304576  0.016256203  0.016640018           25 
  264000   0.85216534   -7.8716617    51.421123  0.016231415  0.016577363           16 
  265000   0.83700089   -7.8529846    51.432462   0.01617373  0.016515619           13 
  266000   0.84969272   -7.8667599    51.508886  0.016136869  0.016454024           13 
  267000   0.82575931   -7.8646114      51.5713  0.016095911  0.016392479            7 
  268000   0.83685208    -7.851035    51.571401  0.016035884  0.016331279           17 
  269000   0.84671045   -7.9065066    51.471012  0.015945171  0.016269746           10 
  270000   0.83994413   -7.9016618     51.55511  0.015912071   0.01620846           11 
  271000   0.83437853   -7.8759072    51.710197  0.015901045   0.01614767           20 
  272000   0.83730114   -7.8808523    51.765299  0.015859467  0.016087728           12 
  273000   0.84823809   -7.9079065    51.782753  0.015806701  0.016028116           23 
  274000   0.83599152   -7.8943637    51.614704  0.015697903  0.015968113           21 
  275000    0.8429165   -7.8935761    51.753661  0.015682928  0.015908718            8 
  276000   0.83454243   -7.8775584      51.8064  0.015642029  0.015848704           23 
  277000   0.81220072    -7.937238    51.795308  0.015582223  0.015788509           10 
  278000   0.82283123   -7.9199217     51.68786  0.015493963   0.01572852           17 
  279000   0.84149192   -7.9257923    51.950153  0.015516772  0.015668803           11 
  280000   0.81116468   -7.9320239    51.737222  0.015397983  0.015609239           30 
  281000   0.81185171   -7.9711761    51.792057  0.015359448  0.015549855           20 
  282000   0.84049023   -7.9589279    51.910972  0.015340122   0.01549017           11 
  283000    0.8271332   -7.9744688     51.68561  0.015219555  0.015430417            8 
  284000   0.82936804   -7.9405486    51.820341  0.015205499  0.015370813           16 
  285000   0.81931283   -7.9472775    51.942799  0.015187953  0.015311819            9 
  286000    0.8245317   -7.9575408    51.885033  0.015118017  0.015252901           19 
  287000    0.8130908   -7.9326907    52.037509  0.015109614  0.015194268           17 
  288000   0.79616037   -7.9674808     51.78409  0.014983822  0.015135487           10 
  289000   0.78768873   -7.9410064    51.939964  0.014976922  0.015077314            9 
  290000   0.80951142   -7.9591821    52.048725   0.01495653  0.015019062           13 
  291000    0.8078826   -8.0117059     51.85798   0.01485051  0.014961232           23 
  292000   0.79919772   -7.9836889    52.067168  0.014859352  0.014903659           24 
  293000   0.79933412   -8.0027155    52.070135  0.014809481  0.014846622           18 
  294000    0.7863417    -7.997003     52.12568  0.014774852  0.014790003           24 
  295000   0.79732754   -8.0001449    52.218176  0.014750897  0.014733509           26 
  296000   0.78453055   -8.0462021    52.098074   0.01466725  0.014677332           21 
  297000   0.78191202   -7.9948959    52.067695  0.014609342  0.014620911           33 
  298000   0.79887419   -8.0490971    52.072547  0.014561674  0.014564706           15 
  299000    0.7914596   -8.0309695    52.098723  0.014520268  0.014508579           24 
  300000   0.78029488   -8.0403842    52.278193   0.01452172  0.014452881           49 
  301000   0.77949584   -8.0588012    52.242544  0.014463606  0.014397398           31 
  302000   0.80276626    -8.066099    52.129348  0.014384478  0.014342082           42 
  303000   0.77903069   -8.0636851    52.125294  0.014335889  0.014286618           47 
  304000   0.78259158   -8.0907211    52.119172  0.014287054  0.014230912           43 
  305000   0.78427464   -8.0653992    52.279241  0.014283945  0.014175648           41 
  306000   0.75999793   -8.1013514    52.207568  0.014217747  0.014121092           53 
  307000   0.78493429   -8.0737232    52.089117  0.014139283   0.01406642           38 
  308000   0.76893126   -8.0699972    52.186609  0.014119753  0.014011976           18 
  309000   0.77793247   -8.1103827    52.149647   0.01406409  0.013957394           32 
  310000   0.76744585    -8.121558    52.125398  0.014012204  0.013902716           28 
  311000   0.75725521   -8.1204092    52.076441   0.01395403    0.0138479           37 
  312000    0.7776097   -8.1165473    52.087009  0.013912128  0.013793332           49 
  313000   0.75617389   -8.1351523    52.070599  0.013863312  0.013739211           50 
  314000    0.7622235   -8.1325801    52.026953  0.013807578  0.013684855           32 
  315000   0.75599104   -8.1306813    52.202409  0.013810161  0.013631041           50 
  316000    0.7630651   -8.1305238    52.195897  0.013764741  0.013577644           33 
  317000   0.75887509   -8.1731186    52.094407  0.013694639  0.013524328           29 
  318000   0.75502696   -8.1389567    52.253114  0.013693164  0.013471278           28 
  319000   0.76716705    -8.155471    52.224353  0.013642725  0.013418518           41 
  320000   0.76395136   -8.1627211     52.12472  0.013574146  0.013366016           39 
  321000   0.75606191   -8.1537555    52.144617  0.013537024  0.013313651           30 
  322000    0.7445475    -8.137586    52.222816  0.013515222  0.013261425           31 
  323000   0.77128338    -8.180509    52.315856  0.013497383  0.013209726           48 
  324000   0.74627445   -8.1718762    52.214595   0.01342968  0.013158178           27 
  325000   0.75981235   -8.1687711    52.289859  0.013407656  0.013107082           30 
  326000   0.72453152   -8.1688231    52.275485  0.013362854  0.013055764           39 
  327000   0.74557071     -8.14002    52.362491  0.013344162  0.013004862           22 
  328000   0.72610603   -8.1700449    52.202555  0.013262844  0.012953879           37 
  329000   0.73368339   -8.1747413    52.284075   0.01324318  0.012903309           39 
  330000   0.74252181   -8.2135836    52.200232  0.013181877  0.012852975           34 
  331000   0.74603837   -8.1772237    52.291983  0.013165152  0.012802832           30 
  332000   0.72459956    -8.189866    52.278976  0.013122233  0.012752905           49 
  333000   0.73459832   -8.2071454    52.313635    0.0130915  0.012703105           42 
  334000   0.74021531   -8.2005073     52.21372  0.013027375  0.012653358           54 
  335000   0.72580476   -8.2328707    52.158866  0.012974842   0.01260361           37 
  336000   0.72426452   -8.2182649     52.35476  0.012984811  0.012554332           78 
  337000   0.73670044   -8.2145474    52.223279  0.012913768  0.012505214           38 
  338000   0.72793478   -8.2202671     52.15565  0.012858888  0.012456345           33 
  339000   0.73117289   -8.2212054    52.246365  0.012843256   0.01240749           39 
  340000   0.72417952   -8.2252051    52.391905  0.012841153  0.012359226           41 
  341000   0.72484943   -8.2335299    52.326037  0.012787399  0.012311239           54 
  342000   0.73313505   -8.2188511    52.399295  0.012767859  0.012263317           42 
  343000   0.72547219   -8.2445046    52.259252  0.012696611  0.012215746           44 
  344000   0.70645555   -8.2140186    52.260211  0.012659935  0.012168047           39 
  345000   0.71134608   -8.2407921    52.216748  0.012612741  0.012120627           50 
  346000    0.7177691   -8.2342642    52.359971  0.012610783  0.012073461           39 
  347000   0.70877427   -8.2308569    52.302344  0.012560601  0.012026594           30 
  348000   0.69541493   -8.2587001    52.321405  0.012529072  0.011979808           55 
  349000   0.71739309   -8.2558988    52.360742  0.012502565  0.011933367           37 
  350000   0.72221935   -8.2645684    52.360639  0.012466819  0.011887081           65 
  351000   0.71205835   -8.2660869    52.280847  0.012412357   0.01184107           31 
  352000    0.7012291   -8.2497532    52.273403  0.012375332  0.011795154           41 
  353000   0.70038788   -8.2767167    52.365768  0.012362079  0.011749424           18 
  354000   0.71645882   -8.2895935    52.246179  0.012299006  0.011703834           28 
  355000   0.70028953   -8.2895453    52.246711  0.012264486  0.011658671           46 
  356000   0.70568534   -8.2875291    52.290674  0.012240326  0.011613386           28 
  357000   0.67779973   -8.2854829    52.294571  0.012206949  0.011568393           45 
  358000   0.70832311   -8.3088828    52.216039  0.012154571  0.011523576           53 
  359000   0.69254954    -8.321524    52.314601  0.012143593  0.011478839           59 
  360000    0.6959951   -8.3115857    52.197076  0.012082656  0.011434354           51 
  361000   0.68991178    -8.264099    52.317743  0.012077041  0.011389969           39 
  362000   0.68597922   -8.3117577    52.230973  0.012023705  0.011345924           40 
  363000   0.68116908   -8.3051156    52.329635  0.012013231  0.011302075           49 
  364000   0.69772819   -8.3174791    52.236585  0.011958925  0.011258492           48 
  365000   0.68413733   -8.2999566    52.330541  0.011947612  0.011214998           61 
  366000   0.67902488   -8.3109245    52.256603  0.011898134  0.011171613           74 
  367000   0.68968888   -8.3187443    52.283135  0.011871738  0.011128399           49 
  368000   0.67379808   -8.3305364    52.076595  0.011792707  0.011085203           65 
  369000   0.68273213   -8.3287005    52.197245  0.011787996  0.011042204           59 
  370000   0.68494152   -8.3365418       52.159  0.011747523  0.010999507           70 
  371000   0.67546686   -8.3617275    52.110768  0.011705024  0.010956884           73 
  372000   0.67151332   -8.3588647    52.262757  0.011707607  0.010914518           69 
  373000   0.66064019   -8.3479606    52.150542  0.011651149   0.01087223           64 
  374000    0.6686774   -8.3525683    52.257316  0.011643787  0.010830225          130 
  375000   0.68046364   -8.3542687    52.107364  0.011579414  0.010788285           69 
  376000   0.67029544   -8.3465663    52.156817  0.011559578  0.010746448           53 
  377000   0.66067691   -8.3679403    52.126377  0.011522188   0.01070481          106 
  378000   0.66615616   -8.3806655    52.073159  0.011479973  0.010663197          116 
  379000   0.66328654   -8.3457733    52.079544  0.011451087  0.010621943          117 
  380000   0.65517475   -8.3700497    52.133321  0.011432746  0.010580819           72 
  381000   0.66402667    -8.354939    52.086954  0.011392597  0.010539949           66 
  382000   0.66247823   -8.3676767    52.139767  0.011374295  0.010499316          158 
  383000   0.66499775   -8.3719213    52.100855   0.01133613  0.010458851           65 
  384000   0.65031123   -8.3962825    52.149425   0.01131715  0.010418593           83 
  385000   0.65780277   -8.4044379    52.066422  0.011269788  0.010378366           87 
  386000   0.65519322   -8.3970622    52.029336  0.011232586  0.010338392           49 
  387000   0.64557762   -8.3956196      52.0262  0.011202885  0.010298511           75 
  388000   0.64254774   -8.3868171    52.091774  0.011188096  0.010258703           62 
  389000   0.65127082   -8.3829573    52.042152  0.011148704  0.010219082           95 
  390000   0.63292237   -8.3955915    52.044089  0.011120532  0.010179672           70 
  391000   0.63151693   -8.4101442    52.110288  0.011106199  0.010140603           70 
  392000     0.645903   -8.4111517    52.032276  0.011061283  0.010101544           45 
  393000   0.62724204   -8.4084499    52.064828   0.01104004  0.010062829           56 
  394000   0.62703352   -8.4008447    52.168006  0.011033842  0.010024379           73 
  395000     0.625371   -8.4300524    52.116884  0.010995123 0.0099860318           69 
  396000   0.63971847   -8.4376531    52.053619  0.010954044  0.009947755           56 
  397000   0.63415257   -8.4220465    52.059542  0.010927696 0.0099096778           59 
  398000   0.64198636   -8.4023968    52.085453  0.010905664 0.0098717692           47 
  399000   0.62409622   -8.4420406    51.945849  0.010849175  0.009833971           42 
  400000    0.6243105   -8.4367773    51.942427  0.010821339 0.0097962392           49 
  401000   0.62520741   -8.4384805    51.949117  0.010795743 0.0097585874           66 
  402000   0.64784988    -8.455626     51.86351  0.010751142 0.0097210406           93 
  403000   0.62662772   -8.4462661    51.931338   0.01073849 0.0096837298           78 
  404000   0.62453922    -8.441798    51.996452  0.010725341 0.0096464287           89 
  405000   0.61251619    -8.453292    51.913331  0.010681755  0.009609424           86 
  406000   0.62352606   -8.4629031    51.861433  0.010644793 0.0095725309           70 
  407000   0.61390258   -8.4576655    51.789719  0.010603956 0.0095357875           75 
  408000   0.61084264   -8.4807305    51.890097  0.010598467 0.0094992743           48 
  409000   0.60986926   -8.4590185    51.890861   0.01057271 0.0094628535           45 
  410000   0.59507741   -8.4650485    51.872177  0.010543125  0.009426714           75 
  411000   0.60206896   -8.4721006    51.795393  0.010501904 0.0093906693           77 
  412000   0.62183026   -8.4877172    51.799383  0.010477221 0.0093547335           65 
  413000   0.60735565   -8.4938844    51.764039  0.010444721 0.0093190772           73 
  414000   0.60582976    -8.494239    51.751284  0.010416925 0.0092835823          102 
  415000   0.60531682   -8.4919469    51.862954  0.010414248 0.0092482678          102 
  416000   0.60383156   -8.5085822    51.812736  0.010379154 0.0092131874           60 
  417000   0.59909035   -8.4880611    51.841244  0.010359961 0.0091781841           79 
  418000   0.59339993   -8.5000954    51.728828  0.010312765 0.0091434215          116 
  419000   0.58993951   -8.4813591    51.833545  0.010308979 0.0091087744           76 
  420000   0.58436247   -8.5169092    51.780523  0.010273913 0.0090743926          145 
  421000   0.58676575   -8.5127729    51.824255  0.010258166 0.0090400779          105 
  422000   0.57799876   -8.5248233    51.777671  0.010224659 0.0090058442           66 
  423000   0.60133026   -8.5257287    51.741688  0.010193398  0.008971839           76 
  424000    0.5949103   -8.5117484    51.795324  0.010179899 0.0089379831           96 
  425000   0.59629898   -8.5444323    51.702247  0.010137695 0.0089042702           73 
  426000   0.58936595    -8.544873    51.670344  0.010107657 0.0088707409           59 
  427000   0.58290172   -8.5309786    51.646742   0.01007938 0.0088373113           53 
  428000   0.58795318   -8.5160536    51.748651  0.010075672 0.0088040492           59 
  429000   0.58097828   -8.5416061    51.779519  0.010058182 0.0087709604           61 
  430000   0.58691002   -8.5420028    51.671477  0.010013852 0.0087380824           76 
  431000   0.56915835   -8.5372801    51.692165 0.0099946181 0.0087052576          116 
  432000    0.5811425   -8.5424766    51.863109  0.010004458 0.0086727525          120 
  433000   0.57791683   -8.5531193    51.669982 0.0099441843 0.0086402823          107 
  434000   0.57112751   -8.5555218    51.699401 0.0099269204 0.0086079767           45 
  435000    0.5716224   -8.5424924    51.690653  0.009902424 0.0085758137           69 
  436000   0.57499539   -8.5648036    51.678716 0.0098774304  0.008543778           47 
  437000   0.57990314   -8.5568982    51.670494 0.0098532597 0.0085119249           74 
  438000    0.5555271   -8.5634345    51.688623 0.0098342129 0.0084802101          100 
  439000    0.5674743   -8.5546163    51.759793 0.0098253213 0.0084486199          153 
  440000   0.57030937   -8.5698953    51.695387  0.009790793 0.0084171909          105 
  441000   0.56368021   -8.5712355    51.628694 0.0097559891 0.0083859414           97 
  442000   0.56496849   -8.5797059    51.627416 0.0097336757 0.0083547594          102 
  443000   0.55956769   -8.5757609    51.671123 0.0097199253 0.0083236989           98 
  444000   0.55177686   -8.5662026    51.604516 0.0096855323 0.0082928326           63 
  445000   0.56044036   -8.5700227    51.605451 0.0096639421 0.0082621224          120 
  446000   0.56016018   -8.5723454     51.64669 0.0096499795 0.0082315671          107 
  447000   0.56638588   -8.5894637    51.612846 0.0096220816 0.0082011004           85 
  448000   0.54612458   -8.5888929     51.60376 0.0095989136 0.0081707609          111 
  449000   0.55343641   -8.5904795    51.629556 0.0095823229 0.0081406794           90 
  450000   0.54121803   -8.5831438    51.599115 0.0095553916 0.0081107297           59 
  451000   0.54672623   -8.6021088    51.606704 0.0095356068 0.0080808724           79 
  452000   0.55123401   -8.6103002    51.525829 0.0094995998 0.0080511962           69 
  453000   0.54749982    -8.605053     51.53714   0.00948071 0.0080216626          102 
  454000   0.53738191   -8.5915494    51.642879 0.0094792362 0.0079922444           84 
  455000   0.53531161   -8.6085803    51.648253  0.009459387 0.0079629627          114 
  456000   0.54381815   -8.6203924    51.623851 0.0094341832 0.0079338707           69 
  457000   0.53275115   -8.6058515    51.556675 0.0094012902 0.0079048202          109 
  458000   0.53551552   -8.6170758    51.565836 0.0093824301 0.0078759967           69 
  459000   0.52135562   -8.6140927    51.560179  0.009360962  0.007847243          153 
  460000   0.52992304   -8.6354257    51.495328 0.0093288638 0.0078185772           55 
  461000   0.52938067   -8.6279459      51.4812 0.0093060737 0.0077900616           67 
  462000   0.52412674    -8.633732    51.545852 0.0092975923 0.0077617288           64 
  463000   0.51953339   -8.6459664     51.52247 0.0092733027 0.0077334776           95 
  464000   0.52507478   -8.6236805    51.483582  0.009246333 0.0077053915          118 
  465000   0.51148396    -8.647503    51.638711 0.0092542492 0.0076774411          114 
  466000   0.52784122   -8.6220168    51.576065 0.0092231876 0.0076495992           66 
  467000   0.52009389    -8.632757    51.533709 0.0091958795 0.0076218601          113 
  468000   0.51604874   -8.6372713    51.504593 0.0091710458 0.0075943075          127 
  469000   0.52416177   -8.6612629    51.539395 0.0091576749 0.0075668457          120 
  470000   0.51151951   -8.6247977    51.576485 0.0091447669 0.0075395574           99 
  471000   0.51760166   -8.6389946    51.519785 0.0091153194 0.0075124214           58 
  472000   0.51745733    -8.654717    51.477524 0.0090885459 0.0074853415           87 
  473000   0.51454234    -8.650226    51.465023 0.0090671288 0.0074584015          105 
  474000   0.50471751   -8.6534459    51.440671 0.0090437185 0.0074315915           94 
  475000    0.5179212   -8.6512407    51.498762 0.0090348705 0.0074049463          113 
  476000   0.50784555   -8.6552284    51.417186 0.0090016082 0.0073783673           77 
  477000   0.50642814   -8.6487486     51.46197 0.0089905607 0.0073519096           65 
  478000   0.50742443   -8.6691629    51.457053 0.0089708949 0.0073256424          115 
  479000   0.50078195   -8.6646266    51.380702 0.0089388834 0.0072994723          101 
  480000   0.50645853   -8.6901358    51.376294 0.0089194955 0.0072734091           77 
  481000   0.50728302   -8.6713158    51.495905 0.0089216744 0.0072474451           81 
  482000   0.49874115   -8.6834553    51.324933 0.0088736052 0.0072215369           58 
  483000   0.49382956   -8.6712418    51.431351 0.0088735941  0.007195806          121 
  484000   0.49386403   -8.6883569    51.390947 0.0088483035 0.0071702106           52 
  485000   0.49486105   -8.6778554    51.442664 0.0088389458 0.0071446792           52 
  486000   0.49661817   -8.6890976    51.506653 0.0088317306 0.0071192374          105 
  487000   0.48041355   -8.6752119    51.422672 0.0087992252 0.0070939626           99 
  488000   0.48537323   -8.6931276    51.367235 0.0087717273 0.0070687291           51 
  489000   0.49896784   -8.6902813    51.308815 0.0087438335 0.0070436517           59 
  490000   0.48544623   -8.6778254    51.361638 0.0087349725 0.0070186812           70 
  491000   0.49081889   -8.7032624    51.281352  0.008703556 0.0069938201           64 
  492000   0.47661578   -8.6982399    51.339151 0.0086956556 0.0069690637           65 
  493000   0.48395504   -8.7166736    51.264337 0.0086653714 0.0069444337           57 
  494000   0.49043595   -8.6917067     51.35062 0.0086623854 0.0069199355           72 
  495000   0.48401916   -8.7165866    51.346507 0.0086441931 0.0068955865          118 
  496000   0.47516049   -8.6841085    51.302983 0.0086194529 0.0068713472          110 
  497000   0.48187663    -8.713408    51.320537 0.0086050531 0.0068472139           63 
  498000   0.48331958   -8.6995148    51.418323 0.0086041371 0.0068232252          108 
  499000   0.46635851   -8.7162046    51.297853 0.0085667758 0.0067992736           88 
  500000   0.46156852   -8.7157785    51.306695 0.0085511159 0.0067754328           61 
  501000   0.47110009   -8.7255732    51.274131 0.0085286313 0.0067517121           66 
  502000   0.45956394   -8.7347678    51.303021 0.0085164377 0.0067281471           81 
  503000   0.45220154   -8.7364827    51.280729 0.0084958133 0.0067046227           88 
  504000     0.462171   -8.7257304    51.373395 0.0084942782 0.0066812302           53 
  505000   0.45351073   -8.7428803    51.299203 0.0084652151 0.0066579912           64 
  506000    0.4598508   -8.7426904    51.259722 0.0084419832 0.0066347591          121 
  507000   0.45208918   -8.7355726    51.227641 0.0084200594 0.0066116658          113 
  508000   0.46119366   -8.7320974    51.237879 0.0084051638 0.0065887025           59 
  509000    0.4621477   -8.7371166    51.237897 0.0083886537 0.0065658262           72 
  510000    0.4561024   -8.7475813    51.221722 0.0083695624 0.0065430416          113 
  511000   0.45405955   -8.7421157    51.158732 0.0083429114 0.0065203697           92 
  512000   0.45274642   -8.7578811    51.197917 0.0083329943 0.0064978171          110 
Loop time of 1306.51 on 48 procs for 500000 steps with 4000 atoms

Performance: 66130.548 tau/day, 382.700 timesteps/s
99.4% CPU use with 48 MPI tasks x no OpenMP threads

MPI task timing breakdown:
Section |  min time  |  avg time  |  max time  |%varavg| %total
---------------------------------------------------------------
Pair    | 93.156     | 99.609     | 105.82     |  33.4 |  7.62
Neigh   | 9.1022     | 9.3961     | 9.7707     |   5.5 |  0.72
Comm    | 85.636     | 92.76      | 100.22     |  38.8 |  7.10
Output  | 0.92934    | 0.93011    | 0.95147    |   0.3 |  0.07
Modify  | 1086.6     | 1091       | 1096.2     |   6.2 | 83.51
Other   |            | 12.79      |            |       |  0.98

Nlocal:        83.3333 ave          89 max          78 min
Histogram: 3 2 6 8 6 12 1 3 5 2
Nghost:        2405.33 ave        2426 max        2382 min
Histogram: 2 1 4 7 7 13 1 7 2 4
Neighs:        16569.5 ave       19011 max       14488 min
Histogram: 5 4 4 8 5 7 8 3 2 2
FullNghs:      33139.1 ave       35540 max       31019 min
Histogram: 1 4 6 10 7 8 4 3 3 2

Total # of neighbors = 1590676
Ave neighs/atom = 397.66900
Neighbor list builds = 26609
Dangerous builds = 0

#clear
#
#next RN
#
#jump SELF
Total wall time: 0:21:50
