
units lj                  # Use reduced LJ style units
atom_style atomic         # Uncharged point particles
atom_modify map hash      # Needed for indexing of clusters etc
                          # Used to be able to find where atoms are in relation to each other.

lattice fcc 1.0 spacing 1 1 1
Lattice spacing in x,y,z = 1.5874011 1.5874011 1.5874011
region box block 0 10 0 10 0 10 units lattice
create_box 2 box
Created orthogonal box = (0.0000000 0.0000000 0.0000000) to (15.874011 15.874011 15.874011)
  3 by 4 by 4 MPI processor grid
create_atoms 1 box
Created 4000 atoms
  using lattice units in orthogonal box = (0.0000000 0.0000000 0.0000000) to (15.874011 15.874011 15.874011)
  create_atoms CPU = 0.002 seconds
set type 1 type/fraction 2 0.48 78393
Setting atom values ...
  1918 settings made for type/fraction
mass 1 1.0
mass 2 1.0
pair_style lj/cut  3.5
pair_modify tail  yes
pair_coeff 1  1  1.0  1.0   # Intearaction between 1 and 1 set with epsilon = 1 and sigma = 1
pair_coeff 1  2  1.5  0.8
pair_coeff 2  2  0.5  0.88

write_data data.0
System init for write_data ...
Neighbor list info ...
  update every 1 steps, delay 10 steps, check yes
  max neighbors/atom: 2000, page size: 100000
  master list distance cutoff = 3.8
  ghost atom cutoff = 3.8
  binsize = 1.9, bins = 9 9 9
  1 neighbor lists, perpetual/occasional/extra = 1 0 0
  (1) pair lj/cut, perpetual
      attributes: half, newton on
      pair build: half/bin/atomonly/newton
      stencil: half/bin/3d
      bin: standard
WARNING: Not all mixed pair coeffs generated from mixing. Use write_data with 'pair ij' option to store all pair coeffs. (../write_data.cpp:312)


#############################
#   M E L T   S Y S T E M   #
#############################

velocity all create 2.4 3143649 mom yes dist gaussian # Assign velocities
                                                    # Temperature 2.4, random number seed, zero linear momentum
                                                                                # Gaussian distribution

timestep 0.002   # simulation timestep
thermo 1000       # output thermodynamic data every 1000 steps bf 100

# Define a fix  in this case with index 1 applied to all
# particles in the simulation. This fix is for simulations
# in the anisotropic NPT ensemble. Note that we use the MTK
# correction.
fix 1 all npt temp 2.4 2.4 0.1 iso 5.68 5.68 0.5 mtk yes tchain 5 pchain 5 # Use NPT ensemble
                                                                         # Set temperature and pressure and damping
                                                                         # Numbers of thermostats in chain and in barostat
run 10000          # run for 10000 steps
Per MPI rank memory allocation (min/avg/max) = 3.642 | 3.644 | 3.648 Mbytes
Step Temp E_pair E_mol TotEng Press Volume 
       0          2.4   -5.4168687            0   -1.8177687   -4.2006027         4000 
    1000    2.3934427   -4.9765128            0   -1.3872464    5.6378235    3723.6649 
    2000    2.3643786   -4.9570311            0   -1.4113499    5.4866075    3729.7321 
    3000    2.3974809   -4.9413002            0   -1.3459778     5.780579    3720.8631 
    4000    2.3972801   -4.9242656            0   -1.3292443    6.0173697    3707.3279 
    5000    2.3486123   -4.9043135            0   -1.3822758    5.5067583    3751.8488 
    6000    2.4819273   -5.0037111            0   -1.2817509    5.4646811    3727.4946 
    7000    2.4105013   -4.9478633            0   -1.3330153    5.5552377    3746.1207 
    8000    2.3232053   -4.9408347            0    -1.456898    5.4331589    3744.7142 
    9000    2.4258759   -4.9471144            0   -1.3092102    5.6115002    3739.2967 
   10000    2.4145038    -4.910373            0   -1.2895228    5.6291892    3753.9393 
Loop time of 2.65151 on 48 procs for 10000 steps with 4000 atoms

Performance: 651705.012 tau/day, 3771.441 timesteps/s
99.6% CPU use with 48 MPI tasks x no OpenMP threads

MPI task timing breakdown:
Section |  min time  |  avg time  |  max time  |%varavg| %total
---------------------------------------------------------------
Pair    | 1.1511     | 1.2462     | 1.4345     |   4.2 | 47.00
Neigh   | 0.21527    | 0.22162    | 0.25951    |   1.7 |  8.36
Comm    | 0.70918    | 0.91005    | 1.0176     |   6.8 | 34.32
Output  | 0.00024725 | 0.00025414 | 0.00031818 |   0.0 |  0.01
Modify  | 0.20556    | 0.25751    | 0.33142    |   7.7 |  9.71
Other   |            | 0.01588    |            |       |  0.60

Nlocal:        83.3333 ave          94 max          74 min
Histogram: 1 2 3 8 14 9 5 3 1 2
Nghost:        1710.35 ave        1741 max        1687 min
Histogram: 3 4 5 9 11 5 7 2 1 1
Neighs:        10164.1 ave       11946 max        8680 min
Histogram: 1 3 5 9 10 11 5 3 0 1

Total # of neighbors = 487877
Ave neighs/atom = 121.96925
Neighbor list builds = 900
Dangerous builds = 155

# Equilibrate just above the melting temperature to avoid step fn in T

fix 1 all npt temp 1.25 1.25 0.1 iso 5.68 5.68 0.5 mtk yes tchain 5 pchain 5
run 2000
Per MPI rank memory allocation (min/avg/max) = 3.644 | 3.646 | 3.649 Mbytes
Step Temp E_pair E_mol TotEng Press Volume 
   10000    2.4145038    -4.910373            0   -1.2895228    5.6291892    3753.9393 
   11000    1.2683483   -7.0571225            0   -5.1550757    5.5026827    2916.6229 
   12000    1.2338635   -7.1008529            0   -5.2505203    5.9183462     2892.098 
Loop time of 0.638173 on 48 procs for 2000 steps with 4000 atoms

Performance: 541545.793 tau/day, 3133.946 timesteps/s
99.6% CPU use with 48 MPI tasks x no OpenMP threads

MPI task timing breakdown:
Section |  min time  |  avg time  |  max time  |%varavg| %total
---------------------------------------------------------------
Pair    | 0.29366    | 0.31354    | 0.33746    |   2.0 | 49.13
Neigh   | 0.041562   | 0.04376    | 0.046506   |   0.6 |  6.86
Comm    | 0.20214    | 0.22941    | 0.25295    |   2.7 | 35.95
Output  | 5.7868e-05 | 5.9315e-05 | 7.3685e-05 |   0.0 |  0.01
Modify  | 0.043634   | 0.046528   | 0.048968   |   0.8 |  7.29
Other   |            | 0.004874   |            |       |  0.76

Nlocal:        83.3333 ave          91 max          79 min
Histogram: 6 8 5 8 5 11 3 1 0 1
Nghost:        2043.21 ave        2063 max        2027 min
Histogram: 4 4 1 10 10 8 7 1 1 2
Neighs:        13204.2 ave       14579 max       11977 min
Histogram: 2 2 4 14 7 7 6 2 1 3

Total # of neighbors = 633803
Ave neighs/atom = 158.45075
Neighbor list builds = 145
Dangerous builds = 13

#############################
# L I N E A R  Q U E N C H  #
#############################

# Define solid atoms. This closely follows ten Wolde  Ruiz-Montero and Frenkel  Faraday Discuss  1996  104  93-110
# Compute components of the per-atom q6 vector
compute q6 all orientorder/atom degrees 1 6 components 6 nnn NULL cutoff 1.3 # compute the Q6 parameter.
                                                                             # Use all neighbours within 1.3 unit cell.

# get number of connections
compute coord_number all coord/atom orientorder q6 0.5

# An atom is solid if it has 8 or more connections (of a possible 14)
variable is_solid atom c_coord_number>=8
group solid dynamic all var is_solid    # Must be dynamic to update
dynamic group solid defined

# do clustering
compute cluster solid cluster/atom 1.3 # Create a cluster where all atoms within are solid and max 1.3 units from another member

# define chunks one chunk per cluster
compute clus_chunks solid chunk/atom c_cluster nchunk every compress yes  # Says which atoms are in which chunk

# count the size of each chunk
compute size_chunks solid property/chunk clus_chunks count


# Find the maximum entry in the vector of chunk sizes
variable max_n equal max(c_size_chunks)


# Thermo style which includes this variable
# thermo_style custom step temp pe vol v_max_n

thermo ${N}  # Print the thermo information every 100 steps
thermo 1000  

# Reset the npt fix at a lower temperature (below freezing)
fix 1  all npt temp  ${temp} ${temp}  0.1  iso  5.68  5.68  0.5  mtk yes tchain  5  pchain  5
fix 1  all npt temp  0.45 ${temp}  0.1  iso  5.68  5.68  0.5  mtk yes tchain  5  pchain  5
fix 1  all npt temp  0.45 0.45  0.1  iso  5.68  5.68  0.5  mtk yes tchain  5  pchain  5

dump dmp2 all dcd ${N} traj.dcd
dump dmp2 all dcd 1000 traj.dcd


compute msd all msd com yes
variable twopoint equal c_msd[4]/6/(step*dt+1.0e-6)
fix 9 all vector 10 c_msd[4]
variable fit equal slope(f_9)/6/(10*dt)
thermo_style custom step temp pe c_msd[4] v_twopoint v_fit v_max_n

fix 1 all npt temp 1.25 ${temp} 0.1 iso 5.68 5.68 0.5 mtk yes tchain 5 pchain 5
fix 1 all npt temp 1.25 0.45 0.1 iso 5.68 5.68 0.5 mtk yes tchain 5 pchain 5
run 2000000 # 5000000  # Run for this many steps
Neighbor list info ...
  update every 1 steps, delay 10 steps, check yes
  max neighbors/atom: 2000, page size: 100000
  master list distance cutoff = 3.8
  ghost atom cutoff = 3.8
  binsize = 1.9, bins = 8 8 8
  4 neighbor lists, perpetual/occasional/extra = 1 3 0
  (1) pair lj/cut, perpetual
      attributes: half, newton on
      pair build: half/bin/atomonly/newton
      stencil: half/bin/3d
      bin: standard
  (2) compute orientorder/atom, occasional
      attributes: full, newton on
      pair build: full/bin/atomonly
      stencil: full/bin/3d
      bin: standard
  (3) compute coord/atom, occasional
      attributes: full, newton on
      pair build: full/bin/atomonly
      stencil: full/bin/3d
      bin: standard
  (4) compute cluster/atom, occasional
      attributes: full, newton on
      pair build: full/bin/atomonly
      stencil: full/bin/3d
      bin: standard
Per MPI rank memory allocation (min/avg/max) = 9.836 | 9.842 | 9.846 Mbytes
Step Temp PotEng c_msd[4] v_twopoint v_fit v_max_n 
   12000    1.2338635   -7.1008529            0            0 8.3333333e+20            5 
   13000    1.2624867    -7.152713   0.44408068 0.0028466709  0.035883626            1 
   14000    1.2564999   -7.1621977   0.89051952 0.0053007112  0.035884144            2 
   15000    1.2515468   -7.1265945    1.2899662 0.0071664786  0.035939766            3 
   16000    1.2643044   -7.1665448     1.654698 0.0086182186  0.034388349            1 
   17000    1.2470367   -7.1164403    2.0909476  0.010249743   0.03389323            2 
   18000    1.2245715   -7.1578111    2.5114163  0.011626927  0.034075908            3 
   19000    1.2585444   -7.1008504    2.9548382  0.012959816  0.034295056            1 
   20000    1.2142759   -7.1671467    3.3104066   0.01379336  0.034258126            1 
   21000    1.2469256   -7.1702995    3.7377841  0.014832476  0.034257087            2 
   22000    1.2260103    -7.141208    4.1516461  0.015725932  0.034272953            2 
   23000    1.2347121   -7.1375281     4.567653  0.016549467  0.034287388            3 
   24000    1.2302006   -7.1237273    5.0130513  0.017406428  0.034448167            2 
   25000    1.2141333   -7.1459072    5.3440487  0.017813495  0.034357917            2 
   26000    1.2452587   -7.1933129    5.6629634  0.018150523  0.034114836            2 
   27000    1.2417563   -7.1465943    6.0530854  0.018682362  0.033899916            2 
   28000    1.2421701   -7.1580812    6.3636349  0.018939389   0.03359332            2 
   29000    1.2474568   -7.1568153    6.8030376  0.019548958  0.033308868            4 
   30000    1.2269611   -7.1952552    7.1880644  0.019966845   0.03318189            3 
   31000    1.2690035   -7.1619321    7.5990452   0.02042754  0.033078291            2 
   32000    1.2570291   -7.1674878     7.894025  0.020557357  0.032921479            3 
   33000    1.2696656   -7.1561599     8.255468  0.020847141  0.032757921            2 
   34000    1.2400525   -7.1544078    8.6474894  0.021194827  0.032615972            1 
   35000    1.2610588   -7.0994884    9.0342483  0.021510115  0.032492185            2 
   36000    1.2247458   -7.1233889    9.2996128  0.021526881   0.03233071            2 
   37000    1.2345971   -7.1401968    9.6285198  0.021685855  0.032150705            1 
   38000    1.2213682   -7.1402738    9.9942241  0.021917158  0.032000737            2 
   39000    1.1970793   -7.1521799    10.375113  0.022169044  0.031862933            2 
   40000    1.2497929    -7.163664    10.727779  0.022349539  0.031757413            1 
   41000    1.2324336   -7.1488511    11.168545  0.022700295  0.031680622            2 
   42000    1.2330382   -7.1474112    11.523988  0.022865055  0.031607386            1 
   43000    1.2521268   -7.1481742     11.95877   0.02317591   0.03155745            5 
   44000    1.2346228   -7.1691507     12.25918  0.023218144   0.03152527            3 
   45000     1.254466   -7.1586049     12.62344   0.02337674  0.031454889            1 
   46000    1.2286176   -7.1432679    13.097737  0.023727785  0.031422017            1 
   47000    1.2661711   -7.1031967    13.539833  0.024006795  0.031436912            1 
   48000    1.2311266   -7.1772456    13.874757  0.024088119  0.031454161            1 
   49000    1.2351112   -7.1427855    14.381486  0.024458309  0.031467726            2 
   50000    1.2240658   -7.1506024     14.70912    0.0245152  0.031498825            3 
   51000    1.2531493   -7.1481177    15.004098    0.0245165  0.031519568            2 
   52000    1.2249933   -7.1736167    15.363253  0.024620597  0.031529224            2 
   53000    1.2200861    -7.085211     15.75957  0.024779198  0.031514468            3 
   54000    1.2204237   -7.1827104     16.24707  0.025072638  0.031521901            2 
   55000     1.233073   -7.1911723    16.592708  0.025140466  0.031532656            1 
   56000    1.2473449   -7.2076759    17.095807  0.025440189  0.031572657            2 
   57000    1.2305145   -7.1904815    17.339453  0.025350077  0.031613462            2 
   58000    1.2218401   -7.1549524    17.831754  0.025620336   0.03161988            2 
   59000    1.2433268   -7.1851021    18.265798   0.02579915  0.031651124            1 
   60000     1.244007   -7.1862309     18.54803  0.025761152  0.031682197            3 
   61000    1.2180967    -7.161413    19.109388  0.026105721  0.031731073            2 
   62000    1.2549835   -7.1853485    19.421222  0.026103793   0.03177207            1 
   63000     1.213972   -7.1682658    19.825695  0.026224464   0.03179809            2 
   64000     1.205745   -7.1246572    20.289284  0.026418338  0.031834059            3 
   65000    1.2364038    -7.142737    20.659527  0.026486573  0.031862024            1 
   66000    1.2407985   -7.2349949    20.802195  0.026265397  0.031881119            1 
   67000    1.2238165   -7.1931632     21.21789   0.02639041  0.031888577            2 
   68000       1.2376   -7.2333922    21.613565  0.026487212  0.031888244            2 
   69000     1.232175   -7.1729068    21.935785  0.026492494  0.031880746            1 
   70000    1.2193934   -7.1621398    22.339715  0.026594899  0.031872193            2 
   71000    1.2120056   -7.1265111    22.753394  0.026705862  0.031868418            3 
   72000    1.2188157   -7.1958265    23.018279  0.026641526  0.031854786            2 
   73000    1.2166231   -7.2003793    23.315467   0.02661583  0.031833666            1 
   74000    1.2295634   -7.1853258    23.760491  0.026757309   0.03181184            1 
   75000    1.2160237   -7.1533225    24.057653  0.026730725    0.0317867            2 
   76000    1.2145076   -7.2148945    24.114679  0.026441534  0.031743723            1 
   77000    1.2286841   -7.1661477    24.514096  0.026530407  0.031693156            1 
   78000    1.2093539   -7.2158219    24.866864  0.026567163  0.031640341            2 
   79000    1.2141713   -7.1762785    25.131865  0.026510406  0.031583091            2 
   80000    1.2295494     -7.24486     25.57485  0.026640468  0.031531273            1 
   81000    1.2072263   -7.1992812    25.934561  0.026681647  0.031481033            2 
   82000     1.233757   -7.2253049    26.308497  0.026736278  0.031438191            3 
   83000    1.2005813   -7.2011286    26.870999  0.026978915  0.031410369            1 
   84000    1.2435051   -7.1916418    27.270719  0.027054284   0.03138899            3 
   85000    1.2117799   -7.2164145    27.890264  0.027343396  0.031381468            2 
   86000    1.2128368   -7.2196055    28.182659  0.027308778  0.031379104            3 
   87000    1.2445589   -7.1412583    28.571035  0.027366892   0.03137713            1 
   88000    1.2230545   -7.1550487    28.920381  0.027386724  0.031379022            3 
   89000    1.2368809   -7.1990046    29.183465  0.027325342  0.031365455            1 
   90000    1.2071787   -7.2351601    29.340485  0.027167116  0.031347399            3 
   91000    1.1975518   -7.2212235    29.841723  0.027327585  0.031327187            1 
   92000    1.1985142   -7.2382323    30.122528  0.027284899  0.031312255            2 
   93000    1.2164087   -7.2282417    30.435271  0.027271749  0.031286668            2 
   94000    1.1882669   -7.2711062    30.705722  0.027221385  0.031262858            4 
   95000    1.2272518   -7.2123587    31.204722  0.027372563  0.031243301            2 
   96000    1.2233473    -7.272915    31.633696  0.027459806  0.031224992            2 
   97000    1.2512928   -7.1821568    31.976742  0.027471428  0.031210889            3 
   98000    1.2192094   -7.2097663    32.374477  0.027529317  0.031192874            1 
   99000    1.2076751   -7.2162013    32.754991  0.027571541   0.03117803            1 
  100000    1.2146561   -7.2276328    33.063159  0.027552632  0.031157407            3 
  101000    1.2051723   -7.2284557    33.504606  0.027644064  0.031143057            2 
  102000    1.2463385   -7.2289386    33.865957  0.027668265  0.031133787            3 
  103000    1.2164589   -7.2537243    34.232477  0.027696179  0.031126722            2 
  104000    1.1935408   -7.2263647    34.424474  0.027583713  0.031113018            5 
  105000    1.2207702   -7.2549353    34.924682  0.027718001  0.031096175            3 
  106000    1.2303036   -7.2413037    35.043927  0.027550257    0.0310763            3 
  107000    1.2104474   -7.2009226    35.469584  0.027624286  0.031053321            1 
  108000    1.2117666   -7.2089674    35.843367  0.027656919  0.031027822            1 
  109000    1.2092437   -7.2169366    36.372556  0.027807765   0.03101394            1 
  110000    1.1791743   -7.2266606    36.593209  0.027722128  0.031002324            2 
  111000     1.203544   -7.2012583    37.255789  0.027969812    0.0309896            1 
  112000    1.2242452   -7.2136064    37.591841   0.02797012  0.030981874            4 
  113000    1.1984405   -7.1994127    37.833604  0.027900888  0.030974737            1 
  114000    1.2112472   -7.2097909    38.194224  0.027919755   0.03096462            2 
  115000    1.2332844   -7.2363653    38.346201  0.027787102  0.030952298            2 
  116000    1.2240245    -7.267119    38.820773  0.027888486  0.030935194            2 
  117000    1.2204863   -7.2470519    39.120144  0.027863351   0.03091762            5 
  118000     1.217422   -7.1462359    39.511444  0.027903562   0.03090192            2 
  119000    1.2376207   -7.2246789    39.824116  0.027888036  0.030890094            3 
  120000    1.2451713   -7.2708004    40.152627  0.027883769  0.030877582            2 
  121000    1.1919969   -7.2716047    40.588221   0.02795332  0.030866905            2 
  122000    1.2186725    -7.224778    41.067287  0.028051426  0.030861876            2 
  123000    1.2258696   -7.2280079    41.680793   0.02823902  0.030857571            4 
  124000    1.2241781   -7.2472272    41.838681  0.028117393  0.030854968            2 
  125000    1.2154756   -7.2479081    42.213421   0.02814228  0.030851139            1 
  126000    1.2012469   -7.2493492    42.565731  0.028151939  0.030845189            4 
  127000    1.2195967   -7.2633586     42.73399  0.028040676  0.030838299            3 
  128000    1.2039802   -7.2417053    42.960737   0.02796923  0.030823098            2 
  129000    1.1873052   -7.2285339    43.298986  0.027970921  0.030807603            6 
  130000    1.2249516   -7.2234519    43.641138  0.027975088  0.030787143            2 
  131000    1.1914961   -7.2381358     43.85261  0.027896062  0.030766072            1 
  132000    1.2262619   -7.2518141    44.039744  0.027802868  0.030738037            1 
  133000    1.1874931   -7.2607029    44.400176  0.027819659  0.030708815            3 
  134000    1.2160093   -7.2206182    44.906669  0.027927033  0.030685342            2 
  135000    1.1999907   -7.2731805    44.912814  0.027723959  0.030657932            2 
  136000    1.1749908    -7.252578    45.296661  0.027755307  0.030630483            3 
  137000    1.2075193   -7.2779654    45.443506  0.027642035   0.03060235            3 
  138000    1.2053213   -7.2708853    46.147752     0.027867  0.030575251            2 
  139000    1.2046994   -7.3026021    46.375004   0.02780276  0.030550258            1 
  140000    1.2028081    -7.251607    46.781366  0.027846051  0.030524027            5 
  141000    1.2243128   -7.2558311    47.055497  0.027810577  0.030500161            3 
  142000    1.1950079   -7.2364308    47.453319  0.027848192  0.030475015            2 
  143000    1.2134057   -7.2388675    47.711777  0.027804066   0.03044818            1 
  144000    1.1834006   -7.2852262    47.894036  0.027716456  0.030421299            5 
  145000    1.2105376   -7.2999445    48.131345  0.027661692  0.030393778            1 
  146000    1.2243058   -7.2516468    48.961175  0.027945876  0.030370602            2 
  147000    1.1825127   -7.2795586    49.340702   0.02797092  0.030352444            1 
  148000    1.2030871   -7.2168778    49.673277  0.027969187  0.030334392            2 
  149000    1.1760241   -7.2502005    49.839557  0.027874472  0.030314753            2 
  150000    1.2068163   -7.3205144    50.266541  0.027925856  0.030299602            4 
  151000    1.1863817   -7.2520222    50.679392   0.02796876  0.030283673            4 
  152000    1.2134423   -7.2597122    51.227216  0.028085096  0.030266434            2 
  153000    1.2031905   -7.2659997    51.378306  0.027983827     0.030252            4 
  154000    1.2023194   -7.2737138    51.452485  0.027842254  0.030235773            1 
  155000     1.209295   -7.3024964    51.934694  0.027921878  0.030215836            1 
  156000    1.1955686    -7.309537    51.861426  0.027703753  0.030194419            1 
  157000    1.1756136   -7.2463158    52.465018  0.027847674  0.030170813            3 
  158000    1.2147314   -7.2781724    53.118588  0.028016133  0.030151626            2 
  159000    1.1817823   -7.2707701    53.206667  0.027886093  0.030134893            1 
  160000    1.2026559   -7.2754343    53.556302  0.027893907  0.030116479            1 
  161000    1.1933184   -7.2667386    53.796715   0.02784509  0.030095352            2 
  162000    1.1905579   -7.2882773    54.091953  0.027825079  0.030074098            2 
  163000    1.1571623   -7.2522643    54.400791  0.027812265  0.030052167            2 
  164000    1.1834611   -7.2836777    54.721652  0.027805718   0.03002808            1 
  165000    1.2065775   -7.2865784    54.977988   0.02776666  0.030005119            3 
  166000    1.1644376   -7.3109786    55.305249  0.027763679  0.029983419            1 
  167000    1.1764945   -7.2959486    55.789077  0.027838861  0.029965283            2 
  168000    1.1672405   -7.2665646    56.241472  0.027897555  0.029946998            4 
  169000    1.1974396   -7.2882047    56.559151  0.027889128   0.02992777            2 
  170000    1.1852505   -7.2941898    56.854203  0.027869707  0.029908545            1 
  171000    1.2121022   -7.2771458    56.829081  0.027694484    0.0298882            2 
  172000    1.1839269   -7.2746389     57.40835  0.027814123  0.029867572            3 
  173000    1.1941631   -7.2601893    58.160406   0.02801561  0.029852488            1 
  174000    1.1829996   -7.2737442    58.356034  0.027948292  0.029835208            1 
  175000    1.2078438   -7.2686841    58.172797  0.027701332  0.029816799            2 
  176000    1.1731368   -7.2686873    58.591159  0.027742026  0.029797332            1 
  177000    1.1589217   -7.2558945    59.124767  0.027836519  0.029776877            2 
  178000     1.167213    -7.303414    59.117412  0.027676691  0.029754759            2 
  179000    1.1902494   -7.2862154    59.313239   0.02761324   0.02973131            5 
  180000    1.1780852   -7.3093152    59.612189  0.027598235  0.029705244            5 
  181000    1.1675489   -7.3107022     59.65255  0.027464342  0.029674764            2 
  182000     1.157961   -7.3121527    60.197332  0.027562881  0.029645518            3 
  183000    1.1584912   -7.3046828    60.277094  0.027448585  0.029616112            2 
  184000    1.1831009   -7.3081127    60.616594  0.027453167  0.029586265            1 
  185000    1.1918706   -7.3128336    60.752016  0.027365773   0.02955536            1 
  186000    1.1734942   -7.3100302    61.090338  0.027370223  0.029525785            1 
  187000    1.1519325   -7.3373986    61.357935  0.027343108  0.029498595            3 
  188000    1.2024671   -7.2687985    62.007309  0.027485509  0.029470929            1 
  189000    1.1916422   -7.3314797    62.235877  0.027440863  0.029445091            2 
  190000    1.1837981   -7.3038858    62.870718  0.027574876  0.029422513            1 
  191000    1.1756641   -7.3166423    62.908971  0.027447195  0.029400241            2 
  192000    1.1819267   -7.2963185    63.555999  0.027585069   0.02937955            2 
  193000    1.1985662   -7.2962344    64.114179  0.027683151  0.029357564            2 
  194000    1.1894926   -7.2861575    64.253258  0.027600197  0.029339379            3 
  195000    1.1830544   -7.2791065    64.466387  0.027549738  0.029318794            4 
  196000    1.1887088   -7.3345549    64.929843  0.027606226  0.029300373            4 
  197000     1.180532   -7.3216605    65.150372  0.027559379  0.029280135            1 
  198000    1.1702323   -7.3014407    65.581305  0.027601559  0.029258512            4 
  199000    1.1686966   -7.3575594     65.75765  0.027536704  0.029240898            3 
  200000    1.1642309   -7.3234507    66.280244  0.027616768  0.029223506            3 
  201000    1.1909817   -7.3601352    66.613016  0.027617337  0.029207617            2 
  202000    1.1675169    -7.322632     66.85891  0.027582059  0.029191676            3 
  203000    1.2014878   -7.3104048     67.04735  0.027523543  0.029173059            1 
  204000    1.1979626   -7.3238905    67.411368  0.027537324  0.029154455            2 
  205000    1.1872105   -7.3265418    67.918489  0.027609142  0.029136836            2 
  206000      1.15294   -7.3011709    68.028282  0.027519532  0.029118977            3 
  207000    1.1616915   -7.3225522     67.78423  0.027288337  0.029098432            2 
  208000    1.2104251   -7.3835786    68.170529  0.027311911  0.029075409            1 
  209000    1.1826627   -7.3257411    68.616977  0.027359241  0.029053084            2 
  210000     1.138151   -7.3334178     68.66813  0.027249258  0.029030508            2 
  211000    1.1698192   -7.3420305    69.640989   0.02750434  0.029009614            2 
  212000    1.1643522   -7.3459911    69.581044  0.027351039  0.028990996            1 
  213000    1.1667023   -7.3622465    69.770093  0.027296594  0.028970048            1 
  214000    1.1626859   -7.3132786    70.285346  0.027369683  0.028949955            2 
  215000    1.1686414   -7.3247419    70.662344  0.027388505  0.028930375            2 
  216000    1.1543868   -7.3047054    70.987744  0.027387247  0.028911397            2 
  217000    1.1458856   -7.3169117    71.562553  0.027481779  0.028893805            1 
  218000    1.1724009   -7.3747041     71.48048  0.027324342  0.028877257            2 
  219000    1.1573181   -7.3638834    72.116147  0.027441456  0.028859598            3 
  220000    1.1759529   -7.3713865    72.430496  0.027435794  0.028842768            2 
  221000      1.16043   -7.3163953    72.912232    0.0274933  0.028826597            2 
  222000    1.1911504   -7.3422521    72.698127  0.027289087  0.028809193            3 
  223000    1.1771197   -7.3715744    73.168182   0.02734237  0.028791455            1 
  224000    1.1724623   -7.3683998    73.606826  0.027383492  0.028773054            4 
  225000    1.1554728    -7.333075    73.662336  0.027282347  0.028754919            4 
  226000    1.1712677    -7.336458    74.065142  0.027310155  0.028736437            3 
  227000    1.1518932   -7.3695709    74.133181  0.027214824  0.028719172            2 
  228000    1.1445821   -7.3856275    74.668979  0.027291293  0.028702142            1 
  229000    1.1708642    -7.355142    75.176373  0.027356759  0.028684727            6 
  230000    1.1551879   -7.3605392    75.291185  0.027279415  0.028669089            6 
  231000    1.1762418   -7.3232401    76.124994  0.027462119   0.02865445            2 
  232000    1.1787047   -7.3215882    76.424629  0.027451375  0.028640858            2 
  233000    1.1464105   -7.3219574    76.674547  0.027422942  0.028627821            3 
  234000     1.149951   -7.3482102    76.969213  0.027410688  0.028614385            2 
  235000    1.1609024   -7.3931883    77.051898  0.027323368  0.028599648            3 
  236000    1.1525953   -7.3905473    77.043704  0.027204698  0.028583065            3 
  237000     1.150601   -7.3783115    77.365017  0.027202889  0.028564984            3 
  238000    1.1959468   -7.3640945    77.737249  0.027218925  0.028546873            1 
  239000    1.1729701   -7.3398281    78.359489  0.027321998  0.028531061            2 
  240000    1.1461028   -7.3648831    78.149536  0.027135256  0.028513983            1 
  241000    1.1623216   -7.3506838    78.734777  0.027225026  0.028496733            1 
  242000    1.1809757   -7.3442005    78.783049  0.027129149  0.028480103            3 
  243000    1.1801658   -7.3767471    78.956688  0.027077053  0.028460531            3 
  244000    1.1606241   -7.3941138    78.947834  0.026963058  0.028440799            4 
  245000    1.1347942   -7.3614646    79.535833  0.027053004  0.028420177            2 
  246000    1.1689747   -7.3546487    79.819841  0.027039242  0.028399283            2 
  247000      1.15359    -7.360129    80.070267   0.02701426   0.02837855            1 
  248000    1.1480016   -7.3518984    80.037382  0.026894281  0.028357202            2 
  249000    1.1358655   -7.3789003    80.402685  0.026908529  0.028336791            2 
  250000    1.1421951   -7.3723566    80.717512  0.026905837  0.028315076            1 
  251000    1.1356278   -7.3725489     80.98412  0.026887158  0.028294493            3 
  252000    1.1706221   -7.3852989    81.204229   0.02685325  0.028273706            2 
  253000    1.1435575   -7.3665339        81.81   0.02694664  0.028252591            3 
  254000     1.128475   -7.3705458    82.374004  0.027025592  0.028233197            1 
  255000     1.151794   -7.3906675    82.440334  0.026941285  0.028214902            2 
  256000    1.1478674   -7.3561316    83.030527  0.027028166  0.028197803            2 
  257000    1.1374343   -7.3748964    83.022456  0.026920381  0.028180718            3 
  258000    1.1263139   -7.3672726    83.204147  0.026874724  0.028161674            2 
  259000    1.1624305   -7.4088261    83.519443  0.026872408  0.028141545            2 
  260000    1.1335546   -7.3682713    84.205019  0.026988788  0.028123034            2 
  261000    1.1839281   -7.3766958    84.199161  0.026883512  0.028105756            2 
  262000    1.1590487   -7.3395456    84.930828  0.027013622  0.028089769            2 
  263000    1.1469614   -7.3974597     84.85258  0.026886115  0.028073069            2 
  264000    1.1317574   -7.4004416    84.943773   0.02681306  0.028054224            3 
  265000    1.1569632   -7.3718421    85.386583  0.026851127  0.028035366            1 
  266000    1.1410294   -7.4032452    85.990328  0.026939326  0.028018858            2 
  267000    1.1288136   -7.4122668    86.033001  0.026851748  0.028001209            3 
  268000    1.1540004    -7.417879    86.204135  0.026804768  0.027984416            2 
  269000    1.1521115   -7.3547467    86.884723  0.026915961   0.02796734            3 
  270000    1.1461555   -7.3892963    87.161501  0.026901698   0.02795157            2 
  271000    1.1547716   -7.3678763    87.268607  0.026835365   0.02793493            3 
  272000    1.1835782   -7.3704247     87.72149  0.026875457  0.027917993            1 
  273000    1.1345916   -7.3904457    87.867463   0.02682157  0.027901658            2 
  274000    1.1498162   -7.3752698     88.17871  0.026818342  0.027884746            4 
  275000    1.1416272   -7.3758301    88.467479  0.026808327  0.027868274            1 
  276000    1.1182321   -7.4068205    88.626943  0.026759343  0.027851262            2 
  277000    1.1339422   -7.3851722    89.175905   0.02682789  0.027834183            2 
  278000    1.1226281   -7.4362326    89.109283  0.026711416   0.02781751            1 
  279000    1.1560574   -7.4671073    89.517946  0.026737738  0.027800714            1 
  280000    1.1430855    -7.370096     90.03487  0.026796092  0.027785703            1 
  281000    1.1547082   -7.3591645    90.554324  0.026854782  0.027770575            1 
  282000    1.1395098   -7.4034659    90.807139  0.026834261  0.027755959            1 
  283000    1.1506039   -7.3841006    90.671814  0.026699592  0.027740822            2 
  284000     1.147364   -7.4126497    91.178136  0.026754148  0.027726476            1 
  285000    1.1126475   -7.4332662    91.583948  0.026778932  0.027712563            3 
  286000    1.1450989   -7.4155873    91.963469  0.026795883  0.027699036            5 
  287000    1.1454707   -7.4125136    91.790237  0.026652217  0.027685235            1 
  288000    1.1170501   -7.4216634    92.251858  0.026693246  0.027670323            1 
  289000    1.1587128   -7.3862707    92.663335  0.026719531  0.027655413            2 
  290000    1.1363255   -7.4189807    93.332568  0.026819703  0.027641823            1 
  291000    1.1225819   -7.4184519    93.351673   0.02673301  0.027628354            1 
  292000    1.1467099   -7.4121014    93.867894  0.026788783  0.027615913            1 
  293000    1.1239401   -7.3998575    94.179261   0.02678591  0.027602812            2 
  294000    1.1486878   -7.4473384    94.270194  0.026720577  0.027589418            2 
  295000     1.117902   -7.4500573    94.497811  0.026694297  0.027576166            1 
  296000    1.1438337   -7.4355232    94.592575  0.026630792  0.027562395            1 
  297000    1.1197785   -7.4479378    94.963097  0.026645089  0.027548338            2 
  298000    1.1207004   -7.3730602    95.705679  0.026763333  0.027535599            2 
  299000     1.109313   -7.4303476    96.131762  0.026792576   0.02752463            2 
  300000    1.1249467   -7.4662825    96.099613  0.026694337  0.027513872            1 
  301000    1.1579883    -7.414202    96.512389  0.026719931  0.027503108            2 
  302000    1.1444142   -7.4001453    96.895575   0.02673719  0.027492468            2 
  303000    1.1167831   -7.4044602    97.435287  0.026797384  0.027482391            2 
  304000    1.1497241   -7.3796856    97.815007  0.026813324  0.027472655            1 
  305000    1.0951113   -7.4425553    98.012896   0.02677948  0.027462099            2 
  306000    1.1201415   -7.4467746    98.025393  0.026695368  0.027451197            1 
  307000    1.1241839   -7.4498114    98.048638  0.026614723  0.027439341            2 
  308000    1.1412009    -7.422935    98.510854   0.02665337  0.027426801            1 
  309000    1.1391749   -7.4194884     99.18202  0.026748118  0.027415323            3 
  310000    1.1195799   -7.4266272    99.118744  0.026644824  0.027404327            4 
  311000    1.1184605   -7.4318392    99.402272  0.026635121  0.027392329            3 
  312000    1.1168826   -7.4329557    99.842862  0.026667431   0.02738118            2 
  313000    1.1235377   -7.4243058    99.869601  0.026589351  0.027369259            1 
  314000    1.1204792   -7.4634006     100.0947   0.02656441  0.027357366            1 
  315000    1.1391711   -7.4419583    100.17679  0.026501796  0.027344545            1 
  316000    1.1140669   -7.4624563    100.62444  0.026535981  0.027331165            2 
  317000    1.1178515   -7.4794068    100.72594  0.026478955  0.027318673            1 
  318000    1.1198407   -7.4495351    101.10294  0.026494481  0.027305127            1 
  319000    1.1429104   -7.4604798    101.36762  0.026480571  0.027291823            1 
  320000      1.13446   -7.4176624    101.86649  0.026527731  0.027278415            4 
  321000     1.122497   -7.4276364    101.79831   0.02642739  0.027264413            1 
  322000    1.1212116   -7.4334566    102.26227  0.026465391  0.027250546            5 
  323000    1.1358921   -7.4819771    102.64464  0.026482106  0.027236727            1 
  324000    1.1248931     -7.47284    103.05154  0.026505027  0.027224661            2 
  325000    1.1280109   -7.4092013    103.88541  0.026637285  0.027213466            3 
  326000    1.0946668   -7.4062222    104.25901  0.026651077  0.027203208            2 
  327000     1.101065   -7.4839058    103.65138  0.026414726  0.027192517            2 
  328000    1.1354892   -7.4899121    104.36861  0.026516416  0.027181095            2 
  329000    1.1392633   -7.4261075    104.83483  0.026553908  0.027171209            2 
  330000    1.1450448   -7.4563375    104.94111  0.026500281  0.027160896            2 
  331000    1.0958977   -7.5188527    104.77172  0.026377574  0.027148776            1 
  332000    1.1072694   -7.4535871    105.17544  0.026399458  0.027136561            5 
  333000    1.0941227   -7.4388192    105.74209  0.026461985   0.02712432            2 
  334000    1.0950608   -7.4707194    105.37614  0.026291452   0.02711128            2 
  335000    1.1376114   -7.4651377    105.68135  0.026288894   0.02709711            2 
  336000    1.1107701   -7.4348379    106.12411  0.026320463    0.0270829            2 
  337000    1.1427032   -7.4291433    106.15752  0.026250624  0.027068779            4 
  338000    1.1134356   -7.4303671    106.50785  0.026259332  0.027054222            3 
  339000    1.1442228   -7.4490476    106.69164   0.02622705  0.027039546            3 
  340000    1.1413904   -7.4046704    106.91236   0.02620401  0.027025193            3 
  341000    1.1203144   -7.4772145    106.98027  0.026143761  0.027010046            2 
  342000    1.1199915   -7.4393173    107.51933  0.026198668  0.026994859            1 
  343000     1.129227   -7.4425372    107.03607  0.026004875  0.026979412            2 
  344000     1.133673   -7.4792151    107.30709  0.025994934  0.026963335            4 
  345000    1.1480481   -7.4573343    107.89834  0.026062401  0.026947142            4 
  346000    1.1435406   -7.4352062    108.17849  0.026054549  0.026930306            4 
  347000    1.0898205   -7.4772085    108.02704  0.025943094  0.026914037            1 
  348000    1.1193045   -7.4692926    108.53059  0.025989127  0.026896703            2 
  349000    1.1166945   -7.4672148    108.62702  0.025937684  0.026879447            1 
  350000     1.085278   -7.5068704    108.76465  0.025896345  0.026861709            1 
  351000    1.1106323   -7.4694953    109.20238  0.025926492  0.026844257            3 
  352000     1.105763   -7.4517954    109.28651  0.025872752  0.026827118            2 
  353000    1.1009888   -7.4920919    109.72207  0.025902283  0.026809602            4 
  354000    1.1031299   -7.4763396    110.00898  0.025896652  0.026792302            2 
  355000    1.1179242   -7.4858729    110.46444  0.025930619  0.026774756            3 
  356000    1.1344099   -7.4844335    110.68972  0.025910515  0.026758905            3 
  357000    1.0881541   -7.4723981    110.72732  0.025846713  0.026742029            2 
  358000     1.099463   -7.4540168    111.24022  0.025893906  0.026725209            3 
  359000    1.1214892   -7.4718476    111.63347  0.025913063   0.02670895            2 
  360000    1.1315505   -7.4915406    111.19419  0.025739395  0.026691769            2 
  361000     1.111747   -7.4908222    112.00639  0.025855585  0.026675136            2 
  362000    1.1049171   -7.5046832    112.09455  0.025804455  0.026658655            4 
  363000    1.1050285   -7.4875757    112.33094  0.025787635  0.026642557            2 
  364000    1.1147994   -7.5290945    112.60285  0.025779041  0.026625889            3 
  365000    1.1346354   -7.4548259    113.34983  0.025878956  0.026609443            2 
  366000    1.0986785    -7.484562    113.35301  0.025808974  0.026594278            2 
  367000    1.0963406   -7.5094788     113.5059  0.025773365  0.026578677            2 
  368000    1.1015429   -7.4974953    113.92468   0.02579816  0.026563119            3 
  369000     1.122804   -7.4837689    114.24593  0.025800797  0.026547209            3 
  370000    1.0941376   -7.4989256    114.14969  0.025709389  0.026530944            1 
  371000    1.0832672   -7.4807432    114.08667  0.025625937  0.026513654            2 
  372000     1.128781   -7.4884775    114.39397  0.025625889  0.026496813            1 
  373000    1.0971534   -7.4878893    114.55995  0.025594269  0.026479371            2 
  374000    1.1095479   -7.4863716    115.14225  0.025655581  0.026462109            2 
  375000    1.1228642   -7.4550401    115.41776  0.025648392  0.026444843            2 
  376000    1.0897113    -7.476405    115.98013  0.025704815  0.026427214            1 
  377000    1.1006769   -7.5066582    115.71399  0.025577806  0.026410405            2 
  378000    1.1129102   -7.4958669    116.39833  0.025661008   0.02639379            2 
  379000    1.1015758   -7.4887216    116.43738  0.025601886  0.026377103            3 
  380000    1.1069265    -7.486256    116.64147  0.025579269  0.026360629            3 
  381000    1.0956265   -7.4825051    116.95429  0.025580554  0.026344265            4 
  382000    1.0913819   -7.5446705    116.86685  0.025494513  0.026327354            2 
  383000    1.0640788   -7.4706762    117.38414    0.0255405  0.026310621            2 
  384000    1.1033669   -7.4931685    117.04042  0.025399397  0.026294031            2 
  385000    1.1273266   -7.5184117    117.40149  0.025411577  0.026276748            3 
  386000    1.0959167   -7.5217733    117.49003  0.025364861  0.026259139            2 
  387000    1.1136117   -7.5081297    117.99478  0.025408006  0.026241385            2 
  388000    1.1040622   -7.5613754    118.07254  0.025359222  0.026223823            3 
  389000    1.0896754   -7.5124565    118.45023  0.025374941  0.026206486            2 
  390000    1.0935619   -7.5450874    118.87211  0.025400024    0.0261892            1 
  391000    1.0908702   -7.5358381     118.6481   0.02528732  0.026171602            1 
  392000    1.1215492   -7.5191138    119.30276  0.025361981  0.026154132            1 
  393000    1.0962842   -7.5363875    119.68047  0.025377538  0.026136512            3 
  394000    1.0864878   -7.5788087    120.04269   0.02538974  0.026119583            3 
  395000    1.0834275   -7.5368443    120.04586  0.025326131  0.026102536            2 
  396000     1.107835   -7.5111305    120.40011  0.025336722  0.026085437            3 
  397000    1.1128181    -7.500782    120.67849  0.025331338  0.026068612            1 
  398000     1.101794   -7.5371971    120.42633  0.025214894  0.026052283            2 
  399000    1.1074775   -7.5576773    121.11253  0.025295014  0.026035654            3 
  400000     1.085464   -7.5646939    121.43869  0.025299727  0.026018878            2 
  401000    1.1046761   -7.4980775    121.67493   0.02528573  0.026002206            1 
  402000    1.0937264   -7.4962755    122.36222  0.025365303  0.025986055            5 
  403000    1.0725059   -7.5477332    121.99738  0.025226918  0.025969903            1 
  404000    1.0889917   -7.5165618    122.31325  0.025229631  0.025952746            3 
  405000    1.0757122   -7.5127153    122.51788   0.02520944  0.025935832            1 
  406000     1.088657   -7.5430001    122.30836  0.025104343  0.025918934            2 
  407000    1.0873446   -7.5030231    123.23981  0.025233377  0.025902345            1 
  408000    1.1063063   -7.5699245    122.95979  0.025114336  0.025884921            4 
  409000    1.0970303   -7.5260971    123.29971  0.025122189  0.025867297            1 
  410000    1.0676764   -7.5340258    123.32697  0.025066458  0.025849903            2 
  411000    1.0872555   -7.5544391    123.73275  0.025087742  0.025832715            3 
  412000    1.1167776   -7.5365144    123.90451  0.025061591  0.025815553            2 
  413000    1.1046443   -7.5481844    123.94591  0.025009263  0.025797881            2 
  414000    1.0792063   -7.5606843    123.78662  0.024916791  0.025779862            2 
  415000    1.1041893     -7.54075    124.11019  0.024921725  0.025761685            3 
  416000    1.0946315   -7.5487866    124.44494  0.024928875  0.025743432            2 
  417000    1.0778295    -7.562884    124.65613  0.024911297  0.025725027            3 
  418000    1.0761216    -7.546741    124.74516   0.02486945  0.025706433            9 
  419000    1.0643902   -7.5303039    124.92235  0.024845336  0.025687862            3 
  420000    1.0876691   -7.5538214    125.57936  0.024916539  0.025669488            6 
  421000    1.0894291   -7.5021126    125.73381  0.024887927  0.025651429            2 
  422000    1.0608836   -7.5551386    125.51784  0.024786304  0.025633093            1 
  423000    1.0896123   -7.5636669    125.65331  0.024754395  0.025615151            1 
  424000    1.0838853   -7.5215718    126.43526  0.024849697  0.025597226            2 
  425000    1.0839416   -7.5618616    126.28592  0.024761944  0.025579264            4 
  426000    1.0736889   -7.5686582    126.41595  0.024729255   0.02556084            3 
  427000    1.0872124   -7.5361884    127.10756  0.024806316  0.025542606            3 
  428000    1.0971248   -7.5611232    127.28487   0.02478288  0.025524372            2 
  429000    1.0670629   -7.5169839    127.67222  0.024800354  0.025506679            2 
  430000     1.101312   -7.5449354    128.06809  0.024819397   0.02548918            3 
  431000    1.0816485   -7.5540919    128.06055  0.024760354  0.025471248            3 
  432000    1.1041313   -7.5726011    127.67047  0.024627791   0.02545315            3 
  433000    1.1005618   -7.5075503    128.28312  0.024688822  0.025434731            8 
  434000    1.0647707   -7.5730396     128.0309  0.024583506  0.025416528            2 
  435000    1.0784199   -7.5565559    128.96558  0.024706049  0.025398411            3 
  436000    1.0747869   -7.5214478    129.20244  0.024694657  0.025380259            8 
  437000    1.0911812   -7.5498273    129.28154  0.024653229  0.025362631            1 
  438000    1.1025893   -7.5664616    129.48482   0.02463562  0.025344547            2 
  439000    1.0739353   -7.5848919    129.11955  0.024510165  0.025326549            5 
  440000    1.0772966   -7.5729939     129.7609  0.024575928  0.025308469            3 
  441000    1.0817493   -7.5862845    130.25121  0.024612851  0.025290779            2 
  442000    1.0602086   -7.5477338    130.63954   0.02463038   0.02527311            2 
  443000    1.0905231   -7.5613706    130.52385  0.024553019  0.025255129            3 
  444000    1.0939601   -7.6017556    130.31731  0.024458954  0.025237075            3 
  445000    1.0778246   -7.6168851    130.35202   0.02441049  0.025218659            3 
  446000    1.0572697   -7.6165787    130.50867  0.024385029  0.025199936            2 
  447000    1.0607944   -7.5246766    131.41758  0.024499921  0.025181709            5 
  448000    1.0676147   -7.6145091    130.86929  0.024343245  0.025163132            3 
  449000     1.069019   -7.5793191    131.27307   0.02436397  0.025144416            3 
  450000    1.0926625   -7.5872901    131.64624  0.024378933  0.025125907            1 
  451000    1.0568911   -7.5625687    131.88935  0.024369798  0.025107177            7 
  452000    1.0731792   -7.5647631    131.93693  0.024324655  0.025088625            4 
  453000    1.0772141   -7.5853603    131.89283  0.024262846  0.025069783            1 
  454000    1.0882239   -7.5885163    132.36343  0.024295784  0.025050729            3 
  455000    1.0643937   -7.5663461    132.59456  0.024284717  0.025031645            2 
  456000    1.0665646   -7.5806849    132.64383  0.024240466  0.025012546            1 
  457000    1.0833656   -7.5186068    133.14096  0.024278074  0.024993734            3 
  458000    1.0982312   -7.5469767    133.23372  0.024241943  0.024974485            2 
  459000    1.0864313   -7.5528962    133.37713  0.024215166  0.024955415            2 
  460000     1.065132   -7.6285465    133.42737  0.024171625  0.024936455            3 
  461000    1.0477017   -7.5736888    133.75405  0.024178244  0.024917392            4 
  462000    1.0779272   -7.6339197    133.69016  0.024114387  0.024898694            3 
  463000    1.0700257   -7.6047867    133.94642  0.024108426  0.024880055            1 
  464000     1.094021   -7.5535715      134.554  0.024165589  0.024861849            1 
  465000    1.0954645   -7.5682633    134.95409  0.024185321  0.024843774            5 
  466000    1.0781484   -7.5590463    135.15759  0.024169812  0.024826141            3 
  467000     1.070229   -7.6158083    134.87481  0.024067597   0.02480828            3 
  468000    1.0523268   -7.6025997     135.4494  0.024118483  0.024789604            1 
  469000    1.0727519   -7.6391607    134.75221   0.02394318   0.02477063            2 
  470000    1.0446232    -7.638308    135.27923  0.023985679  0.024751499            2 
  471000    1.0710884   -7.6149642    135.57027  0.023986248  0.024732728            3 
  472000    1.0882249   -7.6144823     135.7935  0.023974841  0.024714134            3 
  473000    1.0541585   -7.5659373    136.36389  0.024024646  0.024696091            4 
  474000    1.0550057   -7.6033795    136.50986  0.023999623  0.024678734            2 
  475000    1.0517169   -7.6266232    136.94893  0.024026129  0.024660868            2 
  476000    1.0831884   -7.6168047    137.35029  0.024045919  0.024642979            2 
  477000    1.0871115    -7.626509    137.36391  0.023997887  0.024626005            2 
  478000    1.0966797   -7.5855501    137.82979  0.024028903  0.024609108           10 
  479000    1.0607561    -7.588496    137.84022  0.023980553  0.024591887            2 
  480000    1.0593383   -7.5774549    138.00774  0.023959677  0.024574378            2 
  481000    1.0756272   -7.5947375    138.18227  0.023940102  0.024556495            2 
  482000     1.049133   -7.5885041    138.52748  0.023950118  0.024539189            2 
  483000    1.0396313   -7.6116415    138.27877   0.02385762   0.02452173            2 
  484000    1.0593288   -7.6257253    138.53635  0.023852677  0.024504186            1 
  485000    1.0483239   -7.5964085    139.20882  0.023919041  0.024486355            2 
  486000    1.0809147   -7.5917862    139.45798  0.023912549  0.024468662            2 
  487000    1.0850187   -7.6108405    139.34021  0.023843294  0.024451043            2 
  488000    1.0722307      -7.6476    139.52888  0.023826653  0.024433419            2 
  489000    1.0583003   -7.5866512    139.75033  0.023815667  0.024415651            3 
  490000    1.0582713   -7.6692196    139.49836   0.02372421  0.024397317            1 
  491000    1.0725883   -7.6242153    139.79426  0.023726113  0.024378935            3 
  492000    1.0595866   -7.6359024    139.87918  0.023692273  0.024360541            5 
  493000    1.0581484   -7.6529218    140.02759  0.023669301  0.024342029            2 
  494000     1.052841   -7.6203283    140.40982  0.023685867  0.024323951            3 
  495000    1.0553375   -7.6704574    140.83478  0.023709559  0.024305832            4 
  496000    1.0356116   -7.6381779    140.84575    0.0236636  0.024287873            1 
  497000     1.074757   -7.6451966    140.70918  0.023593088  0.024269959            3 
  498000    1.0650142   -7.6147655    141.14549  0.023618724  0.024251783            1 
  499000    1.0693472   -7.6004642    141.47483   0.02362639  0.024233628            3 
  500000    1.0418024   -7.5811089    141.69845  0.023616408  0.024215903            3 
  501000    1.0341276    -7.652636    141.67525  0.023565411  0.024197833            3 
  502000    1.0571521   -7.6135572     141.9183  0.023558815  0.024179823            4 
  503000    1.0683461   -7.5917221    142.10741  0.023543308  0.024162125            2 
  504000    1.0510179   -7.6135886    142.32846  0.023533145  0.024144042            2 
  505000    1.0428412   -7.5952579    142.41577  0.023500951  0.024125938            2 
  506000    1.0397779   -7.6670224     142.4438  0.023459124  0.024108027            2 
  507000     1.034967   -7.6093682     142.9201   0.02349114  0.024090135            3 
  508000    1.0521374     -7.62415    143.47125   0.02353531  0.024072424            3 
  509000    1.0571023   -7.6560847    143.28452  0.023458501  0.024054645            3 
  510000    1.0483915   -7.6732115    143.68834  0.023478487  0.024036527            2 
  511000    1.0544271   -7.5945184    143.78556  0.023448396  0.024018673            3 
  512000    1.0240477   -7.6395875    143.73087  0.023393696  0.024001211            2 
  513000    1.0438154   -7.6537992    143.90797  0.023376863  0.023983389            3 
  514000    1.0703463   -7.6998547    144.37576  0.023407224  0.023965671            2 
  515000    1.0564754   -7.6525804    143.89365  0.023283763  0.023947528            3 
  516000    1.0473186   -7.6424378       144.69  0.023367247  0.023929273            3 
  517000    1.0573915    -7.633369    144.36268  0.023269291  0.023911217            2 
  518000    1.0460831   -7.6644563    144.25195  0.023206556  0.023892819            2 
  519000    1.0362572   -7.6597717    144.75521  0.023242648  0.023874452            3 
  520000    1.0218744    -7.679025    144.95082  0.023229298  0.023856285            2 
  521000    1.0375681   -7.6721809     145.2742  0.023236436  0.023837907            5 
  522000    1.0382333    -7.696508    145.45022  0.023220023  0.023819663            4 
  523000     1.050022   -7.6973772    145.47536  0.023179631  0.023801691            5 
  524000    1.0300772   -7.6149082    146.69159  0.023328815  0.023784293            3 
  525000     1.037159   -7.6752014     146.0762  0.023186699  0.023767039            6 
  526000    1.0525484   -7.6175629    146.85405   0.02326585  0.023749891            2 
  527000    1.0316401   -7.6698003    147.13709   0.02326646  0.023733068            1 
  528000    1.0321209   -7.6643354    147.59282  0.023294322  0.023716477            2 
  529000    1.0357935   -7.6752678    147.20999   0.02318998   0.02369985            3 
  530000    1.0486142   -7.6907073    147.54716  0.023199239  0.023683077            5 
  531000    1.0501238   -7.6173776    148.15709  0.023251269  0.023666735            2 
  532000    1.0492616   -7.6445086    148.33394  0.023235266  0.023650761            4 
  533000    1.0422761   -7.6345372    148.84438  0.023271478  0.023634888            7 
  534000    1.0338831   -7.6777782      148.585  0.023187422  0.023618835            2 
  535000    1.0454294   -7.6888494    149.07074  0.023219741  0.023602877            3 
  536000    1.0509685   -7.6776275     149.3481  0.023219542  0.023587286            5 
  537000    1.0292803   -7.6748249    149.45555  0.023192978  0.023571895            1 
  538000    1.0326584   -7.6992806    149.78076  0.023200241  0.023556318            2 
  539000    1.0583687   -7.6666964     150.3901  0.023251407  0.023540839            4 
  540000    1.0436977    -7.701637    150.26506  0.023189053  0.023525172            2 
  541000    1.0462919   -7.6501322    150.39571  0.023166314  0.023509799            3 
  542000    1.0302913   -7.6416972    150.61104  0.023156678  0.023494759            1 
  543000    1.0167896    -7.616067    151.42999  0.023239716  0.023479937       -1e+20 
  544000     1.047835   -7.6902748    150.95259  0.023123865  0.023465067            6 
  545000    1.0279191   -7.6643105    151.54849  0.023172552  0.023450254            2 
  546000    1.0331226   -7.6099842    151.53312  0.023127766  0.023435224            3 
  547000    1.0283498   -7.7023229    151.51069  0.023082067  0.023419905            5 
  548000    1.0201174   -7.6458558    152.36168  0.023169355  0.023404562            9 
  549000    1.0419724   -7.6508555    152.22336  0.023106157  0.023389794            3 
  550000    1.0126825   -7.6785585    152.00361   0.02303085  0.023374931            4 
  551000    1.0135952   -7.6875946    152.55148  0.023071911  0.023359875            2 
  552000    1.0294514   -7.6792711    152.69601  0.023051934  0.023344971            1 
  553000    1.0372794    -7.691975    152.91975  0.023043965  0.023329996            2 
  554000    1.0078842   -7.6706062    153.24219  0.023050871  0.023315319            4 
  555000    1.0218173    -7.662041    153.64271  0.023069476  0.023300869            1 
  556000    1.0384344   -7.7018277    153.41004  0.022993111  0.023285868            2 
  557000    1.0469543    -7.690135    153.30267  0.022935767  0.023271145            1 
  558000    1.0392693   -7.6539458    154.04092  0.023004917   0.02325626            3 
  559000    1.0342851   -7.6656932     154.3335  0.023007379   0.02324159            1 
  560000    1.0329887   -7.6860549     154.3331  0.022966235  0.023226426            3 
  561000    1.0148202   -7.7198666    154.02988  0.022880255  0.023211066            3 
  562000    1.0504998   -7.6914042    154.14323  0.022856351   0.02319537            2 
  563000    1.0361604   -7.7025596    154.08374  0.022806947  0.023179591            3 
  564000    1.0351565   -7.7315292     153.9736  0.022750237   0.02316362            1 
  565000    1.0495621   -7.7221859     153.9844  0.022711564  0.023147084            2 
  566000    1.0343338   -7.7021765    154.51666  0.022749803  0.023130481            3 
  567000    1.0211767   -7.7449827    154.38901  0.022690919   0.02311398            2 
  568000    1.0357053    -7.699553    154.94131  0.022731999  0.023097698            6 
  569000    1.0273339    -7.670336    155.55726  0.022782258  0.023081552            3 
  570000    1.0182252   -7.7450205    155.45421  0.022727224  0.023065889            2 
  571000    1.0369475   -7.6976355    155.15392  0.022643595  0.023050068            2 
  572000    1.0187833   -7.7255789    155.84992  0.022705407  0.023034004            2 
  573000    1.0358068   -7.6709326    155.66619  0.022639062   0.02301804            2 
  574000    1.0087672   -7.7043363    155.60523  0.022590771  0.023002051            3 
  575000    1.0228877    -7.739717    155.91297  0.022596083  0.022986327            7 
  576000    0.9951715   -7.7180321    155.87164  0.022550874   0.02297007            7 
  577000    1.0105598   -7.6759675    156.83335  0.022650685  0.022954099            1 
  578000    1.0208872   -7.7778089    155.93988  0.022482682  0.022938643            3 
  579000    1.0195153   -7.7496837     156.6473  0.022545667  0.022922666            2 
  580000     1.025325   -7.7385898    156.84926  0.022535813  0.022906335            3 
  581000       1.0392   -7.6899855    157.42081  0.022579004  0.022890219            2 
  582000    1.0122537   -7.7396334    157.13355  0.022499077  0.022874022            1 
  583000    1.0193804   -7.7251328    157.17926  0.022467018  0.022858024            2 
  584000    1.0082892   -7.7373761    157.24822  0.022438388  0.022841765            8 
  585000    1.0345519   -7.7587646    157.29115  0.022406147  0.022825389            2 
  586000    1.0348676   -7.7393145     157.3318  0.022373692  0.022808826            2 
  587000    1.0176077   -7.7393628    158.06251  0.022439312  0.022792234            6 
  588000    1.0144416   -7.7354718    158.16479  0.022415645  0.022776007            2 
  589000    1.0223491   -7.7141615    158.55007  0.022432099  0.022759961            3 
  590000    1.0188438   -7.7246367    158.19841  0.022344409  0.022743804            7 
  591000    1.0299183   -7.7423725    158.14716  0.022299373  0.022727366            3 
  592000   0.99273267    -7.773479    158.30368  0.022283739  0.022710955            2 
  593000    1.0301895   -7.7499193    158.90933  0.022331271  0.022694496            5 
  594000    1.0360566    -7.779765    158.71646  0.022266619  0.022677645            6 
  595000    1.0174797   -7.7589513    158.63434  0.022217695   0.02266098            2 
  596000    1.0307428   -7.7469352    159.39684   0.02228703  0.022644407            3 
  597000    1.0118097   -7.7250101     159.4598  0.022258487  0.022628434            6 
  598000    1.0115962   -7.7422485    159.65992  0.022249152  0.022612152            9 
  599000    1.0227252   -7.7387188    159.14244  0.022140016  0.022595854            3 
  600000    1.0094545   -7.7822834     159.6157  0.022168847  0.022579285            8 
  601000    1.0211282   -7.7450735    160.18001  0.022210206  0.022563247            3 
  602000    1.0112787   -7.6950013    160.50415  0.022218183  0.022547315            2 
  603000   0.99826961   -7.7134644    160.78006  0.022219466  0.022531536            3 
  604000    1.0259373   -7.7643747    160.53867  0.022149375  0.022515614            4 
  605000    1.0008996   -7.7486661      160.831  0.022153031   0.02249969            4 
  606000    1.0133079   -7.7643209    161.19015  0.022165862  0.022483657            5 
  607000    1.0102136   -7.7607292    161.58601  0.022183691  0.022467797            4 
  608000    1.0015844   -7.7820059     161.4657  0.022130716  0.022452309            3 
  609000     1.004249   -7.7565187    161.81843  0.022142642  0.022436851            6 
  610000    1.0340001   -7.7391865    161.97742  0.022128063  0.022421269            3 
  611000    1.0020737   -7.7460479    162.03348  0.022099493  0.022405546            2 
  612000    0.9918755   -7.7590276    161.81258  0.022033303  0.022389816            1 
  613000    1.0062014   -7.7393926    162.73078  0.022122184   0.02237436            2 
  614000    1.0163839   -7.7786443      162.105  0.022001222  0.022358738            3 
  615000    1.0067576   -7.7282106    163.45015  0.022147717  0.022343342            6 
  616000   0.99250893   -7.7549737    162.77371  0.022020253   0.02232822            1 
  617000    1.0003471    -7.771728    163.12005  0.022031341  0.022312717            4 
  618000     1.026609   -7.7606365    163.49496  0.022046245  0.022297728            3 
  619000    1.0066417   -7.7191917    164.00474  0.022079259  0.022282792            3 
  620000   0.98997257   -7.7264303    164.27452  0.022079909  0.022267753            3 
  621000    1.0334504   -7.7614353    164.01625  0.022009696  0.022252614            3 
  622000    1.0214595   -7.7447145    164.30129  0.022012499   0.02223749            5 
  623000   0.99773655   -7.7559893    164.13066  0.021954342  0.022222018            3 
  624000    1.0289316   -7.7399181     164.9583  0.022029687  0.022206842            3 
  625000   0.99370685   -7.8084783     163.9051  0.021854014  0.022191714            2 
  626000    1.0029266    -7.802104    164.38893   0.02188351  0.022176266            3 
  627000     1.001574   -7.7926166    164.66023  0.021884666  0.022161035            4 
  628000    1.0030328    -7.775354    165.00979  0.021896204   0.02214568            4 
  629000    1.0115189    -7.825422     165.0694  0.021869289  0.022130185            2 
  630000    1.0034422   -7.7819291    165.18788  0.021850249  0.022114937            3 
  631000    1.0026111   -7.7768785     165.6613  0.021878144  0.022099772            2 
  632000    1.0119297   -7.7966541    165.84929  0.021868314   0.02208449            3 
  633000     1.015449    -7.751384    166.10005  0.021866778   0.02206914            2 
  634000    1.0173513   -7.7767286    165.46588  0.021748932  0.022054202            5 
  635000   0.98568765   -7.7657109    165.88545  0.021769744  0.022038975            4 
  636000   0.99123436   -7.7616903    166.30095  0.021789957  0.022023731            2 
  637000   0.99015507   -7.7917288    166.88276  0.021831863   0.02200874            8 
  638000    1.0276117   -7.7783459    166.45655  0.021741973  0.021993464            3 
  639000    1.0102226   -7.7554533    167.00466  0.021779429  0.021978231            3 
  640000    1.0098236   -7.8010931    166.41698  0.021668878  0.021963162            2 
  641000    1.0000086   -7.7337684    167.65551  0.021796088  0.021948242            6 
  642000    1.0010001   -7.7894741    166.98178  0.021674686  0.021933075            2 
  643000   0.98078512   -7.7928754    167.42973  0.021699032   0.02191752            2 
  644000   0.99464862   -7.8298965    167.33156  0.021652635  0.021901829            3 
  645000    1.0067222    -7.816795    167.07908  0.021586444  0.021886288            7 
  646000   0.98985692     -7.80724    167.57317  0.021616767  0.021870886            2 
  647000      1.00554   -7.7706416    167.67983  0.021597093  0.021855297            3 
  648000   0.97988933   -7.7695362     168.1083  0.021618865  0.021839844            2 
  649000   0.98704964   -7.7855599    168.00199  0.021571905    0.0218244            2 
  650000   0.97597127   -7.7838906     167.8619  0.021520756  0.021808865            3 
  651000   0.98202057    -7.775673    167.69967  0.021466932  0.021793214            1 
  652000   0.99739762   -7.7964795    168.18954  0.021496618  0.021777277            3 
  653000   0.98506661    -7.809456    168.61615  0.021518141   0.02176159            3 
  654000   0.98559964   -7.7689602    168.82794  0.021512225   0.02174574            2 
  655000    1.0061121   -7.7963531    168.78681  0.021474149  0.021730057            4 
  656000   0.97065219   -7.8058214    168.81097  0.021444483  0.021714204            3 
  657000   0.97623629   -7.7823651    168.85831  0.021417847  0.021698295            2 
  658000    1.0034051   -7.8335298    168.42366   0.02133025  0.021682192            3 
  659000    1.0029715   -7.8518713    168.48094  0.021305127  0.021665954            2 
  660000   0.98733568   -7.7997194     168.9252  0.021328939  0.021649546            1 
  661000   0.99574294   -7.8210585     168.8213  0.021283573  0.021633165            3 
  662000   0.97980463   -7.8668235    168.61331   0.02122524  0.021616381            3 
  663000   0.98462748   -7.8205238    169.68669  0.021328141   0.02160004            5 
  664000   0.97269931   -7.8172782    169.63742  0.021289836  0.021583802            5 
  665000   0.97917969   -7.7666219    169.68481  0.021263761  0.021567475            4 
  666000   0.99303464   -7.7777402    169.73847  0.021238548  0.021551099            2 
  667000    1.0145689   -7.8009882    169.51698  0.021179033  0.021534653            4 
  668000   0.97674105   -7.7995629    169.73987  0.021175134  0.021518205            2 
  669000   0.99145271   -7.8156446    170.06892  0.021184469  0.021501506            8 
  670000   0.96599185   -7.8418252    169.76851  0.021115487   0.02148499            8 
  671000   0.97940278   -7.8247048     169.9888  0.021111376  0.021468359            4 
  672000   0.97945601   -7.8231513     169.9996    0.0210813  0.021451977            2 
  673000   0.98883551   -7.8390034    170.04546  0.021055654  0.021435461            6 
  674000   0.98112389   -7.8597101    170.34071  0.021060919  0.021418729            3 
  675000   0.98871359   -7.8280024    170.28842  0.021023262  0.021402089            3 
  676000   0.97872329     -7.81656    170.38348  0.021003881  0.021385491            3 
  677000   0.98263377   -7.8513245     170.2746  0.020959453   0.02136873            2 
  678000     1.003969   -7.8178983    170.86014  0.021000509  0.021352025            2 
  679000   0.97713921   -7.8725411    170.68391  0.020947951  0.021335171            3 
  680000    1.0045441   -7.8381395    170.68805  0.020917654  0.021318624            6 
  681000   0.99474537   -7.8164641    171.68622  0.021009082  0.021302066            3 
  682000    1.0004616    -7.854122    171.43145  0.020947147   0.02128562            6 
  683000   0.96410118   -7.8421045    171.26771  0.020896499  0.021269024            3 
  684000   0.99866507    -7.828634    171.48799  0.020892786  0.021252506            4 
  685000   0.98304506   -7.8262458    171.88436  0.020910506  0.021236045            6 
  686000   0.98071009   -7.7871659    172.38487  0.020940825  0.021219745            7 
  687000   0.98450944   -7.8033424    172.14738  0.020881535  0.021203436            4 
  688000    0.9866251   -7.8120085    173.04596  0.020960025  0.021186942            4 
  689000   0.98210622   -7.8463994    172.26598  0.020835266  0.021170535            6 
  690000   0.97988684   -7.8763246    172.43021  0.020824904  0.021153852            3 
  691000   0.97117541   -7.8490083     171.9494  0.020736783  0.021137306            2 
  692000   0.97644368    -7.848754    172.68078  0.020794891  0.021120741            3 
  693000    1.0001129   -7.8311496    172.68585  0.020765494   0.02110424            5 
  694000   0.98905266   -7.8502598    172.64287  0.020730411  0.021087662            7 
  695000    1.0076511    -7.855751    172.77442  0.020716357  0.021071038            6 
  696000    0.9908828   -7.7942324    173.30455  0.020750066  0.021054449            5 
  697000   0.96913102   -7.8423005    173.17544  0.020704859  0.021038048            3 
  698000   0.95422792   -7.8682731    173.34776  0.020695769  0.021021608            4 
  699000   0.96613862   -7.8093501    174.50833  0.020804522  0.021005492            3 
  700000   0.96588807     -7.83408     174.0463  0.020719797  0.020989356            5 
  701000   0.97742853   -7.8389059    173.85452  0.020667442  0.020973118            4 
  702000   0.98382698   -7.8594859    174.13727  0.020671566  0.020956925            3 
  703000   0.97715025   -7.8491187    174.16745  0.020645739  0.020940763            2 
  704000    0.9653922   -7.8660197    174.62423  0.020670481  0.020924412            5 
  705000   0.98783958   -7.8423528    174.99498  0.020684986  0.020908092            2 
  706000    0.9873152   -7.8465866    174.95069  0.020650459  0.020891966            3 
  707000   0.99623243   -7.8036582    175.36709  0.020670331  0.020876152            3 
  708000   0.97783612   -7.8385018     174.8932  0.020585358  0.020860127            2 
  709000   0.97269603   -7.8683658    174.74182  0.020538531  0.020843889            2 
  710000   0.96813399   -7.8581654    174.79521  0.020515869  0.020827591            4 
  711000   0.97695364   -7.8818268    174.71467  0.020477575  0.020811311            3 
  712000   0.97613482   -7.8791669    175.34209  0.020522249  0.020795128            8 
  713000   0.96165805   -7.8493054    175.19365  0.020476116  0.020779046            9 
  714000   0.96989997   -7.8902554    175.22561  0.020451169  0.020762975            3 
  715000   0.94051739   -7.8939814    175.08221  0.020405852  0.020746884            3 
  716000   0.95541203   -7.8765756    175.52103  0.020428426   0.02073043            4 
  717000   0.93704911   -7.8095849    176.44146  0.020506911   0.02071424            3 
  718000   0.96545817   -7.9118345     175.6635  0.020388057  0.020698031            4 
  719000   0.99460203   -7.8673644    175.76088  0.020370987  0.020681672            3 
  720000   0.94158574   -7.8497377    176.39022  0.020415535   0.02066538            4 
  721000   0.94328895   -7.8497203    176.18341  0.020363316  0.020649186            4 
  722000   0.96471571   -7.8311614    176.33437  0.020352535  0.020633095            3 
  723000   0.97368325   -7.8970758    176.41292   0.02033344  0.020616995            2 
  724000   0.94200032   -7.8949964    176.85415   0.02035614  0.020601046            9 
  725000   0.96685784   -7.8867349     176.6039  0.020299298   0.02058493            2 
  726000   0.97826187   -7.8934148    176.96886   0.02031323  0.020568922            4 
  727000   0.96787726   -7.9031182    177.17084  0.020308441  0.020552762            4 
  728000   0.97358847   -7.8438975    177.59143  0.020328689  0.020536922            5 
  729000   0.96792002   -7.8684411    177.69658  0.020312823  0.020521058            4 
  730000   0.97100087   -7.8428151    177.62057  0.020276321  0.020505343            3 
  731000   0.96121699   -7.8719277     178.1147  0.020304913  0.020489842            2 
  732000   0.95566392   -7.8668242    178.25129  0.020292724  0.020474218            1 
  733000   0.97168608   -7.8938529    177.96642  0.020232653   0.02045856            3 
  734000   0.97665577   -7.8910431     177.6512    0.0201693  0.020442604            4 
  735000   0.94581443   -7.8798296    177.95405  0.020176197  0.020426633            5 
  736000   0.95689221   -7.9043244    177.97297  0.020150924  0.020410612            4 
  737000   0.97733921   -7.9205998    178.16291  0.020145059  0.020394666            3 
  738000    0.9541392   -7.8861326    178.78617   0.02018814  0.020378708            3 
  739000   0.94584043   -7.8650319    178.85809  0.020168932  0.020363052            2 
  740000   0.96622597   -7.8657967    179.33472  0.020195352  0.020347481           11 
  741000   0.97062073   -7.9297327     178.3131  0.020053205  0.020331714            6 
  742000    0.9441336   -7.8843583     178.7446   0.02007464  0.020315725            7 
  743000   0.95869696    -7.943442    179.16971  0.020095301  0.020299589            2 
  744000   0.96271392   -7.9331396    178.87311  0.020035071  0.020283591            4 
  745000   0.95174344   -7.8848653    179.40284  0.020067432  0.020267912            2 
  746000   0.97103395   -7.9048246    179.41825  0.020042253  0.020251946            1 
  747000   0.95428919   -7.8795813    179.54523  0.020029589   0.02023618            2 
  748000   0.96253776   -7.8767384    179.62759  0.020011986   0.02022021            3 
  749000   0.95397944   -7.9036233    179.27195    0.0199457  0.020204229            3 
  750000   0.96205816   -7.8995283    179.53698  0.019948553  0.020188254            3 
  751000    0.9238153   -7.8946432    179.58158   0.01992694  0.020172213            2 
  752000   0.95327684   -7.9131416    179.87447  0.019932898  0.020156165            3 
  753000   0.93688715    -7.918652    179.61564  0.019877782    0.0201401            3 
  754000   0.97015438   -7.8923629    179.72631  0.019863651  0.020124156            3 
  755000   0.94880336   -7.9363794    180.10676  0.019879334  0.020108254            5 
  756000   0.95529334   -7.9168228    180.09721  0.019851985  0.020092206            6 
  757000   0.93230253    -7.946075    180.06626  0.019822354  0.020076208            4 
  758000   0.95039137   -7.8879932    180.72938  0.019869105  0.020060336            8 
  759000   0.96701239   -7.9048007    180.29673  0.019795425  0.020044454            3 
  760000   0.93658437   -7.9008254    181.14271  0.019862139  0.020028542            1 
  761000   0.95631671   -7.8910248    181.20254   0.01984259  0.020012763            3 
  762000   0.93080833   -7.8999685    181.45553  0.019844218   0.01999713            5 
  763000   0.95532276   -7.8889358    181.01418  0.019770007  0.019981303            5 
  764000    0.9466338   -7.9187456    181.53734  0.019801193  0.019965407            4 
  765000   0.93681622   -7.9415293    180.60233  0.019673456  0.019949492            5 
  766000   0.93336658   -7.9227429    181.23411  0.019716505  0.019933555            4 
  767000   0.96044268   -7.9427747    180.97358  0.019662493  0.019917841            4 
  768000   0.92260663   -7.9092547    181.51158  0.019695267  0.019901911            5 
  769000   0.94434193   -7.9652372    180.91321  0.019604812  0.019885927            4 
  770000   0.93551133   -7.9125577    181.72586  0.019667301  0.019870144            6 
  771000   0.96370769   -7.9456052    181.73358  0.019642627  0.019854242            4 
  772000   0.93780002   -7.8984489    181.92616   0.01963797  0.019838487            3 
  773000   0.93838041   -7.9360806    181.50219   0.01956686  0.019822598            6 
  774000   0.93020477   -7.9546857     181.7664  0.019570025  0.019806668            3 
  775000   0.93562664   -7.9111894    182.09365  0.019579962  0.019790826            3 
  776000   0.93402736   -7.9417103    182.47957  0.019596174  0.019775122            2 
  777000    0.9510679   -7.9376851    182.69168  0.019593702  0.019759606            4 
  778000   0.94135808   -7.9028355    182.81127  0.019581328  0.019744054            9 
  779000   0.92097183   -7.9518881    183.03513  0.019580138  0.019728611            4 
  780000   0.93375291   -7.9351475     183.0419  0.019555759   0.01971308            6 
  781000   0.95569974   -7.9262737    183.13668  0.019540833   0.01969774            5 
  782000   0.92140637   -7.9189822     183.2496  0.019527877  0.019682258            1 
  783000   0.93900328   -7.9267695     183.0032  0.019476714   0.01966668            2 
  784000   0.94649678   -7.9482433     183.2336   0.01947636  0.019651068            1 
  785000   0.94026826   -7.9435325    183.75894  0.019507319   0.01963543            7 
  786000   0.92780616   -7.9197979     183.4838  0.019453329  0.019619751            5 
  787000   0.94467364   -7.9537996     183.0337  0.019380951  0.019603924            4 
  788000   0.95324682   -7.9251966    183.50189  0.019405868  0.019588347            2 
  789000   0.93753806   -7.9299684    183.20429   0.01934984  0.019572707            6 
  790000    0.9401638   -7.9359197    183.99334   0.01940858  0.019557082            3 
  791000   0.92342636   -7.9780818    183.79481  0.019363128  0.019541428            3 
  792000   0.92203684   -7.9413574    183.76697   0.01933575   0.01952573            4 
  793000   0.92220748   -7.9456395    183.87597  0.019322822  0.019510181            4 
  794000    0.9581124   -7.9567297    184.27268  0.019340122  0.019494762            4 
  795000   0.92175187   -7.9588509     184.1107  0.019298816  0.019479355            3 
  796000   0.94115596   -7.9468664    184.16879  0.019280653  0.019463787            2 
  797000   0.95290756   -7.9487627    184.53392  0.019294638  0.019448271            2 
  798000    0.9142191   -7.9536268    184.52371  0.019269393  0.019432732            3 
  799000   0.92250666   -7.9363221    184.90374  0.019284913  0.019417119            7 
  800000   0.91173539   -7.9529721    184.78952  0.019248909  0.019401629            7 
  801000   0.93803087   -7.9491025     184.8735  0.019233615  0.019386097            4 
  802000   0.91695584    -7.977003    184.42137  0.019162652  0.019370618            7 
  803000   0.93470465   -7.9456008    185.06683  0.019205773  0.019355074            3 
  804000   0.91912297   -7.9699653    185.62654  0.019239898  0.019339551            4 
  805000   0.93926902   -7.9851074    185.03373  0.019154631  0.019324066            3 
  806000   0.94560194   -7.9845794    185.32337  0.019160811  0.019308751            3 
  807000   0.93964846   -7.9673001    186.30883   0.01923883  0.019293443            2 
  808000    0.9301689   -8.0019275    185.26811  0.019107684  0.019278083            6 
  809000   0.94697841   -7.9462542    186.20751  0.019180831  0.019262814            1 
  810000   0.93126504   -8.0018715    185.62692   0.01909742  0.019247578            2 
  811000   0.93839037   -7.9746847    186.33783   0.01914692  0.019232297            3 
  812000   0.93308366   -7.9835464    186.14955  0.019104018  0.019217154            6 
  813000   0.92572381   -7.9676331    186.12517  0.019078021  0.019202015            4 
  814000   0.92010179   -7.9968846    186.48566  0.019091488  0.019186873            3 
  815000   0.92339375   -7.9994232    186.47451  0.019066923   0.01917173            7 
  816000   0.91809179   -7.9910278    186.98706  0.019095901  0.019156646            3 
  817000   0.94355111   -8.0208961    186.63328  0.019036442  0.019141304            5 
  818000   0.94882616   -7.9885249    187.10609  0.019061338  0.019125981            4 
  819000   0.92133428   -7.9596368    186.58799  0.018985347  0.019110584            3 
  820000   0.92173398   -7.9387617    187.44276  0.019049061  0.019095261            8 
  821000    0.9012556   -7.9912688    186.67128  0.018947552  0.019079916           16 
  822000   0.92630456   -7.9954307    186.86242  0.018943879   0.01906454            6 
  823000   0.93782135   -7.9553648    186.93922  0.018928638  0.019048991            4 
  824000   0.93763056   -7.9928345    186.60418  0.018871781  0.019033263            3 
  825000   0.92564234   -8.0376737    186.65179  0.018853717  0.019017467            3 
  826000   0.92940096   -7.9941519    186.72196   0.01883797  0.019001831            4 
  827000   0.91994165   -8.0192834     186.7166  0.018814652  0.018986237            8 
  828000   0.91914979   -8.0494578    186.50161  0.018770291  0.018970642            8 
  829000   0.92269258   -7.9912555     187.4411  0.018842089  0.018955233            4 
  830000   0.92706036   -7.9872234    187.51372  0.018826678  0.018939869            7 
  831000   0.94426376   -8.0093325    187.19029  0.018771589  0.018924597            5 
  832000   0.91163033   -8.0336731    187.45494  0.018775535  0.018909402            3 
  833000   0.95141873   -8.0409626    187.65796  0.018773305  0.018894083            3 
  834000   0.92192061   -8.0061802    188.12279  0.018797242  0.018878842            2 
  835000   0.93374571   -8.0304199    188.36898  0.018799299  0.018863753            2 
  836000    0.9096282   -8.0186825    188.54151   0.01879401  0.018848642            8 
  837000    0.9097427   -7.9947618    188.53914   0.01877132  0.018833655            5 
  838000    0.9139621   -7.9919798     188.5727  0.018752257  0.018818829            2 
  839000   0.92760582   -7.9963009    188.93514  0.018765906  0.018803983            8 
  840000   0.91713998   -8.0295206    188.38058  0.018688549   0.01878895            5 
  841000    0.9147798   -8.0162386    188.40464  0.018668711  0.018773772            6 
  842000   0.90070298   -8.0021442    188.55377    0.0186613  0.018758613            5 
  843000   0.91538587   -8.0437002    188.48976  0.018632835  0.018743411            5 
  844000    0.9139118   -7.9886456    189.19204  0.018680099  0.018728237            9 
  845000   0.92825332   -8.0012008    189.10067  0.018648981  0.018713115            4 
  846000   0.93460387    -8.025086    188.95804  0.018612888  0.018697992            6 
  847000   0.93925954    -8.008354    189.00872    0.0185959  0.018682819           11 
  848000   0.89658678   -8.0306569    189.24193  0.018596888  0.018667633            3 
  849000    0.9142023   -8.0389509    189.56484  0.018606678  0.018652523            3 
  850000   0.90914778   -7.9955149    189.25827  0.018554733  0.018637574            8 
  851000   0.92187786   -8.0258562    189.27132  0.018534206  0.018622707            3 
  852000   0.91782188   -8.0287132    189.32203  0.018517413  0.018607638            1 
  853000    0.9180323   -8.0250074    189.46124  0.018509305  0.018592498            2 
  854000   0.91876953   -8.0004111     190.1047  0.018550419    0.0185774            3 
  855000   0.90976029   -7.9892818    190.03113  0.018521553  0.018562508            2 
  856000   0.90493396    -7.988575    189.96151  0.018493137  0.018547675            6 
  857000   0.91070023   -8.0540715    189.53308  0.018429899  0.018532691            4 
  858000   0.91491578   -8.0671555    189.91123  0.018445146  0.018517498            4 
  859000   0.92492326   -8.0496447    189.93808  0.018426279  0.018502275            2 
  860000   0.93522467   -8.0297585    189.71571  0.018383305  0.018487105            3 
  861000   0.91492279   -7.9969188      190.632  0.018450639  0.018472128            5 
  862000   0.91677037   -7.9948924    190.42456   0.01840918  0.018457231            2 
  863000   0.90727929   -7.9949448    190.55209  0.018400164  0.018442386            1 
  864000   0.92207348   -7.9830805    190.67048  0.018390285  0.018427366            4 
  865000   0.89954666   -8.0467141    189.78674  0.018283886  0.018412282            5 
  866000   0.89257587   -8.0437806    190.00688  0.018283957  0.018397038            6 
  867000   0.91625076   -8.0403208    190.34877   0.01829573  0.018381776            2 
  868000   0.91275206   -8.0303749    190.30031  0.018269999  0.018366488            4 
  869000   0.91462559   -8.0568151    190.00944  0.018221081  0.018351231            4 
  870000   0.90276093   -8.0254086     190.7991  0.018275775  0.018335976            6 
  871000   0.89930323   -8.0268622    190.62864  0.018238484  0.018320728            2 
  872000   0.90208291   -8.0544338    190.48768  0.018204098   0.01830546            4 
  873000   0.90224329   -8.0206965    191.40668   0.01827097  0.018290201            3 
  874000    0.9024635   -8.0701191    190.41305  0.018155325  0.018274994            3 
  875000   0.90791772   -8.0356502    190.33116  0.018126777  0.018259683            4 
  876000   0.91717572    -8.027291    190.98933  0.018168695  0.018244494            2 
  877000   0.88716947   -8.0949972    190.55531  0.018106738  0.018229119            4 
  878000    0.8883398   -8.0533611    191.15804  0.018143322  0.018213744            4 
  879000   0.91836195   -8.0844853    190.99762  0.018107472  0.018198412            9 
  880000   0.88365739   -8.0852072    190.75207  0.018063643  0.018183214            2 
  881000   0.91085309   -8.0676327    190.70417  0.018038609  0.018168108            6 
  882000   0.92069127   -8.0112893    191.77444  0.018119278  0.018153058            7 
  883000   0.88768512   -8.0804474    191.43786  0.018066993  0.018137976            3 
  884000   0.89466782   -8.0753183    191.59483  0.018061353  0.018122902            3 
  885000   0.91711278   -8.0557116    191.79419  0.018059716  0.018107953            4 
  886000   0.91302797   -8.0446623    192.10543  0.018068607  0.018093112           14 
  887000   0.90089556   -8.0637774    192.07519  0.018045395  0.018078236            6 
  888000   0.88995585   -8.0580285    192.30733  0.018046859  0.018063335            6 
  889000   0.89140186   -8.0957469    191.55927  0.017956437   0.01804826            3 
  890000   0.89438392   -8.0588338    191.94588  0.017972461  0.018033195            5 
  891000   0.92245337    -8.095339    192.24858    0.0179806  0.018018182            4 
  892000   0.91149456    -8.084966    191.95392  0.017932915  0.018003104           12 
  893000   0.91386194   -8.0854931    191.92198  0.017909852  0.017988018            3 
  894000   0.88523047   -8.0941813    192.13924  0.017910071  0.017972919            4 
  895000   0.89428764   -8.0641436    192.86073  0.017957237  0.017957961            5 
  896000   0.90291926   -8.0708101    192.10873  0.017867255  0.017943089            3 
  897000   0.90918611   -8.0927669    192.23594  0.017859155  0.017928239            3 
  898000   0.89027196   -8.0605942    192.98609   0.01790888  0.017913402            4 
  899000   0.88614005   -8.0614851    193.46171  0.017933047  0.017898676            3 
  900000   0.89842426   -8.0201278    193.55124  0.017921411   0.01788399            5 
  901000   0.88495482   -7.9959781    193.84264  0.017928472  0.017869476            1 
  902000    0.9115948   -8.0580217    193.25517  0.017854321  0.017854963            5 
  903000   0.89721756   -8.0808174    193.20428  0.017829853  0.017840348            3 
  904000   0.89825083   -8.0692376    192.86099  0.017778484  0.017825563            6 
  905000    0.9065473   -8.0857623    193.13681  0.017784237  0.017810624            5 
  906000   0.89298248   -8.0591688    193.11199  0.017762324  0.017795656           10 
  907000   0.88451778   -8.0622085    193.35899  0.017765435  0.017780742            4 
  908000   0.90521484   -8.0700013    193.03557  0.017716187  0.017765787            3 
  909000   0.88177452   -8.0659378    193.39015  0.017729204  0.017750916            5 
  910000   0.88462565   -8.0311929     193.3984  0.017710477  0.017735905            3 
  911000   0.88792236   -8.0729321    193.12755   0.01766626  0.017720957            3 
  912000   0.91749184   -8.1027203    193.16807  0.017650591  0.017706029            4 
  913000   0.85707605   -8.0783922    193.57283  0.017668202  0.017691081            1 
  914000   0.89826507   -8.0508401    194.45242  0.017729068  0.017676212            4 
  915000   0.87250369   -8.1048842    193.64484  0.017636142  0.017661464            2 
  916000   0.91655421   -8.0686212    193.72764  0.017624422  0.017646511            4 
  917000   0.88780059   -8.1351259    192.90673    0.0175306   0.01763147            5 
  918000   0.87997502   -8.1005643    193.38357   0.01755479  0.017616456            4 
  919000   0.88803143   -8.0766673     193.9262  0.017584893  0.017601493            4 
  920000   0.89323466   -8.0893765     193.4622   0.01752375  0.017586556            7 
  921000   0.89383228   -8.1003967    193.97305  0.017550946  0.017571542            3 
  922000   0.90479289   -8.0483923    193.97485  0.017532073  0.017556607            4 
  923000   0.87858732   -8.1182036    193.96411  0.017512108  0.017541665            4 
  924000   0.88746931   -8.0902342    193.73592  0.017472576  0.017526796            3 
  925000   0.87784934   -8.1139176    194.04329  0.017481378  0.017512022            6 
  926000   0.86549887   -8.1197122    194.03587  0.017461832  0.017497094            2 
  927000   0.87255759   -8.1263903    194.37816  0.017473765  0.017482205            7 
  928000   0.87728567   -8.0977862    194.65219  0.017479543  0.017467403            8 
  929000   0.91091512   -8.0940343    194.51629  0.017448537  0.017452554            6 
  930000   0.88696961   -8.0959285    194.62374  0.017439403  0.017437821            4 
  931000   0.87347838   -8.0592155    194.91238  0.017446507  0.017423205            6 
  932000   0.86878253   -8.0891804    194.68953  0.017407862  0.017408564            9 
  933000    0.8658772   -8.0954149    194.70104  0.017390232  0.017393803            7 
  934000   0.84917213   -8.1006229    194.70098  0.017371608  0.017379052            3 
  935000   0.87852726    -8.119008    194.43627  0.017329436  0.017364247            6 
  936000   0.88708387   -8.0901423    194.93584  0.017355398  0.017349484           12 
  937000   0.87413604   -8.1287588    194.72846  0.017318433   0.01733468            3 
  938000   0.87432401   -8.1103557    194.89269  0.017314561  0.017319951            6 
  939000   0.88332487   -8.1155753    195.01307  0.017306804  0.017305243            5 
  940000   0.87987216   -8.1197062    194.93416  0.017281397   0.01729043            8 
  941000   0.87743721   -8.1037662     195.5127  0.017314267  0.017275741            6 
  942000    0.8677471   -8.1062491    195.20737  0.017268876  0.017261123            7 
  943000   0.88554951   -8.1374808    195.20266  0.017250146  0.017246467            2 
  944000   0.87834065    -8.129416    195.49424  0.017257613   0.01723184            6 
  945000   0.85543184   -8.0916374    195.74769  0.017261701  0.017217297            4 
  946000   0.87606601   -8.1378762     195.8823  0.017255312  0.017202812            4 
  947000   0.87390718   -8.1262114    195.67819  0.017219129  0.017188247            7 
  948000   0.88004007   -8.1228878    195.12164  0.017152043  0.017173686            7 
  949000   0.86775883    -8.084372    195.54053  0.017170753  0.017159081            3 
  950000   0.88243875   -8.1336933    195.91612  0.017185625  0.017144517            3 
  951000    0.8735195    -8.143641    195.67252  0.017146207  0.017130079            4 
  952000   0.88643803   -8.1143156    195.87785   0.01714617    0.0171155            3 
  953000   0.88960642   -8.1425183    195.77895   0.01711953  0.017100917            6 
  954000   0.88494262   -8.1725057    195.68981  0.017093799  0.017086353           11 
  955000   0.87044851   -8.1608819    196.27326  0.017126812   0.01707173            2 
  956000   0.88464585   -8.1001585    196.15603  0.017098678  0.017057179            7 
  957000   0.85935739    -8.135368    195.93097  0.017061213  0.017042688            2 
  958000   0.88038602   -8.1392336    196.27912  0.017073688  0.017028077            6 
  959000   0.85966006   -8.1196309    196.62459  0.017085905   0.01701355            3 
  960000   0.87582223   -8.1673886    195.92524    0.0170074    0.0169991            4 
  961000   0.87977239   -8.1172578    196.12598  0.017007109  0.016984633            3 
  962000   0.86741841   -8.1323193    196.57046  0.017027933  0.016970149            4 
  963000   0.86978649   -8.1547048    196.17126  0.016975706  0.016955527            4 
  964000   0.86192553   -8.1247499     196.1734  0.016958281  0.016940902            5 
  965000    0.8612741   -8.1235854    196.30272  0.016951876  0.016926294            2 
  966000   0.87022797   -8.1501174     196.1179  0.016918383  0.016911661            4 
  967000   0.87242292   -8.1440559    196.05194  0.016895203  0.016897093            2 
  968000   0.88151308   -8.1623475    196.03361  0.016876172  0.016882581            4 
  969000   0.89172416   -8.1429507    196.95889  0.016938329  0.016868079            6 
  970000   0.86767589   -8.1355464    196.89909  0.016915729  0.016853699            3 
  971000   0.86510204   -8.1259213    196.78631  0.016888629  0.016839263            5 
  972000   0.87017328   -8.1441806      196.731  0.016866512  0.016824864            6 
  973000   0.87101847   -8.1760673    196.49432  0.016828907  0.016810422            3 
  974000   0.86225123   -8.1302195    196.71082  0.016830152  0.016795854            3 
  975000   0.86684894   -8.1218957    196.90979  0.016829897  0.016781379            6 
  976000   0.84571288   -8.1528661    197.43805  0.016857757  0.016766881            2 
  977000   0.87460111   -8.1691533    196.83055  0.016788686  0.016752364            9 
  978000   0.87319954   -8.1576102    197.01142  0.016786931  0.016737814            5 
  979000   0.86434183   -8.1578465    197.54493  0.016815196  0.016723252            4 
  980000   0.86652264    -8.182705    196.89252  0.016742561  0.016708722            5 
  981000    0.8737375   -8.1988428    196.45593  0.016688407  0.016694166            7 
  982000   0.86252496   -8.1862484    197.25209  0.016738976  0.016679578            3 
  983000   0.85508804   -8.1598001    196.75633   0.01667992  0.016664972            8 
  984000   0.85556488   -8.1653875    196.78706  0.016665571  0.016650404            5 
  985000   0.85876908   -8.1564137    197.18416  0.016682247  0.016635843           10 
  986000   0.87860108   -8.1672901    197.48507   0.01669076   0.01662125            5 
  987000   0.87214104   -8.1887875    196.96657  0.016630071  0.016606689            3 
  988000   0.86242252   -8.1781123    197.25292  0.016637392  0.016592185            6 
  989000   0.87405567   -8.1575185    197.03162  0.016601923  0.016577604            6 
  990000   0.87579278   -8.1729264    197.54029   0.01662797  0.016563144            4 
  991000   0.85213361    -8.168099    197.37298  0.016597123  0.016548776            4 
  992000    0.8364758   -8.1607983     198.0476  0.016637063  0.016534393            5 
  993000   0.86140018   -8.1843788    197.62827  0.016585119  0.016520002            2 
  994000   0.85322851   -8.1730287    197.98463  0.016598309  0.016505634            4 
  995000   0.86602788   -8.1689745    197.47047  0.016538566  0.016491221           14 
  996000   0.84725745   -8.1822529    197.67317   0.01653892  0.016476764            3 
  997000   0.87480941   -8.1742419    197.69011  0.016523747  0.016462415            8 
  998000   0.85831057   -8.1603204    198.46473  0.016571871  0.016448138            3 
  999000   0.85550174    -8.216221    197.44347  0.016470093  0.016433904            5 
 1000000   0.87932116   -8.2222833    197.94294  0.016495245  0.016419632            2 
 1001000   0.86426947    -8.209094    197.80787  0.016467522  0.016405425            4 
 1002000   0.85211949   -8.1810552    198.52955  0.016511107  0.016391186           10 
 1003000   0.85499408   -8.2256505    198.43146  0.016486496   0.01637688           12 
 1004000   0.84865796   -8.1549144    198.50934  0.016476539  0.016362651            8 
 1005000   0.84712202   -8.2026521    198.20774  0.016435136  0.016348517           14 
 1006000   0.84368377   -8.2026679    197.86214   0.01639017    0.0163343            4 
 1007000   0.82960032   -8.1996549    198.11659  0.016394952  0.016320032            5 
 1008000   0.85269657   -8.1875455     198.4789  0.016408639  0.016305847           11 
 1009000   0.84327099   -8.2066419     198.4747   0.01639203  0.016291665           14 
 1010000   0.85316066   -8.2435344    198.54945  0.016381968  0.016277431            7 
 1011000   0.84107446    -8.224887    198.46819  0.016359066  0.016263213           12 
 1012000   0.84466311   -8.2275979    198.79397  0.016369728  0.016249044            4 
 1013000   0.84687183   -8.2253704     198.9716   0.01636818  0.016234966            3 
 1014000   0.83632094   -8.2402735    198.54885  0.016317295  0.016220908            3 
 1015000   0.86023533   -8.2088825     198.8054  0.016322282  0.016206898            4 
 1016000   0.86074406   -8.2268541    199.09634   0.01633008  0.016192912            4 
 1017000   0.83592063   -8.2205549    198.59701  0.016273108  0.016178832           10 
 1018000   0.83979173   -8.2206552     199.1851  0.016305264  0.016164756           11 
 1019000   0.85922743    -8.202866    198.62322  0.016243312  0.016150658            4 
 1020000   0.83503711   -8.2147579    198.95795  0.016254734  0.016136586            7 
 1021000    0.8472264   -8.2444235    198.52475  0.016203457  0.016122518            2 
 1022000   0.83005202   -8.2472109    198.71407  0.016203039  0.016108468            5 
 1023000   0.84119054   -8.2407732    198.59874  0.016177806  0.016094421            4 
 1024000   0.85946426   -8.2388393    199.29306  0.016218511  0.016080296            8 
 1025000    0.8610763   -8.2479281    198.74008   0.01615773   0.01606624            6 
 1026000   0.85294019   -8.2688596    198.69445  0.016138275  0.016052096            9 
 1027000   0.84823847    -8.272604    198.67312  0.016120831  0.016037975           16 
 1028000   0.86570803   -8.2169002    199.43557  0.016166956  0.016023863           13 
 1029000   0.85458834   -8.2600433    198.62386  0.016085508  0.016009796            9 
 1030000   0.83161032   -8.2654499    198.92028  0.016093874    0.0159957            8 
 1031000   0.85297995    -8.249681    199.61135  0.016134121  0.015981634           13 
 1032000   0.82748856   -8.2360228      199.409  0.016102148  0.015967527            9 
 1033000   0.84251704   -8.2927788    198.74401  0.016032914  0.015953337            7 
 1034000   0.84539774   -8.2590659    199.00489  0.016038434  0.015939218            5 
 1035000   0.82828781   -8.2370824    199.26386  0.016043789  0.015925142           10 
 1036000   0.84554867   -8.2484917    199.06773  0.016012526  0.015911071           13 
 1037000   0.84046387   -8.2281963     198.9242  0.015985551  0.015896951           12 
 1038000   0.84679187   -8.2284788    199.25249  0.015996507  0.015882837            3 
 1039000   0.84896328   -8.2344819    199.34639  0.015988642  0.015868714            9 
 1040000   0.83061086   -8.2547259    199.10388  0.015953836  0.015854562            8 
 1041000   0.84096041   -8.2054482    199.80847  0.015994914  0.015840414            6 
 1042000   0.83409258   -8.2466777    199.41463  0.015948067   0.01582629            6 
 1043000   0.83239209   -8.2799311    199.01628  0.015900949  0.015812175           13 
 1044000   0.85790381   -8.2376711    199.44615  0.015920031  0.015798114            3 
 1045000   0.84397703   -8.2339634    199.00267  0.015869431  0.015784195            8 
 1046000    0.8245461   -8.2226107    199.93072  0.015928196  0.015770311            6 
 1047000   0.85107501   -8.2508985    199.35354  0.015867044  0.015756426            5 
 1048000   0.83830878   -8.2451451    199.67305   0.01587731  0.015742572            5 
 1049000   0.82900635   -8.2407241    199.72976  0.015866679  0.015728694            1 
 1050000   0.83394747   -8.2514224    199.62131  0.015842961   0.01571484            3 
 1051000   0.83356247   -8.2356613    199.44284  0.015813736  0.015700954            9 
 1052000   0.82668181   -8.2520714    200.21308  0.015859718  0.015687123            4 
 1053000   0.83368432   -8.2560444    199.93506  0.015822655  0.015673269            5 
 1054000   0.82453978   -8.2566522    200.27025  0.015834144  0.015659452           12 
 1055000   0.82811709   -8.2570069    199.51312   0.01575933  0.015645508            4 
 1056000   0.83202757   -8.2825435    200.01753  0.015784212  0.015631575            5 
 1057000   0.85938539   -8.2483021    199.88046  0.015758472  0.015617606            5 
 1058000   0.84103705    -8.256541    200.09612  0.015760564  0.015603705            6 
 1059000   0.83861811   -8.2274654    199.57356  0.015704561  0.015589786            3 
 1060000   0.80924317   -8.2966848    199.49385  0.015683479  0.015575841            3 
 1061000   0.82570207    -8.258218    200.36912  0.015737442  0.015561955            4 
 1062000   0.82532216   -8.2874224    199.87895  0.015684161  0.015548103            2 
 1063000   0.83563368   -8.2437773    200.04698  0.015682579  0.015534324            3 
 1064000   0.82815077   -8.2180931    200.35632  0.015692068  0.015520586            4 
 1065000   0.81801127   -8.2361423    200.56683  0.015693805  0.015506797            5 
 1066000    0.8204994   -8.2888687    200.03507  0.015637513  0.015492975           11 
 1067000   0.83245135   -8.2810437    200.21552  0.015636951  0.015479128            9 
 1068000   0.82966919   -8.2579423    200.50246  0.015644699   0.01546526           12 
 1069000   0.81198911   -8.2616869    200.54472  0.015633358  0.015451481            8 
 1070000   0.82976868   -8.2352307    200.52678   0.01561735  0.015437656            4 
 1071000   0.82836146   -8.2904447    200.12176  0.015571254  0.015423904            7 
 1072000   0.85627021   -8.2790589    200.86927  0.015614838  0.015410232            5 
 1073000   0.81773689   -8.3006688    200.18659  0.015547265  0.015396505           10 
 1074000   0.84076224    -8.307709    200.22696  0.015535922  0.015382806            7 
 1075000   0.81114962   -8.2802555    200.37453  0.015532909  0.015369089            4 
 1076000   0.80690628   -8.2354006     200.8062  0.015551905  0.015355364            4 
 1077000   0.83062062   -8.2922415    200.99828  0.015552327  0.015341722            4 
 1078000   0.81389548   -8.2818326    200.77326  0.015520505  0.015328059            7 
 1079000   0.82143467    -8.252808     201.1884  0.015538184  0.015314405            4 
 1080000   0.81007551   -8.2855084    200.95885  0.015506084  0.015300712           10 
 1081000   0.82301412   -8.2806183    200.29813  0.015440806  0.015286991            7 
 1082000   0.83008664   -8.2976116    200.71494  0.015458637  0.015273327           11 
 1083000   0.80796496   -8.2977476    200.54198  0.015431054   0.01525969            7 
 1084000   0.82102128   -8.2678208     201.3048  0.015475461   0.01524615            7 
 1085000   0.81695803   -8.3043566    200.77419  0.015420445  0.015232673            5 
 1086000   0.82688349   -8.2861296     201.0807  0.015429765  0.015219092            9 
 1087000   0.81274308   -8.2792348    200.65234  0.015382731  0.015205535            3 
 1088000   0.82082387    -8.296073    201.07946  0.015401307  0.015192007            5 
 1089000   0.81443983    -8.245154    201.51877  0.015420781  0.015178525            3 
 1090000   0.82197419   -8.2674206    201.46255  0.015402335  0.015165061            4 
 1091000    0.8329505   -8.2729975    201.11993  0.015362048  0.015151585            7 
 1092000   0.83389307   -8.2616785    201.22951  0.015356342  0.015138109           14 
 1093000   0.81533385   -8.2554464    201.32821  0.015349818  0.015124663            4 
 1094000   0.79924317   -8.2938451    200.84339  0.015298857  0.015111212            6 
 1095000   0.81913459   -8.2944164    200.94472  0.015292597  0.015097775            3 
 1096000   0.79869777   -8.2878898      201.503  0.015321092  0.015084378            3 
 1097000   0.81729807   -8.2664816    201.81136   0.01533055  0.015070981            4 
 1098000   0.81750887   -8.2956847     200.9739  0.015253028  0.015057591           13 
 1099000   0.81618278   -8.3092702    201.53359  0.015281588  0.015044214            7 
 1100000   0.82119089   -8.3145611    201.24881  0.015246122   0.01503081            7 
 1101000   0.81319199   -8.3281521    201.28235  0.015234813  0.015017389            5 
 1102000   0.80745795   -8.2808176    201.67506  0.015250685  0.015003956            8 
 1103000   0.79414596    -8.337246    201.28871  0.015207669  0.014990515            6 
 1104000   0.80941015   -8.3078258    201.94975  0.015243791  0.014977111            4 
 1105000   0.80631474    -8.338091    201.58897  0.015202788  0.014963706            5 
 1106000   0.82728604   -8.3089827    201.52208  0.015184002  0.014950285            4 
 1107000   0.79944774   -8.3075541    201.37473  0.015159194  0.014936908            4 
 1108000   0.79823332   -8.3176712    201.63282  0.015164923  0.014923549            8 
 1109000   0.80797104   -8.3063613    202.39754  0.015208712  0.014910242            8 
 1110000   0.82344191   -8.3116982    201.73257  0.015145088  0.014897027            6 
 1111000   0.81852082   -8.2829082    202.22014  0.015168027  0.014883762            6 
 1112000   0.82442121   -8.3241019    201.61046  0.015108698  0.014870482            8 
 1113000   0.80456707   -8.3437191    201.88731  0.015115851  0.014857209           10 
 1114000   0.80626418   -8.2846851    202.21714  0.015126955  0.014843971            4 
 1115000    0.8029746    -8.335904    201.74517  0.015078114  0.014830795            8 
 1116000   0.80582936   -8.3353398    202.21937  0.015100013  0.014817648            5 
 1117000   0.80241095   -8.3206707    202.45164  0.015103823  0.014804555           10 
 1118000   0.79723165   -8.3637877    202.02245  0.015058322  0.014791391            4 
 1119000   0.80354346   -8.3434568    201.64949   0.01501709  0.014778192           12 
 1120000   0.81051093   -8.3147565    202.26223  0.015049273  0.014765064            7 
 1121000    0.8266971   -8.3199157    202.36574  0.015043543  0.014751943           27 
 1122000    0.7985073   -8.3316097    202.25289  0.015021753  0.014738886           18 
 1123000   0.79794872   -8.3339288    202.26359  0.015009171  0.014725807            4 
 1124000   0.78764284   -8.3036803    202.06214  0.014980882  0.014712737           11 
 1125000   0.80504033   -8.3168401    202.04011  0.014965934  0.014699706            7 
 1126000   0.79325243    -8.343145    202.97992  0.015022196  0.014686712            4 
 1127000   0.82984796   -8.3146138    202.19246  0.014950641  0.014673755           16 
 1128000   0.80168694   -8.2921198     202.9439  0.014992901  0.014660781           13 
 1129000   0.79539778   -8.3115857    202.85122   0.01497278  0.014647874            5 
 1130000   0.81380535   -8.3152239    202.71845  0.014949738  0.014634881            5 
 1131000   0.81714452   -8.3511078    202.53437  0.014922957  0.014621813            8 
 1132000   0.79989752   -8.3654055    202.28459  0.014891386  0.014608722            5 
 1133000   0.79147919   -8.3627985     202.3116  0.014880229  0.014595638            3 
 1134000   0.80163913    -8.376588    202.26141  0.014863419  0.014582608            5 
 1135000    0.8146261   -8.3510129    202.21193  0.014846691  0.014569554            8 
 1136000   0.77684148   -8.3451601    202.48881  0.014853933  0.014556534            4 
 1137000   0.82009799   -8.3469181    202.87189  0.014868945  0.014543488           14 
 1138000   0.80657687   -8.3516424    202.49879  0.014828558  0.014530461            7 
 1139000    0.7977009   -8.3436834    202.73345  0.014832708  0.014517476            9 
 1140000   0.80196151   -8.3605147    202.47483  0.014800792  0.014504419            6 
 1141000   0.78855036   -8.3689283    202.80133  0.014811666  0.014491386            5 
 1142000   0.79712467   -8.3432743    202.55256  0.014780543    0.0144784           11 
 1143000   0.77848803   -8.3193977    202.48531  0.014762708  0.014465346            7 
 1144000   0.80219204   -8.3386257    202.69522  0.014765095  0.014452353            9 
 1145000   0.80308183   -8.3487047    202.70318  0.014752779  0.014439361            3 
 1146000   0.80317143    -8.370324    202.15277  0.014699881   0.01442639            4 
 1147000   0.80946854   -8.3750757    201.90308  0.014668925   0.01441336            8 
 1148000   0.79749563   -8.3872185    201.97713  0.014661522  0.014400368            4 
 1149000   0.81685812    -8.358649    202.25743  0.014669091  0.014387335           10 
 1150000   0.81172607   -8.3659989    202.07941  0.014643435  0.014374301            6 
 1151000   0.80031944   -8.3479286    202.44442   0.01465714    0.0143613            8 
 1152000   0.78035494   -8.3638716    202.39808  0.014641065  0.014348201            7 
 1153000   0.77627512   -8.3702338     202.5744   0.01464111  0.014335082            9 
 1154000   0.79138301   -8.3957503     202.3689  0.014613583  0.014322018           13 
 1155000   0.78491398   -8.3485659    202.46758   0.01460805  0.014309027            7 
 1156000   0.79887196   -8.3702756    202.24481  0.014579355  0.014296057            6 
 1157000   0.79894777   -8.3711254    202.63129   0.01459459   0.01428307           10 
 1158000    0.8054069   -8.3891236    202.08825  0.014542908  0.014270086            5 
 1159000   0.78158098   -8.3863217    202.16481  0.014535865  0.014257106           10 
 1160000   0.77898186   -8.3705407    202.28014  0.014531619  0.014244161            8 
 1161000   0.78744229   -8.3735661    202.47497  0.014533087  0.014231259           12 
 1162000    0.7759504   -8.3834303    203.29161  0.014579146  0.014218399            9 
 1163000   0.78648599   -8.3777998    202.54226  0.014512916  0.014205543           11 
 1164000   0.78563508   -8.3807605    203.08864  0.014539565  0.014192684            9 
 1165000   0.78825459   -8.3955109    202.86978  0.014511429   0.01417985           17 
 1166000   0.79408354   -8.3479468    202.81828  0.014495303  0.014167033            7 
 1167000   0.79033153    -8.414049     202.9097   0.01448941  0.014154191           20 
 1168000     0.791919   -8.3871716    202.73896  0.014464823  0.014141408            9 
 1169000   0.78306142   -8.3413769    202.96138  0.014468305  0.014128716            7 
 1170000   0.78840811   -8.4061937    202.65474  0.014434098  0.014116001            7 
 1171000   0.80186736   -8.3754006    203.24044  0.014463453   0.01410329            7 
 1172000   0.80105496   -8.3776768    202.84607  0.014423071  0.014090578            6 
 1173000   0.78815681    -8.386295    203.07988  0.014427386   0.01407785            7 
 1174000   0.78326809   -8.3984145    202.72751  0.014390085  0.014065161            5 
 1175000   0.78126059   -8.3808655    203.34979  0.014421971  0.014052457           10 
 1176000   0.78219419   -8.4064772    202.90632  0.014378282  0.014039705            8 
 1177000   0.77879238    -8.412643    203.19126   0.01438624  0.014026966            7 
 1178000   0.76690434   -8.3934858    203.56965  0.014400796  0.014014239           10 
 1179000   0.77906775   -8.4103327    202.89695  0.014341034  0.014001533           22 
 1180000   0.77097923   -8.3912853    203.28545  0.014356317  0.013988832           25 
 1181000   0.78357396   -8.4135862    203.04576  0.014327248  0.013976125           16 
 1182000   0.78124704   -8.4196875    203.20227  0.014326161  0.013963442           14 
 1183000   0.78256473   -8.4238192    203.09114  0.014306223  0.013950755           21 
 1184000   0.77064686   -8.4445962     202.7163  0.014267758  0.013938095           15 
 1185000    0.7781554   -8.4382402    203.26768  0.014294493  0.013925441           18 
 1186000   0.77685176   -8.4235786    203.21098  0.014278455  0.013912763           27 
 1187000   0.78556933   -8.4548878    203.28772  0.014271814    0.0139001           31 
 1188000   0.76489618   -8.4248001    202.85909  0.014229734  0.013887408           28 
 1189000   0.78615732   -8.4272686    203.55058  0.014266231  0.013874786           33 
 1190000    0.7874865   -8.3905009    203.12178  0.014224215  0.013862202           22 
 1191000   0.77842608   -8.4164839     203.1819  0.014216478  0.013849609           24 
 1192000   0.77731278   -8.4253338    202.80545  0.014178233  0.013837024           18 
 1193000   0.79249899   -8.4374052    203.14217  0.014189869  0.013824447           18 
 1194000   0.78156189   -8.4220148     203.4322  0.014198227  0.013811881           17 
 1195000    0.7767074   -8.4245398    203.58415  0.014196942  0.013799315           17 
 1196000   0.77529219   -8.4444381    203.05343  0.014148093  0.013786741           19 
 1197000   0.78215725   -8.4411617    203.25698  0.014150444  0.013774159           39 
 1198000   0.77946817   -8.4412326    202.75857  0.014103963  0.013761579           23 
 1199000   0.76095275   -8.4169451    203.19518  0.014122545   0.01374901           29 
 1200000    0.7643796    -8.479881    202.87239   0.01408836  0.013736443           26 
 1201000   0.78127408   -8.4745008    203.40733  0.014113747  0.013723868           27 
 1202000   0.77908575   -8.4251825     203.1132  0.014081614  0.013711291           35 
 1203000   0.78165236   -8.4940717    203.08921  0.014068246  0.013698688           31 
 1204000   0.75522893   -8.4455788    203.08945  0.014056579  0.013686073           29 
 1205000   0.78822681    -8.445878    202.97458   0.01403697  0.013673488           43 
 1206000   0.77787423   -8.4806415    202.84501  0.014016377  0.013660909           41 
 1207000   0.78454945   -8.4954462    202.92363  0.014010192   0.01364833           38 
 1208000   0.76993199   -8.4531587    203.23559  0.014020115  0.013635779           23 
 1209000   0.77389303   -8.4647118    203.20737  0.014006573  0.013623279           38 
 1210000   0.75456936   -8.4500115    203.25413  0.013998218  0.013610781           26 
 1211000   0.79492172   -8.4661693    203.50794  0.014004124  0.013598293           21 
 1212000   0.77831481   -8.4826903     202.7393  0.013939721  0.013585803           27 
 1213000   0.77567269   -8.4705846    203.31559   0.01396782  0.013573301           42 
 1214000   0.76387136   -8.4471362    203.48559  0.013967984  0.013560856           34 
 1215000   0.76822895   -8.4765074     203.6348  0.013966722  0.013548388           26 
 1216000     0.754385   -8.4790929    202.95201  0.013908444  0.013535965           45 
 1217000   0.74635543   -8.4717153     203.1239  0.013908785  0.013523504           31 
 1218000   0.78299036   -8.4733988    203.86788  0.013948268  0.013511079           31 
 1219000    0.7598507   -8.4885555    203.54778  0.013914943  0.013498628           40 
 1220000   0.75487116   -8.4699794      203.364  0.013890983  0.013486201           42 
 1221000   0.77058244   -8.4561792    203.13874  0.013864233  0.013473839           47 
 1222000   0.77808269   -8.4437746    203.52054  0.013878924  0.013461484           52 
 1223000   0.77981015   -8.4718444    203.20706  0.013846215  0.013449137           35 
 1224000   0.76792885   -8.4508752      204.029  0.013890863  0.013436844           26 
 1225000    0.7610893   -8.4806637    203.34705  0.013833133  0.013424546           33 
 1226000   0.76392914   -8.4760632    203.29966  0.013818629  0.013412196           34 
 1227000   0.76692614   -8.4584597    203.63585  0.013830199  0.013399938           43 
 1228000   0.76294371   -8.4371471    203.41015  0.013803621  0.013387672           36 
 1229000   0.75580338   -8.4518712    203.55386  0.013802133  0.013375437           44 
 1230000   0.76932719   -8.4476964     203.8693  0.013812283  0.013363215           41 
 1231000   0.76126027   -8.4666528    203.82432  0.013798018   0.01335098           35 
 1232000   0.75700947   -8.4907361    203.81128  0.013785936  0.013338753           62 
 1233000     0.772279   -8.4763799    203.55608  0.013757507  0.013326539           68 
 1234000   0.76752944   -8.4521991    203.52977  0.013744582  0.013314347           59 
 1235000   0.75901004   -8.4353383    203.62979  0.013740201  0.013302184           46 
 1236000   0.76648697    -8.481303    203.61528  0.013728106  0.013290015           46 
 1237000   0.76493697   -8.4724364    203.42199  0.013703987  0.013277843           51 
 1238000   0.75684923   -8.5006668    203.14591  0.013674334  0.013265622           60 
 1239000   0.76252882   -8.4911956    203.29779  0.013673513  0.013253435           54 
 1240000   0.76218177   -8.4802936    203.42139  0.013670792  0.013241236           75 
 1241000   0.77213531   -8.4594053    203.62297  0.013673313  0.013229084           50 
 1242000   0.76637665   -8.4719798    203.45153  0.013650801  0.013216924           59 
 1243000    0.7473563   -8.4940377    203.71942  0.013657778  0.013204761          104 
 1244000   0.76994033   -8.4867145    203.38147  0.013624161  0.013192567           64 
 1245000   0.76438278   -8.4706669    203.15485  0.013598049  0.013180396           67 
 1246000   0.75461828   -8.4825801    203.75281  0.013627127  0.013168226           63 
 1247000   0.76318162   -8.4992704    203.59107  0.013605391  0.013156065           52 
 1248000   0.74354877   -8.4745305    203.96156  0.013619228  0.013143891           45 
 1249000   0.75476468   -8.4884336    203.30811  0.013564726  0.013131722           57 
 1250000   0.75659487   -8.5207736    202.95033  0.013530022  0.013119528           44 
 1251000   0.76152962    -8.518939     203.4031  0.013549367  0.013107338           58 
 1252000   0.74246035   -8.4993398    203.52119  0.013546405  0.013095176           61 
 1253000   0.75257298   -8.4986493    203.23625  0.013516643  0.013083041           55 
 1254000   0.74792783   -8.4969738    203.20855  0.013504024  0.013070859           46 
 1255000   0.75744509   -8.5104374    203.15918  0.013489986  0.013058666           56 
 1256000   0.75149257   -8.5028162    203.39125  0.013494642   0.01304649           50 
 1257000   0.77999677   -8.5080662     202.8768  0.013449801  0.013034329           38 
 1258000   0.73975393   -8.5285205    203.39555  0.013473473  0.013022159           50 
 1259000   0.75490495   -8.5066985    203.33821  0.013458976  0.013010013           36 
 1260000   0.76380235   -8.5163213    203.27456  0.013444085  0.012997886           29 
 1261000   0.74207461   -8.5090428    203.56115  0.013452363   0.01298583           27 
 1262000   0.74062593   -8.4884394    203.67976  0.013449535  0.012973762           31 
 1263000   0.76406518    -8.507891    203.46432  0.013424672   0.01296174           32 
 1264000   0.75922512   -8.4747366    203.70599  0.013429984  0.012949729           24 
 1265000    0.7416273   -8.5082035    203.41411  0.013400139  0.012937735           25 
 1266000   0.76117263   -8.4642725    203.83024  0.013416946  0.012925732           26 
 1267000   0.74919206   -8.4921445    203.13733  0.013360782  0.012913721           27 
 1268000   0.75030902   -8.5276863    203.32763  0.013362752  0.012901753           24 
 1269000   0.73461948   -8.5166122    203.63885  0.013372659   0.01288977           17 
 1270000   0.74449877   -8.5117395    203.53094  0.013355048  0.012877757           39 
 1271000   0.75132414   -8.5144576    203.78655    0.0133613  0.012865769           20 
 1272000    0.7514222   -8.5169391    203.68092  0.013343876  0.012853818           27 
 1273000   0.75542843   -8.5177331    203.83006  0.013343156  0.012841913           37 
 1274000    0.7382184   -8.4961086    204.18672  0.013356012  0.012830045           36 
 1275000    0.7590475   -8.5239074    203.93383  0.013329008  0.012818133           30 
 1276000   0.75867633   -8.5283787    203.68351  0.013302215   0.01280627           43 
 1277000   0.74384687   -8.5240795    203.79244  0.013298906   0.01279436           36 
 1278000    0.7453051   -8.5260923    203.61314  0.013276809  0.012782508           14 
 1279000   0.73773484   -8.5251892    204.07059  0.013296234  0.012770665           33 
 1280000   0.73409309   -8.5278297       204.16  0.013291666  0.012758833           28 
 1281000   0.72732727   -8.5117496    204.08565  0.013276454  0.012747011           40 
 1282000   0.74100534   -8.5131384     203.7762  0.013245983   0.01273523           33 
 1283000   0.74928572    -8.519942    203.74497   0.01323363  0.012723454           43 
 1284000   0.75139946   -8.5150019    203.41169  0.013201693  0.012711707           33 
 1285000   0.74420388   -8.5420169    203.91885   0.01322431  0.012699957           37 
 1286000   0.74505871    -8.549441    203.53454  0.013189122  0.012688232           39 
 1287000   0.74996401    -8.532573    203.35304  0.013167123  0.012676446           41 
 1288000   0.73467756   -8.5403893    203.32578  0.013155136   0.01266469           29 
 1289000    0.7453464   -8.5426652    203.72528  0.013170758  0.012652907           44 
 1290000   0.74696329    -8.550015    203.52758  0.013147776   0.01264111           48 
 1291000   0.73051944   -8.5450508    203.49458  0.013135462  0.012629337           53 
 1292000   0.72512006   -8.5456552    203.53956  0.013128196  0.012617581           44 
 1293000   0.74337766   -8.5493503    203.26932  0.013100627  0.012605812           42 
 1294000   0.73513867   -8.5433831     203.4968  0.013105152  0.012594053           45 
 1295000    0.7397475   -8.5384411    203.37661  0.013087298  0.012582317           32 
 1296000   0.74836939   -8.5550367    203.66051  0.013095455  0.012570556           29 
 1297000   0.73604615   -8.5525801    203.48762  0.013074249  0.012558811           37 
 1298000   0.74803989   -8.5785324    203.27379  0.013050449  0.012547082           41 
 1299000   0.73215394   -8.5424527    203.63426  0.013063527  0.012535384           45 
 1300000   0.73068748   -8.5745699    203.24122  0.013028284  0.012523685           49 
 1301000   0.72662915   -8.5616988    203.46115  0.013032356  0.012511949           40 
 1302000   0.73846725   -8.5832758    203.35042   0.01301526  0.012500216           55 
 1303000   0.75102553    -8.559692    203.32182  0.013003442  0.012488465           45 
 1304000   0.72604957   -8.5395909    203.25212  0.012989016  0.012476777           46 
 1305000   0.72757066   -8.5444898    203.57022  0.012999376  0.012465081           34 
 1306000   0.72548612   -8.5586343    203.65971  0.012995132  0.012453418           45 
 1307000   0.74182816   -8.5658233    203.07646  0.012948002  0.012441764           55 
 1308000   0.71647259   -8.5801685    203.33577  0.012954624  0.012430096           53 
 1309000   0.71540892   -8.5652916    203.11925  0.012930943  0.012418427           47 
 1310000    0.7221613   -8.5827483    203.18703  0.012925383  0.012406739           51 
 1311000   0.73118928   -8.5510169    203.32209  0.012924109   0.01239507           41 
 1312000    0.7337648   -8.5813828     203.3202  0.012914138  0.012383419           38 
 1313000   0.72324334    -8.562328    203.32788  0.012904791  0.012371763           55 
 1314000   0.71491816   -8.5561358    203.44208  0.012902212  0.012360129           38 
 1315000   0.73616166   -8.5877507    203.26706  0.012881309  0.012348503           55 
 1316000   0.72570673   -8.5834208    203.36773  0.012877896  0.012336922           57 
 1317000   0.72621409   -8.5658338    203.52715  0.012878205  0.012325326           46 
 1318000   0.72255261   -8.5862647    203.37951  0.012859099  0.012313749           58 
 1319000   0.72904041   -8.5710813    203.66471  0.012867369  0.012302191           61 
 1320000   0.72457119   -8.5856712    203.45277  0.012844241  0.012290642           60 
 1321000   0.71491192   -8.5664406     202.9199  0.012800902  0.012279067           62 
 1322000   0.71534678   -8.5761717    203.71263  0.012841189  0.012267512           72 
 1323000   0.72591212   -8.5797287    204.06459  0.012853652  0.012255994           67 
 1324000   0.72862595   -8.5915319    203.38828  0.012801377  0.012244478           70 
 1325000    0.7427227   -8.6017865    202.80203  0.012754844  0.012232945           69 
 1326000   0.73687118   -8.5949999    203.07553  0.012762414   0.01222146           73 
 1327000   0.72620309   -8.5990815    203.17302  0.012758919  0.012209941           76 
 1328000   0.72889582   -8.5910317    203.11307  0.012745549   0.01219845           89 
 1329000   0.73680697   -8.5955352    203.33361  0.012749787  0.012186956           60 
 1330000   0.70812384   -8.6026917    203.38003   0.01274311  0.012175505           82 
 1331000   0.72062726   -8.6156841    203.22192  0.012723636  0.012164063           60 
 1332000   0.72616928    -8.594742    203.48069  0.012730273   0.01215266           77 
 1333000   0.71013077   -8.5858748    203.52585  0.012723547  0.012141279           84 
 1334000   0.71596785   -8.5974928    203.20735  0.012694112  0.012129882           67 
 1335000   0.71176601    -8.601688    203.66326  0.012713062  0.012118484           62 
 1336000   0.71999102   -8.6031166      203.652  0.012702844  0.012107099           70 
 1337000   0.71315377   -8.6078506    203.82802  0.012704315  0.012095722           64 
 1338000   0.72017221   -8.6192067    203.11426  0.012650365  0.012084334           77 
 1339000   0.73809451   -8.6040041    203.28625  0.012651621  0.012072945           65 
 1340000   0.72037248   -8.6022195    203.45643  0.012652763  0.012061592           65 
 1341000     0.721567   -8.5954702    203.66922  0.012656551   0.01205023           87 
 1342000    0.7227223   -8.6039959    203.24701  0.012620902  0.012038902           82 
 1343000   0.70388565   -8.6219379    203.07229  0.012600664  0.012027565           56 
 1344000   0.71851157   -8.6216854    203.29819  0.012605294  0.012016238           63 
 1345000   0.71054378   -8.6007841    203.17974  0.012588584   0.01200494           60 
 1346000   0.72974921   -8.6004498    203.62846  0.012607012   0.01199361           71 
 1347000   0.71516708   -8.6150853    203.33617   0.01257957  0.011982312           81 
 1348000   0.70440786   -8.6382719    203.45672   0.01257769  0.011970996           93 
 1349000   0.72206124   -8.6252784    203.26455  0.012556495  0.011959706           82 
 1350000    0.7118737   -8.6242139    203.08811  0.012536303  0.011948412           75 
 1351000   0.71557874   -8.6255603    203.43374  0.012548343  0.011937137           73 
 1352000   0.71255387   -8.6543589    203.11176  0.012519216  0.011925866           63 
 1353000   0.71630391   -8.6480976    203.74262  0.012548819  0.011914603           65 
 1354000   0.70817428   -8.6205517    203.19873  0.012506076  0.011903369           80 
 1355000   0.71803739   -8.6573287    203.58527  0.012520619   0.01189215           85 
 1356000   0.69744438   -8.6393891    203.56089  0.012509887  0.011880928           79 
 1357000   0.71429338   -8.6534873    203.38174  0.012489667   0.01186972           82 
 1358000    0.7052417   -8.6388324    203.18891  0.012468637  0.011858516           87 
 1359000   0.70144583   -8.6654412    203.05902  0.012451497  0.011847285           87 
 1360000   0.71266437   -8.6176571    203.27598  0.012455636  0.011836098          102 
 1361000   0.71764552   -8.6226147    203.62123  0.012467624  0.011824937          110 
 1362000    0.7179762   -8.6706085    203.04837   0.01242342  0.011813764           95 
 1363000   0.70650097   -8.6378168    202.64586  0.012389695  0.011802591          113 
 1364000   0.71581951   -8.6452071    203.35865   0.01242416  0.011791441          143 
 1365000   0.70916984   -8.6654023     203.3553  0.012414854  0.011780301          134 
 1366000    0.7076023   -8.6439942    203.15507   0.01239355  0.011769173          139 
 1367000   0.72050502    -8.653365     203.4222  0.012400768  0.011758065          124 
 1368000   0.70836055   -8.6505447    203.35672  0.012387715  0.011746954          104 
 1369000   0.69988841   -8.6648072    203.29498  0.012374907  0.011735857          100 
 1370000    0.7042074   -8.6292689    203.59856  0.012384341  0.011724788           90 
 1371000   0.69250126   -8.6494454    203.22002  0.012352299   0.01171371          101 
 1372000   0.70743812   -8.6692153    203.32384  0.012349602  0.011702658          100 
 1373000    0.6963511   -8.6399858    203.26085  0.012336784  0.011691601          115 
 1374000   0.72804722   -8.6291138    203.41084  0.012336902  0.011680562           96 
 1375000   0.72031496   -8.6431111    203.10106  0.012309155  0.011669504          102 
 1376000   0.69709572   -8.6610066    202.90907  0.012288582  0.011658458          119 
 1377000   0.69729791    -8.676192    203.09889  0.012291146  0.011647444           98 
 1378000   0.71861134   -8.6481528    203.14431  0.012284973  0.011636463           93 
 1379000   0.72376377   -8.6296722    203.59288  0.012303171  0.011625484          102 
 1380000   0.71136213   -8.6628789    203.03134  0.012260347  0.011614483          119 
 1381000   0.69883007   -8.6599598    202.87975  0.012242321  0.011603492          101 
 1382000   0.69530601   -8.6668227    203.15491  0.012250055  0.011592493          114 
 1383000   0.71657979   -8.6316689    203.47091  0.012260238  0.011581515          106 
 1384000   0.69958525   -8.6575785    202.92091  0.012218263  0.011570549          114 
 1385000   0.67988156   -8.6478499    202.90913  0.012208732  0.011559582          176 
 1386000   0.71895436   -8.6508214    203.50978  0.012236038  0.011548646          120 
 1387000   0.70666676   -8.6199491     203.4509  0.012223678  0.011537752          107 
 1388000   0.69370628   -8.6806718     202.9608  0.012185447  0.011526847          123 
 1389000   0.70479008   -8.6533904     203.3763  0.012201602  0.011515942           86 
 1390000   0.67681108   -8.6699886    203.03738  0.012172505  0.011505059           92 
 1391000   0.70762457   -8.6753583    203.05342  0.012164715   0.01149418          133 
 1392000   0.69610264   -8.6552196    203.16843  0.012162861  0.011483298          121 
 1393000   0.72617634   -8.6860094    203.19255  0.012155573  0.011472416          129 
 1394000   0.70329848   -8.6765557    202.97291  0.012133722  0.011461535          190 
 1395000   0.69994665   -8.6711982    202.64701  0.012105556  0.011450624          136 
 1396000   0.69817955   -8.6925919    203.22347  0.012131296   0.01143972          214 
 1397000   0.70501395   -8.6826492     202.5448  0.012082128  0.011428825          173 
 1398000   0.67551299   -8.6786551    202.55926  0.012074348  0.011417939          197 
 1399000   0.70403709    -8.664049    203.00512  0.012092275   0.01140708          184 
 1400000   0.68809984    -8.666424     202.8101   0.01207203  0.011396227          160 
 1401000   0.69987783   -8.6727321    202.70739  0.012057303  0.011385391          154 
 1402000    0.7055543   -8.6943662    202.73238  0.012050189  0.011374584          203 
 1403000   0.70013152   -8.6795342    202.79228  0.012045158  0.011363759          198 
 1404000   0.68735121   -8.6835522    203.04892  0.012051811  0.011352949          163 
 1405000    0.6922378   -8.7130304    202.71164  0.012023229  0.011342127          219 
 1406000   0.67903344   -8.6931581    202.85006  0.012022882  0.011331294          193 
 1407000   0.69025091   -8.6913362    202.70889  0.012005976  0.011320501          169 
 1408000   0.70164391   -8.7052065    202.93277  0.012010699  0.011309749          195 
 1409000   0.68848369   -8.7068927    202.80932  0.011994873  0.011299023          189 
 1410000    0.6850427   -8.6784066    203.30001  0.012015367  0.011288287          182 
 1411000   0.68941287   -8.6893472    202.82884  0.011979025  0.011277544          174 
 1412000   0.69627989   -8.6895804    203.26444  0.011996249  0.011266822          178 
 1413000   0.68337952   -8.7153968    202.73497  0.011956533  0.011256101          186 
 1414000   0.68446589   -8.6937567    202.60798  0.011940593  0.011245358          191 
 1415000    0.6857783   -8.7211768    202.36671  0.011917945  0.011234644          228 
 1416000   0.68117841   -8.7022478     202.0952   0.01189355  0.011223903          211 
 1417000   0.70419756   -8.7435506    202.44517  0.011905738  0.011213185          198 
 1418000   0.69650286   -8.7277105    202.55532  0.011903815   0.01120247          191 
 1419000   0.69105219   -8.7090357    202.38505  0.011885427  0.011191768          215 
 1420000   0.67367552   -8.7229125     202.7201  0.011896719  0.011181077          215 
 1421000   0.69400865   -8.6987698    202.79344  0.011892649  0.011170397          215 
 1422000   0.70372963   -8.7004737    202.23988  0.011851845  0.011159727          208 
 1423000   0.68411337   -8.7184686     202.7862   0.01187551  0.011149067          232 
 1424000   0.69048892   -8.7008018     202.7791  0.011866754   0.01113843          248 
 1425000   0.68920774   -8.7120305    203.07668   0.01187583  0.011127821          205 
 1426000   0.68431018   -8.7275905    202.76605  0.011849348  0.011117233          210 
 1427000   0.70773834   -8.7067694    202.99296  0.011854296  0.011106655          199 
 1428000   0.68682169    -8.716581    203.14892  0.011855096  0.011096088          214 
 1429000   0.68123407   -8.7307313    202.73245  0.011822513  0.011085538          247 
 1430000   0.70978554   -8.7045216    202.65385  0.011809665     0.011075          180 
 1431000   0.68515548   -8.7374238    202.28081  0.011779688  0.011064453          230 
 1432000   0.68135335   -8.7002624    202.80978  0.011802245  0.011053931          195 
 1433000   0.68766117   -8.7154833    202.96892  0.011803264  0.011043411          217 
 1434000   0.68662076   -8.7346047    202.70437  0.011779659  0.011032886          231 
 1435000   0.66817831   -8.7020681    202.60242  0.011765529  0.011022399          216 
 1436000   0.69208878   -8.7170956    202.91955   0.01177574  0.011011917          214 
 1437000   0.67616345   -8.7093266    202.85079  0.011763557   0.01100143          190 
 1438000   0.67607756   -8.7291138    202.63777  0.011743033  0.010990931          204 
 1439000   0.67509946   -8.7341741    202.63322  0.011734608  0.010980438          172 
 1440000    0.6651021   -8.7223414    202.70779  0.011730775  0.010969971          223 
 1441000   0.67172942   -8.7513157    202.67159  0.011720541   0.01095951          212 
 1442000    0.6773369    -8.730739    202.69191  0.011713587  0.010949058          172 
 1443000   0.67240758    -8.720382     202.4714  0.011692735  0.010938621          194 
 1444000   0.68713123   -8.7592118     202.2439  0.011671509  0.010928199          214 
 1445000   0.66570661   -8.7013222    202.58625  0.011683174    0.0109178          218 
 1446000    0.6859452   -8.7233102     202.6429   0.01167836  0.010907398          205 
 1447000   0.66788554   -8.7366499    202.50683  0.011662453  0.010897004          216 
 1448000   0.66333355   -8.7180232    202.49268  0.011653584  0.010886639          188 
 1449000   0.67928384    -8.736433    202.50323  0.011646148  0.010876266          218 
 1450000   0.67399334   -8.7457939    202.37231  0.011630593  0.010865912          224 
 1451000   0.66674343   -8.7311618    202.77987  0.011645984  0.010855574          185 
 1452000     0.681001   -8.7334379    202.59275  0.011627224  0.010845235          211 
 1453000   0.65466355   -8.7475335    202.49979   0.01161389  0.010834898          284 
 1454000   0.67774753   -8.7467787    202.49929  0.011605874  0.010824585          223 
 1455000   0.66376558   -8.7387134    202.54573  0.011600557  0.010814296          239 
 1456000   0.66811566   -8.7460278    202.46683  0.011588074  0.010804008          234 
 1457000   0.66324411   -8.7354796    202.23204  0.011566692  0.010793727          197 
 1458000   0.67624758   -8.7216255    202.82397  0.011592591   0.01078346          255 
 1459000   0.66751525   -8.7648881     202.4821  0.011565119  0.010773205          243 
 1460000    0.6666665    -8.737729     202.5438  0.011560719  0.010762977          262 
 1461000   0.67809465   -8.7560782    202.49514  0.011550031   0.01075276          251 
 1462000   0.66666243   -8.7482762    202.85171  0.011562455  0.010742548          240 
 1463000   0.66999505   -8.7627203    202.87352  0.011555794  0.010732352          220 
 1464000    0.6586696   -8.7275423    202.40171  0.011521044  0.010722152          222 
 1465000   0.65011447   -8.7559956    202.67477  0.011528713  0.010711959          228 
 1466000   0.66567145   -8.7503738    202.30523  0.011499842  0.010701779          222 
 1467000   0.66992051   -8.7565635    202.09313  0.011479955  0.010691609          236 
 1468000   0.67317933   -8.7646707    202.66582  0.011504645  0.010681457          240 
 1469000   0.66665278   -8.7598658    202.49087  0.011486889  0.010671321          250 
 1470000   0.67272173   -8.7583954    202.31602  0.011469162  0.010661199          250 
 1471000    0.6629221   -8.7591098    202.29306  0.011460064  0.010651086          224 
 1472000   0.67675865   -8.7692566    202.31515   0.01145353  0.010640987          213 
 1473000   0.66289599   -8.7425341    202.57068   0.01146021  0.010630893          231 
 1474000   0.68019301   -8.7597305    202.77402  0.011463932  0.010620803          212 
 1475000   0.65552736   -8.7333109     203.1959  0.011479994  0.010610733          228 
 1476000   0.65297253   -8.7695923     202.2556  0.011419128  0.010600671          237 
 1477000   0.64009122   -8.7642623    202.52852  0.011426795  0.010590596          256 
 1478000   0.66152512   -8.7756182    202.27234   0.01140462  0.010580528          216 
 1479000   0.65059502   -8.7771831    201.91564  0.011376811   0.01057046          230 
 1480000    0.6703502   -8.7858791    202.06319  0.011377432  0.010560388          310 
 1481000   0.66023546   -8.7787002    202.35979  0.011386439  0.010550352          244 
 1482000   0.65647013   -8.7690714    201.97975  0.011357386  0.010540313          245 
 1483000   0.65652055   -8.7622803    202.57371  0.011383104  0.010530275          227 
 1484000   0.65452365   -8.7633702    202.50043  0.011371318  0.010520255          250 
 1485000    0.6568175   -8.7634706    202.10443  0.011341438  0.010510251          234 
 1486000   0.66837002    -8.801316    201.90675  0.011322721  0.010500239          222 
 1487000    0.6782552   -8.7785777    202.48182  0.011347334  0.010490238          265 
 1488000   0.66409363   -8.7603181    202.15811  0.011321579  0.010480262          266 
 1489000    0.6705061   -8.7871189      202.301  0.011321972  0.010470297          281 
 1490000   0.65404662   -8.7540169      202.113  0.011303859  0.010460338          252 
 1491000    0.6576948   -8.7639842    202.59802  0.011323386  0.010450411          284 
 1492000   0.65527026   -8.8084012    201.93767  0.011278914   0.01044047          280 
 1493000   0.64770046   -8.7904173    202.10878   0.01128091  0.010430556          293 
 1494000   0.66491749   -8.8000339    202.34482  0.011286525  0.010420641          278 
 1495000   0.65920082   -8.7880993    202.27277  0.011274959  0.010410732          239 
 1496000   0.66008055   -8.7786791    201.98633  0.011251466  0.010400847          256 
 1497000   0.65770586   -8.7964557    201.93791  0.011241255   0.01039095          268 
 1498000   0.65449238   -8.7956405    202.10384  0.011242982  0.010381076          300 
 1499000   0.65532668   -8.7868692    202.33162  0.011248144  0.010371208          238 
 1500000   0.66092373   -8.7792798    201.93392  0.011218551  0.010361346          250 
 1501000   0.64879916   -8.7895329    202.36476  0.011234996  0.010351483          250 
 1502000   0.66327075   -8.7597642    202.21687  0.011219311  0.010341644          268 
 1503000   0.65168736   -8.7836954    202.77514    0.0112428   0.01033182          286 
 1504000   0.63716668   -8.7612939    202.38014  0.011213439  0.010322022          256 
 1505000   0.64898186   -8.7872929    202.15366  0.011193447  0.010312228          267 
 1506000   0.66107475   -8.7950549    202.17628  0.011187267  0.010302443          285 
 1507000   0.64401191   -8.7958841    202.43338   0.01119406  0.010292652          290 
 1508000   0.64921547   -8.8023824    201.85472  0.011154659  0.010282872          291 
 1509000   0.65775303    -8.791196    201.87408  0.011148336  0.010273129          258 
 1510000   0.63808675   -8.7950494    202.28704  0.011163744  0.010263374          287 
 1511000    0.6461238   -8.8146578    201.95426  0.011138003  0.010253643          247 
 1512000   0.66080865   -8.8051442    202.14931  0.011141386  0.010243918          260 
 1513000   0.64233333   -8.7871248    202.06009  0.011129108  0.010234223          260 
 1514000   0.63690884   -8.8161966    202.14882  0.011126641  0.010224541          250 
 1515000   0.65140125   -8.8099769    202.22193  0.011123318  0.010214846          264 
 1516000    0.6540829   -8.7880507    202.08326  0.011108359  0.010205163          256 
 1517000   0.65368988   -8.8242297    201.91009  0.011091523  0.010195487          297 
 1518000   0.63242161   -8.8072376    202.51705  0.011117537  0.010185814          285 
 1519000   0.66829371   -8.8092876    201.93469  0.011078269  0.010176152          228 
 1520000   0.64746915   -8.8048629    201.95998  0.011072368  0.010166495          255 
 1521000   0.66400745   -8.7850047    202.13818  0.011074851   0.01015686          271 
 1522000   0.64451091   -8.7914853    201.80098  0.011049112  0.010147246          288 
 1523000   0.66901654   -8.8120156    202.16161   0.01106159  0.010137629          284 
 1524000   0.64596061     -8.80016    202.17854  0.011055257  0.010128015          259 
 1525000   0.64306903   -8.8023915    201.80124   0.01102739  0.010118404          293 
 1526000   0.64516445   -8.8179474     202.0141  0.011031788  0.010108819          281 
 1527000   0.64162162   -8.8011812    201.96103  0.011021667  0.010099239          298 
 1528000   0.64936939   -8.8251712     201.9501  0.011013858  0.010089653          347 
 1529000   0.64104963   -8.8276224    201.75691  0.010996125  0.010080071          320 
 1530000   0.65695665   -8.8252948    202.02445   0.01100351  0.010070501          328 
 1531000   0.63912703    -8.822476    202.10954  0.011000955   0.01006094          319 
 1532000   0.64783287   -8.8235078    201.76062  0.010974794  0.010051389          322 
 1533000   0.65366174   -8.8249632    201.72441  0.010965667  0.010041853          307 
 1534000   0.62966678   -8.8173911    201.88717   0.01096736  0.010032337          351 
 1535000   0.64622139   -8.8384058    201.64355   0.01094699  0.010022817          316 
 1536000   0.64669338   -8.8384502    201.69948  0.010942897  0.010013294          394 
 1537000   0.64054956   -8.8141562    201.66057  0.010933668    0.0100038          372 
 1538000   0.63210136   -8.8331681    201.81296  0.010934816 0.0099943286          342 
 1539000   0.63529804   -8.8197624    202.26508  0.010952192 0.0099848636          354 
 1540000   0.63569571   -8.8402185    201.49019  0.010903149 0.0099754058          323 
 1541000   0.63247071   -8.8243509    202.20346  0.010934645 0.0099659603          340 
 1542000   0.64115578   -8.8229472    202.50988  0.010944114 0.0099565169          373 
 1543000   0.63385196   -8.8000302    202.24043  0.010922469  0.009947105          372 
 1544000   0.63362696   -8.8220377    202.15335  0.010910694 0.0099376914          359 
 1545000   0.63969014   -8.8213527    201.86067  0.010887846  0.009928283          357 
 1546000    0.6377995   -8.8330698    201.86002  0.010880769 0.0099188978          384 
 1547000   0.63102371   -8.8298826    201.96258   0.01087926 0.0099095247          362 
 1548000   0.64347775   -8.8324746    202.06271  0.010877622 0.0099001539          350 
 1549000   0.65358297   -8.8394471    201.74349  0.010853426  0.009890788          344 
 1550000   0.63110525   -8.8294182    202.12897  0.010867149 0.0098814318          371 
 1551000   0.64519675   -8.8498558    201.95533  0.010850813 0.0098720938          352 
 1552000   0.62929166   -8.8464758    201.90733  0.010841244 0.0098627465          423 
 1553000   0.63995308   -8.8334739    201.68286  0.010822218 0.0098534099          391 
 1554000   0.64081803    -8.868614    201.68191  0.010815203 0.0098440819          369 
 1555000   0.62838204   -8.8199859    201.63063    0.0108055 0.0098347729          382 
 1556000    0.6392876   -8.8449834    201.79207  0.010807202 0.0098254603          389 
 1557000   0.62580307   -8.8503125    201.98221  0.010810437 0.0098161534          378 
 1558000   0.62481839   -8.8386114    201.76819  0.010792051 0.0098068575          377 
 1559000    0.6263927   -8.8372703    201.70967  0.010782001 0.0097975652          377 
 1560000    0.6411748   -8.8397217    201.81107  0.010780506 0.0097882934          403 
 1561000   0.62222318   -8.8691393    201.61054  0.010762894 0.0097790445          402 
 1562000   0.62289426   -8.8576643    201.77281  0.010764661 0.0097697854          401 
 1563000   0.63770886   -8.8631246    201.29364  0.010732227  0.009760541          394 
 1564000   0.61983817   -8.8446719    201.59819  0.010741591 0.0097513087          369 
 1565000   0.62769901   -8.8679604    201.79726  0.010745328  0.009742085          376 
 1566000   0.63239276   -8.8682833    201.95426  0.010746821 0.0097328717          376 
 1567000   0.62617185   -8.8589593    201.82805  0.010733251 0.0097236633          383 
 1568000   0.63611321   -8.8706514    201.49057   0.01070847 0.0097144798          390 
 1569000   0.62942827   -8.8348446    201.94537    0.0107258  0.009705308          400 
 1570000   0.62564631   -8.8561463     201.6298  0.010702219 0.0096961365          380 
 1571000   0.61959434   -8.8727427    201.46737   0.01068679 0.0096869791          374 
 1572000   0.62408101   -8.8396507    201.86384  0.010701009 0.0096778437          370 
 1573000    0.6330681   -8.8790207    201.45674  0.010672639 0.0096687174          354 
 1574000   0.60720178   -8.8572715    201.73934  0.010680821 0.0096595887          367 
 1575000   0.63108988   -8.8523383     201.5883  0.010666048 0.0096504789          363 
 1576000   0.62268542   -8.8740409    201.54417  0.010656947 0.0096413661          389 
 1577000   0.62951092   -8.8641025    201.69722  0.010658276 0.0096322699          394 
 1578000   0.64666776   -8.8605811    201.70457   0.01065191 0.0096231828          388 
 1579000   0.62047601   -8.8799022    201.74351  0.010647219 0.0096141064          399 
 1580000   0.62210177    -8.866569    201.65432  0.010635776 0.0096050414          388 
 1581000   0.62432535   -8.8791703    201.55771  0.010623957 0.0095959894          372 
 1582000    0.6252413   -8.8886732    201.51719  0.010615107  0.009586957          379 
 1583000   0.61511707   -8.8702877    201.63255  0.010614474 0.0095779138          358 
 1584000   0.63209831   -8.8798168    201.62128   0.01060718 0.0095688924          385 
 1585000   0.61673095   -8.8732244     201.5715  0.010597871 0.0095598763          394 
 1586000    0.6092687   -8.8512925    201.40484  0.010582432 0.0095508598          392 
 1587000    0.6119387   -8.8654854    201.41931  0.010576523 0.0095418541          394 
 1588000   0.62246188    -8.867509    201.26874  0.010561962 0.0095328718          360 
 1589000   0.61911637   -8.8707895    201.56421   0.01057081 0.0095239043          400 
 1590000   0.62535474   -8.8676982    201.93264  0.010583472 0.0095149469          393 
 1591000   0.62365971   -8.8763991    201.29804   0.01054358 0.0095060046          385 
 1592000   0.63020277   -8.8579539    201.68455   0.01055719 0.0094970711          365 
 1593000   0.61431913   -8.8760741    201.50432  0.010541134 0.0094881406          398 
 1594000   0.61414265    -8.870556    201.85497  0.010552853  0.009479207          396 
 1595000   0.61083302   -8.8593903     201.4005  0.010522492 0.0094703009          376 
 1596000   0.61535649   -8.8671986    201.55222  0.010523821 0.0094613981          391 
 1597000   0.62213846   -8.8603978    201.68367  0.010524091 0.0094525106          406 
 1598000   0.62204328    -8.884749    201.63491  0.010514962 0.0094436227          408 
 1599000   0.60707212   -8.8715689    201.64827  0.010509082 0.0094347331          392 
 1600000   0.60290153   -8.8618836    201.73589  0.010507078 0.0094258505          408 
 1601000   0.61400954   -8.8867208     201.4425  0.010485244 0.0094169933          423 
 1602000    0.6013676   -8.8870945    201.19025  0.010465577 0.0094081329          408 
 1603000    0.6138299   -8.8568992    201.55143  0.010477824 0.0093992874          405 
 1604000   0.60657482   -8.8815488    201.75363  0.010481797 0.0093904382          388 
 1605000   0.60124642   -8.8743871     201.8147  0.010478437 0.0093816184          395 
 1606000   0.60243271    -8.902255    201.34722  0.010447656 0.0093727991          387 
 1607000   0.63140417   -8.8943449    201.35126  0.010441364 0.0093639929          408 
 1608000   0.59933686   -8.8785803    201.32138  0.010433322 0.0093551978          432 
 1609000   0.59544832   -8.8801389    201.37059  0.010429386 0.0093464123          407 
 1610000    0.6166994   -8.8953343    201.50534  0.010429883 0.0093376249          432 
 1611000    0.6047592    -8.892209    201.51103  0.010423703  0.009328851          410 
 1612000   0.61302424   -8.8883075     201.1959  0.010400946 0.0093201021          455 
 1613000   0.60998793   -8.8760569    201.60851  0.010415815 0.0093113583          445 
 1614000    0.6210102   -8.8844097    201.49722  0.010403615 0.0093026295          418 
 1615000   0.60887731   -8.8966413    201.15617  0.010379575 0.0092939084          424 
 1616000   0.61806732   -8.8902003    201.11572  0.010371066 0.0092851931          418 
 1617000   0.61444513   -8.8992609    201.58393  0.010388782 0.0092764926          408 
 1618000   0.60094974    -8.904085    201.59695  0.010383032 0.0092677871          413 
 1619000   0.61909136   -8.8995835    201.53536  0.010373449 0.0092591142          444 
 1620000   0.61317489   -8.8993839    201.21707  0.010350672 0.0092504336          427 
 1621000   0.59776455   -8.8967353    200.97296  0.010331738 0.0092417619          430 
 1622000   0.61283569   -8.9344396    201.29233  0.010341776 0.0092330917          442 
 1623000   0.59345666   -8.9134528    201.59818  0.010351108 0.0092244219          420 
 1624000   0.62107394   -8.9061548     201.0357  0.010315871  0.009215778          450 
 1625000   0.60040212   -8.9114917    201.03013  0.010309238 0.0092071312          437 
 1626000   0.60643753   -8.9094894    201.56958  0.010330544 0.0091985034          472 
 1627000   0.61164996   -8.9089354    201.15172  0.010302792 0.0091898696          458 
 1628000    0.6025095   -8.9115404    200.98218  0.010287786 0.0091812562          448 
 1629000    0.5989433   -8.9196716    200.91076  0.010277817 0.0091726501          452 
 1630000   0.60511509   -8.9160225    201.21249  0.010286937 0.0091640685          478 
 1631000   0.60665549   -8.9114736    201.31065  0.010285645 0.0091554885          422 
 1632000    0.6073596   -8.8969913    201.36282  0.010282007 0.0091469158          405 
 1633000   0.60125201   -8.8933736    201.32906  0.010273988 0.0091383481          432 
 1634000   0.58965692   -8.9222896    201.47011  0.010274893 0.0091297925          451 
 1635000   0.60462131   -8.9134297    201.10967  0.010250238 0.0091212525          447 
 1636000   0.60047825   -8.8943304    201.33645  0.010255524 0.0091127195          474 
 1637000   0.60712695   -8.9357219    201.23134  0.010243909  0.009104188          460 
 1638000   0.60893444   -8.9257507    201.28257  0.010240261 0.0090956755          442 
 1639000   0.61026294   -8.9177018    201.11635  0.010225562 0.0090871531          426 
 1640000   0.59228655   -8.9297123    201.00488  0.010213663 0.0090786486          457 
 1641000    0.5925596   -8.9460034    200.91313  0.010202779 0.0090701503          455 
 1642000    0.5949714   -8.9211743    201.15315  0.010208747 0.0090616606          497 
 1643000   0.59774469   -8.9249955    201.11926  0.010200815 0.0090531851          475 
 1644000   0.60035519   -8.9157693    201.14225  0.010195775 0.0090447325          471 
 1645000   0.60084007   -8.8915515    200.93001  0.010178825 0.0090363005          468 
 1646000   0.60081099    -8.929876    200.98858  0.010175606 0.0090278638          483 
 1647000   0.59849846   -8.9393747    201.17423  0.010178822 0.0090194361          494 
 1648000   0.58271128   -8.9270356    201.15894  0.010171872 0.0090110118          493 
 1649000   0.58612344   -8.9217097    200.98116  0.010156719 0.0090026032          489 
 1650000   0.58138068    -8.943158    200.48351   0.01012543 0.0089941988          499 
 1651000   0.59633576   -8.9136956    201.30414  0.010160718 0.0089858031          493 
 1652000   0.59722474   -8.9328534    201.17547  0.010148076 0.0089774254          485 
 1653000   0.58776502   -8.9125781    201.45106  0.010155831 0.0089690555          493 
 1654000    0.6027172   -8.9311237    200.96331  0.010125116 0.0089606976          476 
 1655000   0.58831233   -8.9150343    201.11437  0.010126605  0.008952344          497 
 1656000     0.608521   -8.9501046    200.85592  0.010107484  0.008943992          512 
 1657000   0.59639549   -8.9334806     201.0777  0.010112538 0.0089356476          492 
 1658000   0.58939688   -8.9504694    200.98487  0.010101773 0.0089273286          506 
 1659000   0.59278558   -8.9467925    201.15551  0.010104255 0.0089190254          487 
 1660000   0.60222149   -8.9579257    201.03467  0.010092102 0.0089107317          510 
 1661000   0.57841038   -8.9457322    201.33957  0.010101323 0.0089024408          459 
 1662000   0.59820096   -8.9364404    201.16875   0.01008668 0.0088941646          494 
 1663000   0.58292036   -8.9419867    200.71661  0.010057958 0.0088858954          503 
 1664000   0.59329208   -8.9377208    200.77768  0.010054972 0.0088776136          483 
 1665000   0.59367134   -8.9254231    200.99097  0.010059608 0.0088693452          508 
 1666000   0.57318687   -8.9627966    201.02932  0.010055488 0.0088610998          484 
 1667000   0.58867262   -8.9480992    201.02064  0.010049022 0.0088528497          515 
 1668000   0.58972842   -8.9362544    201.13713  0.010048817 0.0088446171          505 
 1669000   0.58071267   -8.9399128    200.72316  0.010022127 0.0088364013          541 
 1670000    0.5919301   -8.9607825    200.83015  0.010021464 0.0088281794          532 
 1671000   0.59700065   -8.9479019    200.74488  0.010011215 0.0088199824          526 
 1672000   0.56948818   -8.9394027    200.76415  0.010006188 0.0088117829          491 
 1673000   0.58853706   -8.9512713    200.87197  0.010005577 0.0088036032          500 
 1674000   0.57149885   -8.9463689    201.16425   0.01001415 0.0087954317          486 
 1675000   0.58946416   -8.9488506    200.92248 0.0099961433 0.0087872608          505 
 1676000   0.57696696   -8.9390864    201.06976  0.009997502 0.0087791088          480 
 1677000   0.59051777   -8.9512038    200.67821 0.0099720834 0.0087709663          504 
 1678000   0.57925792   -8.9604556    200.78002 0.0099711968 0.0087628238          499 
 1679000   0.57993947   -8.9443161    200.83081 0.0099677789 0.0087546944          497 
 1680000   0.58455172   -8.9306011    200.68143 0.0099544359 0.0087465626          486 
 1681000   0.57694746   -8.9557544    201.03061 0.0099658246  0.008738458          503 
 1682000   0.57754722    -8.961763    200.75864  0.009946425 0.0087303496          518 
 1683000   0.58586444   -8.9656282    200.43614 0.0099245465 0.0087222622          511 
 1684000   0.60640814   -8.9491053    201.12221 0.0099526035 0.0087141758          490 
 1685000   0.58182432   -8.9507526    200.41834 0.0099118864 0.0087060997          499 
 1686000   0.57595728   -8.9550831    200.86137 0.0099279047 0.0086980278          467 
 1687000    0.5673827   -8.9617983    200.43694 0.0099010542   0.00868997          495 
 1688000   0.58776247   -8.9533304    200.80372 0.0099132957 0.0086819145          482 
 1689000   0.56796371   -8.9779721    200.78611 0.0099065577 0.0086738668          493 
 1690000   0.58502891   -8.9574565    201.07145 0.0099147657 0.0086658252          514 
 1691000   0.57221078   -8.9423122    201.17069 0.0099137929 0.0086578045          521 
 1692000   0.57547835   -8.9749467     200.9308 0.0098961188 0.0086497899          537 
 1693000   0.56132532   -8.9687332    200.45325 0.0098667677 0.0086417915          509 
 1694000   0.57599703   -8.9635429    200.98383 0.0098870439 0.0086337899          504 
 1695000   0.56939532   -8.9690179    200.86934  0.009875582 0.0086257963          493 
 1696000   0.57377397   -8.9725494    200.95774 0.0098741027 0.0086178125          508 
 1697000   0.56887032   -8.9625684     200.9099 0.0098659351 0.0086098439          521 
 1698000   0.56449698   -8.9762334    200.62388 0.0098460877 0.0086018788          485 
 1699000   0.56363908   -8.9611349    200.70115 0.0098440823 0.0085939211          521 
 1700000   0.58402413   -8.9818883    200.67343 0.0098369327 0.0085859863          525 
 1701000   0.56588371   -8.9763829    200.86226 0.0098404009 0.0085780529          524 
 1702000   0.56471269   -8.9607599    200.62961  0.009823228 0.0085701257          504 
 1703000   0.58437616   -8.9894435    200.61758 0.0098168714   0.00856221          533 
 1704000   0.57485883   -8.9792728    200.62244 0.0098113478  0.008554305          487 
 1705000   0.57074605   -8.9822718    200.62739 0.0098058353 0.0085464062          522 
 1706000   0.57199664   -8.9544927    200.70175 0.0098037196 0.0085385136          485 
 1707000   0.57262292   -8.9764634    200.74056  0.009799871 0.0085306235          492 
 1708000   0.56766209   -8.9779073    200.57552 0.0097860811 0.0085227501          492 
 1709000   0.57506701   -8.9973862     200.5977 0.0097814363 0.0085148867          522 
 1710000   0.56436616   -8.9908428    200.73613 0.0097824625 0.0085070252          495 
 1711000   0.56648413   -8.9845995    200.47473 0.0097640136 0.0084991691          517 
 1712000   0.56637653   -9.0031485     200.5027 0.0097596717 0.0084913228          494 
 1713000   0.56526014   -8.9813396    200.67184 0.0097622028 0.0084834943          507 
 1714000   0.55553238   -8.9765392    200.93405 0.0097692555 0.0084756631          520 
 1715000   0.56294866   -8.9797119    200.80544 0.0097573099 0.0084678404          509 
 1716000   0.57234476   -8.9913817    200.45095 0.0097344088 0.0084600408          505 
 1717000   0.56895755   -8.9886107    200.52603 0.0097323837 0.0084522534          500 
 1718000   0.57060027   -8.9851252    200.60026 0.0097303191 0.0084444664          499 
 1719000   0.57451393   -9.0036738    200.60161 0.0097247242 0.0084366988          497 
 1720000   0.56983406   -8.9989818    200.67728 0.0097227364  0.008428942          519 
 1721000   0.57315098   -8.9755715    200.66618 0.0097165497 0.0084211913          524 
 1722000   0.56892797    -8.988655     200.5619 0.0097058602 0.0084134357          485 
 1723000   0.56308155   -8.9838726    200.61175 0.0097026382 0.0084057031          504 
 1724000   0.56612764    -8.994813    200.79905 0.0097060641 0.0083979707          502 
 1725000   0.56851144   -8.9746549    200.59016 0.0096903457 0.0083902529          491 
 1726000   0.55665414   -8.9713086    200.66836  0.009688507 0.0083825395          510 
 1727000   0.57573666   -8.9902581    200.58214 0.0096787366 0.0083748343          510 
 1728000   0.56640446   -9.0130079    200.43884 0.0096662251 0.0083671382          509 
 1729000   0.56941526   -9.0096367    200.04866 0.0096418286 0.0083594564          523 
 1730000   0.55997017   -8.9803376    200.60448 0.0096630287 0.0083517833          507 
 1731000    0.5697911   -8.9930175    200.60725 0.0096575797 0.0083441217          511 
 1732000   0.57172271    -8.994199    200.64552 0.0096538454 0.0083364672          519 
 1733000   0.56639817   -8.9678331    200.64794 0.0096483912 0.0083288279          515 
 1734000   0.56318473   -8.9883989    200.86911 0.0096534559 0.0083211919          523 
 1735000   0.57014127   -8.9824659    200.73692  0.009641543 0.0083135705          523 
 1736000   0.56992971   -9.0093026    200.56577 0.0096277733 0.0083059557          511 
 1737000    0.5601182   -9.0096322    200.58601 0.0096232013 0.0082983322          503 
 1738000     0.561927    -8.988423    200.64486  0.009620486 0.0082907333          486 
 1739000   0.55322069   -9.0101259    200.61883 0.0096137068 0.0082831395          513 
 1740000   0.55376315   -9.0135436    200.61787 0.0096081356 0.0082755493          491 
 1741000   0.56187338   -9.0177039    200.63714 0.0096035392 0.0082679691          480 
 1742000   0.55698583   -8.9929813    200.34045 0.0095838333 0.0082604003          532 
 1743000   0.55847778    -8.998654    200.36364 0.0095794434 0.0082528356          531 
 1744000   0.56150255   -8.9900071    200.38245 0.0095748496 0.0082452737          517 
 1745000   0.53508646    -9.012565    200.59532 0.0095795282 0.0082377246          511 
 1746000   0.55640686   -9.0021022    200.47434 0.0095682675 0.0082301817          510 
 1747000   0.54412594   -8.9953471     200.4245 0.0095604129 0.0082226552          514 
 1748000   0.55318143    -9.014516    200.24389 0.0095463332 0.0082151381          483 
 1749000   0.54953321   -9.0150852     200.1351 0.0095356917 0.0082076334          543 
 1750000   0.55050758   -9.0097889    200.45281  0.009545372 0.0082001341          508 
 1751000   0.57032335   -9.0218988    200.04141 0.0095203412 0.0081926407          491 
 1752000   0.54460257   -9.0293895    200.34297 0.0095292507 0.0081851511          505 
 1753000   0.54861266   -9.0257559    200.26056 0.0095198973 0.0081776725          519 
 1754000   0.55198992   -9.0033291     200.3589 0.0095191419 0.0081702123          528 
 1755000   0.56931794   -9.0070739    200.23133 0.0095076607 0.0081627604          526 
 1756000   0.56300962   -8.9961548    200.48741 0.0095143988 0.0081553132          525 
 1757000   0.55335808   -8.9923751    200.38155 0.0095039627 0.0081478731          528 
 1758000   0.54366663   -9.0203362    200.26663 0.0094931089  0.008140442          494 
 1759000   0.54909954   -9.0246052    200.40387 0.0094942142  0.008133017          511 
 1760000   0.55079581   -9.0198079    200.34695 0.0094861246 0.0081255973          507 
 1761000   0.55046861    -9.017659    200.47292  0.009486699 0.0081181885          487 
 1762000   0.54334081   -8.9987478    200.35522 0.0094757484 0.0081107925          475 
 1763000   0.54650568   -9.0373894     200.2462 0.0094652204  0.008103401          511 
 1764000   0.55266494   -9.0302649    200.25355 0.0094602015 0.0080960231          515 
 1765000   0.54867691   -9.0276542    200.08103 0.0094466966 0.0080886414          482 
 1766000   0.55349351   -8.9928604    200.39719  0.009456266 0.0080812772          520 
 1767000   0.54615798   -9.0217271    200.17508 0.0094404397 0.0080739149          500 
 1768000   0.54581701     -9.03044    200.33564 0.0094426678 0.0080665532          486 
 1769000   0.55095946    -9.018319    200.39093 0.0094399345  0.008059206          498 
 1770000    0.5523578   -9.0175386    200.25366 0.0094281385 0.0080518664          510 
 1771000   0.55888093    -9.012007    200.63501 0.0094407592 0.0080445435          536 
 1772000   0.55631921   -9.0176859    200.53597 0.0094307736 0.0080372202          501 
 1773000   0.54120524   -9.0212431    200.41126 0.0094195931 0.0080299085          489 
 1774000   0.54226835   -9.0146617    200.59049 0.0094227025 0.0080226073          497 
 1775000    0.5413538   -9.0186573    200.25034 0.0094014245 0.0080153184          490 
 1776000   0.54769991     -9.02263    200.46619 0.0094062591 0.0080080365          484 
 1777000   0.54870269   -9.0307002    200.30919 0.0093936029 0.0080007501          501 
 1778000    0.5263568   -9.0270931    200.53761 0.0093990254 0.0079934815          491 
 1779000    0.5412441   -9.0402742    200.32872 0.0093839575 0.0079862189          520 
 1780000   0.52917957   -9.0213499    200.06575  0.009366374 0.0079789709          490 
 1781000   0.54682669   -9.0358909    200.12364 0.0093638239  0.007971725          464 
 1782000   0.54829375   -9.0304292    200.33574 0.0093684875 0.0079644889          496 
 1783000   0.53987247   -9.0286877    200.13079 0.0093536545 0.0079572569          508 
 1784000   0.54008368   -9.0110985    200.36566 0.0093593824 0.0079500406          510 
 1785000   0.53947233   -9.0306585    200.40442 0.0093559489 0.0079428339          524 
 1786000   0.54226274   -9.0278371    200.07803 0.0093354809 0.0079356306          493 
 1787000   0.53161817   -9.0308239     200.1393 0.0093331143 0.0079284382          512 
 1788000    0.5292116   -9.0366037    200.49793 0.0093446091  0.007921259          517 
 1789000   0.54170954   -9.0242892    200.35285 0.0093326278 0.0079140829          504 
 1790000   0.54155459   -9.0229023    200.03677 0.0093126987 0.0079069154          516 
 1791000   0.54259989   -9.0276549    200.28712 0.0093191475 0.0078997527          537 
 1792000   0.52755613   -9.0355044    200.23331 0.0093114448 0.0078926011          517 
 1793000   0.53801658   -9.0437111    200.11213 0.0093006197 0.0078854577          518 
 1794000   0.53900819   -9.0178717    200.33204 0.0093056504 0.0078783247          533 
 1795000   0.52892405   -9.0182097    200.24001 0.0092961938 0.0078711931          484 
 1796000   0.53880985    -9.034052    200.04678 0.0092820519 0.0078640719          519 
 1797000   0.53189303    -9.041533    200.05385 0.0092772144 0.0078569571          499 
 1798000   0.54009003   -9.0456043    200.27522 0.0092823146 0.0078498535          518 
 1799000   0.53884474   -9.0307209    200.31858 0.0092791635 0.0078427558          523 
 1800000    0.5333091   -9.0557928     199.9703 0.0092578844 0.0078356672          496 
 1801000   0.52008313   -9.0365411    200.07009  0.009257361 0.0078285843          528 
 1802000    0.5415992   -9.0430779    200.00711 0.0092493115 0.0078215097          495 
 1803000    0.5202642   -9.0359887    200.15126 0.0092508437  0.007814439          490 
 1804000    0.5399015   -9.0378815     200.1266 0.0092445769 0.0078073724          506 
 1805000   0.53752265    -9.049655    200.08042 0.0092373231 0.0078003234          522 
 1806000   0.54372115   -9.0548693    199.99137 0.0092280994 0.0077932831          534 
 1807000   0.52425648   -9.0321499     199.8884 0.0092182439 0.0077862453          528 
 1808000   0.53232345   -9.0566164    199.93504 0.0092152952 0.0077792191          503 
 1809000   0.52920064   -9.0557986    199.96234 0.0092114587 0.0077721926          498 
 1810000   0.52489072   -9.0470657    200.29412 0.0092216445 0.0077651809          514 
 1811000   0.52337295   -9.0397833    199.67413 0.0091880236 0.0077581762          541 
 1812000   0.52955836   -9.0404028    199.81357 0.0091893659 0.0077511814          498 
 1813000   0.53898932   -9.0548845    200.06527 0.0091958663 0.0077441955          506 
 1814000   0.52716084   -9.0382787    200.13475 0.0091939889 0.0077372128          530 
 1815000   0.52646986   -9.0678111    200.10905 0.0091877431 0.0077302358          527 
 1816000   0.52820515   -9.0805122    199.90843 0.0091734777 0.0077232608          502 
 1817000   0.53045167   -9.0684884     199.6206 0.0091552283 0.0077162997          545 
 1818000   0.53292963   -9.0508637    199.93445 0.0091645787 0.0077093459          526 
 1819000   0.50670475   -9.0725347    199.82521  0.009154536  0.007702408          524 
 1820000   0.52850293   -9.0519194    199.72004 0.0091446906 0.0076954673          526 
 1821000   0.51533838   -9.0645283    200.01736 0.0091532749 0.0076885336          529 
 1822000   0.52549571   -9.0603538     199.8776 0.0091418589   0.00768161          511 
 1823000   0.51899033   -9.0471169    199.86302 0.0091361776 0.0076747039          525 
 1824000   0.53261634   -9.0560673    199.68054 0.0091228319 0.0076677933          520 
 1825000   0.52617594   -9.0592805    199.74653 0.0091208459 0.0076608987          533 
 1826000   0.52589433   -9.0595081    199.95903 0.0091255491 0.0076540109          533 
 1827000   0.51759248   -9.0585066    200.28653 0.0091354921 0.0076471358          516 
 1828000   0.52316554   -9.0494709    199.73107 0.0091051729 0.0076402579          532 
 1829000   0.53087142   -9.0532024    199.99384 0.0091121671 0.0076333904          528 
 1830000   0.53078209   -9.0565126      199.821 0.0090993168 0.0076265298          520 
 1831000   0.52356248   -9.0747831    199.68714  0.009088255 0.0076196774          547 
 1832000   0.52754949   -9.0756614    199.53038 0.0090761636 0.0076128312          499 
 1833000   0.50968765   -9.0513426     199.8215 0.0090844473 0.0076060002          513 
 1834000   0.52130462    -9.048621    199.83469 0.0090800931 0.0075991778          507 
 1835000   0.52026264    -9.053822    199.58194 0.0090636667  0.007592363          548 
 1836000   0.50568906   -9.0701689    199.86144 0.0090714163 0.0075855492          519 
 1837000    0.5218364   -9.0691668    200.00696 0.0090730793 0.0075787403          537 
 1838000   0.51458209   -9.0851144    199.76599 0.0090572174 0.0075719379          513 
 1839000   0.52376367   -9.0809307    199.45062 0.0090380014 0.0075651485          542 
 1840000   0.52699557   -9.0729331    199.73121 0.0090457976 0.0075583672          539 
 1841000   0.52554143   -9.0503536    199.48644 0.0090298043 0.0075516045          525 
 1842000   0.52080895   -9.0658942     199.8026 0.0090392057 0.0075448424          528 
 1843000   0.52763537   -9.0720006    199.97132 0.0090419299 0.0075380865          512 
 1844000   0.51599549   -9.0803691    199.88108 0.0090329485 0.0075313452          542 
 1845000   0.52191173   -9.0773913    199.72697 0.0090210918 0.0075246065          506 
 1846000   0.52100866   -9.0476973    199.46476 0.0090043682 0.0075178698          542 
 1847000   0.52152549   -9.0821431    199.64412 0.0090075852 0.0075111473          501 
 1848000   0.51900149   -9.0805329    199.60509 0.0090009511 0.0075044317          523 
 1849000   0.52353592   -9.0738587    199.53131 0.0089927578 0.0074977197          525 
 1850000    0.5131702   -9.0826649    199.68146 0.0089946602 0.0074910217          534 
 1851000     0.518134   -9.0960557    199.53782 0.0089833343 0.0074843256          543 
 1852000   0.51904312    -9.097056    199.33408 0.0089693162 0.0074776354          506 
 1853000   0.52107342   -9.0894783    199.71662 0.0089816794 0.0074709493          550 
 1854000   0.50213054     -9.08731    199.58606 0.0089709665 0.0074642698          533 
 1855000   0.51601475   -9.0897107    199.57787 0.0089657625 0.0074576008          514 
 1856000   0.50827242   -9.0821488    199.34418 0.0089504391  0.007450945          530 
 1857000   0.51679297   -9.0931069    199.82836 0.0089673469 0.0074443009          526 
 1858000   0.50992048   -9.0882204    199.84566 0.0089632966 0.0074376564          525 
 1859000   0.50735211   -9.0682848    199.66007 0.0089501554 0.0074310176          519 
 1860000   0.50959759   -9.0944854    199.75054 0.0089493971 0.0074243951          557 
 1861000   0.51209988   -9.0843621    199.50845 0.0089337474 0.0074177813          536 
 1862000   0.50429946   -9.0766145    199.62896 0.0089343428 0.0074111745          510 
 1863000    0.5101579   -9.0907876    199.44725 0.0089214191 0.0074045644          517 
 1864000   0.51388992   -9.0893986    199.69884 0.0089278809 0.0073979755          529 
 1865000   0.51661236   -9.0835442    199.71184 0.0089236746 0.0073913932          557 
 1866000   0.50352537   -9.1009307    199.77971 0.0089219233 0.0073848152          534 
 1867000   0.50320498   -9.0831143     199.4246 0.0089012944 0.0073782481          519 
 1868000   0.49978391   -9.0813652    199.80052 0.0089132996 0.0073716881          525 
 1869000   0.50654845   -9.0743267    199.85731 0.0089110627 0.0073651381          525 
 1870000   0.52128445    -9.077244    199.96028 0.0089108857 0.0073585898          510 
 1871000   0.51397001   -9.0684047    199.83903 0.0089007229 0.0073520564          527 
 1872000    0.4965487   -9.0844926    199.26603 0.0088704607 0.0073455333          528 
 1873000   0.50486571   -9.0687073    199.95608 0.0088964266 0.0073390139          498 
 1874000   0.50002208   -9.0867423    199.57644 0.0088747971 0.0073325044          514 
 1875000    0.5053749   -9.0925145    199.21864 0.0088541617 0.0073259894          513 
 1876000   0.50146847   -9.0955624    199.54911 0.0088641216 0.0073194906          515 
 1877000   0.50476192   -9.0883368    199.60269 0.0088617783 0.0073129967          511 
 1878000     0.496678   -9.1000386    199.81862  0.008866641 0.0073065098          517 
 1879000   0.49619004   -9.0874252     199.7123  0.008857207 0.0073000318          520 
 1880000    0.5142356   -9.0992846    199.58335 0.0088467797 0.0072935505          531 
 1881000     0.492099   -9.0911704    199.62871 0.0088440861 0.0072870898          522 
 1882000   0.50660317   -9.0890418     199.7345 0.0088440709 0.0072806275          516 
 1883000   0.50412808   -9.0788535    199.51286 0.0088295652 0.0072741789          512 
 1884000   0.50757533    -9.105158       199.64 0.0088305024 0.0072677301          535 
 1885000   0.50348511   -9.1023165    199.14745 0.0088040427 0.0072612954          512 
 1886000   0.50653608   -9.0940355    199.40789 0.0088108826 0.0072548633          541 
 1887000   0.50608942   -9.1101817    199.46271 0.0088086342 0.0072484405          531 
 1888000   0.49454738   -9.1050814    199.64911 0.0088121958 0.0072420232          532 
 1889000   0.49380737   -9.0939826    199.56475 0.0088038094 0.0072356219          505 
 1890000   0.50486609   -9.0825878    199.58537 0.0088000603 0.0072292235          523 
 1891000   0.49703231   -9.0840245    199.20605 0.0087786907 0.0072228341          512 
 1892000   0.49954537   -9.1069009    199.38056 0.0087817373 0.0072164466          525 
 1893000   0.48766879   -9.1142115    199.51427 0.0087829843 0.0072100669          533 
 1894000    0.4960298   -9.0870098    199.40675 0.0087736164 0.0072036991          518 
 1895000   0.49931311   -9.0955563     199.5608 0.0087757607 0.0071973423          536 
 1896000   0.48596787   -9.1120876    199.39623 0.0087638991 0.0071909866          522 
 1897000   0.49829052   -9.1086539    199.39864 0.0087593851 0.0071846404          532 
 1898000   0.49581335   -9.1042285    199.45736 0.0087573481 0.0071782998          549 
 1899000   0.49797731   -9.1056323    199.25321  0.008743778  0.007171967          511 
 1900000   0.48372691   -9.1140738    199.23393 0.0087383301 0.0071656358          527 
 1901000   0.50464769   -9.1321192    199.28571 0.0087360033 0.0071593132          510 
 1902000   0.49283519   -9.1153049    199.40356 0.0087365738  0.007152991          526 
 1903000   0.49660243   -9.0888875    199.81732 0.0087501017 0.0071466861          504 
 1904000   0.49869183   -9.1154066    199.17798 0.0087175237 0.0071403883          532 
 1905000    0.4911144   -9.1044307    199.26029 0.0087165479 0.0071340974          527 
 1906000   0.49135034   -9.0978664    199.60489 0.0087270414 0.0071278129          495 
 1907000   0.49414309   -9.1084289    199.35569 0.0087115753 0.0071215338          519 
 1908000   0.49151743   -9.1028387    199.06089 0.0086941339  0.007115263          535 
 1909000   0.48387847   -9.1116608      199.662 0.0087158197 0.0071089919          504 
 1910000   0.48427229   -9.0988269    199.36168 0.0086981537 0.0071027357          521 
 1911000   0.49162302   -9.1087526    199.45602 0.0086977157 0.0070964808          525 
 1912000   0.47927558   -9.0981725    199.36651 0.0086892657 0.0070902419          527 
 1913000   0.49167747   -9.1144889    199.44242   0.00868803 0.0070840038          542 
 1914000   0.48156223   -9.1084104     199.3265 0.0086784441 0.0070777729          539 
 1915000   0.49033234   -9.1232912    199.28722 0.0086722027 0.0070715553          544 
 1916000   0.48928386   -9.1098718    199.30624 0.0086685039 0.0070653396          525 
 1917000   0.48951623    -9.129455    199.23591 0.0086609247 0.0070591322          520 
 1918000   0.48981162   -9.1273615    199.27273 0.0086580089 0.0070529307          524 
 1919000   0.48746011   -9.1010255    199.46381 0.0086617949 0.0070467394          546 
 1920000   0.49156908    -9.122508    199.54429 0.0086607764 0.0070405515          529 
 1921000   0.48659137   -9.1168033    199.23261 0.0086427474 0.0070343748          549 
 1922000   0.47799301   -9.1069091    199.16976 0.0086355254 0.0070282013          507 
 1923000   0.49282832   -9.1275008    199.07073 0.0086267434  0.007022036          528 
 1924000   0.48152822   -9.1164104    199.47184 0.0086396328 0.0070158818          529 
 1925000   0.48665199   -9.1182388    199.41121 0.0086325199 0.0070097314          546 
 1926000   0.48304965   -9.1070873    199.00834 0.0086106067 0.0070035869          505 
 1927000   0.47714708   -9.1166105    199.25504 0.0086168066 0.0069974488          505 
 1928000   0.48112577   -9.1172757    199.37165 0.0086173776 0.0069913188          534 
 1929000   0.49295085   -9.1359351    199.43525 0.0086156577 0.0069851927          510 
 1930000   0.47025826   -9.1191584    199.12826 0.0085979388 0.0069790741          512 
 1931000   0.47360187   -9.1197211     199.2423 0.0085984074 0.0069729627          520 
 1932000   0.48144172   -9.1270676    199.22709  0.008593301 0.0069668598          522 
 1933000   0.48064687   -9.1324677    199.03274 0.0085804769 0.0069607577          526 
 1934000   0.48529326    -9.129989    199.07187 0.0085777263 0.0069546664          537 
 1935000   0.48702595   -9.1347573    199.31858 0.0085839181 0.0069485802          539 
 1936000   0.48410142   -9.1240296    199.27025 0.0085774038 0.0069425022          510 
 1937000   0.49337496   -9.1329474    199.25222 0.0085722002 0.0069364312          539 
 1938000   0.48934467   -9.1422238    198.95851 0.0085551475 0.0069303665          505 
 1939000   0.47202549   -9.1301364    199.33854 0.0085670681 0.0069243096          508 
 1940000   0.48220091   -9.1361561    198.90603 0.0085440735 0.0069182567          522 
 1941000   0.47159667   -9.1340993    199.27342 0.0085554446 0.0069122112          521 
 1942000   0.47536692   -9.1264602    199.11747 0.0085443475 0.0069061746          523 
 1943000   0.47550457   -9.1278646    199.30636  0.008548051 0.0069001387          523 
 1944000   0.48792739   -9.1472592    199.19777 0.0085389989 0.0068941098          547 
 1945000   0.47444765   -9.1330153    198.99326 0.0085258464 0.0068880866          553 
 1946000   0.47572766   -9.1352961    198.92371 0.0085184869   0.00688207          550 
 1947000   0.47818573   -9.1365158    198.73096 0.0085058622 0.0068760581          500 
 1948000   0.48367966   -9.1356652    199.18351 0.0085208553 0.0068700621          531 
 1949000   0.47398165   -9.1325188    199.07036 0.0085116453 0.0068640721          504 
 1950000   0.47692665   -9.1395991    199.09369 0.0085082772 0.0068580892          542 
 1951000   0.47558676    -9.141738    199.29273 0.0085124181 0.0068521124          527 
 1952000   0.47343758   -9.1467135    199.00231 0.0084956586 0.0068461448          507 
 1953000   0.47860237   -9.1310216    199.31851 0.0085048009 0.0068401864          500 
 1954000   0.46745238   -9.1294273    199.00147  0.008486927  0.006834232          526 
 1955000   0.47294922   -9.1355004    199.24102 0.0084927971 0.0068282873          529 
 1956000   0.46580852   -9.1467808    199.07258 0.0084812789  0.006822345          543 
 1957000   0.47271018   -9.1495147    199.20199 0.0084824558 0.0068164053          544 
 1958000   0.46911113   -9.1408368    199.07179 0.0084725821 0.0068104746          516 
 1959000   0.46992507   -9.1396971    198.89216 0.0084606159 0.0068045505          535 
 1960000   0.47751719   -9.1477138    199.08554 0.0084645211 0.0067986319          526 
 1961000   0.47314609   -9.1570961    199.00039 0.0084565863 0.0067927233          523 
 1962000   0.47710329   -9.1412009    199.20131 0.0084608099 0.0067868179          546 
 1963000   0.48243261   -9.1561755    199.16928 0.0084551403  0.006780923          523 
 1964000    0.4827395   -9.1403058    199.00506 0.0084438671 0.0067750351          507 
 1965000   0.46993984   -9.1663595    199.16504 0.0084463547 0.0067691567          537 
 1966000   0.47742541   -9.1497998     199.0173 0.0084357961 0.0067632828          531 
 1967000   0.46212651   -9.1518214    199.33676 0.0084450416 0.0067574144          538 
 1968000   0.46744754   -9.1602838    198.91242 0.0084227822 0.0067515529          529 
 1969000    0.4609325   -9.1658781    198.67567 0.0084084845 0.0067456982          508 
 1970000   0.47340179   -9.1588722    199.22437 0.0084274268 0.0067398533          533 
 1971000   0.47252875   -9.1432465    198.98014 0.0084128251 0.0067340105          531 
 1972000   0.46093329     -9.14201    198.81262   0.00840148 0.0067281767          514 
 1973000   0.47364234   -9.1324332    199.13337  0.008410769 0.0067223505          542 
 1974000   0.46660874   -9.1567229    199.01155 0.0084013657 0.0067165301          522 
 1975000   0.45994578   -9.1567902    199.05592 0.0083989838 0.0067107202          529 
 1976000   0.46247918   -9.1392144    198.72483 0.0083807705 0.0067049132          527 
 1977000   0.46638524   -9.1503059    199.05382 0.0083903987 0.0066991156          506 
 1978000   0.46805186   -9.1421392    198.93068 0.0083809689 0.0066933188          522 
 1979000    0.4585616   -9.1528416    198.85036  0.008373352 0.0066875337          530 
 1980000   0.45488586   -9.1594408    199.00696 0.0083757138 0.0066817526          541 
 1981000   0.46788149   -9.1507451    199.36884 0.0083867086 0.0066759803          520 
 1982000   0.46286024   -9.1494231    198.89056 0.0083623678 0.0066702149          552 
 1983000   0.46136614   -9.1618176    198.93458 0.0083600007 0.0066644517          548 
 1984000   0.46832373   -9.1724085    198.84904 0.0083521941 0.0066586986          527 
 1985000   0.45236034   -9.1536007    199.07292 0.0083573854 0.0066529507          542 
 1986000   0.46219329   -9.1647997     198.8254  0.008342791 0.0066472107          528 
 1987000   0.45551491   -9.1478586    199.17167 0.0083531149 0.0066414782          528 
 1988000   0.46124782   -9.1637247    198.95799 0.0083399559 0.0066357509          511 
 1989000   0.45502269   -9.1764274    198.69364 0.0083246872   0.00663003          523 
 1990000   0.46450469   -9.1565009    198.83692 0.0083265043 0.0066243114          521 
 1991000   0.46498918   -9.1672123    198.92526 0.0083260197 0.0066185974          534 
 1992000   0.45912347   -9.1539344    198.72761 0.0083135712 0.0066128943          517 
 1993000   0.45411668   -9.1658903    198.90656 0.0083168823 0.0066071989          547 
 1994000   0.46118903   -9.1550581    198.74852 0.0083061068 0.0066015134          516 
 1995000   0.46760531   -9.1566077    198.86127 0.0083066528 0.0065958331          513 
 1996000   0.45909617   -9.1749796    198.92774 0.0083052662 0.0065901566          549 
 1997000   0.45523427   -9.1635943    198.66784 0.0082902622 0.0065844849          507 
 1998000   0.45482343   -9.1505379    199.34709 0.0083144431 0.0065788242          528 
 1999000   0.44982977   -9.1562158    198.71786 0.0082840529 0.0065731638          536 
 2000000   0.45191886   -9.1538151    198.80809 0.0082836705 0.0065675156          516 
 2001000   0.45502676   -9.1711791    198.97142 0.0082863329 0.0065618723          505 
 2002000   0.46139993   -9.1723542    198.82001 0.0082758912 0.0065562316          567 
 2003000   0.45906448   -9.1789736    198.85439 0.0082731898 0.0065505976          534 
 2004000   0.45142993   -9.1861023    198.80659 0.0082670738 0.0065449651          529 
 2005000   0.45210231   -9.1605807    198.56546 0.0082529286 0.0065393465          517 
 2006000   0.45616887   -9.1751708    198.61452 0.0082508526 0.0065337324          515 
 2007000   0.45871312   -9.1759571     198.6806  0.008249485 0.0065281199          493 
 2008000   0.44950897    -9.167528    198.70225 0.0082462753  0.006522519          533 
 2009000   0.44932971   -9.1606737    198.91132 0.0082508429 0.0065169228          520 
 2010000   0.44592596   -9.1777289    198.81171  0.008242608 0.0065113312          541 
 2011000   0.45277551   -9.1774655    198.54209 0.0082273365 0.0065057518          518 
 2012000   0.44951683    -9.186549    198.77001 0.0082326878 0.0065001764          518 
Loop time of 5067.68 on 48 procs for 2000000 steps with 4000 atoms

Performance: 68196.944 tau/day, 394.658 timesteps/s
99.4% CPU use with 48 MPI tasks x no OpenMP threads

MPI task timing breakdown:
Section |  min time  |  avg time  |  max time  |%varavg| %total
---------------------------------------------------------------
Pair    | 363.52     | 380.78     | 400.9      |  47.1 |  7.51
Neigh   | 33.859     | 35.302     | 37.207     |  14.0 |  0.70
Comm    | 320.95     | 343.22     | 361.51     |  55.9 |  6.77
Output  | 4.806      | 4.8075     | 4.8394     |   0.2 |  0.09
Modify  | 4244.2     | 4257.1     | 4270.3     |   8.8 | 84.01
Other   |            | 46.46      |            |       |  0.92

Nlocal:        83.3333 ave          89 max          77 min
Histogram: 3 4 0 7 5 11 6 4 4 4
Nghost:        2291.94 ave        2307 max        2275 min
Histogram: 3 1 7 4 5 9 5 6 5 3
Neighs:        15563.0 ave       16723 max       13984 min
Histogram: 2 0 5 5 8 5 4 10 5 4
FullNghs:      31125.6 ave       34135 max       28580 min
Histogram: 2 5 4 8 8 8 3 7 2 1

Total # of neighbors = 1494028
Ave neighs/atom = 373.50700
Neighbor list builds = 106551
Dangerous builds = 0

#clear
#
#next RN
#
#jump SELF
Total wall time: 1:24:31
