
units lj                  # Use reduced LJ style units
atom_style atomic         # Uncharged point particles
atom_modify map hash      # Needed for indexing of clusters etc
                          # Used to be able to find where atoms are in relation to each other.

lattice fcc 1.0 spacing 1 1 1
Lattice spacing in x,y,z = 1.5874011 1.5874011 1.5874011
region box block 0 10 0 10 0 10 units lattice
create_box 2 box
Created orthogonal box = (0.0000000 0.0000000 0.0000000) to (15.874011 15.874011 15.874011)
  3 by 4 by 4 MPI processor grid
create_atoms 1 box
Created 4000 atoms
  using lattice units in orthogonal box = (0.0000000 0.0000000 0.0000000) to (15.874011 15.874011 15.874011)
  create_atoms CPU = 0.016 seconds
set type 1 type/fraction 2 0.23 78393
Setting atom values ...
  954 settings made for type/fraction
mass 1 1.0
mass 2 1.0
pair_style lj/cut  3.5
pair_modify tail  yes
pair_coeff 1  1  1.0  1.0   # Intearaction between 1 and 1 set with epsilon = 1 and sigma = 1
pair_coeff 1  2  1.5  0.8
pair_coeff 2  2  0.5  0.88

write_data data.0
System init for write_data ...
Neighbor list info ...
  update every 1 steps, delay 10 steps, check yes
  max neighbors/atom: 2000, page size: 100000
  master list distance cutoff = 3.8
  ghost atom cutoff = 3.8
  binsize = 1.9, bins = 9 9 9
  1 neighbor lists, perpetual/occasional/extra = 1 0 0
  (1) pair lj/cut, perpetual
      attributes: half, newton on
      pair build: half/bin/atomonly/newton
      stencil: half/bin/3d
      bin: standard
WARNING: Not all mixed pair coeffs generated from mixing. Use write_data with 'pair ij' option to store all pair coeffs. (../write_data.cpp:312)


#############################
#   M E L T   S Y S T E M   #
#############################

velocity all create 2.4 9580093 mom yes dist gaussian # Assign velocities
                                                    # Temperature 2.4, random number seed, zero linear momentum
                                                                                # Gaussian distribution

timestep 0.002   # simulation timestep
thermo 1000       # output thermodynamic data every 1000 steps bf 100

# Define a fix  in this case with index 1 applied to all
# particles in the simulation. This fix is for simulations
# in the anisotropic NPT ensemble. Note that we use the MTK
# correction.
fix 1 all npt temp 2.4 2.4 0.1 iso 5.68 5.68 0.5 mtk yes tchain 5 pchain 5 # Use NPT ensemble
                                                                         # Set temperature and pressure and damping
                                                                         # Numbers of thermostats in chain and in barostat
run 10000          # run for 10000 steps
Per MPI rank memory allocation (min/avg/max) = 3.642 | 3.644 | 3.648 Mbytes
Step Temp E_pair E_mol TotEng Press Volume 
       0          2.4   -6.8530311            0   -3.2539311   -3.7471165         4000 
    1000    2.3965353    -4.885912            0   -1.2920077    5.5901794    4379.6769 
    2000    2.4517084   -4.8558825            0   -1.1792393    5.8783137    4367.0887 
    3000    2.3947399   -4.8790864            0   -1.2878746    5.5020644    4392.8713 
    4000    2.4013526   -4.8444247            0   -1.2432962    5.6436999    4390.3971 
    5000    2.4556894   -4.9006738            0   -1.2180606    5.5835308    4379.4425 
    6000    2.3509431   -4.9445397            0   -1.4190066    5.5713945    4357.5826 
    7000    2.3821583   -4.8440097            0   -1.2716656    5.6361005    4406.1837 
    8000     2.435349   -4.8711542            0   -1.2190439    5.6039785    4384.4532 
    9000    2.4601388   -4.9123853            0   -1.2230998    5.6251445    4365.7267 
   10000    2.4494042   -4.8945029            0   -1.2213152    5.6341972    4374.3972 
Loop time of 2.37009 on 48 procs for 10000 steps with 4000 atoms

Performance: 729084.857 tau/day, 4219.241 timesteps/s
99.6% CPU use with 48 MPI tasks x no OpenMP threads

MPI task timing breakdown:
Section |  min time  |  avg time  |  max time  |%varavg| %total
---------------------------------------------------------------
Pair    | 0.99973    | 1.0656     | 1.2034     |   3.6 | 44.96
Neigh   | 0.19864    | 0.20818    | 0.2364     |   1.3 |  8.78
Comm    | 0.71271    | 0.82418    | 0.93172    |   4.9 | 34.77
Output  | 0.00024306 | 0.00024649 | 0.00031043 |   0.0 |  0.01
Modify  | 0.19756    | 0.25707    | 0.31789    |   7.3 | 10.85
Other   |            | 0.0148     |            |       |  0.62

Nlocal:        83.3333 ave          91 max          76 min
Histogram: 4 5 4 4 9 4 7 2 3 6
Nghost:        1546.88 ave        1571 max        1515 min
Histogram: 1 0 2 5 6 15 8 7 3 1
Neighs:        8722.12 ave        9957 max        7601 min
Histogram: 2 5 7 7 5 5 7 5 1 4

Total # of neighbors = 418662
Ave neighs/atom = 104.66550
Neighbor list builds = 909
Dangerous builds = 221

# Equilibrate just above the melting temperature to avoid step fn in T

fix 1 all npt temp 1.25 1.25 0.1 iso 5.68 5.68 0.5 mtk yes tchain 5 pchain 5
run 2000
Per MPI rank memory allocation (min/avg/max) = 3.643 | 3.645 | 3.649 Mbytes
Step Temp E_pair E_mol TotEng Press Volume 
   10000    2.4494042   -4.8945029            0   -1.2213152    5.6341972    4374.3972 
   11000    1.2322236   -6.6227858            0   -4.7749124    5.5972553     3563.328 
   12000    1.2439066   -6.6389284            0   -4.7735349     5.362714    3572.5475 
Loop time of 0.528801 on 48 procs for 2000 steps with 4000 atoms

Performance: 653553.846 tau/day, 3782.140 timesteps/s
99.6% CPU use with 48 MPI tasks x no OpenMP threads

MPI task timing breakdown:
Section |  min time  |  avg time  |  max time  |%varavg| %total
---------------------------------------------------------------
Pair    | 0.22713    | 0.25585    | 0.29175    |   2.7 | 48.38
Neigh   | 0.032272   | 0.03518    | 0.040143   |   0.8 |  6.65
Comm    | 0.14778    | 0.18041    | 0.21755    |   3.2 | 34.12
Output  | 5.1928e-05 | 5.3118e-05 | 6.7799e-05 |   0.0 |  0.01
Modify  | 0.039428   | 0.052632   | 0.06322    |   3.1 |  9.95
Other   |            | 0.004675   |            |       |  0.88

Nlocal:        83.3333 ave          91 max          74 min
Histogram: 2 4 4 4 7 4 5 11 4 3
Nghost:        1768.35 ave        1790 max        1738 min
Histogram: 1 2 4 7 2 10 3 6 10 3
Neighs:        10720.0 ave       11974 max        9218 min
Histogram: 2 2 4 5 9 3 10 4 5 4

Total # of neighbors = 514559
Ave neighs/atom = 128.63975
Neighbor list builds = 142
Dangerous builds = 13

#############################
# L I N E A R  Q U E N C H  #
#############################

# Define solid atoms. This closely follows ten Wolde  Ruiz-Montero and Frenkel  Faraday Discuss  1996  104  93-110
# Compute components of the per-atom q6 vector
compute q6 all orientorder/atom degrees 1 6 components 6 nnn NULL cutoff 1.3 # compute the Q6 parameter.
                                                                             # Use all neighbours within 1.3 unit cell.

# get number of connections
compute coord_number all coord/atom orientorder q6 0.5

# An atom is solid if it has 8 or more connections (of a possible 14)
variable is_solid atom c_coord_number>=8
group solid dynamic all var is_solid    # Must be dynamic to update
dynamic group solid defined

# do clustering
compute cluster solid cluster/atom 1.3 # Create a cluster where all atoms within are solid and max 1.3 units from another member

# define chunks one chunk per cluster
compute clus_chunks solid chunk/atom c_cluster nchunk every compress yes  # Says which atoms are in which chunk

# count the size of each chunk
compute size_chunks solid property/chunk clus_chunks count


# Find the maximum entry in the vector of chunk sizes
variable max_n equal max(c_size_chunks)


# Thermo style which includes this variable
# thermo_style custom step temp pe vol v_max_n

thermo ${N}  # Print the thermo information every 100 steps
thermo 1000  

# Reset the npt fix at a lower temperature (below freezing)
fix 1  all npt temp  ${temp} ${temp}  0.1  iso  5.68  5.68  0.5  mtk yes tchain  5  pchain  5
fix 1  all npt temp  0.45 ${temp}  0.1  iso  5.68  5.68  0.5  mtk yes tchain  5  pchain  5
fix 1  all npt temp  0.45 0.45  0.1  iso  5.68  5.68  0.5  mtk yes tchain  5  pchain  5

dump dmp2 all dcd ${N} traj.dcd
dump dmp2 all dcd 1000 traj.dcd


compute msd all msd com yes
variable twopoint equal c_msd[4]/6/(step*dt+1.0e-6)
fix 9 all vector 10 c_msd[4]
variable fit equal slope(f_9)/6/(10*dt)
thermo_style custom step temp pe c_msd[4] v_twopoint v_fit v_max_n

fix 1 all npt temp 1.25 ${temp} 0.1 iso 5.68 5.68 0.5 mtk yes tchain 5 pchain 5
fix 1 all npt temp 1.25 0.45 0.1 iso 5.68 5.68 0.5 mtk yes tchain 5 pchain 5
run 5000000 # 5000000  # Run for this many steps
Neighbor list info ...
  update every 1 steps, delay 10 steps, check yes
  max neighbors/atom: 2000, page size: 100000
  master list distance cutoff = 3.8
  ghost atom cutoff = 3.8
  binsize = 1.9, bins = 9 9 9
  4 neighbor lists, perpetual/occasional/extra = 1 3 0
  (1) pair lj/cut, perpetual
      attributes: half, newton on
      pair build: half/bin/atomonly/newton
      stencil: half/bin/3d
      bin: standard
  (2) compute orientorder/atom, occasional
      attributes: full, newton on
      pair build: full/bin/atomonly
      stencil: full/bin/3d
      bin: standard
  (3) compute coord/atom, occasional
      attributes: full, newton on
      pair build: full/bin/atomonly
      stencil: full/bin/3d
      bin: standard
  (4) compute cluster/atom, occasional
      attributes: full, newton on
      pair build: full/bin/atomonly
      stencil: full/bin/3d
      bin: standard
Per MPI rank memory allocation (min/avg/max) = 9.778 | 9.784 | 9.790 Mbytes
Step Temp PotEng c_msd[4] v_twopoint v_fit v_max_n 
   12000    1.2439066   -6.6389284 5.9164568e-34 4.1086504e-36 8.3333333e+20            1 
   13000    1.2533021   -6.6552157   0.56193744 0.0036021629  0.046234718            4 
   14000    1.2559062   -6.6626586    1.0731444  0.006387764  0.044962014            1 
   15000    1.2632765    -6.653415    1.5796742 0.0087759675  0.043490934            2 
   16000    1.2523388   -6.6761372    2.1327701  0.011108177  0.043245705            1 
   17000    1.2573848   -6.6559787    2.6998058  0.013234342  0.044044394            1 
   18000    1.2454709   -6.7118448    3.2863889  0.015214763  0.044980877            3 
   19000    1.2297879   -6.6487472    3.7909806  0.016627108  0.045221227            1 
   20000    1.2289949   -6.6573992    4.3112135  0.017963389  0.044995271            1 
   21000    1.2731131   -6.6858512    4.7823161  0.018977445  0.044804689            1 
   22000    1.2549235   -6.6495213    5.2666622  0.019949478   0.04439596            2 
   23000    1.2506056    -6.703366    5.7034637  0.020664723  0.043908837            2 
   24000    1.2896312   -6.6823417    6.2566261  0.021724396  0.043626431            2 
   25000    1.2265794   -6.6432332    6.7625392  0.022541797  0.043359295            1 
   26000    1.2415983   -6.6773458     7.234254  0.023186711  0.043119643            2 
   27000    1.2654575   -6.6467803    7.7626969  0.023958941  0.042972097            2 
   28000     1.256142   -6.6632734    8.3476816   0.02484429  0.042909511            3 
   29000    1.2678443   -6.7021128    8.8396803   0.02540138  0.042944079            3 
   30000    1.2396826   -6.6671549    9.2986183  0.025829495  0.042872038            1 
   31000    1.2120204   -6.6896586    9.7943069  0.026328782   0.04282013            1 
   32000    1.2486237   -6.6672925    10.358838  0.026976139   0.04278534            1 
   33000    1.2436665   -6.6862502    10.871776  0.027453979  0.042788472            2 
   34000    1.2359581   -6.7120573    11.379269  0.027890365  0.042726543            3 
   35000    1.2209064   -6.7352117    11.800305  0.028095963  0.042682962            2 
   36000    1.2492481   -6.6557476     12.37014  0.028634582  0.042658248            1 
   37000    1.2101727    -6.705182    12.817281   0.02886775  0.042635283            1 
   38000    1.2601758   -6.6996351     13.19069  0.028926952  0.042537999            3 
   39000    1.2708481   -6.6679055    13.687722   0.02924727  0.042401404            2 
   40000    1.2390821   -6.6438233     14.23565  0.029657603  0.042294565            1 
   41000    1.2521346   -6.6717489    14.680938  0.029839304  0.042179598            1 
   42000    1.2349425   -6.6912536    15.037278  0.029835868  0.042038836            1 
   43000    1.2734543   -6.7071562    15.500814  0.030040337  0.041875706            2 
   44000    1.2390465   -6.6905825    15.980589  0.030266266  0.041736188            2 
   45000    1.2399169     -6.72781    16.354872    0.0302868  0.041585861            1 
   46000    1.2506477   -6.6721753    16.700985  0.030255407  0.041421736            4 
   47000    1.2331782   -6.6534659    17.290181  0.030656349  0.041253253            1 
   48000    1.2399086   -6.6432056    17.863299  0.031012672  0.041153321            1 
   49000    1.2298895   -6.7032013    18.211913  0.030972641  0.041043302            1 
   50000    1.2742546   -6.7039511    18.671271  0.031118784  0.040941441            1 
   51000    1.2294067   -6.6644546    19.187423  0.031351997  0.040833898            2 
   52000    1.2505063   -6.6603852    19.749678  0.031650124  0.040756794            2 
   53000    1.2200867   -6.6400123    20.291531  0.031904922    0.0407048            1 
   54000    1.2437116   -6.6684017    20.794651   0.03209051  0.040668628            3 
   55000    1.2623341   -6.6922026    21.374946  0.032386282  0.040662906            1 
   56000      1.23803   -6.7020984    21.831193  0.032486894  0.040684603            1 
   57000     1.218603   -6.6459457    22.410539  0.032763946  0.040698577            3 
   58000    1.2206833   -6.6306002    22.786075  0.032738613  0.040699807            1 
   59000    1.2580175   -6.7282776     23.09525   0.03262041  0.040675784            2 
   60000    1.2358211   -6.7005207    23.655723   0.03285517  0.040641627            2 
   61000        1.247   -6.6852122    24.088368  0.032907607  0.040615775            2 
   62000    1.2425746   -6.6690438    24.655906  0.033139658  0.040579846            1 
   63000    1.2356775   -6.7062893     25.03323  0.033112738  0.040558329            1 
   64000    1.2321243   -6.6824421    25.568887  0.033292822  0.040531576            1 
   65000    1.2372963   -6.6862979    25.930934  0.033244787  0.040501976            3 
   66000    1.2741295   -6.6958007    26.469907    0.0334216  0.040469887            1 
   67000    1.2503382   -6.6661448    26.962648  0.033535631  0.040444014       -1e+20 
   68000    1.2132654   -6.6545882    27.458512  0.033650137  0.040418107            2 
   69000    1.2237045    -6.668773    27.853606  0.033639621  0.040388076            3 
   70000     1.236695   -6.6449216    28.390881  0.033798668  0.040362001            1 
   71000    1.2511196   -6.6961067    29.157409  0.034222311  0.040367365            3 
   72000    1.2302161   -6.6556756    29.786109  0.034474663  0.040400283            1 
   73000    1.2235749   -6.6964689    30.363258  0.034661253  0.040441597            2 
   74000    1.2365562   -6.7206123    30.953738  0.034857813  0.040493119            1 
   75000    1.2207632   -6.6653152    31.417702  0.034908557  0.040549744            2 
   76000    1.2444921   -6.7151944    31.885506  0.034962178   0.04060002            2 
   77000    1.2253042   -6.6973541      32.1525  0.034797078  0.040629313            1 
   78000    1.2257378   -6.7160059    32.825025  0.035069471  0.040653721            1 
   79000    1.2544985   -6.6621541    33.138594  0.034956322  0.040673867            1 
   80000    1.2220459   -6.6656507    33.579298  0.034978435  0.040687921            1 
   81000    1.2181936   -6.7281362    33.983086  0.034962022  0.040691315            3 
   82000    1.2258399   -6.6809822    34.316117  0.034874102  0.040670661            4 
   83000    1.2364341   -6.6482993    34.903705   0.03504388  0.040654489            3 
   84000    1.2396655   -6.7063764    35.287962  0.035007899  0.040633976            3 
   85000    1.2450084   -6.7152844    35.669248   0.03496985  0.040611506            2 
   86000     1.222397   -6.6992791    36.179449  0.035057606  0.040594145            1 
   87000    1.2331423   -6.7064835    36.441852  0.034905989  0.040565494            1 
   88000    1.2453583   -6.6950641    36.866554  0.034911509  0.040525557            2 
   89000    1.2180538   -6.7031562    37.523774   0.03513462  0.040491228            3 
   90000    1.2231156   -6.6787199    37.768506  0.034970839  0.040461398            1 
   91000    1.2328136   -6.6975492    38.267257  0.035043275  0.040429604            2 
   92000    1.2340416   -6.7140214    38.990287  0.035317289  0.040404797       -1e+20 
   93000      1.20195   -6.6846766    39.456584  0.035355361  0.040387106            1 
   94000    1.2570461   -6.6466979    39.864598  0.035340955  0.040369827            1 
   95000     1.214851   -6.6914047    40.526273  0.035549362  0.040358119            4 
   96000    1.2366653   -6.6978141    41.044539   0.03562894  0.040352717            1 
   97000    1.2316062   -6.6815026    41.310916  0.035490477  0.040338128            3 
   98000    1.2278991   -6.6693494    42.079137  0.035781579  0.040330631            3 
   99000    1.2673864   -6.7097198    42.406749  0.035695916  0.040326237            1 
  100000    1.2388502   -6.7208349    42.799554  0.035666295  0.040317734            1 
  101000    1.2318628   -6.6553841    43.191828  0.035636822  0.040299449            2 
  102000    1.2386135   -6.7241288    43.364477  0.035428494  0.040273011            1 
  103000    1.2392318   -6.6905789    44.060082  0.035647315  0.040242072            1 
  104000     1.236836   -6.6909059    44.638899  0.035768348  0.040219918            2 
  105000    1.2464343   -6.7341289     45.19385  0.035868135  0.040209881            6 
  106000    1.2253803   -6.6885526    45.890555   0.03607748  0.040205444            1 
  107000    1.2365841   -6.6876134    46.270507   0.03603622  0.040201938            3 
  108000    1.2402659   -6.6675685    46.680345  0.036018784  0.040185895            1 
  109000    1.2434359   -6.6868629    46.825585  0.035799377  0.040165422            2 
  110000     1.224823   -6.6931689    47.379639  0.035893666  0.040142744            4 
  111000    1.2338583   -6.6994522    47.748701  0.035847373  0.040123121            1 
  112000    1.2339304   -6.7534661    48.150623  0.035826356   0.04009762            1 
  113000    1.2224848   -6.7269086    48.884804   0.03605074    0.0400763            4 
  114000    1.2394141   -6.7244061    49.150602  0.035928803   0.04005817            4 
  115000    1.2543702   -6.7017643    49.387607  0.035788121  0.040032569            1 
  116000    1.2172786   -6.6674747    49.936885  0.035874199  0.040004426            1 
  117000    1.2043334   -6.6948571    50.361089  0.035869721  0.039982629            1 
  118000    1.2511735   -6.7268961    51.014711  0.036027338  0.039959096            2 
  119000    1.2497397   -6.7161105    51.237601  0.035880673  0.039930831            2 
  120000     1.238124   -6.6950075    51.739287   0.03593006  0.039901193            1 
  121000     1.229881   -6.6719253    52.073171  0.035863065  0.039875185            2 
  122000    1.2358095   -6.7054011     52.76473  0.036041482   0.03984577            2 
  123000     1.256631   -6.7102847    52.929542  0.035860123  0.039819355            1 
  124000    1.2270372   -6.6701489    53.305678  0.035823708  0.039787771            2 
  125000    1.2024719   -6.7250412    53.925687  0.035950458  0.039757998            2 
  126000    1.2433054   -6.6931428    54.366253  0.035956517  0.039726842            1 
  127000    1.2329263   -6.7306883    54.862131  0.035998774  0.039701233            3 
  128000    1.2332564   -6.7233424    55.398566  0.036066774  0.039679579            2 
  129000    1.2299107   -6.7270169    56.021555  0.036189635   0.03965695            1 
  130000    1.2254599   -6.6907317    56.283372  0.036079084  0.039638236            2 
  131000    1.2192209    -6.655714    56.854417  0.036166932  0.039619214            2 
  132000    1.2410048   -6.7163667    57.140037  0.036073256  0.039600263            1 
  133000    1.2004086   -6.6826171    57.523177  0.036042091  0.039576413            2 
  134000    1.2142482   -6.6947448    57.991555    0.0360644  0.039554139            2 
  135000    1.2239622   -6.6860956    58.387438  0.036041628  0.039532083            4 
  136000    1.2504484   -6.6976383    58.997892  0.036150669  0.039513822            1 
  137000    1.2423441   -6.6928076    59.492325  0.036187546  0.039494686            1 
  138000    1.2304931   -6.7047783    60.202965  0.036354448  0.039481326            1 
  139000    1.2495251   -6.7110844     60.82266  0.036464424  0.039471016            1 
  140000    1.2334929   -6.7201418     61.12622  0.036384655  0.039463049            2 
  141000    1.2394886   -6.6806107    61.710456  0.036471901  0.039458785            1 
  142000    1.2225281   -6.7025004    62.289445  0.036554838  0.039456563            2 
  143000    1.2092413   -6.7031823    62.792902    0.0365926  0.039453516            2 
  144000    1.2573747   -6.6890017    63.231091  0.036592066  0.039449677            3 
  145000    1.2278023   -6.6817787    63.615441  0.036560598  0.039443552            1 
  146000    1.2500902    -6.698836    64.257736   0.03667679  0.039438744            1 
  147000    1.2524003   -6.7162242    64.573299  0.036606179  0.039436577            2 
  148000    1.2401218   -6.7392413    65.100682   0.03665579  0.039434242            2 
  149000    1.2294783   -6.6685263     65.61025  0.036694771  0.039428723            4 
  150000    1.2596169   -6.7270492    65.713371  0.036507428  0.039422558            2 
  151000     1.224165   -6.7030786    66.690192  0.036804741  0.039417372            1 
  152000     1.223862   -6.7074319    66.915419  0.036686085  0.039413574            5 
  153000     1.220944   -6.7081977    67.275249  0.036642292  0.039409337            4 
  154000    1.1957495   -6.7007067    67.800343  0.036688497  0.039404342            2 
  155000    1.2408263    -6.694499    68.349142   0.03674685  0.039397816            1 
  156000    1.2051552   -6.7070768    68.703248  0.036700453   0.03939427            3 
  157000    1.2053598    -6.726091    69.132992  0.036694794  0.039389858            3 
  158000    1.2341711    -6.711593    69.675981  0.036748935  0.039381775            3 
  159000    1.2151663   -6.7319998    69.865945  0.036617372  0.039374289            1 
  160000    1.2496545   -6.6009372     70.71375  0.036830078  0.039366988            1 
  161000    1.2000724   -6.7011393    71.260923  0.036884536  0.039362362            2 
  162000    1.1984203   -6.7231226    71.371756  0.036713866  0.039356427            3 
  163000    1.2173809   -6.7261004    71.925762  0.036771862  0.039350932            3 
  164000    1.2369665   -6.6779605    72.571304  0.036875663  0.039347459            1 
  165000    1.2461607   -6.7360663    72.869097  0.036802574  0.039344664            2 
  166000    1.2293572   -6.7347503    73.288768   0.03679155  0.039340083            2 
  167000    1.2354841   -6.7477166    73.527552  0.036690395  0.039331899            2 
  168000    1.2125958   -6.7511216    74.042833  0.036727596  0.039323389            1 
  169000    1.2170536   -6.6959903    74.527882  0.036749449  0.039314266            1 
  170000    1.2248784   -6.7168986    74.693993  0.036614702  0.039303441            2 
  171000    1.2287158   -6.7610796    74.936302  0.036518666  0.039289517            2 
  172000    1.2363156   -6.7113834    76.059518  0.036850542  0.039276586            1 
  173000    1.2422257   -6.6937603     76.35276  0.036778786  0.039268738            1 
  174000    1.2144388   -6.7353968     76.71457  0.036740694   0.03926214            2 
  175000    1.2131368   -6.6954646    77.695038  0.036997637  0.039254683            1 
  176000    1.2450524   -6.7495913    77.824651  0.036848793  0.039251395            1 
  177000    1.2239511   -6.7129304    78.425317  0.036923407  0.039249492            1 
  178000    1.2031655   -6.7457728    78.862913  0.036920839  0.039245096            2 
  179000    1.2445891   -6.7121706    79.199487   0.03687127  0.039238975            2 
  180000    1.2100707   -6.7046244    79.472914  0.036793015  0.039231903            2 
  181000     1.241944   -6.7256698    80.185096  0.036917632  0.039223359            5 
  182000    1.2208719   -6.6763863    80.678946  0.036940909  0.039215738            1 
  183000     1.215248   -6.7117439    81.359159  0.037048797  0.039209681            3 
  184000    1.2132793   -6.7529864    81.619728  0.036965457  0.039207524            2 
  185000    1.2389969    -6.713138    82.358898  0.037098603  0.039204585            1 
  186000    1.2190913   -6.7371415    82.434872  0.036933186  0.039202377            1 
  187000    1.2335178   -6.7086184    83.115865  0.037039155  0.039198018            3 
  188000     1.236001   -6.7200086    83.494103  0.037009797  0.039193932            1 
  189000     1.221493   -6.7036976    84.143224  0.037100187  0.039188148            1 
  190000    1.2133487   -6.7106089    84.546384  0.037081747  0.039187878            2 
  191000     1.205231   -6.7526814     84.45673  0.036848486  0.039182002            2 
  192000     1.197581   -6.7041379    85.158835    0.0369613  0.039174367            1 
  193000    1.2332984   -6.6907801    85.438314  0.036890463  0.039165116            1 
  194000    1.1905967     -6.73651    85.382845   0.03667648  0.039153763            1 
  195000    1.2121942   -6.7156744    85.988054  0.036747032   0.03913989            4 
  196000    1.2020959   -6.7028195    86.287169  0.036686721  0.039125436            2 
  197000    1.1902028    -6.751484    86.806534  0.036720192  0.039108494            2 
  198000    1.2346997   -6.7133011    87.428539  0.036796523  0.039092141            1 
  199000    1.2158419    -6.733475    87.830308  0.036779861  0.039077076            2 
  200000    1.2208628   -6.6981946    88.363194  0.036817997  0.039061576            1 
  201000    1.2420084   -6.7328282    88.348575  0.036628763  0.039045993            3 
  202000    1.2340872    -6.740533    88.914283   0.03668081  0.039030874            2 
  203000    1.2100029   -6.6986781    89.664185  0.036807958  0.039015568            1 
  204000    1.2178872   -6.7775423     89.80835  0.036686417  0.038998422            1 
  205000    1.2332773   -6.7393017    90.069079  0.036613446  0.038979912            2 
  206000    1.2130425   -6.7501215    90.291599  0.036525728  0.038964883            2 
  207000    1.2061298   -6.7150139     90.86218  0.036578977  0.038947168            2 
  208000    1.2041265   -6.7334813    91.626725  0.036709425  0.038931153            3 
  209000    1.1891071    -6.721934     91.90576   0.03664504  0.038914402            1 
  210000    1.2210623   -6.7222444    92.759973  0.036809513  0.038900055            2 
  211000     1.214961   -6.6857033    93.206865  0.036811558  0.038887182            2 
  212000    1.2134744   -6.7094187    93.805755  0.036873331  0.038876314            1 
  213000    1.2305595   -6.6904859    94.663899  0.037035954  0.038868367            3 
  214000    1.2056019   -6.7694688    95.014343  0.036999355  0.038861111            1 
  215000    1.2068461   -6.7409203    95.107256  0.036863278  0.038854701            1 
  216000    1.2243252    -6.711247    96.214265  0.037119701  0.038850322            1 
  217000    1.2328795   -6.6909493    96.341041  0.036997327  0.038848402            2 
  218000    1.2255479   -6.7331831    96.615898  0.036932683  0.038844899            1 
  219000    1.2178621   -6.7274217    97.363393  0.037048475  0.038841585            1 
  220000     1.193236   -6.7427941    98.171085  0.037186017  0.038838768            2 
  221000    1.2247883   -6.7466679    98.624368  0.037188676  0.038837007            3 
  222000     1.209886   -6.7361077    98.903355  0.037125884  0.038836146            2 
  223000    1.2235964   -6.7191945    99.740284  0.037272154  0.038835085            2 
  224000    1.2043349   -6.7206867    99.844258  0.037144441  0.038831294            2 
  225000    1.1903207   -6.7438515    99.885619  0.036994674  0.038825314            1 
  226000    1.2252482   -6.7285516    100.43365  0.037033057  0.038820178            3 
  227000    1.2400704   -6.7525335    100.82329  0.037012955  0.038814049            3 
  228000    1.2108002   -6.7650403    101.38421  0.037055633  0.038809439            1 
  229000     1.197411   -6.7298531    101.86125  0.037067413  0.038804642            2 
  230000    1.2284931   -6.7158402    102.34195  0.037080418  0.038801067            2 
  231000    1.2093284   -6.7400001     103.3371  0.037278897  0.038799081            4 
  232000    1.2328328   -6.7017372    103.37664  0.037132414    0.0387979            2 
  233000    1.2024163   -6.7695631    103.89888  0.037159827  0.038795182            1 
  234000     1.215656   -6.7516873    104.89204  0.037354714  0.038793502            1 
  235000    1.1995566   -6.7207664    104.97574  0.037225441  0.038792253            3 
  236000    1.1947944   -6.7224732     105.7829   0.03735272  0.038791195            1 
  237000    1.2308493   -6.7319624    105.97048  0.037261069  0.038792075            1 
  238000    1.2012481   -6.7217494    106.74694   0.03737638  0.038794731            2 
  239000    1.2052064   -6.7546935    107.14259  0.037357946  0.038795313            2 
  240000    1.2246049   -6.7377254    107.51278  0.037330827  0.038794346            2 
  241000    1.2106365   -6.7420057    107.84739  0.037291628  0.038793479            1 
  242000    1.2080041    -6.773528    108.22598  0.037267898  0.038791454            1 
  243000    1.2255808    -6.782748    108.22722  0.037114959  0.038789272            1 
  244000    1.1907884   -6.7226243    109.20287  0.037296062  0.038786406            3 
  245000     1.181835   -6.7163525    109.64602  0.037294565  0.038782666            2 
  246000    1.2233285   -6.7322105    109.76726   0.03718403  0.038778082            1 
  247000    1.1990129   -6.7484538    110.44863   0.03726337  0.038773576            3 
  248000    1.1796719   -6.7026712    111.22642   0.03737447  0.038770713            1 
  249000    1.1854975   -6.7124913    111.32028  0.037255783  0.038767322            1 
  250000    1.2167435   -6.6998309    112.34397  0.037447991  0.038763991            1 
  251000    1.2442374   -6.7126532    112.31643  0.037289651  0.038760871            1 
  252000      1.20952   -6.7600546     112.7593  0.037288128  0.038757535            1 
  253000    1.1976217    -6.750995    112.78435  0.037148997  0.038752385            2 
  254000    1.2147263   -6.7476921    113.21411  0.037143738  0.038746386            3 
  255000    1.2227135   -6.7541684    113.48946   0.03708806  0.038739506            2 
  256000    1.1999696   -6.7219057     113.6072  0.036981511  0.038730511            2 
  257000    1.1918369    -6.780816    114.31133  0.037065931  0.038721947            2 
  258000    1.1910017   -6.7675483    115.00641  0.037146774  0.038713577            2 
  259000     1.224741   -6.7916191     115.4604  0.037149421  0.038707008            1 
  260000    1.1873445   -6.7676872    115.27302   0.03694648  0.038699943            2 
  261000    1.1986398   -6.7284648    116.41134  0.037168372  0.038693953            4 
  262000    1.1910417   -6.7268033    116.82979  0.037159601  0.038687978            2 
  263000    1.2275119   -6.7434248    116.94628  0.037055223  0.038682802            1 
  264000    1.2140084   -6.7003354    117.85197  0.037200749  0.038677486            2 
  265000    1.2005059   -6.7483144    118.29839  0.037200751  0.038672518            2 
  266000    1.2113519   -6.7535713     119.1512  0.037328071  0.038667965            1 
  267000      1.20923   -6.6996296    119.09084  0.037169425  0.038663096            1 
  268000    1.2326009   -6.7554017    119.51505  0.037162639  0.038657352            2 
  269000    1.2167297   -6.7541991    119.89175  0.037141187  0.038650484            2 
  270000    1.2144644    -6.721912    119.81263  0.036979208  0.038643365            1 
  271000    1.2067368   -6.7481769    120.63093  0.037094383  0.038635026            1 
  272000    1.1846352    -6.719265     120.7292  0.036988111  0.038626862            1 
  273000    1.2004228   -6.7409172    120.97571  0.036927872  0.038617905            3 
  274000    1.1847164   -6.7602858    121.75895  0.037031311  0.038609015            1 
  275000    1.2050334   -6.7738526    121.78639  0.036904968  0.038599369            1 
  276000     1.207319   -6.7002318    122.68842  0.037043605  0.038588855            2 
  277000    1.1878263   -6.7577271    122.66892  0.036904008  0.038578983            1 
  278000    1.2102319   -6.7443848    123.42775  0.036998725  0.038570017            2 
  279000    1.2009403   -6.7323484    123.26178   0.03681654  0.038560395            1 
  280000      1.23833   -6.7684508    123.72707  0.036823533  0.038549698            1 
  281000     1.216697   -6.7556836     124.1176  0.036808303  0.038537273            2 
  282000    1.2107293   -6.7242718    125.05278  0.036954132   0.03852509            2 
  283000    1.2030015   -6.7666898    125.23791  0.036878067  0.038514482            5 
  284000    1.1795134   -6.7600461    125.70472  0.036885188   0.03850449            2 
  285000    1.2200843   -6.7746371     126.0613   0.03686003  0.038494999            1 
  286000    1.1977551   -6.7515829    126.47038  0.036850344  0.038483577            4 
  287000    1.2207561   -6.7679394    126.66167  0.036777489  0.038472279            3 
  288000    1.2113724   -6.7932342    127.53853  0.036903511   0.03846086            1 
  289000    1.1877533   -6.7483179    127.76789  0.036841952  0.038450144            2 
  290000     1.222897   -6.7830198    127.74508  0.036708357  0.038438239            1 
  291000    1.2106713   -6.7579078    128.63522   0.03683712   0.03842642            1 
  292000    1.1989607   -6.7578703    128.89885  0.036786202  0.038412933            2 
  293000    1.2127011   -6.7379648    129.13418  0.036727581  0.038398811            1 
  294000    1.1889714    -6.786558    129.47741  0.036699947  0.038385183            1 
  295000    1.2090271   -6.7953423    129.34036  0.036536825  0.038370983            2 
  296000    1.2210954   -6.7598652    130.23242  0.036664533  0.038356867            6 
  297000    1.1976782   -6.7489343    130.91255  0.036731916  0.038343448            2 
  298000    1.2107259    -6.725002    130.99343  0.036631273  0.038329423            1 
  299000    1.2340798   -6.7834546    130.65271  0.036413799  0.038312849            2 
  300000    1.1903748   -6.7281848    131.30136  0.036472599  0.038294518            2 
  301000    1.2084084    -6.759564    131.93504  0.036526867  0.038278325            1 
  302000    1.2095975   -6.7576248    132.44742  0.036547302  0.038262708            1 
  303000     1.204733   -6.7606093    133.04157  0.036590089  0.038248669            1 
  304000    1.2028824   -6.7820936    133.29527  0.036539272  0.038233836            2 
  305000    1.1709028   -6.7250307    133.85616   0.03657272  0.038220097            1 
  306000    1.1755335   -6.7478697    134.47259  0.036621076  0.038206104            2 
  307000    1.2074834   -6.7444737     134.5402  0.036520142   0.03819292            1 
  308000    1.2186504   -6.7700836    135.27998  0.036601726  0.038179803            1 
  309000    1.2193507   -6.7728169    135.56842  0.036561063  0.038166437            2 
  310000    1.2188082   -6.7748314    136.15428  0.036600612  0.038154582            1 
  311000    1.2012768   -6.7448695    136.85644  0.036671071  0.038143265            1 
  312000    1.2001101   -6.7429876    136.99078  0.036589416  0.038131975            3 
  313000    1.1967235   -6.7774866    137.61139   0.03663775  0.038119836            4 
  314000     1.219771    -6.758252    138.31349  0.036707401  0.038108565            3 
  315000    1.2042717   -6.7776429    138.23928  0.036571238  0.038096178            2 
  316000    1.2071225   -6.7604464    138.86214  0.036619763  0.038084708            1 
  317000    1.1953244   -6.7833244    139.41733  0.036650193  0.038073172            2 
  318000    1.1868209   -6.7721911    139.47159  0.036549159  0.038061159            2 
  319000    1.1898541   -6.7586868    139.88537  0.036542679  0.038048207            1 
  320000    1.2134993   -6.7780488    140.15482   0.03649865  0.038037282            2 
  321000    1.1946143    -6.749814    141.35847  0.036697423  0.038026173            1 
  322000     1.195418   -6.7752937    141.27527  0.036561922  0.038015723            3 
  323000    1.2012339   -6.7268146    142.06814  0.036653287  0.038005777            2 
  324000    1.2121971   -6.7469306    143.17266  0.036824244  0.037997049            1 
  325000    1.1976098    -6.743227    143.17983  0.036712776  0.037987351            1 
  326000    1.1744773   -6.7673891    143.50313  0.036682804  0.037978235            7 
  327000    1.1794453    -6.752613    144.45725  0.036813774  0.037970036            1 
  328000    1.1960573   -6.7741582    144.61006   0.03674036  0.037962486            1 
  329000    1.2058268   -6.7436534    145.17502  0.036771788    0.0379552            2 
  330000    1.2235307    -6.751062    145.29325  0.036690214  0.037947069            2 
  331000    1.1835125   -6.7674843    145.87254  0.036725212  0.037938933            1 
  332000    1.1901956   -6.7310015    146.36128  0.036737268  0.037931148            3 
  333000    1.1928043   -6.7838283    146.79104  0.036734495  0.037923439            2 
  334000    1.1736237   -6.7449453    146.93891  0.036661404  0.037915954            2 
  335000    1.2034774   -6.7651519    147.07426  0.036585637  0.037907814            2 
  336000    1.1809961   -6.7796266    147.71601  0.036635914   0.03789757            2 
  337000    1.1798643   -6.7854532    148.75471  0.036784054  0.037888555            1 
  338000     1.204748   -6.7498937     149.0476  0.036747437  0.037881784            1 
  339000    1.2186838   -6.7796624    149.46321  0.036741203   0.03787414            2 
  340000    1.2007884    -6.786824    149.30263  0.036593783  0.037864421            3 
  341000    1.1790261   -6.7724731    150.27475  0.036724035  0.037855285            1 
  342000    1.1835278   -6.7797166    150.63111  0.036703488  0.037846821            3 
  343000    1.1881591   -6.7338945    151.02282  0.036691648  0.037838919            2 
  344000     1.189648   -6.7669421    151.15026  0.036615857  0.037830653            2 
  345000    1.2015701   -6.7531564    151.97381   0.03670865  0.037821862            3 
  346000    1.1845706   -6.7495556    152.32213  0.036686448  0.037814372            1 
  347000     1.223175      -6.7492    152.55883  0.036637566  0.037806472            2 
  348000    1.1839075   -6.7576222    153.62723  0.036788129  0.037799184            1 
  349000    1.1607687   -6.7316039      154.195  0.036818291  0.037793725            2 
  350000    1.2239995   -6.7695566    153.99051  0.036664407  0.037787251            4 
  351000    1.1783565   -6.7784333     154.8967  0.036775094   0.03778105            1 
  352000    1.2037088   -6.7741057     154.9657  0.036686955   0.03777508            1 
  353000    1.1989059   -6.7457585     156.0713  0.036844026  0.037768797            1 
  354000    1.1927991   -6.7838944     155.8182  0.036680367   0.03776321            2 
  355000    1.1971869   -6.7538711    156.22459   0.03667244  0.037756946            1 
  356000    1.1934962   -6.7854166    156.12072  0.036545112  0.037749927            2 
  357000    1.1858989   -6.7788284    157.12873   0.03667804  0.037742745            2 
  358000    1.2013543   -6.7824431    157.45966   0.03665262  0.037735311            2 
  359000    1.2137117   -6.8366914    157.55536  0.036572738  0.037727291            1 
  360000    1.1688539   -6.7832125    158.39538  0.036665598   0.03771986            2 
  361000    1.1792156   -6.7613378    158.61222  0.036614087  0.037712341            1 
  362000    1.2146828   -6.8029963    158.41362  0.036467224  0.037703229            2 
  363000    1.1923017   -6.7897865    159.50978  0.036618407  0.037692938            2 
  364000    1.1901217   -6.7313631    159.55749  0.036528729  0.037683552            2 
  365000    1.2084905   -6.7811563    159.84905  0.036495217   0.03767479            1 
  366000     1.216676   -6.7699749    160.36594  0.036513193  0.037665649            2 
  367000    1.2064414   -6.7786479    160.92008  0.036539529  0.037655531            2 
  368000    1.1773366   -6.8021209    161.30993  0.036528516  0.037646335            2 
  369000    1.2104127   -6.7506209     161.2768  0.036422042  0.037636467            2 
  370000     1.207405   -6.7779831    161.86694  0.036456517  0.037626776            2 
  371000    1.1705569   -6.7443957    162.76755  0.036560547     0.037618            2 
  372000    1.1993389   -6.7914968    162.46887  0.036395357  0.037609147            2 
  373000    1.1777237   -6.7983012    162.88145  0.036389957  0.037599657            2 
  374000    1.1719852   -6.7788323    163.31287  0.036388785  0.037590502            2 
  375000    1.1786136   -6.7886907    164.14699  0.036477109  0.037581228            1 
  376000    1.2040111   -6.7883521    164.56548  0.036472846  0.037571917            2 
  377000    1.2049915   -6.7878316    164.66801  0.036398764  0.037561795            2 
  378000    1.1830823   -6.7822646     165.2663  0.036434369  0.037554047            2 
  379000    1.2088966   -6.7683265    165.49508  0.036388539  0.037545375            1 
  380000    1.1817092   -6.8109162    165.98996  0.036401307  0.037536822            2 
  381000    1.2106488   -6.7329484    166.97606  0.036521447  0.037528455            1 
  382000    1.1866119   -6.7629721    167.61571  0.036565382  0.037520957            1 
  383000    1.1972058   -6.7977281    167.46701  0.036437556  0.037513666            1 
  384000    1.1833811   -6.7648399    168.66528  0.036602709  0.037506507            2 
  385000    1.1691715   -6.8077741    168.25181   0.03641814  0.037499239            1 
  386000    1.1775246   -6.7825273     168.6388   0.03640734  0.037491215            3 
  387000    1.1839975   -6.7939974     169.6162   0.03652373  0.037482815            2 
  388000    1.1639728   -6.7372039    170.24992  0.036565705  0.037474897            2 
  389000    1.1801534    -6.788965    169.62619  0.036338087  0.037466151            2 
  390000    1.1941606   -6.7829788    170.45923  0.036422912  0.037457895            3 
  391000    1.2144547   -6.7773666      171.266  0.036501706  0.037450393            1 
  392000    1.1830163   -6.7825542    171.32858  0.036421891  0.037442683            1 
  393000    1.1819732   -6.7941557    172.38765  0.036553785  0.037435574            2 
  394000    1.2055773   -6.7412849     173.2554  0.036644542  0.037429539            2 
  395000    1.1881054   -6.7688996    172.93094  0.036483321  0.037423163            4 
  396000    1.2023831    -6.774808    173.44067  0.036498458  0.037417532            3 
  397000    1.1833584   -6.7855703    174.25647  0.036577765  0.037411611            1 
  398000    1.2094448   -6.7385775    175.20375  0.036684201  0.037406054            1 
  399000    1.1967435   -6.7572258    174.85764  0.036519974  0.037399463            2 
  400000    1.2157354   -6.7688506    174.88752  0.036434901  0.037393899            4 
  401000    1.1715721   -6.7547967    175.68658  0.036510095  0.037388187            1 
  402000    1.1859597   -6.7826635    176.01936  0.036488258  0.037381943            2 
  403000    1.2097806   -6.7879045    176.41031  0.036478559  0.037374973            3 
  404000    1.2076811   -6.7799805    176.93694  0.036496893  0.037368248            1 
  405000    1.1968244   -6.7933453    176.84027  0.036386888  0.037361234            2 
  406000    1.2026023   -6.7471672    178.14183  0.036564416  0.037354947            1 
  407000    1.1702399   -6.7538675     178.2542  0.036497584   0.03734924            2 
  408000    1.1678592   -6.8071301    178.73785  0.036506913  0.037342932            1 
  409000    1.1901452   -6.7903267    178.64672  0.036399087  0.037335559            4 
  410000    1.2226611   -6.7915744    179.29223  0.036441511  0.037328667            1 
  411000    1.2072454    -6.814015    179.67139  0.036429723  0.037321843            2 
  412000    1.1910452   -6.7944127    180.05405  0.036418699  0.037315524            1 
  413000    1.1862834   -6.7765343    181.68398  0.036659399  0.037309293            1 
  414000    1.1755446   -6.7854866    181.83086  0.036600415  0.037303741            2 
  415000    1.1988593   -6.7629093     181.2502  0.036395623  0.037297991            1 
  416000    1.1788974   -6.8422943    181.31629  0.036321372  0.037291195            2 
  417000    1.1787732   -6.7477153    182.21587  0.036414043  0.037284331            2 
  418000    1.1689697   -6.7571413     182.4916  0.036381899   0.03727657            1 
  419000    1.1898615   -6.8012354    182.03053  0.036203368  0.037268487            1 
  420000    1.1853498   -6.7589076    183.42008  0.036392873  0.037259684            2 
  421000    1.1905437   -6.7867488    182.63162  0.036150361  0.037250135            2 
  422000    1.2217738   -6.7717307    182.86633  0.036111045  0.037239507            2 
  423000    1.1752556   -6.8015521    183.02824  0.036057572  0.037228432            4 
  424000    1.1961748   -6.7504731     184.2263     0.036208  0.037217043            2 
  425000    1.1881124   -6.8087667     184.3794  0.036152824  0.037206065            1 
  426000    1.1741991   -6.7718184     184.8376  0.036157591    0.0371956            2 
  427000    1.1735798   -6.7779074    185.04504  0.036113396  0.037186038            2 
  428000     1.188504   -6.7628985    186.24505  0.036262666  0.037177031            2 
  429000    1.2189361    -6.769863    187.07993  0.036340314  0.037168728            1 
  430000    1.1913609   -6.8117979    186.49279  0.036142013  0.037159798            3 
  431000     1.184461   -6.8319424    186.39519  0.036039286  0.037150426            1 
  432000    1.1827815   -6.8162385     187.3155  0.036133392  0.037141368            1 
  433000    1.1788684   -6.8005505     188.6751  0.036311606  0.037133108            2 
  434000    1.1686997   -6.8088046    188.54853  0.036203635  0.037125424            2 
  435000    1.2087317   -6.7910517     188.8309  0.036174502  0.037117453            2 
  436000    1.1761116   -6.8146799    189.33979  0.036188798  0.037110006            1 
  437000    1.1683069   -6.7581693    190.79255   0.03638302  0.037102755            3 
  438000    1.1559941    -6.812849    190.38569  0.036222544  0.037095173            1 
  439000     1.180101   -6.7799287    190.62255  0.036184994  0.037086624            2 
  440000     1.151928   -6.7967726    190.83671  0.036143317  0.037077711            2 
  441000    1.1765305     -6.78578    190.98327  0.036089054  0.037068899            1 
  442000    1.1841838   -6.7917751    191.27489  0.036062385  0.037061184            2 
  443000    1.1914301   -6.7620753    192.97413  0.036300627   0.03705448            3 
  444000    1.1908981    -6.806873    192.73399  0.036173796  0.037047151            1 
  445000    1.2000888    -6.805752    193.66598  0.036267037  0.037039464            2 
  446000    1.1809014   -6.7770615    193.29988  0.036117317  0.037032388            1 
  447000    1.1553173   -6.8048872    194.66999  0.036291944  0.037025315            2 
  448000    1.1698415   -6.7883738    194.76253  0.036228149  0.037018654            2 
  449000    1.1743022   -6.7812584    194.42284  0.036084417  0.037011919            3 
  450000    1.1757246   -6.7917128    195.18941  0.036146187  0.037004684            1 
  451000    1.1843747   -6.8214688     196.1766  0.036248447  0.036997849            1 
  452000    1.1900049   -6.7976599     196.0833  0.036151052  0.036990992            6 
  453000    1.1764347   -6.7631179    196.91339  0.036223949  0.036984434            3 
  454000    1.1724825   -6.7961864    196.98818  0.036157889  0.036977299            3 
  455000    1.1734451   -6.7755993    197.85829  0.036237782  0.036970282            2 
  456000    1.1602621   -6.8030306    198.45231  0.036266869  0.036963604            1 
  457000    1.1463707   -6.8415783     197.9086  0.036088366  0.036956352            1 
  458000    1.1901936   -6.8067685    198.93722  0.036196728  0.036948926            5 
  459000    1.1713684   -6.8146191    199.09446  0.036146416  0.036941692            2 
  460000    1.1588729   -6.8088774    199.65887  0.036170085  0.036934323            1 
  461000    1.1705373   -6.8096571    199.38033  0.036041275  0.036927022            4 
  462000    1.2108835   -6.8579969    199.55547  0.035994855  0.036919765            2 
  463000     1.185007    -6.832952    200.62915  0.036110357  0.036913389            2 
  464000    1.1848538   -6.7542285    202.26684  0.036326659  0.036907439            2 
  465000    1.1711576   -6.8206716    202.67514  0.036321709  0.036901646            1 
  466000    1.1818071   -6.7952611    202.85262  0.036275504  0.036896998            1 
  467000     1.176504   -6.8306337    202.57873  0.036148952   0.03689163            1 
  468000    1.1854846   -6.8019517    202.53853  0.036064552  0.036886284            1 
  469000    1.2033078   -6.8203029     203.4984   0.03615821  0.036880612            1 
  470000    1.1895097   -6.7954007    204.19536  0.036204851  0.036874577            4 
  471000    1.1852605   -6.8347785    204.16303  0.036122264  0.036868903            3 
  472000    1.1965261   -6.8016802    205.11077  0.036213059   0.03686269            1 
  473000    1.1788744   -6.8269976    205.01639  0.036119872    0.0368564            1 
  474000    1.1985486   -6.7915522    205.98543  0.036214034   0.03685111            2 
  475000    1.1751602   -6.8462951    206.34741    0.0362013  0.036846105            3 
  476000     1.186674   -6.8426203    206.77796  0.036200624  0.036840808            2 
  477000    1.1626734   -6.8398057    207.23775  0.036205058  0.036835464            3 
  478000     1.159726   -6.8275062    207.86497  0.036238663  0.036830572            1 
  479000    1.1938508   -6.8350609    207.98887  0.036184563  0.036825588            1 
  480000    1.1769081   -6.8025329    208.95132   0.03627627  0.036820063            3 
  481000    1.1655979   -6.7812938    208.65437  0.036149405  0.036814092            1 
  482000    1.1632539   -6.7846705    208.65485  0.036074491  0.036808543            2 
  483000    1.1759151   -6.8032585    209.77227  0.036192593  0.036802848            2 
  484000    1.1636135   -6.7788858    209.56935  0.036082877  0.036796651            1 
  485000    1.1897197   -6.8083548    210.29753  0.036133597  0.036790322            4 
  486000    1.1447527   -6.8081713     210.1301  0.036030538  0.036783531            1 
  487000    1.1841536   -6.8286126    210.81105  0.036073075  0.036777118            2 
  488000    1.1760641   -6.8182455    210.90409  0.036015042  0.036769951            2 
  489000    1.1599652   -6.7980294    211.58602  0.036057604  0.036763643            1 
  490000    1.1742145   -6.8203861    211.71884  0.036006606  0.036757433            1 
  491000    1.1671557   -6.7746059    212.62166    0.0360865  0.036751502            2 
  492000    1.1662764   -6.8340793    212.42375  0.035979633  0.036745029            1 
  493000    1.1800226   -6.8149607    213.38424  0.036069006  0.036738345            1 
  494000    1.2003639   -6.8666272    213.27007  0.035976733  0.036731973            1 
  495000    1.1676242   -6.8398237    214.20978  0.036062252  0.036725198            2 
  496000    1.1656548   -6.8075752    214.61922  0.036058336  0.036718092            3 
  497000    1.1806988   -6.8386558    214.30743  0.035933506  0.036710991            2 
  498000    1.1718617   -6.8333879    214.77767  0.035940038  0.036703109            1 
  499000     1.156403   -6.8168136    215.02936  0.035910047  0.036695562            4 
  500000    1.1832466   -6.8120322     215.4543   0.03590905  0.036687577            1 
  501000    1.1879685   -6.7916697     215.9945  0.035927229  0.036680382            3 
  502000    1.1685017   -6.8253045    216.83192  0.035994674  0.036673349            2 
  503000    1.1610032   -6.7518373    217.82705  0.036087981  0.036666995            2 
  504000    1.1517586   -6.8228185    217.34194  0.035936167  0.036660325            2 
  505000    1.1939692   -6.8149478    218.39166  0.036038228  0.036654209            1 
  506000    1.1797647    -6.815121    218.34732  0.035959703  0.036647744            3 
  507000    1.1787182   -6.7903055    218.95701  0.035988989  0.036641225            1 
  508000    1.1783343   -6.8329353    219.45482  0.035999806  0.036635544            2 
  509000    1.1935017   -6.7913075    220.52823  0.036104819   0.03662967            2 
  510000    1.1624093   -6.8423322    220.30521  0.035997584  0.036624181            3 
  511000    1.1801218   -6.7964425    220.90403  0.036024793  0.036618125            2 
  512000    1.1864231   -6.8049281    220.80858  0.035938896  0.036611701            3 
  513000    1.1662989   -6.8424828    221.00497  0.035900742  0.036604363            2 
  514000    1.1783705   -6.8385972    221.74314  0.035950573  0.036597712            1 
  515000    1.1717107   -6.8052008    222.83484  0.036057417  0.036591329            3 
  516000     1.190797   -6.8027946    222.79665  0.035981372   0.03658513            1 
  517000    1.1750201    -6.842097    222.39419  0.035846904  0.036578213            2 
  518000    1.1779029   -6.8408016    223.80354  0.036004431  0.036571542            1 
  519000     1.200596   -6.8260504     224.2719  0.036010261  0.036565766            2 
  520000    1.1741573    -6.831025    224.35208  0.035953859  0.036559836            1 
  521000    1.1758197   -6.8369254    225.12068  0.036007787  0.036553417            1 
  522000    1.1731163    -6.847075    224.96661   0.03591421  0.036546668            2 
  523000    1.1510969   -6.8314672    225.05375  0.035859425  0.036540465            2 
  524000    1.1355999   -6.8364629    225.73111  0.035898713  0.036534664            2 
  525000    1.1995735   -6.8029553    227.06723  0.036042418  0.036529033            3 
  526000    1.1899473   -6.8496125    226.22189   0.03583997  0.036522987            1 
  527000    1.1671504   -6.8023882    227.25891  0.035935944  0.036516927            3 
  528000    1.1442992   -6.8040707    227.99355   0.03598383  0.036511116            3 
  529000    1.1631182   -6.8345988     226.7747  0.035723804  0.036505314            2 
  530000    1.1729411   -6.8588285    226.81348  0.035662497  0.036498554            1 
  531000    1.1714512    -6.853815    227.48329  0.035700454  0.036491503            2 
  532000    1.1632365   -6.8193533      228.741  0.035830357  0.036484395            2 
  533000    1.1642903   -6.8292261    229.17254  0.035830603   0.03647728            1 
  534000      1.15477   -6.8236299    230.25064  0.035931747  0.036470224       -1e+20 
  535000    1.1692982   -6.8081264    230.22826    0.0358611  0.036464376            4 
  536000    1.1712282   -6.7971601    230.79581  0.035882433  0.036458752            2 
  537000    1.1801787   -6.8211954    231.95674   0.03599577  0.036453814            2 
  538000    1.1319508   -6.8554307    231.95338  0.035928342  0.036448161            2 
  539000    1.1917065   -6.7889281    232.62619  0.035965707  0.036442588            1 
  540000    1.1277252   -6.8398598    232.42592  0.035868198  0.036436885            1 
  541000    1.1595965   -6.7944913    234.42544  0.036109895  0.036431243            1 
  542000    1.1520256   -6.8094377    233.85719  0.035955903  0.036425795            2 
  543000    1.1643572   -6.8073744    234.17058   0.03593778  0.036419513            2 
  544000    1.1628521   -6.7970194    234.45409  0.035915148  0.036413791            1 
  545000    1.1720422   -6.7990471    234.82627  0.035906157  0.036407999            2 
  546000    1.1684212   -6.8225773    234.98994  0.035865376  0.036402334            3 
  547000    1.1663348   -6.8146077    236.06431  0.035963484  0.036396587            3 
  548000    1.1543059   -6.8454583     235.2412  0.035772689  0.036390751            1 
  549000    1.1635338   -6.8156572    235.75983  0.035786252  0.036384255            3 
  550000    1.1686952   -6.8329036    235.86069  0.035736468  0.036378136            2 
  551000    1.1595042    -6.867158    236.45891  0.035762086  0.036371502            6 
  552000    1.1760555   -6.8384992    237.10324   0.03579457  0.036364693            3 
  553000    1.1726645   -6.8020948    237.19632   0.03574387  0.036358063            4 
  554000    1.1622836   -6.8039929    238.35007  0.035852898  0.036351133            6 
  555000    1.1849892   -6.8282573    237.60893  0.035677017  0.036343875            3 
  556000    1.1622344   -6.8543824    237.84875  0.035648794  0.036336894            3 
  557000    1.1860945   -6.8192092    238.20365  0.035637889  0.036329887            2 
  558000    1.1680119   -6.8221894    239.31253  0.035739625  0.036323012            2 
  559000    1.1657015   -6.8213661    240.78329  0.035894945  0.036316543            1 
  560000    1.1915116   -6.8243456    240.43304  0.035778726  0.036310597            3 
  561000    1.1570177   -6.7932551    241.25133  0.035836501  0.036304863            5 
  562000    1.1729718   -6.8464137    240.66249  0.035685422  0.036299226            1 
  563000    1.1787306   -6.8323445    241.48438  0.035743692  0.036292667            1 
  564000    1.1736706   -6.8345539    241.23868  0.035644013  0.036286011            3 
  565000    1.1793328   -6.8678484     240.9668  0.035540825  0.036279615            2 
  566000    1.1528416   -6.8057797    243.37208  0.035832167  0.036274193            2 
  567000    1.1712424   -6.8101324    243.36848  0.035768441  0.036268625            2 
  568000    1.1907845   -6.8532014    243.70722  0.035755167  0.036263197            2 
  569000    1.1614887   -6.8286862    244.67663  0.035834304    0.0362583            1 
  570000    1.1320572   -6.7864991    245.18354  0.035845546  0.036253407            1 
  571000    1.1600309    -6.802364    245.77329  0.035868839  0.036248634            4 
  572000    1.1573201    -6.831133    245.17744  0.035719324  0.036243403            2 
  573000    1.1910046   -6.7971544    246.64457  0.035870357  0.036238079            1 
  574000    1.1740241   -6.8407155    245.65654  0.035664422  0.036232367            1 
  575000    1.1630947   -6.8164996    246.56632  0.035734249  0.036226208            1 
  576000    1.1480826    -6.845202    245.57577  0.035528902  0.036219758            2 
  577000    1.1705345   -6.8669577    246.70427   0.03563031  0.036212963            2 
  578000    1.1588323   -6.8608051    246.61113  0.035555237  0.036206052            1 
  579000    1.1565198   -6.8163532    247.85802   0.03567329  0.036199251            1 
  580000    1.1500413   -6.8434636    247.28482  0.035529428  0.036192724            1 
  581000    1.1448759   -6.8327325    248.84024  0.035691371  0.036186201            2 
  582000    1.1343305   -6.8324209    248.68626  0.035607999   0.03617983            2 
  583000    1.1634935   -6.8235638    248.59368  0.035533688  0.036172803            1 
  584000    1.1869954   -6.8396432    249.43985  0.035593586  0.036166035            2 
  585000    1.1766991   -6.8389437    249.26991  0.035508535  0.036159136            3 
  586000    1.1452503   -6.8362025    249.51203   0.03548237  0.036151833            2 
  587000    1.1835232   -6.8933575     249.8935  0.035476079  0.036144693            2 
  588000    1.1601526   -6.8432605     250.4682  0.035497194  0.036137153            3 
  589000    1.1543714   -6.8445764    251.48481  0.035580759  0.036129724            2 
  590000    1.1543362   -6.8538893    251.34044  0.035500062   0.03612294            2 
  591000    1.1397874   -6.8382301    251.52377  0.035465844   0.03611594            2 
  592000    1.1623756   -6.8335158    252.91259  0.035601434  0.036109201            2 
  593000    1.1633436   -6.8469706    253.37885  0.035606921  0.036102679            4 
  594000    1.1611876   -6.8567528    253.26338  0.035530777  0.036097032            1 
  595000    1.1694425   -6.8346508    253.80291  0.035546626  0.036091009            1 
  596000    1.1558812   -6.8383318    254.65209  0.035605717   0.03608493            2 
  597000    1.1675165   -6.8111383    254.91923  0.035583365  0.036079021            2 
  598000    1.1455512   -6.8513874    255.15124  0.035556192  0.036073349            2 
  599000    1.1762589    -6.847028    255.12195  0.035492759  0.036066976            3 
  600000    1.1748444   -6.8358242    255.74948  0.035520761  0.036060968            2 
  601000     1.150173   -6.8477256    256.94723  0.035627736  0.036055375            1 
  602000    1.1507058   -6.8437787    256.72392  0.035537641  0.036049259            2 
  603000    1.1724454   -6.8862164    256.26925  0.035415873  0.036043053            3 
  604000    1.1899342   -6.8586467     257.3264   0.03550309  0.036036902            2 
  605000    1.1369784   -6.8981064    256.61815  0.035346853  0.036030497            1 
  606000    1.1642936   -6.8530407    259.24275  0.035649443  0.036024085            3 
  607000    1.1590166   -6.8287871    258.25273  0.035454796  0.036018221            2 
  608000    1.1673611   -6.8439608    259.68605  0.035592934  0.036012103            4 
  609000    1.1408752    -6.843109    259.56629  0.035518102  0.036005785            1 
  610000    1.1417811   -6.7939186     260.8425  0.035634221  0.036000443            1 
  611000    1.1796297   -6.8291337    261.74446  0.035698917   0.03599561            1 
  612000    1.1527945   -6.8459961    260.53009   0.03547523  0.035990728            2 
  613000    1.1532459   -6.8542782    261.73697  0.035581426  0.035985069            1 
  614000    1.1520256   -6.8609848    260.69383  0.035381899  0.035979243            1 
  615000    1.1712701   -6.8703449    261.09986  0.035379385  0.035972755            2 
  616000    1.1383215   -6.8307764    262.36908  0.035493653  0.035966765            1 
  617000    1.1689334   -6.8678748    262.05282  0.035393412  0.035960516            2 
  618000    1.1613362    -6.865048    262.67978  0.035420683  0.035954101            1 
  619000    1.1463189   -6.8741727    262.80364  0.035380135  0.035947959            1 
  620000    1.1658751   -6.8885767    264.19154  0.035509616   0.03594168            2 
  621000    1.1490517   -6.8323654    264.29398   0.03546618  0.035935564            2 
  622000    1.1833619   -6.8435838    264.74146  0.035469112  0.035929563            2 
  623000     1.134203   -6.8543973    264.63654  0.035398146  0.035923531            1 
  624000    1.1500057   -6.8565226    264.82997  0.035367251  0.035917505            1 
  625000    1.1692331   -6.8915385    265.80241  0.035440322  0.035911466            1 
  626000    1.1224349   -6.8441857    265.62295  0.035359818  0.035905699            1 
  627000    1.1589365    -6.812765    266.40514  0.035407382  0.035899264            3 
  628000    1.1534883   -6.8700397    266.53963  0.035368847  0.035892884            2 
  629000     1.136726   -6.8664734    266.75211  0.035340767  0.035886471            2 
  630000    1.1406792   -6.8520524    267.41044  0.035371751   0.03587995            2 
  631000    1.1659127   -6.8296259    268.77582  0.035496015  0.035874027            2 
  632000     1.182014    -6.870321    267.27552  0.035242026  0.035867861            4 
  633000    1.1364409   -6.8468552    268.40317  0.035334804  0.035860942            2 
  634000     1.117879   -6.8756848    268.69183  0.035317012  0.035854279            1 
  635000    1.1624964   -6.8546308    268.75109  0.035269172  0.035847217            2 
  636000      1.18286   -6.8804723    268.17186  0.035137822  0.035839949            4 
  637000    1.1600527   -6.8686196    268.05143  0.035066906  0.035832475            4 
  638000    1.1720032   -6.8498678    270.16529  0.035288047  0.035825193            1 
  639000    1.1695422   -6.8287782    269.83881  0.035190247  0.035818139            1 
  640000     1.143019   -6.8691742    269.87725  0.035140267  0.035810519            1 
  641000    1.1692929   -6.8497428    270.51118   0.03516786  0.035802687            3 
  642000    1.1353603   -6.8670299    270.69274  0.035136649  0.035795056            1 
  643000    1.1521777   -6.8756503    271.78565  0.035223646  0.035787888            1 
  644000    1.1500696   -6.8461709    272.17302  0.035219076  0.035780659            2 
  645000     1.164039   -6.8892679    272.08832   0.03515353  0.035773139            3 
  646000    1.1519973   -6.8739229    272.72632  0.035181413  0.035765964            1 
  647000    1.1503597   -6.8900122    273.19174  0.035186984  0.035758876            1 
  648000    1.1365122   -6.8248819    274.33066  0.035279148  0.035752437            2 
  649000    1.1403986   -6.8319904     273.6159  0.035133013  0.035745869            5 
  650000    1.1541497   -6.8838353     274.8587  0.035238294  0.035738866            4 
  651000    1.1572854   -6.8352926    275.55995  0.035273931  0.035732003            1 
  652000     1.159872   -6.8625507    275.21824  0.035176156  0.035725507            4 
  653000    1.1526541   -6.8477041    275.32612  0.035136054  0.035718516            2 
  654000    1.1684546   -6.8254545    276.47351  0.035228531  0.035711355            1 
  655000    1.1512045   -6.8687881    276.74177  0.035208876  0.035704087            2 
  656000    1.1479439   -6.8797009    276.32846  0.035102701  0.035696703            2 
  657000    1.1214599   -6.8911535      276.506  0.035071791  0.035688812            1 
  658000    1.1397455    -6.831159    277.70546  0.035170397  0.035681183            3 
  659000    1.1692525   -6.8612332    276.80251  0.035002846  0.035673713            3 
  660000    1.1417777   -6.8837633     278.1023  0.035113927  0.035665555            1 
  661000    1.1342021   -6.8804496    278.24357  0.035078615  0.035657763            3 
  662000    1.1672433   -6.8675128     277.8726  0.034978927  0.035650149            2 
  663000     1.129618   -6.8608795    277.90779  0.034930592  0.035642272            2 
  664000    1.1327883   -6.8912793    278.51658   0.03495439  0.035633927            1 
  665000    1.1688605   -6.8458216    279.07529   0.03497184  0.035625656            2 
  666000    1.1326977   -6.8618265    278.99938  0.034909832  0.035617356            1 
  667000    1.1625129   -6.9067892    279.08675  0.034868409  0.035608937            1 
  668000    1.1464615   -6.8900053    279.89931  0.034917579  0.035600857            2 
  669000    1.1344863   -6.8561028    280.33559  0.034919729  0.035592512            1 
  670000     1.143896   -6.8707531    279.90224  0.034813711  0.035583882            2 
  671000    1.1481563   -6.8705207    281.51125  0.034961655  0.035575353            1 
  672000    1.1466548   -6.8727147    281.28495  0.034881567  0.035567512            3 
  673000    1.1396952   -6.8385884    282.24155  0.034948186  0.035559332            1 
  674000    1.1427481   -6.8309825     282.8235  0.034968286  0.035551234            1 
  675000    1.1570049   -6.8802558    282.63856   0.03489365  0.035543182            2 
  676000     1.149425   -6.9026825    282.94896  0.034880295   0.03553502            2 
  677000    1.1196507   -6.8513369    283.33565  0.034876373  0.035526555            2 
  678000    1.1437563   -6.8918822    283.07974  0.034793479  0.035517728       -1e+20 
  679000    1.1662874   -6.8094704    285.02191  0.034980598  0.035508689            3 
  680000    1.1212266   -6.8907503    283.54578  0.034748257  0.035500028            2 
  681000    1.1292684   -6.8403392    284.55167  0.034820322   0.03549143            4 
  682000    1.1388071   -6.8491729    285.01228  0.034825547  0.035482991            1 
  683000    1.1318601   -6.8563212    284.76878  0.034744848  0.035474289            1 
  684000    1.1355892   -6.8884007    284.91561  0.034711941  0.035465267            2 
  685000    1.1383468   -6.9155967    285.09206  0.034682732  0.035456673            1 
  686000    1.1615356   -6.8735192    286.09549  0.034754069  0.035447487            3 
  687000    1.1387169   -6.8622136    287.09392  0.034824589  0.035438944            4 
  688000    1.1549456   -6.8631213    287.18699  0.034785246  0.035430068            1 
  689000    1.1278889   -6.8991013    287.14763  0.034729999  0.035421636            2 
  690000    1.1443422   -6.8681461    287.48656  0.034720599  0.035413045            2 
  691000    1.1407958   -6.8607833    288.38835  0.034779107  0.035404827            2 
  692000    1.1617038   -6.9034299    288.69141  0.034765343  0.035396653            2 
  693000    1.1384428   -6.8493904    289.27084  0.034784853  0.035388842            1 
  694000    1.1430032   -6.8504747    289.79018  0.034797091  0.035380696            1 
  695000    1.1153993   -6.9040086    291.00039  0.034892133  0.035372808            1 
  696000    1.1407793   -6.8445496    290.32576  0.034761226  0.035365069            3 
  697000    1.1058528    -6.863883    291.37392  0.034836671  0.035357329            2 
  698000    1.1560883   -6.8605802     289.7326  0.034590807  0.035349226            2 
  699000    1.1317764   -6.8296929    290.85752  0.034675431    0.0353411            3 
  700000     1.123363   -6.9142626    291.40625  0.034691221  0.035332946            2 
  701000    1.1344315   -6.8612323     292.1191  0.034726474  0.035324988            3 
  702000    1.1427686   -6.9338784    292.14935  0.034680597  0.035317135            3 
  703000    1.1283169   -6.9020117    293.31145  0.034769019  0.035309029            1 
  704000    1.1408722   -6.8697534    292.75757  0.034654068  0.035300923            1 
  705000    1.1208155   -6.9004718    293.79727   0.03472781  0.035292995            3 
  706000     1.175299   -6.9083742    294.17218  0.034722873  0.035285235            1 
  707000    1.1413838   -6.8972489    295.18504  0.034793145  0.035277636            1 
  708000     1.145146   -6.8420354    295.07645  0.034731221  0.035270059            1 
  709000    1.1337692   -6.8732873    295.86938  0.034775432  0.035262696            1 
  710000    1.1178772   -6.9265963    295.94511  0.034735341  0.035255043            2 
  711000    1.1586131   -6.8555764    296.41867  0.034741991  0.035247497            2 
  712000    1.1499755   -6.8820225     295.9839  0.034642311  0.035239606            4 
  713000    1.1453302   -6.8932758    296.00169  0.034595803  0.035231652            2 
  714000    1.1562484    -6.914656    297.23554  0.034691356    0.0352238            2 
  715000    1.1409066   -6.9054859     297.3413  0.034655164  0.035215981            1 
  716000    1.1360379   -6.9080862    297.99803  0.034683197  0.035208487            3 
  717000    1.1395478    -6.898542    297.85156  0.034617801  0.035201004            3 
  718000    1.1412578   -6.8607852    299.70397  0.034784583  0.035193663            3 
  719000    1.1483421    -6.865409    299.91661  0.034760849   0.03518657            1 
  720000    1.1419944   -6.8740194    298.90371  0.034595336  0.035179293            1 
  721000    1.1523503   -6.8978327      300.024  0.034676837  0.035172279            2 
  722000    1.1513725   -6.8967812    300.10883    0.0346386  0.035165207            2 
  723000    1.1345616   -6.8989966    300.32326  0.034615405  0.035157979            1 
  724000    1.1300613   -6.8912849    300.68023  0.034608683  0.035150819            1 
  725000    1.1412448   -6.9215076    300.51215  0.034541627  0.035143225            2 
  726000    1.1149942   -6.9148624    300.81227  0.034528498  0.035135136            1 
  727000    1.1330567   -6.8357092    301.94726  0.034611102  0.035127529            2 
  728000    1.1403222   -6.8780513    301.97079  0.034566254  0.035119793            1 
  729000    1.1403418   -6.9066448    302.57686  0.034588118  0.035112011            1 
  730000     1.142909   -6.9154804    302.96191  0.034584693  0.035103964            4 
  731000    1.1270424   -6.9007699    301.44353  0.034364287  0.035095767            3 
  732000      1.14391   -6.8985054     303.0405  0.034499146  0.035087282            2 
  733000    1.1401132    -6.894034    303.57277  0.034512593   0.03507873            1 
  734000    1.1471765   -6.8649729    303.33538  0.034438621  0.035070083            2 
  735000    1.1301488   -6.8751165    303.51873  0.034412555  0.035061229            2 
  736000    1.1439629   -6.8663574    303.21495  0.034331403  0.035052389            4 
  737000    1.1285098   -6.8747311    303.15576  0.034278127   0.03504319            1 
  738000    1.1207831   -6.9155421    303.84175  0.034309141  0.035034111            1 
  739000    1.1394015   -6.8873902    304.91825  0.034384105   0.03502483            4 
  740000    1.1411525    -6.872919    304.76929  0.034320865   0.03501573            2 
  741000    1.1334604   -6.8891078    305.27337  0.034331238  0.035007097            3 
  742000    1.1336629   -6.8876799    306.20779  0.034389913  0.034998472            2 
  743000    1.1261778   -6.9028427    305.79933  0.034297817  0.034989906            1 
  744000    1.1051459    -6.894733    306.75547  0.034358811  0.034981762            3 
  745000    1.0980582   -6.9476455    306.41287  0.034274371  0.034973061            2 
  746000     1.133357   -6.8862848    306.90591  0.034283503  0.034964532            2 
  747000    1.1310583   -6.9111863    307.05739  0.034254506  0.034955392            3 
  748000    1.1363989   -6.9051529    307.31065  0.034236926  0.034946483            1 
  749000    1.1244261   -6.8912345    308.65092  0.034340334   0.03493772            1 
  750000    1.1217603   -6.8942718    308.05702  0.034228558  0.034929079            2 
  751000    1.1376778   -6.8971905     308.4613  0.034227841   0.03492048            2 
  752000    1.1320041   -6.8787112    309.15338  0.034259018  0.034911607            2 
  753000     1.111226    -6.932935    309.44431  0.034245718  0.034902976            2 
  754000    1.1413234   -6.9085179    309.32959   0.03418762  0.034894025            2 
  755000    1.1198506   -6.9061917    309.93529  0.034209193  0.034884879            6 
  756000    1.1190993   -6.8996777    310.01744  0.034172998  0.034875654            2 
  757000    1.1311608    -6.908962    308.83643  0.033997846  0.034866106            1 
  758000    1.1450981   -6.8902558    310.33696  0.034117959  0.034856684            1 
  759000    1.0947287    -6.895448    311.93096  0.034248019  0.034847122            1 
  760000    1.1430375    -6.885224    311.68554  0.034176046  0.034837757            3 
  761000    1.1282216   -6.9462544    311.22237  0.034080417  0.034828178            2 
  762000    1.1320967    -6.888306    312.12539  0.034134447     0.034819            2 
  763000      1.13138    -6.956911    312.32009  0.034110975  0.034809787            6 
  764000     1.140152    -6.941408    311.89218  0.034019654  0.034800476            2 
  765000    1.1314548   -6.9203996    313.19133  0.034116702  0.034791377            3 
  766000    1.1356034   -6.8903264    313.96115  0.034155913  0.034782248            2 
  767000     1.136167    -6.877672    314.43111  0.034162441  0.034773031            3 
  768000    1.1340643   -6.8787873    314.81729  0.034159863  0.034764338            2 
  769000    1.1380375   -6.9248136    314.61969  0.034094028  0.034755598            3 
  770000    1.1294609   -6.9104571    315.55628  0.034151113  0.034746607            3 
  771000    1.1592839   -6.9768735    313.50998  0.033885644  0.034737729            3 
  772000     1.119972   -6.8529674    316.36711  0.034150163  0.034728898            2 
  773000    1.1289889   -6.9193834    316.14916  0.034082488  0.034720125            1 
  774000    1.1129592   -6.8644146    316.89121  0.034118348  0.034711833            2 
  775000     1.124876   -6.8771353    317.48343  0.034138004  0.034703496            3 
  776000    1.1143672   -6.8935407    317.57424  0.034103762  0.034695084            3 
  777000    1.1219837    -6.897543    318.29741  0.034137432  0.034687038            1 
  778000     1.118997   -6.9258351    318.41822  0.034106493  0.034678687            1 
  779000    1.1478786   -6.8740755    319.30558  0.034157636  0.034670044            1 
  780000    1.1496788   -6.8741846    319.19739  0.034102285  0.034661696            1 
  781000    1.1144792    -6.918731    319.64381  0.034106253  0.034653278            2 
  782000    1.1387637   -6.8815149    319.75801  0.034074809  0.034645246            3 
  783000    1.1191017   -6.9170494    320.45607  0.034105584  0.034637336            1 
  784000    1.1494828   -6.8881202    320.76961   0.03409541  0.034629593            3 
  785000    1.1139488   -6.9062877    320.72608  0.034047354  0.034622096            2 
  786000    1.1395754    -6.891307    321.67067  0.034104185   0.03461465            2 
  787000    1.1284092   -6.9090545     323.6784  0.034273444  0.034607263            2 
  788000     1.126467   -6.8924842     323.3669  0.034197007  0.034599767            4 
  789000    1.1416373   -6.9105137    323.90679  0.034210687  0.034592642            2 
  790000    1.1273261   -6.9109129     324.0779  0.034185432   0.03458531            4 
  791000    1.1373019     -6.92224    324.33819  0.034169637  0.034577791            2 
  792000    1.1287553   -6.9209487    325.09713  0.034206348  0.034570102            2 
  793000    1.1135075   -6.8975517    325.25028  0.034179307  0.034562792            2 
  794000    1.1149737   -6.9613666    324.84423  0.034093643  0.034555469            2 
  795000    1.1055993   -6.9335269     325.4313  0.034112296  0.034547748            4 
  796000     1.128831   -6.9025274    325.67525   0.03409498  0.034540444            1 
  797000    1.0895321   -6.9078293    327.22691  0.034214441  0.034533901            1 
  798000    1.1084914   -6.9006536    327.20844  0.034169636  0.034527025            1 
  799000    1.1267908   -6.9179875    327.39835  0.034146678  0.034519918            2 
  800000    1.1222867   -6.9041617    326.61016  0.034021892  0.034512688            2 
  801000    1.1276628   -6.8981998    326.75756  0.033994752  0.034505535            2 
  802000     1.124796   -6.9487545    327.18879  0.033997173  0.034498132            1 
  803000    1.1286936   -6.9026585    328.44352  0.034085047  0.034490695            2 
  804000    1.0913625   -6.8556361    328.87406  0.034087278  0.034483688            4 
  805000    1.1335558   -6.8803501    329.09653  0.034067964  0.034476787            4 
  806000    1.1353833   -6.9114849    329.18592  0.034034938  0.034469573            3 
  807000     1.103718   -6.9348429    329.13364  0.033987364  0.034462022            2 
  808000    1.1286999   -6.9168279    329.60052  0.033993453  0.034454225            2 
  809000    1.1139066    -6.902957    329.48516  0.033939551  0.034446403            3 
  810000    1.1103978   -6.9484735    329.41794  0.033890735  0.034438291            1 
  811000    1.1342153   -6.9376779    328.59562   0.03376445  0.034430122            3 
  812000    1.1265737    -6.899922    330.22561  0.033890149  0.034421942            2 
  813000    1.1221423   -6.9308146    329.93152  0.033818319  0.034413544            2 
  814000     1.140928   -6.9231707    330.66695  0.033852063  0.034405192            2 
  815000    1.1493297   -6.9392487    330.59378  0.033803045   0.03439658            2 
  816000    1.1105099   -6.9288052     331.5196  0.033856169  0.034388212            3 
  817000     1.138462   -6.9130037    332.06055  0.033869905  0.034379573            2 
  818000    1.1227357   -6.9248086    332.28324  0.033851186  0.034371246            1 
  819000    1.1166156   -6.9003774    332.61166   0.03384327   0.03436313            3 
  820000    1.1105382   -6.9129515    332.50216   0.03379087    0.0343546            1 
  821000    1.0884711   -6.9262466    332.31153  0.033730362  0.034345966            4 
  822000    1.1145881   -6.8972762    333.78967   0.03383918   0.03433751            2 
  823000    1.1211947   -6.9537495    332.84499  0.033702409  0.034329094            5 
  824000    1.1295104   -6.9098635    333.43652  0.033721331   0.03432037            3 
  825000    1.1401238   -6.9032524    334.70386  0.033808471  0.034311889            3 
  826000    1.1274476   -6.9391026    334.48803  0.033745766  0.034303583            3 
  827000     1.112613   -6.9136742    335.36858   0.03379369   0.03429525            1 
  828000     1.124588   -6.9149465    335.83197  0.033799514  0.034286833            2 
  829000    1.1415162   -6.9482694      336.238  0.033799558  0.034278406            1 
  830000    1.1399183   -6.9109219     335.9569  0.033730613  0.034270176            2 
  831000    1.1177687   -6.8986358    337.40662  0.033835401  0.034262132            1 
  832000    1.1323543   -6.8924014    336.78554  0.033732526  0.034253865            3 
  833000    1.0885747   -6.9416092     336.1293   0.03362638  0.034245774            1 
  834000    1.1369147    -6.925954    336.51292  0.033624392  0.034237285            1 
  835000    1.1327331   -6.9265431    336.96749   0.03362949  0.034228698            2 
  836000    1.1249956   -6.8893786    338.96777  0.033788653  0.034220312            2 
  837000    1.1059687   -6.8970069     338.3777  0.033689536  0.034212097            2 
  838000    1.0976348   -6.9258032    338.49779  0.033661276  0.034203672            2 
  839000    1.1169473   -6.9258795    338.13205  0.033584828  0.034195196            2 
  840000    1.1182696   -6.9606534     338.3664  0.033568095    0.0341866            1 
  841000    1.1225326   -6.8920384    339.54144  0.033644614  0.034178308            2 
  842000    1.1193301   -6.9002131     340.8275  0.033731938  0.034170211            2 
  843000    1.1207161   -6.8991523    340.33267  0.033643009  0.034162164            3 
  844000    1.1073924   -6.9293609    341.50097  0.033718501  0.034153923            4 
  845000    1.1178911   -6.8976896    341.36886  0.033665568  0.034145788            5 
  846000    1.1055754   -6.9549429     341.5429  0.033642918  0.034137587            1 
  847000    1.1160644   -6.9562412    341.33874  0.033583111  0.034129599            1 
  848000    1.1085896   -6.8659584    342.48391  0.033656044  0.034121641            4 
  849000     1.117239    -6.919888    343.32171  0.033698636  0.034113621            2 
  850000     1.110167   -6.9288736    342.74604  0.033602553  0.034105997            2 
  851000    1.1187469   -6.9272089    343.27922  0.033615278  0.034098397            3 
  852000    1.1184242   -6.9545282    342.91335  0.033540038  0.034090608            2 
  853000    1.1266393   -6.9538644    344.28173  0.033634401  0.034082982            2 
  854000    1.1135091   -6.9052349    345.55823  0.033719578  0.034075562            2 
  855000    1.1025918   -6.9531676    345.05696  0.033631282  0.034068149            1 
  856000    1.1116582   -6.9251616    346.40546  0.033723273  0.034060893            1 
  857000    1.1119675   -6.9673675    345.97469  0.033642035  0.034053755            4 
  858000    1.1331684   -6.9060071    347.52901  0.033753789  0.034046707            3 
  859000    1.1022359    -6.956058    347.13546  0.033676315  0.034039799            4 
  860000     1.121445   -6.9190225    347.51202  0.033673645    0.0340327            3 
  861000     1.107787   -6.9249185    347.17433  0.033601851  0.034025399            1 
  862000    1.1074791   -6.9615982    347.96883  0.033639678  0.034018082            2 
  863000     1.089664   -6.9045662    349.62036  0.033760174  0.034011188            2 
  864000    1.1258436   -6.8818185    349.41893  0.033701672  0.034004339            1 
  865000    1.0943427   -6.9411559    349.33846  0.033654957  0.033997808            2 
  866000    1.1164348    -6.949158    349.87061  0.033667303  0.033990905            2 
  867000    1.0983885   -6.9571482    349.40143  0.033583375  0.033983865            2 
  868000    1.0854881   -6.9187324    350.58079   0.03365791   0.03397676            2 
  869000    1.1050752    -6.938685    352.14756  0.033769425  0.033969897            4 
  870000    1.1094671   -6.9291772    350.62325  0.033584603  0.033963115            1 
  871000    1.1012246   -7.0167881    350.35255  0.033520145  0.033956347            2 
  872000    1.1162817   -6.9127931    353.21676  0.033755424  0.033949783            2 
  873000    1.0957428   -6.8668972     353.7987  0.033772309  0.033943264            2 
  874000    1.1047195   -6.9439783    352.56607  0.033616139  0.033936792            2 
  875000    1.1313147   -6.8793725    355.65531  0.033871935   0.03393074            1 
  876000    1.1214235   -6.9584248    354.44168  0.033717815  0.033924473            1 
  877000    1.1124791   -6.9480727    354.68176  0.033702182  0.033917979            3 
  878000    1.1150117   -6.9364746    354.04243  0.033603116  0.033911536            2 
  879000    1.1222152   -6.9662371    354.53638  0.033611716  0.033905232            1 
  880000    1.1018992   -6.9542379    354.73442  0.033592274  0.033898844            2 
  881000    1.1299897    -6.964945    354.64672   0.03354585  0.033892266            2 
  882000    1.0868247    -6.906111    355.89502  0.033625758  0.033885719            2 
  883000    1.1260777   -6.9017624     356.2588  0.033622009  0.033879007            1 
  884000    1.1150436   -6.9447004    356.57246  0.033613543  0.033872169            2 
  885000    1.0938022   -6.9600318    355.34383  0.033459871  0.033865786            1 
  886000    1.1301076   -6.9386704    357.31947  0.033607926  0.033858937            2 
  887000    1.1271068   -6.9191781    356.94424  0.033534784  0.033852126            2 
  888000    1.0966962   -6.9730536     357.6255  0.033560952  0.033845334            4 
  889000    1.1134959   -6.9339502    357.72734  0.033532746  0.033838332            3 
  890000    1.0974077   -6.9600416    357.70099  0.033492602  0.033831199            1 
  891000    1.0944917   -6.9532958    357.31046  0.033418486  0.033824221            1 
  892000    1.1166672   -6.9466982    358.68347  0.033509293  0.033816816            2 
  893000      1.10872   -6.9258491    358.28698  0.033434769  0.033809813            1 
  894000    1.1137009   -6.9367449    357.89409  0.033360747  0.033802851            2 
  895000    1.1229784   -6.9421672    360.73503  0.033587992  0.033796142            2 
  896000    1.1077068   -6.9755129    359.80149  0.033463681  0.033789412            3 
  897000     1.131639   -6.9533507    359.82548  0.033428603  0.033782935            2 
  898000    1.1264542   -6.9975747    360.42693  0.033447191  0.033776128            4 
  899000    1.1073668   -6.9796067    360.84962  0.033449167  0.033769185            3 
  900000    1.1329417   -6.9581332    360.26433  0.033357808   0.03376222            2 
  901000    1.1053114   -6.9371469    362.19065   0.03349895  0.033755264            3 
  902000    1.1060475   -6.9525051     362.3549  0.033476987  0.033748281            4 
  903000    1.1137099   -6.9644478    361.51143  0.033362074  0.033741252            2 
  904000    1.1022011   -6.9892067     362.1493  0.033383969  0.033734449            1 
  905000    1.1039268   -6.9518252    362.95344  0.033421127  0.033727499            2 
  906000     1.109695   -6.9977139    363.31265  0.033417278  0.033720555            3 
  907000    1.0896698   -6.9366827    363.50326  0.033397947  0.033713997            2 
  908000     1.088505   -6.9586367    364.39943  0.033443413  0.033707439            3 
  909000    1.1390118   -6.9321894     363.1293  0.033290181  0.033700822            2 
  910000    1.0923833   -6.9429129     364.8988  0.033415641  0.033694208            2 
  911000    1.0827692   -6.9605574    365.35656  0.033420835  0.033687519            1 
  912000    1.1035061   -6.9774681    364.58222  0.033313434  0.033680936            4 
  913000    1.1300544     -6.96312    366.08729   0.03341432  0.033674062            4 
  914000    1.1125101   -6.9027644    367.18123  0.033477501  0.033667393            3 
  915000    1.1262323   -6.9476544    365.04238  0.033246119  0.033660752            4 
  916000    1.1050212   -6.9633973    366.05729  0.033302155  0.033653848            1 
  917000    1.1326513    -6.953892    366.19397   0.03327826  0.033646851            2 
  918000    1.1167061   -6.9757453    365.57332  0.033185668  0.033639561            3 
  919000    1.0992744   -6.9631922    366.36614  0.033221449   0.03363201            3 
  920000    1.1073874   -6.9996867    366.26225  0.033175929  0.033624631            1 
  921000    1.1284545   -6.9595211    368.86462  0.033375373  0.033617437            1 
  922000    1.0970399   -6.9688121    368.72315  0.033326387  0.033610392            3 
  923000    1.1035929   -6.9730798    369.33501  0.033345523  0.033603219            5 
  924000     1.104585   -6.9573576    369.42044  0.033317139  0.033596011            1 
  925000    1.1035776   -6.9827669    368.49394  0.033197652  0.033588579            2 
  926000    1.1170426   -6.9520076    369.71156  0.033271379  0.033581225            3 
  927000    1.1092917    -6.971526    369.76435  0.033240233  0.033573804            4 
  928000    1.1284442   -6.9310828    370.25209  0.033248212  0.033566521            3 
  929000       1.1259   -6.9264131    370.61549   0.03324502  0.033559472            1 
  930000    1.1065839   -6.9087582    371.22324  0.033263731  0.033552184            2 
  931000    1.0772715   -6.9610765    371.38668  0.033242631  0.033544974            2 
  932000    1.0690449   -6.9901281    369.15587  0.033007499  0.033537447            1 
  933000     1.111493   -6.9451075    370.94299  0.033131742  0.033529812            1 
  934000    1.0982588    -6.958724    371.82583  0.033175038  0.033522336            2 
  935000     1.105082   -6.9889225    370.77241   0.03304567  0.033514607            3 
  936000    1.1323307   -6.9562786     371.1148  0.033040848  0.033506782            3 
  937000    1.1020929   -6.9698397    371.94039   0.03307901  0.033499296            3 
  938000    1.1169196   -6.9243269    372.05094  0.033053566  0.033491255            2 
  939000    1.1049541   -6.9749957    371.36995  0.032957929  0.033483452            3 
  940000    1.1105399   -6.9305759    371.83502  0.032964097  0.033475255            1 
  941000     1.076169   -6.9315552    373.03898  0.033035687  0.033467425            2 
  942000    1.1089122   -6.9709331    373.28998  0.033022822  0.033459462            2 
  943000    1.0931681   -6.9294584    374.76132  0.033117826  0.033451676            1 
  944000    1.0934342    -6.926376    374.30395  0.033042368  0.033444031            1 
  945000    1.0902711   -6.9709084    375.04454  0.033072711  0.033436296            2 
  946000    1.0937142   -6.9529619    373.88131  0.032935281  0.033428683            3 
  947000    1.0791826   -6.9518155    375.24638  0.033020624  0.033421193            2 
  948000    1.1121182   -6.9762042    376.04099  0.033055643  0.033413469            2 
  949000    1.1091602    -6.971383    375.37972  0.032962743  0.033405609            1 
  950000    1.0983214     -6.96147    376.82406  0.033054742  0.033397727            2 
  951000     1.123128   -6.9691247    375.98985  0.032946885  0.033390115            1 
  952000    1.1294049   -6.9523298    375.99891   0.03291307  0.033382271            3 
  953000    1.1009596    -6.951421    377.59652  0.033018234  0.033374318            3 
  954000    1.0956211   -6.9656114     377.2955  0.032957329  0.033366399            2 
  955000    1.1118281   -6.9689046    376.94374  0.032892124  0.033358327            5 
  956000    1.0960688   -6.9756943    377.05275   0.03286722  0.033350055            2 
  957000    1.0916967   -6.9041745    378.55024  0.032963274  0.033342113            5 
  958000    1.0982308   -6.9789738    377.70297  0.032855165  0.033334142            1 
  959000    1.1198205   -6.9416414    378.47905  0.032888343   0.03332605            2 
  960000    1.0755639   -6.9670405    378.14146   0.03282478  0.033318108            3 
  961000    1.0868817    -6.941957    379.07053  0.032871187  0.033310217            3 
  962000    1.1267656   -6.9402703    379.23217   0.03285102  0.033302177            3 
  963000    1.1381603   -6.9564305    379.58389  0.032847343  0.033294059            3 
  964000    1.1082246   -6.9639657     380.2391  0.032869908  0.033285813            2 
  965000    1.1094158   -6.9784088    379.61755  0.032782171  0.033277728            1 
  966000    1.1117566    -6.981673    381.26916  0.032890715  0.033269454            2 
  967000    1.1371746    -6.937302    381.32254  0.032861302  0.033261308            1 
  968000    1.0833895   -6.9627073    382.28025  0.032909802  0.033253208            1 
  969000    1.0792851   -6.9142985    381.16741  0.032780135  0.033245151            1 
  970000    1.0864748   -6.9734655    381.70495  0.032792521  0.033237035            2 
  971000    1.0817356   -6.9382357     382.4099   0.03281925   0.03322908            2 
  972000     1.091968   -6.9547369    381.97342  0.032748064  0.033221175            3 
  973000    1.0820519   -6.9604587    382.74894  0.032780827  0.033213362            1 
  974000    1.0709921   -6.9820736    383.11933  0.032778861  0.033205484            3 
  975000    1.1166204   -6.9552771    383.72744  0.032797217  0.033197743            2 
  976000    1.0902541   -6.9864517    384.47759  0.032827663  0.033190172            2 
  977000    1.1059647   -6.9655569    385.31929  0.032865855  0.033182545            4 
  978000    1.0929909   -6.9707681    386.19403  0.032906785   0.03317505            2 
  979000    1.0846296   -6.9877465    385.99302  0.032856062   0.03316757            3 
  980000    1.0691684   -6.9880094     384.4485  0.032691199  0.033160065            2 
  981000    1.1094854    -6.997396    385.19249  0.032721075  0.033152782            3 
  982000    1.0977006   -6.9304422    388.82473  0.032995989  0.033145537            1 
  983000    1.1145623    -6.965346    387.21458  0.032825923  0.033138659            2 
  984000    1.0921578   -6.9530881    388.09451  0.032867083  0.033131436            2 
  985000    1.0927999    -6.946274    387.58606  0.032790699  0.033124478            2 
  986000    1.1027154   -6.9956022    387.91749  0.032785454  0.033117454            3 
  987000    1.1004171   -6.9724986    389.74295  0.032906361  0.033110236            2 
  988000    1.0923244   -6.9691782     390.0036   0.03289504  0.033103462            1 
  989000    1.0754723   -6.9953814    389.24599  0.032797943  0.033096649            2 
  990000    1.0932029   -6.9756605    389.97169    0.0328259  0.033089831            2 
  991000    1.0836072   -6.9901158    390.26172  0.032817164  0.033083291            2 
  992000     1.072385   -6.9534458     392.8747  0.033003587  0.033076819            1 
  993000    1.0889215   -6.9789893    393.22917  0.033000099  0.033070415            1 
  994000    1.1211341   -6.9555724    392.11241  0.032873274  0.033064024            4 
  995000    1.0987569   -6.9824058    391.46768  0.032786238   0.03305757            4 
  996000     1.099471   -6.9751544    393.09133  0.032889168  0.033051027            2 
  997000    1.0901974   -6.9621863    392.78762  0.032830794   0.03304466            2 
  998000    1.0998981    -6.992413    393.29267  0.032840069  0.033038182            4 
  999000    1.1041878   -6.9824136    393.54071  0.032827887  0.033031419            2 
 1000000    1.1262317   -6.9997793    392.99627  0.032749689  0.033024888            2 
 1001000    1.0855633   -6.9802971    393.47611  0.032756919  0.033018394            2 
 1002000    1.0832797   -6.9901084    393.71865  0.032744398  0.033011936            2 
 1003000    1.0588373   -7.0025639    394.42858  0.032770736  0.033005539            3 
 1004000    1.0989466   -6.9885971    395.87905  0.032858487  0.032998943            3 
 1005000    1.0890052   -6.9642381    395.77437  0.032817112  0.032992648            2 
 1006000    1.0962124   -6.9803937    396.70233  0.032861359  0.032986291            3 
 1007000    1.0897044   -6.9770229    396.62436  0.032822274  0.032980081            3 
 1008000    1.0966098   -6.9577429    397.07325  0.032826823  0.032973556            2 
 1009000    1.1041278    -6.984685     397.0683   0.03279388  0.032967104            4 
 1010000    1.0923801   -7.0042885    397.63596  0.032808247   0.03296051            2 
 1011000    1.0764494   -6.9776829    397.42052  0.032758039  0.032953715            2 
 1012000    1.0920783   -6.9823482    398.49788  0.032814384   0.03294688            2 
 1013000    1.0749301    -6.957173    397.18989   0.03267439  0.032940005            3 
 1014000    1.1013775   -6.9536865    398.52877    0.0327522  0.032933204            1 
 1015000    1.0903477   -6.9884762    398.61431  0.032726955   0.03292624            2 
 1016000    1.0929335   -6.9622802    398.37559  0.032675163  0.032919083            3 
 1017000    1.0902234   -7.0247371    397.39238   0.03256247  0.032911711            1 
 1018000    1.1018779   -6.9825906    397.29897  0.032522836  0.032904437            1 
 1019000    1.1020054   -6.9564172    399.28992  0.032653739  0.032897448            4 
 1020000    1.0697168    -7.018162    399.04656  0.032601843  0.032890429            1 
 1021000    1.0880574   -6.9696955    400.20122  0.032664155  0.032883536            4 
 1022000    1.0804934   -6.9769463    399.94418  0.032611234  0.032876767            2 
 1023000    1.0852335   -6.9740922    400.71293  0.032641979   0.03286986            5 
 1024000    1.0904437   -6.9996429    401.17828  0.032647972  0.032863167            5 
 1025000    1.0877524   -7.0029163    400.11898  0.032529998  0.032856239            1 
 1026000    1.1065638   -6.9753325    402.38589  0.032682415  0.032849719            1 
 1027000    1.0907929   -6.9801667    401.21918  0.032555922  0.032842771            4 
 1028000    1.1046244   -7.0100919    401.54552  0.032550707  0.032835834            4 
 1029000    1.0461001   -7.0145068    402.01394  0.032557008  0.032828808            2 
 1030000    1.1013341   -6.9622737    402.85812  0.032593699  0.032821945            1 
 1031000    1.0765422   -6.9832865    403.71724  0.032631526  0.032815159            1 
 1032000    1.0923175   -6.9956153    403.54671  0.032586136   0.03280845            3 
 1033000      1.07537   -6.9889112    403.87562  0.032581124   0.03280173            4 
 1034000    1.0899642   -6.9799937    405.07806  0.032646523  0.032795228            3 
 1035000    1.0764223   -6.9970205    404.42035  0.032562025   0.03278864            3 
 1036000    1.0863017   -6.9993384    403.89517   0.03248835  0.032781918            2 
 1037000    1.0812999   -6.9631922    405.56565  0.032591261  0.032775155            3 
 1038000    1.0968001   -7.0207105    404.26852  0.032455725  0.032768322            2 
 1039000    1.0716981   -6.9915088    404.15812  0.032415633  0.032761182            2 
 1040000    1.0710159   -6.9916463    405.50971  0.032492765  0.032754116            1 
 1041000     1.089835   -7.0103978    405.55914  0.032465509  0.032747164            3 
 1042000    1.0739318   -7.0086265    406.61906  0.032519119  0.032739802            3 
 1043000    1.1003556   -7.0015063    406.75468  0.032498776  0.032732566            3 
 1044000    1.0532621   -7.0071996    406.42151  0.032441053  0.032725467            2 
 1045000    1.1100272   -6.9948755     406.7014  0.032432329   0.03271829            2 
 1046000    1.0956914   -7.0208862    407.26851  0.032446503  0.032710959            2 
 1047000    1.0810676   -7.0143564     407.1783  0.032408333  0.032703805            1 
 1048000    1.0917817   -6.9976495    406.90455  0.032355642  0.032696324            3 
 1049000    1.0697206   -6.9764305    408.99801  0.032491103  0.032689067            4 
 1050000    1.0805427   -7.0013876    407.80509  0.032365483  0.032681788            4 
 1051000    1.0721383    -6.966937    407.24838  0.032290547  0.032674309            3 
 1052000    1.0677973   -7.0191134    408.00018  0.032319406  0.032666949            4 
 1053000    1.0695842   -7.0030671    408.07537  0.032294664   0.03265922            2 
 1054000    1.0748031   -6.9813205    408.49047  0.032296843  0.032651437            2 
 1055000    1.0778099   -6.9611206     410.1652  0.032398515  0.032643777            2 
 1056000    1.0807062   -6.9885732    408.98147  0.032274422  0.032636166            2 
 1057000    1.1030206   -6.9839449     409.2252  0.032263103  0.032628574            1 
 1058000    1.0945469   -7.0130897      408.652   0.03218746  0.032620915            3 
 1059000    1.0824799    -6.999117    409.52104  0.032225452  0.032613168            2 
 1060000    1.0933404   -6.9816369    411.30947   0.03233565  0.032605614            3 
 1061000    1.0848285   -6.9758739    411.83106  0.032346141  0.032597977            1 
 1062000    1.0841053    -7.013298    410.81898  0.032236267   0.03259036            2 
 1063000    1.0834218   -6.9763617    411.52372  0.032261189  0.032583078            3 
 1064000    1.0779764   -7.0117336     412.2202  0.032285417  0.032575569            1 
 1065000    1.0774299   -7.0203078    411.73262   0.03221695  0.032568226            2 
 1066000    1.0617186   -7.0284945    414.07271  0.032369661  0.032561163            4 
 1067000    1.0431052   -7.0003468    412.32804  0.032203065  0.032553961            3 
 1068000      1.07641   -6.9527517    414.29117   0.03232609     0.032547            2 
 1069000    1.0628188   -6.9894426    415.22995  0.032369033  0.032539871            1 
 1070000    1.0740631   -7.0307745    413.92234  0.032236942  0.032532467            2 
 1071000    1.0737129   -6.9705129    415.40549  0.032322245  0.032524998            3 
 1072000     1.076311   -6.9714596    414.54562  0.032225251  0.032517631            6 
 1073000    1.0525586   -6.9542581    415.62941  0.032279389   0.03251046            2 
 1074000    1.0664931   -7.0006079    415.69722  0.032254595  0.032503432            1 
 1075000    1.0764867    -6.977156    416.03072  0.032250443  0.032496361            3 
 1076000    1.0800734   -7.0021799    416.31787   0.03224271  0.032489169            2 
 1077000    1.0861396   -7.0032189    415.88699  0.032179432  0.032481842            2 
 1078000    1.0882145   -7.0064225    415.17291  0.032094381  0.032474484            3 
 1079000    1.0941959   -7.0236342    416.19446  0.032143533  0.032467113            2 
 1080000    1.0692227   -7.0359409     416.0123  0.032099714  0.032459902            1 
 1081000    1.0551177   -7.0371033    415.08052   0.03199819  0.032452334            3 
 1082000    1.0713907   -7.0408329    417.53139  0.032157378  0.032444603            2 
 1083000    1.0858081    -7.027012    417.58621  0.032131903  0.032436957            2 
 1084000    1.0802601   -7.0365148    416.77232  0.032039693  0.032429426            1 
 1085000    1.0813734   -7.0335967    416.95789  0.032024415  0.032421729            4 
 1086000    1.0754029   -7.0043929    417.12657   0.03200787  0.032413998            2 
 1087000    1.0776195   -7.0376293      417.317  0.031993023  0.032406313            2 
 1088000    1.0897149   -6.9913672    419.66176  0.032143211  0.032398801            2 
 1089000    1.0718446    -6.989738    418.42089   0.03201874  0.032391173            1 
 1090000    1.0755239   -7.0496995    419.24235  0.032052167  0.032383779            2 
 1091000     1.097355   -6.9701205    421.03947  0.032160057  0.032376568            1 
 1092000     1.070063   -7.0313422    421.56844  0.032170974  0.032369123            2 
 1093000    1.0794121   -7.0323621    420.12987  0.032031859  0.032361791            2 
 1094000    1.1047034   -6.9881242    421.23975  0.032087123  0.032354404            2 
 1095000    1.0536702   -7.0081282    421.14841  0.032050868  0.032347107            3 
 1096000    1.0863634   -6.9966995    421.92814  0.032080911  0.032339685            2 
 1097000    1.1084619   -6.9972328    422.03213  0.032059566  0.032332424            1 
 1098000    1.0742283   -6.9830397    422.92926  0.032098456  0.032325144            2 
 1099000    1.0523778   -6.9683106    423.30208  0.032097519  0.032317934            3 
 1100000    1.0732291   -7.0257271    423.49989  0.032083325   0.03231082            1 
 1101000    1.0625103   -6.9878223    423.68751  0.032068385    0.0323037            3 
 1102000    1.0817748   -7.0214712    424.62783  0.032110392   0.03229639            1 
 1103000    1.0582706   -7.0387134    422.58104  0.031926642  0.032289103            4 
 1104000    1.0762845   -7.0219895    423.61199  0.031975542  0.032281601            2 
 1105000    1.0661395    -6.993214    425.10436  0.032059152  0.032274372            1 
 1106000    1.0505457   -6.9984816    425.11432  0.032030916  0.032267256            1 
 1107000    1.0967293   -7.0361727    424.14568  0.031929063  0.032259942            3 
 1108000    1.0743844   -7.0281186     424.9868  0.031963508   0.03225261            2 
 1109000    1.0706202   -7.0003046    425.04551  0.031939098  0.032245344            2 
 1110000      1.03396   -7.0242223    425.77119  0.031964804  0.032238077            3 
 1111000    1.0780586   -7.0233216    424.84988  0.031866928  0.032230633            2 
 1112000    1.0600544   -7.0688264    425.04569  0.031852944  0.032223179            3 
 1113000    1.0876599     -7.00606    426.46324  0.031930461   0.03221572            4 
 1114000    1.0740569   -7.0156459    426.24841  0.031885728  0.032208098            2 
 1115000    1.0774339   -7.0070958     426.5339  0.031878468  0.032200636            2 
 1116000     1.074561   -7.0186277     427.3214  0.031908707  0.032193157            1 
 1117000    1.0993266   -7.0165608    428.15144  0.031942065  0.032185638            3 
 1118000    1.0790375   -7.0056538     427.5303  0.031867196  0.032177974            1 
 1119000    1.0855174   -7.0171095    426.64378  0.031772697  0.032170179            2 
 1120000    1.0580093   -7.0092265    427.06776  0.031775875  0.032162328            2 
 1121000    1.0573972   -7.0297708    427.49781  0.031779498  0.032154436            3 
 1122000    1.0829353   -6.9910259    427.26304  0.031733738  0.032146665            3 
 1123000    1.0625661    -7.037365    428.12288  0.031769284  0.032138989            5 
 1124000    1.1015831   -7.0703151    428.86917   0.03179635  0.032131259            2 
 1125000    1.0803732   -6.9842022    429.36767  0.031805012  0.032123606            3 
 1126000    1.0717879   -6.9774046    429.14686  0.031760425  0.032115896            2 
 1127000    1.0810986   -7.0082821    428.56761  0.031689412  0.032108248            2 
 1128000    1.0767028   -7.0566826    429.47565  0.031728402  0.032100322            2 
 1129000    1.0636653    -6.998446    429.73559  0.031719486  0.032092583            4 
 1130000    1.0979527   -7.0084707    431.31664  0.031808012  0.032084998            1 
 1131000    1.0682832   -7.0262278    431.54982  0.031797069  0.032077409            1 
 1132000    1.0594346   -6.9964285    431.29937  0.031750542  0.032069878            2 
 1133000    1.0903376    -6.995487    431.91718   0.03176796   0.03206251            3 
 1134000    1.0703746   -7.0482159    431.57708  0.031714953   0.03205521            3 
 1135000    1.0718127   -7.0626922    431.97118  0.031715946  0.032047651            2 
 1136000     1.090729    -7.029994    431.08412  0.031622955  0.032040069            2 
 1137000    1.0712355   -7.0070836    433.29311  0.031757044  0.032032241            2 
 1138000    1.0718137   -7.0518346     432.6081  0.031678976  0.032024634            5 
 1139000    1.0558956   -7.0465808    431.95601  0.031603454  0.032016853            1 
 1140000    1.0754385   -7.0112836    432.42601  0.031610088  0.032009298            2 
 1141000    1.0833857    -7.010676    434.02485  0.031699156    0.0320017            3 
 1142000    1.0778518   -6.9916023    433.77676  0.031653295  0.031993958            2 
 1143000    1.0666924   -7.0347157    432.73733   0.03154982  0.031985994            5 
 1144000    1.0499383   -7.0362465    434.23572   0.03163139  0.031978087            2 
 1145000    1.0939655   -7.0577833    433.55503  0.031554223  0.031970102            3 
 1146000     1.085444   -7.0486711    434.90013    0.0316245  0.031962037            1 
 1147000    1.0733212   -7.0348918    434.76703  0.031587258  0.031954282            1 
 1148000    1.0529811    -7.062904    435.16016  0.031588281   0.03194621            2 
 1149000    1.0774382    -7.033184    433.82494   0.03146395  0.031938233            3 
 1150000    1.0730907   -7.0498693    435.14723  0.031532408  0.031929939            1 
 1151000    1.0812794   -7.0481271     435.9524  0.031563307  0.031921758            2 
 1152000    1.0788735   -7.0477932    435.04285  0.031470113  0.031913807            2 
 1153000    1.0696234   -7.0344159    435.12635  0.031448854  0.031905723            2 
 1154000    1.0572391   -7.0354251    437.84844  0.031618172   0.03189757            2 
 1155000    1.0405157   -7.0039842    435.24977  0.031403302   0.03188943            2 
 1156000    1.0819179   -7.0243366    436.64359  0.031476614  0.031881527            3 
 1157000    1.0594404   -7.0247229    437.13613  0.031484884   0.03187349            3 
 1158000    1.0501654   -7.0494823    437.44983   0.03148027  0.031865494            1 
 1159000    1.0728385   -7.0100042    437.15105  0.031431625  0.031857523            2 
 1160000     1.038241   -7.0628008    436.32242  0.031345001  0.031849188            3 
 1161000    1.0717208   -7.0569909    437.64672  0.031413058  0.031841001            1 
 1162000    1.0816736   -7.0482142    436.57515  0.031309176  0.031832667            3 
 1163000    1.0657414   -7.0470523    438.22376  0.031400384  0.031824253            2 
 1164000    1.0667301   -7.0217295    439.61927  0.031473316  0.031816028            2 
 1165000    1.0404125   -7.0709165    436.51886  0.031224525  0.031807737            4 
 1166000    1.0726689   -7.0392134    437.64499   0.03127823  0.031799374            1 
 1167000    1.0839063   -7.0594003    439.18516  0.031361408   0.03179082            1 
 1168000    1.0789497   -7.0455216    437.99057  0.031249327  0.031782475            7 
 1169000    1.0504764   -7.0589072    439.42222  0.031324652  0.031774405            2 
 1170000    1.0587038   -7.0282187    440.51736   0.03137588  0.031766274            2 
 1171000    1.0476382   -7.0545626    439.57909  0.031282315  0.031758103            2 
 1172000    1.0741332   -7.0386412    440.69172  0.031334736  0.031749752            2 
 1173000    1.0652833   -7.0175206    441.36312   0.03135572  0.031741441            5 
 1174000    1.0488352   -7.0510002    441.41507  0.031332699  0.031733029            1 
 1175000    1.0666595   -7.0310635    440.96357  0.031274012  0.031724685            1 
 1176000    1.0591923   -7.0413309    441.22498  0.031265942  0.031716511            2 
 1177000    1.0622328   -7.0266624    440.94677  0.031219681  0.031708141            1 
 1178000    1.0537697   -7.0384357    441.21634  0.031212248  0.031699842            2 
 1179000    1.0772662   -7.0144632    443.67906  0.031359843  0.031691661            2 
 1180000    1.0589638     -7.03403    442.73631  0.031266689  0.031683444            4 
 1181000    1.0652891   -6.9978675    442.98066  0.031257455   0.03167514            1 
 1182000     1.065802   -7.0496444    442.40965  0.031190754    0.0316669            5 
 1183000    1.0581425   -7.0483598    442.57347  0.031175928  0.031658528            2 
 1184000    1.0612088   -7.0154121    444.02305  0.031251622  0.031650088            3 
 1185000     1.083184   -7.0559133    442.89076  0.031145623  0.031641854            1 
 1186000    1.0763932    -7.049366    443.44178  0.031158079  0.031633416            2 
 1187000    1.0432218   -7.0359526    444.22677   0.03118694  0.031625096            4 
 1188000     1.066792   -7.0323613    444.47015   0.03117776  0.031616703            1 
 1189000    1.0530641   -7.0156454    445.51854  0.031225017  0.031608293            4 
 1190000    1.0746163   -7.0500471    443.49653   0.03105718  0.031599893            3 
 1191000    1.0748626   -7.0154989    445.45525  0.031168154  0.031591303            3 
 1192000    1.0398259   -7.0530094    445.62029  0.031153544  0.031582814            1 
 1193000     1.065109   -7.0818736    444.22141  0.031029716   0.03157416            3 
 1194000    1.0753233   -7.0413372    444.72481  0.031038862  0.031565463            1 
 1195000    1.0698818   -7.0313942    446.01066  0.031102556  0.031556754            3 
 1196000    1.0518473   -7.0504199    444.93464  0.031001578  0.031547958            1 
 1197000    1.0722232   -7.0772415    445.24866   0.03099754  0.031539271            3 
 1198000    1.0401102   -7.0398611    445.96816  0.031021714   0.03153065            4 
 1199000    1.0434653    -7.040574    446.87452  0.031058835  0.031522052            2 
 1200000    1.0689827   -7.0193242    447.73722  0.031092863  0.031513427            3 
 1201000    1.0795762   -7.0539815    447.57947  0.031056028  0.031505056            2 
 1202000    1.0321191   -7.0112601    448.07377   0.03106446  0.031496462            2 
 1203000    1.0801495   -7.0489654    448.76818   0.03108674  0.031488134            4 
 1204000    1.0582967   -7.0082639    448.67606  0.031054545  0.031479706            2 
 1205000    1.0551483   -7.0341692    448.13577  0.030991408  0.031471472            2 
 1206000    1.0462443   -7.0587084    448.95806   0.03102253  0.031463308            2 
 1207000    1.0635261   -6.9999171    449.89357  0.031061418  0.031455227            3 
 1208000    1.0434495   -7.0874998     449.7508  0.031025855  0.031447103            2 
 1209000    1.0585665    -7.067524    451.44303  0.031116834  0.031439027            2 
 1210000    1.0544683   -7.0772061    450.60685   0.03103353  0.031431017            1 
 1211000    1.0771725   -7.0679861    451.58628  0.031075302  0.031423083            3 
 1212000    1.0581439   -7.0173418    452.79313  0.031132641  0.031415057            2 
 1213000    1.0647634   -7.0350172    451.44734  0.031014519   0.03140704            2 
 1214000    1.0772858   -7.0504874    451.66324  0.031003792  0.031399154            2 
 1215000    1.0337511    -7.051653    453.73817  0.031120588  0.031391379            1 
 1216000    1.0660578   -7.0520761     453.1185  0.031052529  0.031383495            1 
 1217000    1.0540578   -7.0591305    454.12717  0.031096081  0.031375826            2 
 1218000     1.051557   -7.0671402    454.47603  0.031094419  0.031367987            1 
 1219000    1.0707926   -7.0617259    452.89879  0.030961088  0.031359914            4 
 1220000    1.0424396   -7.0875893    453.84063  0.031000043  0.031351975            5 
 1221000    1.0399332   -7.0448429    453.94124  0.030981521  0.031344274            1 
 1222000    1.0532229   -7.0243974    454.76214  0.031012148  0.031336519            1 
 1223000    1.0475082   -7.0245324    456.59584  0.031111736  0.031328845            2 
 1224000    1.0423806   -7.0099314    456.20337  0.031059598  0.031321286            3 
 1225000    1.0513011   -7.0192092    456.59366  0.031060793  0.031313717            7 
 1226000    1.0868493   -7.0522542    456.16257  0.031006156  0.031305922            2 
 1227000     1.076643   -7.0313873    456.55604  0.031007609  0.031298239            2 
 1228000    1.0547469   -7.0362843    457.79491   0.03106643  0.031290446            1 
 1229000    1.0523504   -7.0606437    457.82302  0.031043058   0.03128283            1 
 1230000    1.0790329   -7.0360207     456.5419  0.030931023  0.031275061            2 
 1231000    1.0448375    -7.039037    458.21958  0.031019468  0.031267303            2 
 1232000    1.0698936   -7.0708812    456.62735   0.03088659  0.031259475            3 
 1233000    1.0602329   -7.0823157    455.80137  0.030805716  0.031251515            2 
 1234000     1.071195   -7.0569826    457.60022   0.03090223  0.031243442            1 
 1235000    1.0602756    -7.046927    458.54238  0.030940781  0.031235364            1 
 1236000    1.0349345    -7.087479    457.10303  0.030818705  0.031227522            2 
 1237000    1.0335977   -7.0883859    458.28903  0.030873689  0.031219591            1 
 1238000    1.0500467   -7.0862255     458.3659  0.030853924  0.031211667            2 
 1239000    1.0491666   -7.0406507    458.96464  0.030869292   0.03120391            3 
 1240000    1.0432021   -7.0345669    459.31658  0.030868049  0.031196091            3 
 1241000     1.058104   -7.0813218     459.8846  0.030881319  0.031188151            2 
 1242000    1.0570902   -7.0525323    461.58214  0.030970353  0.031180325            3 
 1243000    1.0687584   -7.0879529    460.31661  0.030860593  0.031172692            3 
 1244000    1.0415312    -7.083978    460.38327  0.030840251  0.031164926            2 
 1245000    1.0660877   -7.0801917    460.71735  0.030837841  0.031157196            4 
 1246000     1.050545   -7.0443706    462.82946  0.030954351   0.03114979            5 
 1247000    1.0817795   -7.0493381    462.27156  0.030892245  0.031142158            1 
 1248000    1.0578549   -7.0434949    462.82914  0.030904723   0.03113467            2 
 1249000    1.0629692   -7.0989836    462.68863  0.030870605  0.031127234            2 
 1250000    1.0719668   -7.0610053    462.87911  0.030858607  0.031119842            1 
 1251000    1.0265083    -7.071753    462.58504  0.030814351  0.031112324            3 
 1252000     1.048968   -7.0700288    462.73013  0.030799397  0.031104749            2 
 1253000    1.0464388   -7.0720364     463.3695  0.030817339  0.031097258            6 
 1254000    1.0553174    -7.065314     464.5234  0.030869445  0.031089691            3 
 1255000    1.0504614    -7.064643    463.28977  0.030762933  0.031082074            2 
 1256000    1.0527931   -7.0488522    464.43968  0.030814735  0.031074595            3 
 1257000    1.0618593   -7.0615792    465.83408  0.030882662  0.031067064            1 
 1258000    1.0407402   -7.0678812    465.12439  0.030811102  0.031059619            3 
 1259000    1.0658871   -7.0663707    466.59701  0.030884102  0.031051995            2 
 1260000    1.0349959     -7.07027    464.68041  0.030732831  0.031044381            2 
 1261000    1.0751662   -7.0644024    465.43424  0.030758276  0.031036723            3 
 1262000    1.0335886   -7.0369691    467.79293  0.030889654  0.031029178            4 
 1263000    1.0363165   -7.0634772     466.7642  0.030797321  0.031021647            4 
 1264000    1.0398104   -7.0673168    466.99679   0.03078829  0.031014074            3 
 1265000    1.0481322   -7.0425223    466.80338  0.030751211  0.031006488            2 
 1266000     1.028228   -7.0394278    467.27381  0.030757887  0.030998801            1 
 1267000    1.0555546   -7.1042281    466.09738  0.030656234  0.030990937            2 
 1268000    1.0364278    -7.059329    466.68094  0.030670409  0.030983136            3 
 1269000    1.0422831   -7.1105308    466.17242  0.030612846  0.030975446            1 
 1270000    1.0517019   -7.1125019    466.58656  0.030615916  0.030967488            1 
 1271000    1.0481092   -7.0672598    467.55385  0.030655248  0.030959649            3 
 1272000    1.0449375   -7.0945495    467.71623  0.030641787  0.030951889            3 
 1273000    1.0476672   -7.0441878    468.51411  0.030669947   0.03094403            1 
 1274000    1.0314288   -7.0682095    468.72556  0.030659704  0.030936181            2 
 1275000    1.0403509   -7.1071784    467.77054  0.030573238  0.030928395            1 
 1276000    1.0539123   -7.0543926    469.38447   0.03065468  0.030920474            1 
 1277000    1.0478969   -7.0687166    467.49763  0.030507546  0.030912668            1 
 1278000    1.0621203   -7.0700755    468.45677  0.030546216  0.030904802            1 
 1279000    1.0396713    -7.028651    469.98495  0.030621902  0.030897013            2 
 1280000    1.0468922    -7.067898    469.90471  0.030592754  0.030889253            4 
 1281000    1.0293999   -7.0717473    470.39403  0.030600704  0.030881502            4 
 1282000    1.0462112   -7.0888652    469.03931  0.030488774  0.030873476            2 
 1283000    1.0268432   -7.1037775    468.66637  0.030440788  0.030865283            3 
 1284000    1.0427865   -7.0941984    470.15794  0.030513885  0.030857126            1 
 1285000    1.0504233   -7.1041187    468.97336  0.030413318  0.030848909            1 
 1286000    1.0248172   -7.0724633    469.97611  0.030454647  0.030840674            2 
 1287000     1.054837   -7.0754812    470.15908  0.030442831  0.030832681            2 
 1288000    1.0505876   -7.1078939    470.94933  0.030470324  0.030824635            3 
 1289000    1.0404953   -7.0640877    472.28769   0.03053321  0.030816684            3 
 1290000    1.0510001   -7.0735511    470.73288  0.030409101  0.030808742            2 
 1291000    1.0437799   -7.0798812     472.3715  0.030491318  0.030800797            3 
 1292000    1.0540347   -7.0689627     472.6697  0.030486952  0.030792872            1 
 1293000    1.0415882   -7.0816053    472.96354  0.030482311   0.03078488            3 
 1294000    1.0384668   -7.0393063     473.4629  0.030490913  0.030776853            3 
 1295000    1.0666231   -7.0675863     473.4696  0.030467799  0.030768912            1 
 1296000    1.0605633   -7.0951344    472.66253  0.030392395   0.03076079            3 
 1297000    1.0584108   -7.0711437     474.3952  0.030480288  0.030752838            2 
 1298000    1.0402443   -7.0900174     474.1597  0.030441686  0.030745087            4 
 1299000    1.0612015   -7.0972983    474.97155  0.030470333  0.030737399            2 
 1300000    1.0555463    -7.107497    472.96354  0.030318176  0.030729724            3 
 1301000    1.0573055   -7.0654196    476.40747  0.030515467  0.030721981            2 
 1302000    1.0543016   -7.0943756    475.97865  0.030464583  0.030714422            2 
 1303000    1.0393929   -7.0410326    476.79852  0.030493637  0.030706752            1 
 1304000    1.0635852    -7.034061    478.67875  0.030590411  0.030699291            1 
 1305000    1.0440324   -7.1020396    475.55405  0.030367436  0.030691788            3 
 1306000     1.037988    -7.085361    477.01306  0.030437281  0.030684239            3 
 1307000    1.0309963   -7.0635354    476.37717  0.030373449  0.030676566            4 
 1308000     1.027563   -7.0926589    477.83161   0.03044289  0.030668939            4 
 1309000    1.0290696   -7.0657192    477.93409  0.030426158  0.030661614            2 
 1310000     1.046396   -7.0980052    477.40731  0.030369422  0.030654075            4 
 1311000    1.0450235   -7.1017391    477.47652  0.030350656  0.030646481            4 
 1312000    1.0268935   -7.0506427    479.07285  0.030428916  0.030638894            1 
 1313000    1.0442761   -7.0732802    477.31291  0.030294041   0.03063121            7 
 1314000    1.0343306   -7.0746861    477.48814  0.030282099  0.030623547            1 
 1315000    1.0611847    -7.119125    478.24076  0.030306765  0.030615928            2 
 1316000    1.0331965   -7.0935529    479.02831  0.030333606  0.030608348            3 
 1317000    1.0281451   -7.0546369     479.4393  0.030336579  0.030600751            2 
 1318000    1.0363254   -7.1198323     480.6665  0.030391155  0.030592994            2 
 1319000    1.0453497   -7.0762635    480.20286  0.030338821  0.030585306            3 
 1320000    1.0441679   -7.0812011    480.13283  0.030311416  0.030577712            1 
 1321000    1.0415948   -7.0929185    479.69334  0.030260746   0.03057008            2 
 1322000    1.0081668   -7.0864767    480.16689  0.030267706  0.030562267            2 
 1323000    1.0280772   -7.0418047    482.39069  0.030384901  0.030554769            2 
 1324000    1.0448798   -7.1295874    480.80918  0.030262411  0.030547255            4 
 1325000    1.0347912   -7.1020021     480.3732  0.030212151  0.030539647            4 
 1326000    1.0362392   -7.1098511    481.70354  0.030272973  0.030532067            3 
 1327000    1.0351391   -7.0921451    483.90999  0.030388721  0.030524761            2 
 1328000     1.054958   -7.0918949    483.25322  0.030324625  0.030517398            2 
 1329000    1.0261373   -7.0692842    484.70742  0.030392991  0.030510132            2 
 1330000    1.0258742   -7.0880586    483.10938  0.030270011  0.030502789            2 
 1331000    1.0530215   -7.1323902    483.67417   0.03028263  0.030495418            2 
 1332000    1.0333063   -7.1367131    484.48722  0.030310762  0.030488135            2 
 1333000    1.0508065   -7.0893461    486.10289  0.030389028  0.030481011            5 
 1334000    1.0597024   -7.0736229    485.32968  0.030317946  0.030473985            2 
 1335000    1.0485147   -7.1183172    485.23107  0.030289081  0.030466919            2 
 1336000    1.0382089   -7.0727988    487.08826  0.030382252   0.03045984            2 
 1337000    1.0270899   -7.0800043    487.25894  0.030370166  0.030452945            2 
 1338000    1.0495307   -7.0887725    485.74418  0.030253125  0.030445933            2 
 1339000    1.0216353   -7.1043545     486.5138  0.030278429  0.030438884            6 
 1340000     1.043431   -7.1100143    486.96132  0.030283664  0.030431885            2 
 1341000    1.0494202    -7.078959    487.38901  0.030287659  0.030424819            2 
 1342000    1.0433993   -7.0795851    487.89886   0.03029675  0.030417873            2 
 1343000    1.0581427   -7.1045752    488.93989  0.030338787  0.030410853            6 
 1344000    1.0456526    -7.120954    486.90388  0.030189973  0.030403686            4 
 1345000    1.0483937    -7.115612    488.32716   0.03025571  0.030396361            2 
 1346000    1.0305703   -7.0893918    490.16089  0.030346761  0.030389313            2 
 1347000     1.041947   -7.0751059    490.10364   0.03032069  0.030382379            2 
 1348000    1.0278822   -7.0909461    490.31846  0.030311478  0.030375243            3 
 1349000    1.0217409   -7.0982452    490.13691  0.030277793  0.030368128            3 
 1350000    1.0114692   -7.0704877    489.70314  0.030228589  0.030361032            1 
 1351000    1.0310995   -7.1064651    489.51914  0.030194865  0.030353901            1 
 1352000     1.044171   -7.1016037    491.52856  0.030296386  0.030346769            3 
 1353000    1.0395295   -7.0878956    490.85028  0.030232217  0.030339757            7 
 1354000    1.0377406   -7.1046374    492.49431  0.030311073  0.030332772            3 
 1355000     1.044402   -7.1235739    490.91653  0.030191669  0.030325813            3 
 1356000    1.0350937   -7.1039497    491.46096  0.030202862  0.030318834            1 
 1357000    1.0429161   -7.1059656    490.99557  0.030152024  0.030311671            4 
 1358000    1.0181582   -7.0806695    491.25049  0.030145465  0.030304638            1 
 1359000    1.0509039     -7.08356    493.04622  0.030233396  0.030297692            2 
 1360000    1.0360707   -7.1105094    493.25445  0.030223925  0.030290712            5 
 1361000     1.016179   -7.0892817    493.01831  0.030187259  0.030283666            2 
 1362000    1.0358917   -7.1130668    492.59835    0.0301394  0.030276672            2 
 1363000    1.0184798   -7.0955888     493.7103  0.030185271  0.030269658            3 
 1364000    1.0516557   -7.1110729    493.49564  0.030150027   0.03026258            2 
 1365000    1.0399265   -7.1251481    492.02648  0.030038247  0.030255262            2 
 1366000    1.0072658   -7.0512842    494.41548  0.030161998  0.030248074            1 
 1367000    1.0406481   -7.1339458    492.50491  0.030023464    0.0302408            2 
 1368000    1.0224631   -7.0982443    493.69539  0.030074037  0.030233519            4 
 1369000     1.024438   -7.1252205     493.9734  0.030068992  0.030226235            3 
 1370000    1.0435578   -7.1008701     493.2306  0.030001861  0.030219127            1 
 1371000    1.0241394   -7.1166194    494.48462  0.030056201  0.030211923            2 
 1372000    1.0272377   -7.1001418    494.47655  0.030033804  0.030204738            4 
 1373000     1.029985    -7.092546    495.95774  0.030101829   0.03019763            3 
 1374000    1.0442961   -7.0587022    495.11808  0.030028996  0.030190583            2 
 1375000    1.0311972   -7.1081028    493.99877  0.029939319  0.030183415            1 
 1376000    1.0427681   -7.1018483    495.12928  0.029986027  0.030176179            3 
 1377000    1.0226143   -7.0860844    495.19793  0.029968405  0.030168975            3 
 1378000     1.038867   -7.0946852    496.37808  0.030018026  0.030161822            2 
 1379000    1.0421609   -7.1077363    496.25123  0.029988592  0.030154593            1 
 1380000    1.0353695   -7.1487264    494.83338  0.029881243   0.03014723            1 
 1381000     1.019722   -7.0929161    497.00842  0.029990853  0.030139863            3 
 1382000    1.0187497   -7.1212169    496.14336   0.02991699  0.030132394            2 
 1383000    1.0515813   -7.0869137    496.10285  0.029892917  0.030125013            6 
 1384000     1.033294   -7.0753093    497.83953  0.029975887  0.030117746            2 
 1385000    1.0244293   -7.1329665     498.4313  0.029989849  0.030110325            1 
 1386000    1.0409008    -7.129935    496.46565  0.029850027  0.030102964            2 
 1387000    1.0214217   -7.0769345    498.85573  0.029972106  0.030095591            4 
 1388000    1.0162124   -7.1195726    498.05874  0.029902662  0.030088349            2 
 1389000    1.0154414   -7.0450531    497.04222  0.029820147   0.03008113            2 
 1390000    1.0291414   -7.1042555    497.43649  0.029822331    0.0300738            4 
 1391000     1.011479   -7.1156932    497.71329  0.029817475  0.030066238            3 
 1392000    1.0249517   -7.0988671    499.13278  0.029881033  0.030058827            8 
 1393000    1.0090553   -7.1136766    498.02913  0.029793559  0.030051339            5 
 1394000     1.013695   -7.0975619    498.85932  0.029821815  0.030043858            1 
 1395000    1.0326854   -7.1154118    500.00915  0.029869125  0.030036445            3 
 1396000    1.0411141   -7.1022516     499.9609  0.029844849  0.030029154            2 
 1397000    1.0040288      -7.1129    499.74739  0.029810749  0.030022009            2 
 1398000    1.0259559   -7.1203999    501.45058   0.02989095  0.030014707            3 
 1399000    1.0228306   -7.1238814    501.15447  0.029851946  0.030007265            3 
 1400000     1.010076   -7.1255726    500.15221  0.029770965   0.02999994            3 
 1401000    1.0287002   -7.1285539     500.4758  0.029768963  0.029992578            3 
 1402000    1.0145884   -7.0947577     502.3504  0.029859154  0.029985181            2 
 1403000    1.0269511   -7.1156878    502.62973  0.029854462  0.029977969            3 
 1404000    1.0339841    -7.142812    501.79992  0.029783946  0.029970552            2 
 1405000    1.0155745   -7.1222455    501.66654  0.029754836  0.029963179            2 
 1406000    1.0236595   -7.1326926    501.91427  0.029748356  0.029955721            2 
 1407000      1.02272   -7.1138047    502.86035  0.029783248  0.029948264            3 
 1408000    1.0173528   -7.0939039    503.44137  0.029796483  0.029940849            1 
 1409000    1.0209037   -7.1676127    501.49675  0.029660323  0.029933391            3 
 1410000    1.0274382     -7.13719    502.89875  0.029722148  0.029925852            2 
 1411000    1.0416758   -7.1207156      503.763  0.029752126  0.029918532            3 
 1412000    1.0258225   -7.1085972    503.62847  0.029723116  0.029911103            4 
 1413000    1.0190346   -7.1436566    503.88433   0.02971717  0.029903853            2 
 1414000    1.0048164   -7.1204521    503.63376  0.029681386  0.029896535            2 
 1415000    1.0019522   -7.1263885    503.75622  0.029667622  0.029889059            2 
 1416000    1.0094194    -7.124538    504.25062  0.029675766  0.029881727            3 
 1417000    1.0209072   -7.1087234    506.01215  0.029758418  0.029874415            3 
 1418000    1.0261129    -7.101236    506.29182  0.029753868  0.029867165            1 
 1419000    1.0273953   -7.1026411    505.52452  0.029687839  0.029859906            2 
 1420000    1.0222936   -7.1079522    506.57245   0.02972843  0.029852634            5 
 1421000    1.0262874   -7.1267887    506.04669  0.029676676  0.029845341            1 
 1422000    1.0375359   -7.1102644    506.06229  0.029656721  0.029837999            2 
 1423000    1.0123345   -7.1337347    503.69877  0.029497468   0.02983065            4 
 1424000    1.0339666   -7.1122081    506.93567  0.029666179  0.029823152            3 
 1425000    1.0134492   -7.1579771     505.8547  0.029582146  0.029815677            3 
 1426000    1.0163287   -7.1017682    506.57551  0.029603524  0.029808198            1 
 1427000    1.0524404   -7.1055862    506.19688  0.029560668   0.02980066            2 
 1428000    1.0246923   -7.1154169     506.2058  0.029540488  0.029793074            2 
 1429000    1.0077442    -7.127164    506.89205  0.029559835  0.029785545            3 
 1430000    1.0198319   -7.1616777    507.38021  0.029567612  0.029778087            2 
 1431000    1.0255799   -7.1182826    507.04991  0.029527714  0.029770533            3 
 1432000    1.0244168   -7.1128848    510.80797   0.02972579  0.029763151            3 
 1433000    1.0189866   -7.0856239    509.86212  0.029650042  0.029755733            2 
 1434000    1.0425995   -7.1401152     507.6237  0.029499285   0.02974853            4 
 1435000    1.0160958    -7.140346    509.30793  0.029576535  0.029741085            2 
 1436000    1.0417937   -7.1048017    509.22615  0.029551193   0.02973373            6 
 1437000    1.0310252   -7.1167139    510.63433   0.02961229  0.029726538            3 
 1438000    1.0254693   -7.1518435    509.16984  0.029506829  0.029719178            2 
 1439000   0.98609223   -7.1398072    511.32864  0.029611341  0.029711885            4 
 1440000    1.0160624   -7.1231238    511.01471   0.02957261  0.029704562            1 
 1441000    1.0335987   -7.0999388    512.13908  0.029617111  0.029697397            3 
 1442000    1.0358302   -7.1484221    510.39331  0.029495683   0.02969009            1 
 1443000    1.0222201   -7.1404372    511.08684  0.029515295  0.029682645            2 
 1444000    1.0250543   -7.1576513    511.33968  0.029509446  0.029675312            1 
 1445000    1.0287022   -7.1322033    512.48531  0.029555093   0.02966806            4 
 1446000    1.0305067   -7.1178097    512.72656  0.029548557   0.02966093            1 
 1447000     1.032202   -7.1442752    512.31128   0.02950422  0.029653647            2 
 1448000    1.0041304   -7.1558954    513.47188  0.029550638  0.029646454            2 
 1449000    1.0149653   -7.1225354    513.58571   0.02953679  0.029639201            3 
 1450000    1.0270736   -7.1246567    512.54336  0.029456515  0.029632073            1 
 1451000    1.0176675   -7.0987291    515.29851  0.029594447  0.029625031            4 
 1452000    1.0208045   -7.1020114    514.65151  0.029536932  0.029618026            3 
 1453000      1.01769     -7.09259    513.67238  0.029460449  0.029610995            2 
 1454000    1.0088149   -7.1014713    515.95719  0.029571137  0.029603991            2 
 1455000    1.0300269   -7.1777491    514.87219  0.029488671  0.029596956            1 
 1456000     1.016336   -7.1136987    516.02302  0.029534285  0.029590019            3 
 1457000    1.0094722   -7.1628569    515.74417  0.029498065  0.029583063            2 
 1458000    1.0377503   -7.1263189    515.96722  0.029490582  0.029576151            3 
 1459000    1.0363845   -7.1483547    515.69555  0.029454852  0.029569145            3 
 1460000    1.0190742   -7.1700824    515.59125  0.029428724  0.029562136            5 
 1461000    1.0114091    -7.141623    515.67086  0.029413122  0.029555195            3 
 1462000    1.0176653   -7.1350396    515.78853  0.029399711  0.029548252            3 
 1463000    1.0098469   -7.1373405    517.16681  0.029458123  0.029541287            2 
 1464000    1.0111407   -7.1544461    517.43639  0.029453346  0.029534313            2 
 1465000    1.0186821   -7.1196653    518.59685  0.029499252  0.029527409            5 
 1466000    1.0378281   -7.1616222    517.99034  0.029444653  0.029520539            1 
 1467000    1.0249694   -7.1178918    518.33783  0.029444321    0.0295137            2 
 1468000    1.0137348   -7.0922771    518.64866  0.029441908  0.029506855            2 
 1469000    1.0277388   -7.1060513    519.41602  0.029465397   0.02950003            2 
 1470000   0.99999982   -7.1137073    520.04927  0.029481251  0.029493181            4 
 1471000   0.99000942    -7.160422     519.5492   0.02943288  0.029486354            1 
 1472000     1.023974   -7.0877763    521.24384  0.029508822  0.029479592            2 
 1473000    1.0219249   -7.1566651    519.43805  0.029386629  0.029472675            2 
 1474000     1.008778   -7.1456598    519.20199  0.029353346  0.029465833            1 
 1475000    1.0126983   -7.1610146    519.44032  0.029346911   0.02945895            4 
 1476000    1.0313984   -7.1498335    521.11471  0.029421562  0.029451894            2 
 1477000    1.0200736   -7.1421285    520.87547  0.029388144  0.029445029            1 
 1478000    1.0124857   -7.1167994    522.20687  0.029443328   0.02943837            3 
 1479000    1.0193787   -7.1071997    523.40174  0.029490745   0.02943181            4 
 1480000    1.0475238   -7.1137675    523.24822  0.029462175  0.029425121            3 
 1481000    1.0167689   -7.1528572    521.61003  0.029350103  0.029418303            2 
 1482000    1.0196575    -7.109083    523.16712  0.029417854  0.029411709            2 
 1483000    0.9949314   -7.1308821    524.36738  0.029465463  0.029404951            1 
 1484000    1.0003766   -7.1577867    521.81313  0.029302175  0.029398265            4 
 1485000     1.000187   -7.1651916    522.85815  0.029341086  0.029391368            1 
 1486000    1.0212808   -7.1365922     523.7972  0.029374002  0.029384684            3 
 1487000    1.0065028   -7.1758936     522.5029  0.029281714  0.029377992            3 
 1488000    1.0147643    -7.151515    523.97979  0.029344746  0.029371373            4 
 1489000    1.0134029    -7.158528    524.74629  0.029367937  0.029364833            1 
 1490000    1.0174874   -7.1178507    528.13595  0.029537805  0.029358392            2 
 1491000    1.0467904   -7.1161302    526.25005  0.029412589  0.029351864            3 
 1492000    1.0181099   -7.1300534    524.93213  0.029319266  0.029345339            2 
 1493000    1.0247795   -7.1669107    526.13484  0.029366758  0.029338826            2 
 1494000    1.0119071   -7.1080326    526.10877  0.029345647  0.029332327            2 
 1495000   0.97434491   -7.1027988    526.91851  0.029371155  0.029325788            1 
 1496000    1.0129965   -7.1268583    526.92165  0.029351696  0.029319252            2 
 1497000    1.0284069   -7.1357509     528.1908  0.029402739  0.029312758            2 
 1498000   0.98557922   -7.1323717     527.2488  0.029330707  0.029306002            4 
 1499000    1.0243898   -7.0963135    526.96653  0.029295449  0.029299324            6 
 1500000    1.0137412   -7.1235228    526.83624   0.02926868    0.0292926            1 
 1501000    1.0035817   -7.1521124    526.62957  0.029237707  0.029285731            2 
 1502000    1.0387644   -7.1427899    527.32635  0.029256899  0.029278964            2 
 1503000    1.0019348   -7.1510827    527.87262  0.029267721  0.029272169            3 
 1504000    1.0051122   -7.1515498    527.54732  0.029230237  0.029265412            2 
 1505000   0.99912422   -7.1769314    527.45504  0.029205705  0.029258669            5 
 1506000    1.0013349   -7.1931223    526.46509  0.029131534  0.029251894            2 
 1507000    1.0120738   -7.1259391    529.57711   0.02928429  0.029245112            1 
 1508000   0.99331547   -7.1567006    529.49475   0.02926032  0.029238503            1 
 1509000    1.0404162   -7.2060836    525.72681  0.029032848  0.029231709            2 
 1510000   0.99089004   -7.1684007    528.82179  0.029184426  0.029224873            5 
 1511000    1.0237998   -7.1528589    529.60029  0.029208046  0.029218175            2 
 1512000   0.99613603   -7.1437692    531.51952  0.029294506  0.029211535            3 
 1513000   0.99120003   -7.1281559    530.37855  0.029212302  0.029205037            2 
 1514000    1.0086665   -7.1600893    530.76991  0.029214548  0.029198432            2 
 1515000    1.0045156   -7.1433178     531.4261  0.029231359  0.029191792            2 
 1516000    1.0195959   -7.1470336    530.65329  0.029169596  0.029185065            1 
 1517000   0.99607332   -7.1126221    533.21305  0.029290983  0.029178485            3 
 1518000     1.018148   -7.1695613    531.89647  0.029199411   0.02917208            5 
 1519000    0.9979945   -7.1583378    532.81017  0.029230314  0.029165641            2 
 1520000   0.99734408   -7.1200109    533.88378  0.029269944   0.02915924            1 
 1521000    1.0006176   -7.1295166    533.94541  0.029254077  0.029152893            3 
 1522000   0.98851178   -7.1523075    534.97474  0.029291214  0.029146617            1 
 1523000     1.039856   -7.1564654    533.85264  0.029210585  0.029140275            3 
 1524000    0.9972103   -7.1674358    533.80477    0.0291888  0.029133946            1 
 1525000    1.0169902   -7.1325742    537.17297  0.029353714  0.029127618            1 
 1526000    1.0112475   -7.1965634    534.77223  0.029203377  0.029121276            2 
 1527000    0.9849864   -7.1621231    535.40015   0.02921852  0.029115023            2 
 1528000   0.98510767   -7.1314993    534.84526  0.029169135  0.029108884            3 
 1529000    1.0063684   -7.1616417     537.1789  0.029277246  0.029102611            4 
 1530000    1.0158192   -7.1361085    535.59313  0.029171739  0.029096312            2 
 1531000   0.99702659   -7.1579758    534.95645   0.02911803  0.029090026            2 
 1532000    1.0386379   -7.1511018    536.41434  0.029178326  0.029083577            5 
 1533000   0.99357712    -7.145252     537.5674  0.029221972  0.029077185            2 
 1534000    1.0065257   -7.1576118    537.99778  0.029226302  0.029070924            2 
 1535000   0.99875576   -7.1735528    536.54674  0.029128487  0.029064569            2 
 1536000    1.0159345   -7.1648448    538.56147   0.02921883  0.029058202            1 
 1537000    1.0294569   -7.1563882    535.63724  0.029041273  0.029051744            4 
 1538000   0.99976724   -7.1573671    538.29655   0.02916648  0.029045302            3 
 1539000    1.0089278   -7.1723895    536.39562  0.029044597  0.029038819            2 
 1540000    1.0031202   -7.1429638     537.8178  0.029102695  0.029032334            2 
 1541000   0.99505881   -7.1660483    536.21903  0.028997352  0.029025809            2 
 1542000    1.0141585   -7.1384143    537.41056   0.02904294  0.029019304            2 
 1543000    1.0150635   -7.1717111    538.93392   0.02910639  0.029012856            2 
 1544000   0.99132465   -7.1856078    537.35579  0.029002364  0.029006239            2 
 1545000   0.99067161   -7.1840904    537.16233  0.028973157  0.028999614            1 
 1546000    1.0007829   -7.1274593     538.3756  0.029019815  0.028993006            3 
 1547000    1.0135177   -7.1553182    537.75903  0.028967843  0.028986325            3 
 1548000   0.99870785   -7.1620965    539.13983  0.029023462  0.028979641            2 
 1549000   0.98561295   -7.1661499      537.595  0.028921616   0.02897303            3 
 1550000    1.0012648   -7.1319563     538.8674  0.028971365   0.02896644            3 
 1551000     1.015022   -7.1800753    538.13428  0.028913297  0.028959809            3 
 1552000   0.97869828   -7.1593907     539.7716  0.028982581  0.028953257            3 
 1553000   0.99738229   -7.1917302    538.90924  0.028917646  0.028946577            5 
 1554000   0.99739163   -7.1767204    539.66229  0.028939419  0.028939883            2 
 1555000    1.0106241   -7.1772547    539.38505  0.028905951  0.028933191            2 
 1556000   0.98914728   -7.1424691    538.19717  0.028823756  0.028926576            1 
 1557000   0.99701512   -7.1737185    538.04541  0.028797121  0.028919851            4 
 1558000    1.0125074   -7.2078791    540.51446  0.028910701  0.028913087            1 
 1559000    1.0007911    -7.183103    538.77749   0.02879931  0.028906241            1 
 1560000    1.0081647   -7.1549656    540.58996  0.028877669  0.028899396            1 
 1561000    1.0023532   -7.1621493    541.24909  0.028894357   0.02889256            4 
 1562000   0.99671363   -7.1842057    540.99061  0.028862068  0.028885716            2 
 1563000    1.0015417   -7.1657799    541.02069  0.028845206  0.028878834            2 
 1564000    0.9753796   -7.1603416     540.7222  0.028810859  0.028871848            2 
 1565000    1.0039311   -7.1940424    540.20816  0.028765078  0.028864703            3 
 1566000    1.0269484   -7.1661325    540.69849  0.028772802  0.028857665            4 
 1567000   0.98429623   -7.1599017    541.59175  0.028801944   0.02885078            1 
 1568000   0.99817246   -7.1892995    541.05456  0.028755026  0.028843797            4 
 1569000    0.9927718   -7.1533815    542.65956  0.028821944  0.028836997            2 
 1570000   0.99082603   -7.1812484    541.57905  0.028746234  0.028830146            1 
 1571000   0.99559814   -7.1339018    544.49349  0.028882532  0.028823405            1 
 1572000    1.0030312   -7.1528532    541.85388   0.02872423   0.02881653            4 
 1573000    1.0107504   -7.1829666    540.98456  0.028659915  0.028809518            3 
 1574000    1.0021717   -7.1805431    542.53068  0.028723564  0.028802516            1 
 1575000    1.0064058   -7.1607481    543.17505  0.028739421  0.028795545            4 
 1576000   0.98434377   -7.1691475    542.32962  0.028676481  0.028788599            2 
 1577000   0.99606488   -7.1591448    544.36465  0.028765834  0.028781857            1 
 1578000    1.0003039   -7.1625674    544.23886  0.028740962  0.028774916            4 
 1579000    1.0151349   -7.1735226    544.35917   0.02872911  0.028767871            1 
 1580000   0.98403743   -7.1745158    542.66951   0.02862181  0.028760986            3 
 1581000    1.0063906   -7.1902497    543.33035  0.028638538  0.028754162            4 
 1582000    1.0316554   -7.2054131    544.03888  0.028657758   0.02874722            1 
 1583000   0.99478166   -7.1414478    544.85802  0.028682776  0.028740291            1 
 1584000   0.98858824   -7.1850057    544.91559  0.028667697  0.028733377            3 
 1585000    1.0044651   -7.1842954    544.75605  0.028641222   0.02872638            3 
 1586000   0.99750784   -7.1954801    544.30017   0.02859921  0.028719282            2 
 1587000   0.98654307    -7.152461    545.86311   0.02866326  0.028712445            1 
 1588000   0.99394989   -7.1887133    544.42451  0.028569716  0.028705486           11 
 1589000    1.0063755    -7.167213    545.16684  0.028590667  0.028698472            2 
 1590000    1.0027323   -7.1644491    545.22644  0.028575809  0.028691471            3 
 1591000    1.0011124   -7.1615333    545.55572  0.028575095  0.028684385            3 
 1592000    1.0110693   -7.1828217    547.17424  0.028641868  0.028677424            2 
 1593000    1.0214317   -7.1584496    546.68576  0.028598334  0.028670525            2 
 1594000   0.99206205   -7.1914215     545.9648  0.028542702  0.028663701            2 
 1595000    1.0113281   -7.1920182    545.07308  0.028478217  0.028656738            3 
 1596000    1.0234993   -7.1574497     546.6751  0.028544022  0.028649645            4 
 1597000    1.0169765   -7.1712236    547.20533  0.028553816  0.028642542            2 
 1598000   0.99608406   -7.1609681    548.02739  0.028578817  0.028635463            2 
 1599000   0.99267353   -7.1774623    547.66855  0.028542242   0.02862854            2 
 1600000   0.97014069   -7.1471219    547.72524  0.028527356  0.028621558            2 
 1601000   0.97168777    -7.142506    547.20822  0.028482627  0.028614532            3 
 1602000   0.98802728   -7.1841013    547.04103   0.02845615  0.028607538            3 
 1603000   0.99468793   -7.1824497    547.55674  0.028465208  0.028600454            3 
 1604000   0.98908162   -7.1925486    548.23283  0.028482587  0.028593442            4 
 1605000   0.99131371   -7.1989312    547.33138  0.028418037  0.028586337            2 
 1606000   0.99562381   -7.1837316    549.11111  0.028492689  0.028579266            1 
 1607000   0.99228879   -7.2320051    548.29078   0.02843242  0.028572231            2 
 1608000    1.0010055    -7.204161    549.12416  0.028457927  0.028565185            2 
 1609000    1.0103774   -7.1568866    548.53211  0.028409577  0.028558121            2 
 1610000   0.99292978   -7.1971068    549.50395  0.028442233  0.028551013            1 
 1611000   0.99003511   -7.1468356    551.54703  0.028530262  0.028543922            7 
 1612000   0.99485286   -7.2003291     550.1567  0.028440689  0.028536901            2 
 1613000   0.98395466   -7.1439573    551.32733  0.028483536  0.028529961            2 
 1614000   0.99705644   -7.2009804    550.00586  0.028397659  0.028522984            3 
 1615000   0.98795197   -7.1956105    550.28467  0.028394462  0.028515871            4 
 1616000     1.014274   -7.1888859    551.76018  0.028452979  0.028508786            2 
 1617000    0.9793836   -7.1996886    552.26709  0.028461507  0.028501726            3 
 1618000    1.0037774   -7.1895492    552.08921  0.028434755  0.028494716            3 
 1619000   0.99942755   -7.1862617    551.81573  0.028403116   0.02848768            3 
 1620000    1.0170615   -7.2117593    551.65364  0.028377245  0.028480668            2 
 1621000   0.99051249   -7.1945548    551.92561   0.02837372  0.028473618            4 
 1622000   0.97413598   -7.2098784    552.35454  0.028378264  0.028466596            1 
 1623000    1.0090348    -7.201938    551.80952  0.028332795  0.028459508            2 
 1624000   0.96528836   -7.2019805    553.10436  0.028381792  0.028452469            1 
 1625000   0.98213691   -7.2014976    552.69306  0.028343234  0.028445531            3 
 1626000    1.0170656   -7.1927427    553.44017  0.028364092  0.028438418            4 
 1627000   0.99678034   -7.1963151    553.70289  0.028360115  0.028431394            2 
 1628000    1.0002991    -7.195025    554.59695   0.02838846  0.028424278            3 
 1629000   0.98965566   -7.2144416    552.81487  0.028279869  0.028417239            2 
 1630000   0.97934408   -7.1927701    554.87361  0.028367772  0.028410223            2 
 1631000    1.0135014   -7.1778366    555.01463  0.028357584  0.028403261            3 
 1632000   0.98351176    -7.161887      554.698   0.02832404  0.028396401            2 
 1633000   0.98700798   -7.1784273    555.15339  0.028329934  0.028389621            1 
 1634000    1.0074904   -7.1838691    556.17397  0.028364645  0.028382744            3 
 1635000   0.98597336   -7.1898587    556.19237  0.028348235  0.028375841            2 
 1636000   0.99740158   -7.2032844    555.24626  0.028282715  0.028368822            4 
 1637000   0.99223765   -7.2121839    553.84859  0.028194288  0.028361794            4 
 1638000   0.99515818   -7.2114471    555.53086  0.028262661  0.028354671            2 
 1639000    0.9905879   -7.1939755    555.25226  0.028231252  0.028347611            5 
 1640000     1.002716   -7.2281449    555.47818  0.028225517  0.028340495            2 
 1641000   0.99215779   -7.1793011    556.14935    0.0282424  0.028333235            2 
 1642000    1.0009434   -7.2253634    555.36501  0.028185394  0.028326102            2 
 1643000   0.98607741   -7.1800096     557.9552  0.028299614  0.028319149            5 
 1644000   0.97189961   -7.2058449    557.44188  0.028256381  0.028312296            1 
 1645000   0.98416711   -7.2066957    557.20564  0.028227236  0.028305378            2 
 1646000   0.97557339   -7.1763428    557.95968  0.028248263  0.028298463            1 
 1647000   0.99146193   -7.1848971    558.74788  0.028270992   0.02829162            3 
 1648000   0.97773052   -7.1847519    557.98529  0.028215276  0.028284775            4 
 1649000   0.99899427   -7.2263554    558.64373   0.02823144  0.028277889            4 
 1650000   0.97415691   -7.1722485    559.75877  0.028270645   0.02827097            2 
 1651000    1.0021522   -7.1917667    559.51127  0.028241029  0.028264091            2 
 1652000    1.0149645   -7.2338454    558.28865   0.02816226  0.028257092            1 
 1653000    1.0033394   -7.1850539    558.84057  0.028173048  0.028250181            3 
 1654000    0.9718522   -7.1985553    559.80221  0.028204465  0.028243191            2 
 1655000   0.99138896   -7.2054125    559.00944  0.028147504  0.028236234            1 
 1656000    1.0000828   -7.1801119    560.83831   0.02822254  0.028229436            4 
 1657000   0.98795947   -7.1848538    559.77753  0.028152159  0.028222521            3 
 1658000    1.0050941   -7.1904251    559.64761  0.028128649  0.028215509            2 
 1659000    1.0085718   -7.2201771    559.58781   0.02810869  0.028208522            2 
 1660000   0.99799677   -7.1928541    560.27462  0.028126236  0.028201636            4 
 1661000   0.98551798   -7.2283255    559.65959  0.028078446  0.028194755            6 
 1662000      0.98389   -7.1899082    562.48326  0.028203132  0.028187791            3 
 1663000   0.99318679   -7.1829184    560.27866  0.028075699  0.028180795            2 
 1664000   0.98324629   -7.1984285    561.93479  0.028141766  0.028173838            2 
 1665000    1.0317285   -7.1549599    564.49676  0.028253091  0.028166949            1 
 1666000   0.97216113   -7.2102675    561.45587  0.028084027  0.028160163            3 
 1667000   0.98819049   -7.2106835     561.3442  0.028061598  0.028153241            8 
 1668000   0.97832688   -7.2079104    561.65198  0.028060151  0.028146354            2 
 1669000   0.99096581   -7.2211698    560.59109  0.027990368  0.028139335            3 
 1670000    0.9922319   -7.1899487    564.43452  0.028165395  0.028132365            2 
 1671000   0.96575902   -7.2058685    562.65888  0.028059988   0.02812546            2 
 1672000    0.9760545   -7.2277581    562.34727  0.028027675  0.028118489            4 
 1673000    1.0091838   -7.1777809    563.70267  0.028078435  0.028111567            1 
 1674000   0.99663431   -7.1976484    563.88609  0.028070793  0.028104652            2 
 1675000   0.99403785     -7.19568    563.75355   0.02804744  0.028097748            3 
 1676000   0.98226662   -7.2256456    563.77926  0.028031984  0.028090823            3 
 1677000    1.0058931    -7.243183    562.70098  0.027961686  0.028083787            2 
 1678000   0.98623517   -7.2223533    563.18468  0.027969044  0.028076726            1 
 1679000   0.96506325   -7.1972568    564.79952  0.028032535  0.028069718            1 
 1680000     1.006839   -7.2168758    563.59202  0.027955953  0.028062859            4 
 1681000   0.97796902   -7.2035123    565.23515  0.028020779   0.02805598            3 
 1682000   0.96238778   -7.2210303    564.72609  0.027978899  0.028049186            3 
 1683000   0.99354007   -7.2331214    564.12374  0.027932449  0.028042384            4 
 1684000   0.97533173   -7.2088715    566.80798  0.028048692  0.028035537            2 
 1685000    0.9899784   -7.1974521    564.56898  0.027921315  0.028028693            4 
 1686000   0.98591519   -7.2537661    563.03459  0.027828914  0.028021725            2 
 1687000   0.98047639    -7.188704    566.73452  0.027995185  0.028014881            1 
 1688000   0.97815195   -7.2168406    567.45164  0.028014003  0.028008008            2 
 1689000   0.98270773   -7.2263414    566.31592  0.027941382  0.028001285            2 
 1690000   0.98546359   -7.1905692      567.534  0.027984911  0.027994535            3 
 1691000   0.99579496   -7.1643546    567.92114   0.02798744  0.027987778            2 
 1692000   0.97582887   -7.2225025    567.24519  0.027937608  0.027980977            1 
 1693000   0.97547582   -7.2260114    568.45786  0.027980796  0.027974156            3 
 1694000    1.0073495   -7.2196315    567.19515  0.027902162  0.027967196            4 
 1695000   0.98216812   -7.2252847    567.61514  0.027906349  0.027960263            2 
 1696000   0.98407072   -7.2175188    567.76771  0.027897391  0.027953377            2 
 1697000   0.98715124   -7.2373137    567.34764  0.027860324  0.027946563            2 
 1698000   0.99191056   -7.2345417    569.66972  0.027957878  0.027939643            2 
 1699000   0.98244789   -7.2150918    566.85861  0.027803542  0.027932814            2 
 1700000   0.98607262    -7.213225    570.02449  0.027942377   0.02792597            1 
 1701000   0.99264593   -7.2077287    569.24717  0.027887869  0.027919287            3 
 1702000   0.98508655   -7.1803071    570.75899  0.027945505  0.027912556            1 
 1703000   0.97823057   -7.2318252    569.97406  0.027890686  0.027905841            1 
 1704000   0.97061702   -7.2189563    569.93719  0.027872515  0.027898964            3 
 1705000   0.97241011   -7.2213701    570.48018  0.027882707  0.027892281            3 
 1706000    0.9760641   -7.1593753    572.44988  0.027962577  0.027885644            2 
 1707000   0.98025264   -7.2489598    571.98236  0.027923372  0.027878957            6 
 1708000    0.9868086   -7.2326138    570.20472  0.027820293  0.027872295            1 
 1709000   0.96398826   -7.2257277    569.79063  0.027783822  0.027865594            2 
 1710000   0.97405264   -7.2421627    570.39089  0.027796827   0.02785891            2 
 1711000   0.99278109   -7.1881841    571.61836  0.027840364  0.027852269            3 
 1712000   0.98959669   -7.2691626    572.88087  0.027885556   0.02784559            4 
 1713000   0.96612246   -7.2308853    572.78369   0.02786455  0.027838853            4 
 1714000   0.96312711   -7.2329646    574.38528  0.027926161  0.027832165            2 
 1715000    0.9766306    -7.221615    573.27243  0.027855803  0.027825523            3 
 1716000   0.95726103   -7.1998851    574.68363  0.027908102  0.027819051            5 
 1717000   0.98070917   -7.1846935    576.05873  0.027958587  0.027812508            3 
 1718000   0.98044833   -7.1980926    574.86469  0.027884395  0.027806092            2 
 1719000   0.94768643   -7.2081428    573.86907  0.027819908  0.027799476            1 
 1720000   0.98128092   -7.2157628    573.76207   0.02779855   0.02779289            2 
 1721000   0.98057619   -7.2397081    573.20876  0.027755605  0.027786258            3 
 1722000   0.97086239   -7.1857235    574.41823  0.027798018  0.027779545            1 
 1723000   0.98769796   -7.2077702    573.95006  0.027759241  0.027772896            3 
 1724000   0.95678857   -7.1794882    577.34277  0.027907133  0.027766328            2 
 1725000   0.98259935   -7.2376407    573.86157  0.027722781  0.027759748            2 
 1726000   0.97399401   -7.2345447    574.07724  0.027717132  0.027753089            2 
 1727000   0.97539278   -7.2246677    574.16339   0.02770524  0.027746412            2 
 1728000   0.97400854   -7.2021011    576.72447  0.027812715  0.027739877            6 
 1729000   0.96200047    -7.212706     576.2621  0.027774344  0.027733298            2 
 1730000   0.98441014   -7.1970671    575.92523  0.027742063  0.027726728            2 
 1731000   0.98189739    -7.234987    574.06231  0.027636352  0.027720142            3 
 1732000   0.99127437   -7.2249748    577.17982  0.027770392  0.027713505            4 
 1733000   0.96697465   -7.2278457    577.61314  0.027775204  0.027706896            4 
 1734000   0.95480765   -7.2168687    577.73168  0.027764883   0.02770036            2 
 1735000   0.95971227   -7.2360377     577.5657  0.027740908  0.027693793            3 
 1736000   0.95835273   -7.1666613    579.38827  0.027812417  0.027687291            2 
 1737000   0.98433039   -7.2479219    577.16692  0.027689835  0.027680788            4 
 1738000   0.98444266   -7.2357778    578.42632  0.027734288  0.027674275            3 
 1739000   0.98887976   -7.2280065    577.65014  0.027681145  0.027667728            2 
 1740000   0.95720082   -7.2328625    576.77132  0.027623148  0.027660985            2 
 1741000   0.95948429   -7.2344171    578.75357  0.027702162  0.027654352            4 
 1742000   0.99062643   -7.2049799    577.69885  0.027635804  0.027647799            1 
 1743000    0.9796695   -7.2445728    581.19605  0.027787151  0.027641383            1 
 1744000   0.98494451   -7.2497168    578.24145  0.027630039  0.027634911            4 
 1745000   0.94733829   -7.2224323    580.08721   0.02770235  0.027628304            1 
 1746000   0.97522083   -7.2169093    580.80658  0.027720818  0.027621864            2 
 1747000    0.9904826   -7.2406307    580.57709  0.027694003  0.027615391            4 
 1748000     0.969407   -7.2419998    579.86125  0.027644034  0.027608898            1 
 1749000   0.95477102   -7.2245827    580.20651  0.027644678  0.027602293            2 
 1750000    0.9804116   -7.2007957      580.207  0.027628905  0.027595716            2 
 1751000   0.99873031   -7.2185776    580.73952  0.027638469  0.027589189            1 
 1752000    0.9704705   -7.2028416    579.66478  0.027571574  0.027582682            1 
 1753000   0.97979495   -7.2232838    581.83832  0.027659171  0.027576106            2 
 1754000   0.98087061   -7.2387295     581.0479  0.027605849  0.027569525            2 
 1755000   0.95322176    -7.253138    581.85202  0.027628301  0.027562989            2 
 1756000   0.96837418    -7.218109    581.42272  0.027592194  0.027556376            3 
 1757000   0.96064021   -7.1869103    582.20016  0.027613364   0.02754989            2 
 1758000   0.98402467   -7.2524446    581.73186  0.027575458  0.027543255            3 
 1759000    0.9750134    -7.205263    584.36277  0.027684421  0.027536678            4 
 1760000   0.96893675    -7.227275    582.85444  0.027597274  0.027530188            2 
 1761000   0.96117044   -7.2266984    581.24279  0.027505338  0.027523587            1 
 1762000   0.95029754   -7.2152811    581.25066  0.027490099  0.027516954            2 
 1763000   0.94964095   -7.2309769    583.32408  0.027572513  0.027510342            3 
 1764000   0.96123356   -7.2533095    584.26417  0.027601293  0.027503845            4 
 1765000   0.93991501   -7.2268043    582.47629  0.027501241  0.027497266            4 
 1766000   0.97375646   -7.2523712    582.74967  0.027498569  0.027490665            2 
 1767000   0.95854482   -7.2149645    585.31729  0.027604098  0.027484059            1 
 1768000   0.97366447   -7.2720627     583.8579  0.027519698  0.027477517            3 
 1769000   0.97322065   -7.2527541    584.59745  0.027538979   0.02747098            2 
 1770000   0.96096098    -7.262678    582.66813  0.027432586  0.027464392            4 
 1771000   0.95072995   -7.2065895     584.6147  0.027508691  0.027457859            1 
 1772000   0.97376858   -7.2005678    585.53917  0.027536642  0.027451404            3 
 1773000   0.96274776   -7.2310702    585.75539  0.027531274  0.027444916            2 
 1774000   0.97404657   -7.2280555    585.20357  0.027489833  0.027438471            4 
 1775000   0.97168271    -7.257281    585.16189  0.027472389   0.02743193            1 
 1776000   0.98657364   -7.2210046    586.77569  0.027532643  0.027425463            3 
 1777000   0.96391303   -7.2167036    586.29506   0.02749461  0.027418955            2 
 1778000   0.95150719    -7.238255    584.35278  0.027388113  0.027412337            6 
 1779000   0.96752694   -7.2565209    585.62153   0.02743215  0.027405756            2 
 1780000   0.96070966   -7.2532214    585.88255  0.027428958  0.027399079            3 
 1781000   0.97376613   -7.2566648    585.00731  0.027372605  0.027392456            1 
 1782000    0.9652239   -7.2586487    587.05392  0.027452952  0.027385825            2 
 1783000   0.96453761   -7.2406641    584.97389  0.027340339  0.027379274            2 
 1784000   0.97299828   -7.2422876    587.61122  0.027448207  0.027372738            3 
 1785000   0.98032793   -7.2093182    588.40337  0.027469812  0.027366221            5 
 1786000   0.96712411   -7.2368459    587.60065  0.027416977  0.027359767            3 
 1787000   0.99126879   -7.2088243     588.5258  0.027444777  0.027353288            2 
 1788000   0.96458818    -7.271662    587.32705  0.027373557  0.027346859            4 
 1789000    0.9494144   -7.2867626    587.87824  0.027383931  0.027340315            6 
 1790000   0.96120754   -7.2606327    588.11374  0.027379597   0.02733378            3 
 1791000   0.96037596   -7.2515386    589.55494  0.027431367  0.027327182            2 
 1792000   0.95682234   -7.2730875    589.14243  0.027396877  0.027320714            4 
 1793000    0.9456331   -7.2705247    588.90431   0.02737053  0.027314233            4 
 1794000   0.96991607   -7.2550016    589.98798   0.02740561  0.027307775            2 
 1795000   0.98379159   -7.2364804    589.75253  0.027379412  0.027301309            2 
 1796000   0.95960665   -7.2513677    590.68525  0.027407445  0.027294864            4 
 1797000   0.95956476   -7.2406768    590.28199  0.027373492   0.02728839            4 
 1798000   0.96904855   -7.2474693    589.96103  0.027343392  0.027281771            3 
 1799000   0.96234138   -7.2639971     590.6217  0.027358796  0.027275244            3 
 1800000   0.96767015   -7.2355764    590.47504  0.027336807  0.027268698            3 
 1801000   0.97242514   -7.2696861    590.30245  0.027313643  0.027262158            2 
 1802000   0.97439273   -7.2270494     591.5423  0.027355822  0.027255703            1 
 1803000    0.9894235   -7.2440452    590.69645  0.027301555  0.027249127            2 
 1804000   0.97819056   -7.2651877    589.81446  0.027245679  0.027242459            3 
 1805000   0.95283155   -7.2567032    590.52507  0.027263392  0.027235788            1 
 1806000   0.95848983   -7.2918467     588.3296  0.027146992  0.027229046            2 
 1807000   0.96192374   -7.2786912    589.16628  0.027170554  0.027222356            2 
 1808000   0.96979949   -7.2918271    589.83162  0.027186192  0.027215635            2 
 1809000   0.94359536   -7.2602605    590.80487  0.027215998  0.027208927            2 
 1810000   0.95943374   -7.2601731    590.09185  0.027168133  0.027202215            3 
 1811000   0.93213087   -7.2693776     590.7926  0.027185377  0.027195459            2 
 1812000   0.95812372   -7.2502367    590.96989  0.027178527   0.02718881            3 
 1813000     0.973554   -7.2449985    592.00312  0.027211028  0.027182096            5 
 1814000   0.96726038   -7.2649169    591.43649  0.027169997  0.027175451            3 
 1815000   0.95431489   -7.2536686    592.68199  0.027212212  0.027168732            3 
 1816000   0.96088336   -7.2403649    591.77495  0.027155605  0.027162151            3 
 1817000   0.98219173   -7.2736545    592.89653  0.027192099  0.027155638            3 
 1818000    0.9782723   -7.2526346    592.44461  0.027156427     0.027149            3 
 1819000   0.95242006   -7.2372739     593.7281  0.027200298  0.027142528            2 
 1820000   0.94914892   -7.2122376    594.60035  0.027225291  0.027135976            3 
 1821000   0.96765239   -7.2541166    591.86496  0.027085162  0.027129517            4 
 1822000   0.95452435   -7.2832713    594.71194   0.02720051  0.027123048            2 
 1823000   0.96448972   -7.2695229    595.76682   0.02723381  0.027116521            1 
 1824000   0.95005424   -7.2652648    595.47684   0.02720563  0.027110067            3 
 1825000   0.97918286   -7.2868473    596.05365  0.027217062  0.027103657            3 
 1826000   0.95976013   -7.2409429    594.82322  0.027146003  0.027097208            3 
 1827000   0.95122779   -7.2355381    595.70192  0.027171224  0.027090784            2 
 1828000   0.95440096   -7.2705258    596.28544  0.027182961  0.027084283            3 
 1829000   0.94740796    -7.265176    596.06791  0.027158188  0.027077827            2 
 1830000   0.95834841   -7.2636008    596.11295  0.027145398  0.027071284            2 
 1831000   0.94914039   -7.2479372    596.71171  0.027157824  0.027064756            4 
 1832000   0.96621149   -7.2940843    595.87789  0.027105071   0.02705823            2 
 1833000    0.9700636   -7.2624011    597.09278  0.027145516   0.02705163            2 
 1834000   0.96829573   -7.2838813    594.64612  0.027019544  0.027045121            1 
 1835000   0.98002822   -7.2521676     596.7734  0.027101426  0.027038497            5 
 1836000   0.94957157   -7.2638458    596.45637  0.027072275   0.02703193            2 
 1837000    0.9542979   -7.2483095    597.01962  0.027083089  0.027025404            4 
 1838000   0.96972444   -7.2564888    594.75547  0.026965699  0.027018873            2 
 1839000   0.95357503   -7.2648556    595.34983  0.026977969  0.027012294            1 
 1840000   0.95313128   -7.2558081    596.87442  0.027032356  0.027005688            4 
 1841000   0.96142689   -7.2565209    598.24494   0.02707971  0.026999149            3 
 1842000   0.94036645   -7.2562256    598.20453   0.02706318  0.026992542            3 
 1843000   0.94705244   -7.2760155    597.19838  0.027003001  0.026986045            1 
 1844000   0.94008587   -7.2641858     598.5785  0.027050728  0.026979506            2 
 1845000   0.95489831   -7.2624238    599.25499  0.027066621  0.026973025            5 
 1846000   0.96018277   -7.2610508    599.14591  0.027047034  0.026966592            4 
 1847000   0.95276076   -7.2518681    599.85061  0.027064186  0.026960061            2 
 1848000    0.9537898   -7.2595002    600.36323  0.027072656  0.026953557            1 
 1849000   0.94391115   -7.2922815    598.08854  0.026955496  0.026947043            2 
 1850000   0.95279692     -7.27782    600.47706  0.027048516  0.026940548            2 
 1851000   0.94321381   -7.2976243    599.01348  0.026968012  0.026934022            2 
 1852000   0.96122905   -7.2697017    599.89904  0.026993297  0.026927525            3 
 1853000   0.95797579   -7.2784905    598.69344  0.026924511   0.02692105            2 
 1854000   0.95510923   -7.2447574    599.92685  0.026965428  0.026914465            2 
 1855000   0.95917632   -7.2807701    599.50962  0.026932148  0.026907899            3 
 1856000   0.96032471   -7.2480764    601.64542  0.027013534  0.026901311            2 
 1857000   0.96420035   -7.2598796    599.50457  0.026902916  0.026894823            4 
 1858000   0.97088974   -7.2724221    599.99078  0.026910243  0.026888293            2 
 1859000   0.95148079   -7.3166011    600.86505  0.026934958  0.026881767            2 
 1860000   0.95419454   -7.2603361    602.68512  0.027002021   0.02687531            3 
 1861000   0.92914933   -7.2770894    600.59727  0.026894021  0.026868799            3 
 1862000   0.95258953   -7.2669536    604.40448  0.027049968  0.026862361            2 
 1863000   0.95899816   -7.2926962    603.00394  0.026972801  0.026855964            2 
 1864000   0.94869679   -7.2464991    601.37665   0.02688558  0.026849452            3 
 1865000   0.94457634   -7.2603457    602.85583  0.026937258  0.026843004            4 
 1866000   0.93683494   -7.2610143    603.58325  0.026955308  0.026836515            4 
 1867000   0.95608116   -7.2413797    604.18042  0.026967524  0.026830101            5 
 1868000   0.96882658   -7.2818551    603.61476  0.026927853  0.026823601            6 
 1869000    0.9427088   -7.2975138    602.32431  0.026855908  0.026817105            2 
 1870000   0.97327722   -7.2529557    604.44535  0.026936067  0.026810632            3 
 1871000   0.95328138   -7.2837754    603.53894    0.0268813  0.026804218            2 
 1872000    0.9567035    -7.283909    602.67564  0.026828509  0.026797751            1 
 1873000   0.97353203   -7.2927931    602.65878  0.026813436  0.026791293            3 
 1874000   0.93765324   -7.2694458    602.17396  0.026777569  0.026784652            4 
 1875000   0.93955313   -7.3166569    603.31289  0.026813906  0.026777975            3 
 1876000   0.97641958   -7.2585249    603.44567  0.026805511  0.026771324            3 
 1877000   0.95425998   -7.2500493    603.70624  0.026802799  0.026764705            4 
 1878000   0.94625564   -7.2926601    603.58595  0.026783189  0.026758112            2 
 1879000   0.98332936   -7.3102662     603.0029  0.026743077  0.026751373            3 
 1880000   0.93735681   -7.2921365    603.60145  0.026755383  0.026744652            3 
 1881000   0.95281086   -7.2629594    603.84047  0.026751749  0.026737956            2 
 1882000   0.97586275   -7.2650963       603.51  0.026722901   0.02673125            2 
 1883000   0.95243037    -7.302911    603.21611  0.026695703  0.026724495            4 
 1884000   0.94233796   -7.3015375    603.64582   0.02670054  0.026717759            3 
 1885000   0.94819447   -7.2998944    605.16837  0.026753686     0.026711            5 
 1886000   0.94110505   -7.2984078    603.77299  0.026677845  0.026704223            6 
 1887000   0.94522601   -7.2952886    602.80588  0.026620998  0.026697406            1 
 1888000   0.94198152   -7.2904534    605.41227   0.02672194  0.026690601            3 
 1889000   0.95604884   -7.2942031    603.05842  0.026603954  0.026683804            4 
 1890000   0.93661309   -7.2721112    604.42808  0.026650268  0.026676966            4 
 1891000   0.94783039   -7.2717525    605.93551  0.026702605  0.026670223            2 
 1892000   0.95005591   -7.2957375    605.41614  0.026665616   0.02666349            3 
 1893000   0.96463024   -7.2970032    604.84238  0.026626271  0.026656667            4 
 1894000   0.93806801   -7.2682972    605.07712  0.026622542  0.026649897            2 
 1895000   0.93732292    -7.320298    604.05794  0.026563674  0.026643027            4 
 1896000   0.95512204   -7.2927498    604.00146  0.026547181  0.026636159            1 
 1897000   0.93849265   -7.2889814    605.05874  0.026579632   0.02662926            1 
 1898000   0.95365406    -7.297561    604.51081   0.02654157  0.026622384            2 
 1899000   0.96028653    -7.288948    605.39629  0.026566451   0.02661546            2 
 1900000    0.9366369   -7.3040796    604.57988  0.026516661  0.026608461            3 
 1901000   0.94371827   -7.2755963    605.29303  0.026533975   0.02660144            2 
 1902000   0.94453303   -7.3043447    604.23772  0.026473787  0.026594444            5 
 1903000   0.94354884    -7.269074    606.69595  0.026567523  0.026587486            1 
 1904000   0.96576923   -7.3017816     604.9404  0.026476733  0.026580587            5 
 1905000   0.96221938    -7.298147     604.7285  0.026453565  0.026573608            3 
 1906000   0.93626681   -7.3077024    606.43334  0.026514225  0.026566662            2 
 1907000   0.94324673   -7.2919189    605.57441  0.026462787  0.026559654            1 
 1908000   0.91039654     -7.26759     606.5147  0.026489985  0.026552666            4 
 1909000   0.94082624   -7.2768006    605.60119  0.026436231  0.026545629            2 
 1910000   0.96667246   -7.2909345    606.14754  0.026446228   0.02653863            1 
 1911000   0.93113246   -7.2927954    605.77414  0.026416106  0.026531588            3 
 1912000   0.94392549   -7.3070477    606.05889  0.026414701  0.026524584            6 
 1913000   0.94781397   -7.2820155    608.62177  0.026512536  0.026517605            1 
 1914000   0.94563516   -7.3279007    606.14305  0.026390763  0.026510661            2 
 1915000   0.93513498   -7.2881345    606.37166   0.02638693  0.026503597            3 
 1916000   0.95333538    -7.277669    607.82994  0.026436584  0.026496516            3 
 1917000   0.92407493   -7.2918937    607.19305  0.026395107  0.026489531            5 
 1918000   0.94393777   -7.2758118    608.07327  0.026419589  0.026482563            1 
 1919000    0.9618943   -7.2896655    608.41207  0.026420534  0.026475529            4 
 1920000   0.95344457   -7.2513479    608.66153  0.026417601  0.026468469            1 
 1921000   0.93968851   -7.2845632    606.90362  0.026327591  0.026461462            2 
 1922000   0.93049818   -7.2946404    607.68034  0.026347569  0.026454427            2 
 1923000   0.95534855   -7.2832575    607.39013  0.026321292   0.02644729            1 
 1924000   0.92412599   -7.2987746    608.28408  0.026346331  0.026440232            4 
 1925000   0.92188735   -7.3296094    605.30562  0.026203706  0.026433073            2 
 1926000   0.94441414   -7.2925511     606.9462  0.026261085  0.026425869            3 
 1927000   0.92369795   -7.2971242    605.53368  0.026186373  0.026418636            5 
 1928000   0.94359222   -7.2962489    607.61935  0.026262939  0.026411453            4 
 1929000   0.91721803   -7.3000025    607.44209  0.026241666  0.026404287            2 
 1930000   0.95669441    -7.317358    607.40056  0.026226276  0.026397067            2 
 1931000   0.94521083   -7.3192574    606.65954  0.026180716   0.02638992            3 
 1932000   0.94295641   -7.2823448    607.85055  0.026218537  0.026382755            1 
 1933000   0.94738908   -7.3116742    608.48695  0.026232408  0.026375561            2 
 1934000   0.92613523   -7.2663463    608.38721  0.026214547  0.026368363            2 
 1935000   0.95238292   -7.2959973    609.02357  0.026228405  0.026361187            2 
 1936000   0.91677097   -7.3067292    609.49696  0.026235234  0.026353981            2 
 1937000   0.94091741   -7.2928744    609.08418  0.026203931  0.026346776            2 
 1938000   0.92628547   -7.3051219    610.85967  0.026266756  0.026339535           10 
 1939000   0.94850186   -7.2965864    610.35359  0.026231459  0.026332376            2 
 1940000   0.92184246   -7.3230375    609.09459  0.026163857  0.026325191            2 
 1941000   0.96766032   -7.3038752    610.78985   0.02622316  0.026318094            3 
 1942000   0.95058186   -7.3121675    611.94383  0.026259176  0.026311131            2 
 1943000   0.95297718   -7.3242459    610.14434  0.026168483  0.026304154            3 
 1944000   0.94510689   -7.3038937    611.96059  0.026232878   0.02629702            2 
 1945000   0.93727474   -7.2747426     612.1959  0.026229473  0.026290027            3 
 1946000   0.93550934   -7.3020899    611.00125  0.026164836  0.026282982            2 
 1947000   0.95871104   -7.3108219    611.44675  0.026170465  0.026275975            1 
 1948000   0.93210192   -7.2903882    611.99241  0.026180373  0.026269076            2 
 1949000   0.94780826   -7.2903575    612.09382  0.026171277    0.0262621            4 
 1950000   0.94650804   -7.2825171    613.72616  0.026227614  0.026255084            3 
 1951000   0.94821502   -7.3043108    611.51322  0.026119649  0.026248118            2 
 1952000   0.96759749   -7.2855355     614.3893  0.026229051  0.026241158            2 
 1953000   0.95051878   -7.2935127    613.27218  0.026167955  0.026234094            3 
 1954000   0.92761631   -7.3185423    612.29984  0.026113094  0.026227084            3 
 1955000   0.93426077    -7.280639    613.85492  0.026166024  0.026220052            3 
 1956000   0.93762477    -7.284991    612.79631  0.026107546   0.02621301            2 
 1957000   0.92179515   -7.2726177    612.83058  0.026095664  0.026205926            2 
 1958000   0.94816228   -7.3100346    611.61156  0.026030455  0.026198862            3 
 1959000   0.94139284   -7.3534359    612.65112  0.026061388  0.026191861            1 
 1960000   0.96016308   -7.3177148    612.64255  0.026047727  0.026184756            2 
 1961000   0.93679428   -7.3343875     613.3481  0.026064427  0.026177552            3 
 1962000   0.94037696   -7.3041572     613.6895  0.026065643  0.026170383            3 
 1963000   0.92365575   -7.3315341    614.26713  0.026076886  0.026163309            2 
 1964000   0.94952227   -7.3099157    613.54717  0.026033061  0.026156236            2 
 1965000   0.93226396   -7.3086628    614.71305  0.026069256  0.026149085            4 
 1966000   0.94560358   -7.3042913    612.41254  0.025958483  0.026141936            2 
 1967000   0.93108024   -7.3011117    613.03416  0.025971622  0.026134776            2 
 1968000   0.93180186   -7.3367205    612.10828  0.025919219  0.026127547            3 
 1969000   0.94758197   -7.3301337    614.04557  0.025988047  0.026120318            2 
 1970000   0.92960654    -7.287742    613.86877  0.025967376  0.026113134            3 
 1971000   0.94530387   -7.3054599    614.76797  0.025992219  0.026105996            2 
 1972000   0.93752257   -7.3064165    613.89452  0.025942128   0.02609883            4 
 1973000   0.93418277   -7.3314987    614.56634  0.025957355  0.026091617            1 
 1974000   0.93677398   -7.3458378    613.64311  0.025905231  0.026084401            3 
 1975000   0.92135251   -7.2829183    614.84317   0.02594275  0.026077186            4 
 1976000   0.93257594   -7.3285095    613.41503  0.025869392  0.026069983            2 
 1977000   0.94421611   -7.2940326     614.0773  0.025884223  0.026062761            3 
 1978000   0.92877137   -7.3086769    614.27258  0.025879364  0.026055566            1 
 1979000   0.92635334    -7.307296    614.67181  0.025883098  0.026048348            5 
 1980000   0.92140202   -7.2925047    615.71583  0.025913966   0.02604119            4 
 1981000   0.92525479   -7.2979108    616.33005  0.025926722  0.026034087            5 
 1982000   0.93059615   -7.3137066    616.20878  0.025908543  0.026026902            4 
 1983000   0.92430925   -7.2747372    617.21238  0.025937653  0.026019741            2 
 1984000   0.94992666   -7.3190155    616.38529  0.025889839  0.026012642            3 
 1985000   0.94002187   -7.3089441     616.2153   0.02586966  0.026005466            3 
 1986000   0.93351519   -7.2808032    616.67485  0.025875917  0.025998293            2 
 1987000   0.94573049   -7.3230163    616.45008  0.025853467  0.025991104            2 
 1988000   0.93011595   -7.3099545    618.33925  0.025919653  0.025983981            3 
 1989000   0.92090054   -7.2907359    617.94562   0.02589013  0.025977001            4 
 1990000   0.93898297   -7.3239071    616.95259  0.025835536  0.025969963            3 
 1991000   0.92020303   -7.3043664    617.96175  0.025864798  0.025962813            2 
 1992000   0.94154315   -7.3075527    618.61755  0.025879248  0.025955704            4 
 1993000   0.94685718   -7.2905659    617.53226  0.025820884  0.025948564            2 
 1994000   0.91145835   -7.3520238    616.70081  0.025773187  0.025941418            2 
 1995000   0.92895345   -7.3008284    618.42423  0.025832257  0.025934286            3 
 1996000   0.95189237   -7.3134016    619.69295  0.025872284  0.025927187            3 
 1997000   0.94319051   -7.2919952    619.51449  0.025851882  0.025920141            2 
 1998000   0.93871635   -7.3318013    619.43635  0.025835684  0.025913087            4 
 1999000   0.94563811    -7.291366    619.41333    0.0258218  0.025906052            3 
 2000000   0.93044377   -7.3025249    620.22228  0.025842595  0.025899001            3 
 2001000   0.93708099   -7.3227119    620.16414  0.025827259  0.025891972            3 
 2002000   0.96271824   -7.3424395    620.12132  0.025812576  0.025884984            2 
 2003000   0.91501656   -7.2868394    619.75194  0.025784321  0.025877974            4 
 2004000   0.92704143   -7.3246695    618.64104  0.025725259  0.025870951            3 
 2005000   0.93290131   -7.2990744    619.13045   0.02573277  0.025863887            6 
 2006000   0.91505347     -7.32166    622.31266  0.025852138  0.025856866            2 
 2007000   0.93436524   -7.3515294    622.39878  0.025842833  0.025849897            2 
 2008000     0.929953   -7.3047643    620.88071  0.025766962  0.025842928            8 
 2009000   0.93472124   -7.3293798    620.55126   0.02574047  0.025835976            1 
 2010000   0.93130162   -7.3152945    622.12742  0.025793011  0.025829078            2 
 2011000     0.912126   -7.3299261    622.81141  0.025808528  0.025822207            3 
 2012000   0.94030832   -7.3253763    622.74476  0.025792941  0.025815301            2 
 2013000   0.92194646   -7.3421327    622.33278  0.025763072  0.025808357            2 
 2014000    0.9315689   -7.2930272    622.89221  0.025773428  0.025801494            3 
 2015000   0.94085167   -7.3383778    622.00955  0.025724134  0.025794611            3 
 2016000   0.90154535   -7.2848717    623.61041  0.025777547  0.025787737            2 
 2017000   0.93154697   -7.3221364    623.07709  0.025742732  0.025780902            4 
 2018000   0.94494343   -7.3156867    623.50141  0.025747498  0.025773997            2 
 2019000   0.93624259   -7.3488036    622.53377  0.025694806  0.025767095            2 
 2020000   0.94080137   -7.3468078    623.05815  0.025703719  0.025760211            2 
 2021000    0.9211265   -7.3147734    621.93181  0.025644558   0.02575332            3 
 2022000   0.92177351   -7.3229981    624.37344  0.025732503  0.025746488            3 
 2023000   0.92942917   -7.3001681    625.06214  0.025748152  0.025739665            3 
 2024000   0.92440488   -7.3271341    624.88904  0.025728304  0.025732778            2 
 2025000   0.93499574     -7.32996    624.06715  0.025681776  0.025725914            3 
 2026000    0.9374733   -7.3540657    623.76103  0.025656508  0.025719065            4 
 2027000   0.92107386   -7.3612412    624.45031  0.025672189  0.025712205            2 
 2028000   0.92154083   -7.3291836    626.16298  0.025729906  0.025705316            3 
 2029000   0.90792638   -7.3300833    625.43284  0.025687237  0.025698481            2 
 2030000   0.91121203   -7.3219023    624.85934   0.02565104  0.025691646            3 
 2031000    0.9186426   -7.3232166    627.18858  0.025733981  0.025684784            3 
 2032000     0.940436   -7.3223873    625.65531  0.025658436  0.025677974            1 
 2033000   0.93841589    -7.316767     626.3001  0.025672245  0.025671184            4 
 2034000   0.92486991   -7.3309648     626.0134  0.025647878  0.025664457            4 
 2035000   0.93003194   -7.3158544    627.74446  0.025706161  0.025657691            2 
 2036000    0.9270637     -7.32785     627.2392  0.025672855  0.025650936            7 
 2037000   0.92858383   -7.3451134    625.85612  0.025603671  0.025644105            3 
 2038000   0.93027018   -7.3456085    627.28385  0.025649487   0.02563723            2 
 2039000   0.89392923   -7.3108669    627.37017  0.025640435  0.025630348            4 
 2040000   0.92696205   -7.3539112    626.41563  0.025588874  0.025623551            3 
 2041000   0.91941208   -7.3226527    626.95826  0.025598492  0.025616732            5 
 2042000   0.90941152   -7.3012457    627.71365  0.025616783  0.025609975            6 
 2043000   0.93629399    -7.328864    628.42088  0.025633092  0.025603241            2 
 2044000   0.93726187    -7.398046    626.83877  0.025556049  0.025596473            5 
 2045000   0.91921179   -7.3320069    628.19155  0.025598678  0.025589648            1 
 2046000   0.92627829   -7.3542111    627.68498  0.025565534  0.025582854            4 
 2047000   0.90736011   -7.3452538    626.68325  0.025512264  0.025576086            3 
 2048000   0.95021963   -7.3541861    629.69241   0.02562225  0.025569227            2 
 2049000   0.92883902   -7.3503412    627.99259  0.025540613  0.025562412            5 
 2050000   0.91861552   -7.3670256    628.42559  0.025545756  0.025555617            3 
 2051000   0.90884091   -7.3348323    629.98394  0.025596617  0.025548795            4 
 2052000   0.91158494   -7.3473223    629.62519  0.025569574  0.025542049            3 
 2053000   0.91731219   -7.3565612    628.01609  0.025491804  0.025535279            8 
 2054000   0.94634433    -7.325456    629.04115  0.025520981  0.025528516            4 
 2055000   0.91216679   -7.3522902     629.9222   0.02554429  0.025521786            3 
 2056000   0.92717446   -7.3648405    628.80093  0.025486419  0.025514998            4 
 2057000     0.918628   -7.3568932    630.15105  0.025528725   0.02550825            2 
 2058000   0.90544841   -7.3239143    631.90028  0.025587151  0.025501531            3 
 2059000   0.91964863   -7.3335395    630.56048  0.025520499    0.0254948            2 
 2060000   0.92010076   -7.3282889    629.90354  0.025481535  0.025488049            1 
 2061000   0.90321985   -7.3466543    630.81534  0.025506038  0.025481344            4 
 2062000   0.90688768    -7.355023    628.87308  0.025415175  0.025474597            4 
 2063000   0.92243338   -7.3658284    632.71862  0.025558193  0.025467852            1 
 2064000   0.92811504   -7.3057824    631.10555  0.025480683  0.025461162            2 
 2065000   0.91064127   -7.3396294    631.31892  0.025476954  0.025454453            3 
 2066000   0.92770081    -7.345716    630.51078  0.025432026  0.025447701            2 
 2067000   0.92211657   -7.3660831    631.24668   0.02544939  0.025440906            2 
 2068000   0.92253871   -7.3245851    631.93082  0.025464653  0.025434081            2 
 2069000   0.90849769   -7.3121292    632.03559  0.025456565  0.025427311            5 
 2070000   0.92139141   -7.3678203    632.64315  0.025468726  0.025420421            4 
 2071000   0.91827443   -7.3126283    632.04348  0.025432298  0.025413585            3 
 2072000    0.9037513   -7.3673685    629.08556   0.02530106  0.025406733            2 
 2073000   0.91829635    -7.362826    631.79254  0.025397674  0.025399918            2 
 2074000   0.90087637   -7.3392619    630.66919  0.025340292   0.02539304            2 
 2075000   0.93196945   -7.3485782    630.57918  0.025324465  0.025386159            1 
 2076000   0.92054287   -7.3275872    631.53772  0.025350743  0.025379276            3 
 2077000    0.9048123   -7.3374433    629.57553  0.025259811  0.025372408            4 
 2078000   0.93420396   -7.3567454    630.35728  0.025279005   0.02536541            2 
 2079000   0.89825061   -7.3883323     629.1244  0.025217428  0.025358435            1 
 2080000   0.90948007   -7.3270712    633.44706  0.025378488  0.025351481            2 
 2081000   0.91428111   -7.3178777    632.52193  0.025329246  0.025344588            2 
 2082000   0.91470499   -7.3349773     630.8059  0.025248395  0.025337625            3 
 2083000   0.93400075   -7.3843572    631.03674  0.025245509  0.025330593            4 
 2084000   0.90758968   -7.3862796    630.23241  0.025201232  0.025323528            2 
 2085000   0.93353148   -7.3904398    630.08123  0.025183103  0.025316523            5 
 2086000   0.92351511   -7.3268234    631.92508   0.02524469  0.025309538            3 
 2087000   0.95543601   -7.3368165    632.57282  0.025258458  0.025302562            2 
 2088000   0.91636641   -7.3467661    632.60516  0.025247652  0.025295558            3 
 2089000   0.90914502   -7.3392728    632.42771  0.025228487  0.025288559            3 
 2090000   0.93546092   -7.3310312    632.73788  0.025228783  0.025281562            4 
 2091000   0.92310593   -7.3290517    633.04711  0.025229042  0.025274557            1 
 2092000   0.93810552   -7.3613183    632.00081  0.025175303  0.025267572            3 
 2093000   0.90991547   -7.3669362    631.48609  0.025142781  0.025260575            3 
 2094000   0.92089648   -7.3734514    632.79914  0.025183028  0.025253577            3 
 2095000   0.89167723   -7.3412779    632.93241  0.025176309  0.025246617            2 
 2096000   0.92019128   -7.3521062    634.54277  0.025228323   0.02523967            1 
 2097000   0.91717018   -7.3539876    632.83332   0.02514836  0.025232722            3 
 2098000   0.91199679   -7.3855602    632.48077  0.025122369  0.025225731            3 
 2099000   0.91146361   -7.3711962    631.92117  0.025088184  0.025218674            2 
 2100000   0.91652213   -7.3787366    631.84844  0.025073351  0.025211627            2 
 2101000   0.92105517    -7.339593    634.60054  0.025170575  0.025204653            2 
 2102000   0.93984151   -7.3536533    634.91553  0.025171088  0.025197785            2 
 2103000   0.88848844   -7.3310546    633.62426  0.025107951  0.025190848            1 
 2104000   0.91444416   -7.3340208    636.12758  0.025195167  0.025183946            4 
 2105000   0.91477607     -7.32591    636.94733   0.02521565  0.025176985            2 
 2106000   0.93058753   -7.3817541    634.06486  0.025089619  0.025170087            2 
 2107000   0.92432816   -7.3535637    634.62712  0.025099949  0.025163127            2 
 2108000   0.91678201   -7.3669875    634.62901  0.025088117  0.025156163            2 
 2109000   0.92959124   -7.3694289    634.88676  0.025086406  0.025149181            4 
 2110000   0.90489995   -7.3851326     635.1791  0.025086062  0.025142218            3 
 2111000    0.8913264   -7.3564992    635.82746  0.025099774  0.025135195            2 
 2112000   0.91600511   -7.3483093    634.21499  0.025024266  0.025128165            2 
 2113000   0.92776916   -7.3761402    636.10029  0.025086776  0.025121128            2 
 2114000   0.92004741   -7.3655983    634.65706  0.025018017  0.025114047            4 
 2115000   0.92196849   -7.3485364    636.00321  0.025059228  0.025106998            9 
 2116000   0.90340449   -7.3870262    635.87674  0.025042405  0.025099922            3 
 2117000   0.91127256   -7.3868362    634.85456  0.024990338  0.025092799            3 
 2118000   0.91843129   -7.3928592     634.4712  0.024963456  0.025085704            1 
 2119000   0.91679231   -7.3830862    636.04466  0.025013555  0.025078591            2 
 2120000   0.90733716   -7.3939009    635.36866  0.024975183   0.02507154            2 
 2121000   0.91433178   -7.3538734    636.12596  0.024993162  0.025064503            1 
 2122000    0.9203846   -7.3337665    636.19212  0.024983982  0.025057519            2 
 2123000   0.89940631   -7.3807709    636.34626  0.024978264  0.025050512            3 
 2124000   0.90087903   -7.3709843    637.81189  0.025024007  0.025043509            2 
 2125000   0.90325538   -7.3668948    636.74342   0.02497033  0.025036532            2 
 2126000   0.91845075   -7.3549545    638.01133  0.025008284  0.025029597            2 
 2127000   0.89177524   -7.3548302    637.61616  0.024981044  0.025022664            3 
 2128000    0.9331753   -7.3353601    638.60374  0.025007978  0.025015713            2 
 2129000   0.90851861   -7.3284356    638.22892  0.024981561  0.025008796            2 
 2130000   0.91410743   -7.3762499    637.33502   0.02493486  0.025001789            1 
 2131000   0.90728506    -7.352013    637.01038  0.024910464  0.024994799            3 
 2132000   0.91916366   -7.3684155    636.50551  0.024879046   0.02498777            4 
 2133000   0.92709152   -7.4065199    635.94446  0.024845462  0.024980775            1 
 2134000   0.93346359   -7.3853203    636.89514  0.024870944  0.024973725            5 
 2135000   0.92405452   -7.3841146    637.47384  0.024881883  0.024966696            2 
 2136000   0.92028835   -7.4037501    637.44936  0.024869279  0.024959578            3 
 2137000   0.92652877   -7.3908408    639.14427  0.024923735  0.024952577            4 
 2138000   0.92749464   -7.3892548    637.88815  0.024863118  0.024945564            2 
 2139000   0.91818617   -7.3631013    637.76061  0.024846525  0.024938496            2 
 2140000   0.90887538   -7.3455451    638.24915  0.024853939  0.024931456            3 
 2141000   0.89495836   -7.3637882    639.28966   0.02488283  0.024924448            4 
 2142000    0.9041804    -7.347087    638.62051   0.02484518  0.024917436            2 
 2143000   0.89757359   -7.3719543     639.1139  0.024852773  0.024910421            2 
 2144000   0.89119414   -7.3567838    638.40997  0.024813821  0.024903441            2 
 2145000   0.91483071   -7.3604817     638.5217  0.024806593  0.024896529            2 
 2146000   0.90219315   -7.3701591    639.90359  0.024848695  0.024889595            3 
 2147000   0.89253053   -7.3846413     640.4194  0.024857142  0.024882693            1 
 2148000   0.89946596   -7.3560598     640.6119  0.024853038  0.024875752            3 
 2149000   0.88986821   -7.3505928    639.69859  0.024806057  0.024868844            4 
 2150000   0.90596166   -7.3404697    640.37794   0.02482085  0.024861927            2 
 2151000   0.91212832   -7.3747205     640.1243  0.024799485  0.024854989            4 
 2152000   0.92096746   -7.3711104    639.91576  0.024779885  0.024848073            4 
 2153000   0.92438791   -7.3647543    641.79049  0.024840939  0.024841117            2 
 2154000   0.89332071   -7.3454704    641.13674  0.024804114  0.024834167            2 
 2155000   0.89473468   -7.3941719    639.62109  0.024733994  0.024827179            2 
 2156000   0.91379497   -7.3928212    639.64007  0.024723256  0.024820174            3 
 2157000   0.89609504   -7.3582758    640.54161  0.024746624  0.024813183            3 
 2158000   0.91058876   -7.3890983    640.52398  0.024734476  0.024806101            2 
 2159000    0.9181493    -7.403497    639.81087  0.024695495  0.024799109            2 
 2160000   0.89310846    -7.327183    642.37215  0.024782876  0.024792123            3 
 2161000   0.92728689   -7.3798442    641.85566  0.024751491  0.024785245            4 
 2162000   0.90444168   -7.3629792     642.0144  0.024746161  0.024778271            3 
 2163000   0.90337927    -7.396593    640.72063  0.024684876  0.024771248            2 
 2164000   0.89609528   -7.3808461    642.65049  0.024747785  0.024764236            3 
 2165000    0.8820953   -7.3534906    642.92646  0.024746977  0.024757313            3 
 2166000   0.89987943    -7.355102    643.25134  0.024748051  0.024750427            1 
 2167000   0.90065141    -7.421163    640.59836  0.024634608  0.024743472            4 
 2168000    0.9129564   -7.3724485    644.45557  0.024771509  0.024736558            9 
 2169000   0.91828271   -7.3676945     643.8072  0.024735178  0.024729698            3 
 2170000   0.92024297   -7.3732708    642.65945  0.024679702  0.024722842            2 
 2171000   0.89923073   -7.3702808    644.52785  0.024740053  0.024715956            3 
 2172000   0.91982087   -7.3993372    642.00664   0.02463193  0.024709091            6 
 2173000   0.88411282   -7.3799549    644.20277  0.024704816  0.024702162            2 
 2174000   0.89036326    -7.388716    642.49871  0.024628132  0.024695267            3 
 2175000   0.90080772     -7.39023    642.10346  0.024601665   0.02468827            3 
 2176000   0.91427636    -7.409426     643.1357   0.02462989  0.024681413            4 
 2177000    0.8984193   -7.3850435    644.64347  0.024676293  0.024674548            2 
 2178000   0.89082022   -7.3606165    645.29474  0.024689881  0.024667768            2 
 2179000   0.90850073    -7.385739    644.67556  0.024654871  0.024660928            2 
 2180000   0.89622955   -7.3602446    645.50758  0.024675366  0.024654049            2 
 2181000   0.90112089   -7.3929862    643.25762  0.024578084  0.024647123            3 
 2182000   0.89790718   -7.3724003    641.97217  0.024517727  0.024640141            3 
 2183000   0.90608133   -7.3979201    644.41981  0.024599932  0.024633139            2 
 2184000   0.90579404   -7.4204043    642.44281  0.024513233  0.024626119            2 
 2185000   0.91004739   -7.3737087    643.81755  0.024554445  0.024619144            2 
 2186000   0.90722175   -7.3484601    644.09706  0.024553868  0.024612161            3 
 2187000   0.91467973   -7.3741234    644.31762  0.024551045  0.024605218            3 
 2188000   0.90101239   -7.4162274    642.97637  0.024488741  0.024598161            3 
 2189000   0.89004521   -7.4055531    644.15359  0.024522369  0.024591038            1 
 2190000   0.91375352   -7.3776414     643.8791  0.024500727  0.024583957            5 
 2191000   0.93119057   -7.4133834     643.4744  0.024474152  0.024576968            2 
 2192000   0.89528277   -7.4199507    643.88942  0.024478764  0.024569993            4 
 2193000   0.90429714   -7.3670439    644.45457  0.024489078  0.024563021            1 
 2194000   0.91197998   -7.3956484    646.06807  0.024539201  0.024556047            4 
 2195000   0.88967154   -7.3962875    645.73214  0.024515267  0.024549045            2 
 2196000   0.88917282   -7.4116872    645.11938  0.024480851  0.024542056            4 
 2197000   0.90497691   -7.3955124    645.59602  0.024487787  0.024535113            3 
 2198000   0.91831591   -7.3844516    647.86455  0.024562654  0.024528183            4 
 2199000   0.90035714   -7.3817416    645.32741  0.024455336  0.024521292            2 
 2200000   0.90986915   -7.3784526    646.31974  0.024481808  0.024514333            5 
 2201000   0.91024357   -7.3712059    646.80909  0.024489213  0.024507448            2 
 2202000   0.90181119   -7.3689968    645.53774  0.024429978  0.024500521            2 
 2203000   0.90908107   -7.3813201    645.49352  0.024417216  0.024493568            2 
 2204000   0.91791844   -7.4106099    646.14969  0.024430947  0.024486633            3 
 2205000   0.89002092    -7.368679    646.07734  0.024417133  0.024479669            2 
 2206000   0.90711638   -7.4056704    647.03433  0.024442215  0.024472723            2 
 2207000   0.91084477   -7.4075625     646.6253  0.024415696  0.024465676            3 
 2208000   0.90512744   -7.3577798    647.00848    0.0244191  0.024458627            1 
 2209000   0.90923454   -7.3989324    645.96717  0.024368763  0.024451654            5 
 2210000   0.89168859   -7.4100125    647.04429  0.024398352  0.024444553            1 
 2211000   0.90311614   -7.4324537    644.28305  0.024283245  0.024437442            4 
 2212000   0.89470974   -7.3952416    646.57855  0.024358746  0.024430298            4 
 2213000   0.90494604   -7.3816516    647.43188  0.024379872  0.024423214            3 
 2214000   0.91064896   -7.4042286    645.81959  0.024308175  0.024416208            2 
 2215000   0.90045123   -7.3826064    647.02078  0.024342392  0.024409266            3 
 2216000   0.88713314   -7.3923603    648.18461  0.024375173  0.024402346            3 
 2217000   0.88330959   -7.4360694    646.69203  0.024308075  0.024395417            4 
 2218000   0.91653992   -7.3981364    649.53887  0.024404076  0.024388425            2 
 2219000   0.91623885   -7.4164625    648.57868  0.024357018  0.024381468            2 
 2220000   0.88648256   -7.4408449    646.99314  0.024286529   0.02437445            2 
 2221000   0.88137617   -7.4183428    647.18053  0.024282625  0.024367412            2 
 2222000   0.90975158   -7.4132628    648.62944  0.024326037  0.024360441            4 
 2223000   0.90373065   -7.4227827    647.59312  0.024276245  0.024353436            5 
 2224000   0.88590345   -7.4159756    647.19994  0.024250597  0.024346479            5 
 2225000   0.89375779   -7.3866179    648.42885  0.024285725  0.024339533            2 
 2226000   0.89442691   -7.4076513    649.02958  0.024297304  0.024332574            3 
 2227000    0.9264095   -7.3721507    648.30278  0.024259197  0.024325568            2 
 2228000   0.88447671   -7.3871582    648.63296  0.024260658  0.024318568            4 
 2229000   0.89652314   -7.3946812    649.23469   0.02427227  0.024311563            2 
 2230000   0.89452795   -7.3850015    648.78128  0.024244442  0.024304619            6 
 2231000    0.8935895   -7.3780767     648.8179  0.024234943  0.024297686            3 
 2232000   0.86932529   -7.4097377    648.26775  0.024203545  0.024290691            3 
 2233000   0.88939744   -7.4034848    648.83707  0.024213953  0.024283563            2 
 2234000    0.8847133   -7.4373043    647.94133    0.0241697  0.024276481            4 
 2235000   0.88559144   -7.4161991    648.28707  0.024171778  0.024269396            2 
 2236000   0.88501996   -7.4574883    646.34582  0.024088619  0.024262291            2 
 2237000   0.89247964    -7.419347    648.77657  0.024168402  0.024255188            3 
 2238000   0.89084296   -7.4151115    647.60827    0.0241141  0.024248128            5 
 2239000   0.89460572   -7.4127835    648.88682  0.024150916  0.024241109            4 
 2240000   0.90629635   -7.3757339    649.30715  0.024155772  0.024234082            6 
 2241000   0.88911951   -7.4315417    648.59873   0.02411865  0.024227021            5 
 2242000     0.915189   -7.4107179    649.09968  0.024126512  0.024219997            2 
 2243000    0.8850297   -7.4149003    650.10928  0.024153265  0.024212941            3 
 2244000   0.87988421    -7.355643    652.03907  0.024214166  0.024205932            2 
 2245000   0.89914328   -7.4456606    649.29562  0.024101545  0.024198896            1 
 2246000   0.89608919    -7.423098    649.99928  0.024116922  0.024191809            3 
 2247000   0.88144002    -7.430445    650.81531  0.024136453  0.024184831            3 
 2248000   0.90327129   -7.3933675    650.75677  0.024123546  0.024177839            2 
 2249000   0.90032059   -7.3720814     651.9589  0.024157363  0.024170893            1 
 2250000   0.90766151   -7.3986115    651.50587  0.024129847  0.024163927            7 
 2251000   0.89704937   -7.4192685    650.57659  0.024084725  0.024156924            5 
 2252000   0.90187395   -7.4045079    650.52763  0.024072218   0.02414992            3 
 2253000   0.91003593   -7.4183894     650.3567  0.024055211  0.024142946            4 
 2254000   0.89560362   -7.3835321    649.83474  0.024025242   0.02413598            3 
 2255000   0.89584666   -7.4131293    650.07538   0.02402348  0.024129017            2 
 2256000   0.88302708   -7.4102756    652.13027  0.024088736  0.024122091            3 
 2257000    0.8745352   -7.4303132    651.63122  0.024059638  0.024115157            5 
 2258000   0.87930947   -7.4216404    653.49553  0.024117786  0.024108189            6 
 2259000   0.88933581   -7.4598091     652.0693  0.024054497  0.024101195            2 
 2260000   0.89279137   -7.4393272    652.32517  0.024053288  0.024094206            2 
 2261000   0.90055201   -7.3964984    651.81745  0.024023937  0.024087255            2 
 2262000   0.88331651   -7.3981115    653.01432  0.024057409  0.024080336            2 
 2263000    0.8921194   -7.4119484    654.94686  0.024117943  0.024073437            2 
 2264000   0.89955939   -7.4357768    651.86967  0.023994025  0.024066457            3 
 2265000   0.87942478    -7.433306    651.83033  0.023981984  0.024059499            3 
 2266000   0.89276062   -7.4141138     653.4275  0.024030138  0.024052539            1 
 2267000   0.88500898   -7.4263994    654.54008  0.024060435  0.024045614            2 
 2268000    0.9147032   -7.4311864    652.38952  0.023970808  0.024038678            1 
 2269000   0.88712338   -7.3947988    651.92539  0.023943198    0.0240317            5 
 2270000   0.87370448   -7.4072465    653.95114  0.024007017  0.024024745            2 
 2271000   0.87380554   -7.4220474    652.71795  0.023951195  0.024017789            2 
 2272000   0.91321833   -7.4122712    653.32165  0.023962795  0.024010785            3 
 2273000   0.89337737   -7.4091823    653.19484  0.023947604  0.024003777            3 
 2274000   0.88595581   -7.4276522    652.74278  0.023920506   0.02399679            5 
 2275000   0.89340541   -7.4090396    653.30153  0.023930459  0.023989786            4 
 2276000   0.90511296   -7.4565502    653.00025  0.023908913  0.023982743            2 
 2277000     0.885139   -7.4338099    653.86202  0.023929952  0.023975732            6 
 2278000   0.88378386   -7.4257814    653.37722  0.023901713  0.023968791            4 
 2279000   0.88109423   -7.4140957    655.65743  0.023974603  0.023961854            2 
 2280000   0.88884903   -7.3679558    653.38776  0.023881132  0.023954955            5 
 2281000   0.89129466   -7.4346125    653.93338  0.023890595  0.023948034            3 
 2282000   0.86706215   -7.4341588    654.85475  0.023913773  0.023941092            7 
 2283000   0.88343471   -7.4618193    653.15672  0.023841317  0.023934096            3 
 2284000   0.88902109   -7.4484974    653.88944  0.023857612  0.023927078            2 
 2285000   0.89992023   -7.4539587    652.52296  0.023797336  0.023920052            3 
 2286000   0.86689784   -7.4083169      656.675  0.023938284  0.023913123            1 
 2287000   0.91220887   -7.4183166    655.46188  0.023883613  0.023906245            2 
 2288000   0.89805113   -7.4551481    654.90935   0.02385305  0.023899259            4 
 2289000   0.88383049   -7.4217635     655.9105  0.023879078   0.02389229            3 
 2290000   0.87185791    -7.410892    656.32937  0.023883893  0.023885398            2 
 2291000     0.899546   -7.4258242    657.09292  0.023901241  0.023878496            4 
 2292000   0.87743507   -7.4610651    655.92591  0.023848382  0.023871686            6 
 2293000   0.87308281   -7.4322441    655.55085  0.023824351  0.023864819            2 
 2294000   0.88643263   -7.4176079    656.92874   0.02386402  0.023857925            3 
 2295000    0.8920026   -7.4149815    656.10356  0.023823659  0.023851101            3 
 2296000   0.89024968   -7.4523647    656.60968  0.023831652   0.02384426            3 
 2297000   0.89570278   -7.4305777    657.06568   0.02383782  0.023837397            3 
 2298000   0.90054688    -7.461783    657.37558  0.023838685   0.02383057            2 
 2299000   0.88352113    -7.430843    656.85463  0.023809433  0.023823682            4 
 2300000   0.87825384    -7.440548    656.22232  0.023776171  0.023816798            4 
 2301000   0.88203224   -7.4484724    656.82273  0.023787582  0.023809926            2 
 2302000   0.85662635   -7.4312846    657.70164  0.023809066  0.023803057            3 
 2303000   0.87848361   -7.4452621    656.10496  0.023740952   0.02379607            3 
 2304000   0.90433102   -7.4418622    656.27868  0.023736932  0.023789092            1 
 2305000     0.858257   -7.4468029    657.42064  0.023767919    0.0237822            3 
 2306000   0.89816474   -7.4266555    656.63679  0.023729286  0.023775336            4 
 2307000   0.90374642   -7.4328157    658.42265  0.023783509  0.023768417            1 
 2308000   0.89545215   -7.4213086    657.52003  0.023740613   0.02376153            1 
 2309000   0.87733291   -7.4125961    658.73372  0.023774134   0.02375467            3 
 2310000   0.89029308   -7.4525459    658.56724  0.023757837  0.023747818            2 
 2311000   0.88149471   -7.4307526    656.44487  0.023671025  0.023740991            4 
 2312000   0.89215924   -7.4503382    656.76264   0.02367224  0.023734133            4 
 2313000   0.88232977   -7.4678988    657.41359  0.023685459  0.023727262            5 
 2314000   0.87754144   -7.4107003      659.215  0.023740096  0.023720393            7 
 2315000   0.87031818   -7.4343982    659.80892  0.023751221  0.023713633            3 
 2316000   0.88500938   -7.4635519    658.31801  0.023687321  0.023706829            5 
 2317000    0.8933223   -7.3929964    660.83061  0.023767466  0.023700043            5 
 2318000   0.89277152   -7.4441081    659.29226  0.023701907  0.023693177            4 
 2319000   0.87712736   -7.4568337    657.52983  0.023628354  0.023686283            2 
 2320000   0.89689259   -7.4619844    657.90816  0.023631759   0.02367935            3 
 2321000    0.8605303   -7.4393117    659.41247  0.023675588  0.023672478            3 
 2322000   0.87981265   -7.4398824    659.15479  0.023656144  0.023665572            4 
 2323000    0.8987939    -7.435188    659.72224  0.023666317  0.023658713            1 
 2324000   0.87133213   -7.4345728    660.45067  0.023682253  0.023651823            2 
 2325000   0.87677874   -7.4623063    658.35812  0.023597065  0.023644946            2 
 2326000   0.87457121    -7.449795     660.1699  0.023651831   0.02363808            1 
 2327000   0.86968392   -7.4360885    660.72951  0.023661707  0.023631245            4 
 2328000   0.86956525   -7.4477373    660.05249  0.023627308  0.023624355            4 
 2329000   0.88920023   -7.4517579    659.68729  0.023604096  0.023617498            3 
 2330000   0.90205251   -7.4368806    661.49489  0.023658616    0.0236106            4 
 2331000   0.86141821    -7.481183    660.28876  0.023605347  0.023603747            3 
 2332000   0.87466455    -7.454332    660.40874  0.023599512  0.023596895            2 
 2333000   0.88875068   -7.4371836    661.87894  0.023641911   0.02359008            3 
 2334000   0.88692001   -7.4500823    659.10793  0.023532845  0.023583301            4 
 2335000   0.88808961    -7.458233    661.65564  0.023613692  0.023576502            4 
 2336000   0.87561859   -7.4457149    660.56227  0.023564579  0.023569681            2 
 2337000   0.87314532   -7.4168971    662.97392  0.023640491  0.023562931            6 
 2338000   0.88792516   -7.4583345    660.63625  0.023547058  0.023556181            4 
 2339000   0.87590578   -7.4292252    661.60733  0.023571588   0.02354944            3 
 2340000   0.88477978   -7.4485358     662.5572  0.023595342  0.023542678            2 
 2341000   0.87932728   -7.4409458    661.67359  0.023553808  0.023535937            5 
 2342000   0.87900039   -7.4750412    662.20885  0.023562797  0.023529171            3 
 2343000   0.87666804   -7.4540304    660.95497  0.023508144  0.023522452            2 
 2344000   0.87262677   -7.4373163    662.71504  0.023560688  0.023515684            2 
 2345000   0.88435281   -7.4551605    662.53961  0.023544407  0.023508903            4 
 2346000   0.88896158   -7.4739567    662.10741  0.023519019   0.02350215            2 
 2347000   0.86699491   -7.4832095    662.39933  0.023519363  0.023495415            2 
 2348000   0.87156445   -7.4534652    660.86309  0.023454823  0.023488621            4 
 2349000   0.86944717   -7.4643822    662.90638  0.023517326  0.023481842            3 
 2350000   0.87564564   -7.4243329    662.49882  0.023492866  0.023475105            2 
 2351000   0.88765913   -7.4883572    661.07865  0.023432534  0.023468375            3 
 2352000   0.86702206   -7.4719415    662.71616  0.023480589  0.023461496            2 
 2353000   0.87320418   -7.4549582    662.04957  0.023447003  0.023454678            2 
 2354000     0.883292   -7.4643742    663.67114  0.023494447  0.023447924            2 
 2355000   0.86529051   -7.4682668    663.55474  0.023480352  0.023441161            2 
 2356000   0.88063216   -7.4332675    663.65269   0.02347385  0.023434396            3 
 2357000   0.85065369   -7.4097636    663.99468  0.023475982  0.023427659            2 
 2358000   0.88217224   -7.4725901    664.86996  0.023496959  0.023420953            3 
 2359000   0.87496829   -7.4298361    664.66699  0.023479829  0.023414286            2 
 2360000   0.88495796   -7.4577579    664.84958  0.023476327  0.023407524            3 
 2361000   0.87105519   -7.4641165    663.12199  0.023405407  0.023400745            3 
 2362000   0.85544981   -7.4811359    663.19251  0.023397986  0.023393897            6 
 2363000   0.90192589   -7.4611222    664.27134   0.02342613  0.023387106            2 
 2364000   0.86406775   -7.4726927    663.82793   0.02340059  0.023380356            3 
 2365000   0.86759495   -7.4477418    664.32002  0.023408035  0.023373595            1 
 2366000   0.86315849   -7.4925993    662.45618  0.023332495   0.02336678            4 
 2367000   0.87374735   -7.4620079    665.48507  0.023429273  0.023359988            3 
 2368000   0.87531781   -7.4430288    665.04306  0.023403824  0.023353216            2 
 2369000   0.86579537   -7.4773175    663.08008  0.023324894  0.023346442            1 
 2370000   0.86782495   -7.4790064    663.51121  0.023330211  0.023339595            3 
 2371000   0.87888365   -7.4666555    664.37013   0.02335056  0.023332786            3 
 2372000   0.86016722   -7.4613961    665.10031  0.023366368  0.023326004            6 
 2373000   0.85217085   -7.4701572    663.89349  0.023314141  0.023319161            2 
 2374000   0.87568325   -7.4557361    664.74339  0.023334154  0.023312349            2 
 2375000   0.87040393   -7.4691417     664.7248  0.023323677  0.023305568            3 
 2376000   0.86759692   -7.4781008    666.41846  0.023373262  0.023298838            4 
 2377000   0.86883012   -7.4773613    664.55357   0.02329805  0.023292088            4 
 2378000   0.87510124   -7.4979869    664.46203  0.023285045   0.02328533            3 
 2379000   0.87605169   -7.4290226    665.52799  0.023312596  0.023278552            6 
 2380000   0.86988858   -7.4551264    665.85663  0.023314308  0.023271808            2 
 2381000   0.85880115   -7.4461597    667.36392   0.02335727  0.023265031            1 
 2382000    0.8416542   -7.4442542    663.96098  0.023228414  0.023258295            4 
 2383000   0.86189868    -7.456853    666.84868  0.023319649  0.023251557            2 
 2384000   0.86854124    -7.471228    666.18997  0.023286842  0.023244828            2 
 2385000   0.85287956   -7.4426367    667.01695  0.023305973  0.023238105            2 
 2386000   0.86511951   -7.4498545    666.59097  0.023281328  0.023231385            3 
 2387000   0.85220661   -7.4720106    665.26006   0.02322511  0.023224641            3 
 2388000   0.87346936   -7.4629447    665.86289  0.023236421  0.023217937            1 
 2389000   0.86147645   -7.4736097     665.3804  0.023209865   0.02321125            2 
 2390000   0.88527423   -7.4474216    668.90951  0.023323205  0.023204522            3 
 2391000   0.87478031   -7.4846357     665.8136  0.023205549  0.023197769            2 
 2392000   0.84624425   -7.4741729    667.48743  0.023254161  0.023191017            3 
 2393000   0.87055562   -7.4784981    667.65799  0.023250383  0.023184265            2 
 2394000   0.86017967   -7.4597977    668.42817   0.02326748  0.023177545            2 
 2395000   0.84798021   -7.4842629    667.98393  0.023242308   0.02317085            2 
 2396000   0.86326292   -7.4758412    667.33216  0.023209939  0.023164119            2 
 2397000   0.87431177   -7.4761893    667.83699  0.023217807  0.023157354            4 
 2398000   0.86361056   -7.4956834    667.05528  0.023180959  0.023150632            4 
 2399000   0.88338962   -7.4787397    666.89332  0.023165671  0.023143892            1 
 2400000   0.86806917   -7.4810382    667.09907  0.023163162  0.023137124            4 
 2401000   0.86945559   -7.4657574    668.76062  0.023211184  0.023130398            3 
 2402000     0.878806   -7.4955338    668.77982  0.023202186  0.023123636            4 
 2403000   0.87939641   -7.4572861    667.25975  0.023139817  0.023116864            2 
 2404000   0.87406535   -7.4898098    667.59581   0.02314184  0.023110067            2 
 2405000   0.86279352   -7.4450279    668.21104  0.023153536  0.023103354            2 
 2406000   0.87383808   -7.4522753    669.23423  0.023179351  0.023096654            6 
 2407000     0.871993   -7.4629409    669.66331  0.023184577  0.023089994            5 
 2408000   0.86748037   -7.4520151    670.12965  0.023191087   0.02308329            2 
 2409000   0.86163803   -7.4897335    666.16198  0.023044209  0.023076568            5 
 2410000   0.85212353   -7.4826866     668.5486  0.023117172   0.02306983            4 
 2411000   0.86493887   -7.4702955    667.28671  0.023063967  0.023063086            2 
 2412000   0.87439024   -7.4512892     669.8388  0.023142579  0.023056387            3 
 2413000   0.86990273   -7.4810212    668.90253  0.023100654  0.023049675            4 
 2414000   0.87233649   -7.4421749    669.47423   0.02311082  0.023042963            3 
 2415000   0.85894821   -7.4593283    669.24018  0.023093174  0.023036211            3 
 2416000   0.87587268   -7.4890696    667.78394  0.023033387  0.023029452            2 
 2417000   0.86220147   -7.4759026    668.38782  0.023044677  0.023022727            2 
 2418000   0.85862581   -7.4454651    668.57762  0.023041688  0.023015941            3 
 2419000   0.87869303    -7.512675    668.41953  0.023026716  0.023009177            3 
 2420000   0.85485193   -7.4863933    669.34085  0.023048927  0.023002419            2 
 2421000   0.86946386   -7.4437383    669.27443  0.023037121  0.022995664            5 
 2422000   0.85160118   -7.4797369    668.05451  0.022985635  0.022988915            2 
 2423000   0.85692556   -7.4751096    669.09186  0.023011826  0.022982133            3 
 2424000   0.86334272   -7.4936737     669.1977  0.023005972  0.022975354            2 
 2425000   0.87231804   -7.4705737    668.89923  0.022986228  0.022968591            2 
 2426000   0.87381039   -7.4707469    670.29478   0.02302469  0.022961912            1 
 2427000   0.86258821   -7.4353263    671.42564  0.023054032   0.02295525            4 
 2428000    0.8682812    -7.463746    670.37686  0.023008541  0.022948631            4 
 2429000   0.85494993   -7.4720325    671.24454  0.023028837  0.022941944            3 
 2430000   0.86770351   -7.4682542    671.85428   0.02304027  0.022935261            3 
 2431000   0.87554658   -7.4512919    671.10213  0.023005009   0.02292863            2 
 2432000   0.83952117   -7.4814794    670.91425  0.022989112  0.022921978            1 
 2433000   0.86296677   -7.4576692    671.37274  0.022995367  0.022915242            4 
 2434000   0.85577188   -7.4278475    669.70429  0.022928797  0.022908604            2 
 2435000   0.84252919    -7.495411    669.26324  0.022904286   0.02290192            3 
 2436000   0.85346252   -7.4828297    670.47506  0.022936339  0.022895182            2 
 2437000   0.86596407   -7.4659898    670.88625  0.022940988  0.022888464            2 
 2438000    0.8674802   -7.4851652    669.03746  0.022868385   0.02288171            4 
 2439000   0.85084803   -7.4939275    670.11868   0.02289595  0.022874997            5 
 2440000    0.8372238   -7.4607914    672.84852  0.022979799  0.022868278            3 
 2441000    0.8682311   -7.5061067    671.99229  0.022941154  0.022861593            2 
 2442000   0.86606387    -7.489017     672.7426  0.022957364  0.022854919            1 
 2443000   0.85584719    -7.492707    672.97042  0.022955738  0.022848215            2 
 2444000   0.85091093   -7.4683174    673.57638  0.022967007  0.022841546            2 
 2445000   0.85922835   -7.5048483    672.87425  0.022933683  0.022834897            4 
 2446000   0.87527503   -7.4874967    671.74896  0.022885969  0.022828227            4 
 2447000   0.87228986   -7.4924205    672.37244  0.022897849  0.022821594            1 
 2448000   0.85272018   -7.4824269    672.98383  0.022909308  0.022815029            3 
 2449000    0.8495814   -7.5034674    673.16514  0.022906123  0.022808372            2 
 2450000   0.85089985    -7.485558    674.55721  0.022944123  0.022801725            4 
 2451000   0.86706061   -7.4903526    673.57257  0.022901284   0.02279512            3 
 2452000   0.85941971   -7.4951694    671.94728  0.022836707  0.022788537            2 
 2453000   0.86723748   -7.4789855    673.82216  0.022891091  0.022781939            4 
 2454000   0.86055159   -7.4870692    673.06045  0.022855897  0.022775309            3 
 2455000   0.84222495   -7.4807471    673.64512  0.022866433   0.02276868            2 
 2456000   0.86208198   -7.5138704    673.39065  0.022848488   0.02276208            3 
 2457000   0.87361555   -7.4813263    673.52165  0.022843632  0.022755496            2 
 2458000   0.85350525   -7.4816025    674.06843  0.022852876  0.022748894            3 
 2459000   0.86641314    -7.454498     675.2487  0.022883581  0.022742341            3 
 2460000   0.83411254   -7.4962306    673.91937  0.022829247  0.022735726            2 
 2461000    0.8568062   -7.5284576    672.27182  0.022764182    0.0227291            4 
 2462000   0.85158518   -7.5044333    673.75952  0.022805291  0.022722441            5 
 2463000    0.8613051   -7.5119946    674.49925   0.02282106  0.022715775            1 
 2464000    0.8506236    -7.498057    675.43252  0.022843362  0.022709177            3 
 2465000   0.85182723   -7.4847938    673.49435  0.022768572  0.022702614            1 
 2466000   0.85722431   -7.4685451    676.02166  0.022844744  0.022696083            4 
 2467000   0.87387343   -7.4848079    674.41316   0.02278115  0.022689533            2 
 2468000   0.85075901    -7.467113    676.03641  0.022826729  0.022683017            1 
 2469000   0.84179128   -7.4873888    675.00654  0.022782724  0.022676481            2 
 2470000   0.86881815   -7.4802713    675.70309     0.022797  0.022669995            6 
 2471000   0.85314865   -7.4573762    676.81796  0.022825373  0.022663552            5 
 2472000   0.87040344   -7.5038837    674.82554  0.022748973  0.022657079            3 
 2473000   0.87503749   -7.4700272    675.21137  0.022752776  0.022650544            4 
 2474000   0.85177348    -7.535852     674.6588  0.022724966  0.022644004            8 
 2475000   0.85312429   -7.5067527    674.72852  0.022718132  0.022637396            3 
 2476000   0.85845816    -7.486703    676.18338  0.022757922  0.022630796            3 
 2477000     0.853425   -7.4768911    677.82809  0.022804067  0.022624202            3 
 2478000   0.85730199   -7.4422916    676.15509  0.022738603  0.022617688            2 
 2479000   0.86437963   -7.4485584    675.76496  0.022716316   0.02261117            2 
 2480000   0.88109505    -7.470565    676.11944  0.022719067  0.022604614            3 
 2481000   0.83776223   -7.4985379    676.75269   0.02273118   0.02259799            2 
 2482000   0.84312805   -7.4969373    675.53331  0.022681081  0.022591386            3 
 2483000   0.87433334   -7.4848477    676.27204  0.022696739  0.022584785            3 
 2484000   0.85518532   -7.5080346    677.49444  0.022728611  0.022578194            4 
 2485000   0.85282048   -7.5081777    675.50808  0.022652853  0.022571623            4 
 2486000   0.84602885   -7.4920708    675.63896  0.022648128  0.022564982            2 
 2487000   0.85568266   -7.4957264    676.34128  0.022662555  0.022558403            2 
 2488000   0.85619958   -7.5151643    675.61047  0.022628968   0.02255185            4 
 2489000   0.86481208    -7.518854    675.96045  0.022631594  0.022545254            2 
 2490000   0.85559391   -7.4736613    676.49157   0.02264028  0.022538672            2 
 2491000   0.85481461   -7.4923152    674.83032  0.022575616  0.022532128            4 
 2492000   0.84928047   -7.4798047    677.45333  0.022654271   0.02252551            2 
 2493000   0.85144996   -7.5014227     675.8475  0.022591506   0.02251888            2 
 2494000   0.83465095   -7.5294312    674.78622  0.022546987  0.022512182            2 
 2495000   0.86792661   -7.5071972    675.47896  0.022561088  0.022505492            2 
 2496000   0.86284806    -7.535667    675.67345  0.022558542  0.022498833            4 
 2497000   0.83481719   -7.4968439    677.75022  0.022618817  0.022492217            3 
 2498000    0.8436748   -7.5105017    678.00212  0.022618165  0.022485651            3 
 2499000    0.8544161   -7.4973989     675.8039  0.022535811  0.022479046            3 
 2500000   0.85532682   -7.4852033    677.20811  0.022573604  0.022472464            3 
 2501000   0.88272159   -7.5344471    675.80732  0.022517904  0.022465854            4 
 2502000   0.86438509   -7.4457722    677.80912  0.022575577  0.022459246            2 
 2503000   0.83901018   -7.5224451    676.79497  0.022532793  0.022452601            2 
 2504000   0.83540159   -7.5240836    676.87704  0.022526525  0.022445894            1 
 2505000   0.85944239   -7.5065501     677.9238  0.022552355  0.022439242            3 
 2506000    0.8472307    -7.482653    675.76117  0.022471441  0.022432623            2 
 2507000   0.84396681   -7.4979483     677.6452  0.022525103  0.022426033            3 
 2508000   0.84827063   -7.5136804     676.8442  0.022489507  0.022419369            5 
 2509000    0.8308276    -7.521225     677.0864  0.022488588  0.022412724            3 
 2510000   0.83438443   -7.4853778    677.01327    0.0224772  0.022406083            2 
 2511000   0.85787986   -7.4912299    679.41851  0.022548072  0.022399464            2 
 2512000   0.85297346   -7.5216813    677.51846  0.022476064   0.02239288            1 
 2513000   0.85318924   -7.4897355    678.62367  0.022503769  0.022386249            5 
 2514000   0.84210408   -7.4890178     676.9832   0.02244044  0.022379619            3 
 2515000   0.87177428   -7.5127271    677.29217  0.022441755  0.022372955            5 
 2516000    0.8442132     -7.52756    676.86984  0.022418847  0.022366274            2 
 2517000   0.85527581   -7.5307034    678.61358  0.022467672  0.022359598            6 
 2518000   0.84980331   -7.4871802    677.38596  0.022418121  0.022353004            3 
 2519000   0.87015249   -7.5326311    678.50791  0.022446338  0.022346427            3 
 2520000   0.84154372     -7.54526      676.647  0.022375893  0.022339799            7 
 2521000   0.86015389   -7.5468731    678.05874  0.022413683  0.022333154            3 
 2522000   0.85638701   -7.5428676    677.12457  0.022373928  0.022326519            2 
 2523000   0.84745014   -7.5416211    679.29156  0.022436635  0.022319857            3 
 2524000   0.84101694   -7.5289038    676.97412  0.022351232  0.022313237            3 
 2525000   0.84599474   -7.5381429    678.98058    0.0224086  0.022306619            6 
 2526000   0.85497249   -7.5036491    679.54831  0.022418458  0.022300041            2 
 2527000   0.84199772   -7.5154763    679.27755  0.022400658  0.022293465            1 
 2528000   0.85354597   -7.5057218    679.14749  0.022387509   0.02228692            4 
 2529000   0.84679336   -7.5262095    677.83235  0.022335322  0.022280314            7 
 2530000   0.84984519   -7.5274622    679.81435  0.022391777  0.022273727            2 
 2531000   0.82664588   -7.5042203    680.30236  0.022398998   0.02226715            4 
 2532000   0.84484387   -7.5089701    678.99551   0.02234714  0.022260603            2 
 2533000   0.85121935   -7.5094279    678.18631  0.022311696  0.022254035            2 
 2534000   0.86829345    -7.501377    680.04094  0.022363883  0.022247506            2 
 2535000   0.84278078   -7.5175649    680.38872  0.022366493   0.02224096            3 
 2536000   0.85035294   -7.5370984     678.7187  0.022302796  0.022234435            1 
 2537000   0.86006289   -7.4755209    682.65084  0.022423165  0.022227879            2 
 2538000   0.83104167   -7.5173553      677.961  0.022260343   0.02222134            4 
 2539000   0.84540157   -7.5338594    679.85157  0.022313626  0.022214757            3 
 2540000   0.85493659   -7.5582262    676.66613  0.022200332  0.022208144            5 
 2541000   0.84827768   -7.5300028     680.4048  0.022314207  0.022201552            2 
 2542000   0.84779547   -7.5111231    678.60278  0.022246354  0.022194956            2 
 2543000   0.84185629   -7.4896428    679.48147    0.0222664  0.022188369            1 
 2544000   0.85101365   -7.5463103    679.22253  0.022249166  0.022181785            6 
 2545000    0.8417419   -7.5113533    682.07958  0.022333974  0.022175192            3 
 2546000   0.84894385   -7.5063884    681.34218  0.022301066  0.022168608            1 
 2547000   0.84474792   -7.5022066    680.59559  0.022267883  0.022162013            3 
 2548000   0.84914251   -7.5373533    679.57125  0.022225643  0.022155408            3 
 2549000   0.84362718   -7.5251877    681.72626  0.022287376  0.022148797            2 
 2550000   0.84290227   -7.5338898    681.49749   0.02227116  0.022142182            2 
 2551000   0.84237333   -7.5066342    679.52184  0.022197891  0.022135592            2 
 2552000    0.8297415   -7.5303222    680.92326  0.022234955  0.022128969            4 
 2553000   0.84506264   -7.5079903    681.48313  0.022244521  0.022122389            4 
 2554000   0.83566525   -7.5250967    680.87455  0.022215954  0.022115823            3 
 2555000   0.85320497   -7.5401356    680.71792   0.02220215  0.022109243            2 
 2556000   0.84095967   -7.5426046    680.04464  0.022171513  0.022102643            2 
 2557000   0.84002528   -7.5501011    680.12395  0.022165427  0.022096023            2 
 2558000   0.83391744   -7.5576038    680.95383  0.022183797  0.022089422            4 
 2559000   0.83883306   -7.5213598    681.50722  0.022193149  0.022082819            2 
 2560000   0.83683581    -7.507807    684.40726  0.022278882    0.0220763            3 
 2561000   0.82300572   -7.4975853    682.59095  0.022211081  0.022069815            1 
 2562000    0.8398218   -7.5186282    684.55292  0.022266228  0.022063324            2 
 2563000     0.845418   -7.5208084    683.02919  0.022207998  0.022056831            3 
 2564000   0.85219261   -7.4940629    684.20413  0.022237524  0.022050345            6 
 2565000   0.83833917   -7.5508774    683.09625  0.022192861  0.022043861            6 
 2566000   0.82219192   -7.5050183    682.59293  0.022167866  0.022037378            2 
 2567000    0.8444731   -7.5426174    683.07789  0.022174974  0.022030915            2 
 2568000   0.84359436   -7.5569953    681.42054  0.022112556  0.022024408            4 
 2569000   0.84647836   -7.4926227    681.99335   0.02212253  0.022017959            4 
 2570000   0.84723557   -7.4965372    685.13152  0.022215678  0.022011532            4 
 2571000   0.84136804   -7.5169918    685.05396  0.022204523   0.02200511            3 
 2572000   0.84247388   -7.5075748    683.79129  0.022154979  0.021998692            7 
 2573000   0.86035087   -7.5277489    685.58218  0.022204372  0.021992276            6 
 2574000   0.82722356   -7.5577891    684.12569  0.022148591  0.021985844            4 
 2575000   0.84569609   -7.5390429    685.79954   0.02219416  0.021979407            4 
 2576000   0.83161582   -7.5379995      684.756  0.022151786  0.021973013            3 
 2577000    0.8379954   -7.5133973    684.62324  0.022138897   0.02196657            4 
 2578000   0.83670697   -7.5468897    684.08974  0.022113064   0.02196012            5 
 2579000   0.83769471   -7.5485455    684.23297  0.022109118  0.021953705            3 
 2580000   0.86188387   -7.5528561    684.88912  0.022121742  0.021947277            5 
 2581000   0.84941481   -7.5548535    683.48781  0.022067926  0.021940846            3 
 2582000   0.84758474   -7.5460081    685.13667  0.022112596  0.021934385            2 
 2583000   0.83181362   -7.5438355     682.9956  0.022034959   0.02192793            2 
 2584000    0.8545309   -7.5551923    684.82763  0.022085514  0.021921446            4 
 2585000   0.82386296   -7.5364789    685.53651  0.022099823   0.02191499            3 
 2586000   0.85322145   -7.5268502    685.82433  0.022100552  0.021908601            4 
 2587000   0.84526088   -7.5226494    685.29737  0.022075034  0.021902204            6 
 2588000   0.82864744   -7.5329826    685.95876  0.022087801  0.021895794            2 
 2589000   0.85927251    -7.546495    684.49359   0.02203211  0.021889383            5 
 2590000   0.83054633    -7.528139     686.0459  0.022073549  0.021882997            1 
 2591000    0.8460936   -7.5776581    685.08918  0.022034259  0.021876551            4 
 2592000   0.82651527   -7.5330716    685.30447   0.02203268  0.021870122            2 
 2593000   0.83914765   -7.5291091    685.43027  0.022028226  0.021863732            3 
 2594000   0.84318265   -7.5400513    685.55633  0.022023783  0.021857363            3 
 2595000   0.83734594   -7.5520261    685.34244  0.022008428  0.021850984            3 
 2596000   0.83442022   -7.5069894    688.26511  0.022093769  0.021844602            2 
 2597000   0.83424074   -7.5338396    688.03701  0.022077943  0.021838234            3 
 2598000    0.8352361   -7.5013433    686.51646  0.022020672  0.021831864            2 
 2599000   0.84969111    -7.552717    686.28722  0.022004849  0.021825556            3 
 2600000   0.82858729   -7.5314815    686.69197  0.022009358  0.021819182            2 
 2601000   0.82611539   -7.5615099    686.57189  0.021997049  0.021812852            6 
 2602000   0.84034602   -7.5437313     687.7478  0.022026255  0.021806496            2 
 2603000   0.85176395   -7.5001918    688.25998  0.022034191  0.021800144            1 
 2604000    0.8289113    -7.528935     689.3867  0.022061786  0.021793833            1 
 2605000   0.82251778   -7.5080132    690.19247  0.022079094  0.021787577            3 
 2606000   0.83701703   -7.5128303    689.62744  0.022052553  0.021781381            2 
 2607000   0.83691118   -7.5276854    689.06824  0.022026219  0.021775109            2 
 2608000   0.86565915   -7.5128327    689.81732  0.022041709  0.021768851            3 
 2609000   0.82848304   -7.5195041    688.40245  0.021988068  0.021762589            3 
 2610000   0.84403291   -7.5282981    688.97956   0.02199807  0.021756346            2 
 2611000   0.83547878   -7.4992306    690.01215  0.022022601  0.021750081            3 
 2612000    0.8394428   -7.5201809     689.6153  0.022001509  0.021743792            2 
 2613000    0.8484368    -7.542926    688.43825  0.021955551  0.021737535            5 
 2614000   0.84263648    -7.556914    689.84606  0.021992032  0.021731262            4 
 2615000   0.83956325   -7.5548446     688.1349  0.021929092  0.021724985            3 
 2616000   0.84853637   -7.5111437    688.45454  0.021930891  0.021718707            5 
 2617000   0.83704544   -7.5176635    689.47203  0.021954911  0.021712434            4 
 2618000   0.80718525   -7.5241483    689.86151  0.021958923  0.021706177            4 
 2619000    0.8458049   -7.5288805    686.91265  0.021856709  0.021699894            4 
 2620000    0.8271094   -7.5586881    687.89117   0.02187949  0.021693602            4 
 2621000   0.85061088   -7.5394212    689.66989  0.021927696  0.021687329            2 
 2622000    0.8226857   -7.5145905    690.17877  0.021935506   0.02168107            2 
 2623000   0.85387443   -7.5201021    690.12718  0.021925504  0.021674858            3 
 2624000   0.83096154   -7.5645372    688.76519  0.021873894  0.021668559            5 
 2625000   0.82465772   -7.5662781    689.30254   0.02188262  0.021662262            2 
 2626000   0.83448555   -7.5529336     689.7431  0.021888268  0.021655948            6 
 2627000   0.82828505   -7.5424695    689.13527  0.021860654  0.021649682            3 
 2628000   0.84161796   -7.5535367    689.79435  0.021873235  0.021643388            4 
 2629000   0.81805384   -7.5808284    688.59711  0.021826966  0.021637082            4 
 2630000   0.82466543   -7.5514425    690.42635  0.021876627  0.021630812            4 
 2631000   0.82402736   -7.5542966    689.36399  0.021834663  0.021624536            3 
 2632000   0.82258926   -7.5515537    690.76102    0.0218706  0.021618302            3 
 2633000   0.84995562   -7.5354511    689.98147  0.021837621  0.021612054            5 
 2634000   0.83876291   -7.5903116    688.98879  0.021797924  0.021605782            3 
 2635000   0.83204824   -7.5443382    691.33538  0.021863864  0.021599488            2 
 2636000   0.83723729   -7.5727349     689.9235  0.021810935  0.021593235            5 
 2637000   0.81903072   -7.5672438    692.50191  0.021884146  0.021586934            1 
 2638000   0.83554521   -7.5619014    690.63821  0.021816976  0.021580647            5 
 2639000   0.81620558   -7.5495135    692.24766  0.021859532  0.021574372            6 
 2640000   0.83448408   -7.5501812     690.6622  0.021801206  0.021568121            4 
 2641000   0.83345549   -7.5483419    690.76729  0.021796267   0.02156186            4 
 2642000   0.81917418   -7.5311502     692.6665  0.021847921  0.021555636            5 
 2643000   0.82729845   -7.4947043    692.68137  0.021840124   0.02154943            5 
 2644000   0.81238343   -7.5458693    691.81719  0.021804626  0.021543243            6 
 2645000   0.82043103   -7.5614684    690.01885  0.021739724  0.021536972            4 
 2646000   0.83668835   -7.5414919    692.10266  0.021797136  0.021530733            3 
 2647000   0.82962848    -7.540435    693.02286  0.021817871  0.021524549            2 
 2648000   0.83395808   -7.5182723    693.64181   0.02182911  0.021518351           10 
 2649000   0.82765973   -7.5576784    692.25168  0.021777139   0.02151218            4 
 2650000   0.83281398    -7.565895    691.26051  0.021737752  0.021505962            1 
 2651000   0.81967883   -7.5564593    692.92024  0.021781725   0.02149974            3 
 2652000   0.83744154   -7.5669902    692.14216  0.021749062  0.021493567            2 
 2653000     0.827592   -7.5647109    691.91113  0.021733607   0.02148737            3 
 2654000   0.83637318   -7.5610661    692.61465  0.021747508  0.021481168            4 
 2655000   0.82771639   -7.5848759    693.60906  0.021770529  0.021474948            3 
 2656000   0.84242398   -7.5530307    693.06473  0.021745254   0.02146877            4 
 2657000   0.83138444   -7.5381883    693.22223   0.02174201  0.021462647            3 
 2658000    0.8156699    -7.574537    693.15377  0.021731683  0.021456526            3 
 2659000   0.80582172   -7.5422248    694.06191  0.021751972  0.021450441            2 
 2660000   0.82592662   -7.5331201    694.51424  0.021757965  0.021444327            5 
 2661000   0.82426663   -7.5617337    694.78684  0.021758325  0.021438178            4 
 2662000   0.83549754   -7.6010812    693.68623  0.021715697  0.021432023            2 
 2663000   0.80156544   -7.5374277    694.63847  0.021737341  0.021425883            3 
 2664000   0.81364356     -7.55806    695.07892  0.021742959  0.021419783            2 
 2665000   0.82389045   -7.5657636    694.87844  0.021728531  0.021413681            1 
 2666000   0.83411537   -7.5756181     695.1183  0.021727879   0.02140755            3 
 2667000   0.83162044   -7.5748132    695.14446  0.021720549  0.021401427            5 
 2668000   0.82429526   -7.5766255    694.33105  0.021687002  0.021395278            3 
 2669000   0.83006537   -7.5910779    693.63974  0.021657292  0.021389085            4 
 2670000    0.8246813   -7.6286878    691.96898  0.021597034  0.021382893            6 
 2671000   0.83997558   -7.5649758    694.12986  0.021656367  0.021376715            2 
 2672000   0.83066974   -7.5648472    694.36164   0.02165549  0.021370561            4 
 2673000   0.83611391   -7.5568473    694.02318  0.021636837  0.021364435            3 
 2674000   0.81785891    -7.565631    692.99949  0.021596843  0.021358282            2 
 2675000   0.83166914   -7.5934116    693.60665  0.021607684  0.021352119            5 
 2676000    0.8304593   -7.5586922    695.44186  0.021656759  0.021345942            5 
 2677000   0.82306197    -7.572261    694.31795  0.021613683  0.021339777            5 
 2678000   0.80772717   -7.5686152    693.77647  0.021588762   0.02133361            4 
 2679000   0.84713248   -7.5691854    692.96383  0.021555426  0.021327451            3 
 2680000   0.81523204   -7.5857775    694.45157  0.021593643  0.021321288            5 
 2681000   0.82671593   -7.5751339    694.86006  0.021598286  0.021315149            3 
 2682000   0.81234458   -7.5882387    696.43989   0.02163932  0.021309002            6 
 2683000   0.82264591   -7.5813561    693.99511  0.021555321   0.02130288            2 
 2684000   0.80926549    -7.580369    693.94602  0.021545766  0.021296716            4 
 2685000   0.82794144   -7.5857275    693.58259  0.021526462  0.021290549            4 
 2686000   0.82431631   -7.5580559    694.96291  0.021561272  0.021284407            3 
 2687000   0.81966027   -7.5534938     693.8816  0.021519712  0.021278302            2 
 2688000     0.840556   -7.5891085    695.54763  0.021563357  0.021272189            2 
 2689000   0.84555726   -7.5716826    695.71458  0.021560511  0.021266075            5 
 2690000   0.82438788   -7.5963174    696.02882  0.021562231  0.021259966            2 
 2691000   0.83427524   -7.5775109    695.09341  0.021525251   0.02125383            2 
 2692000   0.83079751   -7.5773605    694.45547  0.021497507  0.021247672            3 
 2693000   0.81875917   -7.6034783    694.60412  0.021494124  0.021241483            4 
 2694000   0.83138894   -7.5756066    696.02523  0.021530105  0.021235319            7 
 2695000   0.82851579   -7.5580618    695.66804  0.021511071  0.021229131            2 
 2696000   0.81956822   -7.5831779    696.35963  0.021524469  0.021223002            1 
 2697000    0.8343145   -7.5798094     696.6577  0.021525698  0.021216866            3 
 2698000   0.82458526   -7.5457309    695.17316  0.021471867  0.021210719            3 
 2699000   0.81592994   -7.5664147    695.76705  0.021482248  0.021204593            2 
 2700000   0.81046018   -7.6082148    696.46215  0.021495745  0.021198459            3 
 2701000   0.81240138   -7.5742283    697.21116  0.021510896  0.021192274            3 
 2702000   0.82980709   -7.5849376    693.94019  0.021402054    0.0211861            4 
 2703000   0.80844782   -7.5891861    694.75305  0.021419196   0.02117995            2 
 2704000   0.82172524   -7.6025426    693.34098  0.021367757  0.021173788            4 
 2705000   0.81705196   -7.6006836    695.01063  0.021411295  0.021167605            4 
 2706000    0.8135079   -7.5571605    695.77325  0.021426868  0.021161422            2 
 2707000   0.82178582   -7.5854995    695.63586  0.021414723  0.021155241            4 
 2708000   0.82834426   -7.5813176       696.41  0.021430638  0.021149074            3 
 2709000   0.80705985   -7.5944541    697.05169  0.021442466  0.021142907            4 
 2710000   0.83183102   -7.5786364    696.10551  0.021405459  0.021136714            2 
 2711000   0.82084971   -7.6122422    695.23508  0.021370807  0.021130496            3 
 2712000    0.8363955   -7.6157401    695.77366  0.021379476   0.02112425            3 
 2713000   0.81483217   -7.5615162    695.51411  0.021363623  0.021118007            3 
 2714000   0.81183141   -7.5817088    695.48609  0.021354891  0.021111809            4 
 2715000   0.82303338   -7.5999762     695.1387  0.021336363  0.021105614            2 
 2716000   0.81322441   -7.5780858    694.92268  0.021321879  0.021099452            2 
 2717000   0.81630076   -7.5681681    695.71268  0.021338262  0.021093259            4 
 2718000   0.81638835   -7.5969883     695.7101  0.021330332   0.02108704            3 
 2719000   0.80367184   -7.5889834    693.56537  0.021256754  0.021080806            2 
 2720000   0.81859105   -7.5933756    695.76114  0.021316211  0.021074604            4 
 2721000    0.8173557    -7.614816    696.51498  0.021331465  0.021068432            2 
 2722000    0.8131495   -7.6099219    695.96623  0.021306828  0.021062249            3 
 2723000   0.81422494   -7.5825775    696.88254  0.021327046  0.021056067            3 
 2724000   0.82565256   -7.6073627     697.2378  0.021330084  0.021049866            3 
 2725000   0.80111723   -7.5861883    695.61157  0.021272525  0.021043647            2 
 2726000   0.82142722   -7.6099826    695.77083   0.02126959  0.021037445            2 
 2727000   0.80100123   -7.6060713    697.01957   0.02129995  0.021031248            2 
 2728000   0.82350548   -7.6089768    695.38304   0.02124215  0.021025065            4 
 2729000   0.81735579   -7.5821442     696.8752  0.021279931  0.021018894            3 
 2730000   0.82679289   -7.6063687    696.15306  0.021250093  0.021012716            3 
 2731000   0.82158531   -7.6198445      697.225  0.021275021  0.021006517            1 
 2732000   0.79680062   -7.5796904    697.42548  0.021273349  0.021000355            3 
 2733000   0.81786103   -7.5540656    698.76633   0.02130645  0.020994218            3 
 2734000   0.81965118   -7.6025817    697.05626  0.021246533  0.020988075            5 
 2735000   0.79625041   -7.5909772    698.87766  0.021294261  0.020981886            3 
 2736000   0.80016789   -7.6055861    698.06441  0.021261709    0.0209757            3 
 2737000   0.82544878    -7.605302    698.42261  0.021264846  0.020969561            3 
 2738000   0.82219994   -7.5998754    696.16729  0.021188437   0.02096338            4 
 2739000   0.79921253   -7.5945782    697.22586  0.021212908  0.020957195            5 
 2740000    0.8050996   -7.5883407     697.2111  0.021204717  0.020951049            2 
 2741000   0.81146355   -7.5875707    698.53608  0.021237264  0.020944899            2 
 2742000   0.81816238   -7.5894234    698.53422  0.021229462  0.020938757            3 
 2743000   0.82883227   -7.5965806    696.79925  0.021169013  0.020932614            3 
 2744000   0.82465823   -7.5977927    699.03043  0.021229058  0.020926469            2 
 2745000   0.81191636   -7.5900432    698.68658  0.021210886  0.020920324            3 
 2746000   0.80409803   -7.5851816    697.35482  0.021162746  0.020914189            3 
 2747000   0.80459061   -7.5961822    698.44571  0.021188136  0.020908016           10 
 2748000   0.79610662   -7.6096184    698.55926  0.021183869  0.020901851           10 
 2749000   0.80795996   -7.6249857     697.0084   0.02112915  0.020895658            3 
 2750000   0.80351746    -7.609622    699.01027   0.02118213  0.020889452            4 
 2751000   0.80576167   -7.6041867    697.21683  0.021120103  0.020883274            2 
 2752000   0.81159228   -7.6307232    697.42712  0.021118796  0.020877067            4 
 2753000   0.81144085   -7.6310572    696.55936  0.021084858  0.020870863            3 
 2754000    0.8035771     -7.61972    698.70609  0.021142159   0.02086466            5 
 2755000   0.80907706   -7.6290024    697.89055  0.021109817  0.020858448            2 
 2756000   0.81302346   -7.6000615    697.96107   0.02110429  0.020852264            3 
 2757000   0.80298094   -7.5940359    697.72675  0.021089552   0.02084609            2 
 2758000   0.82324208   -7.6162813    697.60232  0.021078146  0.020839893            2 
 2759000   0.80809615   -7.6131009    699.42933   0.02112569  0.020833743            2 
 2760000    0.8118481    -7.626303    697.44182  0.021058026  0.020827585            5 
 2761000   0.81372695   -7.6395139    698.11505  0.021070719  0.020821439            4 
 2762000    0.8136165   -7.6342873     698.2341  0.021066682  0.020815283            3 
 2763000   0.81091391   -7.6211357    700.51038  0.021127711  0.020809164            3 
 2764000   0.81605404   -7.5808885    701.15754  0.021139578  0.020803088            2 
 2765000     0.807197   -7.6328515    700.41102  0.021109434  0.020796997            1 
 2766000   0.80293592   -7.6090894    700.09113  0.021092165   0.02079092            2 
 2767000   0.80650643   -7.5818066    700.70986  0.021103176  0.020784869            2 
 2768000   0.79298592    -7.606203    699.87048  0.021070282  0.020778782            2 
 2769000    0.8045821    -7.586286    700.87966  0.021093044  0.020772704            3 
 2770000   0.80253731   -7.6230689    699.75369  0.021051555  0.020766612            2 
 2771000   0.80485999   -7.6211561    700.78795  0.021075062  0.020760531            3 
 2772000   0.82685518   -7.6000402    701.87784  0.021100224   0.02075447            2 
 2773000   0.80456547   -7.6009493    699.60718  0.021024377  0.020748384            2 
 2774000   0.81562678   -7.6014221    702.24634  0.021096081  0.020742337            4 
 2775000   0.81178367   -7.5895145    701.58802  0.021068709   0.02073631            4 
 2776000   0.81478178   -7.6178734    702.40768  0.021085725  0.020730301            2 
 2777000   0.80619846   -7.6013812    702.41714  0.021078416   0.02072428            2 
 2778000   0.81448607   -7.5758297    703.30214  0.021097376  0.020718294            5 
 2779000   0.82105721   -7.5909979    704.19575  0.021116581  0.020712305            2 
 2780000   0.81915862    -7.617514    701.67183  0.021033328  0.020706296            4 
 2781000   0.80407382   -7.6349745    701.07251  0.021007806  0.020700287            3 
 2782000   0.80790868   -7.5936226    702.24334  0.021035326  0.020694286            2 
 2783000    0.8001003   -7.5995682    702.21137  0.021026811  0.020688253            4 
 2784000   0.80546291   -7.5939288    703.06276  0.021044743  0.020682255            2 
 2785000   0.78463427   -7.6032481    703.07961   0.02103769  0.020676268            3 
 2786000   0.79408948   -7.5979648    703.31597  0.021037209  0.020670252            2 
 2787000   0.81538811   -7.6240796    701.03812  0.020961551   0.02066423            2 
 2788000   0.81012238   -7.6305804    700.90781  0.020950138  0.020658181            4 
 2789000    0.7989203   -7.5879938    702.34757  0.020985645  0.020652165            4 
 2790000   0.79383587    -7.600799    702.53698  0.020983781  0.020646155            2 
 2791000    0.8010735   -7.6053823    704.22961  0.021026801   0.02064012            1 
 2792000   0.80430134   -7.6021694    703.81601  0.021006925  0.020634068            2 
 2793000   0.80580463   -7.5898173    704.23239  0.021011827  0.020628032            3 
 2794000   0.81342091   -7.5963842    702.45522  0.020951301  0.020621977            3 
 2795000   0.80859999   -7.6222703    702.67912  0.020950481  0.020615897            3 
 2796000   0.80746358   -7.6113024     699.7965  0.020857073  0.020609805            3 
 2797000   0.80725611   -7.6285863    701.27987  0.020893811   0.02060365            2 
 2798000   0.82747436   -7.6413158    702.20358  0.020913855  0.020597527            2 
 2799000   0.80111432    -7.623643    702.09661  0.020903198  0.020591403            5 
 2800000   0.82535566   -7.5976388    702.71646   0.02091418   0.02058532            2 
 2801000   0.79441648   -7.6196409    702.38628   0.02089689  0.020579257            5 
 2802000   0.79706059   -7.6214843    701.30652   0.02085732   0.02057315            7 
 2803000   0.81204249   -7.6286103    701.91739   0.02086804  0.020567058            3 
 2804000   0.80251153   -7.6174967     702.6332  0.020881871  0.020560967            3 
 2805000   0.79930185   -7.6370208    701.79685   0.02084958  0.020554902            3 
 2806000   0.79956744   -7.6270368     702.2896  0.020856783  0.020548822            1 
 2807000   0.78761532   -7.6180781     702.9416  0.020868709  0.020542726            1 
 2808000   0.82558612   -7.6293215    701.49476  0.020818339  0.020536636            3 
 2809000   0.80792638   -7.6230733    702.77575  0.020848931  0.020530564            3 
 2810000   0.81395606   -7.6224244    701.60528    0.0208068    0.0205245            3 
 2811000   0.78539365   -7.6174168    704.45491  0.020883876   0.02051846            4 
 2812000   0.80731925   -7.6273011    703.72234   0.02085474  0.020512439            2 
 2813000   0.80915758    -7.656415    701.52597   0.02078226  0.020506358            2 
 2814000   0.79987331   -7.6600932     702.4339  0.020801762  0.020500235            4 
 2815000   0.79071012   -7.6553422    702.11956  0.020785067  0.020494133            3 
 2816000   0.79888602   -7.6152136    702.93377  0.020801781  0.020488077            4 
 2817000    0.8066404   -7.6491354    704.56062  0.020842522  0.020482056            4 
 2818000   0.79939008   -7.5922893    704.65741  0.020837988  0.020476063            5 
 2819000   0.79625432   -7.6109301    703.69968  0.020802284  0.020470083            3 
 2820000   0.80235016   -7.6279137    704.78651  0.020827025  0.020464089            4 
 2821000   0.80178355   -7.6105733    704.30121  0.020805306  0.020458076            2 
 2822000   0.80516171   -7.6369236    704.01687  0.020789537  0.020452059            3 
 2823000   0.79529667   -7.6406859    703.40567   0.02076413  0.020446057            2 
 2824000   0.80116674   -7.6422027    703.10148  0.020747801  0.020440034            3 
 2825000   0.77861646   -7.6323914    703.32456  0.020747037  0.020434004            2 
 2826000   0.79824783   -7.6382145    703.12162  0.020733711  0.020427966            3 
 2827000   0.81920529   -7.6491436    703.62555  0.020741232  0.020421958            3 
 2828000   0.78940977   -7.6049692    704.36336  0.020755639  0.020415939            2 
 2829000    0.8081892   -7.6172534    703.57574  0.020725101  0.020409961            2 
 2830000   0.80274184   -7.6210688    704.17992  0.020735569  0.020403969            8 
 2831000   0.80995559   -7.6098989    703.44491  0.020706609  0.020397982            9 
 2832000   0.78698588   -7.6263877    704.20419  0.020721639  0.020391986            6 
 2833000   0.80869672   -7.6339019    705.05494   0.02073935  0.020385974            3 
 2834000   0.80555297   -7.6045878    704.97035  0.020729545  0.020379976            2 
 2835000   0.80880687   -7.6224313    705.11128  0.020726375   0.02037397            3 
 2836000   0.80217424   -7.6363023    703.74954  0.020679053  0.020367964            7 
 2837000   0.81290571    -7.609767     705.0758  0.020710721  0.020361959            4 
 2838000   0.79816934   -7.6352878    705.59339  0.020718622  0.020355981            3 
 2839000   0.78797145   -7.6050789    705.22366  0.020700471  0.020349978            4 
 2840000   0.79028911   -7.6073313    705.61239  0.020704589  0.020344017            3 
 2841000   0.80586442   -7.6291057    705.94679   0.02070711  0.020338049            2 
 2842000    0.7819771   -7.6381063    705.01294  0.020672441  0.020332024            2 
 2843000   0.79362104    -7.617025    704.93015  0.020662743  0.020326024            6 
 2844000    0.7821313   -7.6333056    706.91569  0.020713657  0.020320014            5 
 2845000   0.79222805   -7.6511021    704.13831  0.020625024  0.020314027            2 
 2846000   0.79049438   -7.6023082    704.49337  0.020628173  0.020308015            3 
 2847000   0.79225568   -7.6223388     705.1917  0.020641368  0.020302062            3 
 2848000   0.79900858   -7.6450143    706.00721  0.020657982  0.020296052            5 
 2849000   0.81385702   -7.6382875    704.68673  0.020612107  0.020290051            3 
 2850000   0.81798979   -7.6249606    705.26936  0.020621911  0.020284062            5 
 2851000   0.80439224   -7.6128683     705.1797  0.020612057   0.02027811            2 
 2852000   0.80082846   -7.6003458    705.32017  0.020608935   0.02027214            2 
 2853000   0.79530819   -7.6130895    705.30942  0.020601397  0.020266155            3 
 2854000   0.79838214   -7.6142227    705.51784  0.020600264  0.020260147            3 
 2855000   0.78445295   -7.6691667    706.04521  0.020608442  0.020254153            2 
 2856000   0.81701392   -7.6264108    704.11714  0.020544968  0.020248131            3 
 2857000   0.80791202   -7.6397596    704.97819  0.020562892  0.020242111            2 
 2858000   0.78829802   -7.6494807    704.23152  0.020533926  0.020236079            3 
 2859000    0.7893274   -7.6527607    704.97515  0.020548419  0.020230066            3 
 2860000   0.78722354   -7.6561424    704.70939   0.02053349  0.020224044            2 
 2861000   0.78984547   -7.6683679    705.63435  0.020553255  0.020218016            8 
 2862000    0.7917172   -7.6609298    705.72214   0.02054863  0.020212031            4 
 2863000   0.80196832   -7.6632316    706.30934  0.020558544  0.020206082            6 
 2864000   0.78917115    -7.660738    703.26556  0.020462801  0.020200093            3 
 2865000   0.79780074   -7.6511249    706.11676  0.020538591  0.020194111            3 
 2866000   0.80854145   -7.6584087     706.7445  0.020549677  0.020188112            2 
 2867000   0.78555004   -7.6644436    706.02437  0.020521578  0.020182096            4 
 2868000     0.783242   -7.6307783    705.36295  0.020495204  0.020176093            3 
 2869000   0.79473242   -7.6547127    706.05347  0.020508118  0.020170099            3 
 2870000   0.80378635   -7.6486736    706.50543  0.020514095  0.020164086            4 
 2871000   0.80058211   -7.6444128    704.70263  0.020454622  0.020158063            3 
 2872000    0.7955589   -7.6566561    705.00039  0.020456139  0.020152023            4 
 2873000   0.79479817    -7.657559    706.05835  0.020479706   0.02014602            2 
 2874000   0.80847974   -7.6753392    704.22156  0.020419322   0.02013999            4 
 2875000   0.78359823   -7.6384351    706.98616  0.020492352  0.020133979            5 
 2876000   0.78294981   -7.6433281    706.45562  0.020469854  0.020127972            5 
 2877000   0.79248916   -7.6537711     706.4966  0.020463927  0.020121958            4 
 2878000   0.78946125   -7.6375013    707.75798   0.02049334  0.020115956            2 
 2879000   0.79437872   -7.6575475     706.8465  0.020459838  0.020109963            2 
 2880000   0.79139389   -7.6580502    707.01644  0.020457652  0.020103985            3 
 2881000   0.79489514    -7.633599    707.46746  0.020463597  0.020097993            7 
 2882000    0.7958831   -7.6421298    706.30981  0.020423022  0.020092035            5 
 2883000    0.7948942   -7.6375603    705.95409  0.020405657   0.02008607            2 
 2884000   0.78670924    -7.604869    708.73077  0.020478813   0.02008011            2 
 2885000     0.790709   -7.6392913    706.57379   0.02040941  0.020074171            5 
 2886000   0.79011716   -7.6693626    706.59729  0.020403017  0.020068172            5 
 2887000   0.80578821   -7.6444785    707.00142  0.020407615  0.020062202            6 
 2888000   0.79359244    -7.656692    707.51843  0.020415467  0.020056235            5 
 2889000   0.80000039   -7.6669542    709.42004  0.020463252  0.020050267            6 
 2890000   0.78984405   -7.6288438    706.89517  0.020383367  0.020044286            4 
 2891000   0.78337825   -7.6503363    706.22623  0.020357034  0.020038329            6 
 2892000   0.79210828   -7.6550973    709.03853  0.020431032  0.020032367            3 
 2893000   0.78096738   -7.6487204    705.86817  0.020332647  0.020026397            3 
 2894000   0.78310368   -7.6475285    706.81468  0.020352876  0.020020458            5 
 2895000   0.79914378   -7.6552023    708.05672  0.020381598  0.020014523            5 
 2896000   0.78302524   -7.6609932    706.34485  0.020325301   0.02000857            5 
 2897000   0.79434452   -7.6527222    708.38686  0.020377024  0.020002621            2 
 2898000   0.76904717   -7.6589801     708.2573  0.020366267  0.019996668            3 
 2899000   0.77615758   -7.6363505    707.18439    0.0203284  0.019990706            4 
 2900000   0.77837419   -7.6464472    708.34805  0.020354829  0.019984773            4 
 2901000   0.78342652    -7.650349    708.12505  0.020341407  0.019978845            2 
 2902000   0.78910645   -7.6364825    708.40077  0.020342315    0.0199729            2 
 2903000    0.7899885   -7.6648991    708.59443  0.020340867  0.019966958            3 
 2904000   0.81190889   -7.6816649    709.65198   0.02036421  0.019961042            4 
 2905000   0.77499926   -7.6716953    707.60563  0.020298498  0.019955104            2 
 2906000   0.80333384   -7.6793794    708.35549  0.020313016  0.019949173            2 
 2907000   0.78374894   -7.6311663    710.09047  0.020355764  0.019943243            2 
 2908000   0.80385753   -7.6346494    707.50128  0.020274567  0.019937344            3 
 2909000   0.78391159   -7.6530536    707.98697  0.020281511  0.019931415            5 
 2910000   0.78550352   -7.6620517    709.96739  0.020331254  0.019925483            3 
 2911000   0.79726844   -7.6358757    708.27243  0.020275748  0.019919573            4 
 2912000   0.77916476   -7.6806507    707.17102  0.020237266   0.01991365            5 
 2913000   0.79475443   -7.6626789    708.97324  0.020281876  0.019907733            2 
 2914000   0.78949111   -7.6404541    709.47747  0.020289335  0.019901837            2 
 2915000   0.78005832   -7.6640305    708.50624   0.02025461  0.019895924            5 
 2916000   0.77128228   -7.6980046    706.70281  0.020196125  0.019889973            3 
 2917000   0.78161468   -7.6687298    707.74041  0.020218844  0.019884009            3 
 2918000   0.79988854    -7.656453    709.64652   0.02026635  0.019878067            5 
 2919000   0.78109574   -7.6550378    709.79414  0.020263622  0.019872173            3 
 2920000   0.77718816    -7.670171    708.92965  0.020232011  0.019866247            2 
 2921000   0.77297096    -7.667538    709.03616  0.020228123  0.019860341            4 
 2922000   0.77867045   -7.6460263    709.19289   0.02022567  0.019854421            5 
 2923000   0.75769862   -7.6598816       708.47  0.020198141  0.019848508            3 
 2924000   0.78858327   -7.6569122    710.04985  0.020236259  0.019842579            4 
 2925000   0.79090841   -7.6701612    706.86526  0.020138611  0.019836669            2 
 2926000   0.79149525   -7.6857259    707.21113  0.020141579  0.019830741            2 
 2927000   0.76557242   -7.6668221    710.74604  0.020235339  0.019824817            5 
 2928000   0.77511147   -7.6741447    708.29084  0.020158551  0.019818891           10 
 2929000   0.78204584   -7.6707985    710.19767   0.02020592  0.019812941            3 
 2930000   0.77163584   -7.6893734    708.17695  0.020141551  0.019806995            3 
 2931000   0.78244446   -7.6643585    707.54032  0.020116579  0.019801034            3 
 2932000   0.79021998   -7.6360846    709.68346   0.02017063  0.019795084            2 
 2933000   0.78217431   -7.6789942    707.78183  0.020109723  0.019789158            2 
 2934000   0.78794377   -7.6576077    708.96081  0.020136356  0.019783197            4 
 2935000   0.80159356   -7.6817163    709.77638  0.020152651  0.019777255            2 
 2936000   0.78866231    -7.672931    709.64858   0.02014216  0.019771291            2 
 2937000   0.77481763   -7.6593855    709.73486   0.02013775  0.019765358            3 
 2938000   0.78963032   -7.6536163    708.98046  0.020109498  0.019759448            5 
 2939000   0.77974295   -7.6576933    710.98263  0.020159426  0.019753571            2 
 2940000    0.7765925   -7.6473003    710.98311  0.020152582  0.019747663            3 
 2941000   0.79059435   -7.6740247    710.52931  0.020132872  0.019741741            2 
 2942000   0.77040585   -7.6774976    710.04205  0.020112227  0.019735801            2 
 2943000   0.79192988   -7.6779107    708.39899  0.020058868  0.019729875            4 
 2944000   0.77420445   -7.6820528    710.49423  0.020111363  0.019723909            6 
 2945000   0.76917649   -7.6702272    709.54044  0.020077545  0.019717974            3 
 2946000   0.77935977   -7.6871293    708.28557  0.020035233  0.019711999            6 
 2947000   0.78455187   -7.7073868    709.43057  0.020060812  0.019706037            6 
 2948000   0.78779443    -7.671983    709.19252  0.020047278  0.019700065            2 
 2949000   0.77298639   -7.6574895    710.81283  0.020086267  0.019694099            2 
 2950000   0.78181962   -7.6763229    708.95406  0.020026951  0.019688177            4 
 2951000   0.77796571   -7.6765171    709.85112  0.020045497  0.019682262            6 
 2952000   0.74998008   -7.6860691    710.20677  0.020048746  0.019676347            4 
 2953000   0.76279806   -7.6803417    711.47511  0.020077749   0.01967042            8 
 2954000   0.78149321   -7.6537095    710.67127  0.020048275  0.019664502            2 
 2955000   0.79281989   -7.6672032    711.13731  0.020054634  0.019658611            6 
 2956000   0.78285569   -7.6792637    710.84905  0.020039723  0.019652713            1 
 2957000   0.79323279   -7.6757537    712.47179  0.020078678  0.019646813            2 
 2958000   0.78720995    -7.642207    712.15641  0.020063005  0.019640937            3 
 2959000   0.78373422   -7.6756074    710.71315  0.020015578  0.019635011            6 
 2960000   0.75754495   -7.6877094    709.81995   0.01998367  0.019629067            5 
 2961000   0.79084536   -7.6847486    710.95991  0.020009003  0.019623135            4 
 2962000    0.7730866   -7.6717231     710.6129  0.019992485  0.019617217            3 
 2963000   0.77724182   -7.6907597    711.13967  0.020000553  0.019611312            4 
 2964000   0.78404015   -7.6697585    708.92019  0.019931404  0.019605391            4 
 2965000   0.77943062    -7.660321    711.10229  0.019986012  0.019599496            2 
 2966000   0.77512597   -7.6760853     710.2566  0.019955513  0.019593602            3 
 2967000   0.77925242   -7.6647912     710.7479  0.019962586  0.019587726            4 
 2968000   0.77444142   -7.6829882    711.03895  0.019964031  0.019581837            9 
 2969000   0.78695956   -7.6881871    709.93779    0.0199264  0.019575929            7 
 2970000   0.78365673   -7.6849714    711.39362  0.019960539  0.019570013            2 
 2971000   0.77670312   -7.6837321    709.35621  0.019896674  0.019564102            3 
 2972000   0.79114422   -7.6750555    710.28131  0.019915918  0.019558168            3 
 2973000   0.78896422   -7.6796035    709.10347  0.019876204  0.019552236            3 
 2974000   0.77081429    -7.700958    712.00898  0.019950935  0.019546283            4 
 2975000   0.78431721   -7.7260797      707.952  0.019830588  0.019540336            4 
 2976000   0.77465024   -7.6922907    709.52259  0.019867904  0.019534398            2 
 2977000   0.78401125   -7.6530399    710.79735  0.019896914  0.019528445            4 
 2978000   0.77269544   -7.6893841    710.79205  0.019890084  0.019522504            2 
 2979000   0.77780051   -7.6813416    710.12776  0.019864825  0.019516581            8 
 2980000   0.79045404   -7.6904529    709.76114  0.019847907  0.019510619            6 
 2981000   0.76106953   -7.6858371    710.49528  0.019861771  0.019504654            3 
 2982000   0.78977354   -7.6890787    710.09021  0.019843791  0.019498702            3 
 2983000    0.7676289   -7.6569708    711.28974  0.019870649  0.019492753            1 
 2984000   0.74299077   -7.6745663    711.37292  0.019866312  0.019486801            3 
 2985000   0.76836221   -7.6778401    709.15212  0.019797658  0.019480865            5 
 2986000   0.77521254   -7.6533034     712.7443  0.019891279  0.019474947            4 
 2987000    0.7729177     -7.70055    709.83479  0.019803448  0.019469041            3 
 2988000    0.7727498   -7.6704817     711.5097  0.019843532  0.019463117            2 
 2989000   0.76705575   -7.6956438    709.82323  0.019789875  0.019457183            3 
 2990000   0.77444635   -7.6831445    710.29085  0.019796289  0.019451216            5 
 2991000    0.7914319   -7.7292053    710.30792  0.019790146  0.019445233            6 
 2992000   0.79085814   -7.7423254    709.85585  0.019770941  0.019439247            3 
 2993000   0.76837644    -7.711767    708.78617  0.019734552  0.019433253            3 
 2994000   0.76221123   -7.7382621     710.8515  0.019785446   0.01942727            3 
 2995000   0.77031695   -7.7060405    709.24838  0.019734234  0.019421313            6 
 2996000   0.76848758   -7.6981263    709.82226   0.01974361  0.019415386            4 
 2997000   0.78212619   -7.7046317    710.87805  0.019766379  0.019409473            2 
 2998000   0.77784538   -7.7190524    709.51961  0.019722026  0.019403538            3 
 2999000   0.76856302   -7.6880472    711.04569  0.019757855  0.019397629            4 
 3000000   0.76532279   -7.7138323     710.7682  0.019743561  0.019391718            4 
 3001000   0.77562523   -7.6983001    710.02144  0.019716246  0.019385801            2 
 3002000   0.75970125   -7.7024887    710.44128  0.019721332  0.019379895            3 
 3003000   0.76651484   -7.7134554    711.74032  0.019750814  0.019373987            2 
 3004000   0.76186647   -7.6687543      711.799  0.019745867  0.019368094            2 
 3005000   0.77150852   -7.7086762    712.04654   0.01974616  0.019362206            4 
 3006000    0.7517577   -7.7239757    713.05482  0.019767543  0.019356328           12 
 3007000   0.77077831   -7.6808632    711.22234  0.019710186  0.019350429            8 
 3008000   0.76262277   -7.7038411    711.06011  0.019699139  0.019344509            3 
 3009000   0.78725769   -7.7085033    709.79266   0.01965749  0.019338591            2 
 3010000   0.77169852   -7.6817091    712.46216  0.019724866  0.019332711            2 
 3011000   0.76871252   -7.7105896    710.11015   0.01965322  0.019326791            4 
 3012000    0.7535795   -7.6795795    711.93439  0.019697167   0.01932087            7 
 3013000   0.77704747   -7.7022675    710.09966  0.019639884  0.019314929            2 
 3014000   0.76415074   -7.7029029    711.73825  0.019678673  0.019308997            2 
 3015000   0.77605035   -7.6852688    711.18386  0.019656823  0.019303095            3 
 3016000   0.76210141   -7.6737852    712.93122  0.019698586  0.019297229            3 
 3017000   0.75248158   -7.7031845    711.76353  0.019659804  0.019291361            4 
 3018000   0.75762006   -7.7072038    711.64881  0.019650122  0.019285506            2 
 3019000   0.78183948   -7.7045737    713.25447  0.019687934  0.019279641            2 
 3020000   0.77749547   -7.6918103    711.95813  0.019645644  0.019273759            3 
 3021000   0.75233273   -7.7034546    712.23373  0.019646743  0.019267875            3 
 3022000    0.7644606   -7.7095107    711.07745  0.019608357  0.019261987            4 
 3023000    0.7684939    -7.716708    713.50481  0.019668784  0.019256074            4 
 3024000   0.76237894   -7.6971475    712.87269   0.01964486  0.019250182            3 
 3025000    0.7674545    -7.702165    712.87263  0.019638364  0.019244311            5 
 3026000   0.76434602    -7.730138    711.60766  0.019597038  0.019238429            3 
 3027000   0.77017317   -7.7022066    713.23308  0.019635312  0.019232576            2 
 3028000   0.76619315   -7.6845988    715.29965  0.019685701  0.019226732            4 
 3029000   0.75734605   -7.7064757    712.29848  0.019596635  0.019220883            4 
 3030000   0.75426502   -7.7066698    712.36355  0.019591957  0.019214987            4 
 3031000   0.76231027   -7.7085214    714.28516  0.019638325  0.019209101            4 
 3032000   0.75544131   -7.7000375    711.89982  0.019566288  0.019203251            3 
 3033000   0.76102391   -7.7191715    713.02593  0.019590777  0.019197377            3 
 3034000    0.7762925   -7.7089091    712.11307  0.019559247  0.019191509            4 
 3035000    0.7665228   -7.6930554    713.31746  0.019585872  0.019185671            6 
 3036000   0.77711905   -7.6966572    713.14445  0.019574672   0.01917984            5 
 3037000    0.7804554   -7.7226033    714.07834  0.019593852  0.019174012            2 
 3038000   0.76937362   -7.7028424    711.35697  0.019512754  0.019168167            6 
 3039000   0.76231749   -7.7139112    713.33382  0.019560541  0.019162366            5 
 3040000   0.75864824   -7.7040564    714.11155  0.019575426  0.019156558            2 
 3041000   0.77552525   -7.6965359    713.77538  0.019559777  0.019150763            3 
 3042000   0.76727472   -7.7050232    714.13708  0.019563255  0.019144938            3 
 3043000    0.7612874   -7.6826744    714.32158  0.019561879  0.019139143            5 
 3044000    0.7634397    -7.672051    714.98508  0.019573617   0.01913334            2 
 3045000   0.75738755   -7.7219713    714.67384  0.019558671  0.019127511            2 
 3046000   0.76107794   -7.6823899    713.92083  0.019531649  0.019121632            1 
 3047000   0.78037808   -7.7163043    711.06004  0.019446998   0.01911576            3 
 3048000   0.75848418   -7.7292422    712.56981  0.019481896  0.019109874            2 
 3049000   0.76750433   -7.7191666    713.43302  0.019499099  0.019104008            3 
 3050000   0.77388567   -7.7385803    712.78228  0.019474926  0.019098114            4 
 3051000   0.75966862   -7.7111531    713.63365  0.019491796  0.019092221            6 
 3052000   0.74781512   -7.7067048    713.42014   0.01947958  0.019086356            4 
 3053000    0.7760299   -7.7084958    712.68761  0.019453205  0.019080483            4 
 3054000   0.76210783     -7.71948     712.8488  0.019451233  0.019074582            5 
 3055000   0.75448806   -7.7033252    713.37627  0.019459254  0.019068716            4 
 3056000   0.76643188   -7.7130893    713.32575  0.019451509  0.019062858           15 
 3057000   0.77503671   -7.7102641    712.71684  0.019428548  0.019056998            5 
 3058000    0.7638882   -7.7267328    712.86564  0.019426249   0.01905114            5 
 3059000   0.74626942   -7.7286838    712.63136  0.019413516  0.019045264            2 
 3060000   0.75406529   -7.7200627    712.72415  0.019409699  0.019039385            2 
 3061000   0.75441059   -7.7384581    712.85234  0.019406848  0.019033496            6 
 3062000   0.75073699   -7.6951705    713.41748   0.01941589  0.019027623            1 
 3063000    0.7622781   -7.6876858     713.7086  0.019417472  0.019021765            2 
 3064000   0.76212094   -7.7116275    713.11387   0.01939496  0.019015899            2 
 3065000   0.76936233   -7.7505097    712.37291  0.019368486  0.019010008            3 
 3066000   0.76412051   -7.7080283    713.25624  0.019386177   0.01900411            4 
 3067000   0.76454037    -7.716403    713.62978  0.019390006  0.018998261            3 
 3068000   0.76564988   -7.7406089     713.8141  0.019388692  0.018992427            2 
 3069000   0.76257139   -7.7451614    713.44482  0.019372348  0.018986584           10 
 3070000   0.76297726   -7.6863773    713.68746  0.019372624  0.018980763            3 
 3071000   0.74951318   -7.7118144    713.32606  0.019356509  0.018974929            2 
 3072000   0.75844294   -7.6946752    714.42471  0.019380011  0.018969119            5 
 3073000   0.75688596    -7.708471    714.63804  0.019379489  0.018963301            3 
 3074000   0.75402144   -7.7135661    714.70746  0.019375067  0.018957488            3 
 3075000   0.75919875   -7.7411649    712.99058  0.019322238  0.018951656            2 
 3076000   0.76246286   -7.7383325     714.0714  0.019345237  0.018945773            4 
 3077000   0.74624672   -7.7059449    712.50014  0.019296396  0.018939914            3 
 3078000   0.76718341   -7.7225369     713.7003   0.01932262  0.018934083            6 
 3079000   0.75511624   -7.7107575    713.40419   0.01930833  0.018928268            4 
 3080000   0.75122575   -7.7132367    713.25172  0.019297936   0.01892243            2 
 3081000   0.75632828   -7.7274158    713.83023   0.01930732  0.018916586            2 
 3082000   0.76499241   -7.7257856    713.76632  0.019299327  0.018910726            2 
 3083000   0.75516567   -7.7281245    713.33577   0.01928143  0.018904862            4 
 3084000   0.76026217   -7.7120155    714.45195  0.019305338  0.018899041            2 
 3085000   0.76070581   -7.7155982    713.44577  0.019271901  0.018893207            4 
 3086000   0.75505125   -7.7292619    713.50766  0.019267327  0.018887366            5 
 3087000   0.76038349   -7.7390549    713.57378  0.019262871  0.018881516            3 
 3088000    0.7597603   -7.7524729    714.32572  0.019276925  0.018875646            3 
 3089000   0.76013463   -7.7608571     713.4264  0.019246423   0.01886979            3 
 3090000   0.73821604    -7.691402    714.72106  0.019275109  0.018863923            4 
 3091000   0.75596117   -7.7330162    713.86672  0.019245841  0.018858087            7 
 3092000   0.75688745   -7.6891193    714.32991    0.0192521  0.018852236            4 
 3093000   0.75606551   -7.7365731    713.84677  0.019232858  0.018846401            2 
 3094000    0.7467343   -7.6973905    715.99323  0.019284455  0.018840598            2 
 3095000   0.75886104   -7.7285095    713.91528  0.019222275  0.018834795            3 
 3096000    0.7321473   -7.7127042    715.27775  0.019252739  0.018829004            4 
 3097000   0.75790539   -7.7227585     714.7521  0.019232378  0.018823186            4 
 3098000   0.75067495   -7.7223166    714.64636  0.019223326  0.018817387            2 
 3099000   0.75147053   -7.7165195    714.87048  0.019223149  0.018811581            3 
 3100000   0.76681126    -7.731687    713.93724  0.019191861  0.018805797            2 
 3101000   0.75248666    -7.726568    716.02271  0.019241715  0.018800027            5 
 3102000   0.76529897   -7.6979243    716.16533  0.019239344  0.018794249            3 
 3103000   0.75911157   -7.7073877    716.84367  0.019251361  0.018788496            3 
 3104000   0.75570476   -7.6925906    716.73265  0.019242178  0.018782759            3 
 3105000   0.73145881    -7.724929    715.70184  0.019208316   0.01877702            2 
 3106000   0.76967903   -7.7340907    714.48472  0.019169476  0.018771261            4 
 3107000   0.77129938   -7.7240004    714.90218  0.019174503   0.01876549            3 
 3108000   0.74200603   -7.7162643    715.31313  0.019179353  0.018759699            3 
 3109000    0.7528432   -7.7500055    716.46732   0.01920412  0.018753906            3 
 3110000   0.76842488    -7.711755    715.77363  0.019179358  0.018748139            3 
 3111000   0.74964034   -7.7179648    715.75703  0.019172748  0.018742384            5 
 3112000   0.74590452   -7.7172062    714.70055  0.019138297  0.018736612            4 
 3113000   0.75601993   -7.7599756    715.40424  0.019150986  0.018730831            4 
 3114000   0.76512714    -7.752804    714.84524  0.019129877   0.01872504            3 
 3115000   0.77377571   -7.7373557    715.22434  0.019133878  0.018719266            3 
 3116000   0.74974177   -7.7383469    717.01663  0.019175669   0.01871349            5 
 3117000   0.76232082   -7.7763312    715.01586  0.019116027  0.018707691            4 
 3118000   0.75581679    -7.733002    715.83988  0.019131919  0.018701918            4 
 3119000   0.74757237   -7.7328215    714.70897  0.019095569   0.01869617            2 
 3120000    0.7481837   -7.7472268    716.41045  0.019134895  0.018690402            5 
 3121000   0.75088674     -7.72425    715.25798  0.019097991  0.018684655            2 
 3122000   0.75317487   -7.7433666    716.61726  0.019128157  0.018678906            3 
 3123000   0.74557189   -7.7360059    715.40267  0.019089622  0.018673153            5 
 3124000   0.75267596   -7.7477988    716.91649  0.019123893  0.018667411            3 
 3125000   0.76919828   -7.7357312    716.02989   0.01909413  0.018661657            3 
 3126000   0.75010151   -7.7155379    716.06646  0.019088997  0.018655902            2 
 3127000    0.7450496   -7.7418931    717.28931  0.019115481  0.018650167            3 
 3128000    0.7392847   -7.7328164    715.71579   0.01906745  0.018644447            3 
 3129000   0.76125539   -7.7498528    717.03097  0.019096383  0.018638711            6 
 3130000   0.74716877   -7.7519231    716.82747  0.019084863  0.018632953            3 
 3131000   0.73665542   -7.7442165    717.15142   0.01908739  0.018627223            3 
 3132000   0.73697815   -7.7581762    715.73936  0.019043725  0.018621472            3 
 3133000   0.74725736    -7.766628    716.21836  0.019050387  0.018615723            3 
 3134000   0.75419526   -7.7561861    716.45178  0.019050515  0.018609978            3 
 3135000   0.75444782   -7.7251554    716.94062  0.019057433   0.01860427            3 
 3136000    0.7544562   -7.7501758    716.45608   0.01903848  0.018598551            2 
 3137000   0.75212269   -7.7369563     717.5254  0.019060817  0.018592824            4 
 3138000   0.73861528   -7.7591779    715.74173  0.019007375  0.018587081            3 
 3139000   0.73830161    -7.755172    717.20025  0.019040041  0.018581372            3 
 3140000    0.7450035   -7.7428778    716.06366  0.019003813  0.018575662            5 
 3141000   0.74106315   -7.7363043    718.68464  0.019067299  0.018569957            6 
 3142000   0.73793453   -7.7470996    718.35125  0.019052388  0.018564239            3 
 3143000   0.75543636   -7.7502656    718.72057  0.019056119  0.018558535            3 
 3144000   0.74342355   -7.7310327    718.76189  0.019051153  0.018552828            3 
 3145000    0.7504151   -7.7326184    717.60208  0.019014364  0.018547152            3 
 3146000   0.72967704   -7.7407382    719.52482   0.01905925  0.018541497            5 
 3147000   0.74626706   -7.7498072    718.13738  0.019016454  0.018535824            2 
 3148000   0.73971506   -7.7121582     718.6619  0.019024298  0.018530172            3 
 3149000   0.74863987   -7.7321448    716.00903  0.018948053  0.018524521            4 
 3150000   0.74688679   -7.7208623    718.14579  0.018998566  0.018518866            2 
 3151000   0.74641461   -7.7850721    718.16518  0.018993049  0.018513192            4 
 3152000   0.72967454    -7.734163    716.27403  0.018937025   0.01850752            2 
 3153000   0.76072212   -7.7705857    717.67959  0.018968168   0.01850186            2 
 3154000   0.72729591   -7.7414602    717.57893  0.018959494  0.018496209            2 
 3155000   0.74335321   -7.7661848    719.18452  0.018995893  0.018490559            2 
 3156000   0.75299972    -7.711647    718.64519  0.018975633  0.018484898            3 
 3157000   0.74736593   -7.7391675    717.61934  0.018942544  0.018479251            4 
 3158000   0.75879213   -7.7421594    717.43362  0.018931645  0.018473551            4 
 3159000    0.7467753   -7.7443403    717.13539  0.018917785  0.018467874            2 
 3160000   0.73860189   -7.7771961    716.60756  0.018897879  0.018462206            3 
 3161000   0.74533468   -7.7672648    716.62237  0.018892291  0.018456514            5 
 3162000   0.75598592   -7.7390721    717.95533  0.018921446   0.01845082            2 
 3163000   0.75489264   -7.7701499    717.74962  0.018910044  0.018445123            4 
 3164000   0.73085954   -7.7813334    716.95663  0.018883181  0.018439422            2 
 3165000   0.75082686   -7.7553335    717.89236  0.018901852  0.018433745            4 
 3166000   0.73457219   -7.7588607    716.58954   0.01886159   0.01842806            3 
 3167000   0.74571833   -7.7589489    715.69649  0.018832136   0.01842237            4 
 3168000   0.74579531   -7.7566535    716.34607  0.018843278  0.018416676            4 
 3169000   0.72477747   -7.7455025      718.836  0.018902808  0.018411019            4 
 3170000   0.75070469   -7.7540896    718.70154  0.018893311  0.018405378            2 
 3171000   0.74126637   -7.7530144    718.50351  0.018882148  0.018399722            3 
 3172000   0.74186668   -7.7633012    717.96403  0.018862023  0.018394044            4 
 3173000   0.74803023   -7.7549828    718.71604  0.018875828  0.018388357            3 
 3174000   0.74744178   -7.7839862    717.89113  0.018848223  0.018382687            6 
 3175000   0.74483645   -7.7585877    717.15299  0.018822913  0.018376997            6 
 3176000   0.76660521   -7.7633338    718.43795  0.018850702  0.018371348            6 
 3177000    0.7399591   -7.7540492    719.00759   0.01885971  0.018365695            3 
 3178000   0.74142555   -7.7955752    716.29266  0.018782585  0.018360034            3 
 3179000   0.74217323   -7.7502948    718.12825  0.018824794  0.018354379            4 
 3180000   0.74577838   -7.7555967    716.18458   0.01876794  0.018348701            3 
 3181000   0.74778857   -7.7679481    718.55774   0.01882421  0.018343033            2 
 3182000   0.75901657   -7.7560766    716.72656  0.018770337  0.018337347            3 
 3183000   0.73913355   -7.7606063    717.94902  0.018796445  0.018331669            2 
 3184000   0.74965656   -7.7657004    717.82702  0.018787349  0.018325998            6 
 3185000   0.73612503   -7.7571986     719.8942  0.018835536  0.018320323            3 
 3186000   0.75070086   -7.7688272    718.59021  0.018795517  0.018314669            7 
 3187000   0.74769744   -7.7595082     718.9506  0.018799043  0.018309041            6 
 3188000   0.73931081   -7.7608423    719.06877  0.018796235  0.018303403            3 
 3189000   0.74177341   -7.7565232    719.41777  0.018799461  0.018297776            2 
 3190000   0.73096121   -7.7434199      718.762  0.018776437  0.018292136            2 
 3191000   0.75130303    -7.757427    717.85754  0.018746933  0.018286491            7 
 3192000   0.74863743   -7.7539629    717.18128  0.018723404  0.018280847            7 
 3193000   0.74598793   -7.7590022    719.21658  0.018770659  0.018275225            3 
 3194000   0.73514504   -7.7742534    717.60868  0.018722831  0.018269579            2 
 3195000   0.73287524   -7.7433591    719.64244  0.018770017  0.018263956            4 
 3196000   0.74717378   -7.7516016    719.33169  0.018756041  0.018258324            4 
 3197000   0.75163724   -7.7679535    719.43218  0.018752794  0.018252708            7 
 3198000   0.73513242   -7.7711429    719.19065  0.018740636  0.018247097            3 
 3199000   0.73931985   -7.7820519    719.14282  0.018733532  0.018241484            3 
 3200000   0.72873374   -7.7705724     719.6438  0.018740724   0.01823588            2 
 3201000   0.74291874   -7.7442494     719.7308  0.018737134  0.018230269            3 
 3202000   0.74829821   -7.7495238    719.31786  0.018720536  0.018224671            4 
 3203000   0.73785348   -7.7542865    720.36334  0.018741891  0.018219087            4 
 3204000   0.73777644   -7.7546802    719.87286  0.018723285  0.018213514            4 
 3205000   0.72997644   -7.7399397    719.84303  0.018716667  0.018207942            3 
 3206000   0.71363419   -7.7492892    719.40268  0.018699383  0.018202358            5 
 3207000   0.74347557   -7.7703581    719.25644  0.018689753  0.018196747            2 
 3208000   0.74092332   -7.7706456    719.64399  0.018693994   0.01819113            3 
 3209000    0.7214388    -7.770057     718.8923  0.018668648   0.01818551            4 
 3210000   0.74390552    -7.770525      719.234  0.018671703  0.018179881            6 
 3211000   0.74214519   -7.7526735     718.8467  0.018655837  0.018174253            6 
 3212000    0.7442272   -7.7568221    719.82457  0.018675399  0.018168635            5 
 3213000   0.74024596   -7.7551716    719.36713  0.018657722  0.018163016            4 
 3214000   0.74145775   -7.7814371    718.10257  0.018619129  0.018157393            3 
 3215000   0.72529718   -7.7760961      717.655  0.018601737  0.018151761            3 
 3216000   0.73706739   -7.7643308    721.38904  0.018692709  0.018146146            5 
 3217000   0.71991996   -7.7696328    719.22651   0.01863088  0.018140545            2 
 3218000   0.73444947   -7.7559979    719.88352  0.018642105  0.018134945            3 
 3219000   0.74320499   -7.7667955     718.2898  0.018595055  0.018129339            4 
 3220000   0.73986719   -7.7935578    719.64552  0.018624366  0.018123743            7 
 3221000   0.74235315   -7.8142335    718.43025  0.018587143  0.018118149            2 
 3222000    0.7269227   -7.7972723    719.01116  0.018596399   0.01811254            2 
 3223000   0.73563291   -7.7770137    718.96335  0.018589393  0.018106936            2 
 3224000   0.73783115   -7.7450766     719.8994  0.018607822  0.018101334            5 
 3225000   0.73930143   -7.7616304    719.73802  0.018597882  0.018095726            4 
 3226000   0.73486991   -7.7852902    720.25993  0.018605598  0.018090106            5 
 3227000   0.73057664   -7.7744644    719.13637  0.018570818  0.018084476            4 
 3228000   0.74026202   -7.7695931    720.00119  0.018587391  0.018078874            4 
 3229000   0.73717508   -7.7893333    719.77945  0.018575912  0.018073282            2 
 3230000    0.7299598   -7.8060508    718.63541  0.018540645  0.018067669            2 
 3231000   0.73404417   -7.7858382    718.74658  0.018537774  0.018062058            3 
 3232000   0.71642423   -7.7853848    719.09703  0.018541075  0.018056457            4 
 3233000   0.73084043   -7.7887253    719.70617  0.018551041  0.018050869            6 
 3234000   0.74425739   -7.7547487    719.87981  0.018549779  0.018045276            2 
 3235000   0.74811146   -7.7806769    720.30495  0.018554996  0.018039674            3 
 3236000   0.71955438   -7.7888399    718.46316  0.018501833  0.018034058            3 
 3237000   0.72341782   -7.7789778    719.06206  0.018511535  0.018028467            3 
 3238000   0.72566232   -7.7786724     721.0134  0.018556038  0.018022894            7 
 3239000   0.73835344   -7.7794666    720.91294  0.018547724   0.01801732            4 
 3240000   0.73539518   -7.7825629    720.95935  0.018543193  0.018011739            6 
 3241000   0.71882586   -7.7812855     719.8939  0.018510077  0.018006163            5 
 3242000   0.73877132   -7.7723981    721.24103  0.018538994   0.01800061            5 
 3243000   0.71560971   -7.7772069    720.40704  0.018511847   0.01799505            2 
 3244000   0.72468998   -7.7707464    719.95495  0.018494527  0.017989486            3 
 3245000   0.73191183   -7.7686111    720.40562  0.018500401  0.017983911            2 
 3246000   0.73443202    -7.786102    719.89811  0.018481672  0.017978362            4 
 3247000   0.72573959   -7.7891138    721.80723  0.018524978  0.017972803            2 
 3248000   0.71598983   -7.7896546    720.51089  0.018486014  0.017967231            9 
 3249000   0.73100716   -7.7901199    721.96572  0.018517639   0.01796167            3 
 3250000   0.72402545   -7.7674513    720.66595  0.018478614  0.017956102            5 
 3251000   0.73443122   -7.7473682    722.40457  0.018517497  0.017950574            6 
 3252000   0.72689271   -7.7878598    721.48575  0.018488257  0.017945052            5 
 3253000    0.7404533   -7.7431962    722.72959  0.018514438  0.017939538           10 
 3254000   0.74689535   -7.7828498     721.2199  0.018470085  0.017934015            6 
 3255000   0.73632878   -7.7586616    720.61782  0.018448997  0.017928471            3 
 3256000   0.73797771   -7.7680467    720.44317  0.018438861  0.017922926            4 
 3257000   0.73408199   -7.7887697     721.7171  0.018465794  0.017917386            5 
 3258000   0.72336652   -7.7875663    719.58746  0.018405654  0.017911845            3 
 3259000   0.72197656   -7.7824424      720.848  0.018432239  0.017906308            2 
 3260000   0.73955951   -7.7924221    720.44183  0.018416202  0.017900747            1 
 3261000   0.71173452   -7.7799659    719.32277  0.018381958  0.017895213            2 
 3262000   0.73065066   -7.7710443    720.93489  0.018417507  0.017889681            2 
 3263000   0.72449226   -7.7797933     721.6158  0.018429252  0.017884157            3 
 3264000   0.72120414   -7.7808846    721.13265  0.018411271  0.017878636            5 
 3265000   0.72227269    -7.781716    719.54642  0.018365146  0.017873103           17 
 3266000   0.72891065   -7.7807414    721.32551  0.018404917  0.017867542            6 
 3267000   0.72149311   -7.8040359    721.28616   0.01839828  0.017861997            4 
 3268000   0.72600984   -7.7724698    721.79872   0.01840572  0.017856475            3 
 3269000    0.7212774   -7.8056886     721.2636  0.018386448  0.017850936            2 
 3270000   0.73069404   -7.8039736     720.0599   0.01835015  0.017845394            4 
 3271000   0.72954461   -7.7801258    722.93524  0.018417794  0.017839862            4 
 3272000   0.73802434   -7.7931471    721.33189   0.01837133  0.017834342            4 
 3273000    0.7242389   -7.7557565    720.53265  0.018345367  0.017828813            4 
 3274000   0.71861786   -7.8034133      720.523  0.018339518  0.017823277            3 
 3275000   0.73237525     -7.80628    720.79313  0.018340792  0.017817756            5 
 3276000   0.74795744   -7.8141088    720.42819   0.01832591  0.017812218            3 
 3277000   0.72479717    -7.803508    720.06705  0.018311134  0.017806672            5 
 3278000    0.7413143   -7.7970306    720.52677  0.018317235  0.017801128            3 
 3279000    0.7255463   -7.8092777    720.78013  0.018318088  0.017795594            3 
 3280000   0.71897447   -7.8008775     721.3771   0.01832767  0.017790056            3 
 3281000   0.71863975   -7.8117538    720.25375  0.018293552  0.017784515            2 
 3282000   0.73297526   -7.7830033    722.08138  0.018334384  0.017778993            3 
 3283000   0.72146183    -7.792556    720.88782  0.018298503  0.017773455            3 
 3284000   0.73717478     -7.79626    721.92769  0.018319318  0.017767925            3 
 3285000   0.72144178   -7.8071223    720.35491  0.018273844  0.017762395            2 
 3286000   0.72904173   -7.8053235    721.80382  0.018305027  0.017756864            3 
 3287000   0.72898699   -7.8191226    721.31773  0.018287134  0.017751333            3 
 3288000   0.73216499   -7.8154995    720.97773  0.018272956  0.017745782            9 
 3289000   0.73655221   -7.8281585    719.02524  0.018217929   0.01774023            4 
 3290000   0.72128294   -7.8055881     721.2319  0.018268285  0.017734699            2 
 3291000   0.73061114   -7.8154934    719.94219  0.018230077  0.017729169            7 
 3292000   0.73281456   -7.8133338     721.6481  0.018267722  0.017723637            4 
 3293000   0.71589694   -7.8040881    720.43069  0.018231367  0.017718094            8 
 3294000   0.71904226   -7.8286472    720.63284  0.018230946  0.017712547            5 
 3295000   0.72981329   -7.8411655    719.11559  0.018187041  0.017706997            4 
 3296000   0.73140496   -7.8041813    721.61143  0.018244626  0.017701445            3 
 3297000   0.71377115   -7.8299299    720.52071  0.018211523    0.0176959            3 
 3298000   0.74567292   -7.8088075    720.87115  0.018214856   0.01769036            1 
 3299000   0.72399933   -7.7947651    721.89011  0.018235074  0.017684795            4 
 3300000   0.72883119    -7.794463    721.19866  0.018212087  0.017679252            2 
 3301000     0.721109   -7.7970247     721.1805  0.018206112  0.017673706            3 
 3302000   0.73033408   -7.7960273    722.69692  0.018238868  0.017668179            5 
 3303000   0.70352005   -7.8278046    720.90195   0.01818806  0.017662664            3 
 3304000    0.7328528    -7.816014    719.78496  0.018154383  0.017657117            3 
 3305000   0.72364941   -7.7892079    720.46172  0.018165954  0.017651574            4 
 3306000   0.71667623   -7.8026785    721.70113    0.0181917   0.01764603            3 
 3307000   0.71859356   -7.8112228    719.41127  0.018128497  0.017640491            5 
 3308000   0.72900776    -7.808586    722.42456  0.018198926  0.017634957            4 
 3309000   0.72065012   -7.8221105    720.73066  0.018150767  0.017629412            5 
 3310000   0.72195213   -7.8210081    721.76967  0.018171442  0.017623874            6 
 3311000   0.74331607   -7.8007632    719.73991  0.018114867  0.017618333            3 
 3312000   0.72194302   -7.8340738    719.77439  0.018110265  0.017612787            6 
 3313000   0.72649325   -7.8502628    720.05725  0.018111914  0.017607239            4 
 3314000   0.72963653   -7.7956852    719.70728  0.018097648  0.017601685            2 
 3315000   0.72417207   -7.8306645    721.49115  0.018137032  0.017596149            5 
 3316000   0.70701101   -7.8195704     720.6795  0.018111166  0.017590623            2 
 3317000   0.72437101   -7.8154253    720.27852  0.018095632  0.017585087            5 
 3318000   0.72525737   -7.8151744    720.27617  0.018090119  0.017579563            4 
 3319000    0.7230107   -7.8166104    721.78804  0.018122628  0.017574038            3 
 3320000   0.70198518   -7.8150321    720.22225  0.018077868   0.01756852            3 
 3321000    0.7347144   -7.8413137    720.32179  0.018074922  0.017562987            3 
 3322000   0.73005171   -7.8093401    718.88192  0.018033361   0.01755747            2 
 3323000   0.70602738    -7.806485    721.10441   0.01808367  0.017551955            4 
 3324000   0.71398071   -7.8350624    721.29643  0.018083043  0.017546416            7 
 3325000   0.73233615   -7.8321423    720.22928  0.018050859  0.017540863            6 
 3326000   0.72475558   -7.8342658    720.57125     0.018054  0.017535309            2 
 3327000   0.73331472   -7.8193095    719.70683  0.018026922  0.017529759            3 
 3328000   0.71669485    -7.809958    720.71755  0.018046814  0.017524208            6 
 3329000   0.72567294   -7.8134498    720.28355  0.018030529  0.017518665            7 
 3330000   0.71908143   -7.8216398    720.11429  0.018020878  0.017513117            4 
 3331000   0.71877276   -7.8280719    721.55521  0.018051516   0.01750756            6 
 3332000   0.72508638   -7.8052031    721.00279  0.018032283  0.017502016            3 
 3333000   0.73986646   -7.8360928    721.22539  0.018032438  0.017496486            3 
 3334000   0.70890414   -7.8025346    720.58299  0.018010973  0.017490966            5 
 3335000   0.72567945   -7.8201736    720.97201  0.018015293  0.017485438            4 
 3336000   0.73263654   -7.8271469    720.52458  0.017998716  0.017479902            3 
 3337000   0.72688741    -7.799517    721.45151   0.01801647  0.017474395           10 
 3338000   0.72163148   -7.8057842    720.97952  0.017999289  0.017468885            4 
 3339000   0.72375003   -7.8013889    721.31042  0.018002157  0.017463367            5 
 3340000   0.70937832   -7.8319325    719.95593  0.017962972  0.017457847            5 
 3341000   0.73064275   -7.8085862    719.79663  0.017953623  0.017452309            4 
 3342000   0.72493326    -7.827374    721.69898  0.017995686  0.017446803            4 
 3343000    0.7180874   -7.8121283    718.69735  0.017915479  0.017441317            3 
 3344000   0.71875694   -7.8010842    721.16568  0.017971633  0.017435835            3 
 3345000   0.72325838   -7.7861687    722.22953  0.017992764  0.017430349            5 
 3346000   0.71307377   -7.7960957    722.17768  0.017986095  0.017424879            5 
 3347000   0.71097335   -7.8270005    721.23065  0.017957142  0.017419392            3 
 3348000   0.71119109   -7.8174577     720.8269  0.017941729  0.017413894            4 
 3349000   0.71640464   -7.8400014    720.34184  0.017924302  0.017408407            3 
 3350000   0.71888582   -7.8089269    722.61097  0.017975397  0.017402936            2 
 3351000   0.71981044    -7.828769    722.20393  0.017959911  0.017397459            4 
 3352000   0.70955376   -7.8226021    722.28491  0.017956566  0.017391981            4 
 3353000   0.71889182   -7.8264022    722.04205  0.017945175  0.017386509            4 
 3354000   0.71138041   -7.8244191    720.22725  0.017894734  0.017381039            3 
 3355000   0.70939876   -7.8332784    721.24365  0.017914646  0.017375575            4 
 3356000    0.7115492   -7.8093539    722.30453  0.017935651  0.017370103            4 
 3357000   0.72405778   -7.8165426     721.3848  0.017907477  0.017364646            2 
 3358000   0.70415584   -7.8187231    721.89403  0.017914781  0.017359151            5 
 3359000   0.71435866   -7.8295305    720.88591  0.017884438  0.017353656            6 
 3360000   0.72660992   -7.8323922    721.29504  0.017889262  0.017348167            7 
 3361000   0.72885146   -7.7985793    720.98687  0.017876299  0.017342673            3 
 3362000   0.72102956   -7.8249798    721.27553  0.017878136  0.017337202            6 
 3363000   0.71330746   -7.8420999     721.7109  0.017883608  0.017331748            3 
 3364000   0.71878621   -7.7946497    722.78757  0.017904963  0.017326295           10 
 3365000   0.69977767   -7.7747121    723.19314  0.017909687  0.017320865            3 
 3366000   0.68147104   -7.8136716    723.26621  0.017906175  0.017315423            7 
 3367000   0.72032946   -7.8010193    721.19198  0.017849519  0.017309972            4 
 3368000   0.70934432   -7.8403488    721.17292  0.017843748  0.017304542            3 
 3369000   0.72698959   -7.8329247    720.60153  0.017824318  0.017299093            6 
 3370000   0.72504212   -7.8089124    721.93175  0.017851923  0.017293636            5 
 3371000   0.71353745   -7.8270364    723.07034  0.017874773  0.017288161            5 
 3372000    0.7152934   -7.8256435     722.9235  0.017865844  0.017282692            6 
 3373000   0.70246705   -7.8504426    720.52694  0.017801338  0.017277221           12 
 3374000   0.71466872   -7.8100158    721.92971  0.017830708  0.017271771            5 
 3375000   0.71090355   -7.8524519    721.47349   0.01781416  0.017266305            6 
 3376000   0.71712893   -7.8688969    720.32326  0.017780491  0.017260832            5 
 3377000   0.71958231   -7.8342047    721.50069  0.017804281  0.017255368            7 
 3378000   0.69783455   -7.8318903    722.02895  0.017812042  0.017249918            2 
 3379000   0.72889417   -7.8212914    722.88969  0.017827999   0.01724449            6 
 3380000   0.72752616   -7.8668877    721.75103  0.017794651  0.017239053            5 
 3381000   0.71169091   -7.8345487     720.6678  0.017762689  0.017233594            4 
 3382000   0.70510686   -7.8441978    722.26995  0.017796914  0.017228125            4 
 3383000   0.71182409   -7.8589532    720.65474  0.017751866  0.017222668            4 
 3384000   0.73642166   -7.8660714      721.442  0.017766007  0.017217222            5 
 3385000   0.71334859    -7.843256    721.80027  0.017769578  0.017211781            2 
 3386000   0.71446514   -7.8700734    722.00384   0.01776934  0.017206342            3 
 3387000   0.70533495   -7.8388356    721.42108  0.017749756  0.017200903            3 
 3388000   0.69380335    -7.835495    722.21742  0.017764104  0.017195454            3 
 3389000   0.71621018   -7.8661482    722.14164  0.017756999  0.017190001            2 
 3390000   0.71853021   -7.8408969    721.16447   0.01772774  0.017184554            6 
 3391000   0.72025315   -7.8469567     722.4347  0.017753728  0.017179119            5 
 3392000   0.72369733   -7.8634062    721.42136  0.017723599  0.017173681            6 
 3393000   0.73213396   -7.8460656    721.27291  0.017714729  0.017168229            2 
 3394000   0.70456406   -7.8549115    722.08966  0.017729563  0.017162774            2 
 3395000   0.69760955   -7.8604477     722.7031  0.017739399  0.017157332            2 
 3396000   0.71959814   -7.8444426    719.83314   0.01766375  0.017151886            3 
 3397000   0.71387309   -7.8350032    721.17625  0.017691499  0.017146457            2 
 3398000   0.71215305   -7.8474245    723.30611  0.017738525  0.017141019            5 
 3399000   0.70200731   -7.8226851    722.67084  0.017717732  0.017135592            5 
 3400000   0.69134405   -7.8427236     722.2176  0.017701412  0.017130164            3 
 3401000   0.72329669   -7.8447237    721.49794  0.017678573  0.017124737            4 
 3402000   0.71903433   -7.8475837    720.81493  0.017656646  0.017119292            3 
 3403000   0.70529301    -7.883716    722.42478   0.01769088  0.017113849            3 
 3404000   0.70271453    -7.834695    722.81406  0.017695213  0.017108419            4 
 3405000   0.70349327   -7.8084615    722.41271  0.017680194  0.017103008            4 
 3406000   0.71055115   -7.8378248    721.68389  0.017657171  0.017097609            4 
 3407000   0.71898842   -7.8182295    723.65571  0.017700218  0.017092203            5 
 3408000   0.70213096    -7.851891    723.36318  0.017687871   0.01708682            4 
 3409000   0.71326905   -7.8548424    723.68342  0.017690511  0.017081424            3 
 3410000   0.69722194   -7.8582524    722.29308  0.017651346  0.017076024            6 
 3411000   0.70014241   -7.8428761    722.68862  0.017655835   0.01707062            4 
 3412000   0.70162731   -7.8692752    722.57454  0.017647874  0.017065199            6 
 3413000    0.7116912   -7.8177152    723.11706  0.017655949  0.017059783            7 
 3414000   0.70883749    -7.827343    722.07657   0.01762538  0.017054372            4 
 3415000   0.70628595   -7.8660916    722.30985  0.017625911  0.017048959            2 
 3416000   0.71520641   -7.8475999    723.40246  0.017647406  0.017043561            5 
 3417000   0.69858968   -7.8616802     722.3703  0.017617069  0.017038186            6 
 3418000   0.70098741   -7.8415833    722.41847  0.017613089  0.017032784            4 
 3419000   0.69802226    -7.864598    720.59486   0.01756349  0.017027384            4 
 3420000   0.70430387   -7.8497816    722.96087  0.017616006  0.017021967            4 
 3421000   0.69676111   -7.8484671    723.22639  0.017617324  0.017016567            3 
 3422000   0.71201791   -7.8405013    722.51498  0.017594851  0.017011169            3 
 3423000   0.70257123     -7.82997    722.36132   0.01758597  0.017005764            4 
 3424000   0.70232994   -7.8655568    723.60151  0.017611018  0.017000344            2 
 3425000   0.69906224    -7.867113    722.63153  0.017582276   0.01699494            4 
 3426000   0.70442148     -7.88574    721.45891  0.017548621  0.016989555            5 
 3427000   0.69973871   -7.8712926    721.81735  0.017552216  0.016984147           10 
 3428000   0.70410155   -7.8956053    722.36681  0.017560453  0.016978748            3 
 3429000   0.71159368   -7.8920469    722.18655  0.017550951  0.016973357            2 
 3430000   0.69946234   -7.8618753     724.1483  0.017593496  0.016967972            2 
 3431000   0.70672963   -7.8547596    724.14106  0.017588192  0.016962596            4 
 3432000   0.71368123   -7.8487253    723.32083  0.017563151  0.016957228            3 
 3433000   0.70365787   -7.8737973     724.3822  0.017583799   0.01695186            4 
 3434000   0.70846166   -7.8687185    724.20531  0.017574386  0.016946488            2 
 3435000   0.71233436   -7.8759463    723.61745  0.017555008  0.016941119            3 
 3436000   0.70347802   -7.8549071    721.32759  0.017494363  0.016935759            6 
 3437000    0.7038859    -7.883989    721.52794  0.017494131  0.016930385            4 
 3438000   0.70855857   -7.8549458    722.87133  0.017521605  0.016925013            8 
 3439000   0.70792232   -7.8557723    722.99043  0.017519396  0.016919648            2 
 3440000   0.70265683   -7.8894684    724.28853  0.017545749  0.016914298            3 
 3441000   0.70135626   -7.8688883    723.27962  0.017516217  0.016908915            4 
 3442000   0.69325022   -7.8824559    723.90923  0.017526371  0.016903541            4 
 3443000   0.69805915   -7.8664397    721.35501  0.017459459  0.016898167            6 
 3444000   0.69796462   -7.8497492    723.51072  0.017506551  0.016892811            4 
 3445000   0.69640034   -7.8770622    723.40375  0.017498881  0.016887445            6 
 3446000   0.69834501   -7.8634918    723.29115   0.01749108  0.016882082            5 
 3447000    0.7127384   -7.8468243    723.92622  0.017501359   0.01687673            6 
 3448000   0.69845353   -7.8699288    722.70713   0.01746682  0.016871373            5 
 3449000   0.70263943   -7.8709966    721.95375  0.017443552  0.016866019            5 
 3450000   0.71042217   -7.8537881    723.32007  0.017471499  0.016860657            3 
 3451000   0.70015392   -7.8690234    721.68257  0.017426895  0.016855292            4 
 3452000   0.70288397   -7.8505175    723.61282  0.017468444  0.016849932            3 
 3453000   0.69752183   -7.8910906    722.96732  0.017447807  0.016844604            3 
 3454000   0.71317314   -7.8493214    724.33923  0.017475855  0.016839263            5 
 3455000   0.70671108   -7.8602648    723.59132  0.017452757  0.016833938            3 
 3456000   0.70524139   -7.8826736     723.9982  0.017457518  0.016828595            2 
 3457000   0.71508523   -7.8780309    723.01414  0.017428747  0.016823261            3 
 3458000   0.69275505   -7.8651804     722.1095  0.017401906  0.016817933            3 
 3459000   0.70099432   -7.8735294    724.08715   0.01744452  0.016812585            3 
 3460000   0.70468718   -7.8738641    723.15306  0.017416981  0.016807254            2 
 3461000     0.687304   -7.8617598    722.60106  0.017398658  0.016801911            3 
 3462000   0.70843971   -7.8797283    723.41984  0.017413341  0.016796567            2 
 3463000   0.69248984   -7.8645541    722.67916  0.017390489  0.016791225            2 
 3464000    0.7201049   -7.8819764    722.60147    0.0173836  0.016785895            4 
 3465000   0.67744502   -7.8548211    725.06552  0.017437843  0.016780587            4 
 3466000   0.69173908   -7.8590447    724.60972  0.017421853  0.016775281            5 
 3467000   0.68512334   -7.8834305    724.13892  0.017405512  0.016769969            5 
 3468000   0.69323507   -7.8895194    724.81155  0.017416656  0.016764667            3 
 3469000   0.68522922   -7.8943397    723.50717  0.017380301  0.016759352            2 
 3470000   0.69882912   -7.8755742     722.4965  0.017351021  0.016754048            2 
 3471000   0.69135181   -7.9138832     723.2474   0.01736405  0.016748747            5 
 3472000    0.7134619      -7.8676    725.22026    0.0174064  0.016743455            2 
 3473000   0.70467654   -7.8538846    725.87762  0.017417162  0.016738166            3 
 3474000   0.68942905   -7.8921201    723.99336  0.017366949  0.016732876            3 
 3475000   0.69809609   -7.8793343    722.90947  0.017335958  0.016727562            2 
 3476000   0.70048609   -7.9069667    723.54154  0.017346124  0.016722267            7 
 3477000   0.69691158    -7.894235    725.41881  0.017386128  0.016716966            4 
 3478000   0.70166886   -7.8726973    722.33226  0.017307175  0.016711661            4 
 3479000   0.69913017   -7.8805867    724.77747  0.017360771  0.016706363            5 
 3480000   0.67638239   -7.8863492    725.23231  0.017366674  0.016701069            8 
 3481000   0.69819892    -7.898374    723.11149  0.017310914  0.016695776            4 
 3482000   0.69820665   -7.8948218    723.90724  0.017324987  0.016690469           11 
 3483000   0.68029093   -7.9006139    721.85334  0.017270871   0.01668515            6 
 3484000   0.70187684   -7.8606563    723.68591  0.017309747  0.016679856           12 
 3485000   0.69015313    -7.882392    724.62956  0.017327345  0.016674579            3 
 3486000   0.67762837   -7.8857234    723.97698  0.017306774  0.016669289            5 
 3487000   0.70170269   -7.9079999    725.06797  0.017327884  0.016664015            6 
 3488000    0.6921831   -7.8812739    724.16505  0.017301344  0.016658738            5 
 3489000   0.68329627   -7.8528532    723.48992   0.01728026   0.01665347            6 
 3490000   0.67952118   -7.9029564    724.46235  0.017298528   0.01664821            4 
 3491000   0.70740456   -7.9146111    724.20875  0.017287519  0.016642935            6 
 3492000   0.69955665   -7.8834567    724.35776  0.017286124  0.016637673            5 
 3493000   0.68630275   -7.9310566    724.28358  0.017279406  0.016632428            4 
 3494000   0.71196197   -7.9018359    724.49708  0.017279553  0.016627194            4 
 3495000   0.67681198   -7.8940903    726.32973  0.017318305   0.01662195            3 
 3496000   0.69288722   -7.8517449    726.06577   0.01730706  0.016616715            5 
 3497000   0.69654322   -7.8958271    724.55387  0.017266082  0.016611493            5 
 3498000   0.68018765   -7.8887769    724.65527  0.017263562   0.01660626            3 
 3499000   0.69394054   -7.8952042    724.41098   0.01725281  0.016601025            3 
 3500000   0.68975194   -7.8687818    723.57893   0.01722807  0.016595792            4 
 3501000   0.69643755   -7.8682822     724.8681  0.017253835  0.016590556            5 
 3502000   0.69188868   -7.8942254    724.64678  0.017243641  0.016585312            5 
 3503000    0.6978199   -7.8862359    724.76645  0.017241565  0.016580068            4 
 3504000   0.69030016   -7.8903117    723.82137  0.017214169   0.01657484            5 
 3505000   0.69766884   -7.8893621    724.42483  0.017223605  0.016569609            3 
 3506000   0.69870997   -7.8760064    724.88386  0.017229603  0.016564378           10 
 3507000   0.68702331   -7.8860544    726.32313   0.01725889  0.016559151            4 
 3508000   0.69551725   -7.8769002    727.03675  0.017270922  0.016553942            8 
 3509000   0.69552636   -7.8996666    725.23371  0.017223181  0.016548734            8 
 3510000   0.68370847   -7.8639416     727.7778  0.017278675   0.01654354            3 
 3511000   0.68293373   -7.8642041    727.59798  0.017269486  0.016538347            3 
 3512000   0.68827296   -7.8715718    726.60508  0.017241009   0.01653314            2 
 3513000   0.69661106    -7.887424    726.31955  0.017229328  0.016527943            5 
 3514000   0.68535407    -7.886857     725.9052  0.017214599  0.016522732            6 
 3515000   0.67870692    -7.882707    726.27763  0.017218531  0.016517553           10 
 3516000   0.69140666   -7.8767847    725.95712  0.017206037  0.016512357            8 
 3517000   0.69211022   -7.8985482    723.41308  0.017140865  0.016507154            5 
 3518000   0.69852122   -7.8816695     725.1132  0.017176265  0.016501947            5 
 3519000   0.71356383   -7.8947363    724.50524  0.017156987  0.016496726            5 
 3520000   0.68812316   -7.8790668    725.48357  0.017175274  0.016491514            3 
 3521000   0.68431432   -7.8928827     725.3973  0.017168354  0.016486308            5 
 3522000   0.68340437   -7.8739047    725.66755  0.017169874  0.016481093            5 
 3523000   0.67665136   -7.8927162    724.42183  0.017135534  0.016475879            5 
 3524000   0.67754522   -7.9022312    724.99482  0.017144221  0.016470663            2 
 3525000   0.68144257   -7.8824725    725.04708  0.017140593  0.016465465            4 
 3526000   0.67614228   -7.8838447    724.98767  0.017134328  0.016460263            5 
 3527000    0.6896125   -7.8837044    726.33903  0.017161398  0.016455081            3 
 3528000   0.69472452   -7.8968016    726.14023  0.017151838    0.0164499            3 
 3529000   0.68892471   -7.8913429    726.77809   0.01716204  0.016444733            6 
 3530000   0.68115717   -7.8861798     724.4856  0.017103059  0.016439549            3 
 3531000   0.69751096   -7.8689227    726.09138  0.017136113  0.016434364            4 
 3532000   0.68667624   -7.8718492    726.34899  0.017137339  0.016429189            3 
 3533000   0.68142722   -7.8887306    725.93435  0.017122708   0.01642401            2 
 3534000    0.6891814   -7.8996997    725.97936  0.017118925  0.016418858            4 
 3535000   0.69118327   -7.8895651    726.53533  0.017127188  0.016413698            7 
 3536000   0.69150174   -7.8769822    725.45478  0.017096879  0.016408534            5 
 3537000   0.67897962   -7.9046034    724.18929   0.01706223  0.016403374            5 
 3538000   0.69034979   -7.9137376    726.27906   0.01710663  0.016398209            3 
 3539000   0.68967466   -7.8864981    725.91684  0.017093267  0.016393051            4 
 3540000    0.6845159   -7.9040872    726.04401  0.017091432  0.016387878            2 
 3541000   0.69116508    -7.902784    725.35256  0.017070332   0.01638269            4 
 3542000   0.68685158   -7.8867456    725.73974  0.017074622  0.016377508            2 
 3543000   0.68841792   -7.8766124    724.27226  0.017035287  0.016372318            3 
 3544000   0.70202139   -7.9026793    725.84487  0.017067458  0.016367128            3 
 3545000   0.68749364   -7.9033233     724.1937  0.017023829  0.016361937            5 
 3546000   0.68295386   -7.8737236    727.32022  0.017092504  0.016356757            3 
 3547000   0.67990472   -7.9183959    724.99775  0.017033121  0.016351552            1 
 3548000   0.68869587   -7.8794407    725.67281  0.017044175  0.016346361            3 
 3549000   0.68523818   -7.9123798    724.79237  0.017018699  0.016341165            2 
 3550000   0.66611807   -7.8857745    725.16596  0.017022675   0.01633598            3 
 3551000    0.6813527   -7.9098067    724.53654   0.01700311  0.016330813            4 
 3552000   0.67315641   -7.8742463    726.45195  0.017043261  0.016325624            3 
 3553000   0.69089515   -7.8969087    725.93751  0.017026398  0.016320439            3 
 3554000    0.6849738   -7.9188594    723.97602  0.016975615  0.016315239            5 
 3555000   0.67936886   -7.9140639     726.0232  0.017018828  0.016310033            6 
 3556000   0.67710722   -7.9109706    726.01935  0.017013952  0.016304835            2 
 3557000   0.67091448   -7.8945072    724.93633  0.016983796  0.016299651            3 
 3558000   0.67650422   -7.9234461    725.10068  0.016982872  0.016294464            6 
 3559000   0.67965046   -7.9031001    726.27892  0.017005688  0.016289281            5 
 3560000   0.68139001    -7.908825    726.84932  0.017014263  0.016284095            5 
 3561000   0.67686976   -7.9299745    724.46028  0.016953578  0.016278901            7 
 3562000   0.69061521   -7.9073705    725.15402  0.016965048  0.016273719            4 
 3563000   0.68007952   -7.9147492    724.76043  0.016951081  0.016268529            4 
 3564000   0.68131046   -7.9173161     725.2136  0.016956921  0.016263343            7 
 3565000   0.67507026   -7.9335151    725.71466  0.016963877  0.016258159            5 
 3566000   0.67666962   -7.9027596    725.74944  0.016959933  0.016252968            3 
 3567000   0.69071927   -7.9188101    724.85241  0.016934221   0.01624778            5 
 3568000   0.68479761    -7.905037    724.75584   0.01692722  0.016242601            3 
 3569000   0.67881142    -7.919505    724.98955  0.016927934  0.016237423            4 
 3570000   0.68357488   -7.9284855    723.44325  0.016887097  0.016232244            8 
 3571000   0.68726606   -7.9144672    726.11564  0.016944732  0.016227062            4 
 3572000    0.6906849   -7.9285119     725.0922  0.016916111  0.016221879            7 
 3573000   0.65491077    -7.915305    723.13902  0.016865823  0.016216688            4 
 3574000   0.69147056   -7.9269366    724.84878  0.016900969  0.016211515            4 
 3575000   0.68454403   -7.8883426    724.63966  0.016891367  0.016206346            3 
 3576000   0.66957939   -7.8890421    725.69605  0.016911261  0.016201179            4 
 3577000   0.68174127   -7.9209586    724.94515   0.01688904  0.016196014            6 
 3578000   0.67790964   -7.8980906     724.6791  0.016878123   0.01619084            2 
 3579000   0.67550416   -7.8956962     725.2047  0.016885645   0.01618568            2 
 3580000   0.67601594   -7.9140797    725.60106  0.016890155  0.016180509            4 
 3581000   0.67956956   -7.8998895    723.79418   0.01684339   0.01617533           12 
 3582000   0.68451536   -7.9149224    724.07729  0.016845275  0.016170159            8 
 3583000   0.68273417   -7.9122979    725.71489  0.016878661  0.016164992            4 
 3584000   0.66353313   -7.9121843    724.91597  0.016855375  0.016159821            6 
 3585000   0.67781055   -7.9117595    723.70526   0.01682253  0.016154652            4 
 3586000   0.68870995   -7.9164078     722.9153  0.016799482  0.016149481            4 
 3587000   0.67450499   -7.9298657    725.57238  0.016856528  0.016144316            6 
 3588000   0.66460535   -7.9212477    724.40397  0.016824693  0.016139147            2 
 3589000   0.67946134   -7.9121489    725.80602  0.016852559  0.016133989            4 
 3590000   0.68653978    -7.908674    723.21591  0.016787742  0.016128835            3 
 3591000   0.68114373   -7.9420008    724.49169  0.016812673   0.01612366            5 
 3592000    0.6618995   -7.9229462    726.28554  0.016849609  0.016118486            2 
 3593000   0.66797055    -7.926126    723.50133  0.016780344  0.016113329            8 
 3594000   0.68140024   -7.9317491    724.74755  0.016804571  0.016108171            5 
 3595000   0.67296004   -7.9411445    725.05828    0.0168071  0.016103019            3 
 3596000   0.67032072   -7.9266896    724.31907  0.016785296  0.016097887            4 
 3597000   0.68262706   -7.9016953    724.74829  0.016790573  0.016092742            3 
 3598000   0.67370313   -7.9443161    723.48157  0.016756568  0.016087612            4 
 3599000   0.67609431    -7.911599    724.73357  0.016780901  0.016082483            2 
 3600000    0.6784084   -7.9293101    726.12233  0.016808387  0.016077354            5 
 3601000   0.68009317   -7.8927329    725.32012  0.016785155  0.016072234            5 
 3602000   0.66665658   -7.9228558    724.95173  0.016771972  0.016067113            3 
 3603000   0.69200418   -7.9070783    725.29602   0.01677528  0.016061984            3 
 3604000   0.67532061   -7.9239645    724.53267  0.016752975  0.016056855            2 
 3605000   0.68463418   -7.9289595    724.52725  0.016748203  0.016051729            7 
 3606000   0.66474908   -7.9312074    725.44704  0.016764814  0.016046603            3 
 3607000   0.67024097   -7.9306223     725.7898  0.016768085  0.016041498            4 
 3608000   0.67854191   -7.9190588    724.94614  0.016743952  0.016036373            2 
 3609000   0.68507263   -7.9170487    725.74906  0.016757852  0.016031253            4 
 3610000   0.68096571   -7.9232733    723.61464  0.016703939  0.016026127            5 
 3611000   0.68622223   -7.9495514    725.28864  0.016737945  0.016020996            3 
 3612000   0.66754493   -7.9103165    723.15571  0.016684102   0.01601587            3 
 3613000   0.67289796   -7.8906524    726.17951  0.016749228  0.016010755            3 
 3614000   0.67511963   -7.9174122    724.22945  0.016699628  0.016005634            3 
 3615000   0.65572342    -7.917746    724.77931  0.016707684  0.016000519            6 
 3616000    0.6817167   -7.9263111    724.67337  0.016700621  0.015995391            2 
 3617000   0.66348664   -7.9138196    725.40228  0.016712798  0.015990274            3 
 3618000   0.66886554    -7.965554    724.30055  0.016682803  0.015985148            6 
 3619000   0.68377229    -7.922759    725.81187  0.016712993  0.015980028            3 
 3620000   0.64998662   -7.9243235    724.66929  0.016682074  0.015974902            3 
 3621000   0.67480388   -7.9214097    726.44264  0.016718279  0.015969779            4 
 3622000   0.67668779   -7.9674053    724.79366  0.016675724  0.015964647            8 
 3623000   0.65537226     -7.95944    723.99499  0.016652751  0.015959495            3 
 3624000   0.66875415   -7.9385172    723.63319  0.016639836  0.015954351            5 
 3625000   0.66105787   -7.9374426     725.9828   0.01668926  0.015949211            3 
 3626000   0.68224386   -7.9467905    724.80152  0.016657509  0.015944081            5 
 3627000    0.6479108   -7.9488974    724.43509  0.016644497  0.015938937            9 
 3628000   0.67111823   -7.9582324    723.89099  0.016627412  0.015933796            5 
 3629000   0.67935936    -7.954766    723.20673  0.016607117  0.015928656            8 
 3630000   0.66960694     -7.95525    722.08499   0.01657679  0.015923511           12 
 3631000   0.67371828   -7.9410472    724.05894  0.016617528  0.015918378            8 
 3632000   0.67919804    -7.935281    724.26903  0.016617773   0.01591325            8 
 3633000   0.66452506   -7.9457399    724.67711   0.01662256  0.015908126            4 
 3634000   0.66676117   -7.9458767    723.43707  0.016589549  0.015903016            5 
 3635000   0.66785574   -7.9506323    724.41588  0.016607425  0.015897899            3 
 3636000   0.67000824   -7.9509886    724.81019  0.016611895  0.015892783            4 
 3637000   0.67369407   -7.9652288    724.42189   0.01659843  0.015887684            6 
 3638000   0.67490759    -7.947375    723.20875  0.016566079  0.015882573            5 
 3639000    0.6721798   -7.9534258    723.08145  0.016558612   0.01587747            5 
 3640000    0.6618041    -7.935664    724.11501  0.016577725   0.01587236            7 
 3641000   0.67000562   -7.9777401    725.05028  0.016594578  0.015867243            4 
 3642000   0.66582955   -7.9432249    724.31054  0.016573095  0.015862135            5 
 3643000   0.66528958   -7.9334052    725.88837  0.016604638  0.015857027            5 
 3644000   0.68387091   -7.9644978    724.94897  0.016578599  0.015851926            3 
 3645000   0.66290908   -7.9403382    724.11245  0.016554926  0.015846811            3 
 3646000   0.68172714   -7.9423135    723.51359  0.016536698  0.015841699            4 
 3647000   0.66708377   -7.9371185    724.54716   0.01655578  0.015836594            3 
 3648000   0.67114176   -7.9398497    723.47712  0.016526798  0.015831495            6 
 3649000   0.67273866   -7.9512175    725.37815  0.016565684  0.015826375            2 
 3650000   0.67338348   -7.9469725    724.43759  0.016539671  0.015821265            4 
 3651000    0.6669142   -7.9572566    725.08932  0.016550016  0.015816168            6 
 3652000   0.66061982   -7.9488768    724.07082  0.016522244  0.015811083            4 
 3653000   0.67464995    -7.922206     725.0239  0.016539463  0.015805996            3 
 3654000   0.68633645   -7.9293061    724.51335  0.016523293  0.015800909            3 
 3655000   0.65737998   -7.9543109    723.05242  0.016485463   0.01579582            5 
 3656000   0.65997903   -7.9724296    724.27994  0.016508934  0.015790713            5 
 3657000    0.6746695   -7.9533042    723.13865  0.016478412  0.015785604            3 
 3658000   0.66006353   -7.9540936    725.00234  0.016516364  0.015780504            3 
 3659000    0.6676253   -7.9513528    724.98406  0.016511434  0.015775401            2 
 3660000   0.67002478   -7.9486895    725.14313  0.016510545  0.015770293            3 
 3661000   0.65891399   -7.9543163    722.91107  0.016455228  0.015765184            4 
 3662000   0.67247165   -7.9588327    722.41798  0.016439513  0.015760082            4 
 3663000   0.66042763    -7.957588    723.90269  0.016468803  0.015754989            4 
 3664000   0.66591646    -7.953707    724.71806  0.016482853  0.015749897            6 
 3665000   0.66020441   -7.9554225    724.31327  0.016469151   0.01574482            6 
 3666000   0.67256122   -7.9549037    725.93545  0.016501533  0.015739731            6 
 3667000   0.66715879   -7.9433526     724.4524  0.016463331  0.015734658            6 
 3668000   0.66225265   -7.9444816    722.90922  0.016423783   0.01572959            6 
 3669000   0.66123241   -7.9500998    724.80222  0.016462302  0.015724524            5 
 3670000   0.67274082   -7.9480147    726.23874  0.016490435  0.015719463            8 
 3671000   0.66132133   -7.9352673    725.12277  0.016460609  0.015714405            4 
 3672000   0.65316798   -7.9433461    724.47407  0.016441405  0.015709342            3 
 3673000   0.66598205   -7.9506905    724.57312  0.016439176  0.015704275            5 
 3674000   0.66360441   -7.9106078    726.53061  0.016479101   0.01569922            5 
 3675000   0.66082715   -7.9395218      725.092  0.016441996  0.015694153            4 
 3676000   0.66305026   -7.9531438    724.16738  0.016416562  0.015689095            2 
 3677000   0.66754524   -7.9362774    725.21063  0.016435741  0.015684027            3 
 3678000   0.66330243   -7.9194306    724.68082  0.016419268  0.015678955            6 
 3679000   0.66676312   -7.9159709    724.57361  0.016412377  0.015673897            2 
 3680000   0.66677985   -7.9682641    724.89541  0.016415204  0.015668851            5 
 3681000   0.65720524   -7.9496529    724.27014  0.016396589  0.015663796            3 
 3682000   0.68486657   -7.9325742     724.6575  0.016400903  0.015658751            3 
 3683000   0.66326046   -7.9299302    724.80507  0.016399789  0.015653688            6 
 3684000   0.66365112   -7.9542722    723.65693  0.016369366  0.015648623            6 
 3685000   0.67025135   -7.9261585    724.41804  0.016382136  0.015643564            5 
 3686000   0.66002248   -7.9225585    724.48559  0.016379218  0.015638513            2 
 3687000    0.6677209   -7.9526488    723.75352   0.01635823  0.015633461            6 
 3688000   0.66022751   -7.9540857    723.82881  0.016355495  0.015628417            4 
 3689000   0.65708605   -7.9558262    724.32161  0.016362194  0.015623358            2 
 3690000   0.66880243   -7.9617034    725.46643  0.016383614  0.015618299            4 
 3691000    0.6568095   -7.9506812    724.76872  0.016363423  0.015613252            4 
 3692000   0.65679987   -7.9392522     723.1345  0.016322104  0.015608202            4 
 3693000   0.66894355   -7.9565646     723.7722  0.016332074  0.015603137            5 
 3694000   0.67116735   -7.9737131    723.90772   0.01633071   0.01559808            5 
 3695000   0.66071872   -7.9394522    723.33364  0.016313343   0.01559304            4 
 3696000    0.6651018   -7.9926008    724.58962  0.016337248  0.015588004            4 
 3697000   0.66632667   -7.9463885    724.87827  0.016339335  0.015582952            5 
 3698000   0.67243591   -7.9498548    723.81981  0.016311065  0.015577903            6 
 3699000   0.66510349   -7.9605453    724.72785  0.016327112  0.015572857           11 
 3700000   0.65518906   -7.9417012    724.98751  0.016328547  0.015567818            4 
 3701000    0.6685881    -7.934308    725.44263  0.016334383  0.015562787            5 
 3702000   0.65504483   -7.9499439    724.23955  0.016302889  0.015557741            3 
 3703000   0.65276807   -7.9887921    724.17621  0.016297061  0.015552697            4 
 3704000   0.65582609    -7.973122    724.04609  0.016289734   0.01554764            8 
 3705000   0.65395922   -7.9895405    723.67568  0.016277006    0.0155426            5 
 3706000   0.65858855   -7.9677583    723.05699  0.016258702  0.015537571            8 
 3707000   0.65258604   -7.9746191    724.27629  0.016281726  0.015532538            3 
 3708000   0.65389675   -7.9746636     723.6593  0.016263469  0.015527517            4 
 3709000   0.64449447   -7.9640406    724.39045  0.016275511  0.015522502            5 
 3710000   0.67097453   -7.9557527    726.10499  0.016309636  0.015517492            9 
 3711000   0.66493185   -7.9411456    724.62847  0.016272084   0.01551249            7 
 3712000   0.65716807   -7.9552616    724.39913  0.016262552  0.015507487           13 
 3713000   0.65045827   -7.9756258    724.40448  0.016258292  0.015502476            4 
 3714000   0.67382946   -7.9496094    725.12509  0.016270084  0.015497459            5 
 3715000   0.66440384   -7.9676134    726.03206  0.016286049   0.01549245            3 
 3716000   0.66888161    -7.972458    724.33198  0.016243541  0.015487437            6 
 3717000   0.66481754   -7.9589499    724.94053  0.016252814  0.015482431           14 
 3718000   0.64671425   -7.9603647    725.08806   0.01625175  0.015477431            4 
 3719000   0.65596024    -7.970628     724.8481  0.016242003  0.015472436            8 
 3720000   0.64907934   -7.9493524    724.99768  0.016240987   0.01546744            5 
 3721000   0.64297473   -7.9749469    725.38179  0.016245225  0.015462445            7 
 3722000   0.65065528   -7.9474597    724.28631  0.016216333  0.015457448            7 
 3723000   0.65895517     -7.97586    724.10077  0.016207825  0.015452451            3 
 3724000   0.65369603   -7.9728971    724.31374  0.016208238  0.015447452            2 
 3725000   0.64716791   -7.9885941    724.44548  0.016206834  0.015442444            5 
 3726000   0.65073914   -7.9725126    723.61577  0.016183928  0.015437445           16 
 3727000   0.66396624   -7.9760928    723.97804  0.016187685  0.015432441            3 
 3728000   0.67871792   -7.9762766    724.51939  0.016195444   0.01542743            3 
 3729000   0.65213793   -7.9880978    722.79764  0.016152625  0.015422427            6 
 3730000   0.64247589   -7.9789037    724.04856  0.016176241  0.015417418            7 
 3731000    0.6447918   -7.9910573    723.81493  0.016166688  0.015412403            6 
 3732000   0.64530499   -7.9803452     723.8343  0.016162788  0.015407375            4 
 3733000   0.65030201   -7.9729604    725.36568  0.016192644   0.01540236            4 
 3734000   0.65151852   -7.9599195    724.33461  0.016165296  0.015397344            3 
 3735000   0.66786416   -7.9884973    721.50518   0.01609784  0.015392333            3 
 3736000   0.65296236   -7.9696687     724.1408   0.01615232  0.015387324            3 
 3737000   0.65831358   -7.9920548    722.84246  0.016119045  0.015382299            3 
 3738000   0.64657443   -8.0083178    722.93803  0.016116863  0.015377266            6 
 3739000   0.66544451   -7.9855876    723.29008  0.016120399  0.015372242            3 
 3740000   0.64429664   -7.9960173    722.45904  0.016097572  0.015367235            9 
 3741000   0.66110766    -7.979355    722.36005  0.016091064  0.015362216            6 
 3742000   0.65311934   -7.9931998    722.57979  0.016091658  0.015357195            4 
 3743000   0.66040832   -7.9759424    723.52616  0.016108428  0.015352179            3 
 3744000   0.65826916    -7.995748     722.6277  0.016084128  0.015347163            3 
 3745000   0.66275698   -8.0085174    723.33413  0.016095553  0.015342148            5 
 3746000   0.65042118    -7.977926    723.62913  0.016097818  0.015337132            4 
 3747000   0.64613994   -7.9860092    723.32931  0.016086854  0.015332124            3 
 3748000   0.64566427   -8.0044883    723.56404  0.016087781  0.015327118            2 
 3749000   0.65743772   -8.0039581    723.16427  0.016074604  0.015322118            3 
 3750000   0.64249398   -7.9992141    725.52815  0.016122848   0.01531712            4 
 3751000   0.64377565   -7.9766245    723.54326  0.016074453  0.015312125            4 
 3752000   0.65056089   -7.9846333    723.68716  0.016073364   0.01530713            4 
 3753000   0.65034035   -7.9938737    722.54148  0.016043643  0.015302142            5 
 3754000   0.66832228   -8.0087886    723.36645  0.016057682  0.015297152            4 
 3755000    0.6515719   -8.0155284    722.69019  0.016038398  0.015292161            7 
 3756000    0.6422355     -7.98889    724.62049  0.016076954  0.015287175            6 
 3757000   0.64411221    -7.991847    725.72888   0.01609726  0.015282199            6 
 3758000   0.66280338   -7.9792174    724.49752  0.016065672  0.015277225            4 
 3759000   0.65666294   -7.9878023    724.16432  0.016054011  0.015272257            5 
 3760000   0.64691489    -7.983059    724.15738  0.016049587  0.015267275            5 
 3761000   0.64860381   -7.9904099    723.21523  0.016024445  0.015262294            4 
 3762000   0.65232183   -7.9849807    722.87385  0.016012623   0.01525731            4 
 3763000   0.63983097   -7.9994277    722.90161  0.016008982  0.015252323            3 
 3764000   0.66064484   -7.9937959    724.27161   0.01603506  0.015247334            7 
 3765000   0.65001941   -8.0145785    724.12641  0.016027588  0.015242345            6 
 3766000   0.64827352   -7.9943349    723.33266  0.016005768  0.015237375            6 
 3767000   0.63338386   -7.9982491    722.66378  0.015986722    0.0152324           10 
 3768000   0.65244757   -8.0027605    722.89034   0.01598749   0.01522742            3 
 3769000   0.65482292   -7.9915432    724.43627  0.016017429  0.015222438            3 
 3770000   0.65294879   -8.0080666    723.55002   0.01599359  0.015217468            3 
 3771000   0.65022629   -8.0187271    722.92249  0.015975482  0.015212496            2 
 3772000   0.64958444   -7.9948296    723.08997  0.015974946  0.015207523            3 
 3773000   0.64565392   -7.9912018    722.45827   0.01595676  0.015202554            3 
 3774000   0.63932866   -7.9967584    724.60716  0.015999981   0.01519759            6 
 3775000   0.64844832   -7.9970584    722.27422  0.015944243  0.015192626            3 
 3776000   0.65366208   -7.9876406      722.589  0.015946968  0.015187662            4 
 3777000    0.6498724   -7.9779251    724.13609   0.01597688  0.015182697            3 
 3778000   0.64993732   -7.9853739    724.32778  0.015976879   0.01517775            5 
 3779000   0.66128509   -7.9979569    722.25716   0.01592699  0.015172793            3 
 3780000    0.6414181   -7.9879793    724.40452  0.015970117  0.015167848            7 
 3781000   0.65142758    -7.993352    723.78266  0.015952188  0.015162891            6 
 3782000   0.63672392   -8.0020128     723.1622  0.015934298  0.015157945            2 
 3783000   0.65299909   -8.0195528    722.81248  0.015922383  0.015152989            3 
 3784000   0.65852036   -7.9921407    723.78092  0.015939502  0.015148035            4 
 3785000   0.64616711   -8.0010912    723.16167  0.015921657  0.015143094            5 
 3786000    0.6463738   -8.0004582    725.44553  0.015967722  0.015138156            3 
 3787000   0.65342015   -7.9944007    723.97315  0.015931105  0.015133204            9 
 3788000    0.6472811    -8.017138    723.51407    0.0159168  0.015128262            3 
 3789000   0.63961203   -7.9901016    723.59125  0.015914297  0.015123321           16 
 3790000   0.64924133   -8.0117956    723.48115  0.015907677  0.015118379            4 
 3791000   0.64757368   -8.0030716    722.53325  0.015882644  0.015113428            4 
 3792000   0.65134534   -8.0117688    724.15422  0.015914078  0.015108483            6 
 3793000   0.63443943   -8.0132634    722.90683  0.015882477  0.015103545            2 
 3794000   0.65875492   -8.0007308    723.32387  0.015887451  0.015098607            5 
 3795000   0.64550033   -7.9884079    723.33054  0.015883411  0.015093675            6 
 3796000   0.63720201    -7.998284    722.87267  0.015869175  0.015088746            4 
 3797000   0.66248083    -8.004458    723.90343  0.015887618  0.015083826            4 
 3798000   0.64320969   -8.0044752    722.95161  0.015862551  0.015078898           10 
 3799000   0.64315231   -8.0092619    724.97838  0.015902834  0.015073976            4 
 3800000   0.63667055   -8.0128313    723.42062  0.015864487  0.015069049            5 
 3801000   0.63969583   -8.0117734    724.47537  0.015883438  0.015064131            5 
 3802000   0.63901979    -7.984927    723.83438  0.015865211  0.015059213            5 
 3803000    0.6449105   -8.0325451    723.36818  0.015850823  0.015054292            4 
 3804000    0.6540964   -8.0116546     723.9695   0.01585983  0.015049376            3 
 3805000   0.64038898   -8.0115065    723.99314  0.015856179  0.015044457            6 
 3806000    0.6452986   -8.0016846    723.40413  0.015839116  0.015039541            7 
 3807000    0.6575652   -7.9889037    725.06406  0.015871291  0.015034624            4 
 3808000   0.63261241   -7.9864512    723.69205  0.015837098  0.015029719            9 
 3809000   0.63238289   -8.0054537    723.60394  0.015831013  0.015024821            3 
 3810000   0.64680384   -7.9612777    723.35209  0.015821349  0.015019926            3 
 3811000   0.63761751   -7.9897585    723.71934  0.015825228  0.015015027            8 
 3812000   0.65031756   -8.0200426    723.78794  0.015822577  0.015010125            7 
 3813000   0.64668675   -8.0189102    724.03785  0.015823889  0.015005229            5 
 3814000   0.63356791   -8.0094462    724.54723  0.015830869  0.015000322            5 
 3815000   0.64123928   -8.0214419    724.65077  0.015828981  0.014995419            4 
 3816000   0.65888699   -8.0149912    723.67557  0.015803537  0.014990522            5 
 3817000   0.64061063   -8.0082726    724.57822  0.015819104  0.014985624            6 
 3818000   0.64226889   -8.0187566    724.21112  0.015806948  0.014980742            4 
 3819000   0.64088884   -8.0269424     723.4871   0.01578701  0.014975859            4 
 3820000   0.65434686    -8.009801     724.2445    0.0157994  0.014970963            4 
 3821000    0.6373806   -8.0106918    724.22308  0.015794798  0.014966072            8 
 3822000   0.64348644   -8.0051934     723.0571  0.015765243  0.014961188            3 
 3823000   0.64094562   -8.0079133    723.66543   0.01577438  0.014956294            3 
 3824000   0.63962977   -8.0162514    723.03025  0.015756412    0.0149514            4 
 3825000   0.64481786   -8.0307987    721.92471  0.015728207  0.014946507            3 
 3826000   0.63525222   -8.0044612    723.99256  0.015769136  0.014941621            3 
 3827000   0.63269219   -8.0223948    722.37391  0.015729769   0.01493673            4 
 3828000   0.62992425   -8.0306223    723.84169  0.015757613  0.014931839            2 
 3829000   0.63033409   -8.0251864     724.1137  0.015759417   0.01492695            4 
 3830000   0.64693549   -7.9984743    722.66614  0.015723806  0.014922074            7 
 3831000   0.63380319   -8.0365635    722.62606   0.01571883  0.014917194            3 
 3832000   0.64654119   -7.9941312    723.78902  0.015740019  0.014912325            5 
 3833000    0.6363811   -8.0202611    722.73109  0.015712912   0.01490746            7 
 3834000   0.63844951   -8.0204652    723.45827  0.015724619  0.014902579            5 
 3835000     0.645874   -8.0380889    723.02406  0.015711083  0.014897701            3 
 3836000   0.63386471   -8.0279828    725.71244   0.01576539  0.014892824            3 
 3837000   0.64830376    -8.024409    720.98575  0.015658625  0.014887936            6 
 3838000   0.63071644   -8.0040932    722.81543  0.015694273  0.014883053            4 
 3839000   0.62764689   -8.0369078    723.84211  0.015712471  0.014878179            4 
 3840000   0.63342257   -8.0395808    722.76629  0.015685032  0.014873306            5 
 3841000   0.63738808   -8.0379844    724.24557  0.015713043  0.014868427            6 
 3842000    0.6420402   -8.0397046    723.10365  0.015684185  0.014863539            4 
 3843000   0.63774602   -8.0111306    722.72462  0.015671884  0.014858655            8 
 3844000   0.63397969   -8.0306856    724.34872  0.015703016  0.014853777            5 
 3845000   0.63584488   -8.0356899    722.55728  0.015660106  0.014848894            6 
 3846000   0.64169616   -8.0297787    722.81759  0.015661674  0.014844018            4 
 3847000   0.63326372   -8.0410469    723.39406  0.015670091  0.014839141            9 
 3848000   0.64599716   -8.0184428    723.58071   0.01567006  0.014834276            4 
 3849000   0.63588135   -8.0342572     722.5287  0.015643213   0.01482941            5 
 3850000   0.63497898   -8.0312002    722.02992  0.015628353  0.014824548            3 
 3851000   0.64524015   -8.0152307    722.56436   0.01563586  0.014819686            3 
 3852000   0.62886122   -8.0411269    722.19435  0.015623796  0.014814814            5 
 3853000   0.63713512   -8.0347655    722.77064  0.015632205  0.014809949            6 
 3854000   0.64322141   -8.0285861    721.86438  0.015608553  0.014805081            5 
 3855000   0.64375937   -8.0321704    722.88733  0.015626617  0.014800227            6 
 3856000   0.62950292   -8.0091147    723.36352  0.015632856  0.014795373            6 
 3857000   0.62127429   -8.0137037    723.66615  0.015635342  0.014790513            3 
 3858000   0.63035713   -8.0421233    723.29043  0.015623173   0.01478566            3 
 3859000   0.63789037   -8.0248988    724.26518  0.015640174  0.014780805            8 
 3860000   0.64259129   -8.0184791    723.06083  0.015610122  0.014775965            4 
 3861000   0.63174133   -8.0055313    722.34628  0.015590656  0.014771111            2 
 3862000   0.62238551   -8.0165777     724.5664  0.015634524  0.014766268            2 
 3863000   0.63641115    -8.026199    722.71123  0.015590457  0.014761422            4 
 3864000   0.62266578   -8.0189056    723.59204  0.015605418  0.014756579            4 
 3865000   0.63221636   -8.0538778    723.18413  0.015592586  0.014751743            3 
 3866000   0.62285767   -8.0258763     722.7013  0.015578145  0.014746906            4 
 3867000   0.62863569   -8.0203149    724.46384  0.015612099  0.014742071            7 
 3868000   0.64043248   -8.0124232    723.62821   0.01559006  0.014737227            4 
 3869000   0.61850101   -8.0288696    724.14862  0.015597239  0.014732379            4 
 3870000   0.62605852   -8.0159542    723.22477  0.015573315  0.014727542            5 
 3871000   0.63762545   -8.0299418    722.83216   0.01556084  0.014722704            2 
 3872000   0.63634076   -8.0213653     724.7921  0.015599004  0.014717863            3 
 3873000   0.63442234   -8.0289692    722.61908   0.01554822  0.014713022            5 
 3874000   0.64399274   -8.0381584    723.29267  0.015558696  0.014708185            5 
 3875000   0.63189039   -8.0301988    724.08398  0.015571698  0.014703347            5 
 3876000    0.6293689   -8.0491692    722.54683  0.015534633  0.014698502            5 
 3877000   0.61827315   -8.0270394    722.26615  0.015524593   0.01469366            6 
 3878000   0.62624215   -8.0521148    723.25871  0.015541918  0.014688818           11 
 3879000   0.63904045   -8.0441785    723.13555  0.015535266  0.014683978           11 
 3880000   0.65027533    -8.013542    723.14416  0.015531447  0.014679153            5 
 3881000   0.63057296   -8.0341971    721.82799  0.015499184  0.014674325            7 
 3882000   0.63270719   -8.0449625    723.04426    0.0155213  0.014669499           13 
 3883000   0.62623097   -8.0592672    722.91038   0.01551443  0.014664674            8 
 3884000    0.6312025   -8.0180035    723.99597  0.015533727  0.014659838            2 
 3885000   0.63199094   -8.0575051    722.63217  0.015500476  0.014655024            4 
 3886000   0.63033209   -8.0347933    721.14109  0.015464511  0.014650198            7 
 3887000   0.63713715   -8.0540109    722.41893  0.015487928  0.014645371            7 
 3888000   0.62990422   -8.0344773    722.50241  0.015485734  0.014640552            5 
 3889000   0.64154308   -8.0345962    722.70357  0.015486063  0.014635734            3 
 3890000   0.64155799    -8.009666    722.10994  0.015469365  0.014630918            5 
 3891000    0.6158329   -8.0160725    721.54286  0.015453244  0.014626107            8 
 3892000   0.63077667   -8.0357096    721.80658   0.01545492  0.014621293            5 
 3893000   0.61772941   -8.0432919    722.91464  0.015474669   0.01461648            3 
 3894000    0.6271414   -8.0558328    723.04948  0.015473581  0.014611668            4 
 3895000   0.63071128   -8.0451906    722.35543  0.015454759  0.014606855            4 
 3896000   0.62777002   -8.0332352    721.94175  0.015441944  0.014602053            4 
 3897000   0.61861855   -8.0571037    722.71306  0.015454475  0.014597254            3 
 3898000   0.62165071   -8.0556058    722.58005  0.015447666  0.014592454            4 
 3899000   0.63760446   -8.0295526    722.45237  0.015440976  0.014587661            3 
 3900000   0.62941344   -8.0465805    723.09226  0.015450689  0.014582865            3 
 3901000   0.62284682   -8.0507462    721.71513   0.01541731  0.014578079            3 
 3902000   0.62324801   -8.0673081    723.96571  0.015461424  0.014573279            5 
 3903000   0.62586881   -8.0632733    723.49781  0.015447472  0.014568488            5 
 3904000   0.62680405   -8.0300659    722.30943  0.015418149  0.014563703            2 
 3905000   0.61445515   -8.0477221     722.8544   0.01542583  0.014558916            6 
 3906000   0.63177078   -8.0336415    722.81906  0.015421127  0.014554125            3 
 3907000   0.63403483   -8.0405134    723.08312  0.015422812  0.014549332            4 
 3908000   0.63830538   -8.0219686    722.43913  0.015405133   0.01454454            4 
 3909000   0.61412085   -8.0379842    723.08434  0.015414947  0.014539751            5 
 3910000   0.63686607   -8.0440339     723.4314  0.015418402  0.014534971            6 
 3911000   0.63015197   -8.0339414    721.59295  0.015375287  0.014530189            4 
 3912000   0.62900841   -8.0373927    721.71449  0.015373945  0.014525404            4 
 3913000   0.62674214   -8.0514114    723.41344  0.015406198  0.014520617            3 
 3914000   0.62582769   -8.0625096    721.48444  0.015361192  0.014515829            4 
 3915000   0.63683019   -8.0183095    723.04765  0.015390542   0.01451105            3 
 3916000   0.62470798   -8.0709867    721.26429  0.015348661  0.014506262            4 
 3917000   0.61551949   -8.0447554    722.69839  0.015375253  0.014501479            4 
 3918000   0.64067212   -8.0482117    723.20663  0.015382139  0.014496695            2 
 3919000   0.63246983   -8.0335364    722.26506  0.015358192  0.014491922            6 
 3920000    0.6221443   -8.0390125    722.50741  0.015359426  0.014487141            4 
 3921000   0.62341871   -8.0461446     722.3662  0.015352508  0.014482364            3 
 3922000   0.64250419   -8.0675822    722.59416  0.015353437  0.014477599            3 
 3923000   0.62860172   -8.0429846    723.77241  0.015374552  0.014472832            2 
 3924000   0.62745043   -8.0534348     722.9871  0.015353956  0.014468061            4 
 3925000   0.62501402   -8.0435772    723.24989  0.015355624  0.014463295            4 
 3926000   0.62734134   -8.0510475     722.4566  0.015334874  0.014458534            3 
 3927000    0.6463407   -8.0468169    722.39185  0.015329595  0.014453774            5 
 3928000   0.62087488   -8.0532669    722.44562  0.015326833  0.014449024            4 
 3929000   0.62118577   -8.0489664    723.10579  0.015336934  0.014444279            4 
 3930000   0.63797153   -8.0651798    723.20357  0.015335105  0.014439531            4 
 3931000   0.61311566   -8.0404578    721.26681  0.015290147  0.014434781            3 
 3932000   0.61873148   -8.0757626    722.81165  0.015318999  0.014430027            2 
 3933000   0.62744809   -8.0540224    723.12387  0.015321719   0.01442528            3 
 3934000   0.61628206   -8.0445156    722.68726  0.015308576  0.014420536            3 
 3935000    0.6219721   -8.0370901    722.17206  0.015293775  0.014415792            6 
 3936000   0.62540383   -8.0685001    721.95725  0.015285341  0.014411044            6 
 3937000   0.63206074   -8.0447197    722.81771  0.015299672  0.014406298            6 
 3938000   0.62173753   -8.0389856     722.5051  0.015289172  0.014401561            2 
 3939000   0.63004451   -8.0646824    722.63184  0.015287972  0.014396821            4 
 3940000   0.61657339   -8.0502476    722.53144  0.015281968  0.014392083            6 
 3941000    0.6236759   -8.0530897    722.74027  0.015282506  0.014387357            6 
 3942000   0.62800809    -8.080645    722.57452  0.015275125   0.01438262            4 
 3943000   0.61771655   -8.0645668    721.79934  0.015254868  0.014377886            7 
 3944000   0.63111703   -8.0673506    721.20026  0.015238342  0.014373156            5 
 3945000   0.60759618   -8.0709292    723.39052  0.015280746  0.014368423            6 
 3946000   0.63133421    -8.042771    723.01478  0.015268939   0.01436369            6 
 3947000   0.61870115   -8.0710175    722.99826  0.015264721  0.014358955            5 
 3948000   0.62428595   -8.0853435    723.18659   0.01526483  0.014354228            6 
 3949000   0.62543538   -8.0647992     722.2064   0.01524028  0.014349503            2 
 3950000   0.63409635   -8.0569594    721.72401  0.015226245  0.014344774            4 
 3951000   0.62203899   -8.0649142    721.90086  0.015226121  0.014340054            6 
 3952000   0.62650233   -8.0666102    722.73854  0.015239932  0.014335328            3 
 3953000     0.632471   -8.0456203    721.93752   0.01521919  0.014330604            6 
 3954000   0.63101644   -8.0428905    721.60619  0.015208358  0.014325879           11 
 3955000   0.61476422   -8.0532843    723.74541  0.015249587  0.014321156            5 
 3956000   0.62300054   -8.0483609    723.02542  0.015230566  0.014316436            4 
 3957000   0.61085493   -8.0412832    722.75402  0.015221001  0.014311709            9 
 3958000   0.64427148   -8.0618504    721.18589  0.015184139  0.014306993            8 
 3959000   0.61733792   -8.0502721     722.5162  0.015208306  0.014302276            6 
 3960000   0.61584728   -8.0621454     721.1924  0.015176608  0.014297557            5 
 3961000   0.61329085   -8.0625455    721.76543  0.015184832  0.014292837            6 
 3962000   0.61214402   -8.0619952    721.90893  0.015184018  0.014288117            5 
 3963000   0.61975093   -8.0711522    721.90457  0.015180094  0.014283399            9 
 3964000   0.62095899     -8.07805    722.16711  0.015181784  0.014278687            4 
 3965000   0.60605138   -8.0515096    722.22766  0.015179228   0.01427397            7 
 3966000   0.62122113   -8.0362722    722.39401  0.015178896  0.014269267           10 
 3967000   0.62378315   -8.0608207    722.11437  0.015169195  0.014264549            4 
 3968000   0.61447101   -8.0684017    720.48336  0.015131119  0.014259836            9 
 3969000   0.62798411   -8.0751078    722.79466  0.015175835  0.014255129            6 
 3970000    0.6236827    -8.051269    722.23144   0.01516019  0.014250421            5 
 3971000    0.6200319   -8.0786613     722.1023  0.015153662  0.014245709            5 
 3972000   0.60862758   -8.0709075    722.01085  0.015147928  0.014240999            2 
 3973000   0.62647258   -8.0547765    721.59267  0.015135344  0.014236295            6 
 3974000   0.60911153   -8.0454345    722.86829  0.015158285  0.014231597            8 
 3975000   0.62076342   -8.0474547     721.8288  0.015132679    0.0142269            3 
 3976000   0.60301861   -8.0531638    720.91924   0.01510981   0.01422221            5 
 3977000   0.59577372   -8.0637943    721.28561  0.015113687  0.014217518            7 
 3978000   0.62178894   -8.0570349    723.80216  0.015162606  0.014212839            5 
 3979000   0.61721632   -8.0526706    722.05973  0.015122303  0.014208166            4 
 3980000   0.61968412   -8.0565725    721.10487  0.015098511  0.014203493           11 
 3981000    0.6075147    -8.062457    722.16157  0.015116838  0.014198816            3 
 3982000    0.6124321   -8.0557446    721.63184  0.015101956  0.014194129            9 
 3983000   0.61116158    -8.070038    721.60432  0.015097588  0.014189436            8 
 3984000   0.60867445   -8.0743075    721.54109  0.015092476  0.014184758           10 
 3985000    0.6178493   -8.0612573    721.43853  0.015086544  0.014180064            5 
 3986000   0.60452621   -8.0766876    723.36234  0.015122979   0.01417538           12 
 3987000   0.61512958   -8.0842032    721.74395   0.01508536  0.014170698            3 
 3988000      0.61163   -8.0620048    722.12929  0.015089629  0.014166025           11 
 3989000   0.61004354   -8.0665868    722.36138  0.015090695  0.014161345            7 
 3990000    0.6025481   -8.0679613    720.73523   0.01505295  0.014156674           13 
 3991000   0.61738014   -8.0718223    722.68218  0.015089831  0.014152002            3 
 3992000   0.61650698   -8.0622597    720.83489  0.015047489  0.014147339            3 
 3993000   0.60285595   -8.0738128    722.82031  0.015085156  0.014142679            4 
 3994000   0.61140989    -8.067047    720.66007  0.015036306  0.014138012            4 
 3995000    0.5981495   -8.0741396     721.1586  0.015042941  0.014133344            5 
 3996000   0.62263465   -8.0479675    721.46063  0.015045475   0.01412868            6 
 3997000    0.6034296   -8.0776122    721.86319  0.015050104  0.014124023            7 
 3998000   0.61939488   -8.0525813     722.6614  0.015062977  0.014119374            5 
 3999000   0.61142171   -8.0644132     721.8997  0.015043338  0.014114725            9 
 4000000   0.61369028   -8.0634011    723.24016  0.015067503  0.014110076            6 
 4001000    0.6027456     -8.05931    723.23859  0.015063705  0.014105426           13 
 4002000   0.60573881    -8.073326    721.56542    0.0150251  0.014100773            3 
 4003000   0.60783744   -8.0714077    721.39389  0.015017776  0.014096114            6 
 4004000   0.62143419   -8.0871234    721.41593  0.015014484   0.01409146            5 
 4005000   0.61394507   -8.0782152    721.73333  0.015017339   0.01408681            6 
 4006000   0.60606116   -8.0671741    722.18786  0.015023046  0.014082165            4 
 4007000   0.61356727   -8.0747579    721.69979  0.015009146  0.014077522            3 
 4008000   0.61100199   -8.0874615    722.06826  0.015013063  0.014072877            7 
 4009000   0.61397633   -8.0716806     722.6054  0.015020483  0.014068226            4 
 4010000   0.61226874   -8.0688695    722.06498  0.015005507   0.01406358            3 
 4011000   0.60408181   -8.0714431    723.50228  0.015031627  0.014058945            4 
 4012000   0.61437998   -8.0599752    722.78039  0.015012886  0.014054309            3 
 4013000   0.61486574   -8.0819167    723.08082  0.015015384  0.014049671            5 
 4014000     0.615248   -8.0593069    722.89442  0.015007773   0.01404504            5 
 4015000   0.62123264   -8.0851713    723.30671  0.015012593  0.014040407            1 
 4016000   0.60266192   -8.0718256    722.42633  0.014990586  0.014035777            3 
 4017000   0.60359769   -8.0836499    722.43817    0.0149871   0.01403115            4 
 4018000   0.60245903   -8.0882398    722.07412   0.01497582  0.014026523            4 
 4019000   0.60722155   -8.0714193    722.94549  0.014990161  0.014021903            3 
 4020000   0.62248669   -8.0903494    721.11006  0.014948384  0.014017277            4 
 4021000   0.62442479   -8.0834331    720.48016  0.014931612  0.014012656            4 
 4022000   0.60316305    -8.098733     721.7356  0.014953912  0.014008037            3 
 4023000   0.61765968   -8.1002386    722.56119  0.014967296  0.014003409            3 
 4024000   0.60533398   -8.0810612    721.96941  0.014951321   0.01399879            4 
 4025000   0.60221036   -8.0779186    721.90726   0.01494632   0.01399417            5 
 4026000   0.60837031   -8.0897731    721.87059  0.014941849  0.013989542            3 
 4027000   0.61710952   -8.0799456    721.67726  0.014934137  0.013984921            2 
 4028000   0.60651057   -8.0873731    720.92046  0.014914773  0.013980297            2 
 4029000   0.60817106   -8.0855154    721.76209  0.014928479  0.013975676            5 
 4030000   0.61202899   -8.0849249    720.99087  0.014908827  0.013971057            4 
 4031000   0.61188696   -8.0941634    720.90104  0.014903271   0.01396645            7 
 4032000   0.59133481   -8.0850277    722.16414  0.014925681   0.01396184            5 
 4033000   0.60377771    -8.071042      722.062  0.014919869  0.013957228            3 
 4034000   0.60338015   -8.0899874     721.3971  0.014902436  0.013952614            4 
 4035000   0.60440006   -8.0942339    720.04869  0.014870894     0.013948            8 
 4036000   0.60307908   -8.1013305    722.80982   0.01492422  0.013943389            4 
 4037000   0.59380137   -8.0755674    721.44765  0.014892405   0.01393878            3 
 4038000   0.61477062   -8.0826356    722.69287  0.014914415  0.013934177            3 
 4039000   0.60827539   -8.0819569    721.85478   0.01489343  0.013929574            5 
 4040000   0.61332334   -8.0860499    720.47468  0.014861276  0.013924971            3 
 4041000   0.60639053   -8.0853688    722.21609   0.01489351  0.013920365            5 
 4042000   0.59053732   -8.0767542    721.47194  0.014874483  0.013915764            8 
 4043000   0.59480566   -8.0972976    719.78641  0.014836062  0.013911176            6 
 4044000   0.60080196   -8.0838388    721.86488  0.014875224  0.013906585            6 
 4045000   0.60379982   -8.0885846    721.00498  0.014853832  0.013901992            2 
 4046000   0.60659451   -8.0829485    721.85674  0.014867704  0.013897401            3 
 4047000   0.60194957   -8.1018513     721.3623  0.014853848  0.013892809            5 
 4048000   0.60502747    -8.081016    722.26938  0.014868852  0.013888228            5 
 4049000   0.60862986   -8.0814588    722.85841  0.014877303  0.013883637            3 
 4050000   0.59438077   -8.0863551    721.65964  0.014848964  0.013879053            5 
 4051000   0.61265645    -8.102829    720.10286  0.014813274  0.013874464            6 
 4052000   0.60203143   -8.0907508     721.4601  0.014837531   0.01386988            3 
 4053000   0.60602259   -8.0952391    720.59617  0.014816107   0.01386529            4 
 4054000   0.60927299   -8.0742115    720.52691  0.014811028  0.013860701            6 
 4055000   0.59869082   -8.0739121    721.30025  0.014823269  0.013856115            5 
 4056000   0.60826407   -8.1134133    720.15165  0.014796015  0.013851532            4 
 4057000   0.59264341   -8.0921404    722.76875  0.014846125  0.013846947            8 
 4058000   0.60885952     -8.10723    721.39144  0.014814183  0.013842367            2 
 4059000   0.60758507   -8.0780977     721.2791  0.014808227  0.013837789            3 
 4060000   0.59904337   -8.0876882    721.35224   0.01480608  0.013833219            3 
 4061000   0.59880038   -8.0990885    721.31934  0.014801759  0.013828651            4 
 4062000   0.60165408   -8.1011823       721.65  0.014804899   0.01382408            4 
 4063000   0.59948712   -8.0854121    721.17362  0.014791484  0.013819511            3 
 4064000   0.60668966    -8.093515    720.42289  0.014772451  0.013814945            3 
 4065000    0.6061624   -8.1021518    722.60519  0.014813554  0.013810381            3 
 4066000   0.60483032   -8.0895612    721.76916  0.014792777  0.013805814            4 
 4067000   0.59968148   -8.0811349    722.03692  0.014794626  0.013801254            3 
 4068000   0.59374806   -8.0976835    721.68353   0.01478375  0.013796685            5 
 4069000   0.60535276   -8.1016621    720.28078  0.014751388  0.013792109            4 
 4070000   0.60163852   -8.0929341    720.95455  0.014761559  0.013787545            4 
 4071000   0.61060166   -8.0903417    720.51019  0.014748837  0.013782978            4 
 4072000   0.59539191   -8.1028391     721.3248  0.014761886  0.013778418            7 
 4073000   0.60271912   -8.0989045    720.28061  0.014736898  0.013773854            3 
 4074000   0.61024177   -8.1066784    721.10217  0.014750085  0.013769291            4 
 4075000   0.61228583   -8.0777643     720.1822  0.014727652  0.013764732            6 
 4076000   0.60063385   -8.0893121    720.69828   0.01473459  0.013760177            6 
 4077000   0.59552275   -8.1170748    720.87562  0.014734601  0.013755621            3 
 4078000   0.58768258   -8.1078038    721.00372  0.014733606  0.013751071            3 
 4079000   0.60305026   -8.0957206    720.14642  0.014712479  0.013746518            4 
 4080000   0.60097558   -8.0888357    721.06216  0.014727577  0.013741974            3 
 4081000   0.60289687   -8.0999484    721.15379  0.014725839  0.013737432            3 
 4082000   0.60527116   -8.1071669    721.85594  0.014736566  0.013732882            4 
 4083000   0.59287157   -8.1206239    720.79196  0.014711241  0.013728338            4 
 4084000    0.5877138   -8.0928016    722.53038  0.014743111  0.013723798            4 
 4085000   0.59513086   -8.1105637    720.87395  0.014705711  0.013719263            3 
 4086000   0.58683692   -8.0899858    721.11152  0.014706957  0.013714717            2 
 4087000   0.59039875   -8.1108215    719.89427  0.014678539  0.013710184            3 
 4088000   0.61099694   -8.1003822     720.1012  0.014679167  0.013705654            8 
 4089000   0.60549778   -8.1037391    719.96733  0.014672849  0.013701124            6 
 4090000   0.60062869   -8.1096029    722.23287  0.014715421  0.013696595            3 
 4091000   0.59943514   -8.1118272    722.38566  0.014714937  0.013692071            3 
 4092000   0.60308962   -8.1222467    721.17204  0.014686625   0.01368755            2 
 4093000   0.59179072   -8.1240352    719.80583  0.014655221  0.013683026            4 
 4094000   0.60658854   -8.1118899    722.22142  0.014700811  0.013678504            5 
 4095000   0.59450053   -8.1288298    720.61577  0.014664546  0.013673979            3 
 4096000   0.58483373   -8.1115652    720.65732  0.014661811  0.013669463            4 
 4097000   0.59287286    -8.118276    720.63539  0.014657786  0.013664945            5 
 4098000   0.59292846   -8.1090103    721.01575  0.014661944  0.013660429            5 
 4099000   0.59577901   -8.1199513    722.86595  0.014695982  0.013655912            7 
 4100000   0.57538231     -8.11805    720.42286  0.014642741  0.013651396            6 
 4101000   0.60239376   -8.1314422    721.01546  0.014651212  0.013646883            2 
 4102000   0.57987526   -8.0924535    722.17724  0.014671242  0.013642372            4 
 4103000   0.60131696   -8.1195093    720.30783  0.014629698  0.013637858            4 
 4104000   0.59572435   -8.1428944    719.79783  0.014615778  0.013633349            3 
 4105000    0.6009383   -8.1100043    721.20138   0.01464071  0.013628846            3 
 4106000    0.5914866   -8.1263571    720.13693  0.014615541  0.013624339            6 
 4107000    0.5892943   -8.1259323     721.1545  0.014632629  0.013619833            4 
 4108000   0.59754913   -8.1090698    720.67661  0.014619373  0.013615334            4 
 4109000   0.60068989   -8.1214391    721.18381  0.014626102   0.01361084            5 
 4110000    0.6003056   -8.1014438    721.31743  0.014625252  0.013606343            3 
 4111000   0.59620283   -8.1083427    722.01839  0.014635903  0.013601851            3 
 4112000   0.58881129   -8.1157563     721.4282  0.014620383  0.013597367            2 
 4113000    0.5884764    -8.086394    722.10363  0.014630514  0.013592879            6 
 4114000   0.59535513   -8.1432703    721.13097  0.014607255  0.013588401            3 
 4115000   0.58959801   -8.1237111    721.01829  0.014601424  0.013583918            5 
 4116000   0.60660055   -8.1321085    721.95659  0.014616873   0.01357944            1 
 4117000   0.59984984   -8.1469548     722.5683  0.014625704  0.013574958            6 
 4118000   0.60016121   -8.1160107    721.09232  0.014592284  0.013570474            5 
 4119000   0.59225858   -8.1237187    721.69966  0.014601029  0.013565997            4 
 4120000    0.5962583   -8.1240961    721.19949  0.014587368  0.013561521            5 
 4121000   0.59333777   -8.1288369    719.93503  0.014558259  0.013557044            3 
 4122000   0.59176442   -8.1122265    720.64843   0.01456915  0.013552565            5 
 4123000   0.60742982   -8.1108587     722.2865  0.014598725  0.013548082            4 
 4124000   0.59046856   -8.1154365    720.39837  0.014557031  0.013543604            2 
 4125000   0.57955468   -8.1152042    721.59962   0.01457777  0.013539134            5 
 4126000   0.59613831   -8.1312781    721.53441   0.01457292   0.01353467            2 
 4127000   0.59150406   -8.1238299    721.17172  0.014562065  0.013530203            3 
 4128000    0.5902266   -8.0898779    721.31048  0.014561339   0.01352574            5 
 4129000   0.59244839   -8.1425238    720.50811  0.014541618   0.01352127            6 
 4130000   0.58983025   -8.1181894    720.28491  0.014533594  0.013516813            3 
 4131000   0.59160472   -8.1209419    721.19908  0.014548517  0.013512348            3 
 4132000   0.58094274   -8.1265357    721.25335   0.01454609  0.013507886            6 
 4133000   0.58715758   -8.1156026    720.72512   0.01453192  0.013503416            1 
 4134000   0.58887172   -8.1237259    720.55478  0.014524971   0.01349895            2 
 4135000   0.59760675   -8.1064398    721.41073  0.014538709  0.013494491            3 
 4136000   0.59021408   -8.1230976    721.73989  0.014541826   0.01349004            2 
 4137000   0.59178997   -8.1218845    719.59541  0.014495113  0.013485581            6 
 4138000   0.58276364   -8.1096546    720.87506  0.014517381   0.01348113            8 
 4139000   0.60125707   -8.1178658    718.97071  0.014475532  0.013476673           12 
 4140000   0.59026301     -8.09602    720.31716  0.014499138  0.013472221            4 
 4141000   0.59498158   -8.1224574    721.35917  0.014516606  0.013467767            6 
 4142000   0.58764126   -8.1313922    720.80379  0.014501927  0.013463316            3 
 4143000   0.58283365   -8.1137059      719.368  0.014469547   0.01345887            7 
 4144000   0.59611848   -8.1054835    720.42448    0.0144873  0.013454422            4 
 4145000   0.57291191   -8.1204077    721.21301  0.014499658  0.013449977            4 
 4146000    0.5835412   -8.1433928    721.64428   0.01450483  0.013445539            4 
 4147000   0.58606016   -8.1282703    721.84848  0.014505435  0.013441098            2 
 4148000   0.59192488   -8.1309325    721.42309  0.014493392  0.013436663            6 
 4149000   0.59422885   -8.1146957    721.33551   0.01448814  0.013432226            5 
 4150000   0.58630617    -8.152645    719.99581  0.014457747  0.013427787            4 
 4151000   0.58164548   -8.1083713    721.10977  0.014476628   0.01342335            5 
 4152000   0.59101913   -8.1446245     718.8893  0.014428575   0.01341892            3 
 4153000   0.58805697    -8.126323    720.76037  0.014462645  0.013414487           10 
 4154000    0.5880529   -8.1305644    721.52845  0.014474572   0.01341005            3 
 4155000   0.58469344   -8.1405294    720.58854  0.014452237  0.013405628            5 
 4156000   0.58050459    -8.141435    720.87732   0.01445455  0.013401198            4 
 4157000   0.58256346   -8.1269172    720.14363  0.014436365  0.013396765            8 
 4158000   0.59702277    -8.125557    721.01448  0.014450346  0.013392335            8 
 4159000   0.58447645   -8.1313994    720.71815  0.014440934  0.013387909           15 
 4160000   0.58945529   -8.1269687    721.07953  0.014444702  0.013383485            6 
 4161000   0.59496987   -8.1297765    720.57838  0.014431194  0.013379063           11 
 4162000   0.60883016   -8.1360318    719.81628  0.014412468  0.013374641           12 
 4163000    0.5870736   -8.1196076    720.14805  0.014415647  0.013370218            8 
 4164000   0.59689176   -8.1332951    721.38827  0.014437005  0.013365796            8 
 4165000    0.5943734   -8.1298904    720.00328  0.014405828   0.01336138            8 
 4166000   0.59903922   -8.1271349    720.19921  0.014406289  0.013356961           11 
 4167000    0.5944576   -8.1463484    719.93364  0.014397521  0.013352542            4 
 4168000   0.58305491   -8.1569248    719.87994  0.014392993  0.013348124           15 
 4169000   0.58704101   -8.1404215    720.57151  0.014403364  0.013343702            5 
 4170000   0.58880348   -8.1335792    719.83818  0.014385255   0.01333929            8 
 4171000   0.59106188   -8.1428594    719.75803  0.014380205  0.013334882           11 
 4172000   0.58130277   -8.1401114    721.09029  0.014403369   0.01333047            9 
 4173000   0.57663223   -8.1302351    720.71106  0.014392345  0.013326062           10 
 4174000   0.58452552   -8.1286899    719.16289  0.014357988  0.013321649            5 
 4175000   0.59715401   -8.1220414    719.67597   0.01436479  0.013317239            5 
 4176000   0.58343813   -8.1457135    720.92509  0.014386277  0.013312837            8 
 4177000   0.58658128   -8.1320255    719.69947  0.014358381  0.013308433            7 
 4178000   0.59510786   -8.1378325    719.28397  0.014346656  0.013304025            4 
 4179000   0.56942189   -8.1375063    719.23987  0.014342344  0.013299623            8 
 4180000   0.58669261   -8.1297414    720.23986  0.014358849  0.013295217            5 
 4181000   0.57561898   -8.1370045    718.64802  0.014323687  0.013290822            4 
 4182000   0.58030529   -8.1319846    720.55365  0.014358235  0.013286424            4 
 4183000    0.5851168    -8.139246    720.68003   0.01435732  0.013282025            8 
 4184000   0.58793146   -8.1359531    720.34991  0.014347313   0.01327763            2 
 4185000   0.57254656    -8.139883    720.77405  0.014352331  0.013273236            6 
 4186000   0.58748972    -8.124351    719.85564  0.014330619  0.013268847            7 
 4187000    0.6021666   -8.1482746      719.849  0.014327064  0.013264466            7 
 4188000    0.5926528   -8.1513192    719.96646   0.01432598  0.013260078            7 
 4189000   0.59002813   -8.1276416    720.50341  0.014333242  0.013255691            3 
 4190000   0.58819003   -8.1285086    719.72403   0.01431432  0.013251313            4 
 4191000   0.59366465   -8.1392868    721.55993   0.01434741   0.01324693            5 
 4192000   0.56572071   -8.1409091    720.06173  0.014314204  0.013242548            5 
 4193000   0.56934476   -8.1564265    719.83532  0.014306291  0.013238174            4 
 4194000   0.58601538   -8.1507882    720.18223  0.014309773  0.013233802            4 
 4195000   0.58572207   -8.1485735    718.89124  0.014280716  0.013229424            2 
 4196000    0.5835385   -8.1501467    721.54516   0.01433002   0.01322505           10 
 4197000   0.58933218    -8.147927    721.00694  0.014315919  0.013220677            5 
 4198000   0.58914953   -8.1365159    719.82941  0.014289134  0.013216301            5 
 4199000   0.57229784   -8.1517105    720.65592  0.014302134  0.013211928            5 
 4200000   0.58142672   -8.1440015    719.79327  0.014281613  0.013207553            5 
 4201000   0.58432869   -8.1590475    719.79732  0.014278293  0.013203183            4 
 4202000   0.56828184    -8.152874    718.69408  0.014253016  0.013198814            3 
 4203000    0.5840546   -8.1504309    719.96759  0.014274875  0.013194448            5 
 4204000    0.5698559   -8.1333178    720.53759  0.014282778  0.013190084            5 
 4205000   0.57132338   -8.1487605    720.03435  0.014269408  0.013185712            4 
 4206000   0.57994527   -8.1529143    719.93857  0.014264118  0.013181349            4 
 4207000   0.57969747   -8.1474682    719.22548  0.014246603  0.013176982            4 
 4208000   0.58154766   -8.1404806    719.80578  0.014254709  0.013172623            3 
 4209000   0.56619925   -8.1548445    720.49716  0.014265011  0.013168264            2 
 4210000   0.57272111   -8.1613511    720.55133  0.014262695  0.013163905            5 
 4211000   0.57610487   -8.1739445    721.46311  0.014277351  0.013159541            5 
 4212000   0.58420904   -8.1613645    720.35646  0.014252067   0.01315518            5 
 4213000   0.59113917   -8.1454228    719.52275  0.014232193  0.013150825            3 
 4214000   0.56683151   -8.1426243    719.79537  0.014234207  0.013146468            4 
 4215000   0.56619853   -8.1622198    718.93842  0.014213887  0.013142107            2 
 4216000   0.57484957    -8.129731    718.65968  0.014205006  0.013137755            4 
 4217000   0.58145222   -8.1601053    719.51232  0.014218487  0.013133406            2 
 4218000   0.58276629   -8.1516872    719.34153  0.014211742  0.013129061            4 
 4219000    0.5667498   -8.1618515     720.1778  0.014224891  0.013124713            7 
 4220000   0.58218439   -8.1463592    720.08182  0.014219625  0.013120371            4 
 4221000   0.58338543   -8.1549133    719.39812  0.014202758  0.013116027            3 
 4222000   0.58399959   -8.1650426    720.37971  0.014218769  0.013111682            5 
 4223000     0.574963   -8.1852877    717.85835  0.014165647  0.013107339            6 
 4224000   0.58893832   -8.1549971    719.59802  0.014196615  0.013102994            4 
 4225000   0.58199232   -8.1533769    720.08654   0.01420289  0.013098651            6 
 4226000   0.56632267   -8.1715997    720.04235  0.014198658  0.013094312            4 
 4227000   0.59051293   -8.1560449    720.00977  0.014194657  0.013089974            4 
 4228000   0.57769816    -8.160957    718.96747  0.014170756  0.013085634            4 
 4229000   0.58766623   -8.1618402    718.34913   0.01415522  0.013081295            3 
 4230000    0.5758374   -8.1703288    718.99782  0.014164654  0.013076956            4 
 4231000   0.57199137   -8.1518407    718.91547  0.014159684  0.013072625            5 
 4232000   0.57359253   -8.1666922    719.41484  0.014166171  0.013068295            5 
 4233000   0.56172749   -8.1758536    718.30434  0.014140963  0.013063956            7 
 4234000   0.57803539   -8.1704134    719.52761  0.014161699  0.013059622            6 
 4235000   0.56759221   -8.1624621    718.17155  0.014131671  0.013055292            7 
 4236000    0.5608718   -8.1249409    720.21863  0.014168607  0.013050969            7 
 4237000   0.57507217   -8.1665595    719.46881  0.014150515  0.013046644            7 
 4238000   0.57179077   -8.1552059    718.71625  0.014132379  0.013042325            4 
 4239000   0.56698999   -8.1422342    719.47788  0.014144018  0.013038006            5 
 4240000   0.57787696   -8.1610029    719.19142  0.014135051  0.013033683            6 
 4241000   0.55554021   -8.1617477      719.891  0.014145465  0.013029358            3 
 4242000   0.57913788   -8.1594704    719.16572  0.014127882  0.013025037            7 
 4243000   0.56919991   -8.1743813    719.41705  0.014129489  0.013020719            8 
 4244000   0.56196512     -8.15583    719.42825  0.014126379  0.013016405            8 
 4245000   0.57403717   -8.1573819    720.11272  0.014136488  0.013012098            5 
 4246000   0.57287023   -8.1439519    719.29524  0.014117115  0.013007784            6 
 4247000   0.56671798   -8.1672341    719.03886   0.01410876  0.013003471            5 
 4248000   0.57020456   -8.1587489    719.40254  0.014112573  0.012999157            3 
 4249000   0.57697699   -8.1847386    719.92918  0.014119581  0.012994843            8 
 4250000   0.56951164    -8.168944    720.37483  0.014124997  0.012990536            7 
 4251000   0.56983953   -8.1712001     718.4417  0.014083778  0.012986225            8 
 4252000   0.57118625   -8.1738253    718.93916  0.014090216  0.012981912            4 
 4253000   0.57272714   -8.1635018    718.60816  0.014080417  0.012977602            5 
 4254000   0.57386301    -8.159833    718.71201  0.014079141  0.012973293           11 
 4255000   0.57497663   -8.1826054     718.0464  0.014062797  0.012968989            9 
 4256000   0.58236548   -8.1790268    718.54011   0.01406916  0.012964686            4 
 4257000   0.56169634   -8.1798773    718.10753  0.014057387  0.012960382            3 
 4258000   0.57831122   -8.1541879    719.54871   0.01408229  0.012956083            8 
 4259000   0.56727082   -8.1649794    719.52531  0.014078526  0.012951787            9 
 4260000   0.58657466    -8.173349    718.51575  0.014055472  0.012947487            4 
 4261000   0.57584729   -8.2001239    718.14832  0.014044988  0.012943191           12 
 4262000   0.56393456   -8.1653167     717.9437  0.014037692   0.01293889            5 
 4263000   0.57557376   -8.1741506    717.61763  0.014028025  0.012934591            4 
 4264000   0.56689181   -8.1665472    719.61576  0.014063785  0.012930298            7 
 4265000   0.56153971   -8.1876324     719.4295  0.014056848  0.012926009            8 
 4266000   0.57445085   -8.1678937    717.98833  0.014025401  0.012921718            6 
 4267000   0.55905737     -8.19055    719.16012  0.014044999  0.012917428            4 
 4268000   0.57489583   -8.1610056    718.43042  0.014027461  0.012913141            6 
 4269000   0.57140072   -8.1771073    718.50614  0.014025653  0.012908855            3 
 4270000   0.57466472   -8.1803375    718.48768  0.014022008  0.012904566            2 
 4271000   0.55638706   -8.1868947    719.33872   0.01403533  0.012900281            4 
 4272000   0.56693846   -8.1788044    718.63219  0.014018262  0.012895996            4 
 4273000   0.56567126   -8.1905954    718.81142  0.014018477   0.01289171            3 
 4274000   0.55766689   -8.1914017    718.34984  0.014006197  0.012887434            5 
 4275000    0.5653692   -8.1716702    718.15141  0.013999053  0.012883158            4 
 4276000   0.55808747   -8.1801973    718.73832  0.014007217  0.012878882            6 
 4277000    0.5739496   -8.1788293    718.91212  0.014007328    0.0128746            4 
 4278000   0.55078243   -8.1820217    718.98617  0.014005497  0.012870324            7 
 4279000   0.57275188   -8.2067743    718.18025  0.013986528  0.012866047            6 
 4280000   0.55940221   -8.1945511    718.22342  0.013984101  0.012861771            3 
 4281000   0.56839035    -8.173155    717.87122  0.013973978  0.012857493            9 
 4282000   0.57690319   -8.1855981    718.72661  0.013987362  0.012853224            5 
 4283000   0.57198052   -8.1768019    718.24695  0.013974764  0.012848954            5 
 4284000   0.58318315   -8.1903255    718.64543  0.013979253  0.012844687            3 
 4285000   0.56960778    -8.185801      717.846  0.013960443  0.012840422            6 
 4286000   0.58700847   -8.1846055    718.53846   0.01397065  0.012836161            8 
 4287000   0.57360142   -8.1757066    717.47436  0.013946706  0.012831898            3 
 4288000   0.56670841   -8.1912419    718.53323  0.013964032  0.012827636            6 
 4289000   0.56879925   -8.1957401    717.34404  0.013937671  0.012823379            8 
 4290000   0.57101655     -8.18722     718.6294   0.01395939   0.01281912            3 
 4291000   0.56601423   -8.1771927    718.45043  0.013952661  0.012814863            5 
 4292000   0.56206019   -8.1704258    718.92882  0.013958699  0.012810609            2 
 4293000   0.55864721   -8.1930639    718.53166  0.013947738   0.01280636            3 
 4294000   0.57045678   -8.1856683    719.08925  0.013955311   0.01280211            4 
 4295000    0.5737392   -8.1791895    718.58962  0.013942368  0.012797855            6 
 4296000   0.56708684   -8.1752685    717.85002  0.013924775  0.012793607            4 
 4297000   0.57028322   -8.2032646    717.71769  0.013918969  0.012789359            4 
 4298000   0.56410254   -8.1982404    718.00867  0.013921372  0.012785114            4 
 4299000   0.56463535   -8.1935858    719.65759  0.013950097  0.012780874            5 
 4300000   0.54533558   -8.1952128    717.37881   0.01390269  0.012776628            7 
 4301000    0.5659188   -8.1866569    718.31361   0.01391757  0.012772389            6 
 4302000   0.57626287   -8.1756413    718.14889  0.013911144  0.012768154            4 
 4303000   0.56543802   -8.1955707    717.75123   0.01390021  0.012763919            4 
 4304000   0.55795349    -8.208192    719.43373  0.013929556  0.012759692            4 
 4305000   0.56873637   -8.2181001    718.93426  0.013916652  0.012755457            3 
 4306000   0.56842091   -8.1985553    719.25416  0.013919611  0.012751226            5 
 4307000   0.55801781   -8.1852341    717.97447   0.01389162  0.012746998            5 
 4308000   0.56289502   -8.1961337    717.73704  0.013883802   0.01274277            4 
 4309000   0.55576678   -8.1605823    719.09263  0.013906796  0.012738543            6 
 4310000   0.56143221   -8.1918424    718.32024  0.013888636  0.012734315            5 
 4311000   0.56327229   -8.1860766    718.78696  0.013894436  0.012730094            5 
 4312000    0.5670421   -8.1766885    719.55197  0.013905998   0.01272587            5 
 4313000    0.5695637   -8.2056976     716.9178  0.013851878  0.012721645            5 
 4314000   0.55444368   -8.1966884    717.42063   0.01385838  0.012717425            6 
 4315000   0.57130365   -8.2049738    719.34683  0.013892368   0.01271321            6 
 4316000     0.564308   -8.2023267    718.22601  0.013867509  0.012708994            4 
 4317000   0.57545109    -8.199088    717.09183  0.013842403  0.012704783            4 
 4318000   0.56019205   -8.2063812    718.69705  0.013870176   0.01270057            5 
 4319000   0.56378471   -8.1917402    718.95979  0.013872034  0.012696355            7 
 4320000   0.57295979   -8.1950325    717.86498  0.013847704  0.012692141            4 
 4321000   0.56190902   -8.1788874    716.81284  0.013824208  0.012687931            5 
 4322000   0.56656243   -8.2142137    718.34159  0.013850486  0.012683724            9 
 4323000   0.56032788   -8.2028929    718.64388  0.013853109  0.012679517            3 
 4324000    0.5603252   -8.1914878    718.02819  0.013838039  0.012675314            4 
 4325000    0.5538689   -8.1869234    717.70788  0.013828668  0.012671114            4 
 4326000   0.55789919   -8.2023097    717.61621  0.013823706  0.012666914            9 
 4327000   0.57652843   -8.1749504    717.25885  0.013813629  0.012662714            4 
 4328000   0.54738307   -8.2094434    718.25525  0.013829622  0.012658517           13 
 4329000   0.55741777   -8.2101779    718.47932  0.013830741  0.012654321            4 
 4330000   0.55235798   -8.1976742    717.89742  0.013816348  0.012650126            5 
 4331000   0.56567069   -8.1968665    716.38407  0.013784039  0.012645935            8 
 4332000   0.55639734     -8.18207    718.54869  0.013822497   0.01264175            4 
 4333000   0.57067969    -8.191701    718.50301  0.013818429  0.012637563            7 
 4334000   0.55566272   -8.1919417    719.05601  0.013825873  0.012633377            6 
 4335000   0.55677322   -8.1976258    717.92337  0.013800911  0.012629187            5 
 4336000   0.55865364   -8.2110598    718.19439  0.013802936     0.012625            8 
 4337000   0.55483457   -8.2134459    717.90674  0.013794227  0.012620812            5 
 4338000   0.55062192   -8.2096978    719.11278  0.013814215  0.012616629           15 
 4339000   0.56396074    -8.194157    717.30347  0.013776282  0.012612437            6 
 4340000   0.55814504   -8.2114413    718.32206  0.013792666  0.012608252            4 
 4341000    0.5665206   -8.1958114    717.73747  0.013778267  0.012604073            8 
 4342000   0.55766771   -8.1920341    717.68964  0.013774175  0.012599892            5 
 4343000   0.57009555   -8.1994787    717.45277  0.013766459   0.01259571            4 
 4344000   0.56096449   -8.1942551    718.00638   0.01377391  0.012591529            7 
 4345000    0.5605575   -8.2190904     716.9392  0.013750272  0.012587349            6 
 4346000   0.57194517   -8.2269492    718.20272  0.013771336  0.012583167           10 
 4347000   0.55784999   -8.2137803    717.55481  0.013755747  0.012578988            4 
 4348000   0.55894208   -8.1765964    717.17477    0.0137453  0.012574811            8 
 4349000   0.54914976   -8.1925285    718.91205  0.013775428  0.012570635            7 
 4350000   0.54771841   -8.2127287    717.29446  0.013741273  0.012566458            8 
 4351000    0.5537382   -8.2186805    716.64422  0.013725661  0.012562281            4 
 4352000   0.54652736   -8.2044678     716.7125  0.013723815  0.012558108            4 
 4353000    0.5733842   -8.2104079    718.24314  0.013749964  0.012553932            5 
 4354000   0.55409094   -8.1919989     717.1685  0.013726238  0.012549757            4 
 4355000   0.55890587   -8.2108242    717.95078  0.013738055  0.012545588            6 
 4356000   0.55310309   -8.2034522    717.41613  0.013724673  0.012541418            5 
 4357000   0.55080191   -8.2090919    716.53498   0.01370467  0.012537253            7 
 4358000    0.5591273   -8.2142783    718.13175  0.013732059  0.012533096            7 
 4359000   0.55711172   -8.1860569    717.23561  0.013711777  0.012528938            6 
 4360000   0.54005079    -8.208605    716.26559  0.013690092  0.012524781           10 
 4361000   0.55541113    -8.210997    718.17211  0.013723384  0.012520621            4 
 4362000   0.54233276   -8.2011516    717.50907   0.01370757  0.012516466            4 
 4363000   0.55930244   -8.2103571    717.03557  0.013695385  0.012512309            6 
 4364000    0.5471747   -8.2059289     717.7997  0.013706838  0.012508152            7 
 4365000   0.56031322   -8.2155934    717.33723  0.013694869  0.012503995            7 
 4366000   0.55229665   -8.2126161    717.47067  0.013694279  0.012499838            6 
 4367000   0.57041584    -8.209969    716.74332  0.013677264  0.012495683            5 
 4368000    0.5564634   -8.2063445    717.16074  0.013682096  0.012491537            7 
 4369000    0.5418133   -8.2223554    716.52401  0.013666819  0.012487389            4 
 4370000   0.54887597    -8.220915    717.32526  0.013678971  0.012483241            4 
 4371000   0.55503613   -8.2193213    717.64506  0.013681939  0.012479104            4 
 4372000   0.54437467   -8.2141101    718.45423  0.013694233  0.012474964            4 
 4373000   0.55424744   -8.2214896    717.04041  0.013664159  0.012470827            7 
 4374000   0.55804167   -8.2177899    718.51573  0.013689143  0.012466689            7 
 4375000   0.55777581   -8.2192614    718.50524  0.013685814   0.01246255            5 
 4376000   0.55794941   -8.2016006    717.73517  0.013668022  0.012458418            4 
 4377000    0.5524376   -8.2187836     715.5229   0.01362278  0.012454281            4 
 4378000   0.55616362   -8.2222417     717.3503  0.013654452  0.012450149            4 
 4379000   0.54232339   -8.2194858    717.86913  0.013661208  0.012446021            5 
 4380000   0.55081858    -8.214232    718.11539  0.013662774  0.012441894            5 
 4381000   0.55032055   -8.2123127    717.55899  0.013649072  0.012437769            8 
 4382000   0.54552351   -8.1942746    717.50219  0.013644877  0.012433648            7 
 4383000   0.55170352     -8.20907    717.55787  0.013642822  0.012429528            2 
 4384000   0.55473436   -8.1979034      717.387  0.013636462  0.012425406            4 
 4385000   0.55764076   -8.2091685    717.76587  0.013640553  0.012421286            3 
 4386000   0.54905611   -8.2228788    717.47539  0.013631923  0.012417164            5 
 4387000   0.53955186   -8.2150767     718.5136  0.013648537  0.012413048            7 
 4388000   0.55702355   -8.2181054    716.77952  0.013612495  0.012408929            7 
 4389000    0.5431131   -8.2214669    717.76876  0.013628176  0.012404812            4 
 4390000   0.53818174   -8.2078341    717.47174  0.013619433    0.0124007            9 
 4391000   0.56205121    -8.219155    716.61281   0.01360003  0.012396583            9 
 4392000   0.55075483   -8.2100102    717.74933  0.013618498  0.012392477            4 
 4393000   0.53979423   -8.2284494    717.79762  0.013616314  0.012388369            6 
 4394000   0.55634767   -8.2342326    717.88146  0.013614805  0.012384262            6 
 4395000    0.5528167   -8.2311778    718.68388  0.013626922  0.012380159            4 
 4396000   0.54216405   -8.2272294    717.66095  0.013604431  0.012376056            4 
 4397000   0.52928704   -8.2278987    716.93299  0.013587541  0.012371956            3 
 4398000   0.54339964   -8.2080914    718.16823  0.013607856  0.012367855            5 
 4399000   0.54535599    -8.216941    718.09731  0.013603419   0.01236376            8 
 4400000   0.54105643    -8.230586     716.9022  0.013577693  0.012359664            4 
 4401000   0.55177038   -8.2202964    717.63419  0.013588468  0.012355567            8 
 4402000   0.54262488   -8.2322433    717.41271  0.013581189   0.01235147            6 
 4403000   0.55569903   -8.2093479    717.40719     0.013578  0.012347379            3 
 4404000   0.56487527    -8.242625    717.37773  0.013574359  0.012343285            6 
 4405000   0.54664111   -8.2353228    715.59349  0.013537523  0.012339193            3 
 4406000   0.55347589   -8.2266413    716.80262   0.01355732  0.012335102            5 
 4407000   0.54069876   -8.2281627    717.10048  0.013559876  0.012331018           11 
 4408000   0.54287376   -8.2207082    717.53562  0.013565026  0.012326936            3 
 4409000    0.5536682   -8.2108688    717.27035  0.013556936  0.012322847            7 
 4410000   0.55092537   -8.2180548    717.99715  0.013567595  0.012318768            5 
 4411000   0.55387906   -8.2241551    717.57452  0.013556535  0.012314684            3 
 4412000   0.55481193   -8.2336538    718.14827  0.013564299  0.012310598            6 
 4413000   0.54329034    -8.221937    717.72911  0.013553311  0.012306512            6 
 4414000   0.54082735   -8.2211471    718.16636  0.013558495  0.012302432            3 
 4415000   0.54778797   -8.2306699     715.8689  0.013512059  0.012298348            5 
 4416000   0.54419512   -8.2227543    716.69733  0.013524633  0.012294269            5 
 4417000   0.55334423   -8.2295417    717.65445  0.013539628  0.012290199            5 
 4418000   0.52971046   -8.2321412    716.56542  0.013516022  0.012286125            4 
 4419000   0.55642875    -8.217866     716.7119  0.013515726  0.012282057            4 
 4420000   0.54578562   -8.2226415    717.94454  0.013535908  0.012277987            6 
 4421000   0.54310886   -8.2399851    717.26117  0.013519965  0.012273918            9 
 4422000   0.54940566   -8.2332068    716.69019  0.013506147  0.012269854            3 
 4423000   0.54515901   -8.2237294    717.37723  0.013516038  0.012265788            6 
 4424000   0.54629817   -8.2414351    717.66288  0.013518364  0.012261725            4 
 4425000   0.53782449   -8.2036513    716.98097  0.013502466  0.012257665            5 
 4426000   0.54459418   -8.1995238    715.96887   0.01348036  0.012253607            3 
 4427000   0.54805437   -8.2145642    716.32016  0.013483927  0.012249552            2 
 4428000   0.54660663   -8.1993615    717.17684  0.013497005  0.012245498            4 
 4429000   0.54693323   -8.2185409    716.66151  0.013484261  0.012241441            5 
 4430000   0.53705491   -8.2301136     718.2657  0.013511394  0.012237386            4 
 4431000   0.53779885   -8.2391422    717.07059  0.013485868  0.012233333            4 
 4432000   0.54000563   -8.2376452     715.8151  0.013459219  0.012229282            3 
 4433000   0.53017332    -8.246062    717.92598  0.013495864   0.01222523            5 
 4434000   0.53765897   -8.2464987    717.37159  0.013482401  0.012221176            9 
 4435000   0.54314431   -8.2094366    716.53124  0.013463571  0.012217127            4 
 4436000   0.54704306    -8.223637    717.36919  0.013476277   0.01221308            7 
 4437000   0.54885274   -8.2390636    716.25373   0.01345229  0.012209035            4 
 4438000   0.55371488   -8.2425082    716.99534  0.013463184  0.012204987            4 
 4439000   0.53720397   -8.2161604     716.7982   0.01345645  0.012200943            5 
 4440000   0.53902312   -8.2384598    714.93233    0.0134184  0.012196899            5 
 4441000   0.54840614   -8.2103207    715.56854  0.013427316  0.012192855            7 
 4442000   0.54112902    -8.234147    716.26241  0.013437311  0.012188814            8 
 4443000   0.54164966   -8.2235852    716.27232  0.013434472  0.012184776            6 
 4444000   0.54799758   -8.2503037    716.41417  0.013434109   0.01218074            4 
 4445000   0.53157289   -8.2417715    715.02226  0.013404992  0.012176707            3 
 4446000   0.54438694   -8.2216344    717.01008  0.013439235  0.012172675            3 
 4447000   0.55374205   -8.2343517    716.91221  0.013434379  0.012168642            3 
 4448000   0.54740593   -8.2300223    716.26952  0.013419318  0.012164608            3 
 4449000   0.54134794   -8.2282301    716.07667  0.013412689  0.012160575            5 
 4450000   0.54775608   -8.2475395     715.2367  0.013393946  0.012156547            6 
 4451000   0.52929281   -8.2281231    716.75215  0.013419309   0.01215252            6 
 4452000   0.52441806   -8.2445751    716.25047  0.013406905  0.012148491            4 
 4453000   0.54159364   -8.2279721     716.1574  0.013402152  0.012144465            4 
 4454000   0.54079224   -8.2301285    715.97947  0.013395814  0.012140439            5 
 4455000   0.53088061    -8.235296    716.65765  0.013405493  0.012136412            5 
 4456000   0.54058759   -8.2296181    716.80803  0.013405297  0.012132394            6 
 4457000   0.52911672   -8.2289116    715.84601  0.013384302  0.012128374            4 
 4458000   0.54836941   -8.2421413    716.41207  0.013391881  0.012124356            5 
 4459000   0.55795234   -8.2319158    714.77749  0.013358329  0.012120333           10 
 4460000   0.54513948   -8.2263428    717.12262  0.013399152  0.012116322            4 
 4461000   0.52715825   -8.2393683    716.91626  0.013392293   0.01211231            4 
 4462000   0.53365162   -8.2358068    716.79384  0.013387006  0.012108294            4 
 4463000   0.52854208     -8.23279    716.38035  0.013376286  0.012104283            4 
 4464000    0.5338306   -8.2309026    717.84536  0.013400638  0.012100273            3 
 4465000    0.5381416   -8.2374179    716.78438  0.013377835  0.012096264            5 
 4466000   0.54481356   -8.2425671    717.02478  0.013379325  0.012092257            2 
 4467000    0.5535438   -8.2305498    716.32285  0.013363235   0.01208826            4 
 4468000   0.54618235   -8.2315021    715.41708   0.01334335  0.012084256            3 
 4469000   0.53988348   -8.2486638    716.79108  0.013365986  0.012080259            6 
 4470000   0.54553066   -8.2370862    715.71352  0.013342907  0.012076255            4 
 4471000   0.54375778   -8.2544166     716.0129  0.013345502  0.012072255            4 
 4472000   0.53217157   -8.2522445    716.07749  0.013343722  0.012068257            5 
 4473000   0.53574769   -8.2544842    716.87418  0.013355581   0.01206426            5 
 4474000   0.53348201   -8.2416226    717.27997  0.013360154  0.012060267            7 
 4475000   0.53027605   -8.2292764    715.88385   0.01333117  0.012056277            7 
 4476000   0.53594588   -8.2270167    715.88764  0.013328263  0.012052287            2 
 4477000   0.54853723   -8.2180134    715.39909  0.013316192  0.012048295            6 
 4478000   0.52896293   -8.2407754    715.84039   0.01332143   0.01204431            5 
 4479000    0.5306056   -8.2273343    716.93613  0.013338843  0.012040322            5 
 4480000   0.54508177   -8.2399961    716.31319  0.013324278  0.012036338            4 
 4481000   0.53047454   -8.2634414    715.72534  0.013310372  0.012032354            3 
 4482000   0.53655385   -8.2396602    716.31222  0.013318314  0.012028375            4 
 4483000   0.52826225   -8.2321002    715.97904   0.01330915  0.012024401            7 
 4484000   0.53032312   -8.2427836    716.69269  0.013319445   0.01202043            5 
 4485000   0.53320295   -8.2320719    715.14767  0.013287768  0.012016455            4 
 4486000   0.54743371   -8.2216399    716.22509   0.01330482  0.012012481            7 
 4487000   0.53133346   -8.2207805    716.42346  0.013305539   0.01200851            4 
 4488000   0.54035538   -8.2392482    716.40791  0.013302286   0.01200454            3 
 4489000   0.53421502    -8.228608    715.92435  0.013290346   0.01200057           11 
 4490000   0.53124872   -8.2477814    716.44011  0.013296958    0.0119966            6 
 4491000   0.52670155   -8.2364584     716.5429  0.013295905  0.011992632            5 
 4492000   0.52018401   -8.2523094    715.81606  0.013279461  0.011988666            5 
 4493000   0.53865771   -8.2202009    716.19866  0.013283601  0.011984697            3 
 4494000   0.54114984   -8.2421459    715.26997  0.013263425  0.011980731            8 
 4495000   0.52581949   -8.2445718    716.56199  0.013284427  0.011976767            5 
 4496000   0.53629196   -8.2308474    715.08846   0.01325416  0.011972807            7 
 4497000   0.53770132   -8.2543399    716.45152  0.013276472  0.011968847            8 
 4498000   0.52376562    -8.243462     716.5234  0.013274852  0.011964892            7 
 4499000   0.53938678   -8.2543456    715.81954  0.013258864  0.011960939            4 
 4500000   0.53752185   -8.2471727    715.27715  0.013245873  0.011956987            6 
 4501000    0.5417248   -8.2306016    716.15337  0.013259153  0.011953032            6 
 4502000   0.53093958   -8.2614024    715.44032  0.013243009  0.011949082            6 
 4503000   0.52877733   -8.2315685    716.11831  0.013252615   0.01194513            6 
 4504000   0.52808916   -8.2443832    716.69826  0.013260403  0.011941182            4 
 4505000   0.53458376   -8.2472984    716.35095  0.013251035  0.011937236            6 
 4506000   0.53690068   -8.2345785    716.25476  0.013246315   0.01193329            6 
 4507000   0.55288678   -8.2549792    715.25593  0.013224908  0.011929349            6 
 4508000   0.53342233   -8.2291409    714.01498  0.013199035  0.011925406            6 
 4509000   0.52750584   -8.2179441    716.06832  0.013234056   0.01192146            3 
 4510000   0.51562737   -8.2592709     716.6323  0.013241543   0.01191752            6 
 4511000   0.53190694   -8.2565832    715.31592  0.013214289  0.011913584            5 
 4512000   0.52252581   -8.2503504    715.46285  0.013214074  0.011909645            8 
 4513000   0.52306008    -8.237389    715.45288  0.013210962  0.011905711            7 
 4514000   0.54605234   -8.2386921    716.03559  0.013218793  0.011901781            8 
 4515000   0.53432354    -8.252213    714.85201   0.01319402  0.011897847            4 
 4516000   0.53530572   -8.2650882     715.1678  0.013196926  0.011893915            4 
 4517000   0.53311514    -8.248415    715.33362  0.013197063  0.011889985            6 
 4518000   0.52321907   -8.2612206    716.66867  0.013218767  0.011886061            3 
 4519000   0.52868449   -8.2642419    715.55685  0.013195339  0.011882136            8 
 4520000   0.52297724   -8.2485801    715.79982  0.013196899  0.011878209            4 
 4521000   0.52534703   -8.2602332    715.19939  0.013182913  0.011874288            5 
 4522000   0.51594871   -8.2537673    714.07655  0.013159305  0.011870364            7 
 4523000   0.52233375   -8.2377045    715.57936  0.013184084  0.011866439            5 
 4524000   0.52595598   -8.2603401     715.2393  0.013174906  0.011862521            6 
 4525000   0.52492664    -8.255326    715.37869  0.013174562  0.011858604            3 
 4526000   0.51541152   -8.2637668    716.97122  0.013200973  0.011854688            6 
 4527000   0.53125924    -8.257958    716.32903  0.013186235  0.011850773            7 
 4528000   0.51940002   -8.2577852     716.5552  0.013187485  0.011846863            5 
 4529000   0.53672639   -8.2364118    715.45586  0.013164346  0.011842953            5 
 4530000   0.53178905   -8.2559631    716.10741  0.013173425  0.011839046            5 
 4531000   0.52467113   -8.2494767    715.11186  0.013152208  0.011835136            4 
 4532000   0.51650199   -8.2490906    716.17506  0.013168856  0.011831228            7 
 4533000   0.53322848   -8.2639897    715.80746  0.013159193  0.011827323            6 
 4534000    0.5311414   -8.2577678     715.0507  0.013142382  0.011823419            5 
 4535000   0.51978866   -8.2433088    715.63657  0.013150249  0.011819521            6 
 4536000   0.52848996    -8.237559     715.7425  0.013149296  0.011815618            3 
 4537000    0.5247379   -8.2596168    715.63481   0.01314442  0.011811721            7 
 4538000   0.54311588   -8.2611336    716.15552  0.013151086  0.011807823            9 
 4539000   0.53773125   -8.2488921    716.26356  0.013150172  0.011803929            6 
 4540000   0.51790423    -8.252507    716.51868  0.013151958  0.011800038            4 
 4541000   0.53574811   -8.2584529    715.30879  0.013126859  0.011796148            5 
 4542000   0.52533945    -8.254739    716.79729  0.013151279  0.011792258            6 
 4543000   0.51951309   -8.2552986    715.79178   0.01312994   0.01178837            5 
 4544000   0.52995166   -8.2662217    715.93847   0.01312974  0.011784483            9 
 4545000   0.53778656   -8.2675515    716.30864  0.013133638  0.011780599            7 
 4546000   0.53068342   -8.2643572     716.1727  0.013128257  0.011776714            8 
 4547000   0.52202578   -8.2567021    715.72982  0.013117254  0.011772834            5 
 4548000   0.51856028   -8.2553991    715.18551  0.013104396  0.011768951            9 
 4549000   0.51579397   -8.2773637    716.98718   0.01313452  0.011765072            4 
 4550000   0.52224437    -8.265089    714.91427  0.013093668  0.011761193            4 
 4551000   0.51892365   -8.2567886    714.50936  0.013083377  0.011757312            4 
 4552000   0.52064254   -8.2457035    716.01035  0.013107981  0.011753435            4 
 4553000   0.53060115   -8.2486694    715.67077  0.013098887  0.011749563            4 
 4554000   0.53001465    -8.255804    715.73212  0.013097133  0.011745696            3 
 4555000   0.52083164   -8.2536388    716.43184  0.013107059  0.011741827            6 
 4556000   0.52375939   -8.2696335    715.71754  0.013091117  0.011737963            4 
 4557000   0.52577425   -8.2550594    715.02491  0.013075578  0.011734096            5 
 4558000   0.51860406    -8.264274    714.32495  0.013059912  0.011730229           11 
 4559000   0.51999635   -8.2579652    715.98905  0.013087465  0.011726364            4 
 4560000   0.52612481   -8.2583329    716.01831   0.01308513  0.011722502            9 
 4561000   0.53024427   -8.2443015      715.274  0.013068662  0.011718645            6 
 4562000   0.51361864   -8.2648709    714.38303  0.013049522  0.011714786            3 
 4563000   0.51863221   -8.2618741    715.93033   0.01307492  0.011710929            4 
 4564000   0.51686318   -8.2633216    716.26772  0.013078216  0.011707067            3 
 4565000   0.52048563   -8.2604087    715.20216  0.013055899  0.011703206            5 
 4566000    0.5261837    -8.278223     715.7959  0.013063876  0.011699352            5 
 4567000   0.51943643   -8.2710139    715.13286  0.013048917  0.011695499            6 
 4568000   0.52560973   -8.2693086    716.09538   0.01306362  0.011691647            5 
 4569000   0.51883574   -8.2615622    714.52719  0.013032159    0.0116878            6 
 4570000   0.52545875    -8.265748    714.93241  0.013036696  0.011683953            9 
 4571000   0.51894436   -8.2760304    715.58239  0.013045694  0.011680111            8 
 4572000   0.51120332   -8.2362944      715.331  0.013038258  0.011676268            5 
 4573000   0.53549926    -8.249929    713.63403  0.013004483  0.011672425            4 
 4574000   0.52526284   -8.2674969    716.21481  0.013048659  0.011668584            3 
 4575000   0.50911034    -8.258778    714.87866  0.013021469  0.011664744            5 
 4576000   0.51791437   -8.2692176    715.80433  0.013035481  0.011660905            5 
 4577000   0.51476429   -8.2549306    715.09666  0.013019748  0.011657067            6 
 4578000    0.5152946   -8.2700892    715.17911  0.013018405  0.011653233            4 
 4579000   0.52194375   -8.2516064    715.60211   0.01302326  0.011649397            3 
 4580000   0.51330514   -8.2639882    713.88477   0.01298917  0.011645567            4 
 4581000   0.51999116   -8.2718157    714.76078   0.01300227  0.011641738            4 
 4582000   0.51543429    -8.260561    714.40492   0.01299296  0.011637909            4 
 4583000   0.51973403   -8.2705467    715.53519  0.013010677  0.011634084           10 
 4584000   0.51662914   -8.2728427    716.21254  0.013020152  0.011630265            8 
 4585000   0.52431963   -8.2597014    716.54001  0.013023264  0.011626445            5 
 4586000   0.51534818   -8.2560386    715.98466  0.013010333  0.011622627            5 
 4587000   0.52469038   -8.2756499    715.90862  0.013006115  0.011618811            7 
 4588000   0.53000762   -8.2846356    715.91477  0.013003392  0.011614991            2 
 4589000   0.50160738   -8.2646951    716.28536  0.013007288  0.011611172           13 
 4590000   0.50588747   -8.2542444    715.26018  0.012985842  0.011607354            5 
 4591000   0.52422796   -8.2608929    715.38171   0.01298522   0.01160354            6 
 4592000   0.51881265   -8.2635312    715.38846  0.012982514  0.011599727            5 
 4593000    0.5097734   -8.2599197    715.57651  0.012983099  0.011595911            3 
 4594000   0.50271515    -8.272987    714.04064  0.012952413  0.011592101            5 
 4595000   0.52105576   -8.2915715    714.88619  0.012964929  0.011588293            4 
 4596000   0.51729279   -8.2739642    716.81679  0.012997113  0.011584491            6 
 4597000   0.53507097    -8.267366    715.56897  0.012971666  0.011580686            4 
 4598000   0.50951139   -8.2609827    716.25863  0.012981344  0.011576884            5 
 4599000   0.51149148   -8.2778417    714.73556  0.012950923   0.01157308            4 
 4600000   0.52218801   -8.2623046    714.65772  0.012946698  0.011569278            4 
 4601000    0.5187721   -8.2716433     716.3568  0.012974658  0.011565481            4 
 4602000   0.51218368   -8.2483395    715.58948  0.012957944  0.011561686            4 
 4603000   0.50611461   -8.2630303    715.79596  0.012958867  0.011557892            7 
 4604000   0.51390146   -8.2529375    714.46386  0.012931941    0.0115541            6 
 4605000   0.51082065     -8.26411    715.41849  0.012946408  0.011550308            4 
 4606000   0.52097965   -8.2653314    715.20943  0.012939815  0.011546516            5 
 4607000   0.50614754   -8.2737735    716.14401  0.012953911  0.011542731            5 
 4608000   0.51459733   -8.2518473    714.77701  0.012926378  0.011538944            8 
 4609000    0.5138742   -8.2647605     715.4464  0.012935677  0.011535163            3 
 4610000   0.50692856   -8.2766228    715.69098  0.012937292   0.01153138            7 
 4611000   0.51051468   -8.2778701     716.6372  0.012951587    0.0115276            4 
 4612000   0.51945982   -8.2791576    715.21354  0.012923055  0.011523821            4 
 4613000   0.50731556   -8.2929758    714.75593  0.012911987   0.01152004            6 
 4614000   0.51537539   -8.2825664    714.77252  0.012909488   0.01151626            4 
 4615000   0.51545088   -8.2667226    714.15911  0.012895614  0.011512486            5 
 4616000   0.51948657   -8.2651316    715.86461   0.01292361  0.011508714            7 
 4617000   0.51688024   -8.2784817    715.38098  0.012912082   0.01150494            5 
 4618000   0.50670368   -8.2628271    716.02707  0.012920945  0.011501168            5 
 4619000   0.51663275   -8.2672395    717.08179  0.012937176  0.011497397            6 
 4620000   0.50609213   -8.2832337     715.0846  0.012898351  0.011493625            4 
 4621000   0.51363299   -8.2806502     715.3465  0.012900283  0.011489853            3 
 4622000   0.51255126   -8.2829834     716.1947  0.012912785  0.011486083            3 
 4623000   0.50549756   -8.2602986    714.21122  0.012874238   0.01148232            7 
 4624000    0.5124267   -8.2801704    715.43496  0.012893508  0.011478559            3 
 4625000   0.52107526   -8.2713434    714.83466  0.012879904  0.011474799            6 
 4626000   0.51008326    -8.289243    715.19573  0.012883624  0.011471039            4 
 4627000    0.5124833   -8.2514626    715.45606  0.012885528  0.011467282            4 
 4628000   0.50876603   -8.2863518    715.55847  0.012884588  0.011463529            5 
 4629000   0.50993659   -8.2777744    716.38224  0.012896634  0.011459775            5 
 4630000    0.5190077   -8.2676939    715.65711  0.012880797  0.011456025            3 
 4631000   0.52147814   -8.2817708    714.30081   0.01285361  0.011452275            5 
 4632000    0.5065909   -8.2668304    714.42361  0.012853044  0.011448524            3 
 4633000   0.52394895   -8.2806619    715.35933  0.012867101  0.011444773            4 
 4634000   0.51695242   -8.2751555    715.71226  0.012870671  0.011441022            4 
 4635000   0.50357072   -8.2783186    715.22342  0.012859105  0.011437279            5 
 4636000   0.50179117   -8.2735973    714.43418  0.012842144  0.011433532            3 
 4637000   0.50472298     -8.27491    715.97009  0.012866977  0.011429786            4 
 4638000   0.50771314   -8.2892654    716.31246  0.012870355  0.011426042            3 
 4639000   0.51046423   -8.2886238    715.06639  0.012845196  0.011422296            4 
 4640000   0.49538884   -8.2766345    714.04581  0.012824099  0.011418555            6 
 4641000   0.50944965    -8.275952     715.4708  0.012846922  0.011414814            7 
 4642000    0.5165969   -8.2580747    715.59756   0.01284643  0.011411077            5 
 4643000   0.51061229   -8.2754916      714.551   0.01282488  0.011407346            7 
 4644000   0.51844116   -8.2703117    713.74114  0.012807586  0.011403612            5 
 4645000   0.50396971   -8.2842876    714.19845  0.012813033  0.011399881            6 
 4646000   0.51193409    -8.265383    714.74301  0.012820043  0.011396151            4 
 4647000    0.5048196   -8.2841121    714.19981  0.012807543  0.011392421            5 
 4648000   0.51147862    -8.265612    715.23156  0.012823285  0.011388693            6 
 4649000   0.51380036   -8.2804968    714.54446  0.012808211  0.011384961            3 
 4650000   0.50700622   -8.3031977    715.42138  0.012821172  0.011381232            3 
 4651000   0.50549592   -8.2891548    716.18203  0.012832044  0.011377506            3 
 4652000    0.5012606   -8.2846271    715.03188  0.012808682  0.011373783            4 
 4653000   0.50740529   -8.2891105    715.03778  0.012806035  0.011370062            5 
 4654000   0.50954793   -8.2823606    715.80214   0.01281697  0.011366345           11 
 4655000   0.50580383   -8.2979349    714.70809  0.012794631  0.011362624            5 
 4656000    0.5035483   -8.3118938    715.35781  0.012803512  0.011358905            6 
 4657000   0.50808372   -8.2820879    714.87593   0.01279214  0.011355189            6 
 4658000    0.5097936   -8.2753571    714.60912   0.01278462  0.011351472            7 
 4659000   0.50602766   -8.2926461    714.69617  0.012783433  0.011347757            6 
 4660000   0.51170909    -8.277035    714.64695  0.012779809  0.011344047            3 
 4661000    0.5054276   -8.2805147    714.59017  0.012776053   0.01134034            5 
 4662000   0.50330599   -8.2860717    714.61858   0.01277382  0.011336633            6 
 4663000   0.50249653   -8.2765329    715.53273  0.012787417  0.011332928            5 
 4664000   0.50727958   -8.2703415    714.92282  0.012773778  0.011329229            6 
 4665000   0.51205255   -8.2722036    715.28031  0.012777426  0.011325529            5 
 4666000    0.5182676    -8.279674    715.21805  0.012773576  0.011321833            4 
 4667000   0.50484681   -8.2781377    714.18883  0.012752461  0.011318137            4 
 4668000    0.5064326   -8.2796405    713.66412  0.012740362  0.011314442           10 
 4669000   0.49947999   -8.2905777    714.68563  0.012755866  0.011310749            4 
 4670000   0.50503282   -8.2660316    715.57152  0.012768942  0.011307056            4 
 4671000   0.50389082   -8.2935141    714.67632  0.012750238  0.011303365            5 
 4672000   0.50353208    -8.279534     715.1947  0.012756755  0.011299674            4 
 4673000   0.50341103   -8.2905952    716.13505  0.012770794  0.011295984            5 
 4674000   0.50294414   -8.2886211    714.80297  0.012744312  0.011292291            4 
 4675000   0.50948869   -8.2907338    715.14098  0.012747611  0.011288601            3 
 4676000   0.49811789    -8.296235    714.78445  0.012738531  0.011284916            5 
 4677000   0.49759439   -8.2871544    715.18754  0.012742989   0.01128123            4 
 4678000   0.51830734   -8.2910101    714.98269  0.012736616  0.011277545            5 
 4679000   0.50548735   -8.2968724    714.20336  0.012720014  0.011273858            4 
 4680000   0.49941334   -8.2863414    714.94332  0.012730472  0.011270173            8 
 4681000   0.49675589   -8.2938492    715.65677  0.012740454  0.011266491            5 
 4682000   0.50459159   -8.3013712    713.94814  0.012707321  0.011262809            4 
 4683000   0.50201795   -8.3145633     714.5517  0.012715348  0.011259128            6 
 4684000   0.50385046   -8.2986281    715.54449  0.012730296  0.011255449            4 
 4685000   0.49523109   -8.2993248    715.13573  0.012720308  0.011251775            6 
 4686000   0.49859881   -8.3017264    714.94765  0.012714249  0.011248102            6 
 4687000   0.50359369   -8.2844584    714.78117  0.012708576  0.011244429            4 
 4688000   0.48591975   -8.2931507      714.431  0.012699641  0.011240757            4 
 4689000    0.4986934   -8.2917468    715.16548  0.012709986  0.011237087            3 
 4690000   0.48733063     -8.26392     714.0212  0.012686944  0.011233417            6 
 4691000   0.49000046   -8.2935051    715.21609  0.012705466  0.011229748            5 
 4692000    0.4965049   -8.2899714    714.69136  0.012693438  0.011226083            4 
 4693000    0.5019531   -8.2883024    714.36858  0.012685002   0.01122242            5 
 4694000   0.49713783   -8.3067208    716.03646   0.01271191  0.011218755            5 
 4695000   0.50591969   -8.2949391    713.94766  0.012672128  0.011215095            5 
 4696000   0.49614964   -8.2818607    714.13601  0.012672771  0.011211438            5 
 4697000   0.50434399   -8.2931905    713.48785  0.012658574  0.011207782            6 
 4698000   0.50844277    -8.285902    715.18995  0.012686071  0.011204126            3 
 4699000   0.49500445   -8.2843809    713.58616  0.012654929   0.01120047            6 
 4700000   0.49357083   -8.3037084    715.30234  0.012682666  0.011196816            7 
 4701000   0.49679421   -8.2945437    714.35483  0.012663172  0.011193164            4 
 4702000   0.50542597   -8.2879444    714.20919  0.012657897  0.011189514            3 
 4703000   0.49417088   -8.3074401    714.70071  0.012663915  0.011185862            3 
 4704000   0.50371249   -8.2925415    713.77201  0.012644771  0.011182214            6 
 4705000    0.5050234   -8.2975429    714.06912  0.012647345  0.011178565            3 
 4706000   0.50512246    -8.309641    714.14517  0.012646005   0.01117492            4 
 4707000   0.49774297   -8.3015975    714.29221  0.012645921  0.011171275            4 
 4708000   0.48952347   -8.3009904     713.8247   0.01263496  0.011167632            5 
 4709000    0.4972553   -8.3059452    713.98254   0.01263507  0.011163988            6 
 4710000   0.50357571   -8.3086833    714.43713  0.012640431  0.011160347            4 
 4711000   0.51313399   -8.2987837    714.67725  0.012641995  0.011156709            5 
 4712000   0.49973215   -8.2975319    715.58613  0.012655386  0.011153073            5 
 4713000   0.49014052   -8.2880187    714.31705  0.012630261  0.011149437            5 
 4714000     0.508205   -8.2919469    714.60194  0.012632618  0.011145799            3 
 4715000   0.48779023    -8.309152     714.0498   0.01262018  0.011142165            5 
 4716000   0.50150563   -8.2986097    714.50401   0.01262553  0.011138535            4 
 4717000   0.49144491    -8.296535    713.55088  0.012606015  0.011134904            5 
 4718000   0.48652755    -8.291974    713.65472  0.012605177  0.011131276           10 
 4719000    0.4985077   -8.2881288     712.9063   0.01258929  0.011127645            6 
 4720000    0.4944209   -8.3108156    714.59611  0.012616457  0.011124012            4 
 4721000   0.51077369   -8.3024098    714.57709  0.012613449  0.011120389            4 
 4722000   0.50590073   -8.3176407    714.44656  0.012608474  0.011116765            4 
 4723000   0.49592533   -8.3001702    714.39171  0.012604836  0.011113144            5 
 4724000   0.49865679   -8.3054972    715.10417  0.012614736  0.011109521            4 
 4725000   0.49552643   -8.2901681    715.11369  0.012612234  0.011105902            4 
 4726000   0.49720842   -8.2947315     713.7477  0.012585479  0.011102281            7 
 4727000    0.4971501   -8.2972119    713.60721   0.01258034  0.011098661            5 
 4728000   0.49798676    -8.293702    714.56925  0.012594636  0.011095045            6 
 4729000   0.49594526   -8.3035779    713.66962  0.012576119  0.011091427            4 
 4730000   0.48886635   -8.3104807    714.29706  0.012584515   0.01108781            4 
 4731000   0.49389768    -8.301126     713.9271  0.012575338  0.011084199            8 
 4732000   0.48998484   -8.2981272    714.47358  0.012582304  0.011080589            5 
 4733000   0.49008599   -8.2941706    713.76708  0.012567207  0.011076979            5 
 4734000   0.48445345   -8.3024385    714.53498   0.01257807  0.011073367            4 
 4735000    0.4935413   -8.3027946    713.41008  0.012555616  0.011069759            6 
 4736000   0.49153791   -8.3125045    713.33118  0.012551576  0.011066151            5 
 4737000   0.48870598   -8.3163505    713.75408  0.012556366  0.011062547            4 
 4738000   0.49876699   -8.3093919    714.19918  0.012561545  0.011058943            4 
 4739000   0.50119377   -8.3061978    713.56494  0.012547741   0.01105534            5 
 4740000   0.48517443   -8.3039335    712.86175  0.012532731  0.011051738            9 
 4741000   0.49559625   -8.3114456    713.91667   0.01254863  0.011048139            5 
 4742000   0.48467384   -8.3070282    713.46086  0.012537974  0.011044542            6 
 4743000   0.48105259   -8.2998807    713.96865  0.012544252  0.011040946            4 
 4744000   0.48535067   -8.2999093    714.06663  0.012543329  0.011037352            5 
 4745000    0.4860829   -8.3078584    714.14276  0.012542022  0.011033757            7 
 4746000   0.49030349   -8.3040788    713.45111  0.012527235  0.011030166            8 
 4747000   0.49310338   -8.3007519     714.5498  0.012543884  0.011026575            5 
 4748000   0.48612895   -8.3360297    715.73078   0.01256197  0.011022989            7 
 4749000    0.4942904   -8.3254363    714.10477  0.012530792    0.0110194            5 
 4750000   0.49020298    -8.302482    713.79872  0.012522784  0.011015813            6 
 4751000   0.49244908   -8.3151275    714.74134  0.012536682  0.011012231            9 
 4752000   0.49185627   -8.3150425     713.6845  0.012515511   0.01100865            4 
 4753000   0.50705767   -8.3028244    714.05896  0.012519443  0.011005068            7 
 4754000   0.48964848   -8.3103972    712.77293  0.012494267  0.011001488            7 
 4755000   0.49318892   -8.3008092    714.23236  0.012517216  0.010997912            5 
 4756000   0.49451817   -8.3213751    714.01598  0.012510793  0.010994333            6 
 4757000   0.49480402   -8.3084909    713.61831  0.012501197  0.010990759            2 
 4758000   0.49569305   -8.3154004    713.38908  0.012494554  0.010987184            8 
 4759000   0.50121009   -8.3141189    713.73004  0.012497899  0.010983615           10 
 4760000   0.49443204   -8.3226626    713.44477   0.01249028  0.010980046            5 
 4761000   0.48979059   -8.3169975    714.25888  0.012501906  0.010976479            4 
 4762000   0.49026573   -8.3074897    713.68723  0.012489277  0.010972909            6 
 4763000   0.49318705   -8.3178675    713.90409  0.012490449  0.010969342            3 
 4764000   0.49512414   -8.3224532    713.72114  0.012484627  0.010965781            3 
 4765000   0.49369366   -8.3111322    714.55086  0.012496517  0.010962216            6 
 4766000   0.47505626   -8.3196124    713.47269  0.012475043  0.010958653            5 
 4767000   0.48841561   -8.3138187    714.37127  0.012488135  0.010955089            5 
 4768000   0.48702351   -8.3217908    713.84107  0.012476249  0.010951531            7 
 4769000    0.4824251   -8.3087133    714.13464  0.012478763  0.010947972            5 
 4770000   0.48505712   -8.3054126    713.37774  0.012462923  0.010944415            8 
 4771000   0.48559972   -8.3051529     713.7764  0.012467274  0.010940861            5 
 4772000   0.48604664   -8.3190941    713.76065  0.012464387  0.010937305            5 
 4773000   0.48250858    -8.316382    713.04303  0.012449246  0.010933753            8 
 4774000   0.48565142   -8.2790298    713.58645  0.012456124  0.010930202            3 
 4775000     0.480203   -8.3164116    713.27634  0.012448104  0.010926652            4 
 4776000   0.48856432     -8.32363    713.96467  0.012457507  0.010923102            4 
 4777000   0.49838515   -8.3230006     713.5149  0.012447054  0.010919553            6 
 4778000   0.48799894   -8.3154987    713.02468  0.012435899  0.010916008            8 
 4779000   0.48794757   -8.3026003    713.48174  0.012441266  0.010912466            4 
 4780000   0.48964247   -8.3105754    714.22445  0.012451612  0.010908922            6 
 4781000   0.48188719   -8.3301409    714.02948  0.012445609  0.010905381            3 
 4782000   0.48303654   -8.3137063    714.90245  0.012458219  0.010901842            9 
 4783000   0.49054364   -8.3222423     714.3728  0.012446387  0.010898303            4 
 4784000   0.48930331   -8.3099178     713.6098  0.012430494  0.010894764            6 
 4785000   0.48498001   -8.3148529    713.20179   0.01242079  0.010891227            5 
 4786000   0.48467944   -8.3146871     714.0811  0.012433506  0.010887694            7 
 4787000   0.48812669   -8.3082627    713.55935  0.012421826  0.010884161            3 
 4788000   0.48389909   -8.3177992    713.19086  0.012412818  0.010880627           11 
 4789000   0.49247332   -8.3150875    713.63636  0.012417978  0.010877095            5 
 4790000   0.48495772   -8.2981305    712.66367  0.012398463  0.010873564            9 
 4791000   0.47322843   -8.3205692     713.5903  0.012411993  0.010870034            4 
 4792000   0.48439523   -8.3329153    714.33997   0.01242244  0.010866508            4 
 4793000   0.49327436   -8.3036872    713.72833  0.012409214  0.010862982            5 
 4794000   0.46910341   -8.3140708     713.9035   0.01240967  0.010859459            5 
 4795000   0.48795948   -8.3345444    712.30644  0.012379326  0.010855936            4 
 4796000   0.48260793   -8.3333201    713.54705  0.012398302  0.010852414            4 
 4797000   0.48673957   -8.3251684    713.81799  0.012400424  0.010848889            4 
 4798000   0.48240254   -8.3198961    713.05641  0.012384612  0.010845366            3 
 4799000   0.48564288    -8.292916    712.77573  0.012377157  0.010841851            7 
 4800000   0.47039213    -8.328821    713.39372  0.012385308  0.010838336            6 
 4801000   0.48135588   -8.3205551    713.51096  0.012384763  0.010834821            4 
 4802000   0.49575419   -8.3267342    712.97592  0.012372899  0.010831304            4 
 4803000    0.4786967   -8.3245689    712.99551  0.012370663  0.010827792            3 
 4804000   0.49035794   -8.3189795    713.36106  0.012374429   0.01082428            7 
 4805000   0.47619306   -8.3287374    713.52965  0.012374777  0.010820769            5 
 4806000    0.4904977   -8.3130263    714.25605  0.012384798  0.010817258            4 
 4807000   0.48549142   -8.3115352    713.18111  0.012363586  0.010813747            6 
 4808000    0.4943705   -8.3145317     713.6886  0.012369811  0.010810241            7 
 4809000   0.49175859   -8.3140539    714.11124  0.012374562  0.010806735            5 
 4810000   0.48219269   -8.3314669    712.43307  0.012342915  0.010803231           12 
 4811000    0.4852477   -8.3117029    713.57911  0.012360201  0.010799728            5 
 4812000   0.48511112   -8.3317898    715.03175  0.012382789  0.010796229            5 
 4813000   0.48538673   -8.3079185    713.95281  0.012361535  0.010792732            3 
 4814000    0.4817711   -8.3255313    713.57046  0.012352348  0.010789235            6 
 4815000   0.47742843    -8.320267    712.81448  0.012336699   0.01078574            7 
 4816000   0.48799937   -8.3314834    712.83973  0.012334575  0.010782245            9 
 4817000   0.48273639   -8.3395692    714.01382  0.012352325   0.01077875            4 
 4818000   0.47251974   -8.3211178    712.90192   0.01233053  0.010775259            5 
 4819000   0.49104987   -8.3130353    713.47118  0.012337815  0.010771765            6 
 4820000   0.48416105   -8.3446977    713.47077  0.012335249  0.010768274            8 
 4821000   0.48598062   -8.3337736    712.78607  0.012320854  0.010764781            3 
 4822000   0.48239637   -8.3254299    712.77823  0.012318164  0.010761294            4 
 4823000   0.48112944   -8.3276151     713.2999  0.012324623  0.010757807            7 
 4824000   0.48199117   -8.3111525    713.41204  0.012324006  0.010754324            4 
 4825000   0.48962855   -8.3123965    713.88614   0.01232964  0.010750841            5 
 4826000   0.47903847   -8.3359005    711.96577  0.012293925  0.010747359            3 
 4827000   0.46967634    -8.320201    713.28876  0.012314218  0.010743876            7 
 4828000   0.47887103   -8.3300339    714.30841  0.012329267  0.010740394            7 
 4829000   0.48021577   -8.3108342    712.39292  0.012293658  0.010736913            7 
 4830000   0.47657387   -8.3176987    714.45657  0.012326718  0.010733434            4 
 4831000     0.489776   -8.3313517    712.03867  0.012282458  0.010729957            7 
 4832000   0.48687915   -8.3425923    713.68072  0.012308235  0.010726483            7 
 4833000   0.47788963   -8.3298366    713.21643  0.012297683  0.010723011            6 
 4834000   0.47613023    -8.316564     713.9721  0.012308166   0.01071954            4 
 4835000   0.48759314   -8.3362388    712.86434  0.012286528  0.010716068            5 
 4836000     0.483958   -8.3441516    713.27616  0.012291084    0.0107126            7 
 4837000   0.47637299   -8.3372191    712.28715  0.012271504  0.010709129            5 
 4838000   0.48048239   -8.3296164    711.95791  0.012263296  0.010705661           10 
 4839000   0.47258358   -8.3246929    712.80094   0.01227528  0.010702195            8 
 4840000   0.47313039   -8.3298891    712.80373  0.012272792  0.010698732            6 
 4841000   0.47270304   -8.3277864    713.65231  0.012284864  0.010695266            9 
 4842000   0.48270705   -8.3326683    713.57165  0.012280938  0.010691806            5 
 4843000   0.47640553   -8.3360222    712.79225  0.012264992  0.010688344            7 
 4844000    0.4704454   -8.3312781    713.17437  0.012269033  0.010684884            3 
 4845000   0.46571841   -8.3478097    711.65041  0.012240289  0.010681427            6 
 4846000   0.47847981   -8.3226421    713.60338  0.012271347  0.010677971            5 
 4847000   0.47676421   -8.3202089    713.44836   0.01226615  0.010674515            4 
 4848000   0.47359854    -8.336338    712.94517  0.012254971  0.010671062            8 
 4849000   0.48040335   -8.3236285    712.68947  0.012248049   0.01066761            3 
 4850000   0.47698513   -8.3355059     712.5203  0.012242617  0.010664164            3 
 4851000      0.48463   -8.3310592    714.24447  0.012269712  0.010660717            4 
 4852000    0.4730261   -8.3335189    712.33203  0.012234337  0.010657272            6 
 4853000   0.47592544   -8.3357878    711.94324   0.01222514  0.010653825            7 
 4854000   0.48048827   -8.3465993    712.57333  0.012233438  0.010650379            9 
 4855000   0.47776319   -8.3488824    712.64537  0.012232155  0.010646935            4 
 4856000   0.46633061   -8.3415173    712.55652  0.012228112  0.010643491            4 
 4857000   0.48047352   -8.3367654    713.31633   0.01223863  0.010640049            6 
 4858000   0.46899047    -8.331159    712.78325  0.012226967  0.010636606            7 
 4859000   0.47015412   -8.3491901    712.92237  0.012226836  0.010633168            8 
 4860000   0.46839815   -8.3469834    713.18998  0.012228909   0.01062973            5 
 4861000   0.47211723    -8.323712    712.30051  0.012211145  0.010626292            9 
 4862000   0.47837063   -8.3418732    713.04246   0.01222135  0.010622857            5 
 4863000   0.47334023    -8.335982    712.55491  0.012210482  0.010619423            5 
 4864000   0.46733195   -8.3216048     712.3988  0.012205297  0.010615992           10 
 4865000   0.46741919   -8.3521162     713.4691  0.012221122   0.01061256            6 
 4866000   0.47078419   -8.3377037    713.88497  0.012225732  0.010609129            5 
 4867000   0.47389129   -8.3491423    713.58074  0.012218011  0.010605705            7 
 4868000   0.48129019   -8.3314153    712.81936  0.012202468  0.010602278            4 
 4869000    0.4792364   -8.3174609    712.89523   0.01220126  0.010598857            5 
 4870000   0.47101413   -8.3341583    712.08724  0.012184929  0.010595436            6 
 4871000   0.47594951   -8.3395496    712.74306  0.012193647  0.010592013            6 
 4872000   0.47246961   -8.3274792    713.04524  0.012196313   0.01058859            4 
 4873000   0.47109049   -8.3328896    712.83408  0.012190199  0.010585173            5 
 4874000   0.46649885   -8.3492665    712.73314  0.012185972  0.010581754            4 
 4875000   0.46813059   -8.3373768    712.96191  0.012187383  0.010578339            7 
 4876000   0.46642798   -8.3499655    712.92826  0.012184309  0.010574925            7 
 4877000   0.47329581   -8.3341538     713.1129  0.012184965  0.010571511            7 
 4878000   0.47503318   -8.3459544    714.25565  0.012201989  0.010568099            5 
 4879000   0.47410412   -8.3440804    712.38668  0.012167566   0.01056469            5 
 4880000   0.46754653   -8.3447019    713.32081  0.012181025   0.01056128            7 
 4881000   0.46865682   -8.3517001    713.91551  0.012188682  0.010557872            5 
 4882000   0.48137658   -8.3371336    713.20048  0.012173981  0.010554466            9 
 4883000   0.47540989   -8.3446006    712.96168  0.012167412  0.010551063            5 
 4884000   0.46472844   -8.3299354     711.9824  0.012148212  0.010547659            5 
 4885000   0.47117766   -8.3448061    712.73173  0.012158508   0.01054426            4 
 4886000   0.46573375   -8.3423721    713.51585  0.012169393  0.010540861            6 
 4887000   0.46953511   -8.3542668    714.45617  0.012182937  0.010537464            9 
 4888000   0.47312093   -8.3448824    712.07308  0.012139817  0.010534066            5 
 4889000   0.47917768   -8.3492518    712.60631  0.012146422  0.010530669            4 
 4890000   0.47074948   -8.3365837     712.7584   0.01214653   0.01052727            5 
 4891000    0.4663381   -8.3525845    713.32427  0.012153688  0.010523874            7 
 4892000   0.46488966   -8.3438057    713.08273  0.012147089  0.010520481            5 
 4893000   0.47465428   -8.3496387    713.14379  0.012145647   0.01051709            4 
 4894000   0.45926856   -8.3555417    713.05901  0.012141721  0.010513697            3 
 4895000   0.47807931   -8.3450726    712.48141  0.012129408  0.010510306            5 
 4896000   0.47010845   -8.3515591    712.41552  0.012125809  0.010506919            7 
 4897000    0.4593542   -8.3577523    712.61456   0.01212672  0.010503531            4 
 4898000   0.46159797   -8.3533282    713.26993  0.012135394  0.010500146            5 
 4899000   0.47567751    -8.348939    712.99282  0.012128203  0.010496759            3 
 4900000   0.46321135   -8.3543363    713.37653  0.012132254  0.010493375            3 
 4901000    0.4666038   -8.3450708     712.6364  0.012117194  0.010489993            5 
 4902000   0.47325747   -8.3461718    712.12554  0.012106037  0.010486611            6 
 4903000   0.46634269   -8.3495354    712.98845  0.012118235  0.010483235            3 
 4904000   0.47543449    -8.356428    713.34868  0.012121885  0.010479858            6 
 4905000   0.45723176   -8.3546492    712.58991  0.012106522  0.010476481            8 
 4906000   0.47739569   -8.3490442    711.97697  0.012093643  0.010473105            3 
 4907000   0.47092284   -8.3665945    711.21038   0.01207816  0.010469731            5 
 4908000   0.46819328   -8.3356081    712.00749  0.012089233  0.010466357            4 
 4909000    0.4559733   -8.3399437    712.77978  0.012099881  0.010462986            3 
 4910000   0.46781018   -8.3695978    712.99463  0.012101063  0.010459616            5 
 4911000    0.4723215   -8.3424753    711.82472  0.012078747  0.010456248            4 
 4912000   0.46328263   -8.3508615    712.67298  0.012090679  0.010452883            6 
 4913000   0.45887397   -8.3487395    712.99735   0.01209372  0.010449517            3 
 4914000   0.47293543   -8.3479375    712.47295  0.012082366  0.010446152            4 
 4915000   0.46297865   -8.3451705    711.81271  0.012068713  0.010442788            4 
 4916000   0.47448005   -8.3590996     713.6894  0.012098071  0.010439426            3 
 4917000   0.46406976   -8.3590195    712.10295  0.012068723  0.010436064            4 
 4918000   0.44687355   -8.3485539    712.70983  0.012076553  0.010432705            4 
 4919000   0.46759592   -8.3482444    711.72111  0.012057347  0.010429344            3 
 4920000   0.46963203   -8.3672476     711.9376  0.012058564   0.01042599            3 
 4921000   0.47276487   -8.3446649    712.16998  0.012060048  0.010422632            4 
 4922000   0.47091969   -8.3525562    712.29274  0.012059677  0.010419277            5 
 4923000   0.45839024   -8.3747541    711.43542  0.012042715  0.010415923            4 
 4924000   0.46107824   -8.3650535    712.48791  0.012058081  0.010412568            3 
 4925000   0.46963636   -8.3504678    712.11951  0.012049399  0.010409216            4 
 4926000   0.45748964   -8.3619869    712.99745  0.012061806  0.010405866            3 
 4927000   0.46714889   -8.3540135    712.83934  0.012056683  0.010402517            4 
 4928000   0.47301738    -8.340337     712.1482  0.012042549   0.01039917            3 
 4929000   0.46890857   -8.3454925    712.60594  0.012047845  0.010395826            6 
 4930000   0.45209519   -8.3548685    711.71825  0.012030396  0.010392482            5 
 4931000   0.44731791   -8.3414374    711.90433  0.012031101  0.010389138            3 
 4932000   0.46475303   -8.3516604    711.27197  0.012017977  0.010385796            7 
 4933000   0.46292164   -8.3681747    710.80242  0.012007609  0.010382459            5 
 4934000   0.46116229   -8.3505724    712.57862  0.012035175   0.01037912            3 
 4935000   0.46395555   -8.3730766    712.88133  0.012037848  0.010375784            2 
 4936000   0.46277451   -8.3553873    712.17364  0.012023461   0.01037245            3 
 4937000   0.46527574   -8.3394881    712.60608  0.012028325  0.010369115            3 
 4938000   0.46481597   -8.3626233      713.066  0.012033651  0.010365785            3 
 4939000   0.45614144   -8.3580612     711.7601   0.01200918  0.010362454            6 
 4940000   0.45890456   -8.3716908    712.25134  0.012015036  0.010359123            7 
 4941000    0.4525949   -8.3485399    711.79308  0.012004876  0.010355792            3 
 4942000   0.45562332   -8.3674577    711.83749  0.012003195  0.010352464            4 
 4943000   0.46411667   -8.3890301    711.32762  0.011992171  0.010349136            4 
 4944000   0.46395371   -8.3632992    712.98541  0.012017688  0.010345808            4 
 4945000   0.45841022   -8.3603817    712.31451  0.012003952  0.010342479            7 
 4946000   0.46433487   -8.3513995    711.74594  0.011991945  0.010339154            8 
 4947000   0.46674902   -8.3678785    711.69735  0.011988703  0.010335831            5 
 4948000   0.46839517   -8.3611689    712.84209  0.012005559  0.010332512            5 
 4949000   0.46226082   -8.3599402    712.40602  0.011995791  0.010329189            6 
 4950000   0.46535192   -8.3581258    711.68351  0.011981204   0.01032587            3 
 4951000   0.46088984    -8.358952    711.97603  0.011983708  0.010322555            3 
 4952000   0.44756756   -8.3609217    712.30371  0.011986802   0.01031924           10 
 4953000   0.46165074   -8.3671849    712.80877  0.011992879  0.010315926            5 
 4954000   0.45022239   -8.3577845    712.55508  0.011986191  0.010312615            3 
 4955000   0.46062422   -8.3736114    711.69494  0.011969306  0.010309301            6 
 4956000   0.46044669   -8.3588622    711.70797   0.01196711  0.010305992            6 
 4957000   0.45208965   -8.3600537    711.70969  0.011964725  0.010302684            5 
 4958000   0.46650404   -8.3536128    712.78524  0.011980389  0.010299376            6 
 4959000   0.47576694   -8.3623589    712.50249  0.011973222   0.01029607            7 
 4960000   0.45467867    -8.372982    711.85859   0.01195999  0.010292767            4 
 4961000   0.46224924   -8.3546642    712.56386  0.011969426  0.010289464            6 
 4962000   0.45974699   -8.3555811    711.58082  0.011950504  0.010286161            5 
 4963000   0.45302563    -8.360926     710.9869  0.011938124   0.01028286            3 
 4964000   0.45425415   -8.3711098    711.68764  0.011947483  0.010279559            4 
 4965000    0.4519937   -8.3625771     711.7389  0.011945936  0.010276261            7 
 4966000   0.46384262   -8.3586921    711.61176  0.011941398  0.010272965            5 
 4967000    0.4614304   -8.3681247    712.26457  0.011949946  0.010269668            3 
 4968000   0.46043455   -8.3683819     712.3056  0.011948229  0.010266372            5 
 4969000   0.46019716   -8.3631068    712.11677  0.011942657  0.010263079            4 
 4970000   0.44806406   -8.3640052    711.53508  0.011930501  0.010259788            9 
 4971000   0.44844443   -8.3483387    711.51924  0.011927835  0.010256498            6 
 4972000   0.45492823   -8.3735946     711.4975  0.011925072  0.010253207            4 
 4973000   0.44733678   -8.3741943    712.26975  0.011935615  0.010249917            6 
 4974000   0.45682492    -8.371985    712.36729  0.011934849  0.010246631            4 
 4975000   0.45745309   -8.3755917    712.48796  0.011934472  0.010243345            3 
 4976000   0.45465831   -8.3612052    711.19838  0.011910477   0.01024006            6 
 4977000    0.4484994   -8.3797915    710.99694  0.011904711  0.010236776            5 
 4978000   0.46214543    -8.359777    711.94928  0.011918262  0.010233495            6 
 4979000   0.45885442   -8.3693261    711.90785  0.011915175  0.010230215            9 
 4980000   0.45214919     -8.38107    712.20638  0.011917777  0.010226936            8 
 4981000   0.45791448   -8.3809572    712.70998   0.01192381  0.010223656            4 
 4982000   0.45155306   -8.3555844    711.88086  0.011907548  0.010220381            6 
 4983000   0.45904949   -8.3685437     711.5633  0.011899848  0.010217103            5 
 4984000   0.45080757   -8.3671047    711.08852  0.011889522  0.010213827            6 
 4985000   0.45882486   -8.3716207     711.0835  0.011887053  0.010210553            3 
 4986000   0.45959592    -8.373714     711.2928  0.011888167  0.010207282            4 
 4987000   0.44371208   -8.3716831    712.31171  0.011902809  0.010204012            7 
 4988000   0.45017735   -8.3664531    711.74128  0.011890893   0.01020074            3 
 4989000   0.45707572   -8.3696886    712.60381  0.011902917   0.01019747            4 
 4990000   0.44868565   -8.3794163     711.3325    0.0118793  0.010194203            5 
 4991000   0.45523769   -8.3714326    712.09009  0.011889569  0.010190934            6 
 4992000   0.44569633   -8.3746895    711.70364  0.011880737  0.010187668            4 
 4993000   0.44436602   -8.3738379    710.57239  0.011859477  0.010184404           13 
 4994000   0.44763083   -8.3771948    711.49167  0.011872441  0.010181142            6 
 4995000   0.45958607    -8.386024    711.68911  0.011873359  0.010177881            4 
 4996000   0.44919401   -8.3611958    712.18527  0.011879258  0.010174623            7 
 4997000   0.44871017    -8.368782    711.34651  0.011862893  0.010171366            7 
 4998000   0.44453469   -8.3692332    711.84894  0.011868897   0.01016811            4 
 4999000   0.44913924   -8.3789463    711.23967  0.011856366  0.010164858            7 
 5000000   0.45149758   -8.3804913    712.08705  0.011868117  0.010161606            4 
 5001000   0.45008013   -8.3556125    712.11199   0.01186616  0.010158354            6 
 5002000   0.44091212   -8.3726338     711.5013  0.011853614  0.010155105            4 
 5003000   0.45522082   -8.3703907    712.09399  0.011861116  0.010151855            3 
 5004000   0.43947812   -8.3837115    711.68416  0.011851921  0.010148609            4 
 5005000   0.44452543   -8.3837951    711.29053  0.011842999  0.010145361            6 
 5006000   0.45323492   -8.3559431     712.4307  0.011859613  0.010142116            5 
 5007000   0.44851251   -8.3710584    711.50355  0.011841814  0.010138872            5 
 5008000   0.44912451    -8.375475    710.99473  0.011830983   0.01013563            5 
 5009000   0.45748907    -8.376388    711.44443  0.011836102  0.010132386            5 
 5010000   0.44935209   -8.3445904    710.90836  0.011824823  0.010129145            5 
 5011000   0.47098733   -8.3812965    712.48258  0.011848643  0.010125907            4 
 5012000   0.45724192   -8.3781133    711.46664  0.011829387  0.010122672            4 
Loop time of 11602.3 on 48 procs for 5000000 steps with 4000 atoms

Performance: 74468.153 tau/day, 430.950 timesteps/s
99.4% CPU use with 48 MPI tasks x no OpenMP threads

MPI task timing breakdown:
Section |  min time  |  avg time  |  max time  |%varavg| %total
---------------------------------------------------------------
Pair    | 734.95     | 774.41     | 833.15     |  73.3 |  6.67
Neigh   | 75.887     | 78.882     | 81.594     |  16.3 |  0.68
Comm    | 707.57     | 765.69     | 816.37     |  85.1 |  6.60
Output  | 13.846     | 13.851     | 13.93      |   0.3 |  0.12
Modify  | 9841.8     | 9863.8     | 9886.9     |  10.9 | 85.02
Other   |            | 105.7      |            |       |  0.91

Nlocal:        83.3333 ave          89 max          75 min
Histogram: 2 1 2 1 4 18 5 6 3 6
Nghost:        1964.88 ave        1982 max        1945 min
Histogram: 2 3 6 3 7 9 2 6 9 1
Neighs:        12551.4 ave       13968 max       11238 min
Histogram: 4 1 8 4 11 3 9 2 3 3
FullNghs:      25103.1 ave       27084 max       22228 min
Histogram: 1 1 1 5 8 10 8 3 6 5

Total # of neighbors = 1204948
Ave neighs/atom = 301.23700
Neighbor list builds = 268339
Dangerous builds = 2

#clear
#
#next RN
#
#jump SELF
Total wall time: 3:13:25
