
units lj                  # Use reduced LJ style units
atom_style atomic         # Uncharged point particles
atom_modify map hash      # Needed for indexing of clusters etc
                          # Used to be able to find where atoms are in relation to each other.

lattice fcc 1.0 spacing 1 1 1
Lattice spacing in x,y,z = 1.5874011 1.5874011 1.5874011
region box block 0 10 0 10 0 10 units lattice
create_box 2 box
Created orthogonal box = (0.0000000 0.0000000 0.0000000) to (15.874011 15.874011 15.874011)
  3 by 4 by 4 MPI processor grid
create_atoms 1 box
Created 4000 atoms
  using lattice units in orthogonal box = (0.0000000 0.0000000 0.0000000) to (15.874011 15.874011 15.874011)
  create_atoms CPU = 0.005 seconds
set type 1 type/fraction 2 0.67 78393
Setting atom values ...
  2693 settings made for type/fraction
mass 1 1.0
mass 2 1.0
pair_style lj/cut  3.5
pair_modify tail  yes
pair_coeff 1  1  1.0  1.0   # Intearaction between 1 and 1 set with epsilon = 1 and sigma = 1
pair_coeff 1  2  1.5  0.8
pair_coeff 2  2  0.5  0.88

write_data data.0
System init for write_data ...
Neighbor list info ...
  update every 1 steps, delay 10 steps, check yes
  max neighbors/atom: 2000, page size: 100000
  master list distance cutoff = 3.8
  ghost atom cutoff = 3.8
  binsize = 1.9, bins = 9 9 9
  1 neighbor lists, perpetual/occasional/extra = 1 0 0
  (1) pair lj/cut, perpetual
      attributes: half, newton on
      pair build: half/bin/atomonly/newton
      stencil: half/bin/3d
      bin: standard
WARNING: Not all mixed pair coeffs generated from mixing. Use write_data with 'pair ij' option to store all pair coeffs. (../write_data.cpp:312)


#############################
#   M E L T   S Y S T E M   #
#############################

velocity all create 2.4 6583654 mom yes dist gaussian # Assign velocities
                                                    # Temperature 2.4, random number seed, zero linear momentum
                                                                                # Gaussian distribution

timestep 0.002   # simulation timestep
thermo 1000       # output thermodynamic data every 1000 steps bf 100

# Define a fix  in this case with index 1 applied to all
# particles in the simulation. This fix is for simulations
# in the anisotropic NPT ensemble. Note that we use the MTK
# correction.
fix 1 all npt temp 2.4 2.4 0.1 iso 5.68 5.68 0.5 mtk yes tchain 5 pchain 5 # Use NPT ensemble
                                                                         # Set temperature and pressure and damping
                                                                         # Numbers of thermostats in chain and in barostat
run 10000          # run for 10000 steps
Per MPI rank memory allocation (min/avg/max) = 3.642 | 3.644 | 3.648 Mbytes
Step Temp E_pair E_mol TotEng Press Volume 
       0          2.4   -4.3445498            0  -0.74544977   -3.8717164         4000 
    1000    2.4046814   -4.0385136            0  -0.43239318      5.88753    3598.9039 
    2000    2.4092969   -4.0302928            0  -0.41725092    5.8192692    3623.0829 
    3000    2.4169424   -4.0205725            0  -0.39606535    5.7667731    3629.5315 
    4000    2.4010757   -4.0411178            0  -0.44040465    5.7555244     3625.214 
    5000    2.3806838   -3.9883681            0  -0.41823524    5.7378701    3640.7999 
    6000    2.3497362   -4.0357997            0  -0.51207664    5.8810558    3592.9501 
    7000     2.423403   -4.0410308            0  -0.40683506    6.0529615    3599.6986 
    8000    2.3845792   -4.0468375            0  -0.47086296    5.2603512     3653.997 
    9000    2.3788265   -3.9811511            0  -0.41380329    5.9822632    3630.7398 
   10000    2.3194877   -4.0721645            0  -0.59380287    5.3862802    3626.4814 
Loop time of 2.68872 on 48 procs for 10000 steps with 4000 atoms

Performance: 642684.591 tau/day, 3719.240 timesteps/s
99.6% CPU use with 48 MPI tasks x no OpenMP threads

MPI task timing breakdown:
Section |  min time  |  avg time  |  max time  |%varavg| %total
---------------------------------------------------------------
Pair    | 1.2051     | 1.2766     | 1.3728     |   3.0 | 47.48
Neigh   | 0.221      | 0.22557    | 0.23281    |   0.5 |  8.39
Comm    | 0.78952    | 0.88433    | 0.97402    |   3.6 | 32.89
Output  | 0.00025247 | 0.00025717 | 0.00032481 |   0.0 |  0.01
Modify  | 0.26929    | 0.28603    | 0.30201    |   1.9 | 10.64
Other   |            | 0.01592    |            |       |  0.59

Nlocal:        83.3333 ave          93 max          73 min
Histogram: 2 2 4 7 5 8 8 3 5 4
Nghost:        1746.40 ave        1780 max        1716 min
Histogram: 2 0 10 7 9 9 4 2 3 2
Neighs:        10515.8 ave       11933 max        8908 min
Histogram: 2 1 8 4 8 4 8 5 5 3

Total # of neighbors = 504759
Ave neighs/atom = 126.18975
Neighbor list builds = 906
Dangerous builds = 227

# Equilibrate just above the melting temperature to avoid step fn in T

fix 1 all npt temp 1.25 1.25 0.1 iso 5.68 5.68 0.5 mtk yes tchain 5 pchain 5
run 2000
Per MPI rank memory allocation (min/avg/max) = 3.644 | 3.646 | 3.650 Mbytes
Step Temp E_pair E_mol TotEng Press Volume 
   10000    2.3194877   -4.0721645            0  -0.59380287    5.3862802    3626.4814 
   11000    1.2414632    -5.919457            0   -4.0577278    5.8684036     2766.396 
   12000    1.2607581   -5.9856041            0   -4.0949398    5.9017069    2747.6935 
Loop time of 0.676819 on 48 procs for 2000 steps with 4000 atoms

Performance: 510623.952 tau/day, 2955.000 timesteps/s
99.6% CPU use with 48 MPI tasks x no OpenMP threads

MPI task timing breakdown:
Section |  min time  |  avg time  |  max time  |%varavg| %total
---------------------------------------------------------------
Pair    | 0.30399    | 0.3312     | 0.36284    |   2.3 | 48.93
Neigh   | 0.042025   | 0.044438   | 0.047249   |   0.6 |  6.57
Comm    | 0.21706    | 0.25042    | 0.28098    |   3.0 | 37.00
Output  | 5.3957e-05 | 5.5137e-05 | 6.996e-05  |   0.0 |  0.01
Modify  | 0.042831   | 0.045667   | 0.049355   |   0.8 |  6.75
Other   |            | 0.005044   |            |       |  0.75

Nlocal:        83.3333 ave          92 max          74 min
Histogram: 1 2 4 8 6 9 9 5 1 3
Nghost:        2123.88 ave        2147 max        2108 min
Histogram: 3 6 6 7 10 10 1 4 0 1
Neighs:        13904.9 ave       16209 max       12280 min
Histogram: 2 4 8 10 9 7 3 3 1 1

Total # of neighbors = 667437
Ave neighs/atom = 166.85925
Neighbor list builds = 142
Dangerous builds = 10

#############################
# L I N E A R  Q U E N C H  #
#############################

# Define solid atoms. This closely follows ten Wolde  Ruiz-Montero and Frenkel  Faraday Discuss  1996  104  93-110
# Compute components of the per-atom q6 vector
compute q6 all orientorder/atom degrees 1 6 components 6 nnn NULL cutoff 1.3 # compute the Q6 parameter.
                                                                             # Use all neighbours within 1.3 unit cell.

# get number of connections
compute coord_number all coord/atom orientorder q6 0.5

# An atom is solid if it has 8 or more connections (of a possible 14)
variable is_solid atom c_coord_number>=8
group solid dynamic all var is_solid    # Must be dynamic to update
dynamic group solid defined

# do clustering
compute cluster solid cluster/atom 1.3 # Create a cluster where all atoms within are solid and max 1.3 units from another member

# define chunks one chunk per cluster
compute clus_chunks solid chunk/atom c_cluster nchunk every compress yes  # Says which atoms are in which chunk

# count the size of each chunk
compute size_chunks solid property/chunk clus_chunks count


# Find the maximum entry in the vector of chunk sizes
variable max_n equal max(c_size_chunks)


# Thermo style which includes this variable
# thermo_style custom step temp pe vol v_max_n

thermo ${N}  # Print the thermo information every 100 steps
thermo 1000  

# Reset the npt fix at a lower temperature (below freezing)
fix 1  all npt temp  ${temp} ${temp}  0.1  iso  5.68  5.68  0.5  mtk yes tchain  5  pchain  5
fix 1  all npt temp  0.45 ${temp}  0.1  iso  5.68  5.68  0.5  mtk yes tchain  5  pchain  5
fix 1  all npt temp  0.45 0.45  0.1  iso  5.68  5.68  0.5  mtk yes tchain  5  pchain  5

dump dmp2 all dcd ${N} traj.dcd
dump dmp2 all dcd 1000 traj.dcd


compute msd all msd com yes
variable twopoint equal c_msd[4]/6/(step*dt+1.0e-6)
fix 9 all vector 10 c_msd[4]
variable fit equal slope(f_9)/6/(10*dt)
thermo_style custom step temp pe c_msd[4] v_twopoint v_fit v_max_n

fix 1 all npt temp 1.25 ${temp} 0.1 iso 5.68 5.68 0.5 mtk yes tchain 5 pchain 5
fix 1 all npt temp 1.25 0.45 0.1 iso 5.68 5.68 0.5 mtk yes tchain 5 pchain 5
run 5000000 # 5000000  # Run for this many steps
Neighbor list info ...
  update every 1 steps, delay 10 steps, check yes
  max neighbors/atom: 2000, page size: 100000
  master list distance cutoff = 3.8
  ghost atom cutoff = 3.8
  binsize = 1.9, bins = 8 8 8
  4 neighbor lists, perpetual/occasional/extra = 1 3 0
  (1) pair lj/cut, perpetual
      attributes: half, newton on
      pair build: half/bin/atomonly/newton
      stencil: half/bin/3d
      bin: standard
  (2) compute orientorder/atom, occasional
      attributes: full, newton on
      pair build: full/bin/atomonly
      stencil: full/bin/3d
      bin: standard
  (3) compute coord/atom, occasional
      attributes: full, newton on
      pair build: full/bin/atomonly
      stencil: full/bin/3d
      bin: standard
  (4) compute cluster/atom, occasional
      attributes: full, newton on
      pair build: full/bin/atomonly
      stencil: full/bin/3d
      bin: standard
Per MPI rank memory allocation (min/avg/max) = 9.849 | 9.853 | 9.856 Mbytes
Step Temp PotEng c_msd[4] v_twopoint v_fit v_max_n 
   12000    1.2607581   -5.9856041 8.212042e-31 5.7028067e-33 8.3333333e+20            3 
   13000    1.2428658     -6.02608   0.56811248 0.0036417465  0.047349454            2 
   14000    1.2449761   -5.9385867     1.125961 0.0067021487  0.046209512            3 
   15000    1.2343131    -5.985132    1.7036132 0.0094645176  0.046628288            3 
   16000    1.2381632   -5.9976461    2.2548288    0.0117439  0.046975292            2 
   17000    1.2292306   -6.0038009    2.7938983   0.01369558  0.046808987            3 
   18000    1.2427578   -5.9845528    3.3484568  0.015502114    0.0465445            3 
   19000    1.2432089   -6.0119687    3.8540927  0.016903915  0.045989166            4 
   20000    1.2554002    -6.014356    4.3553607  0.018147336  0.045508134            3 
   21000    1.2688899   -6.0172197    4.8651555  0.019306172  0.045177167            4 
   22000    1.2619076   -5.9884196    5.4396263  0.020604645  0.044945504            5 
   23000    1.2530677   -5.9970867    6.0325264  0.021856979  0.045107789            2 
   24000    1.2299957   -5.9721964    6.6720464  0.023166827  0.045373293            2 
   25000    1.2218019    -5.988751    7.2407937  0.024135979  0.045656427            3 
   26000     1.266575   -5.9819468    7.6466613  0.024508529  0.045649021            2 
   27000    1.2594937   -5.9938527    8.0832988  0.024948453  0.045350507            2 
   28000    1.2745733   -5.9866603    8.5449228  0.025431318  0.045068538            3 
   29000    1.2561392   -5.9837177    9.0952408  0.026135749  0.044752346            2 
   30000    1.2752438   -6.0025688    9.6016174  0.026671159  0.044468956            2 
   31000    1.2414123   -5.9800199     10.04865  0.027012499  0.044258775            2 
   32000    1.2357782    -6.028719    10.461282   0.02724292  0.043998665            2 
   33000    1.2629042   -5.9735189    11.039376   0.02787721    0.0437587            3 
   34000    1.2469516   -6.0080836    11.559077  0.028331072  0.043576592            2 
   35000    1.2550234    -5.963707    12.096036  0.028800085  0.043410073            2 
   36000    1.2413593   -6.0087405    12.620827  0.029214876  0.043335024            2 
   37000    1.2512894   -6.0731357    12.982112  0.029238991  0.043230271            8 
   38000     1.233946    -5.987475    13.595773  0.029815291  0.043164877            2 
   39000    1.2614049   -6.0402384    14.043429  0.030007326  0.043086845            3 
   40000    1.2468508   -6.0152249    14.648065  0.030516801  0.043059377            1 
   41000    1.2721826   -6.0018194    15.223688  0.030942455  0.043041696            6 
   42000    1.2466394   -6.0318116    15.687774  0.031126536  0.043054888            1 
   43000     1.219948   -5.9847554    16.342119  0.031670773  0.043045072            1 
   44000    1.2874705   -5.9765253    16.906219  0.032019353  0.043099079            2 
   45000    1.2172098   -5.9753842    17.551161  0.032502149  0.043178437            3 
   46000    1.2591602   -5.9869984    18.117279  0.032821157  0.043296283            3 
   47000    1.2592123   -5.9852364     18.58611  0.032954095  0.043390585            2 
   48000    1.2432359   -5.9853262    19.126947  0.033206505  0.043480083            3 
   49000     1.241157   -6.0023624    19.787912  0.033652912   0.04357202            2 
   50000    1.2408231   -5.9853063    20.359157  0.033931928  0.043687783            2 
   51000    1.2580115   -6.0118269    20.949252  0.034230803  0.043784839            2 
   52000    1.2531253   -6.0196003    21.410224  0.034311256   0.04388517            3 
   53000    1.2619313   -6.0278746    22.006826  0.034601927  0.043975751            2 
   54000    1.2741359   -5.9639601    22.530306   0.03476899  0.044054622           11 
   55000    1.2150335   -5.9965132    23.022491  0.034882561  0.044113716            4 
   56000    1.2658526   -6.0362242    23.514726  0.034992152  0.044147608            2 
   57000    1.2317982   -6.0071073    23.922967  0.034975098  0.044173058            2 
   58000    1.2523646   -6.0154021     24.56889  0.035300129  0.044184565            1 
   59000    1.2527409   -6.0021988    25.141411  0.035510467  0.044210226            3 
   60000    1.2363647   -6.0447847    25.460648  0.035362011  0.044220997            2 
   61000    1.2607355   -5.9723966    26.187185  0.035774843  0.044222191            6 
   62000    1.2283168   -5.9913019    26.733492  0.035932113   0.04423657            2 
   63000    1.2442758   -5.9647497    27.210421   0.03599262  0.044242526            1 
   64000    1.2200957   -5.9795237    27.847513  0.036259782  0.044260053            3 
   65000    1.2310702   -6.0496797    28.280502  0.036257053  0.044278596            2 
   66000    1.2332223   -5.9574471    28.916101  0.036510228  0.044304275            3 
   67000    1.2418637   -5.9863132    29.514999  0.036710197  0.044338617            1 
   68000    1.2185142   -6.0154976    30.085587  0.036869592  0.044368187            2 
   69000    1.2713416   -6.0162922    30.377458  0.036687751  0.044373796            3 
   70000    1.2221451   -5.9718661    31.148507  0.037081555  0.044394383            1 
   71000     1.248543   -6.0591369    31.489534  0.036959546  0.044416203            3 
   72000    1.2209516   -6.0149523    32.223829  0.037296098  0.044437857            2 
   73000    1.2639462   -5.9823176    32.743508  0.037378434  0.044464764            2 
   74000    1.2464459   -6.0372876    33.171695  0.037355512  0.044484082            1 
   75000    1.2548219   -6.0246664    34.014439  0.037793821  0.044519345            4 
   76000    1.2395894   -6.0099895     34.58321  0.037920186  0.044561845            2 
   77000    1.2697409   -6.0351482    35.189885   0.03808429  0.044609419            3 
   78000    1.2439682   -6.0581016    35.597484    0.0380315  0.044651678            2 
   79000    1.2527851   -6.0011039    36.354606   0.03834874  0.044690448            5 
   80000    1.2091933   -5.9868276    37.038397  0.038581663  0.044732185            2 
   81000    1.2532609   -5.9966429    37.694548  0.038780399  0.044797561            2 
   82000    1.2484443   -6.0157267    38.200904  0.038822057   0.04487667            3 
   83000    1.2363916   -6.0176097    38.825987  0.038981914  0.044952752            4 
   84000    1.2460712   -6.0054212    39.453693  0.039140568   0.04502101            2 
   85000    1.2375451   -6.0069969    40.119835  0.039333171  0.045094448            4 
   86000    1.2139168   -6.0636763    40.265902  0.039017347  0.045147194            3 
   87000    1.2241864   -6.0100224      40.9355  0.039210249  0.045185551            2 
   88000    1.2321272   -5.9732087    41.499137  0.039298425  0.045223002            2 
   89000    1.2404658   -6.0000846     42.05464  0.039377004  0.045271905            1 
   90000    1.2111171   -6.0130985    42.522362  0.039372557  0.045316187            2 
   91000    1.2582845      -6.0043     43.21123  0.039570724  0.045348668            3 
   92000    1.2441757   -6.0138655    43.758448  0.039636275  0.045380624            2 
   93000    1.2464935   -6.0304185    44.298639  0.039694121   0.04540307            3 
   94000    1.2304623   -6.0089173    44.879498  0.039786788  0.045431968            3 
   95000     1.278833   -6.0162553    45.561643  0.039966353  0.045470008            2 
   96000     1.212677   -5.9380673    46.452153  0.040323049  0.045522409            2 
   97000    1.2181438   -6.0431441    46.531543  0.039975552   0.04555874            4 
   98000    1.2315996   -5.9699648    47.163714  0.040105199  0.045583278            3 
   99000    1.2569142   -6.0361134    47.470973  0.039958731   0.04560004            3 
  100000    1.2613721   -6.0011275    48.146885  0.040122404  0.045617919            2 
  101000    1.2181103   -6.0298593    48.785067  0.040251705  0.045641127            2 
  102000    1.2279211   -6.0217517    49.265644  0.040249709  0.045661938            2 
  103000    1.2438099   -5.9731405    50.072666  0.040511865  0.045680131            2 
  104000    1.2184794   -6.0002209    50.601466  0.040546046  0.045708921            2 
  105000    1.2355381   -5.9715976    51.528788  0.040895863  0.045747243            4 
  106000    1.2487784   -6.0312798    52.101177  0.040960045  0.045782172            1 
  107000    1.2132131   -6.0563344    52.261106  0.040701796  0.045821235            3 
  108000    1.2377399   -6.0286387    52.960947  0.040864928  0.045848528            3 
  109000    1.2534979   -6.0328221    53.371324  0.040803765  0.045873205            4 
  110000    1.2120893   -6.0426633    54.050909  0.040947658  0.045898386            3 
  111000    1.2334884   -6.0052551    54.669124  0.041042886  0.045929205            2 
  112000    1.2222395   -6.0029601    55.022991  0.040939726   0.04595617            4 
  113000    1.2476959   -6.0265971    55.474285   0.04091024  0.045968488            3 
  114000     1.241197   -6.0304959     56.14257   0.04103989  0.045985903            3 
  115000    1.2189057   -6.0767722     56.34683  0.040831036  0.045994099            1 
  116000    1.2538424   -6.0014922    57.358533  0.041205843  0.046003417            1 
  117000    1.2324541   -6.0311501    57.569913  0.041004211  0.046011047            2 
  118000    1.2312319   -5.9997432    58.117038  0.041043106  0.046012965            2 
  119000    1.2308216   -6.0573857    58.495311  0.040963103  0.046015364            1 
  120000    1.2572864   -6.0187742     59.25921  0.041152229  0.046020427            2 
  121000    1.2426101    -6.055229    59.863745  0.041228474  0.046031579            3 
  122000    1.2189032   -6.0686066    60.582408  0.041381426  0.046046563            2 
  123000    1.2539025    -6.044716    61.196904  0.041461317   0.04606326            2 
  124000     1.272847   -6.0087851     61.54413  0.041360302  0.046075218            2 
  125000    1.2287467   -6.0186554    62.387652  0.041591768  0.046084261            2 
  126000    1.2061538   -6.0391472    62.731901  0.041489352  0.046096085            4 
  127000    1.2245982   -6.0287723    63.215206  0.041479794   0.04610823            2 
  128000     1.227958   -6.0403974     63.99439  0.041663014  0.046116891            4 
  129000    1.2159262   -6.0412606    64.262022  0.041512934   0.04612618            5 
  130000    1.2500077   -5.9953455    65.022833  0.041681303  0.046130278            2 
  131000    1.2061053   -6.0426471    65.258132  0.041512807  0.046132553            4 
  132000    1.2018709   -6.0359758    65.798421  0.041539407  0.046133774            5 
  133000    1.2280598   -5.9962443    66.715649  0.041801785  0.046142815            2 
  134000    1.2389506   -6.0579512    67.288525  0.041846098  0.046149561            1 
  135000    1.2417385   -6.0166203    67.510116  0.041672911  0.046153406            1 
  136000    1.2220523    -6.013288    68.073269  0.041711562  0.046154603            5 
  137000    1.2423541    -5.986366    68.704788  0.041791233   0.04615001            2 
  138000    1.2182093   -6.0549426    68.703687  0.041487734  0.046140797            2 
  139000    1.2262414    -6.057581    69.084091  0.041417321  0.046120651            3 
  140000    1.2096407   -6.0366805    69.311783  0.041257013  0.046095257            3 
  141000    1.2654825   -6.0214846    69.831073   0.04127132  0.046069825            2 
  142000    1.2085681   -5.9998853    70.621406  0.041444487  0.046041236            1 
  143000    1.2384163   -6.0362665    71.056124  0.041407997  0.046017619            3 
  144000    1.2349785   -6.0288431    71.050445  0.041117156  0.045991042            6 
  145000    1.2426403   -6.0192845    71.842218  0.041288631  0.045959684            2 
  146000    1.2264826   -6.0144314    72.117473  0.041162941  0.045923834            2 
  147000    1.2474675   -6.0063479    72.836326  0.041290434  0.045884964            2 
  148000     1.208753   -6.0842401    72.761785  0.040969474  0.045844636            4 
  149000     1.237429   -6.0517224    73.239581  0.040961734  0.045800474            2 
  150000      1.22439   -6.0399729    73.809689  0.041005383  0.045756373            3 
  151000    1.2318434   -6.0691493    74.465131  0.041095547  0.045710298            2 
  152000    1.2479488   -6.0555077     74.98835  0.041112034  0.045672926            3 
  153000    1.2439634   -6.0381835    75.509682  0.041127278  0.045637948            3 
  154000    1.2316537   -6.0430762    76.210171   0.04123927  0.045602847            4 
  155000    1.2270899   -6.0634863    76.650217  0.041209794  0.045570358            2 
  156000    1.2307793   -6.1096114    77.044816  0.041156418  0.045538937            3 
  157000    1.2170231   -6.0510816    77.830307  0.041311203   0.04550892            3 
  158000    1.2349137   -6.0545841    78.168719  0.041228227   0.04547837            2 
  159000    1.2226838   -5.9978414     78.82955  0.041315277  0.045446762            4 
  160000    1.2248418   -6.0382911    78.715355   0.04099758  0.045408557            4 
  161000    1.2374294   -6.0624351    78.653988  0.040711174  0.045366363            3 
  162000      1.23654   -6.0127709    79.881788  0.041091455  0.045326631            2 
  163000    1.2517219   -6.0635078     80.33539  0.041071263  0.045290408            4 
  164000    1.2114603   -6.0237186    80.985638  0.041151239  0.045252844            2 
  165000    1.2091366   -6.0526387    80.932567  0.040875034  0.045215739            3 
  166000    1.2200318   -6.0231905    81.583881  0.040955764  0.045173854            3 
  167000    1.2170058   -6.0481918    82.378283  0.041106927  0.045132584            4 
  168000    1.2514313   -6.0220192    82.650072  0.040997059  0.045095787            3 
  169000    1.2125202   -6.0505682    83.067467  0.040960289   0.04505754            3 
  170000    1.2199224   -6.0560798    83.455041  0.040909334  0.045014355            2 
  171000    1.2312861   -6.0624211    84.019686  0.040945266  0.044975135            1 
  172000    1.2286931   -6.0954645    84.276005  0.040831397   0.04493398            3 
  173000    1.2495189   -6.0503245    84.965164  0.040927343  0.044893032            2 
  174000     1.234189   -6.0554173    85.610171   0.04100104  0.044854768            1 
  175000    1.2080168   -6.0519991    85.540973  0.040733796  0.044815824            4 
  176000    1.1830565   -6.0542475    86.454081  0.040934697  0.044777201            5 
  177000    1.2100417   -6.0690261    86.994095  0.040957672  0.044738757            2 
  178000    1.2103335   -6.0945091    87.192665  0.040820536  0.044698155            1 
  179000    1.2139866   -6.0550957    87.586468  0.040775823  0.044655013            4 
  180000    1.2411313   -6.0853483    87.659798   0.04058324  0.044614841            2 
  181000    1.2006456   -6.0868072    88.352458  0.040677927  0.044576222            3 
  182000    1.2126995   -6.0902198    89.091049  0.040792605  0.044538546            7 
  183000    1.2341278   -6.0234337     89.94633  0.040959167  0.044503662            2 
  184000    1.2130544   -6.0439318    89.916624  0.040723109  0.044466751            3 
  185000     1.200799   -6.1206292    90.297841  0.040674703  0.044424635            2 
  186000    1.2466458   -6.0718148    90.520615  0.040555831  0.044385503            5 
  187000    1.2311962   -6.0417047    91.395975  0.040729044  0.044347254            1 
  188000    1.2143245   -6.1210611    91.636265  0.040618911   0.04430956            2 
  189000    1.2262116   -6.0466802    92.487477  0.040779311  0.044273719            2 
  190000     1.212445   -6.0200128    92.859217  0.040727726  0.044239145            1 
  191000    1.2587148   -6.0369843    93.669837  0.040868166  0.044207404            5 
  192000    1.2383961   -6.0702222    93.694302   0.04066593   0.04417225            4 
  193000     1.216423   -6.0966116    94.437258  0.040776018  0.044139484            5 
  194000    1.2211094   -6.0646348    94.973202  0.040796049  0.044108596            2 
  195000    1.2166295   -6.0353135     95.34794  0.040746983  0.044078891            4 
  196000    1.2258377   -6.1050357    95.966079  0.040801904  0.044051127            2 
  197000    1.2365676   -6.0436449    96.873944  0.040978825  0.044025077            2 
  198000    1.2147829   -6.0958419    97.190528  0.040905104  0.043997743            2 
  199000    1.2486077   -6.0880031    97.425627  0.040798001  0.043968459            1 
  200000    1.2051072   -6.0445834    98.227153   0.04092798  0.043943321            1 
  201000    1.2161974   -6.0509836    98.509271  0.040841323  0.043918847            1 
  202000    1.2072447   -6.0442001    99.261698  0.040949545  0.043893556            2 
  203000    1.2516839   -6.0154221    99.989939  0.041046773  0.043866152            2 
  204000    1.2036884   -6.0636136    100.04484  0.040867988  0.043840602            2 
  205000    1.2194967   -6.0491144     100.6048  0.040896259  0.043816839            2 
  206000    1.2177676   -6.0338397    101.64811  0.041119787  0.043795479            2 
  207000    1.2009193    -6.063424    101.45506  0.040843424  0.043773208            2 
  208000    1.1838897   -6.0572119    102.25093  0.040965918  0.043750114            2 
  209000    1.2204349   -6.0434312    102.57456  0.040898948  0.043726117            3 
  210000    1.2356942   -6.0806227    103.05815  0.040896092  0.043703583            2 
  211000    1.2169844   -6.0573256    103.78091  0.040987721  0.043683604            2 
  212000    1.2053767   -6.0823422    104.06141  0.040904643  0.043665769            1 
  213000    1.2282219   -6.0365981    105.15521  0.041140537  0.043648911            3 
  214000    1.2173851   -6.0508846    105.33499  0.041018297  0.043630453            1 
  215000    1.2021064   -6.1020838    105.50234  0.040892379  0.043608636            4 
  216000    1.2367027   -6.0732973    105.91142  0.040860887  0.043583535            5 
  217000    1.2151648     -6.05921    106.42136   0.04086842  0.043560827            2 
  218000    1.2144495   -6.0797556    106.47322  0.040700771  0.043537079            3 
  219000    1.2336767   -6.0120198    107.40923  0.040871091  0.043512969            5 
  220000    1.1971588    -6.041482    108.34443  0.041039555  0.043490694            1 
  221000    1.2010863   -6.0732402    108.03799  0.040738308  0.043468952            4 
  222000    1.1837446   -6.0725223     108.9321  0.040890426  0.043448545            6 
  223000    1.2451595   -6.0740097    109.64957  0.040975176  0.043430425            4 
  224000    1.1951488   -6.0688519    110.51331  0.041113582  0.043414044            2 
  225000    1.1833884   -6.0103001    111.51301  0.041301114  0.043400496            3 
  226000     1.234658   -6.0929316     111.5133  0.041118473  0.043388168            1 
  227000    1.2007042   -6.0737427    112.04742  0.041133413   0.04337372            2 
  228000     1.220989    -6.002276    113.28031  0.041403623  0.043362366            2 
  229000    1.2335868   -6.0929024    112.85268  0.041067206  0.043349522            3 
  230000      1.22323   -6.0896255    112.80252  0.040870479  0.043332425            2 
  231000    1.2221269   -6.0636925    113.62612  0.040990665  0.043313621            3 
  232000    1.2385695   -6.0467861    114.68005  0.041192548  0.043299437            1 
  233000    1.1957686   -6.0673261     114.7927  0.041056044  0.043285582            3 
  234000    1.2215269   -6.0503968    115.39834  0.041096274   0.04327275            2 
  235000    1.2241702   -6.0747956    115.36104  0.040908169  0.043262001            4 
  236000    1.2153221   -6.0565586     116.9871  0.041309003  0.043249491            6 
  237000    1.2215988   -6.0728028    117.17588  0.041201081  0.043240507            8 
  238000     1.208248   -6.0976456    117.92913  0.041291711  0.043231155            2 
  239000    1.2191039    -6.066264    118.69562  0.041386201  0.043222937            2 
  240000    1.2076982   -6.0730334     118.7204  0.041222362  0.043214575            2 
  241000    1.2041489   -6.0736455    119.41832  0.041292642  0.043204596            1 
  242000    1.2082991   -6.0607881      119.807  0.041255855  0.043194683            3 
  243000    1.1997274   -6.0485934    119.89603   0.04111661   0.04318377            1 
  244000    1.1918746   -6.0482348    120.36158  0.041107097  0.043172024            3 
  245000    1.2134109   -6.0970987    120.48779  0.040982243  0.043160789            3 
  246000    1.2344291   -6.0604982    121.66545  0.041214584  0.043149659            2 
  247000    1.2130402   -6.0769287    121.90265  0.041127751  0.043138147            1 
  248000    1.2121866   -6.1116297    122.11929  0.041034708  0.043127571            6 
  249000    1.2090023   -6.0577964    122.75786   0.04108362  0.043116955            1 
  250000    1.2332514    -6.032746    124.00841  0.041336138  0.043107322            1 
  251000    1.2236954   -6.0584134    123.99412  0.041166706  0.043096108            2 
  252000    1.2358932   -6.0441162    124.61318  0.041208063  0.043088773            1 
  253000    1.2262306   -6.1009004    125.10363  0.041206728  0.043082223            2 
  254000    1.2109078   -6.0918808    125.75923  0.041259588  0.043074802            2 
  255000    1.2322933   -6.0808289    126.20574  0.041243705  0.043066784            5 
  256000    1.2070388   -6.0879324    126.25459    0.0410985   0.04305588            2 
  257000    1.2063829   -6.0444123    127.25588  0.041263257  0.043043965            3 
  258000    1.1946356   -6.0872877    127.10851  0.041055721  0.043034403            3 
  259000    1.2429758   -6.0483439    127.52277  0.041030493  0.043023612            2 
  260000    1.2243563   -6.0739774    127.99846  0.041025149  0.043012555            2 
  261000    1.2294508   -6.0418553    128.69766  0.041091208  0.043002981            4 
  262000    1.1796203   -6.0151216    129.74351  0.041267019  0.042993737            5 
  263000    1.2048528   -6.0979225     129.7553  0.041113848  0.042985177            1 
  264000    1.2210612   -6.0961067    130.38363   0.04115645  0.042973893            2 
  265000    1.2316349   -6.0446613     131.3568   0.04130717   0.04296481            4 
  266000    1.2088839   -6.1098314    131.18159   0.04109699  0.042956384            1 
  267000    1.2012161   -6.0999352    131.86967  0.041157825  0.042949011            2 
  268000    1.1846813   -6.0499725    132.48827  0.041196602   0.04294298            2 
  269000    1.2052836   -6.0876426    133.08391  0.041227977  0.042935219            2 
  270000    1.2066771   -6.0912722    133.38191  0.041167257  0.042926552            2 
  271000    1.2327924   -6.0502245    134.78442  0.041446622  0.042919378            1 
  272000    1.2140069   -6.1211132    134.20098  0.041115495  0.042912558            2 
  273000    1.2174489   -6.1015963    134.48718  0.041052251  0.042903767            3 
  274000    1.2137709   -6.0692256    135.85994  0.041319933  0.042894988            2 
  275000    1.2158744   -6.0835287    136.09103  0.041239706  0.042886991            2 
  276000     1.199099   -6.0416314    137.05002  0.041379836  0.042880915            1 
  277000    1.1794309   -6.0838305    137.05334   0.04123145  0.042874291            3 
  278000     1.213953   -6.1106441    137.59874  0.041246626  0.042864181            4 
  279000    1.2184707   -6.1438121    137.56891  0.041089877   0.04285377            4 
  280000    1.2004036   -6.0709804    137.92828  0.041050082  0.042844328            3 
  281000    1.2007904   -6.0845301    138.97879  0.041215537  0.042836442            1 
  282000    1.1918222   -6.0978414    139.35444  0.041180391  0.042829366            6 
  283000    1.1901293   -6.0723283    140.02676  0.041232851  0.042820919            3 
  284000    1.1942845   -6.0226771    140.81853  0.041319992   0.04281428            2 
  285000    1.1998868   -6.1243955    140.58198  0.041105842  0.042807199            3 
  286000    1.2260286     -6.05199    142.14365  0.041417146  0.042798407            4 
  287000    1.2218086   -6.0913747    141.30522  0.041029391    0.0427895            2 
  288000    1.1966941   -6.0506271    142.27172  0.041166586  0.042782474            2 
  289000    1.2020829   -6.0488131    142.59466   0.04111726   0.04277306            3 
  290000    1.2006384   -6.1229312    142.26747  0.040881457  0.042762014            6 
  291000    1.2093445   -6.1651956     143.0551  0.040966523  0.042750542            6 
  292000    1.1988183   -6.0777327    143.89961  0.041067242   0.04273987            4 
  293000     1.202082   -6.0891219    144.50732  0.041099921  0.042731064            2 
  294000    1.1839168   -6.1047844    145.16677  0.041147043  0.042722187            2 
  295000    1.1950025   -6.1271741    145.40532  0.041074948  0.042712706            3 
  296000    1.2213132   -6.1144268    146.07346  0.041124284  0.042703443            2 
  297000      1.20684   -6.1091887    146.48537  0.041101393  0.042693069            3 
  298000     1.203615   -6.0858609    147.23172   0.04117218  0.042682588            3 
  299000    1.1867671    -6.057733    147.18188  0.041020591  0.042672393            5 
  300000    1.2089512   -6.0717571    147.66056  0.041016823  0.042663905            6 
  301000    1.2099572   -6.0713971     147.9625  0.040964148  0.042653877            2 
  302000    1.2038818   -6.0407743     149.1348  0.041151988  0.042645645            1 
  303000     1.173638   -6.0824016    149.18532  0.041030065  0.042634908            2 
  304000    1.1809576   -6.1234082    149.59972  0.041008695  0.042624691            2 
  305000    1.2134789   -6.1024041    150.31654  0.041070093  0.042614299            2 
  306000     1.197797   -6.1019204    150.83191  0.041076228   0.04260448            1 
  307000    1.1731419   -6.0958318    151.31073  0.041072401  0.042593137            4 
  308000    1.2064317   -6.1503518    151.33494  0.040945601  0.042581368            2 
  309000    1.2132664   -6.1097666    151.40172  0.040831101  0.042569895            2 
  310000    1.2342063   -6.1080017    152.34334   0.04095251   0.04255758            4 
  311000    1.2000077   -6.1012736    152.55357  0.040877162  0.042546346            3 
  312000    1.1879059   -6.0931163    153.33998  0.040956191  0.042534975            3 
  313000    1.2030623   -6.0991498    153.75306   0.04093532  0.042524267            2 
  314000    1.2058526   -6.0908888    154.40138  0.040977011  0.042513887            6 
  315000    1.2301345   -6.0974529    154.27285  0.040812923  0.042501887            4 
  316000    1.1978856   -6.1061612    154.76599  0.040813816  0.042489734            4 
  317000    1.1948196   -6.1171087    155.04784  0.040759159  0.042478976            2 
  318000    1.2074283   -6.0875377    156.12346  0.040912855  0.042467709            2 
  319000    1.1769262   -6.1440139    155.83433  0.040709074  0.042455429            2 
  320000    1.1941343   -6.1388053    156.37247  0.040721997  0.042442664            1 
  321000    1.2123042   -6.0888352    158.31032  0.041098214  0.042430092            4 
  322000    1.1958098   -6.1071453    157.26333  0.040699621  0.042415728            1 
  323000    1.2059015   -6.0934993    158.00194  0.040764175  0.042401324            3 
  324000    1.1908762   -6.1026156    158.72198  0.040823553  0.042387142            5 
  325000    1.1915626   -6.0974405    158.94636  0.040755477  0.042372966            3 
  326000    1.1936833   -6.1192725    159.36171  0.040736634  0.042359839            2 
  327000    1.1963763   -6.0395445    160.44242  0.040887468  0.042348365            3 
  328000     1.184253     -6.09524    160.80083   0.04085387  0.042336823            4 
  329000    1.2205161   -6.1000893    161.03916  0.040790062  0.042325241            3 
  330000    1.2192422   -6.1071168    161.36702  0.040749248  0.042312681            2 
  331000    1.1783761   -6.1346107    161.95022  0.040772966  0.042300806            2 
  332000    1.2004363   -6.0933451     162.1494  0.040700152  0.042288669            4 
  333000    1.2001103   -6.0824594    163.70041  0.040966069   0.04227821            2 
  334000    1.1941194   -6.1555176    162.87019  0.040636276  0.042268373            2 
  335000    1.1628271   -6.1018606    163.92104  0.040776379  0.042257058            6 
  336000    1.1950495   -6.0778817    163.79097   0.04062276  0.042245825            1 
  337000    1.2093359   -6.1382799    164.60162  0.040702675   0.04223413            2 
  338000    1.2071821   -6.1284715    164.64241  0.040592309  0.042221288            2 
  339000    1.2337353   -6.1087003    165.25651  0.040623527  0.042208551            2 
  340000    1.1965968   -6.1052534    165.74362  0.040623435  0.042194507            3 
  341000    1.2115596   -6.0914118    166.21828  0.040620303  0.042178706            3 
  342000    1.1957415   -6.0576116    167.13647  0.040725261    0.0421662            1 
  343000    1.2070714   -6.1390688    166.89193  0.040547117  0.042152766            2 
  344000    1.1776933   -6.0761769    167.68662  0.040621759  0.042140812            3 
  345000    1.2280056    -6.068736    168.59738  0.040724006  0.042128408            5 
  346000    1.1978126   -6.1034295    168.43077  0.040566177  0.042114859            4 
  347000    1.2054897   -6.1190906    167.93768  0.040330856  0.042099829            2 
  348000     1.186056   -6.0941925     169.2276   0.04052385  0.042083797            7 
  349000     1.223528   -6.1226602    169.04079  0.040363131  0.042067151            2 
  350000    1.2126468   -6.0980961    169.43055  0.040340608  0.042049633            2 
  351000    1.1893162    -6.083423     170.3677  0.040448173  0.042033637            3 
  352000    1.1791259   -6.1125735    170.83942  0.040444938  0.042017525            2 
  353000      1.22198   -6.0763148    171.70182  0.040533953  0.042003555            3 
  354000    1.2095544   -6.1172834    172.32361  0.040565823  0.041990217            2 
  355000    1.1694358   -6.1003492    172.56796   0.04050891  0.041976352            6 
  356000    1.1916523   -6.1350995    173.00843  0.040498227  0.041962302            7 
  357000    1.2039856   -6.1530062      173.011  0.040385387  0.041948274            2 
  358000    1.2256354   -6.0510288    174.31101  0.040575188   0.04193495            3 
  359000    1.1989847   -6.0888692    175.02453  0.040627792  0.041922778            1 
  360000    1.2161862   -6.0855897    175.29648  0.040577888  0.041910411            5 
  361000    1.2052388   -6.1214319    175.50963  0.040514689  0.041897566            2 
  362000    1.1853041   -6.1560016    175.49799  0.040400091  0.041884258            3 
  363000    1.1856567   -6.1213456    175.63074   0.04031927   0.04187204            5 
  364000     1.202732   -6.1184094    176.13175  0.040323203  0.041859143            3 
  365000    1.1679246   -6.1366872    176.79778  0.040364789  0.041846775            2 
  366000    1.1685257   -6.1569311    177.68373  0.040456223  0.041834405            2 
  367000    1.1915115   -6.0989272    178.18003  0.040458681  0.041823584            4 
  368000    1.1720545   -6.1301812     178.8799  0.040507224  0.041812348            4 
  369000    1.1922463   -6.1276153    179.78349  0.040601511    0.0417993            2 
  370000    1.1801119   -6.1186354    179.57447  0.040444701  0.041786324            4 
  371000    1.1843541   -6.1059812    180.28146  0.040494489   0.04177508            2 
  372000    1.1920161   -6.0951496    180.45866  0.040425327  0.041764246            5 
  373000     1.181369   -6.1043322    180.76158  0.040384624  0.041752007            2 
  374000    1.1612347   -6.1302116    181.32048  0.040401176  0.041739032            1 
  375000    1.1915328   -6.0945809    182.10105  0.040466901  0.041725911            2 
  376000    1.1839781   -6.1210854     182.1183  0.040363098  0.041711257            5 
  377000    1.1828691   -6.0961238    182.17786    0.0402692  0.041698454            2 
  378000    1.1833805   -6.1553659    182.62833  0.040261978   0.04168517            4 
  379000    1.1962674   -6.0978814    183.37018  0.040318861  0.041671536            2 
  380000    1.1883336   -6.1131228    183.65821  0.040275923  0.041657498            2 
  381000    1.2110127   -6.1146389    184.11666  0.040270486  0.041642714            2 
  382000    1.1826901   -6.1571404    183.82906  0.040102326  0.041627928            3 
  383000    1.1949625   -6.1510863    184.75154  0.040198334  0.041612196            3 
  384000    1.2145225   -6.1376539    184.92597  0.040131504  0.041596583            3 
  385000    1.2076699   -6.1678339    185.45646  0.040142091   0.04158172            1 
  386000    1.1660702   -6.1397357    186.42352  0.040246875  0.041565774            5 
  387000    1.1979282    -6.161554    185.78493  0.040005369  0.041550171            5 
  388000    1.1757074   -6.1142517    187.00706  0.040164746  0.041535032            4 
  389000    1.1899933   -6.1771442    186.08905  0.039864834  0.041518897            4 
  390000    1.1915304   -6.1122891     187.4715  0.040058013  0.041502243            3 
  391000    1.1929033   -6.0748639     187.8684  0.040040153  0.041486992            4 
  392000    1.1791462   -6.1760533    187.66953  0.039895733  0.041471048            3 
  393000    1.1996755   -6.1080112    188.04098  0.039872981  0.041455266            2 
  394000    1.2020373   -6.1140652    189.17138  0.040010867  0.041438768            1 
  395000    1.2139747   -6.1181315    189.16913  0.039909099  0.041423502            2 
  396000    1.1873693   -6.1391952    189.94174  0.039970905  0.041408528            2 
  397000    1.1803877   -6.1500288     190.1686  0.039917842  0.041393482            2 
  398000    1.2001453   -6.1148556     190.8811   0.03996673  0.041378551            1 
  399000    1.1589078    -6.149314    191.37256  0.039969206  0.041364991            3 
  400000    1.2124025     -6.14648     192.0557  0.040011605  0.041351121            2 
  401000    1.2006441   -6.1072391    193.30528  0.040171505  0.041337752            3 
  402000    1.1875582   -6.1389309    193.36691  0.040084352  0.041326281            4 
  403000    1.1899101   -6.1730485    194.31817  0.040181591  0.041314323            1 
  404000     1.164866   -6.1263817    194.72039  0.040165098  0.041303502            2 
  405000    1.2063673   -6.1279553    194.88697  0.040100199   0.04129356            3 
  406000    1.1747814   -6.1314529     196.4168  0.040315435  0.041284743            2 
  407000    1.1860486   -6.1564523    195.86451  0.040103299  0.041276078            3 
  408000    1.1914416   -6.1470835     197.5992  0.040359314  0.041267858            1 
  409000    1.2002523   -6.1236227    197.96042  0.040334235  0.041258844            3 
  410000    1.1777624   -6.1415743    198.11701  0.040267685  0.041251033            2 
  411000    1.1985425   -6.1543853    198.58448  0.040264493  0.041243574            2 
  412000    1.1896365   -6.1187361    199.20966  0.040293216  0.041236084            2 
  413000    1.1760425   -6.1740385    200.12913  0.040381181  0.041228267            3 
  414000    1.1720172   -6.1259694      200.946  0.040448068  0.041220644            6 
  415000       1.1844   -6.1315315    201.01066  0.040363587  0.041213819            2 
  416000     1.163693   -6.1422839    201.35747  0.040336031  0.041205363            2 
  417000    1.1648955   -6.1394127    201.65926  0.040299612  0.041196403            1 
  418000    1.1856053   -6.1281951    202.57747  0.040386258  0.041188283            1 
  419000    1.1778838   -6.1687612    202.20651  0.040216092  0.041181005            2 
  420000    1.1999926   -6.1789238    202.38733  0.040156217   0.04117295            4 
  421000    1.1893072   -6.1398648    202.90762  0.040163821  0.041164722            2 
  422000    1.1703853   -6.1439078     204.0002  0.040284399   0.04115691            2 
  423000    1.2030136   -6.1384565    204.58651  0.040304671  0.041149451            3 
  424000    1.1824158   -6.0909667    205.28498   0.04034689  0.041141167            2 
  425000    1.1665313   -6.1400848    205.58678  0.040311132  0.041132422            4 
  426000    1.1993902   -6.0844955    206.06212  0.040309491  0.041124278            2 
  427000    1.2104886   -6.1202211    206.44392  0.040289601  0.041116946            2 
  428000     1.146819   -6.1509331    206.17182  0.040142489  0.041107801            2 
  429000    1.1692518   -6.1114667    207.30748  0.040269517  0.041098741            3 
  430000     1.174056    -6.143084     206.9788   0.04011217  0.041090296            2 
  431000    1.1903479   -6.1359676    207.72983  0.040164313  0.041081722            2 
  432000    1.1629646   -6.1170387    208.12947  0.040148431  0.041072585            3 
  433000    1.1918227   -6.1786429    208.09242  0.040048579   0.04106348            4 
  434000    1.1891522   -6.1238122    208.64927  0.040063224  0.041053687            1 
  435000    1.1887295   -6.1740135     209.4056  0.040116015  0.041044243            2 
  436000    1.1731856   -6.1226995    210.12282   0.04016109  0.041035415            2 
  437000    1.2017788   -6.1341063     210.5067  0.040142392  0.041026722            3 
  438000    1.1926303   -6.1124411    210.98692  0.040142109  0.041017906            2 
  439000    1.1971021   -6.1612977    211.69997  0.040186024   0.04100997            3 
  440000    1.1731333   -6.1263002    211.91486   0.04013539  0.041001419            3 
  441000    1.1744886   -6.1412942    211.98011  0.040056711  0.040993845            4 
  442000    1.1718578   -6.1226455    212.91095  0.040141581  0.040985381            1 
  443000     1.176265    -6.139046    213.23654  0.040112216  0.040977959            2 
  444000    1.1727111   -6.1330535    213.92029  0.040150205   0.04096926            1 
  445000    1.1903187   -6.1471587    214.91136  0.040245572  0.040961733            2 
  446000    1.1640132   -6.1530208    214.51692  0.040081636  0.040954688            4 
  447000    1.1812898    -6.196761    215.00006  0.040082039  0.040947075            4 
  448000    1.1847777   -6.1127556     216.3194  0.040237983  0.040939893            3 
  449000    1.1655485   -6.1301392    216.53303  0.040188017  0.040933112            2 
  450000      1.17956   -6.1571008    216.73611  0.040136317  0.040926444            1 
  451000    1.1640155   -6.1787268    216.27337  0.039961821  0.040918355            1 
  452000    1.2087457   -6.1246861    218.40059  0.040265596  0.040911213            1 
  453000     1.181625    -6.150883    217.62736  0.040034467  0.040903846            2 
  454000    1.1368158   -6.1560817    218.00118  0.040014902  0.040896355            3 
  455000    1.1859697   -6.1239581    218.99033   0.04010812  0.040887801            2 
  456000    1.1550674   -6.1727697    219.42447    0.0400995   0.04087986            5 
  457000    1.1864314   -6.1473609    220.15868  0.040145639  0.040872148            5 
  458000    1.1654803   -6.1410927    219.65195  0.039965784  0.040863541            4 
  459000    1.1714154   -6.1470507    220.85822  0.040097717  0.040855961            4 
  460000    1.1944335   -6.1931185    221.24617  0.040080827  0.040848314            4 
  461000    1.1673535   -6.1772085    221.71986  0.040079512  0.040841362            2 
  462000    1.1797739   -6.1800338     221.7578  0.039999603  0.040833186            2 
  463000    1.1683824   -6.1677941    221.70628  0.039903938  0.040824289            6 
  464000    1.1559274   -6.1290832    222.81416  0.040016911  0.040815219            2 
  465000    1.1707632   -6.1914732    221.98229  0.039781773  0.040806062            5 
  466000    1.1721251   -6.2037159    223.12702  0.039901112   0.04079607            2 
  467000    1.1613467   -6.1662848    222.93471  0.039781354  0.040786306            9 
  468000    1.1664797   -6.1646612    223.02385  0.039712223  0.040776368            2 
  469000    1.1866536   -6.1702278    224.82374   0.03994736  0.040766022            3 
  470000    1.1977217   -6.1476864    223.56042  0.039638372  0.040755579            6 
  471000    1.1819174   -6.1526641    225.27143  0.039856941  0.040745131            2 
  472000    1.1613276   -6.1562506    226.17149  0.039931407   0.04073369            3 
  473000    1.1773442   -6.1813607     225.7368  0.039770402  0.040722555            3 
  474000    1.1725039   -6.1667291    226.58628  0.039835843  0.040712264            1 
  475000    1.2121433   -6.1416028    226.55314  0.039746164   0.04070216            3 
  476000    1.1637856   -6.1240218    227.85756   0.03989103  0.040692194            2 
  477000    1.1805625   -6.1708155    227.62571  0.039766896  0.040681557            1 
  478000     1.184273   -6.1763984    227.72526  0.039701056  0.040670608            2 
  479000    1.1588923   -6.1927353    228.35116  0.039727063  0.040660789            4 
  480000    1.1795661   -6.1321819    229.58375   0.03985829  0.040651374            2 
  481000    1.1436251    -6.148886    230.03987  0.039854447  0.040643069            2 
  482000     1.203405   -6.1332014    230.44215  0.039841312  0.040634648            3 
  483000    1.2016422   -6.1198014    231.93824   0.04001695  0.040626436            3 
  484000    1.1738487    -6.175288    231.33668  0.039830696  0.040619214            2 
  485000    1.1696341   -6.1508144    231.80259  0.039828623  0.040611001            4 
  486000    1.2176723    -6.151753    232.90105  0.039935022  0.040602989            3 
  487000    1.1666669    -6.210497    231.93854  0.039688319  0.040595083            2 
  488000    1.1608344    -6.125598    233.64628  0.039898613  0.040587044            3 
  489000    1.1443496   -6.1655137    233.47602  0.039788006  0.040578958            2 
  490000    1.1886486   -6.1685243    234.09482  0.039812045  0.040570763            3 
  491000    1.1604685   -6.1806784    234.20531  0.039749712  0.040562398            2 
  492000    1.1824235   -6.1868513     234.9388  0.039793157  0.040553551            2 
  493000    1.1621486   -6.2144125    233.68224  0.039500041   0.04054365            4 
  494000    1.1690194   -6.1603805    235.60246  0.039744004  0.040534155            3 
  495000    1.1499402   -6.1597042    235.75804  0.039689905  0.040524787            2 
  496000    1.1713265   -6.1150666    237.31813  0.039871998  0.040515834            2 
  497000    1.1759464    -6.160691    236.05356  0.039579738  0.040506691            2 
  498000    1.1726159   -6.1646698    236.85011  0.039633552  0.040497165            5 
  499000    1.1712554   -6.1856467    237.23848  0.039618985  0.040487579            6 
  500000    1.1829961   -6.2357645    237.51402  0.039585669  0.040478045            3 
  501000    1.1654861   -6.1342144    238.89928  0.039737072  0.040468685            2 
  502000    1.1684522   -6.1791853    238.87179  0.039653351   0.04045927            3 
  503000     1.148149   -6.1732938    239.47768  0.039674898  0.040449663            1 
  504000    1.1427839   -6.1835416    238.63118  0.039456214  0.040439683            3 
  505000    1.1722978   -6.1999489     239.3518  0.039496997  0.040429306            4 
  506000    1.1867325   -6.1445517    239.99868  0.039525475  0.040419292            2 
  507000    1.1770995   -6.1306757    242.24868  0.039817338  0.040411197            2 
  508000    1.1634855    -6.204828    240.94641   0.03952533  0.040402105            3 
  509000    1.1700158   -6.1607581    241.24615   0.03949675  0.040393467            3 
  510000    1.1828336   -6.1157217    242.53107   0.03962926  0.040384459            5 
  511000    1.1861567   -6.1939013    242.28875  0.039512191    0.0403755            2 
  512000    1.1679203   -6.1811973    242.49788  0.039469057    0.0403658            3 
  513000    1.1640045   -6.1550704    243.79575  0.039602949  0.040355593            7 
  514000    1.1707158   -6.1483155    243.54171  0.039484714  0.040345829            2 
  515000     1.208477   -6.1485577    243.98305  0.039479459  0.040335984            2 
  516000    1.1998424   -6.2031529    244.48048  0.039483281  0.040325949            3 
  517000     1.158993   -6.1970304    244.40817  0.039395257  0.040315499            2 
  518000    1.1958037   -6.1809784    244.37443  0.039313775  0.040305071            3 
  519000    1.1641663   -6.2156689    244.77487  0.039302324  0.040294166            2 
  520000    1.1867362    -6.184764    246.33226  0.039476323  0.040283151            2 
  521000    1.1590312   -6.1905567    246.24419  0.039386467  0.040272344            2 
  522000    1.1725654   -6.1827771    247.95795  0.039584603  0.040262622            5 
  523000    1.1649115   -6.1585361    247.98009  0.039512443  0.040253412            2 
  524000    1.1752092   -6.1673147    248.27542  0.039484005  0.040244201            2 
  525000     1.159866   -6.2029801    247.59892  0.039301415  0.040233813            4 
  526000    1.1792271   -6.1251534    249.93819  0.039597305  0.040223861            1 
  527000    1.1602125   -6.1568828    248.71863  0.039329321  0.040214253            1 
  528000    1.1664542    -6.186002    249.03566  0.039304871   0.04020477            2 
  529000    1.1745951   -6.1922823    249.99821    0.0393822  0.040194923            2 
  530000    1.1651822   -6.1520881     251.1297  0.039485802  0.040185846            3 
  531000    1.1602055   -6.1948416    251.22045  0.039425683  0.040176923            1 
  532000     1.143174   -6.2177545    251.46935  0.039390562  0.040167091            2 
  533000    1.1760417   -6.2005358    252.26704  0.039441377  0.040157859            4 
  534000    1.1646259   -6.2030927     251.7367  0.039284754  0.040148894            2 
  535000    1.1576767   -6.1981043    252.89708  0.039392069  0.040139264            4 
  536000    1.1722497   -6.1803369    254.28229  0.039533938  0.040131715            3 
  537000    1.1696183   -6.2008464    254.00955  0.039417993   0.04012398            3 
  538000    1.1523907   -6.1381449    256.83289  0.039782046  0.040117605            3 
  539000    1.1704491   -6.2226961    254.87856  0.039406086  0.040111107            6 
  540000    1.1567401   -6.1691362    255.41666  0.039416152  0.040102725            4 
  541000    1.1509263    -6.162796    256.33124  0.039484172  0.040095169            2 
  542000    1.1616743   -6.1783683    256.44805  0.039429282  0.040087679            4 
  543000    1.1805039   -6.2028717    255.72362   0.03924549  0.040079481            3 
  544000    1.1611775   -6.2040444    256.07579  0.039227297  0.040070101            4 
  545000    1.1862182   -6.1790883    256.99033  0.039295157  0.040060769            2 
  546000    1.1676026   -6.2203214    256.22311  0.039106091  0.040050801            7 
  547000    1.1717448   -6.1536391    258.26856  0.039346216  0.040041005            4 
  548000    1.1680233   -6.1969524    258.39893  0.039294241  0.040031685            1 
  549000    1.1613696   -6.1662681    259.37111  0.039370235  0.040021845            5 
  550000    1.1754376   -6.2294696    257.59253  0.039029171  0.040011427            4 
  551000    1.1607938   -6.1879204    258.30913  0.039066717  0.040001075            2 
  552000    1.1610859   -6.1889057    260.05427    0.0392594  0.039990785            2 
  553000    1.1521942   -6.2212386    259.65681  0.039128512  0.039980281            3 
  554000    1.1495005   -6.1860323    261.26411  0.039299656  0.039970537            3 
  555000    1.1682055   -6.2002739    260.68234  0.039141493  0.039960774            3 
  556000    1.1670905   -6.2145077    261.12187   0.03913697  0.039949989            4 
  557000    1.1645846   -6.1908172    261.14288  0.039069851  0.039940077            2 
  558000    1.1877681   -6.1486752     262.3919  0.039186365  0.039930079            2 
  559000    1.1370927   -6.2001731    263.15472  0.039229982  0.039920251            3 
  560000     1.188538   -6.1719963    263.39304  0.039195392  0.039911055            4 
  561000    1.1581458   -6.2145456      264.159  0.039239305  0.039901586            3 
  562000    1.1941682   -6.1609365    265.46314  0.039362861  0.039892675            2 
  563000     1.178976   -6.1938498    264.11546  0.039093466  0.039884667            5 
  564000    1.1535261   -6.1460479    265.93927  0.039293627  0.039876122            1 
  565000    1.1605212   -6.2359162    265.23594  0.039120344  0.039867315            3 
  566000    1.1715566   -6.1647852    266.23421  0.039198205  0.039858258            2 
  567000    1.1440134   -6.2181246    265.92462  0.039083571  0.039849964            5 
  568000    1.1666421   -6.2521772    266.15092  0.039047963  0.039840161            3 
  569000    1.1592341   -6.1755178    267.82482   0.03922449  0.039831424            2 
  570000    1.1703497   -6.2041249    267.81853  0.039154756  0.039823026            1 
  571000    1.1642862    -6.232129    268.96357  0.039253293  0.039815039            7 
  572000    1.1753245   -6.1752144    269.46235  0.039257335  0.039807493            2 
  573000     1.168856    -6.186454    270.60163  0.039354512  0.039800921            5 
  574000    1.1706726   -6.1565021    271.38712  0.039399989  0.039794213            2 
  575000     1.138707   -6.2015679    271.57502  0.039358699  0.039787512            2 
  576000    1.1761849   -6.2084925    270.95319  0.039200404  0.039780563            4 
  577000    1.1800827   -6.1979139    271.81459  0.039256874  0.039773681            2 
  578000    1.1517211   -6.2208054    272.14103  0.039236019  0.039765778            2 
  579000    1.2028429   -6.2009312     272.3372  0.039196488  0.039758831            3 
  580000    1.1848388    -6.196851    273.72752  0.039328666  0.039752066            2 
  581000    1.1575337   -6.2156202    273.26877  0.039195176  0.039744677            4 
  582000     1.170974    -6.229661    273.37495  0.039143034  0.039737489            2 
  583000    1.1819475   -6.2093432    274.27394  0.039204394  0.039729718            6 
  584000    1.1509742    -6.198908    274.23355    0.0391315  0.039721914            2 
  585000    1.1471272   -6.2055494    274.83391  0.039150129  0.039714582            7 
  586000    1.1590938   -6.1590763    276.60257  0.039334836  0.039707183            4 
  587000    1.1426437   -6.2340229    275.53942  0.039116897  0.039699273            3 
  588000    1.1661163    -6.198594     275.7304  0.039077437   0.03969078            1 
  589000    1.1561108   -6.2026622    275.35936  0.038958597  0.039682413            1 
  590000    1.1611122   -6.1883899    276.44016  0.039045221  0.039673734            2 
  591000    1.1557456   -6.1852537     277.7297  0.039160984  0.039665847            2 
  592000    1.1699443   -6.1490343    277.95737  0.039126882  0.039657358            3 
  593000     1.191921   -6.2050674    277.21318  0.038956321  0.039648617            3 
  594000    1.1474337   -6.2004471    278.77403  0.039109712  0.039640022            9 
  595000    1.1440626   -6.2258419    277.24884   0.03883037  0.039631631            2 
  596000    1.1417017   -6.1952641    278.64544  0.038960492  0.039622703            8 
  597000    1.1685387   -6.1863026    279.88336   0.03906803  0.039614747            1 
  598000    1.1588191    -6.202159    279.98163  0.039016392  0.039606252            3 
  599000    1.1407506   -6.2108409    279.02424  0.038818064  0.039597083            2 
  600000    1.1561902   -6.2502446    279.28473  0.038789545  0.039587727            2 
  601000    1.1486901    -6.244495     281.1173  0.038979104   0.03957816            2 
  602000    1.1544355    -6.237311    280.54684  0.038835387  0.039569327            5 
  603000    1.1670058   -6.2246249    282.00972  0.038973151  0.039560747            2 
  604000    1.1662588   -6.1589628    283.58306  0.039125698    0.0395524            4 
  605000    1.1478028    -6.172598    282.53192  0.038916243  0.039544243            3 
  606000    1.1367505   -6.2346135     283.1018   0.03893039  0.039535174            4 
  607000    1.1660115   -6.1888498    283.35599  0.038901152  0.039526311            3 
  608000    1.1337371    -6.190832     283.0273  0.038792119  0.039517223            3 
  609000    1.1615073    -6.167336    284.32845  0.038906465  0.039508025            3 
  610000    1.1591807   -6.1900387    284.53205  0.038870498  0.039497996            1 
  611000    1.1440504   -6.1977212    284.03414  0.038738972  0.039487919            6 
  612000    1.1410803   -6.2802171    282.61338  0.038482214  0.039477458            3 
  613000     1.143799   -6.2376204    283.20382  0.038499704  0.039465676            4 
  614000    1.1440921   -6.2427625    284.07849  0.038555713  0.039453797            5 
  615000    1.1376972   -6.2025364    284.56224  0.038558569  0.039441843            3 
  616000    1.1399914   -6.2313353    283.90339  0.038406844  0.039429468            1 
  617000    1.1692198   -6.1962615    286.75143  0.038729258  0.039417687            5 
  618000    1.1429002   -6.1646527    286.67699  0.038656553  0.039406088            2 
  619000    1.1643261    -6.259697    285.60341  0.038449571  0.039394576           12 
  620000    1.1578899   -6.2116042    287.03973  0.038580609  0.039383123            2 
  621000    1.1617555   -6.1869286    288.10774  0.038661801  0.039371891            3 
  622000    1.1432498    -6.243493    286.29225   0.03835641  0.039360443            8 
  623000    1.1537432   -6.2219306    287.97535  0.038519978  0.039348829            2 
  624000    1.1433499   -6.2176486    287.78829  0.038433265  0.039337547            1 
  625000     1.141208   -6.2066931    287.55932  0.038341242  0.039326469            5 
  626000    1.1567058    -6.195023    289.08802  0.038483496  0.039314794            6 
  627000    1.1307731   -6.2440638    287.77733  0.038247917  0.039302324            4 
  628000     1.144045   -6.2116765    289.64947   0.03843544  0.039289848            3 
  629000     1.183865    -6.224061     289.9117  0.038409075  0.039277632            3 
  630000    1.1633521   -6.2038251    289.53142  0.038297807  0.039265084            8 
  631000    1.1553034   -6.1748959    291.22023  0.038460147  0.039252448            4 
  632000    1.1182633   -6.2592157    288.95582  0.038100714  0.039239623            3 
  633000    1.1563604   -6.2072366      291.666  0.038397315  0.039226691            2 
  634000    1.1285356   -6.2297209    291.13795  0.038267343  0.039213822            3 
  635000    1.1435202   -6.2316571    290.55856  0.038131045  0.039200589            4 
  636000    1.1435233    -6.238207     291.4321  0.038185548  0.039187963            7 
  637000    1.1831778   -6.2398258    291.10403  0.038082684   0.03917488            2 
  638000    1.1547578   -6.2145723    293.13228  0.038287916  0.039161299            3 
  639000    1.1763086   -6.2138385    291.72582  0.038044578  0.039148265            2 
  640000    1.1387305   -6.2068616    292.94932  0.038144443  0.039135108            4 
  641000    1.1481865   -6.2379294    292.40618  0.038014324  0.039121558            2 
  642000    1.1618004   -6.1690896    295.18708   0.03831608  0.039108045            2 
  643000    1.1309768   -6.2092348      295.372  0.038280456  0.039095018            2 
  644000    1.1471412    -6.210011    293.86436  0.038025926  0.039081772            7 
  645000    1.1688666   -6.2409936    294.56819  0.038057906  0.039068666            2 
  646000    1.1425158   -6.2476237    295.14533  0.038073443  0.039055482            1 
  647000    1.1801713   -6.2078472    296.29394  0.038162537  0.039041749            3 
  648000    1.1394047   -6.2430552    294.94217  0.037929805  0.039028506            3 
  649000    1.1488493   -6.2372914    295.66727  0.037964467  0.039014303            4 
  650000    1.1635929   -6.2052168    296.07331  0.037958116  0.039000648            3 
  651000    1.1082325   -6.2624797    295.93882  0.037882593  0.038987393            4 
  652000     1.160534   -6.2155446    298.77792  0.038187362  0.038973424            4 
  653000    1.1456147   -6.2430539    296.72654  0.037867093  0.038959661            7 
  654000    1.1591333    -6.215418    298.37198  0.038018855  0.038946269            4 
  655000    1.1186606   -6.2230488    297.95862  0.037908222  0.038933126            2 
  656000    1.1445948   -6.1925663    299.81156  0.038085818  0.038920106            4 
  657000    1.1815057   -6.2678128    298.41733  0.037851006  0.038907261            5 
  658000    1.1461491   -6.2051538    300.24917  0.038025478   0.03889431            2 
  659000    1.1800952   -6.1905658    300.72503  0.038027951  0.038881921            2 
  660000    1.1246258    -6.234271    301.12606  0.038020967  0.038869338            4 
  661000    1.1264263   -6.2206165    301.16806  0.037968741  0.038856663            3 
  662000    1.1114589   -6.2657316    301.83981  0.037995948  0.038844628            5 
  663000    1.1559964   -6.2456138    302.06542  0.037966996  0.038832473            2 
  664000    1.1591872   -6.2492618    302.65233  0.037983475  0.038820807            4 
  665000    1.1701451   -6.2540496    303.36765  0.038015996  0.038809193            5 
  666000    1.1340632   -6.2290952    303.20574  0.037938656  0.038797288            2 
  667000    1.1493426   -6.2212514    304.26157  0.038013689  0.038785146            7 
  668000    1.1467903   -6.2844682    303.45513  0.037856179  0.038772886            2 
  669000    1.1390812   -6.2234363    305.58658  0.038065094  0.038760969            3 
  670000    1.1478693   -6.2480257    305.35322  0.037979256  0.038749085            4 
  671000    1.1170671   -6.2453591    305.28595  0.037914301  0.038737691            3 
  672000    1.1167647   -6.1994753    307.13693  0.038087417  0.038726337            3 
  673000    1.1291284   -6.2072265    306.71244  0.037978261   0.03871492            2 
  674000    1.1531418   -6.2239531    307.32725  0.037997928  0.038703555            4 
  675000    1.1493729   -6.2249887    306.22451  0.037805495   0.03869264            5 
  676000    1.1669838   -6.2408873    307.49896  0.037906676  0.038681149            2 
  677000    1.1143605   -6.2308674    308.16424  0.037932575  0.038669911            4 
  678000     1.135959   -6.2391433    308.06178  0.037864034  0.038657936            2 
  679000    1.1185039   -6.2492531    308.63914  0.037879129  0.038646469            4 
  680000    1.1154684   -6.2295156    309.67707  0.037950621  0.038634956            4 
  681000    1.1629345   -6.2246265    310.04187  0.037939534  0.038624101            2 
  682000    1.1549773   -6.2328311    309.30015  0.037793273  0.038612375            1 
  683000    1.1373502   -6.2516425    311.15871  0.037964703  0.038600142            2 
  684000    1.1414084   -6.2573128    310.98029  0.037887463  0.038588939            5 
  685000    1.1445858   -6.2983329    310.42775  0.037764933  0.038577755            2 
  686000    1.1256034   -6.2002559    312.47742   0.03795887  0.038566656            2 
  687000    1.1313305   -6.2305716    311.25378  0.037755189  0.038555474            2 
  688000    1.1396976   -6.2343219    312.22859  0.037818385  0.038544135            1 
  689000    1.1236652   -6.2411977    312.52303  0.037799108  0.038533073            3 
  690000    1.1289212   -6.2240549    312.00102  0.037681283  0.038521597            2 
  691000    1.1353758    -6.214877    313.45007  0.037801504  0.038510141            6 
  692000    1.1515136   -6.3022707     313.1499   0.03771073  0.038498252            2 
  693000     1.151018   -6.2893127    313.57067   0.03770691  0.038486624            2 
  694000    1.1544483   -6.2538379    313.31754  0.037622183  0.038475558            4 
  695000    1.1465578   -6.2395448    315.49016  0.037828556  0.038464187            2 
  696000    1.1509628   -6.2564321    314.28219  0.037629572  0.038452587            4 
  697000    1.1577772   -6.2455684     316.1724  0.037801579  0.038440741            6 
  698000    1.1430767   -6.2428865     315.4101  0.037656411  0.038429318            2 
  699000    1.1556651   -6.2440299    315.89551  0.037660409  0.038418018            4 
  700000    1.1067258   -6.2548521    316.73681  0.037706763  0.038406476            2 
  701000    1.1557978   -6.2487438    315.81123  0.037542942  0.038394536            4 
  702000    1.1665807   -6.2297857    317.67244  0.037710403  0.038383133           11 
  703000    1.1367861   -6.2668094    316.47989  0.037515398  0.038371448           10 
  704000    1.1420645   -6.2651032    317.41139  0.037572371  0.038359357            4 
  705000    1.1343545    -6.276569    317.09471  0.037481644  0.038347374            2 
  706000    1.1216574   -6.2553453    317.63555  0.037492393  0.038334748            2 
  707000    1.1318414   -6.2898542    318.97386  0.037597108  0.038322485            2 
  708000    1.1543114   -6.2304238    319.06736   0.03755501  0.038310735            8 
  709000    1.1455549   -6.2463904     320.6667  0.037690021  0.038299204            4 
  710000    1.1430491   -6.2580649    320.02288  0.037561371  0.038287092            5 
  711000    1.1513263   -6.2752394    320.73931  0.037592511  0.038275656            4 
  712000    1.1298384   -6.2556237    320.38463  0.037498201  0.038264088            3 
  713000    1.1552132    -6.247407    321.07409  0.037526191   0.03825256            2 
  714000    1.1512223   -6.2336143    322.03204  0.037585439  0.038241269            5 
  715000    1.1365299   -6.2424443    322.34283  0.037569095  0.038230575            2 
  716000    1.1114802   -6.2272598    321.69945  0.037441742  0.038219626            2 
  717000    1.1283806   -6.2851531    321.03049  0.037311772  0.038208067            4 
  718000    1.1442266   -6.2267111    323.22883  0.037514952  0.038196191            6 
  719000     1.141097   -6.2503677    323.59072  0.037504719  0.038184825            2 
  720000     1.099899    -6.243217    324.21087  0.037524406  0.038173633            3 
  721000    1.1350988   -6.2298336    325.19246  0.037585813  0.038162402            3 
  722000    1.1311489   -6.2090804    325.05625  0.037518035  0.038151542            2 
  723000    1.1513956   -6.2591785    325.45118  0.037511662  0.038140579            5 
  724000    1.1245128    -6.230152    326.42023  0.037571389  0.038130145            2 
  725000    1.1236162   -6.2476168    326.68618  0.037550136  0.038119672            2 
  726000    1.1359381   -6.2521074     325.5639  0.037369594  0.038109176            3 
  727000    1.1325941    -6.248919    327.17115  0.037502424   0.03809791            3 
  728000     1.115961   -6.2377101       327.47  0.037485119  0.038087081            5 
  729000    1.1454473   -6.2638629    327.95339  0.037488956  0.038075909            2 
  730000    1.1223806   -6.2671344    327.45856  0.037381114  0.038064839            2 
  731000    1.1415896   -6.3068666    327.32957  0.037315273   0.03805326            3 
  732000    1.1462264   -6.2140725    329.95952  0.037563698  0.038042759            2 
  733000    1.1101408    -6.277414    328.26185  0.037319447  0.038031875            5 
  734000    1.1300737   -6.2616173    328.79743  0.037329408  0.038020826            2 
  735000    1.1159799   -6.2582706     328.9994  0.037301519  0.038010087            1 
  736000    1.1707522   -6.2790028    329.70016  0.037330181  0.037999074            4 
  737000    1.1232526   -6.2189995     332.3833  0.037582914  0.037988022            6 
  738000    1.1224351   -6.2727739    330.22387  0.037288151  0.037977128            2 
  739000    1.1187608   -6.2451734     332.1326  0.037452932  0.037966114            4 
  740000    1.1333769   -6.2476062    331.09891  0.037285913  0.037955535            4 
  741000    1.1175002   -6.2328536    332.80593  0.037427568  0.037945164            3 
  742000    1.1043164    -6.230607    333.07559  0.037407411  0.037934891            4 
  743000    1.1380092    -6.276667    331.84955  0.037219555  0.037924291            4 
  744000    1.1340235   -6.2255114    333.02214  0.037300867  0.037913362            1 
  745000    1.1425178     -6.30685    332.88551  0.037235516  0.037902168            4 
  746000    1.1244752   -6.2967975     333.8288  0.037290974  0.037891089            2 
  747000    1.1196414   -6.2621261    334.28744  0.037292218  0.037880333            3 
  748000    1.1351947   -6.2598698    335.55721  0.037383824  0.037870013            2 
  749000    1.1148787   -6.2576833    335.16157  0.037289895  0.037859672            2 
  750000    1.1389893   -6.2323197    336.37539  0.037375044  0.037849724            2 
  751000    1.1294187   -6.2740946    337.13918  0.037410029  0.037839702            2 
  752000    1.1311499   -6.2338011    336.83859  0.037326971  0.037829676            1 
  753000    1.1111575   -6.3009688    336.88714  0.037282773  0.037819462            2 
  754000    1.1441624   -6.2855498    337.89387  0.037344592  0.037809533            3 
  755000    1.1368865    -6.253349    338.50267  0.037362325  0.037799987            3 
  756000    1.1309759   -6.2687033     337.3316  0.037183819  0.037789957            2 
  757000    1.1394266   -6.2808123    338.28709  0.037239882  0.037779843            3 
  758000    1.1352911   -6.2695097    339.88405   0.03736632  0.037769724            2 
  759000    1.1197493   -6.2785227    340.49159  0.037383794  0.037760082            3 
  760000     1.151303   -6.2555675    340.39333   0.03732383  0.037750457            2 
  761000    1.1328078   -6.2920602    340.66778  0.037304838  0.037740789            5 
  762000    1.1565542   -6.2938743    340.28891  0.037214448  0.037730842            3 
  763000    1.1194113   -6.2928268    339.75728   0.03710761  0.037720515            3 
  764000    1.0963521   -6.2838643    340.70357  0.037162257  0.037709779            4 
  765000    1.1369068   -6.2732491    340.54949  0.037096894  0.037699171            4 
  766000    1.1241107   -6.2919044    341.44262  0.037145628  0.037688921            4 
  767000    1.1272439   -6.2203449    342.94901  0.037260866  0.037678702            2 
  768000     1.129054   -6.2955718    341.25531  0.037028571  0.037668382            3 
  769000    1.1175281   -6.3002358    342.11575  0.037073661  0.037658062            2 
  770000    1.1369924   -6.2673826    343.19873  0.037142719  0.037647522            3 
  771000    1.1050519   -6.2916062    342.12264  0.036978236  0.037636941            4 
  772000    1.1047263   -6.2696749    344.72835   0.03721161  0.037626349            6 
  773000    1.1510515   -6.2618736    343.64533  0.037046715  0.037616109            6 
  774000    1.1129526   -6.2874907    343.71335  0.037006174  0.037605681            5 
  775000    1.1423119   -6.2809038    344.62026  0.037055942  0.037595021            2 
  776000    1.1412882    -6.293943    345.43416  0.037095593   0.03758484            2 
  777000    1.1278795   -6.2913673    345.43023  0.037047429  0.037574486            2 
  778000     1.119192   -6.3032483    345.28565  0.036984325  0.037564166            2 
  779000    1.1251841   -6.3403292    345.90918   0.03700355  0.037553568            3 
  780000    1.1226716    -6.275404    346.45592  0.037014522  0.037543043            7 
  781000    1.1329919   -6.2753878    346.99604  0.037024758  0.037532814            4 
  782000    1.0954404   -6.2415618    347.86769  0.037070299  0.037522724            3 
  783000    1.1347262   -6.3088777    347.76618  0.037012152   0.03751294            2 
  784000    1.1342142   -6.2526659    349.77694  0.037178671  0.037503531            3 
  785000    1.1207028   -6.3057352    349.06517   0.03705575  0.037494151            6 
  786000    1.1083129   -6.2648051    350.36584  0.037146506  0.037484717            3 
  787000    1.1385105   -6.2907272    349.20763  0.036976666  0.037474759            3 
  788000     1.110919   -6.2842421    350.90298  0.037109029  0.037465373            3 
  789000    1.0929299   -6.2496938     352.4954  0.037230185  0.037455876            2 
  790000    1.0942134   -6.2827477    350.80011  0.037004231  0.037446057            4 
  791000    1.1160867   -6.2976695    350.88749  0.036966655   0.03743631            4 
  792000    1.1246097   -6.2986952    351.13155   0.03694566  0.037426353            2 
  793000    1.1065516    -6.283412    351.99825  0.036990148  0.037416836            2 
  794000    1.1341882    -6.310228    351.43617  0.036884569  0.037406788            7 
  795000    1.1087946   -6.2918619    351.63514   0.03685903  0.037396348            3 
  796000    1.1301882   -6.3136642    351.83484  0.036833631  0.037385801            6 
  797000      1.10247   -6.3086981    351.82973  0.036786881  0.037375256            1 
  798000    1.1132028   -6.2631903    353.93553  0.036960686  0.037365038            2 
  799000    1.1179444    -6.307642    352.46781  0.036761348  0.037354408            3 
  800000    1.1251048   -6.3137315    353.55318  0.036828456  0.037344193            3 
  801000    1.1512304   -6.2784035    353.94589  0.036823335  0.037333569            5 
  802000    1.1275926   -6.2640802    354.82114  0.036868365  0.037323197            4 
  803000    1.1283565   -6.3063501    355.94515  0.036939098  0.037313132            5 
  804000    1.0948888   -6.2755889    355.63275  0.036860775  0.037303208            2 
  805000    1.1238113   -6.3104338    356.86125  0.036942159   0.03729367            7 
  806000    1.1148235   -6.2888519    356.20259  0.036828225  0.037283815            6 
  807000    1.1506084   -6.2939708    357.22782  0.036888458  0.037274038            3 
  808000    1.1067442   -6.2762806    356.99039  0.036818316    0.0372642            6 
  809000     1.103541    -6.271937    357.93374  0.036869977  0.037254528            5 
  810000    1.1209116    -6.328472    357.02446  0.036730912  0.037245041            3 
  811000    1.1393212   -6.2789031     359.7625  0.036966964  0.037235083            4 
  812000    1.1312493   -6.2972421    358.26774  0.036768036   0.03722552            5 
  813000    1.0964109   -6.2519454    359.43594  0.036842553  0.037215814            2 
  814000    1.1112481   -6.2864214    359.64821  0.036819022  0.037206235            2 
  815000     1.118428   -6.3129333    359.74656  0.036783902  0.037196627            2 
  816000    1.1378997   -6.2975853    358.97365   0.03665989   0.03718655            4 
  817000    1.1221771   -6.2614242     361.5399  0.036876775  0.037177204            1 
  818000    1.1233728   -6.3436358    359.30684  0.036604201  0.037167213            2 
  819000    1.1127907   -6.3123501    360.72908  0.036704221  0.037156932            3 
  820000    1.1322383    -6.256535    360.25562  0.036611344   0.03714733            3 
  821000     1.121115    -6.311049    360.59374   0.03660107  0.037137415            2 
  822000    1.0914848   -6.2929437    362.87329  0.036787641  0.037127653            4 
  823000     1.120036   -6.2657348    362.14991  0.036669695  0.037118224            4 
  824000    1.1324815   -6.2423063     363.7595  0.036787976  0.037108577            2 
  825000    1.1248517   -6.2617934    363.21807  0.036688694  0.037098953            2 
  826000    1.1272503   -6.2571628    364.32672  0.036756126  0.037089609            2 
  827000     1.094885   -6.3234173    362.81421  0.036559272  0.037079829            2 
  828000     1.139247   -6.2781654    364.59757  0.036694603  0.037069863            4 
  829000    1.1134848    -6.292172    364.34767  0.036625219  0.037060058            2 
  830000    1.1008301   -6.3013448    364.84103  0.036630626   0.03705013            2 
  831000    1.1605722   -6.2724613    365.46732  0.036649351  0.037040287            4 
  832000    1.1297233   -6.2491659    366.47857  0.036706587  0.037030377            2 
  833000     1.118415   -6.2776975    366.87043  0.036701724   0.03702069            5 
  834000    1.1325734   -6.2855527    366.41453  0.036612163  0.037010657            3 
  835000    1.1261946   -6.2912947    366.65751  0.036592566  0.037000955            3 
  836000    1.1055357   -6.3075523    366.93132  0.036576089  0.036991288            2 
  837000    1.1159756   -6.2998593    366.52744  0.036492179    0.0369819            3 
  838000    1.1068281   -6.3086135    367.55554  0.036550869  0.036972073            1 
  839000    1.1174107   -6.2876539    367.54571  0.036506328  0.036962174            1 
  840000    1.0955365   -6.2555846    368.80796  0.036588092  0.036952402            5 
  841000    1.1078748   -6.2960559    368.68103  0.036532008  0.036942696            2 
  842000    1.1075403   -6.3082376    370.33682  0.036652496  0.036932711            7 
  843000    1.1381797   -6.3422856    368.12302  0.036390176  0.036923317            2 
  844000    1.1358548   -6.3265522    370.74028  0.036605477  0.036913878            6 
  845000    1.1189741   -6.2725142     369.5593   0.03644569  0.036904475            2 
  846000    1.1371218   -6.2447879    371.75086  0.036618485  0.036895057            4 
  847000    1.1073416   -6.3185741    371.39952  0.036540685  0.036885598            3 
  848000    1.1151377   -6.3089046    372.39603  0.036595522   0.03687607            7 
  849000    1.1131284   -6.2865301    372.77592  0.036589706  0.036866577            1 
  850000    1.1100101    -6.288956    372.18973  0.036489189  0.036856947            3 
  851000    1.1136474   -6.3253511    371.46866  0.036375701   0.03684729            4 
  852000    1.1442643   -6.3126375    371.89983  0.036375179   0.03683744            5 
  853000    1.1271971   -6.3235418    372.80255  0.036420726  0.036827698            3 
  854000    1.0935225   -6.2897402    373.91473  0.036486605  0.036818185            2 
  855000    1.1230598     -6.28748    374.84876  0.036534967  0.036809071            2 
  856000       1.1047   -6.2630905    375.58279  0.036563745  0.036800077            2 
  857000    1.1100272    -6.287712    374.71977  0.036437162  0.036790923            3 
  858000    1.1238197   -6.2861105    375.61892  0.036482024     0.036782            2 
  859000    1.1112457   -6.3144435    374.72759  0.036353084  0.036772967            5 
  860000    1.0940901   -6.2915472    377.28541  0.036558664  0.036764273            3 
  861000    1.0989668   -6.2902686    378.13105   0.03659805  0.036755638            2 
  862000    1.0760595   -6.3043636    376.50167  0.036398073  0.036746945            4 
  863000    1.1313102   -6.2934566    377.66423  0.036468156  0.036738328            3 
  864000    1.1121048   -6.3188261    379.20686  0.036574735  0.036729392            4 
  865000    1.0962292   -6.2877238    379.36936  0.036548108  0.036720675            3 
  866000    1.0994791   -6.3245916    377.73401  0.036348538  0.036712023            2 
  867000    1.1276959   -6.2986271    380.49257  0.036571758  0.036703187            3 
  868000    1.1173316   -6.2961767    380.86265  0.036565154  0.036694602            2 
  869000    1.1184666   -6.3430378    378.94184   0.03633888  0.036685719            2 
  870000    1.1121685   -6.2889783    379.64513  0.036364476  0.036677056            4 
  871000    1.0918063   -6.3041752    381.10085  0.036462003   0.03666788            3 
  872000    1.0915159   -6.2685814    381.56846  0.036464876  0.036659027            2 
  873000    1.1055052    -6.327042     379.4325  0.036219215  0.036649922            2 
  874000    1.1276151   -6.3474802    380.47496   0.03627717  0.036640874            4 
  875000    1.1133797    -6.255147    382.51624  0.036430118   0.03663166            2 
  876000    1.1064157   -6.2486413    383.04635   0.03643896  0.036622686            4 
  877000    1.0910569   -6.3117037     383.3543  0.036426672  0.036613983            5 
  878000    1.1177041   -6.2970708    383.36927  0.036386605  0.036605359            6 
  879000    1.0915626   -6.3245672    382.96938  0.036307298  0.036596021            5 
  880000    1.1102855    -6.329092    382.80794  0.036250751  0.036586759            3 
  881000    1.1192281   -6.3379344    381.96837   0.03613019  0.036577312            1 
  882000     1.096136   -6.3050887    384.86236  0.036362657  0.036568203            2 
  883000     1.111738   -6.3168037     384.2063   0.03625956  0.036558979            3 
  884000    1.1027792   -6.3032027    385.17138   0.03630952  0.036549919            2 
  885000    1.1188245   -6.3012038    385.11064  0.036262772  0.036540758            2 
  886000    1.1095596   -6.3337934    384.72409  0.036185486   0.03653164            2 
  887000    1.1058757   -6.3681022    385.00228  0.036170827  0.036522219            6 
  888000    1.0920928   -6.3359027    385.56541   0.03618294  0.036513066            1 
  889000    1.1142758   -6.3138287    387.17657  0.036293267  0.036504182            6 
  890000    1.0841744   -6.3492659    385.94662  0.036137324  0.036495385            2 
  891000    1.1067301    -6.321239    386.10706  0.036111771  0.036486395            2 
  892000    1.1301748   -6.3252101     389.2698   0.03636676  0.036477927            2 
  893000     1.131725   -6.3277082    387.79885  0.036188769  0.036469232            4 
  894000    1.1002294    -6.293918    389.34545  0.036292454  0.036460478            4 
  895000    1.1222264   -6.3621046    387.19684  0.036051848  0.036451897            2 
  896000    1.1252014   -6.3321626    388.62937  0.036144845  0.036443046            4 
  897000    1.1000264   -6.3266488    388.82295  0.036122534  0.036434508            3 
  898000    1.1135915   -6.3222021    391.08696  0.036292405   0.03642567            2 
  899000    1.0965608    -6.360998    389.86752  0.036138999  0.036417082            2 
  900000    1.1202704   -6.2952512    389.82276    0.0360947  0.036408507            3 
  901000    1.0823236   -6.3261221    390.28745  0.036097618  0.036399857            3 
  902000    1.1128432   -6.3129689    391.96167  0.036212275  0.036391097            4 
  903000    1.1038505   -6.3289762    390.73131   0.03605863  0.036382208            2 
  904000    1.1062634   -6.3275276    391.90093   0.03612656  0.036373251            2 
  905000    1.1271716   -6.3764741    390.23018  0.035932798  0.036364353            2 
  906000     1.118576    -6.366235    392.83911  0.036133104  0.036355745            5 
  907000    1.1077305   -6.3435155    393.38754  0.036143655  0.036346801            6 
  908000    1.1145967   -6.3356187    393.97978  0.036158203  0.036338048            3 
  909000    1.0865766   -6.3459805    395.29662  0.036239147  0.036329671            2 
  910000     1.087397   -6.2872351    395.52412  0.036220158  0.036321529            1 
  911000    1.1254313    -6.362405    394.72605  0.036107396  0.036313125            4 
  912000    1.1032882   -6.2749827    395.49276  0.036137862  0.036304483            1 
  913000    1.1105129   -6.2907874    395.80208  0.036126513  0.036296291            5 
  914000    1.0909436    -6.339453    395.00278  0.036014112  0.036287871            2 
  915000    1.1022483   -6.3389362    396.01334  0.036066789  0.036279307            4 
  916000    1.0984009   -6.3367762    395.36376  0.035968319   0.03627048            2 
  917000    1.1090745   -6.3265015    396.43177  0.036026152  0.036261641            2 
  918000    1.1015622   -6.2938103    397.52231  0.036085903  0.036253062            3 
  919000    1.1198137   -6.3111777    396.92332  0.035992321   0.03624444            2 
  920000    1.0970599   -6.3487479    396.87605  0.035948918  0.036235237            3 
  921000    1.1163795   -6.3307306    398.64053  0.036069538  0.036226032            6 
  922000    1.0946309   -6.2923946    398.15923  0.035986915  0.036217042            2 
  923000    1.1068929   -6.3619651    399.13515  0.036036037   0.03620806            3 
  924000    1.0940156   -6.3374362    397.05926  0.035809818  0.036198934            3 
  925000    1.0915558   -6.3827046    397.87519  0.035844611  0.036189275            2 
  926000    1.1194892    -6.369645    398.51325  0.035863323  0.036179798            7 
  927000    1.1081352   -6.3658306    398.39575  0.035814073  0.036170644            6 
  928000      1.10349   -6.2989108    400.21277  0.035938646  0.036161444            3 
  929000    1.0926379   -6.3325967    398.59194  0.035754569  0.036152424            1 
  930000    1.0929672   -6.3525153    401.64239  0.035989462  0.036142986            3 
  931000      1.11943   -6.3281161    400.87593  0.035882199  0.036133523            2 
  932000    1.1068454   -6.3797221    399.18798  0.035692774  0.036123965            3 
  933000    1.1330698   -6.3632175    400.53439  0.035774776  0.036114343            4 
  934000    1.0941787   -6.3252535    402.42312  0.035904989  0.036105083            2 
  935000    1.0956843   -6.3530638    401.08227  0.035747082  0.036095785            4 
  936000    1.1000663   -6.3585656    401.25169  0.035723975  0.036086791            5 
  937000      1.09751   -6.3352083    402.56187  0.035802372  0.036077725            6 
  938000    1.1058755   -6.3418134    403.21871  0.035822558  0.036068804            3 
  939000    1.1069758   -6.3617635    403.41265   0.03580162  0.036060088            4 
  940000    1.1058106    -6.319268    406.05114  0.035997441   0.03605167            4 
  941000    1.0697989   -6.3439824    405.53354   0.03591335  0.036043459            5 
  942000    1.0889859   -6.3588911    404.51749   0.03578534  0.036034589            2 
  943000    1.1016288   -6.3131374    406.09259  0.035886585  0.036025886            9 
  944000    1.0857898    -6.292372    407.24539  0.035950334  0.036017538            5 
  945000    1.0963942   -6.3375875    405.90213  0.035793838  0.036008794            2 
  946000    1.1013634   -6.3010712    407.60664  0.035906152  0.035999846            3 
  947000    1.0980135   -6.3149894    406.88103  0.035804385  0.035991464            2 
  948000    1.0777513   -6.3303183    407.73393   0.03584159  0.035983431            5 
  949000      1.09944   -6.3449402    408.24234  0.035848467  0.035975448            3 
  950000    1.1169612   -6.3437286    409.04643  0.035881266   0.03596741            2 
  951000    1.0973887   -6.3535024    410.22741  0.035947022  0.035959221            5 
  952000    1.0908592   -6.3237379    410.40477  0.035924787   0.03595153            3 
  953000    1.0907977   -6.3284839    410.33065  0.035880609  0.035944054            2 
  954000     1.089209   -6.3542842     411.6493  0.035958185  0.035936209            3 
  955000    1.0833694   -6.3110286    411.06068  0.035869169  0.035928783            3 
  956000    1.0977494   -6.3650593    409.86644  0.035727549  0.035921014            8 
  957000    1.1204711   -6.3580046     411.2591  0.035811486  0.035912976            6 
  958000    1.1035802   -6.3578694    410.57231  0.035714362  0.035904825            2 
  959000    1.0607068   -6.3681037    410.40032  0.035662176  0.035896417            2 
  960000    1.0972167   -6.3673248    411.81563  0.035747884  0.035888306            9 
  961000    1.1005717   -6.3774067    411.80663  0.035709905  0.035879786            2 
  962000    1.0894738   -6.3759542    412.04368  0.035693319  0.035871374            5 
  963000    1.0700413    -6.338669    413.00782  0.035739687  0.035862737            1 
  964000    1.1107485   -6.3527464    413.54554  0.035749096  0.035854637            4 
  965000    1.1103816   -6.3578717    414.26143  0.035773871  0.035846725            5 
  966000    1.0835174    -6.310839    415.98816  0.035885797   0.03583856            3 
  967000    1.0761773   -6.3643557    415.08643  0.035770978  0.035830772            3 
  968000    1.1167617    -6.306331    415.17515  0.035741662  0.035822518            5 
  969000    1.0947045    -6.357898    415.07066  0.035695791  0.035814122            3 
  970000    1.0790249   -6.3497478    414.61602  0.035619933  0.035805937            2 
  971000    1.1078275   -6.3457705    415.14162  0.035628357  0.035797707            1 
  972000     1.093736   -6.3238224    416.38069  0.035697933  0.035789457            5 
  973000     1.107267   -6.4110457    415.33275  0.035571493  0.035781222            7 
  974000    1.1084868   -6.3654924    418.09192   0.03577104  0.035773244            3 
  975000    1.1167938   -6.3390836    417.49503  0.035683336  0.035765112            3 
  976000    1.0809999   -6.3188918    417.64066  0.035659209  0.035757034            3 
  977000    1.0920263   -6.3338085    418.01245  0.035654423  0.035748981            3 
  978000    1.0916833   -6.3534621    418.64687  0.035672024  0.035741009            4 
  979000     1.107131   -6.3400698     419.6955  0.035724847    0.0357333            2 
  980000    1.0891585   -6.3456843    419.82871   0.03569972  0.035725654            3 
  981000    1.0944346   -6.3308068    420.39244  0.035711216    0.0357178            3 
  982000    1.0965544   -6.3347478    420.92095    0.0357197  0.035710191            8 
  983000    1.0958888    -6.347513    421.11376  0.035699709  0.035702547            4 
  984000    1.0981958   -6.3339663    421.20092   0.03567081  0.035695019            3 
  985000      1.09396   -6.3790101     420.9733  0.035615338  0.035687509            2 
  986000    1.0925407   -6.3556512    419.91349  0.035489646  0.035679775            4 
  987000    1.0868041   -6.3281962     422.5688  0.035677879   0.03567208            3 
  988000    1.0820069   -6.3367626     423.6188   0.03573033  0.035664481            2 
  989000    1.0927604   -6.3874933    421.99065  0.035557015  0.035656741            2 
  990000     1.097286   -6.3644849    421.48538  0.035478567  0.035648694            6 
  991000    1.0850059   -6.3550601    424.30902  0.035680207  0.035640748            7 
  992000    1.1088229   -6.3822112     422.9044  0.035526243  0.035632545            3 
  993000    1.1060162   -6.3327787    424.13899  0.035594074  0.035624421            5 
  994000    1.0860422   -6.3780101    423.14183  0.035474667   0.03561626            3 
  995000    1.0807464   -6.3636483    424.71628  0.035570878  0.035608215            3 
  996000    1.0932895   -6.3690786    424.05675  0.035479982  0.035600521            4 
  997000    1.0887134   -6.3598932    425.33342  0.035551105  0.035592695            3 
  998000     1.093945    -6.321134    426.57785  0.035619393  0.035584937            1 
  999000    1.1021467   -6.3526488    425.99674  0.035535263  0.035577535            2 
 1000000    1.0912208   -6.3603701    427.29917  0.035608264  0.035570007            3 
 1001000    1.0831114   -6.3718178    425.62824  0.035433587  0.035562459            3 
 1002000      1.09047   -6.3664837    426.25723  0.035450535  0.035554735           11 
 1003000    1.0922649   -6.3872268    427.28549  0.035500622   0.03554699            7 
 1004000    1.0767467   -6.3760925    426.55329  0.035404489  0.035538961            5 
 1005000    1.0931962   -6.3798363    426.56341    0.0353701  0.035531124            7 
 1006000    1.1069055    -6.354325    430.27957  0.035642774  0.035523267            3 
 1007000    1.1012599   -6.3136983    428.43085   0.03545439  0.035515561            3 
 1008000     1.100586   -6.3499207    429.58667  0.035514771  0.035507941            3 
 1009000    1.0676907   -6.3431644    428.95702   0.03542757  0.035500529            7 
 1010000    1.0918944   -6.3746527    428.36029  0.035343258  0.035492971            2 
 1011000    1.1213887   -6.3611553    430.50914  0.035485422   0.03548512            3 
 1012000    1.0975966   -6.3620093    429.11769  0.035335778  0.035477304            5 
 1013000    1.0733425   -6.4069913    429.21778   0.03530913  0.035469255            3 
 1014000    1.0914687    -6.392463     428.8861   0.03524705  0.035460914            5 
 1015000    1.0760138    -6.373248    429.90551  0.035296019  0.035452839            5 
 1016000    1.0736754   -6.3838332    430.18714  0.035284378  0.035444583            2 
 1017000    1.0910413   -6.3876228    429.94788  0.035230079  0.035436176            2 
 1018000    1.0569202   -6.3484267    431.24673  0.035301796  0.035427867            3 
 1019000    1.0782063   -6.3701809    430.88986  0.035237967  0.035419509            5 
 1020000    1.0896747   -6.3407644    430.69149  0.035187213  0.035411051            3 
 1021000     1.081455   -6.4136284    429.78397  0.035078678   0.03540269            4 
 1022000    1.0723897   -6.3723112    433.23389   0.03532566  0.035394026            3 
 1023000    1.0828342   -6.4124448    431.33573  0.035136504  0.035385358            5 
 1024000    1.1092598   -6.3677082     431.9975  0.035156046  0.035376849            3 
 1025000    1.0730446   -6.3932662    432.01913  0.035123506  0.035368323            3 
 1026000    1.0909194   -6.3820338    433.16899  0.035182667  0.035359584            4 
 1027000     1.070011   -6.3718355    433.24717  0.035154753  0.035350974           10 
 1028000     1.092714   -6.3658732    434.27933  0.035204226   0.03534258            4 
 1029000    1.0808348   -6.3707362    434.97641  0.035226467  0.035333914            3 
 1030000    1.0800341   -6.3707197    435.08255  0.035200854  0.035325532            3 
 1031000    1.1144907   -6.3953313    434.80129  0.035143977  0.035317302            5 
 1032000    1.0873917   -6.3834265    436.18277  0.035221477  0.035309299            2 
 1033000    1.0900005    -6.394951    435.74477  0.035152047  0.035301248            5 
 1034000    1.0928725   -6.3619686    435.81012  0.035123318   0.03529322            5 
 1035000    1.0637003   -6.3965325    435.89721  0.035096393  0.035285011            3 
 1036000    1.0950536    -6.389883    436.60772  0.035119668  0.035276405            9 
 1037000    1.0838666    -6.370712      437.159  0.035130103  0.035267938            3 
 1038000    1.0946537   -6.3827229    437.37775   0.03511382  0.035259548            3 
 1039000    1.0651625   -6.3892796     437.5764  0.035095958  0.035250961            2 
 1040000    1.0701609   -6.3544167    438.87397  0.035166183  0.035242434            4 
 1041000    1.0927944   -6.3879424    438.02289  0.035064272  0.035234254            5 
 1042000    1.0683576   -6.3565824    440.62384  0.035238631  0.035226304            6 
 1043000    1.0848112   -6.4013215    439.46707  0.035112422  0.035218019            4 
 1044000    1.0611343   -6.3772432    440.52182   0.03516298   0.03520949            2 
 1045000    1.0841098   -6.3774377    439.52864  0.035050131  0.035201107            3 
 1046000     1.083515   -6.4077394    439.76728  0.035035634  0.035192714            3 
 1047000    1.0904403   -6.4077538    440.25923  0.035041327  0.035184048            4 
 1048000    1.0978298   -6.3677649     442.5577  0.035190657  0.035176045            5 
 1049000    1.0608369   -6.3969161    441.23956  0.035052396  0.035167798            2 
 1050000    1.0831413   -6.3653889    441.79703  0.035063257  0.035159359            4 
 1051000    1.1171705   -6.3715314     441.7274  0.035024374  0.035151037            3 
 1052000    1.1049683   -6.4293344    440.52518  0.034895848  0.035142695            3 
 1053000    1.0614197   -6.3851309    443.13604  0.035069329  0.035134385            2 
 1054000    1.0936858   -6.3850323    441.88645  0.034937258  0.035125859           11 
 1055000    1.1008138   -6.3994176    442.63863  0.034963557  0.035117365            3 
 1056000    1.0856513   -6.3702287    442.92923   0.03495338    0.0351088            4 
 1057000    1.0856495   -6.3932236    444.00957  0.035005485  0.035100572            3 
 1058000    1.0916367    -6.408914    442.95874   0.03488963  0.035092539            5 
 1059000    1.0911692   -6.4147901     444.6798  0.034992115  0.035084508            7 
 1060000    1.0648107   -6.4299499    445.45929  0.035020384  0.035076217            2 
 1061000    1.0923258   -6.3888708    446.12058  0.035039317  0.035067913            4 
 1062000    1.0710296   -6.3873402     444.2532  0.034859793  0.035059748            5 
 1063000    1.0712814   -6.3902342    446.59679  0.035010724  0.035051425            2 
 1064000    1.0739735   -6.3513028    448.04001  0.035090853  0.035043691            4 
 1065000    1.0883793   -6.3569343      446.347   0.03492543  0.035035661            4 
 1066000    1.0559874   -6.3700195    446.23262  0.034883726  0.035027514            4 
 1067000    1.0721302   -6.3946216    446.75622  0.034891926  0.035019297            2 
 1068000    1.0835447   -6.3987836    447.72151  0.034934575  0.035011335            2 
 1069000    1.1050267   -6.3406117    448.71918  0.034979668  0.035003247            2 
 1070000    1.0732219   -6.3788627    446.70298  0.034789952  0.034995049            4 
 1071000    1.0827257   -6.3790706    449.26111  0.034956514  0.034986636            2 
 1072000    1.0560812   -6.3544602    449.53882  0.034945493  0.034978457            4 
 1073000    1.0701437   -6.4071541    448.58699  0.034839002  0.034970526            3 
 1074000    1.0615881   -6.3650952     450.0029  0.034916427  0.034962159            3 
 1075000    1.0845454   -6.3940611    448.75891  0.034787512  0.034953906            6 
 1076000    1.0820049   -6.3968089    450.66048  0.034902453  0.034945584            2 
 1077000    1.0435669   -6.4035652    449.86681  0.034808636  0.034937558            2 
 1078000    1.0710605   -6.3895016    451.64782  0.034914025  0.034929491            4 
 1079000    1.0910706   -6.4282711    450.36955  0.034782943  0.034921632            3 
 1080000    1.0807109   -6.3615055    451.37968  0.034828679  0.034913713            2 
 1081000    1.0773037   -6.3599476    452.95416  0.034917836  0.034906011            5 
 1082000    1.0731474   -6.3528513    452.79082  0.034872984  0.034898364            4 
 1083000    1.0832184   -6.3845021    452.75823  0.034838276  0.034890627            2 
 1084000    1.0716672   -6.3954257    453.37774  0.034853762  0.034882616            2 
 1085000    1.0800582   -6.3829219    453.53735  0.034833898  0.034874708           14 
 1086000    1.0863718   -6.3731006     453.7056  0.034814733  0.034866937            2 
 1087000    1.1006852    -6.384635    455.29505  0.034904557  0.034859155            3 
 1088000    1.0911886   -6.4066334    455.10221  0.034857706  0.034851568            2 
 1089000    1.0617578   -6.4088417    454.89315  0.034809699  0.034843826            4 
 1090000    1.0651445   -6.3723354    456.29746  0.034885127  0.034835858            5 
 1091000    1.0612601   -6.4519598    454.20738  0.034693506  0.034828043            2 
 1092000    1.0714298   -6.4176527    455.04718  0.034725822  0.034820094            3 
 1093000    1.0834166   -6.3742691    457.01356  0.034843974  0.034812437            3 
 1094000     1.060476   -6.4166622    454.95977  0.034655681  0.034804685            2 
 1095000    1.0930733   -6.3652999    458.04357  0.034858719  0.034797204            2 
 1096000    1.0588421   -6.3721663    456.32021   0.03469588  0.034789619            5 
 1097000    1.0814621   -6.3630711    456.96452  0.034713196  0.034781591            2 
 1098000    1.0715423   -6.4231123    456.90614  0.034677151  0.034773856            6 
 1099000    1.0660374   -6.4050713    457.64115  0.034701331   0.03476577            4 
 1100000    1.0913986   -6.3831834     459.0286  0.034774894  0.034757806            3 
 1101000    1.0673763   -6.4256843    458.38577  0.034694654  0.034749662            3 
 1102000    1.0783591   -6.4382951      458.107   0.03464209  0.034741571            4 
 1103000    1.0716268   -6.3838123    459.67821   0.03472939  0.034733725            3 
 1104000    1.0827179   -6.3984318    459.35058  0.034673202  0.034725521            3 
 1105000    1.0687032   -6.4040818    459.87088  0.034681062  0.034717379            7 
 1106000    1.0786089   -6.4159804    460.24627  0.034677989   0.03470944            2 
 1107000    1.0900705   -6.3826718    461.23176  0.034720849  0.034701583            3 
 1108000    1.0746196   -6.3867656     462.0334  0.034749805  0.034693962            2 
 1109000     1.067011   -6.4264144     460.2445  0.034584047  0.034686471            6 
 1110000    1.0684799   -6.3776079    462.37116  0.034712549  0.034678776            5 
 1111000    1.0782313   -6.4118533    461.25386  0.034597499  0.034670853            8 
 1112000    1.0778695   -6.4100195    462.88752  0.034688813  0.034663211            3 
 1113000    1.0819937   -6.4293122    461.43745  0.034549076  0.034655238            2 
 1114000    1.0889007   -6.4359091    462.57986   0.03460352   0.03464751            3 
 1115000    1.0819974   -6.4310759    462.34925   0.03455525  0.034639544            5 
 1116000    1.0509002   -6.4095378    462.87673  0.034563675  0.034631541            3 
 1117000    1.0924762   -6.4364588     463.1102  0.034550149  0.034623506            3 
 1118000    1.0656232   -6.4040733    463.50326  0.034548544  0.034615411            3 
 1119000    1.0632334   -6.3986202    464.09647  0.034561846  0.034607445            5 
 1120000    1.0760009   -6.4243931    463.93527  0.034518994  0.034599468            7 
 1121000    1.0806346   -6.3693134    465.18536   0.03458113  0.034591533            5 
 1122000    1.0904254   -6.3225089    467.01077  0.034685886  0.034583869            2 
 1123000     1.074393   -6.3996966    464.96086  0.034502883   0.03457617            2 
 1124000    1.0780206   -6.4098528    465.90935  0.034542508  0.034568502            6 
 1125000    1.0805314   -6.4071473    465.40592  0.034474513  0.034560753            5 
 1126000     1.078851   -6.4124197    465.08404  0.034420074  0.034552847            4 
 1127000    1.0667759   -6.3858237    467.18738  0.034545059  0.034544703            4 
 1128000    1.0482371   -6.4044931    466.05093  0.034430476  0.034536663            6 
 1129000    1.0824767   -6.3715182    468.32279   0.03456767   0.03452871            4 
 1130000    1.0649007   -6.3976264    468.44128  0.034545817  0.034520988            5 
 1131000    1.0716967   -6.4061907    467.04316  0.034412257  0.034512921            3 
 1132000    1.0598144   -6.4167426    467.33649  0.034403452  0.034504857            5 
 1133000    1.0750351   -6.4653538    465.21171  0.034216807  0.034496632            3 
 1134000     1.080934   -6.4481904    466.34332  0.034269791  0.034488142            4 
 1135000    1.0658748   -6.4151281    468.61907  0.034406686  0.034479862            3 
 1136000    1.0737209   -6.4061352    468.10586  0.034338752  0.034471821            4 
 1137000    1.0578533    -6.379775     467.8939  0.034293015  0.034463598           12 
 1138000    1.0875431   -6.4167537    467.59237  0.034240801  0.034455225            6 
 1139000    1.0603174    -6.459234    467.64832  0.034214831  0.034446831            2 
 1140000    1.0603605   -6.3989228    468.07778  0.034216212  0.034438131            6 
 1141000    1.0897895   -6.4448759    467.90662  0.034173723  0.034429598            4 
 1142000    1.0794462   -6.4497231    468.87437  0.034214417  0.034421031            4 
 1143000    1.0580478   -6.4585375    468.09246  0.034127476  0.034412357            4 
 1144000    1.0753319   -6.4033471    471.19237  0.034323454  0.034403739            3 
 1145000    1.0745074   -6.4277851    470.62122  0.034251908   0.03439514            4 
 1146000    1.0575434   -6.4186903    469.04726  0.034107567  0.034385991            4 
 1147000    1.0773688   -6.4276537     469.5674  0.034115621  0.034377129            4 
 1148000    1.0737187   -6.4115417    471.01673   0.03419111  0.034368474            4 
 1149000     1.068484   -6.4018221     471.4804  0.034194981  0.034359561            2 
 1150000    1.0554736   -6.4207307    469.61924   0.03403038  0.034350718            4 
 1151000     1.048808   -6.4544081    469.61398  0.034000433  0.034341879            3 
 1152000    1.0379943   -6.4183037    470.12777  0.034008085  0.034332969            4 
 1153000    1.0732644   -6.4496495    471.41851  0.034071878  0.034323965           10 
 1154000    1.0689334   -6.4523062     470.9158  0.034006052  0.034314856            3 
 1155000    1.0521606   -6.4452967    471.83303  0.034042787  0.034305755            3 
 1156000    1.0962105   -6.4466672    473.17668  0.034110199  0.034296524            6 
 1157000    1.0882858   -6.4127891    473.73375   0.03412084  0.034287944            2 
 1158000      1.07503   -6.4332002    472.65165  0.034013504    0.0342793            8 
 1159000    1.0616957    -6.403021    473.93044  0.034076103  0.034270802            3 
 1160000    1.0821091   -6.3741513     476.1775  0.034208154  0.034262048            3 
 1161000     1.057951    -6.443396    474.38081  0.034049728  0.034253519            2 
 1162000    1.0803115    -6.378453    477.41902  0.034238312  0.034245179            4 
 1163000    1.0419836   -6.4765763    474.64161   0.03400986   0.03423676            3 
 1164000    1.0752847   -6.4660239    475.56896  0.034047033  0.034227952            2 
 1165000     1.073112   -6.4659373    475.39573  0.034005417  0.034219245            3 
 1166000    1.0430796   -6.4525455    475.03219  0.033950271  0.034210774            3 
 1167000    1.0431153   -6.4216707     478.0454  0.034136347   0.03420268            2 
 1168000    1.0780961   -6.4251524    477.13228  0.034041972  0.034194299            2 
 1169000    1.0572068   -6.4213598    478.16436  0.034086424  0.034186264            6 
 1170000    1.0814835   -6.4507744    478.20563   0.03406023  0.034178204            2 
 1171000    1.0716669   -6.4194994    478.20591  0.034031164  0.034169892            7 
 1172000      1.07103   -6.4071004    479.45041  0.034090615   0.03416161            5 
 1173000    1.0472759   -6.4054941    479.14485  0.034039844  0.034153101            2 
 1174000    1.0574939   -6.4723282    477.66077  0.033905506  0.034144587            3 
 1175000    1.0619413   -6.4406631     480.7221  0.034093766  0.034136165            3 
 1176000    1.0601461   -6.4522726    477.70149  0.033850729  0.034127649            3 
 1177000    1.0420955   -6.4304802     479.9127  0.033978526  0.034119139            5 
 1178000    1.0680827   -6.4869997    480.40382  0.033984424  0.034110603            3 
 1179000    1.0593048    -6.391116     482.8855  0.034131008  0.034102116            6 
 1180000    1.0711065   -6.4026645    481.55818  0.034008346  0.034093911            4 
 1181000    1.0594701   -6.4649169    480.32764  0.033892721  0.034085649            3 
 1182000     1.064088    -6.443119    480.87654  0.033902745  0.034077016            3 
 1183000    1.0761502   -6.4393612     482.8191  0.034010926  0.034068552            4 
 1184000    1.0618777   -6.3921101    484.32702  0.034088332  0.034060201            3 
 1185000    1.0716686   -6.4394607    482.82774  0.033954131  0.034051843            6 
 1186000    1.0640193   -6.4374545    481.83496  0.033855745  0.034043398            5 
 1187000    1.0412397    -6.457827    483.10535   0.03391641  0.034034992            8 
 1188000    1.0671468   -6.4368782    483.50823  0.033916122  0.034026518            5 
 1189000    1.0643668   -6.4358472    484.82115  0.033979615  0.034018096            3 
 1190000    1.0809094   -6.4499512    482.91452  0.033817543  0.034009466            2 
 1191000    1.0478265   -6.4299105    484.96165  0.033932385   0.03400097            4 
 1192000    1.0563361   -6.4353107    485.53538  0.033944028  0.033992687            3 
 1193000    1.0498545   -6.4411504    484.62612  0.033852062  0.033984277            3 
 1194000    1.0702636    -6.418234    483.58909  0.033751333  0.033975734            2 
 1195000    1.0646333   -6.4191765    484.56099  0.033790864  0.033967151            5 
 1196000    1.0591181   -6.4110247    484.29905   0.03374436  0.033958485            3 
 1197000    1.0575981   -6.4272628    485.81432  0.033821659  0.033949755            4 
 1198000    1.0872734   -6.4317876    485.57987  0.033777119  0.033941194            5 
 1199000    1.0682676   -6.4486507    486.51953  0.033814257  0.033932677            4 
 1200000    1.0630501   -6.4465089    485.65779  0.033726235  0.033924057            3 
 1201000    1.0733494   -6.4704979    486.88997   0.03378365  0.033915488            4 
 1202000    1.0375601   -6.4802889    485.27597  0.033643647  0.033906858            4 
 1203000    1.0765789   -6.4483225    486.67256  0.033712425  0.033898129            5 
 1204000    1.0724773   -6.4521559      487.628  0.033750554  0.033889366            5 
 1205000    1.0781261   -6.4147457    488.11951  0.033756536  0.033880831            3 
 1206000    1.0544603   -6.4359909    488.81369  0.033776513  0.033872344            7 
 1207000    1.0699481   -6.4797647    487.63451  0.033667116  0.033863726            6 
 1208000    1.0605903    -6.449379     487.8677  0.033655332  0.033855027            6 
 1209000    1.0709704   -6.4777629    489.88805  0.033766753  0.033846319            3 
 1210000    1.0610454   -6.4545528    488.73516  0.033659446  0.033837822            3 
 1211000    1.0424971   -6.4404281    490.55846  0.033757119  0.033829069            2 
 1212000    1.0478716   -6.4393455    489.19211  0.033635321  0.033820447            3 
 1213000    1.0524327   -6.4351349    490.93601  0.033727398  0.033811632            2 
 1214000    1.0474298   -6.4301403    489.15974  0.033577687  0.033803111            4 
 1215000    1.0616565   -6.4884164    489.54147  0.033576233  0.033794401            4 
 1216000    1.0356997   -6.4595105    490.87369  0.033639919  0.033785673            3 
 1217000    1.0440562   -6.4517287    491.89108  0.033681942  0.033776989            2 
 1218000    1.0401896   -6.4851469    488.76845  0.033440644  0.033768122            3 
 1219000    1.0744364   -6.4807287    490.61024   0.03353912    0.0337594            4 
 1220000    1.0525856   -6.4494941    492.09916  0.033613331  0.033750731            6 
 1221000    1.0698845   -6.4520563    493.02187  0.033648776  0.033742225            3 
 1222000    1.0638519   -6.4656869    492.27885  0.033570571  0.033733758            3 
 1223000    1.0499558     -6.44191    492.66638  0.033569527  0.033725442            3 
 1224000     1.063878   -6.4278194    492.96341  0.033562324  0.033717221            3 
 1225000    1.0688113   -6.4090014    494.46746  0.033637242  0.033709139            3 
 1226000    1.0401772   -6.4653493    493.84457  0.033567467  0.033700943            6 
 1227000    1.0350999   -6.4184781    494.80331  0.033605223  0.033692694           10 
 1228000    1.0389894   -6.4926063    493.45761  0.033486537  0.033684391            4 
 1229000    1.0482408   -6.4387161    494.80222  0.033550462  0.033675966            5 
 1230000    1.0396929   -6.4532426    495.22748  0.033551997  0.033667569            2 
 1231000    1.0633685   -6.4464914    493.87948  0.033433487  0.033659023            9 
 1232000     1.050446    -6.433096    496.14026  0.033559271  0.033650617            2 
 1233000    1.0424466   -6.4349169    494.23764  0.033403463  0.033642119            3 
 1234000    1.0416384   -6.4670747    495.20694  0.033441852  0.033633543            3 
 1235000    1.0677892   -6.4371363     496.0107  0.033469008  0.033624941            3 
 1236000    1.0427384   -6.4403802    496.72805  0.033490294  0.033616226            2 
 1237000    1.0531498   -6.4475049    497.48208  0.033514018  0.033607975            3 
 1238000    1.0477302   -6.4178808    498.82037   0.03357703  0.033599718            8 
 1239000    1.0691634   -6.4474357    498.22341   0.03350978  0.033591281            4 
 1240000    1.0696893   -6.4487322    496.86946  0.033391764  0.033582866            4 
 1241000    1.0636688   -6.4649463    497.67454  0.033418919  0.033574217            3 
 1242000    1.0367213   -6.4771556    497.71966  0.033395039  0.033565383            5 
 1243000    1.0535029   -6.4998903    495.03794  0.033188384  0.033556462            7 
 1244000    1.0524122   -6.4839451     497.6159  0.033334398  0.033547555            6 
 1245000    1.0658645   -6.4703084    499.20544  0.033414019   0.03353891           11 
 1246000    1.0396927   -6.5286048    498.04906  0.033309862  0.033530303            5 
 1247000    1.0900036   -6.4663642    497.91392  0.033274119   0.03352167            5 
 1248000    1.0426971   -6.4495538    500.63111  0.033428893  0.033513306            4 
 1249000    1.0642513    -6.466433    500.69832  0.033406613   0.03350501            5 
 1250000    1.0402173   -6.4309523    501.34712  0.033423141  0.033496609            4 
 1251000     1.055763    -6.497881     499.9868  0.033305809  0.033488095            3 
 1252000    1.0457452   -6.4894561    500.08463  0.033285718  0.033479585            1 
 1253000    1.0537598   -6.4929689     500.0537  0.033257096  0.033471248            6 
 1254000    1.0510585   -6.4638845    502.57792   0.03339832  0.033462671            9 
 1255000    1.0600373   -6.4798603    501.64986  0.033310083  0.033454184            5 
 1256000    1.0580075    -6.461904    502.67588  0.033351637   0.03344544            4 
 1257000    1.0475423    -6.453968    501.60258   0.03325395   0.03343687            1 
 1258000    1.0586012   -6.4618982    504.85308  0.033442838  0.033428569            7 
 1259000    1.0561594   -6.4675279    501.98008   0.03322611  0.033420099            4 
 1260000    1.0385141   -6.4644187    503.68587  0.033312558  0.033411459            2 
 1261000    1.0615843   -6.4472279    503.34256  0.033263452  0.033402827            4 
 1262000    1.0676102   -6.4941876    503.04327  0.033217332  0.033394134            4 
 1263000    1.0590573   -6.4530718      503.662  0.033231855  0.033385545            3 
 1264000    1.0606156   -6.4739102    503.01848  0.033163138  0.033376805            5 
 1265000    1.0643611   -6.4409566    502.38199  0.033094993  0.033368068            1 
 1266000    1.0485546    -6.441836    503.61098  0.033149749  0.033359163            4 
 1267000    1.0578746   -6.4867097    503.83722  0.033138465  0.033350249            4 
 1268000    1.0481175   -6.4502689    503.55764  0.033093957  0.033341394            3 
 1269000    1.0568062   -6.4285955    506.03072  0.033230281   0.03333277            5 
 1270000    1.0512198   -6.4931521    504.50102  0.033103741  0.033323917            3 
 1271000    1.0339957     -6.48747    505.13678   0.03311938  0.033315232            5 
 1272000    1.0249163   -6.4382919    507.53408  0.033250398  0.033306404            3 
 1273000    1.0566166    -6.456053    506.13619   0.03313277  0.033297825            3 
 1274000    1.0253315   -6.4915685    505.15417  0.033042528  0.033289053            6 
 1275000    1.0482207   -6.4938414    507.93511  0.033198373  0.033280262            6 
 1276000    1.0375787   -6.4814427    507.78477  0.033162537  0.033271752            5 
 1277000    1.0496808    -6.446054    507.88815  0.033143314  0.033263206            2 
 1278000    1.0183898   -6.4790628    507.64836  0.033101745  0.033254738            4 
 1279000     1.038005   -6.4366226    509.24286  0.033179754  0.033246207            6 
 1280000    1.0551557   -6.4923457    508.61582  0.033113009  0.033237685            3 
 1281000    1.0316916   -6.4712228    509.09339  0.033118227  0.033229142            3 
 1282000    1.0587962   -6.4910988    508.06201  0.033025352  0.033220403            5 
 1283000    1.0287144   -6.4675783      508.292  0.033014549  0.033211656            3 
 1284000    1.0403847    -6.492846    508.11422  0.032977299  0.033202944            2 
 1285000    1.0257682   -6.5049523    507.81897  0.032932488  0.033194106            5 
 1286000    1.0411252   -6.5218962    506.44842  0.032818067  0.033184994            3 
 1287000    1.0385257   -6.4867939    509.34276  0.032979977  0.033176031            3 
 1288000    1.0450263   -6.4997232    509.38642  0.032957196  0.033166952            2 
 1289000    1.0444186   -6.4720042     508.5793  0.032879448  0.033157754            5 
 1290000    1.0570688   -6.4204236    510.69473  0.032990616  0.033148631            3 
 1291000    1.0513329   -6.4982227    509.62107  0.032895757   0.03313977            5 
 1292000    1.0312659   -6.4569846    511.22895  0.032974003  0.033130865            4 
 1293000    1.0476393   -6.5108185     511.8639  0.032989424  0.033122127            3 
 1294000    1.0570504   -6.4877211    512.14158  0.032981812  0.033113184            3 
 1295000    1.0481198    -6.445977    512.14237  0.032956395  0.033104313            3 
 1296000     1.042803   -6.4724793    511.69089  0.032901935  0.033095787            4 
 1297000    1.0443657   -6.5260966    511.79196  0.032883061  0.033086992            4 
 1298000    1.0226116   -6.4576886    512.75205  0.032919367  0.033078376            4 
 1299000    1.0391265   -6.4928708    511.67733  0.032825079  0.033069778            2 
 1300000    1.0524365   -6.4752064     514.6313  0.032989186  0.033060936            8 
 1301000    1.0070518   -6.4873011    514.04706  0.032926407  0.033052229            2 
 1302000    1.0397771   -6.4567661    514.40139  0.032923796  0.033043357            6 
 1303000    1.0367536   -6.4825972    513.30615  0.032828482  0.033034553            4 
 1304000    1.0326221   -6.4966029    514.03788  0.032850069  0.033025697            4 
 1305000    1.0476992   -6.4420577    515.38867  0.032911154   0.03301691            3 
 1306000    1.0542136   -6.4854035    513.63848  0.032774278  0.033008083            3 
 1307000    1.0593211     -6.47345    515.00449  0.032836298  0.032999356            3 
 1308000    1.0546363    -6.461988    515.27172  0.032828218  0.032990519            5 
 1309000    1.0294412   -6.4499014    516.33679  0.032870944  0.032981973            3 
 1310000    1.0354845   -6.4543853    515.65231   0.03280231  0.032973404            5 
 1311000     1.004766   -6.4831333    516.01635  0.032800429  0.032964565            5 
 1312000    1.0486801   -6.4593043    516.19952  0.032787063  0.032955814            2 
 1313000    1.0292815   -6.4979034    516.54608  0.032784087   0.03294694            7 
 1314000    1.0484892   -6.4963737    515.30945  0.032680711  0.032937978           13 
 1315000    1.0430806   -6.4472723    518.84437  0.032879872  0.032928975            4 
 1316000    1.0700152   -6.5013867    516.26871  0.032691788  0.032920092            4 
 1317000    1.0352017   -6.4724612    518.01619  0.032777537  0.032911304            2 
 1318000    1.0442293   -6.5184814    515.27643   0.03257944  0.032902222            3 
 1319000     1.023742   -6.4620721    518.42026  0.032753365   0.03289344            2 
 1320000    1.0495109   -6.4723048    518.35252  0.032724276  0.032884872            7 
 1321000    1.0332182   -6.5007023    517.34476   0.03263593  0.032876123            5 
 1322000    1.0461891   -6.4955547    519.79989  0.032766004  0.032867387            2 
 1323000    1.0316081   -6.4813319       520.16  0.032763921  0.032858894            3 
 1324000    1.0479073   -6.5024332    521.17327   0.03280295  0.032850559            2 
 1325000    1.0487431   -6.5300325    519.28479  0.032659421  0.032842028            8 
 1326000     1.022215   -6.4876343    520.95643  0.032739846  0.032833532            4 
 1327000    1.0242985   -6.5149437    519.88315  0.032647774   0.03282526           13 
 1328000    1.0654202   -6.5162865    521.67607  0.032735697  0.032816812            3 
 1329000    1.0292211    -6.496963     522.0795  0.032736362  0.032808348            7 
 1330000    1.0457971   -6.5280532    521.96202  0.032704387  0.032799741            7 
 1331000    1.0233415   -6.5041053    524.13312  0.032815748  0.032791341            4 
 1332000    1.0438276   -6.5152133    522.72453  0.032702986  0.032782852            2 
 1333000    1.0222839   -6.5137624    521.87138  0.032625118  0.032774457            5 
 1334000    1.0490607   -6.4992543    522.85573  0.032662152  0.032766347            7 
 1335000    1.0651625      -6.4875    524.15088  0.032718532  0.032758434            2 
 1336000    1.0433064   -6.4900846    524.25007  0.032700229  0.032750425            5 
 1337000    1.0326994   -6.4891852    523.80679  0.032648142   0.03274212            5 
 1338000    1.0439017   -6.4920671    524.68252  0.032678283  0.032733966            4 
 1339000    1.0336745   -6.5300949    523.71556  0.032593699  0.032725824            5 
 1340000     1.033309    -6.509533     523.9053  0.032581175   0.03271762            2 
 1341000    1.0182582   -6.5233018    526.20131   0.03269956  0.032709438            3 
 1342000    1.0552077   -6.4810037    528.16653  0.032797226  0.032701427            9 
 1343000    1.0472554   -6.5547075    525.90576  0.032632524  0.032693332            3 
 1344000    1.0491624   -6.4992928    526.49381  0.032644705  0.032685359            3 
 1345000     1.041567   -6.4856349    528.74544  0.032759941   0.03267736            3 
 1346000    1.0427708   -6.4947564    527.51588  0.032659477  0.032669237            3 
 1347000    1.0375872   -6.5422191    525.94039  0.032537762  0.032660858            6 
 1348000    1.0662691   -6.4931439     527.9756  0.032639441  0.032652525            3 
 1349000    1.0254667   -6.4961082    527.58202  0.032590933  0.032644046            4 
 1350000    1.0360968    -6.498914    527.15482  0.032540421  0.032635684            2 
 1351000    1.0494403   -6.5304961    526.15754   0.03245482  0.032627367            7 
 1352000    1.0408867   -6.5232226    525.82375  0.032410241   0.03261889            3 
 1353000    1.0241884   -6.5503257    526.67427  0.032438671  0.032610547            2 
 1354000    1.0542061   -6.5133414    529.12991  0.032565849  0.032602064            5 
 1355000    1.0144546   -6.4990184    528.50957  0.032503663  0.032594004            2 
 1356000    1.0272211   -6.5208844    528.79248   0.03249708  0.032585987            5 
 1357000     1.041902     -6.49309    532.02973  0.032671931  0.032577996            4 
 1358000    1.0567353   -6.4909889    530.81444  0.032573297  0.032569766            6 
 1359000    1.0440316   -6.4939262    530.84284  0.032551069  0.032561765            5 
 1360000    1.0374888   -6.5086456    529.78202  0.032462133  0.032553388            4 
 1361000    1.0445629    -6.527595    529.77165  0.032437647  0.032544911            7 
 1362000    1.0392988   -6.4494285     531.9865  0.032549345  0.032536603            5 
 1363000    1.0403392   -6.5222677    531.06082  0.032468869  0.032528392            6 
 1364000    1.0343476   -6.5149499    532.56125  0.032536733  0.032520244            6 
 1365000     1.022087   -6.4722455    533.25553  0.032555283  0.032512032            5 
 1366000    1.0210696   -6.5020802     533.2744  0.032532601  0.032503646            5 
 1367000     1.038621   -6.4645465    533.46254  0.032520272  0.032495295            5 
 1368000    1.0160707   -6.4811005    534.60583  0.032566144  0.032487091            4 
 1369000    1.0455901   -6.5415499    532.45843   0.03241164   0.03247894            4 
 1370000     1.044929   -6.4938363    533.87546  0.032474177  0.032470487            4 
 1371000    1.0547118   -6.5009718    533.27847  0.032414203  0.032462239            2 
 1372000    1.0401341   -6.5064001    534.09911  0.032440422  0.032454041            3 
 1373000    1.0372241    -6.503127    533.70301  0.032392754  0.032445705            1 
 1374000    1.0424882   -6.5349782    533.81948  0.032376242  0.032437478            3 
 1375000    1.0604105   -6.5243835    533.28955  0.032320579  0.032429336            7 
 1376000    1.0319212   -6.5381155    534.11072  0.032346822  0.032421066            3 
 1377000    1.0180242   -6.5121181    535.96125  0.032435321  0.032412575            3 
 1378000    1.0225043   -6.4506445    535.52662    0.0323855  0.032404312            3 
 1379000    1.0349906    -6.507614    536.03535  0.032392757  0.032396146            5 
 1380000    1.0158057   -6.5429552    534.78398  0.032293718  0.032387834            5 
 1381000    1.0160793   -6.5466137    534.72276   0.03226664  0.032379593            4 
 1382000    1.0302522   -6.5208845    535.02902   0.03226176    0.0323715            4 
 1383000    1.0353442   -6.5083289    535.10771  0.032243174  0.032363355            2 
 1384000    1.0061198   -6.4949607    536.53223   0.03230565  0.032355113            2 
 1385000    1.0193028   -6.5172912     536.7519  0.032295542   0.03234699            3 
 1386000    1.0310643   -6.5634346    535.48871  0.032196291  0.032338579            4 
 1387000    1.0423058    -6.554506    536.08544  0.032208931  0.032330306            6 
 1388000    1.0252888   -6.5177984     538.1015  0.032306766  0.032322191            3 
 1389000     1.025883   -6.5436081    538.21225  0.032290152  0.032313941            3 
 1390000    1.0207383   -6.4881165    539.90835  0.032368606  0.032305736            4 
 1391000      1.03428   -6.5220316    539.51749   0.03232192  0.032297672            6 
 1392000    1.0274991   -6.5179508    539.44589  0.032294414  0.032289598            2 
 1393000    1.0384946   -6.5088108     540.3961  0.032328075  0.032281484            2 
 1394000    1.0324008    -6.529082    538.58305    0.0321965  0.032273343            2 
 1395000    1.0350438   -6.5258727    538.96001  0.032195939  0.032265093            7 
 1396000    1.0352157   -6.5381638    539.33675  0.032195365  0.032256749            4 
 1397000    1.0341008   -6.5495166    538.11414  0.032099388   0.03224832            5 
 1398000    1.0254392   -6.5395677    540.58844  0.032223918  0.032239765            3 
 1399000     1.036335   -6.5618137    539.20642  0.032118562  0.032231397            5 
 1400000    1.0428744   -6.5383868     539.9923  0.032142399  0.032222756            3 
 1401000    1.0267934   -6.5869947     538.9871  0.032059666  0.032214168            7 
 1402000     1.016833   -6.5392814    539.42904  0.032063067  0.032205608            2 
 1403000    1.0505457   -6.5034721    540.72884  0.032117417  0.032197069            3 
 1404000    1.0162489   -6.5038489    540.71208  0.032093547  0.032188471            8 
 1405000    1.0194707   -6.5118018    542.05934  0.032150613  0.032179902            3 
 1406000    1.0187881   -6.5607185     540.4799  0.032034133  0.032171155            7 
 1407000     1.039075   -6.4984648    540.76514   0.03202826    0.0321625            3 
 1408000    1.0447101   -6.5074631    541.26061  0.032034837  0.032154069            3 
 1409000    1.0072793   -6.4891262    542.06916  0.032059922  0.032145594            4 
 1410000    1.0101848   -6.5417548     540.3916  0.031938038  0.032136995            7 
 1411000     1.035768   -6.5532658    539.46136  0.031860463  0.032128061            6 
 1412000    1.0205871    -6.544123    542.51719  0.032018248  0.032119436            3 
 1413000    1.0288618    -6.562202    543.05534  0.032027326  0.032110791            2 
 1414000    1.0165437   -6.5403316    542.43042  0.031967846  0.032102076            3 
 1415000    1.0339486   -6.5028865    544.60776  0.032073484   0.03209383            4 
 1416000    1.0161555   -6.5300224    543.72126  0.031998662  0.032085524            2 
 1417000    1.0515236   -6.5390871     543.6968  0.031974641  0.032076954            2 
 1418000    1.0135687   -6.4665846    546.03238   0.03208935  0.032068481            6 
 1419000    1.0196941   -6.5188944    545.79862  0.032053008  0.032060127            4 
 1420000    1.0119007   -6.5578439    544.90161  0.031977794  0.032051833            5 
 1421000    1.0381875   -6.4843903    546.28989  0.032036705  0.032043605            7 
 1422000    1.0436977   -6.5261715    546.99861  0.032055708  0.032035515            3 
 1423000    1.0054261   -6.4943225    547.22438  0.032046403  0.032027348            2 
 1424000    1.0263925   -6.5437031    546.75251  0.031996285  0.032019102            2 
 1425000    1.0073764   -6.5641609    548.09628  0.032052414  0.032010872            4 
 1426000    1.0017434    -6.525776    545.33848  0.031868775  0.032002468            4 
 1427000    1.0393936   -6.5466614     546.9956  0.031943214  0.031994105            3 
 1428000    1.0253794    -6.560217    547.37168  0.031942792  0.031985686            4 
 1429000    1.0075064   -6.5182974    547.47121  0.031926243  0.031977506            3 
 1430000    1.0084707   -6.5176624    550.44361  0.032077134   0.03196943            5 
 1431000    1.0310153   -6.4991498    548.42106  0.031936935  0.031961458            4 
 1432000   0.97596914   -6.5436934     548.0579  0.031893499  0.031953371            4 
 1433000    1.0401246   -6.5131855    550.89035  0.032035959  0.031945407            3 
 1434000   0.99969728   -6.5453158    549.37881  0.031925779  0.031937379            5 
 1435000    1.0248667   -6.5270867    550.18188  0.031950167  0.031929346            4 
 1436000    1.0319145   -6.5727528    549.20067  0.031870976  0.031921334            5 
 1437000    1.0305398   -6.5388521    550.47802  0.031922873  0.031913083            4 
 1438000     1.016557    -6.506301    548.62801  0.031793464  0.031904871            4 
 1439000    1.0163491   -6.5000633    549.73134  0.031835264  0.031896743            3 
 1440000   0.99710091    -6.500538    551.21732   0.03189915  0.031888626           10 
 1441000    1.0255163    -6.555854    550.22923  0.031819872  0.031880254            6 
 1442000    1.0038656   -6.5434398    550.73803   0.03182721   0.03187194            5 
 1443000    1.0213888   -6.5206692    551.51422  0.031849978   0.03186378            4 
 1444000    1.0125197   -6.5508277    551.74941  0.031841494  0.031855406            4 
 1445000    1.0282372    -6.555054    551.13714  0.031784149  0.031846785            7 
 1446000    1.0205049   -6.5604058    550.57812  0.031729952  0.031838516            6 
 1447000    1.0234416   -6.5548897    550.35218  0.031695012   0.03183008            4 
 1448000     1.010201   -6.5569374    550.93404  0.031706609  0.031821581            3 
 1449000    1.0182944   -6.5585288    552.28585  0.031762471  0.031813207            3 
 1450000    1.0395114   -6.5369411    552.81417  0.031770929  0.031804902            3 
 1451000     1.004333   -6.5409063    551.49423  0.031673227  0.031796563            3 
 1452000    1.0263893   -6.5402817    552.75464  0.031723751  0.031788226            7 
 1453000    1.0232594   -6.5397041    552.64142  0.031695424  0.031779796            3 
 1454000    1.0145288   -6.5602827    552.93878  0.031690668  0.031771608            4 
 1455000    1.0461718   -6.5505275    553.62438  0.031708154  0.031763464            4 
 1456000     1.035716   -6.5446575    554.22238  0.031720603  0.031755283            5 
 1457000    1.0375514   -6.5489651    554.09936  0.031691796  0.031747186            3 
 1458000   0.98778959   -6.5360339    554.78795  0.031709417  0.031738903            2 
 1459000    1.0413855   -6.5764741    555.24962  0.031714052  0.031730743            5 
 1460000    1.0159958   -6.5798295    553.95117  0.031618217   0.03172251            3 
 1461000    1.0306808    -6.556063     555.4963  0.031684708  0.031714158            7 
 1462000    1.0112823   -6.5172989    555.34663  0.031654505  0.031705865            3 
 1463000    1.0323742   -6.5654515    556.15833  0.031679103  0.031697599            3 
 1464000    1.0074461   -6.5432589    555.92082  0.031643945  0.031689368            6 
 1465000    1.0106568   -6.5497227    557.47896  0.031710976  0.031681042            6 
 1466000     1.011397   -6.5655215    554.59008   0.03152513  0.031672783            3 
 1467000   0.98844457   -6.6006072    554.14517  0.031478367  0.031664516            4 
 1468000    1.0504436    -6.547026    555.73405  0.031547119  0.031655966            7 
 1469000    1.0124377   -6.5871347    555.28798  0.031500339  0.031647444            6 
 1470000    1.0142553   -6.5706909    554.93911  0.031459133  0.031638964            6 
 1471000   0.98944552   -6.5685772    555.65151  0.031478105  0.031630279            4 
 1472000    1.0119967   -6.5812263    556.20323  0.031487954  0.031621435            3 
 1473000   0.99764494    -6.550286    557.46268   0.03153783   0.03161294            3 
 1474000    1.0120282   -6.5585192    555.63677  0.031413205  0.031604464            2 
 1475000    1.0193282   -6.5665488    557.84888  0.031516886  0.031595775            4 
 1476000    1.0309209   -6.5818795    557.70408  0.031487358  0.031587236            1 
 1477000    1.0092587   -6.5827483    558.81991  0.031528995   0.03157873            3 
 1478000    1.0222333   -6.5361042    556.76724  0.031391928  0.031570158            7 
 1479000    1.0239794   -6.5463577    558.22774  0.031452994  0.031561639            4 
 1480000   0.99922297   -6.5263348    560.14121  0.031539483  0.031553241            5 
 1481000    1.0202397   -6.5855132    556.47577  0.031311938  0.031544445            5 
 1482000    1.0035861   -6.5589523    557.30331  0.031337343  0.031535718            4 
 1483000    1.0256799   -6.5487284    558.97534  0.031410167  0.031527144            3 
 1484000    1.0219368   -6.5528508    559.29482  0.031406942  0.031518514            2 
 1485000    1.0128722   -6.5471183    558.64757  0.031349471  0.031509904            3 
 1486000    1.0118925    -6.545664    560.23576  0.031417438  0.031501307            4 
 1487000    1.0041765   -6.5764203    558.76904  0.031314113  0.031492509            2 
 1488000    1.0148169   -6.5451516    559.69012  0.031344653   0.03148369            3 
 1489000    1.0097841   -6.5292442    561.62978  0.031432157  0.031475288            4 
 1490000    1.0321065   -6.5291661    563.42913  0.031511696  0.031466797            6 
 1491000   0.99703677   -6.5812923    560.31054  0.031316261  0.031458145            3 
 1492000    1.0034453   -6.5682776    561.31808  0.031351546  0.031449388            5 
 1493000     1.028403   -6.5735514    558.87124  0.031193974  0.031440561            8 
 1494000    1.0119178   -6.5690413    559.49444  0.031207856  0.031431591            2 
 1495000    1.0109144   -6.5683526    560.64121  0.031250903  0.031422765            4 
 1496000    1.0008185   -6.5628997    559.77759  0.031181907  0.031413712            3 
 1497000    1.0016716   -6.5701495    558.29729  0.031078673  0.031404645            3 
 1498000    1.0221906   -6.5729875    560.15063  0.031161027  0.031395648            3 
 1499000    1.0154401   -6.5983793    560.51932  0.031160736  0.031386848           10 
 1500000     1.043577   -6.5732511    562.99135  0.031277297  0.031378004            3 
 1501000    1.0128077   -6.5916913    561.73803  0.031186877   0.03136913            2 
 1502000    1.0140623   -6.5439582    562.72438  0.031220838  0.031360299            5 
 1503000    1.0203864   -6.5951578    562.46781   0.03118584  0.031351383            6 
 1504000    1.0088234   -6.5722262    562.83216  0.031185292  0.031342655            4 
 1505000    1.0284513   -6.5842633     562.8038  0.031163001  0.031333938            5 
 1506000    1.0042856   -6.5239717      566.046  0.031321713  0.031325339            3 
 1507000   0.99375031   -6.5392503    564.14768  0.031195956  0.031316532            3 
 1508000    1.0293161   -6.6012902    562.78683  0.031100068    0.0313076            6 
 1509000    1.0318029   -6.5834712    562.96006  0.031089025  0.031298712            4 
 1510000    1.0190985    -6.619683    562.97992  0.031069532  0.031289987            2 
 1511000    1.0339551   -6.5931123    563.89254  0.031099302  0.031281094            7 
 1512000    1.0210735   -6.5946216    562.46236  0.030999909  0.031272313            4 
 1513000   0.99652635   -6.6034316    563.46178  0.031034467  0.031263317            3 
 1514000    1.0078481   -6.5610789    564.56507  0.031074696  0.031254471            4 
 1515000    1.0385434   -6.5922764    564.15156  0.031031439    0.0312457            4 
 1516000    1.0192333   -6.5495727    566.83593  0.031158527   0.03123684            4 
 1517000   0.98962968   -6.5895213    565.54938  0.031067314  0.031228118            2 
 1518000   0.99023474   -6.5629546    566.44027  0.031095755  0.031219466            4 
 1519000    1.0153868   -6.5669218    565.77465  0.031038767  0.031210805            4 
 1520000   0.99187391   -6.5930784    565.14311  0.030983723  0.031201975            4 
 1521000   0.99828675   -6.5817075    565.88542  0.031004022  0.031193128            4 
 1522000    1.0079802   -6.5452414    567.16359  0.031053635  0.031184414            4 
 1523000    1.0168274   -6.5986092      565.457  0.030939866  0.031175587            8 
 1524000    1.0023839   -6.5827451    565.94619  0.030946314  0.031166794            6 
 1525000   0.97662779   -6.5423461     567.2759  0.030998683   0.03115804            7 
 1526000    1.0034502   -6.6046816    567.00694  0.030963682  0.031148874            4 
 1527000   0.99365551   -6.5873891    566.53158  0.030917462  0.031139905            5 
 1528000     1.003281   -6.5853626     565.8977  0.030862658  0.031130769            7 
 1529000    1.0057835    -6.582768    565.40509  0.030815625  0.031121659            4 
 1530000    1.0065848   -6.5650894    567.30693   0.03089907  0.031112536            4 
 1531000    1.0012815   -6.5634441    566.85283  0.030854171  0.031103558            5 
 1532000   0.99497256   -6.5856404    567.29584  0.030858129  0.031094426            1 
 1533000    1.0033151   -6.5704681    567.43347  0.030845481  0.031085299            3 
 1534000    1.0223648   -6.5746032    568.05574  0.030859178  0.031076162            3 
 1535000    1.0168123   -6.5849948    567.90377  0.030830824  0.031067045            7 
 1536000   0.98672647   -6.5808275    568.03264  0.030817743  0.031058019            4 
 1537000   0.99072514   -6.5770765    569.15994  0.030858813   0.03104913            2 
 1538000   0.99693381   -6.5874054     569.7031  0.030868178  0.031040089            4 
 1539000    1.0101964   -6.5912871    569.97767  0.030862988   0.03103097            4 
 1540000    0.9888652   -6.5954066    570.25427  0.030857915  0.031021986            3 
 1541000    1.0022983   -6.6181181    568.77489  0.030757889  0.031012809            5 
 1542000   0.99674329   -6.5617034    571.53946  0.030887346   0.03100394            4 
 1543000   0.99770568   -6.5985037    570.15388  0.030792497   0.03099507            5 
 1544000    1.0226881   -6.6176987    568.67199  0.030692573  0.030986097            3 
 1545000   0.99436002     -6.57517    570.43977  0.030768057  0.030976998            4 
 1546000    1.0137425   -6.5785846     572.4636  0.030857244  0.030968126            9 
 1547000    1.0246536   -6.5834369    570.77622  0.030746403  0.030959243            5 
 1548000    1.0168895   -6.5866017    568.99389  0.030630593  0.030950358            4 
 1549000    1.0044237   -6.6466232     568.5375  0.030586265  0.030941181            7 
 1550000    1.0325512   -6.6285559    570.63691  0.030679404  0.030931967            6 
 1551000     1.003628    -6.605418    570.49426  0.030651959  0.030922794            2 
 1552000    1.0171006   -6.5774567    570.88696  0.030653294  0.030913798            2 
 1553000    1.0145987   -6.5781877    572.92724  0.030743037  0.030904838            5 
 1554000    1.0080297   -6.5791121     573.1008  0.030732561  0.030896003           10 
 1555000   0.98617441   -6.5821335    573.69317  0.030744543  0.030887256            4 
 1556000    1.0033686   -6.6145448    572.48579  0.030660121  0.030878332            3 
 1557000   0.98552035   -6.5499084    573.16078  0.030676556  0.030869522            7 
 1558000    1.0210197   -6.5712919    574.08553  0.030706329  0.030860702            2 
 1559000    1.0075001   -6.5839192    574.15555  0.030690376   0.03085185            5 
 1560000   0.99155838   -6.6024074     573.1098   0.03061484  0.030843101            5 
 1561000   0.97647634   -6.5764457    575.08131  0.030700476   0.03083441            3 
 1562000   0.99924723   -6.5713326    577.72166  0.030821685  0.030825675            6 
 1563000    1.0169009   -6.5731399    574.53847   0.03063225  0.030816972            3 
 1564000   0.99645581   -6.5755658    574.81449  0.030627371  0.030808113            3 
 1565000   0.98689723   -6.5808567    575.34342  0.030635965  0.030799186            2 
 1566000    1.0109538   -6.5999339    576.22207  0.030663158   0.03079012            6 
 1567000   0.99563305   -6.5881805    575.18508  0.030588443  0.030781157            5 
 1568000    1.0064097   -6.5890122    574.54771  0.030535061  0.030772314           10 
 1569000    1.0137682   -6.6557343    572.85613  0.030425756  0.030763329            9 
 1570000    1.0121468   -6.5955316    576.01681   0.03057414  0.030754366            2 
 1571000    1.0150359    -6.581443    578.00554  0.030660171  0.030745412            4 
 1572000    1.0155876   -6.6257728     574.8417  0.030472948  0.030736494            3 
 1573000    1.0142704   -6.6033161    577.14742  0.030575727  0.030727393           11 
 1574000   0.98335976   -6.5962459    576.44561  0.030519145   0.03071837            3 
 1575000    1.0187704   -6.5940165    576.39591  0.030497138  0.030709573            5 
 1576000    1.0081516   -6.5378291    579.09111    0.0306203  0.030700662            2 
 1577000    1.0046537   -6.5708952    578.29102  0.030558604  0.030691918            8 
 1578000   0.99124301   -6.5637534    579.98185   0.03062853    0.0306831            3 
 1579000   0.99200254   -6.6187518    576.47606  0.030424111  0.030674201            3 
 1580000    1.0000466   -6.6188677    576.93856  0.030429249  0.030665153            3 
 1581000    0.9994058   -6.5731327    577.56567  0.030443057   0.03065602            3 
 1582000    1.0094612   -6.6309159    575.88638  0.030335355  0.030646789            4 
 1583000   0.99910633   -6.6043134    578.15088  0.030435401  0.030637716            4 
 1584000    1.0026509   -6.6065528    579.98976  0.030512929  0.030628818            4 
 1585000    0.9913905   -6.6150709    579.31626  0.030458268  0.030619911            7 
 1586000   0.98470949   -6.6331688    577.78624  0.030358672  0.030610999            4 
 1587000    1.0020002    -6.594123     578.8026  0.030392911  0.030601983            6 
 1588000    0.9994378   -6.5973535    580.06119  0.030439819  0.030593051            4 
 1589000   0.99702151   -6.5915416    579.22488  0.030376803  0.030583936            2 
 1590000    1.0132037   -6.6020387    579.46865  0.030370474  0.030574895            5 
 1591000    1.0203228   -6.6000209    580.22731  0.030391122  0.030565866            6 
 1592000   0.99399555   -6.6180657    581.81599  0.030455192  0.030556779            3 
 1593000    1.0153837    -6.578026    581.34899  0.030411644  0.030547727            3 
 1594000   0.99536401   -6.6228961    580.35307  0.030340499   0.03053873            2 
 1595000   0.99773045   -6.5823685     578.6891   0.03023454  0.030529749            7 
 1596000    1.0158858   -6.6115869    580.00538  0.030284324  0.030520757            6 
 1597000    1.0049287   -6.6069808    580.95607  0.030314969  0.030511825            4 
 1598000   0.98077375   -6.5792066    583.64855  0.030436408  0.030502939            3 
 1599000   0.97790679   -6.5887264    582.16309  0.030339957  0.030494078            5 
 1600000    0.9859734   -6.5820993    582.28652  0.030327423  0.030485276            2 
 1601000    1.0033503    -6.586605    582.43032  0.030315965  0.030476701            2 
 1602000    1.0099296   -6.6066958    584.08387  0.030383056  0.030468047            6 
 1603000   0.99070602   -6.5848333    583.77134  0.030347855  0.030459362            3 
 1604000   0.99766278    -6.619327    582.84924  0.030281029  0.030450605            2 
 1605000   0.99543547   -6.5781324     583.7475    0.0303088  0.030441884            5 
 1606000   0.97957557   -6.6312249     584.9842  0.030354099   0.03043331            9 
 1607000    1.0022364    -6.560582    585.93451   0.03038449  0.030424777            5 
 1608000   0.98336772   -6.6162951    584.63605  0.030298303  0.030416114            2 
 1609000   0.99219236   -6.5720897     585.9575  0.030347913  0.030407582            3 
 1610000   0.97870525   -6.6120505    583.55332  0.030204623   0.03039902            3 
 1611000    0.9908906   -6.6611626    582.72955  0.030143262  0.030390285            2 
 1612000   0.98410572    -6.620393    585.54573  0.030270148  0.030381433            5 
 1613000   0.97976573   -6.6347108    585.98737  0.030274198  0.030372772            3 
 1614000   0.99605775   -6.6190214     587.6915  0.030343427  0.030364147            7 
 1615000     1.002295   -6.6306584     585.0222  0.030186904  0.030355537            5 
 1616000   0.99264275   -6.6062853    587.13751  0.030277306  0.030346956            2 
 1617000    1.0029701   -6.5986117    589.71898  0.030391619  0.030338498            4 
 1618000    1.0318919   -6.6408004    586.52287  0.030208223  0.030330082            5 
 1619000   0.99026921   -6.6024203    591.00114  0.030420071  0.030321669            4 
 1620000   0.99623611   -6.6277573    587.67273  0.030230079  0.030313183            3 
 1621000   0.99190479   -6.6012742    590.09421  0.030335914   0.03030486            4 
 1622000    1.0000442   -6.6392567    585.83669  0.030098474  0.030296357            6 
 1623000   0.98371199   -6.6144204    589.92528  0.030289858  0.030287969            9 
 1624000   0.97975209   -6.6385006    588.79331  0.030213122  0.030279614            7 
 1625000    1.0206972   -6.6110538    589.86208  0.030249337   0.03027117           11 
 1626000   0.98717877   -6.6313465    591.38513  0.030308791  0.030262686           19 
 1627000    1.0010025   -6.5955771    590.60616  0.030250264    0.0302543            3 
 1628000   0.99996669    -6.620914    593.05385  0.030356974  0.030246056            9 
 1629000   0.99179318   -6.6166809          590  0.030182116  0.030237812            6 
 1630000   0.99225579    -6.607783    592.18662  0.030275389  0.030229609            5 
 1631000   0.98235904   -6.6198878    591.09489  0.030201047  0.030221393            3 
 1632000   0.96478672   -6.6211998    591.88286  0.030222777  0.030213046            6 
 1633000   0.99389405   -6.6171185    591.24874   0.03017191  0.030204846            3 
 1634000   0.97099369   -6.6018459    592.34173  0.030209186  0.030196614            4 
 1635000   0.98200473   -6.5885334    594.65416  0.030308571  0.030188409            8 
 1636000   0.98592965    -6.629549    592.23629  0.030166885  0.030180169            3 
 1637000    1.0067512    -6.600866    591.41904  0.030106854  0.030171947            3 
 1638000   0.99501762   -6.5864583    593.96683  0.030218093  0.030163811            5 
 1639000   0.99896343   -6.5952891    592.17165  0.030108382  0.030155566           12 
 1640000   0.99879973   -6.6201028    592.15318  0.030089084  0.030147302            3 
 1641000   0.97987714   -6.6416263    593.06591  0.030117099  0.030138902            3 
 1642000   0.97863288   -6.6350548    594.11159  0.030151827  0.030130531            5 
 1643000    1.0062733   -6.6229072    594.04139  0.030129914  0.030122296            5 
 1644000   0.98763945   -6.5959148    594.65124    0.0301425  0.030114093            4 
 1645000   0.99573268   -6.6314628    594.41935  0.030112429  0.030105807            4 
 1646000   0.99209988   -6.5870453    595.40056  0.030143811  0.030097573            2 
 1647000   0.98490506   -6.6079128    595.12091  0.030111359  0.030089352            3 
 1648000   0.97093012   -6.6263679    595.79822  0.030127337  0.030081109            7 
 1649000   0.97872954   -6.6449589    593.57874  0.029996904  0.030072813            5 
 1650000    1.0056937   -6.6519469    595.65536  0.030083604  0.030064417            2 
 1651000    1.0017875   -6.6454144    594.40948  0.030002498  0.030056053            4 
 1652000   0.97054821   -6.6333329    595.88286  0.030058659  0.030047731            9 
 1653000   0.99255766   -6.6519573    596.61549  0.030077409  0.030039541           12 
 1654000   0.97834874   -6.6221464    595.72039  0.030014127  0.030031242            2 
 1655000    1.0114809   -6.6286408    596.69539  0.030045085  0.030023075            6 
 1656000   0.98331795   -6.5960538    599.15566  0.030150748  0.030014925            4 
 1657000   0.99800247   -6.6168002     597.6921  0.030058947  0.030006767            3 
 1658000   0.97812601   -6.5826284    596.46076  0.029978928  0.029998663            3 
 1659000   0.98711172   -6.6576519     595.6793  0.029921604  0.029990493            5 
 1660000   0.98254866   -6.5950951    597.23889  0.029981872  0.029982112            3 
 1661000   0.99366038    -6.633894    598.31369  0.030017745  0.029973727            6 
 1662000   0.97780158    -6.667429    597.16859  0.029942268   0.02996534            4 
 1663000   0.97245594   -6.6447231    596.48137  0.029889826  0.029956773            3 
 1664000   0.98098299    -6.591787    598.67461  0.029981701  0.029948175            2 
 1665000   0.96661226   -6.6247654    598.08102  0.029933985  0.029939789            2 
 1666000   0.97697153   -6.6077799     597.3367  0.029878786  0.029931333            4 
 1667000   0.99143435   -6.6364006    595.72971   0.02978053  0.029922708            5 
 1668000   0.97714764   -6.6690693    597.86095  0.029869152  0.029914005            8 
 1669000    1.0055132    -6.654238    597.74492  0.029845462  0.029905442            4 
 1670000    1.0059406   -6.6224781    598.05502  0.029843065  0.029896882            3 
 1671000   0.97368278   -6.6314108    596.34194  0.029739774  0.029888215            3 
 1672000   0.98915787   -6.6626112    597.55799  0.029782595  0.029879565            3 
 1673000   0.98201256   -6.6511823    596.49172  0.029711682  0.029870926            6 
 1674000    1.0048698   -6.6429411    597.21037  0.029729708  0.029862142            8 
 1675000   0.96436212   -6.6519214    596.92138  0.029697581  0.029853278            3 
 1676000   0.98809745   -6.6524286    596.17236  0.029642619  0.029844363            4 
 1677000   0.98666945   -6.6527094    597.80872  0.029706257  0.029835421            2 
 1678000    0.9840093   -6.6621113     595.9896  0.029598212  0.029826532            5 
 1679000    0.9741327    -6.625901    597.90472  0.029675636  0.029817689            2 
 1680000   0.96100672   -6.6687827    596.59005   0.02959276  0.029808837            6 
 1681000   0.98502807   -6.6472525     598.6195  0.029675764  0.029800098            3 
 1682000   0.99057533    -6.669144    598.19136  0.029636908  0.029791197            9 
 1683000   0.95308553   -6.6325067    598.88554  0.029653671  0.029782382            5 
 1684000   0.98383498   -6.6252245    599.10379  0.029646862  0.029773736            3 
 1685000   0.98716548   -6.6637394     597.8357  0.029566553  0.029765027            4 
 1686000   0.98045765   -6.6523233    599.07343  0.029610193  0.029756272            5 
 1687000    1.0062849   -6.6477646    599.69267   0.02962323  0.029747546            4 
 1688000    1.0049178   -6.6816759    599.36211  0.029589362  0.029738785            3 
 1689000   0.96420168   -6.6373397    601.35124  0.029669984  0.029730002            3 
 1690000    1.0142613   -6.6630937    598.84808  0.029528998  0.029721327            4 
 1691000   0.98002131   -6.6570017    598.92028  0.029515094  0.029712586            4 
 1692000   0.96312908   -6.6291283    601.96837  0.029647773  0.029703836            6 
 1693000   0.97966144   -6.6210773    602.25629  0.029644432  0.029695224            2 
 1694000   0.96704478   -6.6530594     601.9538  0.029612052  0.029686663           11 
 1695000   0.96887747   -6.6539615    600.29321   0.02951294  0.029678071            2 
 1696000   0.98445639   -6.6202317    603.42705  0.029649521  0.029669511            3 
 1697000   0.94056778     -6.63183    601.34542  0.029529828  0.029660893            8 
 1698000     1.008566   -6.6646571    602.50462  0.029569328  0.029652219            7 
 1699000   0.97212658   -6.6141405     602.6262  0.029557887  0.029643673            2 
 1700000   0.96217989   -6.6787146    602.34779  0.029526853  0.029634924            6 
 1701000   0.97039393   -6.6782333    600.39934  0.029414038  0.029626108            2 
 1702000   0.98827207   -6.6382105    603.65369  0.029556095  0.029617435            4 
 1703000    0.9883293   -6.6508631     602.8621  0.029500005  0.029608862            3 
 1704000    1.0024387   -6.6582202    602.15743  0.029448231  0.029600215            6 
 1705000   0.98301403   -6.6253803    604.26488  0.029533963   0.02959166            5 
 1706000     0.984795   -6.6626515    602.24936  0.029418199  0.029582983            4 
 1707000   0.97746568   -6.6353051    602.57552  0.029416887  0.029574129            3 
 1708000   0.98890742   -6.6539707    604.52113  0.029494591  0.029565441            4 
 1709000      1.00429   -6.6252753    604.30645  0.029466864  0.029556651            4 
 1710000   0.99648055   -6.6572437    603.28316  0.029399764  0.029547808            4 
 1711000   0.98831983   -6.6382628    605.11378  0.029471741  0.029539011            3 
 1712000   0.97492246   -6.6639186    604.43186  0.029421333  0.029530246            7 
 1713000   0.98484982   -6.6398339    603.00839  0.029334909  0.029521517            3 
 1714000   0.97314119   -6.6634452    604.26014  0.029378653  0.029512701            5 
 1715000   0.96365691   -6.6859275    603.49934  0.029324555  0.029503792            4 
 1716000   0.96532404   -6.6387369    604.73877  0.029367656  0.029494962            5 
 1717000   0.98258958   -6.6174401    605.88339  0.029406105  0.029486246            4 
 1718000    1.0031843   -6.6430754    605.19438  0.029355568  0.029477473            5 
 1719000   0.98346743   -6.6623371    604.72871  0.029315916  0.029468686            4 
 1720000   0.96989314   -6.6788961     606.3088  0.029375426  0.029459906            6 
 1721000   0.96323731    -6.642269    606.24192  0.029355119  0.029451085            2 
 1722000   0.97692202   -6.6669335    605.91459  0.029322231  0.029442384            4 
 1723000   0.99146899   -6.6711452    606.32518  0.029325072  0.029433659            6 
 1724000   0.98357964   -6.6422142    607.46477  0.029363146  0.029425033            4 
 1725000   0.96468952   -6.6772354    606.57449  0.029303115  0.029416358            8 
 1726000   0.96496364   -6.6531103    607.79708  0.029345166  0.029407677            4 
 1727000   0.99057625   -6.6623173    606.95377  0.029287481  0.029398907            2 
 1728000   0.97696435   -6.6472842     607.8088  0.029311767  0.029390164            5 
 1729000   0.98934838   -6.6464801    606.75625  0.029244084    0.0293814            7 
 1730000   0.98174419   -6.6715768     607.4993  0.029262972  0.029372822            6 
 1731000   0.97962697   -6.6524542    610.11044  0.029371772  0.029364142            5 
 1732000   0.98563885   -6.6716741    608.84005   0.02929369  0.029355574            5 
 1733000   0.97421969   -6.6486253    609.84776  0.029325243  0.029346975            3 
 1734000   0.96371132   -6.6630988    610.71766  0.029350137  0.029338457            5 
 1735000   0.96898228   -6.6663662    607.88803  0.029197311  0.029329883            6 
 1736000   0.96301295   -6.6907328     609.6288  0.029264055  0.029321299            6 
 1737000   0.95975441   -6.6434245    610.96522  0.029311323  0.029312789            4 
 1738000   0.98833327   -6.6612346    609.73631  0.029235535  0.029304242           10 
 1739000    0.9655986   -6.6369006    611.30767  0.029294023  0.029295886            8 
 1740000   0.94618559    -6.632521    612.48172  0.029333416   0.02928749            6 
 1741000   0.98288511    -6.666962    611.16829  0.029253699  0.029279066            5 
 1742000   0.98869413   -6.6862911    611.03619  0.029230587  0.029270593            6 
 1743000   0.96903066   -6.6626565    610.96371  0.029210351  0.029261994            3 
 1744000   0.98899489   -6.6891317    611.59695   0.02922386  0.029253411            5 
 1745000   0.95211772   -6.6699225    610.91323  0.029174462  0.029244834            5 
 1746000   0.95244972   -6.6421392    611.16982  0.029169999  0.029236168            7 
 1747000   0.96477194   -6.7106729    610.08387  0.029101501  0.029227651            5 
 1748000   0.96252862   -6.6500476    611.93549  0.029173126  0.029218996            3 
 1749000   0.97012626   -6.6839897    610.72301  0.029098676  0.029210446            5 
 1750000   0.97884708   -6.6628101    612.83575  0.029182655   0.02920197            3 
 1751000   0.96788065   -6.6705404     612.7173  0.029160351  0.029193577            4 
 1752000   0.96163197   -6.6776942    612.58525  0.029137426  0.029185137            7 
 1753000   0.96870097   -6.6900956    613.16127  0.029148188  0.029176598            3 
 1754000   0.97107078   -6.6148022    615.22815  0.029229768   0.02916826            6 
 1755000   0.97943761   -6.6530174    614.32876  0.029170406  0.029159839            9 
 1756000   0.97555408   -6.6689647    612.67369  0.029075251  0.029151335           10 
 1757000   0.99591943   -6.6888625    612.10046  0.029031515   0.02914277            9 
 1758000   0.96258743   -6.6412541    613.33971  0.029073744  0.029134204            2 
 1759000    0.9589054   -6.6898846    612.24411  0.029005311  0.029125719            5 
 1760000   0.97543063   -6.6793005    614.14758  0.029078958  0.029117183            6 
 1761000   0.96237965   -6.6430801    614.91315  0.029098672  0.029108663            4 
 1762000   0.96039013   -6.6725876    613.55068   0.02901772  0.029100222            4 
 1763000   0.96688416   -6.7154752    614.65728  0.029053568  0.029091725            5 
 1764000   0.98586619    -6.673437    614.16271  0.029013734  0.029083071            5 
 1765000   0.95899376   -6.7062939    613.17179  0.028950509  0.029074441            4 
 1766000   0.95830047   -6.7340666    613.18989   0.02893497    0.0290658            4 
 1767000   0.94295707   -6.6768443    613.45935  0.028931303  0.029057179            4 
 1768000   0.95670032   -6.6877121    613.59496  0.028921331  0.029048559            6 
 1769000   0.97656789    -6.693683    614.37431  0.028941696  0.029040029            4 
 1770000   0.97542932     -6.68452    614.59298   0.02893564   0.02903145            3 
 1771000   0.97333736   -6.6677952    616.39177  0.029003942  0.029022832            3 
 1772000   0.96382193   -6.6853746    616.19758  0.028978441  0.029014227            6 
 1773000   0.96906801   -6.6725022     615.8789  0.028947119  0.029005638            2 
 1774000   0.97963902   -6.6866062    615.86822    0.0289303  0.028997071            4 
 1775000   0.96071501   -6.6857571    616.20977  0.028930036  0.028988429            6 
 1776000   0.97383843   -6.6785699     617.2885  0.028964363   0.02897985            3 
 1777000   0.96722765   -6.6792499    618.09316  0.028985798   0.02897146            7 
 1778000   0.97026018   -6.7059924    616.63402  0.028901107  0.028963032            3 
 1779000   0.95752628   -6.6826617    620.06541  0.029045597  0.028954611            3 
 1780000   0.95103349   -6.6865655    619.48495  0.029002104  0.028946257            5 
 1781000   0.97040856   -6.6853157    616.95574  0.028867478    0.0289378            5 
 1782000    0.9745813   -6.6674017    620.47892  0.029016036  0.028929496            8 
 1783000   0.97241093   -6.7028824    618.19029  0.028892797  0.028921217            7 
 1784000   0.95306116   -6.6852153    618.49951  0.028891046  0.028912841           11 
 1785000   0.99115808   -6.6932713    617.04647  0.028807025   0.02890445           14 
 1786000   0.96254138   -6.7011275    618.55878  0.028861458  0.028896087            3 
 1787000    0.9709961   -6.6458265     621.6251    0.0289883  0.028887649            3 
 1788000   0.95824638    -6.649841      622.525  0.029014029  0.028879402            5 
 1789000   0.98402584   -6.6529027    619.54418  0.028858961  0.028871141            6 
 1790000   0.94920963   -6.6838021    619.93158  0.028860874  0.028862869            4 
 1791000   0.97543695   -6.6578176    620.40881  0.028866965    0.0288545            4 
 1792000   0.95447637   -6.6680702    620.33884  0.028847602  0.028846142            6 
 1793000   0.95649307   -6.6495393    620.87893  0.028856615  0.028837844            3 
 1794000    0.9672772   -6.6670423    619.64984  0.028783437  0.028829568           11 
 1795000   0.96020375   -6.6505319    622.01124  0.028877031  0.028821225            6 
 1796000   0.97881281    -6.688235    619.27125  0.028733818  0.028812967            4 
 1797000   0.96402779   -6.6887644    620.84168  0.028790655  0.028804572            5 
 1798000   0.96782816   -6.7204769    619.01811  0.028690124  0.028796117            8 
 1799000   0.95374271   -6.6889498      623.237  0.028869603  0.028787831            3 
 1800000   0.96371973   -6.6846821    623.02176    0.0288436  0.028779552            5 
 1801000   0.94920842   -6.7006931     620.3604  0.028704442  0.028771256            7 
 1802000   0.96414727   -6.6889208    621.67829  0.028749458  0.028762954            5 
 1803000   0.94301234   -6.7079204    620.94503  0.028699622  0.028754651            5 
 1804000    0.9772414   -6.6806207    622.98131  0.028777777  0.028746344            4 
 1805000   0.96809257   -6.6664739    621.13621  0.028676649  0.028737962            6 
 1806000   0.96345581   -6.7177128    621.67467  0.028685616  0.028729534            4 
 1807000   0.96013688   -6.6650987    622.62174  0.028713417  0.028721062            7 
 1808000   0.94904358   -6.6656911    622.47481  0.028690764  0.028712683            3 
 1809000   0.96100161   -6.6904455    622.89969  0.028694476  0.028704244            2 
 1810000   0.96176128   -6.7041413    621.85894  0.028630706  0.028695765            3 
 1811000   0.97711802   -6.7323042    621.46758  0.028596888  0.028687285            5 
 1812000   0.95726275   -6.6753097     624.2664  0.028709823  0.028678857            5 
 1813000   0.96115483   -6.7396942    622.28071  0.028602717  0.028670433            3 
 1814000   0.96430182    -6.711517    623.80277  0.028656871  0.028661979            4 
 1815000   0.96813272   -6.6958134    623.20016  0.028613414  0.028653596            3 
 1816000   0.97912995   -6.7124433     624.9702  0.028678882   0.02864515            4 
 1817000   0.96071792   -6.6825159    623.14104  0.028579208  0.028636741            5 
 1818000   0.95578986   -6.6641408     626.7366    0.0287283   0.02862834            3 
 1819000   0.95517555    -6.663029    626.83999  0.028717244  0.028620076            6 
 1820000   0.97406771   -6.7053221    624.94375   0.02861464  0.028611813            8 
 1821000   0.98018635   -6.6939601    624.22605  0.028566083  0.028603525            2 
 1822000   0.95829226   -6.6926123    626.10376  0.028636286  0.028595123            3 
 1823000   0.94197822   -6.6989423    626.30435  0.028629747  0.028586842            5 
 1824000   0.96618886   -6.7288434    624.38203  0.028526226  0.028578583            4 
 1825000   0.92056062     -6.70402    626.50409  0.028607493  0.028570475            5 
 1826000   0.97223972   -6.6708469    627.87434   0.02865436  0.028562336           12 
 1827000   0.96787284   -6.7065781    628.26334  0.028656419  0.028554163            4 
 1828000   0.96567328   -6.7019062    626.52298  0.028561405  0.028545964            2 
 1829000    0.9543881   -6.7161044    628.12892  0.028618959   0.02853778            4 
 1830000   0.95898308    -6.699288    627.71529  0.028584485   0.02852968            4 
 1831000   0.97557781   -6.7009904    627.40028  0.028554537  0.028521592            6 
 1832000    0.9533807   -6.7055236    627.37655  0.028537871  0.028513353            4 
 1833000   0.95698469     -6.72265     627.3305  0.028520208  0.028505115            5 
 1834000    0.9670996   -6.7158861    627.57236  0.028515647  0.028496855            4 
 1835000   0.97125137   -6.7082148    629.47022  0.028586295  0.028488732            3 
 1836000   0.97245273   -6.7132607    628.56997  0.028529864  0.028480548            4 
 1837000   0.95471587   -6.6941753    629.57035  0.028559715  0.028472304            4 
 1838000   0.93641801   -6.6886033    630.11517  0.028568878   0.02846404            8 
 1839000   0.97201724    -6.658685    630.39666  0.028566099   0.02845587            7 
 1840000   0.95557525   -6.7268363    628.03254  0.028443503  0.028447828            4 
 1841000   0.95818487   -6.7090367    630.59348  0.028543974  0.028439618            4 
 1842000   0.94516533   -6.7179744    629.37519  0.028473362  0.028431352            4 
 1843000   0.95629287    -6.683468    629.95499  0.028484129  0.028423167            7 
 1844000   0.97813429   -6.7040775    627.98051  0.028379452  0.028415014            4 
 1845000    0.9678217    -6.732779    629.19266   0.02841882  0.028406793            6 
 1846000   0.95288567   -6.7092238    630.22853  0.028450187  0.028398569            8 
 1847000    0.9562002   -6.7148708    630.17988  0.028432588  0.028390313            4 
 1848000   0.95396347   -6.6802472    631.02194  0.028455174  0.028382132            3 
 1849000   0.94843684   -6.7096998    629.03537  0.028350251  0.028373919            4 
 1850000   0.95019955   -6.7212951    629.80533   0.02836961  0.028365669            5 
 1851000   0.94899789   -6.7204846    631.33125  0.028422981  0.028357401            5 
 1852000   0.97415811   -6.7186048    628.04745  0.028259874  0.028349132            6 
 1853000   0.96273513   -6.7721635     627.7012  0.028229052  0.028340852           12 
 1854000   0.95047573   -6.7579037    630.32309  0.028331674   0.02833248            5 
 1855000   0.96699027   -6.7247977    630.34094  0.028317203  0.028324244            4 
 1856000   0.94876567   -6.7170296    629.52468  0.028265296  0.028315969            7 
 1857000   0.93940124   -6.6754789    631.04364  0.028318239  0.028307601            4 
 1858000   0.97053011   -6.7122553    631.81899  0.028337773  0.028299371            3 
 1859000   0.94289468   -6.7122648    630.24407  0.028251931  0.028291102            3 
 1860000   0.95238665   -6.6860577    634.17225  0.028412735  0.028282903            4 
 1861000   0.95339199   -6.6978488    633.54329  0.028369304  0.028274718            4 
 1862000   0.94274717    -6.704332    633.72704  0.028362291  0.028266517            3 
 1863000   0.95960159    -6.711242    632.69024  0.028300691  0.028258302            4 
 1864000   0.94910166   -6.7127454    634.34751  0.028359599  0.028250237            4 
 1865000   0.97789547   -6.6829644    635.37179   0.02839016  0.028242119            3 
 1866000   0.95965373   -6.7012929    632.98458  0.028268336  0.028233958            6 
 1867000   0.96275218   -6.7100713    633.05508  0.028256342  0.028225742            2 
 1868000   0.96508374   -6.6997594    632.81534   0.02823052  0.028217525            4 
 1869000   0.95371735   -6.7056372    631.99533  0.028178853  0.028209312            2 
 1870000   0.93631887   -6.6793321    635.46276  0.028318305  0.028201012            5 
 1871000   0.95800251   -6.7106306    635.34674  0.028298002  0.028192877            5 
 1872000   0.96219336   -6.6996581    634.72186  0.028255068   0.02818483            4 
 1873000   0.94522278   -6.6913169    635.59196  0.028278695  0.028176715            5 
 1874000     0.945887    -6.724143    634.53964  0.028216811  0.028168622            5 
 1875000   0.95219416   -6.6944305    636.83323  0.028303699  0.028160542            1 
 1876000   0.95916474   -6.6645027    635.20498  0.028216284  0.028152436            4 
 1877000   0.92842697   -6.7257622    634.83328  0.028184749  0.028144362            4 
 1878000   0.96026975    -6.720527    636.75773  0.028255135  0.028136122            3 
 1879000   0.95163149     -6.69988     636.4113  0.028224734   0.02812791            5 
 1880000   0.95560202   -6.7155268    636.16711  0.028198896  0.028119752            3 
 1881000    0.9458158   -6.6998235    636.04119  0.028178327  0.028111566            3 
 1882000   0.94830693   -6.6948798    636.11638  0.028166683  0.028103372            9 
 1883000   0.96883463   -6.7421709    635.26737  0.028114152  0.028095224            2 
 1884000   0.93521283   -6.7363703    637.51261  0.028198541  0.028086905            3 
 1885000   0.94219835   -6.7044538    637.06695  0.028163879  0.028078623            3 
 1886000    0.9591642   -6.7183147    635.35565  0.028073332  0.028070464            6 
 1887000   0.94719917   -6.7014286    637.69354    0.0281617  0.028062258            3 
 1888000   0.95459043   -6.7280035    638.89091  0.028199634  0.028054053            9 
 1889000   0.93943615   -6.7491177    636.87397  0.028095728  0.028045755            7 
 1890000   0.95480126   -6.7263156    637.42458   0.02810514  0.028037394           14 
 1891000   0.94297239   -6.7219164    638.37051  0.028131963  0.028029062            3 
 1892000   0.94355529   -6.7244457    636.00857  0.028013062   0.02802082            3 
 1893000   0.94802014   -6.7117968    637.58907  0.028067841  0.028012627            6 
 1894000   0.96629205   -6.7000441    639.07503  0.028118401  0.028004453            5 
 1895000   0.96250349   -6.7327402    636.69303  0.027998814  0.027996313            2 
 1896000   0.93136517   -6.7082088    637.46968  0.028018182  0.027988151            3 
 1897000   0.96261844    -6.688507    639.81972  0.028106647  0.027980054            7 
 1898000   0.95637019   -6.7172072    637.87604    0.0280065   0.02797176            8 
 1899000   0.95976948   -6.6967005     640.3032  0.028098262  0.027963545            5 
 1900000   0.93037225   -6.7624305    636.82969  0.027931127  0.027955433            2 
 1901000    0.9718853   -6.7472658    636.28229  0.027892438  0.027947062            8 
 1902000   0.96706545   -6.7503081    640.25668  0.028051905  0.027938729            4 
 1903000   0.94605537   -6.7940071    636.00451  0.027850959  0.027930383           12 
 1904000   0.94005912   -6.7677766    639.87517  0.028005741  0.027922115            5 
 1905000    0.9481147   -6.7689378    638.59552  0.027935062  0.027913783            5 
 1906000   0.94299072   -6.7381967    638.40585  0.027912113  0.027905547            3 
 1907000   0.96125788   -6.7314377    638.49705  0.027901462  0.027897315            4 
 1908000   0.93830622   -6.7682347    638.72409  0.027896755  0.027889055            9 
 1909000   0.92538769   -6.7298912    639.93013  0.027934788  0.027880831            5 
 1910000   0.96463206   -6.7587736    638.93877  0.027876909  0.027872558            4 
 1911000   0.95515458   -6.7363502    638.07503  0.027824657  0.027864348           11 
 1912000    0.9323899   -6.7279473    641.99751  0.027981063  0.027856114            4 
 1913000   0.95368876   -6.7603199    642.04386  0.027968455  0.027848009            5 
 1914000   0.94471117    -6.715651    641.21799  0.027917885  0.027839821            4 
 1915000   0.93489212   -6.7041094    642.28878  0.027949904  0.027831688            6 
 1916000   0.94447422   -6.7353983    641.21305  0.027888528  0.027823519            7 
 1917000   0.92365188    -6.785302    640.26368  0.027832711  0.027815127            6 
 1918000   0.96454424   -6.7390354     641.4029  0.027867696  0.027806777            5 
 1919000   0.94462122    -6.761085    640.11952  0.027797443  0.027798494            4 
 1920000   0.95045707   -6.7347858    642.69912  0.027894927  0.027790242            5 
 1921000   0.93965486   -6.7588523    640.34273  0.027778185  0.027781988            3 
 1922000   0.96085226    -6.754416    640.99576  0.027792046  0.027773645            4 
 1923000   0.96079288   -6.7421498     641.9575  0.027819271  0.027765385           10 
 1924000   0.93608306   -6.7686294    641.40719  0.027780977  0.027756986            7 
 1925000   0.93484179   -6.7145775    641.24365  0.027759465  0.027748728            7 
 1926000   0.92945751    -6.765658       639.91  0.027687349  0.027740356            2 
 1927000    0.9545844   -6.7412719    642.00773  0.027763697  0.027732108            4 
 1928000    0.9277582   -6.7469881    641.78898  0.027739842  0.027723815           14 
 1929000    0.9263218    -6.718451    643.21961  0.027787265  0.027715616            5 
 1930000   0.95998538    -6.753336    641.73723  0.027708861  0.027707331            6 
 1931000     0.949296   -6.7324282     642.3136  0.027719385  0.027699081            6 
 1932000   0.93878157   -6.7408196    643.84526  0.027771103   0.02769096            5 
 1933000   0.94034433   -6.7310017    644.01234  0.027763939  0.027682795            6 
 1934000   0.92763959   -6.7301283     643.1731  0.027713422  0.027674631            7 
 1935000   0.93281381   -6.7515674    642.00437  0.027648767   0.02766642            6 
 1936000   0.93475797    -6.752778    645.00913  0.027763823  0.027658199            4 
 1937000   0.94678796   -6.7232099     645.3775  0.027765337  0.027650015            5 
 1938000   0.94281834   -6.7988799    643.68369  0.027678177  0.027641808            9 
 1939000   0.93497783   -6.7599686    642.77214  0.027624727  0.027633543            6 
 1940000   0.94346118   -6.7227888    646.22261  0.027758703  0.027625373            4 
 1941000   0.95341357    -6.765758    645.05446   0.02769425  0.027617227            5 
 1942000   0.92743157   -6.7101122    646.73023  0.027751898  0.027609036            5 
 1943000   0.92025826   -6.7272707    646.31289  0.027719716  0.027600962            8 
 1944000    0.9451585   -6.7428105    645.05837  0.027651679  0.027592821            5 
 1945000   0.92538888    -6.754379    645.42119  0.027653007  0.027584724            7 
 1946000   0.93388694   -6.7291989    647.10292  0.027710814  0.027576622            7 
 1947000    0.9601549   -6.7864511     644.6493  0.027591564  0.027568525            3 
 1948000   0.93822399   -6.7544765    647.37739  0.027694104  0.027560482            3 
 1949000   0.94182853    -6.753693     646.2526  0.027631803  0.027552483            5 
 1950000   0.93440422   -6.7457623    647.08977  0.027653409  0.027544451            6 
 1951000    0.9296525   -6.7581194    646.14378  0.027598829  0.027536385            4 
 1952000   0.94803643   -6.7909695    646.63048  0.027605468  0.027528343            4 
 1953000   0.94133818   -6.7852792    647.35237  0.027622136   0.02752037            3 
 1954000   0.92576286   -6.7632967     646.3812  0.027566581  0.027512442            4 
 1955000   0.94617513   -6.7752461     647.6928  0.027608389   0.02750447            4 
 1956000   0.94966074   -6.7793707    646.23936  0.027532352  0.027496569            4 
 1957000   0.93513623   -6.7715547     648.3314  0.027607367  0.027488586            3 
 1958000   0.94747602    -6.763022    648.31652  0.027592633  0.027480699           12 
 1959000   0.94176897   -6.7559904    649.44809  0.027626684  0.027472711            4 
 1960000   0.91914313   -6.7384431    649.38639  0.027609966  0.027464796            6 
 1961000   0.92182328   -6.7339534    649.36797  0.027595103  0.027457003            3 
 1962000   0.94967589   -6.7822614    650.64037  0.027635082  0.027449114            4 
 1963000   0.93164016   -6.7502001    649.75271  0.027583321  0.027441277            8 
 1964000   0.91777695   -6.7950225    649.07567  0.027540549  0.027433349            3 
 1965000   0.95895392   -6.7607332    650.43102  0.027584013  0.027425429            3 
 1966000   0.91906361   -6.7332447    649.82814  0.027544428  0.027417551            8 
 1967000   0.94734687   -6.8017736    647.59559  0.027435841  0.027409616            6 
 1968000   0.92227146   -6.7957383    649.58012  0.027505933  0.027401702            4 
 1969000   0.92723225   -6.7250362    650.39679  0.027526528  0.027393712            5 
 1970000   0.94708465   -6.7522253    651.23854  0.027548162  0.027385839            2 
 1971000     0.918561   -6.7579376    650.13335  0.027487458  0.027377972            4 
 1972000   0.92985605   -6.7698601    649.73094  0.027456514  0.027370012            4 
 1973000   0.90572792   -6.7818892    651.79936  0.027529961   0.02736205            6 
 1974000   0.93633628   -6.7905301    650.46814  0.027459817  0.027353998            4 
 1975000    0.9428054   -6.7614624    652.18807  0.027518484  0.027345914            3 
 1976000   0.94290974   -6.8026227    648.72598  0.027358552  0.027337863            3 
 1977000   0.94146941   -6.7376564    650.38067  0.027414461  0.027329819            4 
 1978000   0.94705738   -6.7754986     651.4465  0.027445505  0.027321834            3 
 1979000   0.94102136   -6.7616037    651.54915  0.027435959  0.027313801            5 
 1980000   0.94745222   -6.8061222    650.94134  0.027396521  0.027305742            5 
 1981000   0.95846524   -6.7246646    652.65521  0.027454788   0.02729769            6 
 1982000   0.94381302   -6.7903572    650.72064  0.027359597  0.027289627            3 
 1983000   0.95072909    -6.751691    651.21557  0.027366598  0.027281521            8 
 1984000   0.93557405   -6.7763256    651.01025  0.027344181  0.027273367            5 
 1985000   0.93265758    -6.797067    649.27656  0.027257622  0.027265212            5 
 1986000   0.92960517    -6.772593    651.32421  0.027329818  0.027256999            8 
 1987000   0.92087407   -6.7572111    652.14479  0.027350478  0.027248814           10 
 1988000   0.93373944   -6.7976157    650.96736  0.027287364  0.027240737            4 
 1989000   0.93262191   -6.7778676    651.47228    0.0272948  0.027232594            8 
 1990000   0.92517916   -6.7951362    650.25457  0.027230091   0.02722428            3 
 1991000   0.94163358   -6.8181326    651.35944  0.027262659  0.027216088            7 
 1992000   0.91932477   -6.7869598    652.50051  0.027296708  0.027208009            7 
 1993000   0.93080724   -6.7677597    651.54145   0.02724291  0.027199996            4 
 1994000   0.94786628   -6.7932762    650.04778  0.027166825  0.027192034            3 
 1995000   0.91896396   -6.7518329    653.87114  0.027312913  0.027184043            8 
 1996000   0.91637706   -6.7661753    654.55853  0.027327928  0.027176142            7 
 1997000   0.92418284    -6.764852    652.83695  0.027242403  0.027168162            8 
 1998000   0.91752118   -6.7925807    653.78574  0.027268341  0.027160124            5 
 1999000   0.92900623   -6.7540488    654.66197  0.027291228  0.027152145            5 
 2000000    0.9371783    -6.764678    655.21561   0.02730065  0.027144099            9 
 2001000   0.92340589   -6.7803952    652.42532  0.027170803  0.027136009            9 
 2002000   0.92441924   -6.7772072    652.26149  0.027150412  0.027127954            5 
 2003000   0.94094666   -6.7893412    655.81549  0.027284718  0.027119917            8 
 2004000   0.92855598   -6.7744923    653.61137  0.027179448  0.027111898            3 
 2005000   0.92482478   -6.7337685    655.55241  0.027246568  0.027103897            5 
 2006000   0.94546065   -6.7742144    655.74081  0.027240812   0.02709597            6 
 2007000   0.93964255    -6.749482    655.27556  0.027207921  0.027087957            4 
 2008000   0.92449046   -6.7945083    653.88178  0.027136528  0.027079932            6 
 2009000   0.92542487   -6.7917694    654.16636  0.027134825  0.027071898            2 
 2010000   0.90806649   -6.8252384     654.6982  0.027143375  0.027063873            6 
 2011000   0.92867213   -6.8305286    654.95029  0.027140324  0.027055731            7 
 2012000   0.92919805   -6.7516304    656.34357  0.027184541  0.027047669            3 
 2013000   0.94169166   -6.7517265     654.6447  0.027100708  0.027039718            4 
 2014000   0.89713562   -6.8346624    654.91121  0.027098279  0.027031683            5 
 2015000     0.921817   -6.7533825    659.35987  0.027268812  0.027023718            2 
 2016000   0.92152104      -6.7827    656.00158  0.027116467  0.027015845            5 
 2017000   0.92241226   -6.7733103    658.93955  0.027224407  0.027007942            4 
 2018000   0.95109255   -6.7739734    655.87146  0.027084219  0.027000106            6 
 2019000   0.93286942   -6.7613004    657.71708  0.027146982  0.026992059            2 
 2020000   0.94345846   -6.7933528    657.09908  0.027108048  0.026984048            4 
 2021000   0.92340539   -6.7646949    658.03445  0.027133204  0.026976055            4 
 2022000   0.90093967   -6.8302559    656.22907  0.027045379    0.0269681            5 
 2023000   0.92717733   -6.8233279    656.42619   0.02704013  0.026959971            6 
 2024000   0.92365443   -6.8166933    656.55119  0.027031916   0.02695187            5 
 2025000   0.91703009   -6.8052455    656.64906  0.027022595  0.026943733           10 
 2026000   0.93371946   -6.8254044    655.28685  0.026953227  0.026935777            4 
 2027000   0.90929861   -6.7987538    658.10977  0.027055985  0.026927704            7 
 2028000   0.91700417   -6.7799246    656.02596  0.026957017  0.026919727            3 
 2029000   0.91951271   -6.7731206    658.60584  0.027049689  0.026911708            5 
 2030000   0.95145273   -6.7940481    659.00895  0.027052913  0.026903731            4 
 2031000   0.90893836   -6.7687451    658.33153  0.027011798   0.02689566           12 
 2032000   0.91566263   -6.7639864    657.64273  0.026970256  0.026887571            6 
 2033000   0.92559552   -6.8441015    656.99911  0.026930608  0.026879457            3 
 2034000    0.9196482   -6.7817829    657.66048  0.026944464  0.026871351            5 
 2035000   0.94596543   -6.7922591    658.30576  0.026957648  0.026863387            5 
 2036000    0.9460465   -6.7625712    659.76645  0.027004193  0.026855424            5 
 2037000   0.91717631   -6.8247564    658.58166  0.026942467   0.02684746            4 
 2038000   0.94641401   -6.8079224    658.55318  0.026928082  0.026839453            6 
 2039000   0.92413499    -6.784583    658.27802   0.02690363  0.026831359            4 
 2040000   0.92337546    -6.800956    661.00761  0.027001945  0.026823371            5 
 2041000   0.92610993   -6.7659405    660.17523  0.026954729  0.026815426            9 
 2042000   0.96465619   -6.8074081    659.09729  0.026897539  0.026807441            7 
 2043000   0.92806788   -6.7926664    659.61138  0.026905343  0.026799454           11 
 2044000   0.92620327   -6.7896698     660.7108  0.026937003  0.026791477            9 
 2045000   0.92842043   -6.8184736    659.58371  0.026877902  0.026783487            5 
 2046000   0.92417493   -6.8192481    660.56442  0.026904709   0.02677545            4 
 2047000   0.91887735   -6.8179269    660.93688  0.026906728  0.026767478            7 
 2048000   0.91583219    -6.815335    659.52029  0.026835949   0.02675943            5 
 2049000   0.93500609   -6.8099591    660.91848  0.026879717  0.026751377            4 
 2050000    0.9320232    -6.843774    661.07672  0.026873037  0.026743373            6 
 2051000   0.92500011   -6.8182412    661.06823   0.02685959    0.0267354            5 
 2052000   0.91088488   -6.8043171    661.69451  0.026871934  0.026727464            9 
 2053000   0.93590742   -6.7756216    662.70489  0.026899857  0.026719655            2 
 2054000   0.92162089   -6.7895673    662.43425  0.026875781  0.026711815            4 
 2055000   0.91751651    -6.813484    661.51821  0.026825556  0.026703949            7 
 2056000    0.9194156   -6.8105327    661.88711  0.026827461  0.026696092            4 
 2057000   0.93292811   -6.8004148    661.90103  0.026814982  0.026688127            3 
 2058000   0.94407509   -6.8303518    661.77375  0.026796799  0.026680228            5 
 2059000   0.91096066   -6.8255392    660.93551  0.026749859  0.026672302            6 
 2060000   0.93068498   -6.7980316     663.4019  0.026836646  0.026664477           14 
 2061000   0.92568015   -6.8100745    663.55329  0.026829746  0.026656693            7 
 2062000   0.94041265   -6.8217496    662.07709  0.026757076  0.026648884           12 
 2063000   0.92238443   -6.8050997     663.3468  0.026795395  0.026640948            8 
 2064000   0.91344093   -6.8401751    665.04527  0.026850988  0.026633007           10 
 2065000   0.93227754   -6.8067414    663.48104   0.02677486  0.026625001            5 
 2066000   0.93765732   -6.8275071    661.94322  0.026699872  0.026617101            7 
 2067000   0.92058299   -6.8252625    662.91166  0.026725998  0.026609218            8 
 2068000   0.91923712   -6.7956773    666.24353  0.026847337  0.026601379            6 
 2069000   0.93740667   -6.8064716    665.30509  0.026796564  0.026593563            6 
 2070000   0.93124504   -6.7869577    664.46547  0.026749818  0.026585762            4 
 2071000   0.92719278   -6.8161757    664.12304  0.026723122  0.026577937            6 
 2072000   0.90991294   -6.7845657    667.11823  0.026830688  0.026570097            6 
 2073000   0.91562096   -6.8302485    666.76411   0.02680351  0.026562337            5 
 2074000    0.9187854   -6.8101725    666.71569  0.026788641  0.026554536            9 
 2075000   0.92716445   -6.8112145    664.23536  0.026676119  0.026546745            4 
 2076000   0.93069303   -6.8509124    664.79261  0.026685638  0.026538955            4 
 2077000   0.91952943   -6.8291082    664.47067  0.026659873  0.026531154            6 
 2078000   0.91663873   -6.7865821    669.76547  0.026859379  0.026523499            4 
 2079000    0.9147355   -6.7894916    668.86131  0.026810218  0.026516049            3 
 2080000   0.90736751   -6.7733384    669.49256  0.026822618  0.026508465            6 
 2081000   0.89171454   -6.8147099    667.02359   0.02671086  0.026500836            8 
 2082000   0.90900237   -6.8023635    667.71973  0.026725894  0.026493208            7 
 2083000   0.89483521   -6.8359394    667.69084  0.026711908  0.026485545            4 
 2084000   0.91655604   -6.7801012    668.61245  0.026735942  0.026478011            4 
 2085000   0.93942933   -6.8386838    666.73142  0.026647938  0.026470444            6 
 2086000   0.90738415   -6.7792438    669.89722  0.026761634  0.026462864            5 
 2087000   0.92622593   -6.7933759    670.01386  0.026753468  0.026455329            5 
 2088000   0.94044241   -6.8051902    669.32408  0.026713126  0.026447736            4 
 2089000   0.92667633   -6.8440683    669.28709  0.026698863  0.026440219            5 
 2090000   0.91833945   -6.8426827    670.34407  0.026728232  0.026432611            4 
 2091000   0.91035098   -6.8023621    669.51715  0.026682494  0.026425052            4 
 2092000   0.92535318    -6.836386    669.27151  0.026659955  0.026417525            4 
 2093000   0.91581272   -6.8352435    669.83922  0.026669821  0.026410053            6 
 2094000   0.93073093   -6.8531107    671.02746  0.026704372  0.026402569            3 
 2095000   0.90064122   -6.8079842    672.01039  0.026730724   0.02639512           12 
 2096000   0.92810485   -6.7908162    671.92824  0.026714704  0.026387715            8 
 2097000   0.91154639   -6.8093439    671.07428  0.026668029  0.026380302            3 
 2098000   0.91312317   -6.8021492    670.96055    0.0266508  0.026372774            6 
 2099000   0.90253833   -6.8234629    669.19477  0.026567999  0.026365175            9 
 2100000   0.92931989   -6.8461066     669.8724  0.026582238  0.026357608            4 
 2101000   0.91406882   -6.8235163    669.16541  0.026541544  0.026349937           12 
 2102000   0.88678851   -6.8750321    668.84126  0.026516066  0.026342321           10 
 2103000    0.9063502   -6.8431529    672.28099   0.02663976  0.026334698            7 
 2104000   0.91359496   -6.8394374     670.2828  0.026547956  0.026327056            5 
 2105000   0.92362345   -6.8001834    671.22237   0.02657254   0.02631942           10 
 2106000   0.92837507   -6.8304112    669.18259   0.02647921  0.026311792            8 
 2107000   0.91862451    -6.817055    672.59081   0.02660144  0.026304239            4 
 2108000   0.90743549   -6.8028225    671.52424  0.026546657  0.026296666            5 
 2109000   0.88646761   -6.8069946    671.14603  0.026519126  0.026289021            6 
 2110000   0.92521181   -6.8239469    671.90794  0.026536648  0.026281356            6 
 2111000   0.90840153   -6.8146013    673.73071  0.026596033  0.026273746            7 
 2112000   0.91103593   -6.8370469     673.1006  0.026558578  0.026266181            4 
 2113000   0.93255107   -6.8125771    675.15388  0.026626987  0.026258591            8 
 2114000   0.92335276   -6.8411423    671.26989  0.026461285  0.026251055            9 
 2115000   0.90471821    -6.880276    671.26179  0.026448455  0.026243447            9 
 2116000   0.90898883   -6.8601079    672.30033  0.026476856  0.026235816           14 
 2117000   0.90503051   -6.8591783    673.02069  0.026492705  0.026228224           11 
 2118000   0.93731348   -6.8469428    671.63977  0.026425864  0.026220613            5 
 2119000   0.91240722   -6.8462393    671.97543  0.026426594  0.026213063            4 
 2120000   0.92750308    -6.841902    674.58931  0.026516875  0.026205505            5 
 2121000    0.9213948   -6.8377875     673.6078   0.02646581   0.02619802            4 
 2122000   0.90810577   -6.8031758    675.42618  0.026524748  0.026190589            7 
 2123000   0.89665113   -6.8431808    674.49247  0.026475603  0.026183138            9 
 2124000   0.91296986   -6.8498369    674.28395  0.026454957  0.026175667            6 
 2125000     0.904117   -6.8681646    671.90939  0.026349388  0.026168154           11 
 2126000     0.906979   -6.7983067    673.94649  0.026416843  0.026160625            7 
 2127000   0.91657951   -6.8360966     674.0432  0.026408212  0.026153045            8 
 2128000   0.91866407   -6.8503005    674.27294  0.026404799  0.026145491            4 
 2129000   0.91689222   -6.8386426    673.70184  0.026370042  0.026137886            3 
 2130000    0.9128641   -6.8487791    674.33635  0.026382486  0.026130278            7 
 2131000   0.91344217   -6.8346032    674.39029  0.026372215  0.026122847            4 
 2132000    0.8944433    -6.813482    675.63643  0.026408553  0.026115305            9 
 2133000   0.91863566   -6.8379622    675.25204  0.026381155  0.026107741            8 
 2134000   0.91518201   -6.8135571    676.51285  0.026418027  0.026100231            4 
 2135000   0.91190091   -6.8207873     675.4361  0.026363626   0.02609275            5 
 2136000   0.90769943   -6.8192033    675.11413  0.026338722  0.026085268            6 
 2137000   0.91463513   -6.8620186    676.01301  0.026361449   0.02607767           13 
 2138000   0.89610258   -6.8363305     676.0102   0.02634901  0.026070051           23 
 2139000   0.93545395   -6.8251819    672.33976  0.026193695  0.026062456           10 
 2140000   0.91090519    -6.813157     677.4092  0.026378863  0.026054925            9 
 2141000   0.89700161   -6.8610287    674.69956  0.026261076  0.026047325            3 
 2142000   0.92533334   -6.8598224    675.67046  0.026286588  0.026039664            5 
 2143000    0.9158907   -6.8372305    674.98451  0.026247648  0.026032121            8 
 2144000   0.92230329   -6.8378384    677.37393  0.026328278  0.026024598            5 
 2145000   0.90663715    -6.860942    674.77676  0.026215103  0.026016997            4 
 2146000   0.88922117   -6.8317994     676.7494  0.026279489  0.026009506            4 
 2147000   0.91325395   -6.8528769    674.26011   0.02617063  0.026001884            6 
 2148000   0.91396251    -6.844394    676.42276  0.026242348  0.025994237           10 
 2149000    0.9024239   -6.8494076    675.06025  0.026177301  0.025986665            4 
 2150000   0.88579531   -6.7933204    677.93867  0.026276693  0.025979059           14 
 2151000   0.91513756   -6.8751597    677.21295  0.026236361  0.025971446           12 
 2152000   0.91344554   -6.7685729    678.57029  0.026276731  0.025963908            7 
 2153000   0.91946874   -6.8580538    676.26632  0.026175349  0.025956385            2 
 2154000   0.89247803   -6.8022407    677.20772  0.026199618  0.025948854            8 
 2155000   0.92390107   -6.8341994    678.44393  0.026235264  0.025941337            3 
 2156000   0.90171427   -6.8164257    678.55649  0.026227446  0.025933851           14 
 2157000   0.90111446   -6.8537933    677.85393  0.026188144  0.025926368            5 
 2158000    0.9120824   -6.8388088    678.30941  0.026193598  0.025918765           12 
 2159000   0.90081949   -6.8399545    678.46379  0.026187424  0.025911231            4 
 2160000    0.9138794    -6.852098     678.6387  0.026182049  0.025903707           11 
 2161000    0.9078352   -6.8476847    677.25898  0.026116728   0.02589619            4 
 2162000   0.91665928   -6.8258987    678.87249   0.02616684  0.025888741            3 
 2163000   0.90037493    -6.825609    681.71339  0.026264193  0.025881385            7 
 2164000   0.92036784   -6.8284219    679.17303  0.026154229  0.025873954            6 
 2165000   0.91837272   -6.8628446    679.63339  0.026159869  0.025866576            5 
 2166000    0.9025423   -6.8321649     680.8108   0.02619309   0.02585917            5 
 2167000   0.90163688   -6.8347598    681.38794  0.026203197  0.025851739            9 
 2168000   0.92143617   -6.8530245    679.02359   0.02610023  0.025844276            4 
 2169000    0.8892228   -6.8769694    679.58403  0.026109729  0.025836797            5 
 2170000   0.91320124   -6.8494987    680.93242  0.026149479  0.025829357            6 
 2171000   0.87783086    -6.864306    679.09226    0.0260668   0.02582197            7 
 2172000   0.89709752   -6.8318627     682.8264  0.026198066   0.02581462           12 
 2173000    0.8974295   -6.8254487    684.95928  0.026267805  0.025807293            7 
 2174000   0.89940311   -6.8405781     682.1208  0.026146918  0.025800008            8 
 2175000   0.92711081   -6.8878166    680.48245  0.026072124  0.025792637            4 
 2176000   0.91143026   -6.8600362     680.7566  0.026070642  0.025785263            6 
 2177000   0.90745557   -6.8415115    682.33098  0.026118932  0.025777828            6 
 2178000    0.9085081   -6.8487988    680.73221  0.026045769  0.025770437            6 
 2179000   0.91257274   -6.8514961    682.90048  0.026116739  0.025763038            6 
 2180000   0.90819571    -6.856696     682.0742  0.026073173  0.025755593            6 
 2181000    0.8888701   -6.8749224    679.87695  0.025977264   0.02574814            3 
 2182000   0.90636354   -6.8281948    683.36866  0.026098712  0.025740724            6 
 2183000     0.889017   -6.8467401    683.12512  0.026077459  0.025733356            3 
 2184000   0.88719423   -6.8815576    682.78566  0.026052566  0.025726033            5 
 2185000   0.90668966   -6.8663024    682.29388  0.026021887  0.025718658           12 
 2186000   0.89402314   -6.8323623    682.31268    0.0260107  0.025711311            6 
 2187000   0.90437625   -6.8631102    682.06753  0.025989465  0.025704029            5 
 2188000   0.89611782   -6.8780188    680.73536   0.02592685   0.02569668            8 
 2189000   0.91497391   -6.8737749    679.39863  0.025864117    0.0256892            4 
 2190000   0.89628596   -6.8810127    683.99792  0.026027318  0.025681764            7 
 2191000    0.9037729     -6.86814    681.88158  0.025934945  0.025674295            9 
 2192000    0.9054906   -6.8494336    681.55626  0.025910746  0.025666923            8 
 2193000    0.8923118   -6.8895928    681.28432  0.025888597  0.025659489            5 
 2194000   0.89814906   -6.8902862    679.85576  0.025822537  0.025651963           10 
 2195000   0.90214068   -6.9054452    682.49482  0.025910965  0.025644435            5 
 2196000   0.90515668   -6.8993961    683.65346  0.025943134  0.025636935           14 
 2197000    0.8904062   -6.8883106    683.02696  0.025907562  0.025629465            5 
 2198000   0.90534212   -6.8739255    683.42212  0.025910757  0.025621987            3 
 2199000    0.8988358   -6.8666199    683.53149  0.025903118  0.025614461            9 
 2200000    0.9069215   -6.8776344    681.36291  0.025809201  0.025606972           10 
 2201000   0.89660565   -6.8433879    682.99027  0.025859089  0.025599546            7 
 2202000    0.8897462   -6.8831518    681.77192  0.025801238  0.025592055            5 
 2203000   0.89986837   -6.9005938    683.73048  0.025863613  0.025584487            7 
 2204000   0.90650231    -6.894102    682.08397  0.025789624  0.025576868            5 
 2205000   0.90205728   -6.8780633    683.14177  0.025817905  0.025569296            5 
 2206000   0.90031433   -6.8900424    681.95813  0.025761489  0.025561737            8 
 2207000    0.8995535   -6.8215775    685.05744  0.025866842  0.025554228            4 
 2208000   0.91079216   -6.8655358    683.25799  0.025787213  0.025546611            2 
 2209000   0.88543515   -6.8852961    682.33743  0.025740811  0.025539029            4 
 2210000   0.89769027   -6.8843569    682.95846  0.025752581  0.025531426           10 
 2211000   0.89798289   -6.8621792    683.59136  0.025764788   0.02552381            3 
 2212000   0.89709495   -6.8765042    682.47311  0.025711012  0.025516146            7 
 2213000   0.89321951    -6.855381    686.03149   0.02583339  0.025508579            6 
 2214000   0.89804317   -6.8492687    685.75539  0.025811329  0.025501104            6 
 2215000   0.88388296   -6.8952549    685.25629  0.025780899  0.025493616            5 
 2216000   0.90495888   -6.9224244    683.39738   0.02569936  0.025486019            9 
 2217000   0.89863714   -6.9201064    682.66545  0.025660256  0.025478374           13 
 2218000   0.88380994   -6.8641617    684.11596  0.025703184  0.025470836            8 
 2219000   0.92420799   -6.8817832    684.80253  0.025717385  0.025463258            9 
 2220000   0.89009718   -6.8782924     685.9497  0.025748863  0.025455704            5 
 2221000    0.8956403   -6.9127395    682.66417  0.025613994   0.02544814            5 
 2222000   0.90106385   -6.8658876    686.83477   0.02575888  0.025440711           13 
 2223000   0.88427986   -6.8828846    685.25767  0.025688172  0.025433321            6 
 2224000   0.87159706   -6.8634971    685.88631  0.025700177  0.025425856            6 
 2225000   0.89253769   -6.8902478    686.08032  0.025695892  0.025418382            5 
 2226000   0.90325088   -6.8840512    685.72618  0.025671091  0.025410921            5 
 2227000   0.90946299   -6.8751324    686.79881  0.025699701  0.025403347            3 
 2228000    0.9047572   -6.8792066    685.76894  0.025649646  0.025395778            4 
 2229000   0.90313938   -6.8330275    688.24009  0.025730525  0.025388288            5 
 2230000    0.8882155   -6.8338435    687.27321  0.025682855  0.025380826            5 
 2231000   0.91670957   -6.8859368    684.86025  0.025581214  0.025373362            8 
 2232000   0.91378721   -6.8986515    685.40191  0.025589976  0.025365822           11 
 2233000   0.89631013    -6.830731    686.57169  0.025622171  0.025358279           10 
 2234000   0.89663109   -6.8689526    687.51227  0.025645788  0.025350784            3 
 2235000   0.88981761    -6.865485    688.07945   0.02565546  0.025343312            7 
 2236000   0.89296349   -6.8932266    686.64462  0.025590512  0.025335845            8 
 2237000   0.90665471   -6.8756455    686.16754    0.0255613  0.025328359            5 
 2238000   0.87782128   -6.9001956    687.60303   0.02560333   0.02532081            8 
 2239000   0.90498268   -6.8607284    686.65971  0.025556785  0.025313249            6 
 2240000   0.89995067   -6.8891489    687.81227  0.025588254  0.025305665            4 
 2241000   0.89934327     -6.86178    689.24183  0.025629995  0.025298078            7 
 2242000   0.90806128   -6.8848813    688.27383  0.025582584  0.025290471            8 
 2243000   0.88072175   -6.9007076    685.79708   0.02547916  0.025282819            4 
 2244000   0.89199278   -6.9068559    683.72767  0.025390956  0.025275177            6 
 2245000   0.90165976   -6.8982082     687.0996  0.025504811  0.025267579            4 
 2246000   0.90181547   -6.8746269    687.36179  0.025503183  0.025259936            7 
 2247000   0.89156878   -6.9106487    688.26087  0.025525177  0.025252345            9 
 2248000   0.88933981   -6.8933084    686.36498  0.025443542  0.025244677            7 
 2249000   0.88818461   -6.9035021    686.89607  0.025451907  0.025237021            7 
 2250000   0.87492643   -6.8740782    688.00082  0.025481512  0.025229411            9 
 2251000   0.90799064   -6.8678492    688.09192  0.025473564    0.0252218            7 
 2252000   0.88597472   -6.8779662    689.19967  0.025503244  0.025214225            5 
 2253000   0.86245555   -6.8849773    688.94098  0.025482356  0.025206694           10 
 2254000   0.88744589   -6.9020858    688.84006   0.02546732  0.025199106            7 
 2255000   0.90124133    -6.921946    686.83271  0.025381844  0.025191442           11 
 2256000   0.88717614   -6.8846728     686.9975  0.025376681  0.025183785            3 
 2257000    0.8910229    -6.912105    687.84414  0.025396697  0.025176169           11 
 2258000   0.89881008   -6.9197228    687.66879  0.025378978  0.025168577            8 
 2259000   0.89930396    -6.881338    688.73522  0.025407083  0.025161031           10 
 2260000   0.91275578   -6.8959304    687.62684  0.025354972  0.025153423            4 
 2261000   0.89990793   -6.9030483    687.67906  0.025345682  0.025145906            7 
 2262000   0.89856036   -6.8810543     690.8422  0.025451009  0.025138339            3 
 2263000   0.89865769   -6.8619606    690.22559  0.025417057  0.025130877            8 
 2264000   0.88368308   -6.8779858    690.40296  0.025412359  0.025123419            6 
 2265000    0.8814876   -6.8994177    690.44749  0.025402777  0.025115878            5 
 2266000   0.88680138    -6.895647    689.31631  0.025349967   0.02510835            4 
 2267000   0.88662164   -6.8796218    691.38009  0.025414648  0.025100841            9 
 2268000   0.87629837   -6.9008873    689.88102  0.025348362  0.025093331            6 
 2269000    0.8843812   -6.9425287    687.92059   0.02526519  0.025085707           13 
 2270000   0.91122994   -6.8805812    690.41867  0.025345766  0.025078126            6 
 2271000    0.8853815   -6.8893015    691.29727  0.025366845  0.025070519           16 
 2272000   0.88936942    -6.926662    689.17483  0.025277833  0.025062946            9 
 2273000   0.90080322   -6.8612697    692.28482  0.025380731  0.025055349           14 
 2274000   0.86611719   -6.9148507    691.07393  0.025325195  0.025047721            6 
 2275000   0.88593782   -6.8988304      690.828  0.025305055  0.025040096            6 
 2276000    0.8814687    -6.942607    690.10423  0.025267437  0.025032495            4 
 2277000   0.90377659   -6.9290511      688.777  0.025207766  0.025024867            7 
 2278000    0.8795327   -6.9062941    689.04397  0.025206466  0.025017216            9 
 2279000   0.88987893   -6.8962072    692.20056  0.025310829  0.025009682            5 
 2280000   0.88597194   -6.9362647    689.33542  0.025195008  0.025002097            7 
 2281000   0.88820008   -6.9137164    690.18516  0.025215006  0.024994512            4 
 2282000   0.89285073   -6.8976073    690.08934  0.025200458  0.024986897            9 
 2283000   0.89494541   -6.9036758    690.26655  0.025195888  0.024979327           22 
 2284000     0.894543   -6.8773758     690.6615  0.025199267  0.024971798            6 
 2285000   0.89412181   -6.9102075    693.38205  0.025287456  0.024964232            8 
 2286000   0.89102771   -6.9276196    689.71984  0.025142893  0.024956642           11 
 2287000   0.89335478   -6.8959028    689.91375  0.025138965  0.024948943            9 
 2288000   0.88655655   -6.9455906    689.82406  0.025124711  0.024941284            6 
 2289000   0.89684462   -6.9220175    691.16726  0.025162635  0.024933626           13 
 2290000   0.87438011   -6.9195713    691.96572  0.025180703  0.024926033            7 
 2291000   0.86270597   -6.9290377    689.29332  0.025072505  0.024918366           10 
 2292000   0.89699089   -6.9375072    689.64077  0.025074199  0.024910727            7 
 2293000   0.87760314   -6.9248646    691.65596  0.025136501  0.024903059            5 
 2294000   0.86403711   -6.9035043    693.36941  0.025187787  0.024895462            7 
 2295000   0.89456964   -6.8983416    691.62208  0.025113365   0.02488793           14 
 2296000   0.87278218   -6.8823876    695.22045   0.02523303  0.024880456            7 
 2297000    0.8970736   -6.9018914    692.38366  0.025119128  0.024872917           14 
 2298000    0.8814374   -6.9062622    694.73381  0.025193422  0.024865334            5 
 2299000    0.8872264   -6.9159216    692.90874  0.025116309  0.024857753            9 
 2300000   0.86331691   -6.9216907    690.42737  0.025015485  0.024850179            8 
 2301000   0.90262995   -6.9647314    693.84195  0.025128276   0.02484266            7 
 2302000   0.88261197   -6.8977255    694.14611   0.02512837  0.024835212            9 
 2303000   0.87581018   -6.9013267    695.09116  0.025151656   0.02482774            8 
 2304000   0.89814417   -6.8858449    695.67845  0.025161981  0.024820306            5 
 2305000   0.88646914   -6.8713853    694.87806  0.025122128  0.024813002            5 
 2306000   0.87375419   -6.8962122    694.72218    0.0251056  0.024805617            4 
 2307000    0.8956432    -6.938834    693.85991  0.025063572  0.024798161           13 
 2308000   0.88844245   -6.9224449    695.29053  0.025104366  0.024790658            8 
 2309000   0.86458497   -6.9205254    695.16789  0.025089068  0.024783196            5 
 2310000   0.89088904   -6.9569434    693.14881  0.025005368  0.024775639            6 
 2311000   0.90705456   -6.9496439    694.75867  0.025052599   0.02476813            6 
 2312000   0.88688208   -6.9338706    693.53088  0.024997508  0.024760689            7 
 2313000   0.88406211   -6.9063785    695.67536  0.025063963   0.02475327            6 
 2314000   0.87859435   -6.9053926     696.3824  0.025078594  0.024745881            4 
 2315000   0.88142166   -6.9257473    695.93541  0.025051671  0.024738465            5 
 2316000   0.89530304   -6.9271694    697.15587  0.025084768  0.024731092           11 
 2317000    0.8600315   -6.8730236    698.01941     0.025105  0.024723766            7 
 2318000   0.87075306   -6.9612805    696.50586  0.025039756  0.024716411            8 
 2319000   0.88888633   -6.9382523    695.97802  0.025009991  0.024709098            6 
 2320000   0.87351848   -6.9404589    695.59123  0.024985317  0.024701687            5 
 2321000   0.86895398   -6.9452965    695.37105  0.024966647  0.024694293            6 
 2322000   0.88294561   -6.9232945    697.93203  0.025047805  0.024686881            7 
 2323000    0.8762052    -6.965453    695.89685  0.024964014  0.024679484            5 
 2324000   0.89439605   -6.9143467    698.22168  0.025036635  0.024672125           10 
 2325000   0.87968775   -6.9376677    695.23088  0.024918669  0.024664767            8 
 2326000   0.87858719   -6.9494673    695.59866  0.024921133  0.024657389            8 
 2327000   0.87301466   -6.9277918    699.03123  0.025033349  0.024650043           12 
 2328000   0.88386502   -6.9195122    698.53743  0.025004919  0.024642751            8 
 2329000    0.8769234   -6.9353179    697.61038  0.024961013  0.024635432            8 
 2330000   0.87916136    -6.967082    697.24053  0.024937072  0.024628095            5 
 2331000   0.87681165   -6.8979296    699.51646  0.025007738  0.024620752            9 
 2332000   0.89184415   -6.9596954    697.08876  0.024910262  0.024613479            8 
 2333000   0.87963259   -6.9021041      700.653  0.025026897  0.024606253           12 
 2334000   0.88931689   -6.9406714    697.34488  0.024898061  0.024599009           11 
 2335000   0.87754331   -6.9233436    696.99278  0.024874832  0.024591735           14 
 2336000   0.87403943   -6.9110517    699.33676  0.024947801  0.024584507            9 
 2337000   0.88713962   -6.9338971    699.35408  0.024937743  0.024577327            6 
 2338000   0.87635494   -6.9144576    701.24736  0.024994559   0.02457008            3 
 2339000   0.87454798   -6.9025872    702.01522   0.02501123  0.024562907            5 
 2340000   0.89167479   -6.8850839    701.00038  0.024964401  0.024555633            7 
 2341000   0.86710985   -6.9114039    700.81093  0.024946993  0.024548449            9 
 2342000    0.8695456   -6.9495484    699.78035  0.024899671  0.024541149            6 
 2343000    0.8690305   -6.9304658    700.45723  0.024913118  0.024533803            6 
 2344000   0.87204823   -6.9426025    699.21327  0.024858265  0.024526508            7 
 2345000    0.8744752   -6.9147608     699.7547  0.024866905  0.024519282            6 
 2346000   0.89485549   -6.9081901    701.52935  0.024919343  0.024512121            4 
 2347000   0.89042949   -6.9567396    698.76692  0.024810642  0.024504869           16 
 2348000   0.87874638   -6.9641267    698.58872  0.024793751  0.024497563            7 
 2349000   0.86681028     -6.95892    700.58738    0.0248541  0.024490252            5 
 2350000   0.85201259   -6.9299945      699.824  0.024816454  0.024483001           11 
 2351000   0.86557386   -6.9075606     701.7815  0.024875283  0.024475769            7 
 2352000   0.87343382   -6.9065158    701.60904  0.024858597  0.024468543            8 
 2353000   0.85251808   -6.9349558    700.35118  0.024803484  0.024461332            5 
 2354000   0.87214902   -6.9582111    701.97616  0.024850473   0.02445418            7 
 2355000   0.85024034   -6.9542906    701.52747  0.024824043  0.024446989            5 
 2356000    0.8678897   -6.9301305    701.17268  0.024800958   0.02443981            7 
 2357000   0.88051678   -6.9579836     701.4303  0.024799544  0.024432627            8 
 2358000   0.86728701   -6.9363111    700.17268  0.024744582  0.024425461            9 
 2359000   0.87230834   -6.9349983      703.051  0.024835771   0.02441829           11 
 2360000   0.87480368    -6.962224    703.54816  0.024842802  0.024411129            4 
 2361000   0.87858282   -6.9550201    703.41613   0.02482762  0.024403901            7 
 2362000    0.8663335   -6.9149781    702.71289  0.024792298  0.024396737            6 
 2363000   0.85811827   -6.9349787    704.36904  0.024840212  0.024389606            3 
 2364000   0.86647934   -6.9542888    701.40072  0.024725068  0.024382496            4 
 2365000   0.87466321    -6.963732    704.05974  0.024808307  0.024375324            7 
 2366000   0.85543597   -6.9596066    703.17048    0.0247665  0.024368179            6 
 2367000   0.88917742   -6.9507432    702.48845  0.024732026  0.024361045            6 
 2368000   0.88036205   -6.9717092    700.34154  0.024646028  0.024353801           10 
 2369000   0.88646969   -6.9557763    703.48064  0.024746048  0.024346573           10 
 2370000   0.87770661   -6.9554306    702.61513  0.024705173  0.024339419           12 
 2371000   0.88948525   -6.9591952    703.06488  0.024710561  0.024332322            7 
 2372000   0.88322042   -6.9338563    704.00264  0.024733089   0.02432512            6 
 2373000   0.86256863   -6.9598957    703.33047  0.024699061  0.024317986            5 
 2374000   0.88407225    -6.967282    704.21357  0.024719656  0.024310801            5 
 2375000   0.86033033   -6.9873115    700.49609   0.02457881  0.024303634            5 
 2376000   0.88701957   -6.9711104    703.51375  0.024674304  0.024296483            5 
 2377000   0.86664107   -6.9673872    704.46095   0.02469713  0.024289367            9 
 2378000   0.87494312   -6.9587641    705.31881  0.024716807  0.024282277           11 
 2379000   0.89267456   -6.9155302    708.02388  0.024801173  0.024275258            4 
 2380000   0.86595308   -6.9545083    705.35013  0.024697133  0.024268184            6 
 2381000   0.85090671   -6.9532354    706.34048  0.024721422   0.02426111           14 
 2382000   0.87772325    -6.961649     705.8567  0.024694119  0.024254031            7 
 2383000   0.87669197   -6.9518815     704.6009  0.024639841  0.024246886           21 
 2384000   0.84261344   -6.9806256    704.18874  0.024615098   0.02423975            9 
 2385000   0.85258316   -6.9632927    704.79108  0.024625824  0.024232579            5 
 2386000   0.86601705   -6.9824438    704.12634  0.024592286  0.024225484            9 
 2387000   0.85281108   -6.9794378    704.90414  0.024609138  0.024218374            8 
 2388000   0.85377411   -6.9269624    706.73258  0.024662639  0.024211284            4 
 2389000   0.87448304   -6.9475139     704.4056  0.024571146  0.024204228            4 
 2390000   0.86253144   -6.9527333    705.30557  0.024592244  0.024197057           21 
 2391000   0.85795834   -6.9525413    707.32333  0.024652284  0.024189965            9 
 2392000     0.860973   -6.9369226    706.13028  0.024600414  0.024182849            5 
 2393000    0.8442082   -6.9805614    705.84574  0.024580225   0.02417568            8 
 2394000   0.85896985   -6.9317337    705.85864  0.024570407  0.024168549            6 
 2395000   0.86277824   -6.9827977    703.32848  0.024472111  0.024161418            5 
 2396000   0.85436306   -6.9780802    703.92572   0.02448267  0.024154224            3 
 2397000   0.86679089   -6.9768796    705.62362  0.024531485  0.024147072            8 
 2398000    0.8598075   -6.9560795    704.97896  0.024498852  0.024139921            5 
 2399000    0.8785776   -6.9640078    705.61488   0.02451073  0.024132774           11 
 2400000   0.86003376   -7.0351175     703.3491  0.024421844  0.024125546            9 
 2401000   0.86908726   -6.9922197     705.6072  0.024490046  0.024118333            4 
 2402000   0.87044723   -6.9849019    706.26859  0.024502796  0.024111144            5 
 2403000   0.85151975   -6.9638543    706.44357  0.024498667  0.024103978            8 
 2404000   0.86016948   -6.9542253    708.12405  0.024546729  0.024096898            7 
 2405000   0.87416079   -6.9729901    706.16598  0.024468676   0.02408982            4 
 2406000   0.89512157   -6.9254292    710.03497  0.024592511  0.024082723            4 
 2407000   0.89405566   -6.9434381     706.6775  0.024466054  0.024075628           12 
 2408000   0.86830486   -6.9619172      707.312  0.024477852  0.024068505           12 
 2409000   0.87670295   -6.9734598    706.39612  0.024436008  0.024061342            4 
 2410000   0.88241812   -6.9532366    708.75421  0.024507407  0.024054242           12 
 2411000   0.85817279    -6.980171    705.87064  0.024397575  0.024047001            5 
 2412000   0.88633651   -6.9795785    706.40153  0.024405802   0.02403975            5 
 2413000   0.85491355   -6.9808619    706.12843  0.024386256  0.024032632            4 
 2414000   0.85227955   -6.9778934    707.37378  0.024419145  0.024025452            7 
 2415000   0.85268317   -6.9611218    706.83427  0.024390417  0.024018326            5 
 2416000   0.86471794   -6.9804509    706.26806  0.024360791   0.02401119            3 
 2417000   0.86847637   -6.9534939    706.82994  0.024370085  0.024004056            4 
 2418000    0.8727721   -6.9552278    707.88834  0.024396483  0.023996933            5 
 2419000   0.87762943   -6.9373385    707.74649  0.024381511  0.023989792            6 
 2420000   0.89940003   -6.9595588    706.59332  0.024331726  0.023982655           10 
 2421000   0.86066857   -6.9454548    707.62564  0.024357209  0.023975476           12 
 2422000   0.88776508   -6.9561841    706.34471   0.02430308  0.023968306            9 
 2423000   0.85153273   -6.9615578    708.65802   0.02437261  0.023961136            4 
 2424000   0.87114225   -6.9549738    710.53071  0.024426936  0.023953971            5 
 2425000    0.8543071   -6.9407969    708.42055  0.024344349  0.023946902            5 
 2426000   0.84575747   -6.9428359    709.05193  0.024356002  0.023939866           27 
 2427000   0.85731396   -6.9484998    711.23231  0.024420832  0.023932837            6 
 2428000   0.85594939   -6.9882809    708.48021  0.024316317  0.023925722            7 
 2429000   0.84894005   -6.9910111    707.91304  0.024286848  0.023918569            6 
 2430000   0.86234143    -6.977665    709.17659  0.024320185   0.02391146            5 
 2431000   0.86259998   -6.9943007    707.59234  0.024255874  0.023904347            9 
 2432000   0.85656265   -6.9753356    708.94536  0.024292261  0.023897261            6 
 2433000   0.84986342   -6.9756717    708.66094  0.024272535  0.023890176            5 
 2434000   0.85704675   -6.9506694    710.29753  0.024318595  0.023883027           26 
 2435000   0.86728484   -6.9474157    708.17559  0.024235989  0.023875917            9 
 2436000   0.87009412   -6.9607733    711.04355   0.02432415  0.023868824            4 
 2437000   0.84345069   -6.9601711    710.69031   0.02430209  0.023861794           20 
 2438000   0.86440376   -6.9840237    711.05189  0.024304481  0.023854718            8 
 2439000   0.86058374     -6.98652     711.1227  0.024296935  0.023847627           10 
 2440000   0.83091658   -6.9690119    712.24706  0.024325378  0.023840495            4 
 2441000   0.85116393   -6.9766624     710.8068  0.024266243  0.023833401            5 
 2442000   0.84471589   -6.9736564    711.02947  0.024263905   0.02382635            4 
 2443000   0.85509489    -7.008099    709.50887  0.024202104  0.023819218            5 
 2444000   0.85857373   -6.9658466    710.56129  0.024228085  0.023812174            5 
 2445000    0.8483658   -7.0258031    710.81848  0.024226942  0.023805115            4 
 2446000     0.853255   -6.9697177    710.92751  0.024220752  0.023798031           17 
 2447000   0.86043587   -7.0063967    709.96709  0.024178146  0.023790918           12 
 2448000   0.85291702   -6.9979909    710.29298  0.024179364  0.023783839           10 
 2449000   0.87380132    -6.997891    709.76556  0.024151543  0.023776744            4 
 2450000   0.86200248   -7.0141502    710.93653  0.024181515  0.023769664            5 
 2451000   0.86770299   -6.9810743    709.89553  0.024136255  0.023762531           13 
 2452000   0.87673793   -6.9762775    711.10757  0.024167604  0.023755439            6 
 2453000   0.85730404   -7.0252391    710.32543   0.02413118  0.023748346            8 
 2454000   0.86655519   -6.9829963    712.29125  0.024188103  0.023741332           15 
 2455000    0.8751419   -7.0152103    711.96749  0.024167261  0.023734227            8 
 2456000   0.86720545   -7.0231771    709.91063   0.02408763  0.023727173           12 
 2457000   0.85005608   -6.9821179    710.96001  0.024113418  0.023720101            7 
 2458000   0.85653869    -6.994727    711.38336   0.02411796  0.023713016           10 
 2459000   0.84376016   -6.9700876    713.06688  0.024165205  0.023705963            6 
 2460000   0.85957778   -6.9584169    712.88349   0.02414917   0.02369894           12 
 2461000    0.8538726   -6.9623884    714.87538  0.024206806  0.023691917            7 
 2462000   0.84253422   -6.9981503    712.62724  0.024120879  0.023684884           12 
 2463000   0.84708717    -6.973566    711.15316  0.024061211  0.023677902            7 
 2464000   0.85749338   -6.9800931    712.74541  0.024105297  0.023670879            8 
 2465000    0.8644631   -6.9809178    712.63998  0.024091953  0.023663877            4 
 2466000   0.85421266   -6.9633063    714.03378  0.024129284  0.023656857            8 
 2467000   0.83691743   -6.9921169    712.81697  0.024078401  0.023649799            5 
 2468000   0.85771048   -7.0231081    711.92942  0.024038676  0.023642718            6 
 2469000   0.88429227   -7.0325015    711.15633  0.024002846  0.023635635           14 
 2470000   0.86855551   -7.0084366    712.74691  0.024046792   0.02362857            9 
 2471000   0.85568657    -7.008976    712.47234  0.024027801  0.023621504            9 
 2472000   0.84391226    -6.957174    714.81563  0.024097075  0.023614466            4 
 2473000   0.85512963    -7.010753    712.77762  0.024018655  0.023607424            9 
 2474000   0.84766029   -6.9684207     715.7045  0.024107535  0.023600393            6 
 2475000   0.85776969   -6.9851872    713.88944  0.024036681  0.023593383            8 
 2476000   0.85535376   -7.0046081    713.21092  0.024004137  0.023586321           10 
 2477000   0.84154376   -7.0161901    712.35481  0.023965644  0.023579275            8 
 2478000   0.85420264    -6.998796    715.34889  0.024056662  0.023572263           14 
 2479000   0.83114787   -6.9701139     714.8227  0.024029269  0.023565219            6 
 2480000   0.84073559   -6.9961379    714.89949   0.02402216  0.023558178           24 
 2481000   0.85669018   -7.0086939    714.80954  0.024009457  0.023551126           14 
 2482000   0.84977142   -7.0136951    713.50757  0.023956069  0.023544105            7 
 2483000    0.8360376   -6.9911729    715.69355  0.024019786  0.023537057           23 
 2484000   0.87913121   -6.9937202     716.3568  0.024032367  0.023530058           15 
 2485000   0.84651848    -7.025333    712.96832  0.023909065  0.023523045           16 
 2486000   0.84152473   -7.0263186     712.6617  0.023889169  0.023516014            7 
 2487000   0.86064773    -7.009683    713.84428  0.023919189  0.023509015            9 
 2488000   0.86491245   -6.9993988    716.53695  0.023999764  0.023502114           11 
 2489000   0.85351255   -6.9792416    715.18348  0.023944806   0.02349517            3 
 2490000   0.86776184   -7.0014263    713.99429  0.023895391  0.023488193           10 
 2491000   0.83382263   -7.0084672    712.89036  0.023848868  0.023481124           15 
 2492000   0.84018128   -6.9718008    716.52942  0.023960989   0.02347415           13 
 2493000   0.85177535   -7.0228131    716.30696  0.023943942  0.023467192            8 
 2494000   0.86065611   -7.0110255    716.12509  0.023928264  0.023460203            7 
 2495000   0.82738458    -7.029548    716.14502  0.023919339  0.023453166           20 
 2496000   0.84672384   -7.0103298    715.42665  0.023885772  0.023446172           14 
 2497000   0.83295136   -6.9924854    717.47321  0.023944507   0.02343917            9 
 2498000   0.83577985   -6.9846693    715.42862  0.023866714  0.023432189            5 
 2499000   0.86973932   -6.9937007    716.72593  0.023900425  0.023425244           10 
 2500000   0.85671627   -7.0091307    716.15524  0.023871841  0.023418291            9 
 2501000    0.8468427   -7.0457835    715.16625  0.023829343  0.023411277            8 
 2502000    0.8622622   -7.0120616    718.31146  0.023924576  0.023404257           10 
 2503000    0.8780995   -7.0056169    716.25993  0.023846715  0.023397354           10 
 2504000   0.84505958   -7.0153215    716.14436  0.023833345  0.023390402           10 
 2505000    0.8364536   -7.0494337    716.09691  0.023822253  0.023383396            8 
 2506000   0.84489981   -7.0291287       715.13  0.023780593  0.023376408           10 
 2507000   0.86607542   -7.0061377    715.87192  0.023795769  0.023369428           13 
 2508000   0.82520785   -7.0300648    716.17757  0.023796437  0.023362421            9 
 2509000   0.85596778    -7.036236     716.1812  0.023787073  0.023355433            6 
 2510000   0.84659667   -7.0402137    716.68559  0.023794342  0.023348386            9 
 2511000   0.84464423   -7.0227023    718.21974  0.023835781  0.023341412            9 
 2512000   0.84986195   -7.0228249    715.48331  0.023735513  0.023334424           11 
 2513000   0.85846652   -7.0483714    716.13294   0.02374761  0.023327365           10 
 2514000   0.84848143   -7.0359246    715.35718   0.02371245  0.023320296           10 
 2515000   0.86488721   -7.0126319     716.8075  0.023751077  0.023313277            6 
 2516000   0.85918366   -7.0248837     718.4142  0.023794853  0.023306274           13 
 2517000   0.85898216   -7.0224304    716.53882  0.023723309  0.023299262            6 
 2518000    0.8535626   -7.0413048    717.92896  0.023759894  0.023292294           27 
 2519000   0.84330274   -7.0530559    716.54786  0.023704772   0.02328533            7 
 2520000   0.82876916   -7.0350701    717.95358  0.023741851  0.023278303            7 
 2521000   0.85531716   -7.0104979     716.9936  0.023700701  0.023271292            8 
 2522000   0.83380545   -7.0048909    718.72746  0.023748594  0.023264281           14 
 2523000   0.85247996   -7.0038355    718.29389  0.023724861   0.02325731            9 
 2524000   0.85848859   -7.0342737    716.56572  0.023658403  0.023250386            4 
 2525000    0.8613181   -7.0204198    717.85762  0.023691671  0.023243449           11 
 2526000   0.84076912   -7.0156847    717.85826  0.023682313   0.02323647           15 
 2527000   0.83455704   -6.9983014    718.01503  0.023678111  0.023229469           21 
 2528000   0.85317145   -7.0143196    716.69111  0.023625102  0.023222478           12 
 2529000   0.85769508   -7.0316557    718.04251  0.023660291  0.023215448            8 
 2530000   0.83464096   -7.0310313    716.47463  0.023599296  0.023208395            9 
 2531000   0.85749458   -7.0221465    718.12788  0.023644405  0.023201416           12 
 2532000   0.86158023   -7.0022081    718.30095  0.023640763  0.023194379            7 
 2533000   0.84877922   -7.0420673    716.91504  0.023585835  0.023187336           25 
 2534000   0.84314773   -7.0147439    717.24898  0.023587509  0.023180226           14 
 2535000   0.84213134   -7.0334771    717.66039  0.023591729  0.023173196           13 
 2536000    0.8456454   -7.0357926    718.40084  0.023606758   0.02316621           12 
 2537000   0.84931308   -7.0261589     718.6298  0.023604973   0.02315923           32 
 2538000   0.85772462    -7.034796    718.87569  0.023603746  0.023152217            3 
 2539000   0.84140224   -7.0231229    716.94768   0.02353117  0.023145237           12 
 2540000   0.84982508   -7.0407262    718.80446  0.023582823  0.023138275           17 
 2541000   0.86347192   -7.0473703    719.21746  0.023587087  0.023131337            3 
 2542000   0.83866369    -7.008879    716.70492  0.023495441  0.023124333            5 
 2543000   0.84672809   -7.0545849    718.15547  0.023533736  0.023117369            5 
 2544000   0.83576939   -7.0314357    719.11395  0.023555881  0.023110404            6 
 2545000    0.8194949   -7.0354769    718.44437  0.023524701  0.023103417            4 
 2546000    0.8403936   -6.9977477    722.62092  0.023652164  0.023096509           13 
 2547000   0.84948826   -6.9978167    721.38818  0.023602545  0.023089582           11 
 2548000   0.81540477    -7.072176    719.66888  0.023537051  0.023082603            8 
 2549000   0.83269305   -7.0136021    720.90541  0.023568243  0.023075629            8 
 2550000   0.84512223   -7.0208553     720.4941  0.023545559  0.023068685            7 
 2551000   0.85045447   -7.0567242    720.85535   0.02354813  0.023061839            5 
 2552000   0.82785001   -7.0151716    722.07857  0.023578846  0.023055025            4 
 2553000   0.85897591   -7.0284816     721.3006  0.023544216  0.023048179           17 
 2554000   0.83523338   -7.0216163    721.19147  0.023531437  0.023041366            6 
 2555000   0.86629261    -7.021668     721.6119  0.023535939  0.023034542            4 
 2556000   0.83241195    -7.068728    720.10517  0.023477607   0.02302766           11 
 2557000   0.84923169    -7.032553    721.02176  0.023498297  0.023020811            5 
 2558000   0.87954786     -6.99806    721.54002  0.023505995     0.023014            8 
 2559000   0.87109365    -7.039536     720.2368   0.02345437  0.023007191           18 
 2560000   0.82698795   -7.0552554    720.56523  0.023455899  0.023000261            8 
 2561000   0.83160873   -7.0563249    718.24888  0.023371368  0.022993296           13 
 2562000   0.83849622   -7.0696029    720.43278  0.023433281  0.022986349            5 
 2563000   0.84671554   -7.0767266    719.94702  0.023408344  0.022979421            4 
 2564000   0.85170135   -7.0613935    720.90144  0.023430234  0.022972495            7 
 2565000   0.85375434   -7.0586912    721.82953  0.023451252   0.02296559           17 
 2566000   0.82749146   -7.0360172    721.62529   0.02343548  0.022958722            7 
 2567000   0.84250088   -7.0297761    722.43979  0.023452792  0.022951822            9 
 2568000   0.84719721   -7.0255667    720.63177  0.023384987  0.022944915            5 
 2569000    0.8449383   -7.0435688    722.46147  0.023435237  0.022938039            9 
 2570000   0.85885996   -7.0225553    721.19947  0.023385197  0.022931115            7 
 2571000   0.85097418   -7.0490248    719.84034  0.023332048   0.02292417           22 
 2572000   0.83572956   -7.0307061    723.37781  0.023437591  0.022917298           12 
 2573000   0.84989105   -7.0348666    722.09363   0.02338689  0.022910433            5 
 2574000   0.84698369   -7.0596654    721.03114  0.023343407  0.022903499           11 
 2575000   0.84415764   -7.0464035     719.2951  0.023278159   0.02289656           13 
 2576000   0.84400471   -7.0398788    720.94392  0.023322461  0.022889655            5 
 2577000   0.83620214   -7.0414897    720.89947  0.023311973  0.022882756            9 
 2578000   0.85270849   -7.0709361    721.89232  0.023335025   0.02287583           12 
 2579000    0.8494932   -7.0685839    720.75984  0.023289383  0.022868863            7 
 2580000   0.83369892   -7.0322257    721.43003  0.023302003  0.022861905           10 
 2581000   0.82154558   -7.0501777    722.71492  0.023334461  0.022854981           21 
 2582000   0.83885339   -7.0619183    721.58719  0.023289026  0.022848073            5 
 2583000   0.84308745   -7.0476726    723.44424  0.023339923  0.022841216            7 
 2584000   0.82829446   -7.0603982    723.81832  0.023342954  0.022834336            7 
 2585000   0.84471871   -7.0465913    722.94218   0.02330568  0.022827469           19 
 2586000   0.83307694   -7.0416884    722.32317   0.02327672  0.022820549            5 
 2587000   0.83874143   -7.0370676    722.02073   0.02325798  0.022813638           13 
 2588000   0.84230021   -7.0767441    720.73783  0.023207684  0.022806733            9 
 2589000   0.84173806   -7.0537374    722.90267  0.023268401  0.022799811            6 
 2590000   0.83806287   -7.0417537    721.18345  0.023204101  0.022792869           21 
 2591000   0.85892047   -7.0557811    723.02758  0.023254457   0.02278598            7 
 2592000    0.8255904    -7.022587    722.84014  0.023239459  0.022779081           12 
 2593000   0.84922593   -7.0748595    722.32643  0.023213987  0.022772182           11 
 2594000   0.83768914   -7.0598414     720.8911  0.023158928  0.022765232           13 
 2595000   0.85004504   -7.0388373    722.34634  0.023196735  0.022758374           10 
 2596000   0.84197488   -7.0349168     722.1688  0.023182101  0.022751476            5 
 2597000   0.83545246   -7.0649342    722.56986  0.023186044  0.022744595            6 
 2598000   0.84035143   -7.0587781    723.75199  0.023215037  0.022737735            5 
 2599000   0.84911829   -7.0372367    723.91295  0.023211265  0.022730864           11 
 2600000   0.84402184   -7.0393905    726.79867  0.023294829   0.02272402            7 
 2601000   0.82679961   -7.0533136    723.29901  0.023173748  0.022717163            7 
 2602000   0.83848557   -7.0767278    725.70457  0.023241883  0.022710275            9 
 2603000   0.85662189    -7.076788    722.00494  0.023114513  0.022703379           23 
 2604000   0.83924668   -7.0561399    723.31002  0.023147402  0.022696457           12 
 2605000   0.82486087   -7.0786646    723.76513  0.023153075  0.022689523            7 
 2606000   0.83135035   -7.0181044    724.95197  0.023182143  0.022682612            5 
 2607000   0.83752596   -7.0467585    724.70261   0.02316528  0.022675688            6 
 2608000   0.83671867   -7.0609018     723.7035  0.023124473  0.022668788            5 
 2609000   0.85153422   -7.0440162    723.31202  0.023103105  0.022661845           13 
 2610000    0.8345827   -7.0799077    722.27431  0.023061121  0.022654912            8 
 2611000   0.84462348   -7.0646867    723.55242  0.023093081  0.022647963           28 
 2612000     0.823479   -7.0516523    725.94158  0.023160464  0.022641074           11 
 2613000   0.83250175   -7.0946916    724.58938  0.023108476  0.022634167            6 
 2614000   0.82312816   -7.0597646    726.23727   0.02315217  0.022627256            6 
 2615000   0.83904103   -7.0199354    724.98636  0.023103453  0.022620415            5 
 2616000    0.8470528   -7.0332504    726.01899  0.023127516  0.022613554           19 
 2617000   0.83793949   -7.0460829    724.18568  0.023060301  0.022606667            4 
 2618000   0.83480237   -7.0617785     723.2142  0.023020569  0.022599762            5 
 2619000   0.84302636   -7.0278736    723.19673  0.023011224  0.022592836           19 
 2620000   0.81475728   -7.0521807    723.80305  0.023021726  0.022585959            4 
 2621000   0.83332968   -7.0461905    725.90475  0.023079765  0.022579075           15 
 2622000   0.83231551   -7.1071858    724.21394  0.023017224  0.022572156            7 
 2623000   0.83891453   -7.1011274    723.75016  0.022993715  0.022565232            8 
 2624000   0.83301828   -7.0630676    726.01417  0.023056853  0.022558286           13 
 2625000   0.83822938   -7.0687807    722.60551  0.022939857  0.022551339           12 
 2626000   0.82636789   -7.0807082     724.0598  0.022977272  0.022544388            5 
 2627000   0.82791989   -7.0974459    722.89349  0.022931528  0.022537454           12 
 2628000   0.83997262   -7.0636063    725.76694  0.023013919  0.022530545           11 
 2629000   0.83446141   -7.0907158    724.43581  0.022962971  0.022523636            8 
 2630000   0.84116054   -7.0421914    725.95857   0.02300249  0.022516711           16 
 2631000   0.82413242   -7.0478851    727.44046  0.023040683  0.022509825            6 
 2632000   0.82121973   -7.0427825    726.12198  0.022990184  0.022502967            6 
 2633000   0.84194063   -7.0529845    726.26962  0.022986126  0.022496133           22 
 2634000   0.83516792   -7.0571608    725.80583  0.022962726  0.022489277            7 
 2635000   0.82566492   -7.0978789     723.2465  0.022873071  0.022482348            8 
 2636000   0.82646052   -7.0889764    725.24125  0.022927455  0.022475426            6 
 2637000   0.81579087   -7.0560744    727.42104  0.022987645  0.022468518            8 
 2638000   0.82759832   -7.0664489    724.49553  0.022886515  0.022461648            9 
 2639000   0.82326238   -7.0927365    724.72998  0.022885246  0.022454742            5 
 2640000    0.8346474   -7.1112264    722.07974  0.022792921  0.022447805           16 
 2641000   0.81614224   -7.1200022    723.51417  0.022829552  0.022440852            5 
 2642000    0.8391417   -7.0668135      727.121  0.022934677  0.022433882            5 
 2643000   0.81983499   -7.0558899     727.4638  0.022936808     0.022427           10 
 2644000   0.83447789   -7.0660201     726.3085   0.02289172  0.022420142            5 
 2645000   0.85878623   -7.0991618    725.58457  0.022860257  0.022413238            7 
 2646000   0.83275127   -7.0924277    726.41823  0.022877873   0.02240631            5 
 2647000   0.83270397   -7.0881642    725.53548  0.022841439  0.022399415           13 
 2648000   0.82011429   -7.0853319    725.81632  0.022841651  0.022392516            7 
 2649000   0.81293831   -7.0910321    726.98071  0.022869659  0.022385613           15 
 2650000   0.82603691    -7.097538    727.23584  0.022869052  0.022378713           26 
 2651000   0.82632861   -7.0850175    725.97604  0.022820824  0.022371795           13 
 2652000   0.83394684   -7.0727937    727.22418  0.022851439   0.02236488           14 
 2653000   0.82746986   -7.0767584    725.91806  0.022801799  0.022357954            9 
 2654000   0.82222585   -7.0795278    726.95905  0.022825893  0.022351072           22 
 2655000   0.80123102   -7.0554718    726.63311  0.022807066   0.02234416           23 
 2656000    0.8398611   -7.0593094    726.02255  0.022779322  0.022337238           12 
 2657000   0.83592338   -7.0748514    726.35644  0.022781221  0.022330356           10 
 2658000    0.8295861   -7.0855087    726.39615  0.022773895  0.022323427           12 
 2659000   0.82888738   -7.0987559    726.10646  0.022756251  0.022316492           14 
 2660000   0.81961732   -7.0768102    728.27023  0.022815484  0.022309573           11 
 2661000   0.83082342   -7.0958005    728.01771  0.022799001  0.022302671            7 
 2662000   0.83273981   -7.0833207    726.95751  0.022757247  0.022295782           13 
 2663000   0.82446121   -7.1104315    725.46658  0.022702046  0.022288852           19 
 2664000    0.8389339   -7.1090622    724.79258  0.022672441  0.022281895           13 
 2665000   0.80796881   -7.1017011     727.0024  0.022733033  0.022274938           15 
 2666000   0.83275475   -7.0893102     726.1365   0.02269744  0.022267961           36 
 2667000    0.8327783   -7.0997864    725.79061  0.022678122  0.022260989           12 
 2668000   0.82675928   -7.1434854    724.75916  0.022637405  0.022254023            9 
 2669000   0.82365476   -7.1029264     725.0419  0.022637751  0.022247007            6 
 2670000   0.81719801   -7.1107327    723.25226  0.022573416  0.022239985            5 
 2671000   0.83271103   -7.0805439    725.78991  0.022644138  0.022233067            7 
 2672000   0.83736141   -7.0784098    727.17702  0.022678924  0.022226148            8 
 2673000   0.84398521   -7.0300271    727.99614  0.022695976  0.022219249            8 
 2674000   0.81561319    -7.066956    728.28018  0.022696341  0.022212366            7 
 2675000   0.83265812   -7.0811135    726.40088  0.022629311  0.022205486           20 
 2676000   0.81090299   -7.0629777    726.81975  0.022633898  0.022198573            6 
 2677000   0.80944886   -7.0645364     725.9704  0.022599004   0.02219165            9 
 2678000   0.82794189   -7.0527844    727.46579  0.022637098  0.022184766           11 
 2679000   0.82547847   -7.0864846    726.90524  0.022611212   0.02217779            5 
 2680000   0.84198087   -7.0556868    726.34989  0.022585507  0.022170858            7 
 2681000   0.84078428   -7.0707049    729.01226  0.022659836  0.022163916            6 
 2682000   0.81826466   -7.0463238    727.55899  0.022606233  0.022156992           12 
 2683000   0.83072194   -7.1100491    725.86222  0.022545106  0.022150089           11 
 2684000   0.82005909   -7.0561076    728.10833  0.022606443  0.022143228            5 
 2685000   0.80949332   -7.0916265    727.72041  0.022585984  0.022136306           21 
 2686000   0.82319945   -7.0793936    729.06607  0.022619325  0.022129368           13 
 2687000     0.835074   -7.0755303    727.01994  0.022547449  0.022122461           23 
 2688000   0.81494342   -7.1083127    726.70981  0.022529446  0.022115542           16 
 2689000   0.82681659   -7.0725904    726.51815  0.022515128  0.022108597            8 
 2690000   0.82133382   -7.1194398    726.36068   0.02250188   0.02210159           14 
 2691000    0.8095126   -7.1375986    725.26187   0.02245949    0.0220946            9 
 2692000   0.82115819   -7.1206583    726.43408  0.022487434  0.022087548            9 
 2693000   0.81926041   -7.1100483    726.47299  0.022480288  0.022080578           12 
 2694000   0.82490166   -7.0935458    727.20593  0.022494616  0.022073596           14 
 2695000   0.82703787     -7.11452    727.39743   0.02249219  0.022066608           12 
 2696000   0.83290126    -7.108803    728.39464  0.022514671  0.022059639           11 
 2697000   0.82316761   -7.1053903    727.56279   0.02248062  0.022052757            7 
 2698000   0.83913764   -7.1007905    728.41316  0.022498553  0.022045864            8 
 2699000   0.81003137   -7.1096916    728.41123  0.022490158  0.022038957           12 
 2700000   0.80542666   -7.1238179    726.85223  0.022433711  0.022032013            9 
 2701000   0.81491096   -7.1099577    728.26829  0.022469095  0.022025072            4 
 2702000   0.81509718    -7.092062    729.25805  0.022491304   0.02201816           10 
 2703000   0.82076394   -7.0811853    728.02193  0.022444874  0.022011255            6 
 2704000   0.81923385   -7.0985298    728.15603  0.022440706  0.022004377            9 
 2705000   0.81243401   -7.1143971    727.60863  0.022415546   0.02199745            7 
 2706000   0.82743921   -7.1175772    726.69942  0.022379263   0.02199051           12 
 2707000   0.81710274   -7.1121065    727.13903  0.022384529  0.021983601           18 
 2708000   0.82309341   -7.1086483    728.26856  0.022411022  0.021976667           17 
 2709000   0.81538666   -7.1126886    728.28418  0.022403229  0.021969768            7 
 2710000   0.83006373   -7.1367394    726.35516  0.022335645  0.021962793            7 
 2711000   0.81195884   -7.0748763    729.53767  0.022425233  0.021955831            9 
 2712000   0.81117039   -7.1026715    728.99828   0.02240039  0.021948942           10 
 2713000   0.80717925   -7.1043691    729.45589  0.022406189   0.02194207            8 
 2714000   0.82273275   -7.0832306    727.40054  0.022334824  0.021935201            8 
 2715000   0.80806261   -7.0727861    731.27952  0.022445657  0.021928365            4 
 2716000   0.81946412   -7.0731984    729.90943  0.022395356  0.021921494            6 
 2717000   0.80918275   -7.1130677    728.57106  0.022346064  0.021914626            9 
 2718000   0.82054518   -7.1168403    730.23813  0.022388954  0.021907778            7 
 2719000   0.81651671   -7.0816347    729.58634  0.022360744  0.021900928            5 
 2720000   0.80870231   -7.1306511    727.72526  0.022295504   0.02189404           10 
 2721000   0.82156314   -7.1230768    728.32662  0.022305728  0.021887144           19 
 2722000   0.82728054    -7.105513    729.25179  0.022325857  0.021880315            7 
 2723000   0.82709718   -7.0898645    729.82735  0.022335272  0.021873453            5 
 2724000   0.82053201   -7.0878607    731.00964  0.022363242  0.021866616            7 
 2725000   0.80942262   -7.0951722    730.81609  0.022349116  0.021859749            7 
 2726000   0.81043482   -7.0975387    731.67389   0.02236714  0.021852849           10 
 2727000   0.81467513   -7.0968812    730.61116  0.022326462  0.021846006            8 
 2728000    0.8288516   -7.1219841     729.9111  0.022296893  0.021839157           25 
 2729000   0.80843748   -7.0937245    730.55476  0.022308378   0.02183227            9 
 2730000   0.82590331   -7.0847484    732.77371   0.02236794  0.021825484            8 
 2731000   0.81033241   -7.0813596     733.9719  0.022396311  0.021818697            6 
 2732000   0.82208682   -7.1147435    730.87958  0.022293789  0.021811882            9 
 2733000   0.83143345   -7.1230886    730.75347  0.022281787  0.021805017            8 
 2734000   0.80342662   -7.1229743    731.62603  0.022300233  0.021798179           16 
 2735000    0.8164187   -7.1087941    730.86362  0.022268849  0.021791349           29 
 2736000   0.82024973   -7.1060788    730.78747   0.02225839  0.021784536           10 
 2737000   0.81338418   -7.1284925    731.24427  0.022264166  0.021777717           12 
 2738000   0.80663556   -7.1312095    726.76373  0.022119665  0.021770816            8 
 2739000   0.80308471   -7.1141578    731.12889  0.022244399  0.021763946           11 
 2740000   0.80157321   -7.1246371    732.05125  0.022264333  0.021757057           15 
 2741000   0.81904677   -7.1450295    728.89725   0.02216032  0.021750179           26 
 2742000   0.81389363   -7.1276764     729.3606   0.02216632  0.021743282            7 
 2743000    0.8175588   -7.1121695    731.76667  0.022231336  0.021736402           20 
 2744000   0.82028212   -7.1135583    732.25124  0.022237951   0.02172952           10 
 2745000   0.82344761   -7.1339969     728.9094  0.022128397  0.021722647            7 
 2746000   0.80753595   -7.1594416    730.38969  0.022165261  0.021715734           24 
 2747000   0.81123913   -7.1483287    731.25426   0.02218342   0.02170885           25 
 2748000   0.79340469   -7.1430034    728.55831  0.022093592  0.021701958           31 
 2749000   0.80059945   -7.1313683    731.32042  0.022169286  0.021695084           14 
 2750000    0.8012342   -7.1180981    731.99886  0.022181784  0.021688279           34 
 2751000    0.8186321   -7.1515505    730.65512  0.022133016  0.021681466           28 
 2752000   0.80362199   -7.1239286    731.14507   0.02213981   0.02167466           33 
 2753000   0.79231001   -7.1014045    733.39253  0.022199798  0.021667854            8 
 2754000   0.80850537   -7.1217995    731.27665  0.022127713  0.021661092           12 
 2755000   0.79380062   -7.1267653    732.23851  0.022148775  0.021654311            7 
 2756000   0.81492927   -7.1320819    731.98071  0.022132944  0.021647514            4 
 2757000   0.81719699     -7.13873    731.49438  0.022110216  0.021640689           10 
 2758000   0.81354413   -7.1200416    734.44328    0.0221913  0.021633944           19 
 2759000   0.79689115   -7.1198943    732.35308  0.022120125  0.021627175            5 
 2760000   0.80881554   -7.1628259    732.26628  0.022109489  0.021620428           21 
 2761000   0.79763056   -7.1235715    731.70101   0.02208442  0.021613657            8 
 2762000   0.80780246   -7.1481145    731.03728  0.022056399  0.021606865           12 
 2763000   0.81125151     -7.13707    732.38404  0.022089035  0.021600088            9 
 2764000   0.80445348   -7.1556518    732.29159  0.022078256  0.021593282           20 
 2765000   0.80874712   -7.1447139    733.07453  0.022093868  0.021586472           22 
 2766000   0.80367633   -7.1359988    733.72887  0.022105594  0.021579613           17 
 2767000   0.79337854   -7.1558248    732.34663  0.022055976  0.021572761           10 
 2768000   0.80665952   -7.1691915    730.06824  0.021979415  0.021565871           38 
 2769000   0.81563192   -7.1627489    730.29921  0.021978428  0.021558998           27 
 2770000   0.79974424   -7.1772369    732.14556   0.02202604  0.021552138           46 
 2771000   0.80949201   -7.1721777    730.57356  0.021970815    0.0215453           31 
 2772000   0.81049792   -7.1528053    730.70248  0.021966765    0.0215384           45 
 2773000   0.82303424    -7.145116    731.25743  0.021975521  0.021531581           15 
 2774000    0.8064089   -7.1865924    729.91178  0.021927174  0.021524732           15 
 2775000   0.80882651   -7.1533646     734.4649  0.022056003  0.021517861           18 
 2776000   0.80243817   -7.1409041    731.62562  0.021962825  0.021511002           17 
 2777000   0.79078765   -7.1869232    731.77025  0.021959256  0.021504109           16 
 2778000   0.77982583   -7.1695977     733.2753  0.021996499  0.021497181           12 
 2779000    0.7896663   -7.1394999    729.90296  0.021887458  0.021490286           12 
 2780000   0.79274928   -7.1267215    732.35063  0.021952956  0.021483413           10 
 2781000    0.8095656    -7.152702    733.39185  0.021976263  0.021476579           13 
 2782000   0.79129214   -7.1533296    733.21524  0.021963073  0.021469771           19 
 2783000   0.81920058   -7.1351248    731.10105  0.021891875  0.021462961           16 
 2784000   0.79956477   -7.1548217    732.56617  0.021927867   0.02145613           22 
 2785000   0.80770487   -7.1582805    731.68566  0.021893646  0.021449298            8 
 2786000   0.82388309   -7.1641974    731.24054  0.021872474  0.021442453            9 
 2787000    0.7984334   -7.1824134    731.44268   0.02187067  0.021435551           10 
 2788000   0.80855622   -7.1541956    733.24237  0.021916618  0.021428689           13 
 2789000   0.82215557   -7.1626337    731.95433  0.021870274  0.021421874           12 
 2790000   0.79359826   -7.1645424    733.21617  0.021900124  0.021415087            8 
 2791000   0.80707042   -7.1768306    731.33928  0.021836238  0.021408242           10 
 2792000    0.7993809   -7.1491996    731.48503  0.021832767  0.021401397           14 
 2793000    0.8096224   -7.1310796    733.22534  0.021876875   0.02139454           10 
 2794000   0.79739519   -7.1859214    731.46372  0.021816503  0.021387709            7 
 2795000   0.80790434   -7.1328745    733.42757   0.02186725  0.021380856           16 
 2796000   0.80652637    -7.163469     734.5022  0.021891458  0.021374029            5 
 2797000    0.8046836    -7.152291    732.14547  0.021813415   0.02136715           19 
 2798000   0.80919139   -7.1720284    733.55448  0.021847584  0.021360339           11 
 2799000   0.77883544   -7.1305455     733.4661  0.021837147  0.021353528           23 
 2800000   0.78478508   -7.1796493    732.63145  0.021804507  0.021346671           26 
 2801000   0.81021352   -7.1708286    729.92166  0.021716103  0.021339836           57 
 2802000   0.80062471   -7.2011289    733.62756  0.021818569  0.021333019           17 
 2803000   0.80368771   -7.1949691     733.8446  0.021817238  0.021326182           29 
 2804000   0.78997928   -7.1561829    732.86603  0.021780374  0.021319366           17 
 2805000   0.78918628   -7.1693516    733.11661  0.021780054  0.021312498           37 
 2806000   0.80498365   -7.1382949    734.14535  0.021802844  0.021305688           10 
 2807000   0.78414858   -7.1652518    733.47751   0.02177525  0.021298919           17 
 2808000   0.78619577   -7.1420093    734.61328  0.021801201  0.021292149           11 
 2809000   0.78363304   -7.1646258    733.43133  0.021758376  0.021285361           11 
 2810000   0.82500914   -7.1794757    732.98152  0.021737293  0.021278555            7 
 2811000   0.80439108   -7.1384922    735.57292  0.021806383  0.021271807           21 
 2812000   0.79565791   -7.1481337     733.7632  0.021744998   0.02126508           14 
 2813000   0.82301708   -7.1649434    733.41411  0.021726926  0.021258334           13 
 2814000    0.8084664    -7.206564    732.87992  0.021703385  0.021251545            9 
 2815000   0.78063403   -7.1773405    734.12101  0.021732416  0.021244742           17 
 2816000   0.79678821    -7.185916    733.33626  0.021701475  0.021237962            8 
 2817000   0.79462031   -7.1711852    735.03952  0.021744158  0.021231159           14 
 2818000   0.81289481   -7.1534039    734.94192  0.021733556  0.021224386           13 
 2819000   0.80309329   -7.1635695    733.52779  0.021684042   0.02121763            9 
 2820000   0.80638475   -7.1630648    733.81116  0.021684727  0.021210867           11 
 2821000   0.79660203   -7.1899617    731.98991   0.02162324  0.021204063           10 
 2822000   0.81184442   -7.1500484    735.03196  0.021705409  0.021197296           12 
 2823000   0.79764053   -7.1594876    734.67915  0.021687305  0.021190547            7 
 2824000   0.80555009   -7.1589735    735.68888  0.021709422  0.021183811            6 
 2825000   0.81952995   -7.1593425    735.82841  0.021705853  0.021177077           16 
 2826000    0.8215452   -7.1722159    734.77798  0.021667197  0.021170372            8 
 2827000   0.78668994   -7.1477653    733.94108  0.021634863  0.021163633           12 
 2828000   0.81493534    -7.188629    734.31522  0.021638237  0.021156926           10 
 2829000   0.77697608   -7.1731161    734.60828  0.021639221  0.021150198           10 
 2830000   0.80759068   -7.1647484    735.61242  0.021661143  0.021143439           11 
 2831000   0.78981333    -7.145778     734.5943  0.021623522  0.021136731            9 
 2832000   0.79557806   -7.1855512    734.93841  0.021626012  0.021130018            7 
 2833000   0.79748136   -7.1606172     735.8153  0.021644173  0.021123302            6 
 2834000   0.79037444   -7.1784309    734.60666  0.021600996  0.021116586           18 
 2835000   0.78193735     -7.17298     734.4449  0.021588621  0.021109835           10 
 2836000   0.81639729    -7.174331    734.51762  0.021583146   0.02110309           20 
 2837000   0.79912224   -7.2062903    735.51765  0.021604913  0.021096345           10 
 2838000   0.79373075   -7.1769524    736.33955  0.021621434  0.021089586            8 
 2839000   0.79269788   -7.1614348    736.40981   0.02161588  0.021082848           10 
 2840000    0.7949233   -7.1735202    733.91427  0.021535043  0.021076152           12 
 2841000   0.79672416   -7.1830766    734.73845  0.021551638  0.021069443            7 
 2842000   0.79571363   -7.1994429    735.05546   0.02155335  0.021062727            5 
 2843000   0.79276333   -7.1657998    737.31195  0.021611911  0.021055996            8 
 2844000   0.79520542   -7.1657045    737.60696  0.021612956  0.021049304            9 
 2845000   0.78916201   -7.1320774      737.682  0.021607557  0.021042602           17 
 2846000   0.78734575    -7.162153    735.73111  0.021542841  0.021035943            6 
 2847000    0.8034492   -7.1616852     735.1182  0.021517334  0.021029315           23 
 2848000   0.78942352   -7.1647482    737.35471   0.02157522  0.021022658           14 
 2849000    0.7910547   -7.1807966    736.43202  0.021540658  0.021015967            8 
 2850000   0.79564898   -7.1622606     737.3576  0.021560164  0.021009289            8 
 2851000    0.8186744   -7.1537773    738.44143  0.021584281  0.021002616           17 
 2852000   0.78649347   -7.1841024    736.53838  0.021521108   0.02099598           10 
 2853000   0.79894246   -7.1646169    736.47261  0.021511643  0.020989364           15 
 2854000   0.78395363   -7.1676633    736.38349  0.021501504  0.020982707           15 
 2855000   0.79100181    -7.180816    736.09667    0.0214856  0.020976021           18 
 2856000   0.80334885   -7.2007275    738.25263  0.021540985  0.020969309           27 
 2857000   0.79198769   -7.2011409    734.60835  0.021427148  0.020962579           11 
 2858000   0.79106228   -7.1985957     736.3718   0.02147107  0.020955856           11 
 2859000   0.81307011   -7.1871668    737.03085  0.021482769   0.02094912           14 
 2860000   0.77364152   -7.1910299    736.49618  0.021459679  0.020942377           12 
 2861000   0.78990543   -7.2056618     735.8256  0.021432646  0.020935657           24 
 2862000   0.80656339    -7.204339    735.95696  0.021428982  0.020928888           12 
 2863000   0.78595584    -7.217311    735.72106  0.021414631  0.020922131           16 
 2864000   0.79474473   -7.2049719    735.31784  0.021395421  0.020915433            9 
 2865000   0.78502736   -7.2233714    735.84342  0.021403241  0.020908692           10 
 2866000   0.79389763   -7.2062337    736.41102  0.021412277  0.020901984           14 
 2867000   0.79035691   -7.1780115    735.95391  0.021391522  0.020895251            6 
 2868000   0.80309979    -7.195464    735.10514  0.021359401  0.020888534           10 
 2869000   0.80251073   -7.1866212    734.95329  0.021347545  0.020881826           13 
 2870000   0.78789799   -7.1662234     736.4308  0.021383008  0.020875081           12 
 2871000   0.76972922   -7.2297478    734.57153  0.021321593  0.020868342           15 
 2872000   0.79578334   -7.2340376     734.4899  0.021311801  0.020861574            6 
 2873000   0.79653772   -7.1940938    737.82765  0.021401197  0.020854811           17 
 2874000   0.78512225   -7.1779238    737.74612  0.021391386  0.020848104            7 
 2875000   0.79538613   -7.1784721    737.53948  0.021377956  0.020841428            8 
 2876000   0.79118575   -7.1774161    737.29161  0.021363341  0.020834761           11 
 2877000   0.80059874   -7.1572644     736.5666  0.021334915  0.020828082           15 
 2878000   0.78778276   -7.1786669    737.67104  0.021359481  0.020821427           14 
 2879000    0.7666274   -7.1817497    737.64567  0.021351328  0.020814799            8 
 2880000    0.7831138     -7.17817    738.99034  0.021382822   0.02080816           10 
 2881000   0.78925383   -7.1645108    738.24285  0.021353779   0.02080153            9 
 2882000   0.78381385   -7.1507652    737.74954  0.021332106  0.020794921           11 
 2883000   0.79337383    -7.194957    735.49421  0.021259516  0.020788289           13 
 2884000   0.80935685   -7.1837412    739.58897  0.021370462  0.020781646           13 
 2885000   0.79111048    -7.210971    735.06755  0.021232454  0.020774966           15 
 2886000   0.79850089   -7.1914103    736.98604  0.021280493  0.020768318            9 
 2887000   0.78490167   -7.1822716    737.75658  0.021295364  0.020761655            6 
 2888000   0.80793221   -7.1827124    737.74389  0.021287624  0.020754985            8 
 2889000   0.78375652   -7.1741441    738.07135  0.021289701  0.020748297           11 
 2890000   0.77464328   -7.1845197    738.48105  0.021294148  0.020741632            6 
 2891000   0.79171411   -7.1898065    738.06513  0.021274793   0.02073494            5 
 2892000   0.77358666   -7.1874088      737.978  0.021264926  0.020728223            7 
 2893000   0.79343407   -7.1875337    738.45574  0.021271337  0.020721524            7 
 2894000    0.7858643   -7.1807017    737.59849  0.021239302  0.020714845           13 
 2895000   0.78283726   -7.2075114    736.96587  0.021213755  0.020708187           16 
 2896000   0.80376208   -7.1945684     737.5665  0.021223714  0.020701514           10 
 2897000   0.80123677    -7.209436    737.63314  0.021218304  0.020694839           14 
 2898000    0.8016783   -7.2190026    737.33986  0.021202549   0.02068814           36 
 2899000   0.79671559   -7.1705757    737.77397  0.021207714  0.020681449            9 
 2900000   0.78522489   -7.1873277     738.6244  0.021224839  0.020674796            9 
 2901000   0.79127519   -7.1913889    738.61427  0.021217232  0.020668148            7 
 2902000   0.78929641   -7.2155193     738.6275    0.0212103  0.020661456           13 
 2903000   0.77610472   -7.2070728    737.97085  0.021184144  0.020654783           12 
 2904000   0.79193997    -7.200455    738.12428  0.021181252  0.020648089           18 
 2905000   0.78590721   -7.2275062    736.56913   0.02112935   0.02064141           10 
 2906000   0.80989567   -7.2154174     738.4263  0.021175335  0.020634738            8 
 2907000   0.79253821   -7.2018704    739.85152  0.021208907  0.020628081           10 
 2908000   0.78290305   -7.1968748    738.20633  0.021154468  0.020621452            6 
 2909000    0.7955347   -7.2087394    739.00199  0.021169989  0.020614811           11 
 2910000    0.7801606   -7.2288326     739.0397  0.021163794   0.02060818           40 
 2911000   0.78965755   -7.1672218    737.86442  0.021122879  0.020601545           30 
 2912000   0.77741443   -7.1810468    738.93295  0.021146204  0.020594918           15 
 2913000   0.78885755   -7.2232123    738.89227  0.021137781  0.020588273           15 
 2914000   0.78348864   -7.2184678    737.87498  0.021101435  0.020581648           12 
 2915000    0.7869203   -7.2263828    738.26162  0.021105249  0.020574998            8 
 2916000   0.79433128   -7.2379489    737.94978    0.0210891  0.020568344           19 
 2917000   0.79670512   -7.1975924    738.08062  0.021085608  0.020561722           17 
 2918000   0.77920502   -7.1890653    740.10598  0.021136223  0.020555073           17 
 2919000    0.7761081   -7.1590073    739.53719  0.021112744  0.020548435           10 
 2920000   0.77672765   -7.1926771    738.69868  0.021081583  0.020541762           39 
 2921000   0.77366564    -7.175236    739.75482  0.021104497  0.020535125           19 
 2922000   0.78022245   -7.2180639    737.97688  0.021046569  0.020528486           10 
 2923000   0.80172868   -7.2040449    739.72581  0.021089229  0.020521874           14 
 2924000   0.78981128   -7.2043439    741.38624  0.021129339   0.02051526           20 
 2925000   0.80848329   -7.2105526    739.12296  0.021057634  0.020508663            7 
 2926000    0.7913543   -7.2151195    739.14519  0.021051071   0.02050206           18 
 2927000   0.77062242   -7.2197183    739.98103  0.021067675  0.020495455           24 
 2928000   0.78306842   -7.1871251    741.55434  0.021105258  0.020488861           26 
 2929000    0.7770656   -7.1942696    741.40741  0.021093872  0.020482263           20 
 2930000   0.77913938   -7.2088313    740.41297  0.021058389  0.020475678           21 
 2931000     0.776968   -7.2219062    740.30258  0.021048066  0.020469081           14 
 2932000   0.77790552   -7.2412525    740.65043  0.021050774   0.02046249           14 
 2933000    0.7774123   -7.1993863    741.75916  0.021075098   0.02045591           20 
 2934000   0.78277518   -7.2109013    739.85367  0.021013794  0.020449292           21 
 2935000   0.78137469   -7.2044849    741.11247  0.021042376   0.02044272           19 
 2936000   0.77754098   -7.2058994    740.72786  0.021024292  0.020436169           14 
 2937000   0.80482311   -7.2265505    738.83095  0.020963312  0.020429604           10 
 2938000   0.78643874   -7.2485223    740.78966  0.021011733  0.020423042           10 
 2939000   0.77887045   -7.2200777    741.40892  0.021022143  0.020416514           10 
 2940000   0.78148968   -7.2427336     740.1824  0.020980227  0.020409966           17 
 2941000   0.77696711   -7.2369583    741.53449  0.021011405  0.020403384           15 
 2942000   0.79092106   -7.2055369    739.33146  0.020941861  0.020396833           12 
 2943000   0.77717862   -7.2381576    740.92508   0.02097987  0.020390293            4 
 2944000   0.80228473   -7.2243435    740.40084  0.020957904  0.020383759            6 
 2945000   0.78997501   -7.2211005    740.58777  0.020956077  0.020377208           25 
 2946000   0.75875727   -7.2429732    740.33752  0.020941885  0.020370663           18 
 2947000   0.80027679   -7.2354394    741.52584  0.020968381  0.020364097           23 
 2948000   0.79490941   -7.2111048    742.16533  0.020979346   0.02035756           31 
 2949000   0.78314257   -7.2643516    739.54669  0.020898234  0.020350967           14 
 2950000   0.75213631   -7.2309743    740.96447    0.0209312  0.020344386            8 
 2951000   0.78334554   -7.2216664    739.65411  0.020887103  0.020337825           23 
 2952000   0.79779275    -7.234958    740.62993  0.020907575  0.020331235           13 
 2953000   0.77519133     -7.21343    743.17412  0.020972292  0.020324645           19 
 2954000   0.78746784   -7.2168149    741.13262  0.020907601  0.020318122           14 
 2955000   0.78107149    -7.184705    742.34118  0.020934607  0.020311624            9 
 2956000   0.79435283   -7.2104601    741.38415  0.020900545  0.020305135           19 
 2957000   0.77010039   -7.2158152    742.30534  0.020919438  0.020298627           31 
 2958000   0.77979808   -7.2189653    740.63262  0.020865242  0.020292115           17 
 2959000   0.79221063   -7.2235701     740.8626  0.020864667  0.020285564           16 
 2960000   0.79007732   -7.2429503    740.43968  0.020845712  0.020279025           11 
 2961000    0.7855605   -7.2595017    739.99288  0.020826097  0.020272445           16 
 2962000   0.78466766   -7.2323302     742.3627  0.020885739   0.02026593           15 
 2963000   0.75747099   -7.2212794    740.28235  0.020820181  0.020259404           13 
 2964000   0.78249641    -7.232948    741.16825  0.020838064  0.020252867           30 
 2965000   0.78925323   -7.1776719    741.57251  0.020842398  0.020246377           12 
 2966000   0.77648561   -7.2111115    741.86858  0.020843689  0.020239911           23 
 2967000   0.77162558   -7.2451462     739.4335   0.02076827  0.020233402           14 
 2968000   0.77126408   -7.2504837    741.72245  0.020825541  0.020226845           22 
 2969000   0.77860654   -7.2622586    740.26264  0.020777552   0.02022029            7 
 2970000   0.78754177   -7.2333036    742.34948   0.02082911  0.020213738           11 
 2971000   0.78442782   -7.2140249    742.79567  0.020834614  0.020207233           18 
 2972000   0.77559252   -7.2164147    742.26466  0.020812715  0.020200738            9 
 2973000   0.79339768   -7.2251527    741.32081  0.020779258  0.020194238           23 
 2974000   0.78108771   -7.2042231    743.66517  0.020837961  0.020187764           10 
 2975000   0.77879707   -7.2047004    741.96792  0.020783415  0.020181267           24 
 2976000   0.78498458   -7.2665061    739.80978     0.020716  0.020174758           13 
 2977000   0.75845207    -7.216138    742.17223  0.020775172   0.02016824           14 
 2978000   0.79497329   -7.2331457     740.6292  0.020725017  0.020161762           19 
 2979000   0.78305867   -7.2309854    742.38817  0.020767264  0.020155312           10 
 2980000   0.78012836   -7.2404016    743.37598  0.020787919  0.020148865           23 
 2981000   0.77959961   -7.2593015    741.89172  0.020739453  0.020142422           11 
 2982000   0.78459471   -7.2361242    743.45411   0.02077616  0.020135985           20 
 2983000   0.76457402   -7.2221938    741.78203  0.020722484  0.020129518           11 
 2984000   0.78403277   -7.2829676    742.23451  0.020728176  0.020123035           19 
 2985000   0.76289967   -7.2781212    741.29856  0.020695102   0.02011651           28 
 2986000   0.76831864      -7.2665    741.07658  0.020681977  0.020110003           20 
 2987000   0.78382873   -7.2912439    741.52217  0.020687484  0.020103517           27 
 2988000   0.77224417   -7.2541677    741.90632  0.020691274  0.020097027           11 
 2989000   0.77546378   -7.2414482     743.6893  0.020734061  0.020090525           12 
 2990000     0.773625   -7.2408634    743.15599  0.020712263  0.020084053            5 
 2991000   0.77456263   -7.2318684    743.87617  0.020725403  0.020077599           12 
 2992000   0.77761331   -7.2520465    744.26219  0.020729228  0.020071155           12 
 2993000   0.77061895   -7.2371202    743.08727  0.020689589  0.020064723            9 
 2994000   0.78594373   -7.2583531    744.38691  0.020718852  0.020058301           21 
 2995000   0.77392363   -7.2424226    743.54781  0.020688587  0.020051874           17 
 2996000   0.76095008   -7.2512509    743.03559  0.020667434  0.020045461           13 
 2997000   0.77195748   -7.2499161    744.37026  0.020697649  0.020039044            9 
 2998000   0.77990086     -7.24292    745.14483  0.020712276  0.020032656            6 
 2999000   0.77721632   -7.2382489    744.29617  0.020681788  0.020026259           15 
 3000000   0.76256573    -7.262782    743.96186  0.020665607  0.020019876            7 
 3001000   0.78559968    -7.268985    743.84581  0.020655498   0.02001349            5 
 3002000   0.76688924   -7.2470655    744.93895  0.020678963  0.020007136            7 
 3003000   0.78279709   -7.2582988    745.00327  0.020673862  0.020000779           11 
 3004000   0.76168662   -7.2559312    745.05593   0.02066844  0.019994442            8 
 3005000   0.77564581   -7.2587959    744.23712  0.020638855   0.01998812           12 
 3006000   0.75737035   -7.2376135    745.95239  0.020679541  0.019981798            8 
 3007000   0.76349226   -7.2139255    747.15013  0.020705857  0.019975502            6 
 3008000   0.77089689   -7.2400356    745.09981  0.020642171  0.019969198           11 
 3009000   0.77143049   -7.2337451    745.95935  0.020659116  0.019962896           15 
 3010000    0.7746234   -7.2184787    745.91591   0.02065105  0.019956582           22 
 3011000   0.75931798   -7.2415288    744.76913  0.020612452   0.01995026            9 
 3012000   0.76905145    -7.239979    744.19293  0.020589667  0.019943934           13 
 3013000   0.76825928   -7.2580493    744.24242  0.020584202  0.019937585            8 
 3014000   0.76947169   -7.2371868    746.03724  0.020626997  0.019931251           17 
 3015000   0.79282349   -7.2445265    744.78471  0.020585537  0.019924901            6 
 3016000   0.74617507   -7.2591025    744.73458  0.020577326  0.019918528            9 
 3017000   0.76123597   -7.2528483     746.5161  0.020619713  0.019912163           19 
 3018000   0.76244029   -7.2668079    743.74775  0.020536441  0.019905808           15 
 3019000   0.76592797   -7.2472793    746.47906  0.020605031  0.019899454           11 
 3020000   0.75918301   -7.2598482    744.59148  0.020546123  0.019893101           21 
 3021000   0.78732431   -7.2361635    746.66091  0.020596406   0.01988677           22 
 3022000   0.78073134    -7.272449    744.06873   0.02051811  0.019880402           14 
 3023000   0.75128853   -7.2608068    744.10061  0.020512201  0.019874007           20 
 3024000   0.76476604   -7.2377835    746.90446  0.020582685  0.019867657           10 
 3025000   0.76507924   -7.2606278    745.22528  0.020529622  0.019861276           35 
 3026000   0.76510762   -7.2562658    743.90274  0.020486416  0.019854897           12 
 3027000   0.76850418   -7.2952779    742.11484  0.020430427   0.01984849           13 
 3028000   0.77506357   -7.2578278    743.68704  0.020466948  0.019842097           36 
 3029000   0.77836074   -7.2416141    744.88106  0.020493041  0.019835695           14 
 3030000   0.77937088   -7.2748053    744.83583  0.020485034  0.019829319           34 
 3031000   0.76487396   -7.2651928    743.33228  0.020436937  0.019822922           45 
 3032000   0.78338532   -7.2795862    744.57222  0.020464276  0.019816525           37 
 3033000   0.77218973   -7.2853185    744.46448  0.020454569  0.019810131           29 
 3034000   0.77020021   -7.2601483    744.41312  0.020446416  0.019803756           48 
 3035000   0.78964662   -7.2646984    744.06143  0.020430023  0.019797402           17 
 3036000   0.77308215   -7.2829421    744.58691  0.020437717  0.019791027           51 
 3037000   0.75589962   -7.2612254    744.19557  0.020420249  0.019784658           34 
 3038000   0.78219838   -7.2645716    745.31374    0.0204442  0.019778333           24 
 3039000    0.7811351   -7.2367134    745.94094  0.020454671  0.019772009           13 
 3040000   0.77249999   -7.2542218    743.64011  0.020384871  0.019765678           14 
 3041000   0.77032575   -7.2790851    746.11592  0.020446013  0.019759333           11 
 3042000   0.74345241    -7.272567    743.47367   0.02036691  0.019752969            9 
 3043000   0.76523302   -7.2596731    745.02896  0.020402809  0.019746643           24 
 3044000   0.75465645   -7.2561228    743.04088   0.02034168  0.019740338           14 
 3045000   0.76105538   -7.2313323    746.76975  0.020437049  0.019734025           24 
 3046000   0.76888959   -7.2724799    745.23179  0.020388263  0.019727697           11 
 3047000   0.77846482   -7.2541491     745.6117  0.020391962   0.01972137            8 
 3048000   0.75889354   -7.2655306    744.72505  0.020361031  0.019715034           13 
 3049000   0.76908539   -7.3115103    744.31851  0.020343241  0.019708645           20 
 3050000   0.77050575   -7.2757832    743.98559  0.020327475  0.019702279           39 
 3051000   0.77471697   -7.3177616    743.54789  0.020308857  0.019695903           20 
 3052000   0.76794585   -7.3257452    743.44426  0.020299374  0.019689495           14 
 3053000   0.76732703   -7.2835773    745.13827  0.020338963   0.01968309           32 
 3054000   0.75450239   -7.2820089    745.47033  0.020341365  0.019676708           15 
 3055000   0.75686581   -7.2871316    744.75513  0.020315197  0.019670323           18 
 3056000   0.74248561     -7.26393    745.46872  0.020328008  0.019663939           23 
 3057000   0.75113427   -7.2959151    745.97871  0.020335261  0.019657569           39 
 3058000   0.76052412   -7.2637589    745.58182  0.020317796  0.019651226           38 
 3059000   0.75655409   -7.2959455    745.52312  0.020309554   0.01964485           34 
 3060000   0.75878509   -7.3066182    743.31062  0.020242664  0.019638461           54 
 3061000    0.7518141   -7.2952048    745.84201  0.020304966  0.019632057           33 
 3062000   0.75354304   -7.3037752    745.93901  0.020300975  0.019625679           31 
 3063000   0.75722892   -7.3061537    744.58532  0.020257518  0.019619301           37 
 3064000   0.77177163   -7.3306901    744.22096  0.020240997  0.019612938           25 
 3065000   0.76286066   -7.2804998    745.96622  0.020281844  0.019606613           29 
 3066000   0.75127126   -7.2821558    746.26499  0.020283349  0.019600271           53 
 3067000   0.76357694   -7.3215495    744.31562   0.02022377  0.019593936           26 
 3068000   0.75588489   -7.2938289     746.1045  0.020265767  0.019587594           17 
 3069000   0.75546279    -7.273798    746.08851   0.02025873  0.019581291           33 
 3070000   0.75722632   -7.2371338    748.15871  0.020308325  0.019575009           44 
 3071000   0.77326767   -7.2711641    747.32323  0.020279041  0.019568737           26 
 3072000     0.765636   -7.2781955    746.87593  0.020260306  0.019562425           23 
 3073000   0.75353652   -7.3203773    746.68284  0.020248477   0.01955609           46 
 3074000   0.78199695   -7.2639227    747.40406  0.020261442   0.01954979           24 
 3075000   0.74923235   -7.3065863    746.39881   0.02022761  0.019543476           61 
 3076000   0.77287051   -7.3000266     745.8607  0.020206456  0.019537155           52 
 3077000   0.76266516   -7.3191833    744.75119   0.02016984   0.01953082           30 
 3078000   0.76073469   -7.3195666    745.61887  0.020186779  0.019524478           41 
 3079000   0.77756279   -7.3372032    745.33587  0.020172563  0.019518132           18 
 3080000   0.75599208   -7.3077826    744.99742  0.020156857  0.019511783           21 
 3081000   0.77248863   -7.3178646    744.40263  0.020134227  0.019505445           23 
 3082000   0.77090876   -7.2917256     747.2657  0.020205108  0.019499107           19 
 3083000   0.75173664   -7.3098914    743.77765  0.020104272  0.019492771           24 
 3084000   0.76463602   -7.3173647    745.68957  0.020149416  0.019486426           41 
 3085000   0.76316161   -7.2962379    745.49954  0.020137751  0.019480099           14 
 3086000   0.76026503   -7.3139685    747.34299  0.020181005  0.019473779           19 
 3087000   0.77141365   -7.3056777    746.76057  0.020158745  0.019467426           22 
 3088000   0.76660406   -7.3338809    745.80221  0.020126355  0.019461096           16 
 3089000   0.76873562   -7.3170193    744.54987  0.020086055  0.019454764           15 
 3090000   0.74977105   -7.3501084    743.79984  0.020059327   0.01944839            6 
 3091000   0.75355646   -7.3533617    744.28692  0.020065969  0.019442021           34 
 3092000   0.76316648   -7.3229227    745.55824  0.020093743  0.019435661           36 
 3093000   0.74146642   -7.3259893    743.38642  0.020028732  0.019429285           16 
 3094000    0.7757596   -7.3163814    744.93463  0.020063958  0.019422919           14 
 3095000   0.75316295   -7.2947624    744.41026  0.020043356  0.019416584           48 
 3096000   0.75437621   -7.3201387    746.36344  0.020089455  0.019410232           18 
 3097000   0.75797486   -7.3173503    745.48423  0.020059311  0.019403868           18 
 3098000   0.75508527    -7.333456    744.19488  0.020018154  0.019397512           20 
 3099000   0.74751037    -7.294214    747.74549  0.020107171  0.019391188           11 
 3100000   0.75840259    -7.313229    746.35514   0.02006331  0.019384853           27 
 3101000   0.74982456   -7.3230821    745.65192  0.020037942  0.019378541           25 
 3102000   0.75349782   -7.3042929    746.84021  0.020063405  0.019372198           24 
 3103000   0.74371885   -7.2816974    747.34205  0.020070417  0.019365874           22 
 3104000   0.74585911   -7.3386358    744.74548  0.019994241  0.019359556           29 
 3105000   0.76172547   -7.3413164    745.27069  0.020001897  0.019353208           22 
 3106000   0.76551386   -7.3029024    744.26508  0.019968477  0.019346883           17 
 3107000   0.74925088   -7.3022631    746.86119  0.020031681  0.019340585           61 
 3108000    0.7510227   -7.2804104    745.67457   0.01999342  0.019334264           42 
 3109000   0.74513084   -7.3235469    745.90402  0.019993139  0.019327947           37 
 3110000   0.76144958   -7.3078245    746.80594  0.020010877  0.019321675           37 
 3111000   0.75324321   -7.3123402    746.58276  0.019998467  0.019315401            8 
 3112000   0.74249241   -7.3080036    745.75411  0.019969851  0.019309111            6 
 3113000   0.74533738   -7.3018089    746.85806  0.019992988  0.019302844           12 
 3114000   0.75686355   -7.3075631    749.52333  0.020057893  0.019296597           14 
 3115000   0.76227751   -7.3103771     746.6148  0.019973644  0.019290331           10 
 3116000   0.73655267   -7.3071262    747.35854  0.019987124  0.019284066           24 
 3117000    0.7769977   -7.2922724     746.6872  0.019962763  0.019277809           11 
 3118000   0.77611379   -7.2483565    749.14011  0.020021919  0.019271581            8 
 3119000   0.75812724   -7.2967218    747.05359  0.019959752  0.019265375           13 
 3120000   0.73961792   -7.3179172    747.24556  0.019958482  0.019259126            9 
 3121000   0.74302053   -7.3016449    747.62243   0.01996215  0.019252893            6 
 3122000    0.7563206   -7.2719983    747.36195  0.019948803  0.019246703           22 
 3123000    0.7339461   -7.2825833    748.18239  0.019964307  0.019240521           13 
 3124000   0.76720643    -7.310906    747.49762  0.019939651   0.01923432           15 
 3125000    0.7496602   -7.2953881    747.16001  0.019924267  0.019228098           10 
 3126000   0.74980261   -7.3274206     747.9541  0.019939062  0.019221871            9 
 3127000   0.77099919   -7.3189882    748.98813  0.019960242  0.019215624           15 
 3128000   0.73690463   -7.3252749    749.13454  0.019957762  0.019209411           23 
 3129000   0.75657278   -7.3141372    747.35779  0.019904064  0.019203171           17 
 3130000   0.75233208   -7.3071663    747.59775  0.019904094   0.01919695           13 
 3131000   0.74855755   -7.2605858     748.3492  0.019917737  0.019190721           14 
 3132000   0.75356511   -7.3203846    746.34611  0.019858081  0.019184488           17 
 3133000   0.74069571   -7.3257733    747.01025  0.019869408  0.019178245           21 
 3134000   0.74529386   -7.3275118    746.63211  0.019853013  0.019172013           28 
 3135000   0.76397855   -7.3103916    746.91509  0.019854202  0.019165785           22 
 3136000   0.74436137    -7.326322    747.06989  0.019851985  0.019159553           12 
 3137000   0.75513479   -7.3376263    746.31905  0.019825711  0.019153313            9 
 3138000   0.74894941    -7.323096    747.83358  0.019859613  0.019147057           17 
 3139000   0.75089593   -7.3351814    747.18673  0.019836114  0.019140831           12 
 3140000   0.76282619    -7.327411    746.07917  0.019800403  0.019134598           12 
 3141000   0.75824608   -7.3228612    747.60197    0.0198345  0.019128368           16 
 3142000   0.75220203   -7.3521899    748.29927  0.019846681   0.01912216           26 
 3143000   0.75113431   -7.3094379    748.16724  0.019836866  0.019115933           23 
 3144000   0.72884872   -7.3356697    748.58341  0.019841588  0.019109735           14 
 3145000   0.74437564   -7.3217449    747.29545  0.019801151  0.019103512           35 
 3146000   0.74886106    -7.311262     747.6584  0.019804471  0.019097292           14 
 3147000   0.74372047    -7.339713     747.6934  0.019799105   0.01909105           18 
 3148000   0.76344681   -7.3281602    746.09022  0.019750376  0.019084806           16 
 3149000   0.74683901   -7.3370684    746.76896  0.019762066  0.019078578           29 
 3150000   0.73883486   -7.3439577    749.14346   0.01981861  0.019072353           24 
 3151000   0.74613165   -7.3024344    749.05804  0.019810061  0.019066162           13 
 3152000   0.75430882   -7.3177485    749.95341  0.019827448  0.019059987           16 
 3153000   0.74116056   -7.3409212    748.22357  0.019775441  0.019053782           16 
 3154000    0.7452244   -7.3474103     745.7189  0.019702993  0.019047541           38 
 3155000   0.74802071   -7.3592946    746.96479  0.019729656  0.019041301           55 
 3156000   0.75208485   -7.3467338    746.13866  0.019701591   0.01903505           31 
 3157000   0.74680825   -7.3403029    747.09193  0.019720513  0.019028824           49 
 3158000   0.74996078   -7.3510089    747.02455  0.019712491   0.01902258           51 
 3159000   0.74730249   -7.3454628     746.9418  0.019704068  0.019016369           26 
 3160000   0.73696999   -7.3298469    747.54537  0.019713749  0.019010148           21 
 3161000   0.75134024   -7.3265311    749.48433  0.019758629  0.019003944           16 
 3162000   0.74719728   -7.3442202    745.62688  0.019650719   0.01899774           20 
 3163000   0.75096243   -7.3449399    748.07015  0.019708877  0.018991501           36 
 3164000    0.7540903   -7.3418374    748.98398  0.019726717   0.01898527           26 
 3165000   0.75498271   -7.3524751    747.54881  0.019682697  0.018979053           26 
 3166000   0.74758233   -7.3339803    746.90947  0.019659651  0.018972843           15 
 3167000   0.75693505   -7.3517963    747.40691  0.019666533  0.018966673           34 
 3168000   0.74932137   -7.3572961    746.67025  0.019640947  0.018960494           23 
 3169000   0.73398612   -7.3533033    746.43109   0.01962846  0.018954314           32 
 3170000   0.74899168    -7.340065    748.39587  0.019673919  0.018948129           27 
 3171000   0.73012465   -7.3406158    748.37356  0.019667128   0.01894196           22 
 3172000   0.73476646   -7.3686887    746.60453  0.019614453  0.018935772           41 
 3173000   0.75957405   -7.3594731    749.31922  0.019679568  0.018929614           22 
 3174000   0.74307772   -7.3392033    749.93344  0.019689494  0.018923462           37 
 3175000   0.76143792   -7.3426367    748.76578  0.019652645  0.018917297           23 
 3176000   0.74439316   -7.3105713    748.56443  0.019641174  0.018911163           32 
 3177000    0.7411483     -7.31546    747.97712  0.019619587  0.018904991           22 
 3178000   0.72574418   -7.3188077    747.95857  0.019612927  0.018898837           14 
 3179000   0.74622214   -7.3343314    748.89134  0.019631208  0.018892711           20 
 3180000   0.75096025   -7.3147009    748.04641  0.019602893  0.018886603           24 
 3181000   0.73951333   -7.3285783    750.67154  0.019665502  0.018880463           19 
 3182000   0.74016188   -7.3320222    748.22196   0.01959517  0.018874338           31 
 3183000   0.73270821    -7.324759    748.34176   0.01959215  0.018868193           24 
 3184000   0.73268358   -7.3328951    749.03262  0.019604078  0.018862029           20 
 3185000   0.73725114   -7.3595668    748.08471  0.019573122  0.018855881           38 
 3186000   0.74647708   -7.3732254    747.92358  0.019562764  0.018849723           35 
 3187000   0.74675619    -7.367067    747.64877   0.01954944  0.018843558           40 
 3188000   0.75901035   -7.3796791    746.54078  0.019514345   0.01883738           31 
 3189000   0.73228694   -7.3539613    748.54821  0.019560683  0.018831189           21 
 3190000    0.7449738   -7.3863203    745.84549  0.019483947  0.018825004           34 
 3191000   0.75128763   -7.3630524    747.83906  0.019529903   0.01881881           30 
 3192000   0.75376516   -7.3847729    748.06955  0.019529802  0.018812632           19 
 3193000   0.73638364   -7.3710934    748.38246  0.019531852  0.018806469           18 
 3194000   0.73895584   -7.3705615    746.35139  0.019472746  0.018800319           25 
 3195000   0.73586205    -7.375923    747.18473  0.019488386  0.018794129           23 
 3196000   0.75728274   -7.3510028    747.40661  0.019488074   0.01878795           35 
 3197000   0.74303837   -7.3627213    747.40917  0.019482045  0.018781802           38 
 3198000   0.74620576   -7.3762172    745.96387  0.019438291  0.018775605           28 
 3199000    0.7406276   -7.3478432    747.58824  0.019474529  0.018769415           43 
 3200000   0.74287085   -7.3873091    748.42062   0.01949012  0.018763247           22 
 3201000   0.74873124   -7.3947836    747.21581  0.019452666  0.018757047           26 
 3202000   0.74095849   -7.3668903    748.59491  0.019482483  0.018750841           18 
 3203000   0.73173566   -7.3919358    745.89809  0.019406236  0.018744638           18 
 3204000   0.75441964   -7.3736209    748.00146  0.019454886  0.018738437           32 
 3205000   0.73553644    -7.380901    747.43996  0.019434216  0.018732244           20 
 3206000   0.75323716   -7.3908121     748.0959  0.019445204  0.018726042           23 
 3207000    0.7330497   -7.3775247    748.31012  0.019444707  0.018719838          116 
 3208000   0.73380076   -7.3807282    746.81383  0.019399777  0.018713656           25 
 3209000   0.74907797   -7.3699334     747.4087   0.01940918  0.018707472           19 
 3210000   0.74162633   -7.3820818    748.93104  0.019442654  0.018701312           13 
 3211000   0.73902256   -7.3546455     750.5253  0.019477974  0.018695187           11 
 3212000    0.7388755   -7.3643412    747.81655  0.019401633  0.018689044           37 
 3213000   0.75253295   -7.3473445    747.53712  0.019388347  0.018682884           19 
 3214000    0.7272763   -7.3571446    749.00935  0.019420487  0.018676736           23 
 3215000   0.74332698    -7.356123    749.14572  0.019417981  0.018670594           14 
 3216000   0.74296449   -7.3702663    749.39991   0.01941853  0.018664442           35 
 3217000   0.74038131   -7.3723741    748.53872  0.019390185  0.018658293           17 
 3218000   0.73986879   -7.3602624    748.83019  0.019391708  0.018652157           19 
 3219000   0.75705088   -7.3526845    748.61432  0.019380095  0.018646038           16 
 3220000   0.72708906   -7.3586053    748.78309  0.019378444  0.018639915           14 
 3221000   0.73096385   -7.3862288    749.36822  0.019387567  0.018633782           17 
 3222000   0.72736591   -7.3790146    747.51008  0.019333491  0.018627622           10 
 3223000   0.74147029   -7.3540558    750.52321  0.019405399  0.018621499           13 
 3224000   0.72657437   -7.3675678    747.10056  0.019310912  0.018615378           17 
 3225000   0.73262907   -7.3694969    748.66193   0.01934527   0.01860925           14 
 3226000   0.73871162   -7.3665041    747.25544  0.019302941   0.01860312           19 
 3227000   0.72715743   -7.3946499    747.74831  0.019309687  0.018596948           27 
 3228000   0.72102152   -7.3528125    748.71746  0.019328724  0.018590773           13 
 3229000   0.72746151   -7.3822671    748.44625  0.019315739  0.018584615           10 
 3230000    0.7344228   -7.3601511     747.9919  0.019298037  0.018578463           17 
 3231000   0.73154847    -7.359747    748.18252   0.01929698  0.018572311           20 
 3232000   0.75666786   -7.3711597    747.83615  0.019282079  0.018566163           11 
 3233000   0.73302095   -7.3774625    748.06378  0.019281982  0.018559987           30 
 3234000   0.74362157   -7.3680211     748.0761  0.019276337  0.018553846           15 
 3235000   0.74940231   -7.3575287    748.64248  0.019284969  0.018547696           22 
 3236000   0.74245061   -7.3862017    748.05938  0.019263993   0.01854157           22 
 3237000   0.73214627   -7.3715839    748.48774   0.01926907  0.018535455           14 
 3238000   0.73763216   -7.3586352    749.71231  0.019294634  0.018529334           29 
 3239000     0.745166   -7.3539621    749.03523  0.019271257  0.018523233           14 
 3240000   0.71858257   -7.3834729    747.85741  0.019235016  0.018517117           16 
 3241000   0.74983268   -7.4043054    745.83886  0.019177179   0.01851095           49 
 3242000   0.74214359   -7.3622758    750.59806  0.019293596   0.01850483           39 
 3243000   0.72536726   -7.3677065    749.06648  0.019248291  0.018498738           12 
 3244000   0.74188684   -7.3877269    748.24013  0.019221129  0.018492636            8 
 3245000   0.74391413   -7.3654122     749.2322  0.019240683  0.018486512           14 
 3246000    0.7124089   -7.3931102    749.94192  0.019252976  0.018480425           22 
 3247000   0.73787205   -7.4111694    747.87218  0.019193927  0.018474317           16 
 3248000   0.72639206   -7.3703795    748.14635  0.019195052  0.018468226           27 
 3249000   0.73030944   -7.3798656    748.75472  0.019204748  0.018462123           28 
 3250000   0.73177782   -7.3893963    748.31237  0.019187497  0.018456032           36 
 3251000   0.73381312   -7.3678417    750.77108  0.019244619  0.018449945           27 
 3252000   0.72562514   -7.3671284    750.61773  0.019234772  0.018443874           14 
 3253000    0.7377991   -7.3551789    750.16996  0.019217388  0.018437795           30 
 3254000   0.73224551   -7.3754153    750.27969  0.019214292  0.018431732           17 
 3255000   0.73110948   -7.3797226    748.32524  0.019158352  0.018425628           14 
 3256000   0.72631259   -7.3600832    749.49747   0.01918247  0.018419545           14 
 3257000   0.73695247   -7.3329985    751.92718  0.019238747  0.018413467           28 
 3258000   0.72893629   -7.3513971     749.7739  0.019177765  0.018407409           12 
 3259000   0.72937585   -7.3752607    750.36307  0.019186946  0.018401363           14 
 3260000   0.72433176   -7.3629456    748.67403  0.019137884  0.018395311           19 
 3261000   0.73276044   -7.3623176    749.80014  0.019160793  0.018389249           12 
 3262000   0.73701383    -7.354585    750.82974  0.019181222  0.018383181           22 
 3263000   0.72462135   -7.3590484    748.16828  0.019107372  0.018377133           18 
 3264000   0.72939932   -7.3842771    750.17435  0.019152736  0.018371065           10 
 3265000   0.75365699   -7.3489993    749.50908   0.01912989  0.018364954           31 
 3266000   0.72049319   -7.3936583    748.70339  0.019103475  0.018358857           27 
 3267000   0.72061132   -7.3602437    749.70991  0.019123301  0.018352781           28 
 3268000    0.7392918   -7.3727811    747.52018  0.019061612  0.018346694           46 
 3269000   0.72498204    -7.376728    748.60438   0.01908342  0.018340631           16 
 3270000   0.72519336   -7.3792001    747.97246   0.01906148  0.018334559           21 
 3271000   0.72311451   -7.3592484    750.12844  0.019110579   0.01832849           10 
 3272000   0.73418342   -7.3913081       749.55  0.019090006  0.018322436           42 
 3273000   0.73631476   -7.3554138    749.01443  0.019070538  0.018316365           38 
 3274000   0.73077582   -7.3573337    747.98483  0.019038506  0.018310324           35 
 3275000   0.72554461   -7.3946135     747.9902   0.01903283  0.018304259           32 
 3276000   0.73177061   -7.3963627    749.26271  0.019059389  0.018298212           38 
 3277000   0.73487242   -7.3690804    749.70796  0.019064896  0.018292139           28 
 3278000   0.73998271   -7.3607503    750.41112  0.019076955  0.018286074           20 
 3279000   0.72285729   -7.3658975    750.63213  0.019076754  0.018280012           25 
 3280000   0.72149668   -7.3705003    750.93959   0.01907875  0.018273974           22 
 3281000   0.70674391   -7.3819244    748.27225  0.019005188  0.018267911           74 
 3282000    0.7163139   -7.3837284    749.32492  0.019026125  0.018261831           51 
 3283000   0.72981172   -7.3731916    749.92192  0.019035484  0.018255758           48 
 3284000   0.72773178    -7.390128    750.14877  0.019035444  0.018249708           61 
 3285000   0.72287743    -7.398552    749.61993  0.019016234  0.018243643           53 
 3286000   0.73397717   -7.3962955    747.43278   0.01895498  0.018237574           55 
 3287000   0.72415034   -7.3892648    747.71532  0.018956377  0.018231492           45 
 3288000   0.73986248   -7.4155833     747.2801  0.018939581  0.018225399           51 
 3289000   0.73215046   -7.3996416     749.4113   0.01898782  0.018219316           34 
 3290000   0.72630956   -7.4232602    747.35411  0.018929942  0.018213202           67 
 3291000   0.72421893   -7.4361625    747.82329   0.01893607  0.018207087           32 
 3292000   0.72541539   -7.4002415     748.6747  0.018951871  0.018200969           39 
 3293000   0.73747999   -7.4133712    747.94147   0.01892756  0.018194889           28 
 3294000   0.72909169   -7.3718128    749.78083  0.018968347  0.018188817           53 
 3295000   0.72268815   -7.4153644      749.462  0.018954527  0.018182761           51 
 3296000   0.71877446   -7.4316771    746.96346  0.018885605  0.018176669           81 
 3297000   0.72531055   -7.4148808    747.11733  0.018883766  0.018170568           41 
 3298000   0.73966177   -7.4283141    747.36399  0.018884273  0.018164494           82 
 3299000     0.717268   -7.4044997    749.21182  0.018925225  0.018158425           52 
 3300000   0.71014581   -7.3878601    750.33257  0.018947792  0.018152365           55 
 3301000   0.71547055   -7.4245115    748.37969  0.018892752  0.018146289           47 
 3302000   0.72106509   -7.4077786    748.26433  0.018884119  0.018140226           52 
 3303000   0.72972424   -7.4064361    749.05936   0.01889846  0.018134155           42 
 3304000   0.72057706   -7.4106005    748.79566  0.018886089  0.018128067           35 
 3305000   0.73245995   -7.4242833    748.13671   0.01886376  0.018121983           69 
 3306000   0.70699845     -7.40497    749.18085  0.018884373  0.018115918           44 
 3307000   0.72657698   -7.4169773    748.68837  0.018866253  0.018109859           30 
 3308000   0.73123644   -7.4168147    747.47962  0.018830099  0.018103778           51 
 3309000   0.72252728   -7.4512846    748.51745  0.018850545  0.018097695           55 
 3310000   0.72380013   -7.4230523    747.57835  0.018821207  0.018091581           30 
 3311000   0.74434282   -7.4496226    747.64848  0.018817288  0.018085474           67 
 3312000   0.70933929   -7.4215734    749.03814  0.018846572  0.018079374           15 
 3313000    0.7250805    -7.427647    749.28641  0.018847128  0.018073289           37 
 3314000    0.7109477   -7.4175549    748.30223  0.018816692  0.018067198           32 
 3315000   0.72029506   -7.4041895    747.88502  0.018800528  0.018061142           68 
 3316000   0.70640889   -7.3853739    748.72589   0.01881599  0.018055105           46 
 3317000   0.71174193   -7.4147851    748.48442  0.018804251  0.018049039           24 
 3318000    0.7135787   -7.4253692    747.24443  0.018767441  0.018042954           45 
 3319000    0.7310865   -7.4187613    748.71878  0.018798804  0.018036876           21 
 3320000   0.71611457   -7.4178447    748.66742  0.018791853  0.018030818           23 
 3321000   0.71745302   -7.4414505    745.86667  0.018715916  0.018024756           29 
 3322000   0.73192888   -7.4093734    748.32968  0.018772067  0.018018699           49 
 3323000   0.71807005   -7.4170061    750.27597  0.018815227  0.018012653           53 
 3324000    0.7097558   -7.4132771    747.27309  0.018734283  0.018006593           44 
 3325000   0.72594315   -7.4000954    749.29769  0.018779391  0.018000514           35 
 3326000   0.72116342    -7.426343    748.15123   0.01874502  0.017994462           31 
 3327000   0.73091865   -7.4163964    748.75505   0.01875451  0.017988409           44 
 3328000   0.73214513   -7.4293889    747.55534  0.018718834   0.01798235           30 
 3329000   0.74246115    -7.413238    749.55746  0.018763329  0.017976294           30 
 3330000    0.7222807   -7.4215316    748.47873  0.018730699  0.017970186           51 
 3331000   0.72111683   -7.3952333    749.96591  0.018762281  0.017964114           23 
 3332000   0.74238089   -7.4391674    749.01622  0.018732899  0.017958043           22 
 3333000   0.70601818   -7.4418368    748.15802  0.018705821  0.017951967           24 
 3334000   0.72320742   -7.3973333    749.34388  0.018729851  0.017945913           35 
 3335000   0.70099027   -7.4091269    748.99683  0.018715563  0.017939858           57 
 3336000   0.72125372    -7.423902     748.3632  0.018694125  0.017933814           61 
 3337000   0.70787795   -7.4428111    749.29206  0.018711719  0.017927762           43 
 3338000   0.72051235   -7.4072433     749.1222  0.018701872  0.017921706           54 
 3339000   0.70701956    -7.397657    750.67695  0.018735074  0.017915685           95 
 3340000   0.70962725   -7.4228156    749.79814  0.018707538  0.017909676           45 
 3341000   0.72230542   -7.4162448    747.62048  0.018647623  0.017903648           50 
 3342000   0.72363808   -7.4466427    746.80725  0.018621765  0.017897629           76 
 3343000   0.71257288   -7.3921687     750.6092  0.018710968   0.01789163           18 
 3344000   0.71884496   -7.4021935    748.58994  0.018655052  0.017885637           43 
 3345000   0.71089576   -7.4254945    748.99852  0.018659654  0.017879631           85 
 3346000   0.71281766   -7.4369124    746.54379  0.018592942  0.017873608           66 
 3347000   0.72312377   -7.4267327    748.22272  0.018629188  0.017867569           63 
 3348000   0.71163507   -7.4352102    748.67647  0.018634918  0.017861521           40 
 3349000   0.72356516   -7.4292548    747.48358  0.018599671  0.017855499           96 
 3350000   0.70751787   -7.4204981    748.39743  0.018616852   0.01784949           38 
 3351000    0.7124088    -7.442886    746.08606  0.018553816  0.017843459           39 
 3352000   0.70997973   -7.4184222    750.43864   0.01865649  0.017837444           77 
 3353000    0.7144851   -7.3845112    750.37218  0.018649274   0.01783142           94 
 3354000   0.70458511    -7.443979    749.39979  0.018619554  0.017825419          139 
 3355000   0.72183655   -7.4508234    746.28484  0.018536633   0.01781941          114 
 3356000   0.70700657   -7.4310016    748.22842  0.018579371  0.017813407           75 
 3357000   0.70434354   -7.4308586    746.50125  0.018530961  0.017807401           81 
 3358000    0.7157191    -7.424856    747.48955  0.018549969  0.017801399           51 
 3359000   0.72835364   -7.4481056     749.4012  0.018591873  0.017795418           76 
 3360000   0.72849528   -7.4146075    749.52592  0.018589432  0.017789434           94 
 3361000   0.72610681   -7.4342544    746.86836  0.018518009   0.01778343          107 
 3362000   0.71571282   -7.4468395    747.71585  0.018533508   0.01777742          118 
 3363000   0.71051755   -7.4518173    747.72729  0.018528281  0.017771409          102 
 3364000   0.70064116   -7.4218059    748.40179  0.018539482  0.017765404          128 
 3365000    0.7024256   -7.4470978    747.56941  0.018513358  0.017759408          175 
 3366000   0.70859469   -7.4525483    748.94195  0.018541839  0.017753402           62 
 3367000    0.7121461   -7.4033782    750.74444  0.018580943  0.017747425          142 
 3368000   0.71987692   -7.4662888    750.09615  0.018559386  0.017741434          136 
 3369000   0.70863303   -7.4245596    748.93236  0.018525091  0.017735458          119 
 3370000   0.70588318   -7.4254194    748.15141  0.018500282  0.017729476           67 
 3371000   0.70618674   -7.4196434    748.93809  0.018514241  0.017723495          102 
 3372000   0.71422576   -7.4392102    748.29965  0.018492973  0.017717521           69 
 3373000   0.70396624   -7.4686701     748.9111  0.018502597  0.017711531          103 
 3374000   0.72316799   -7.4528127    748.81109  0.018494642  0.017705553           80 
 3375000   0.72873765   -7.4230727     748.6795  0.018485914  0.017699588           94 
 3376000   0.70830377   -7.4187424    748.74952  0.018482166  0.017693616           65 
 3377000   0.69956398   -7.4579283    749.42931  0.018493468  0.017687642           59 
 3378000   0.70342224   -7.4641338    748.49065  0.018464837  0.017681671           92 
 3379000   0.70649756   -7.4244794     749.7339  0.018490034  0.017675706           33 
 3380000   0.70941056   -7.4496664    747.28582  0.018424207  0.017669714           68 
 3381000   0.70380416   -7.4702254    748.91289  0.018458861  0.017663721           80 
 3382000    0.7183546   -7.4324341      749.241  0.018461487  0.017657742           74 
 3383000   0.71269211   -7.4482396    747.53356  0.018413971  0.017651767           52 
 3384000   0.69586872   -7.4568354    748.94662  0.018443327  0.017645778           31 
 3385000   0.70946836   -7.4388981    749.70962  0.018456662  0.017639799           37 
 3386000   0.71169547   -7.4669965    749.06173  0.018435266  0.017633837           27 
 3387000   0.71048007    -7.448309    749.67829  0.018444993   0.01762786           37 
 3388000   0.71426196   -7.4434322    748.09724   0.01840066  0.017621853           50 
 3389000   0.71629943   -7.4693685    747.91749  0.018390811  0.017615863           31 
 3390000   0.70468357   -7.4440083    747.45826  0.018374097  0.017609867           18 
 3391000   0.72693642   -7.4658172    747.53393  0.018370538  0.017603854           20 
 3392000   0.71908916   -7.4617201      749.069  0.018402835  0.017597862           59 
 3393000   0.71000334   -7.4285259    748.15234  0.018374898   0.01759187           32 
 3394000   0.71619266   -7.4526113    748.01802  0.018366186  0.017585894           36 
 3395000   0.68858355   -7.4489539    749.02177  0.018385414   0.01757991           39 
 3396000   0.71179667   -7.4617867    746.69989  0.018323024  0.017573911           24 
 3397000   0.70205246   -7.4293925    747.61011   0.01833996  0.017567908           37 
 3398000   0.69407233   -7.4669795     747.3776   0.01832886   0.01756191           20 
 3399000   0.69933997   -7.4319549    748.98378  0.018362846  0.017555903           40 
 3400000    0.7139041   -7.4748121    746.09138  0.018286554  0.017549892           38 
 3401000    0.7148999   -7.4840077    746.43363  0.018289563  0.017543876           58 
 3402000   0.71293494   -7.4645076     747.9496  0.018321321  0.017537864           45 
 3403000   0.70821656   -7.4503169    746.86927  0.018289481   0.01753184           97 
 3404000   0.70611365     -7.49342    747.41914   0.01829757  0.017525826           42 
 3405000   0.70502951   -7.4746362    745.85269  0.018253859  0.017519798           75 
 3406000    0.7136591   -7.4627363    747.94218  0.018299623  0.017513768           18 
 3407000   0.70119219   -7.4811257    748.16393  0.018299675  0.017507768           21 
 3408000   0.71231834   -7.4526745    747.52215  0.018278613  0.017501774           41 
 3409000   0.70440561   -7.4733971     748.2062  0.018289973  0.017495786           45 
 3410000    0.7117183   -7.4850866    747.25398  0.018261339  0.017489806           41 
 3411000   0.68694138   -7.4869634    748.55592  0.018287793  0.017483803           35 
 3412000   0.71126453   -7.4683245    747.77949  0.018263469  0.017477806           27 
 3413000   0.71338787   -7.4632223    748.84682  0.018284179  0.017471794           40 
 3414000   0.71166346   -7.4871723    747.15124  0.018237435  0.017465817           25 
 3415000   0.70537166   -7.4794192    747.95737  0.018251766  0.017459855           17 
 3416000   0.70645635   -7.4768671    748.23206  0.018253124  0.017453881           26 
 3417000   0.70590096   -7.4793166    747.47426  0.018229301  0.017447912           28 
 3418000   0.70907162   -7.4800945    748.39374  0.018246385   0.01744195           16 
 3419000   0.70362438   -7.4795895    745.87432  0.018179641  0.017435975           18 
 3420000   0.69710712    -7.470423    748.99446  0.018250352  0.017430004           43 
 3421000   0.69668888    -7.487027    747.96276  0.018219886  0.017424022           16 
 3422000   0.71287495   -7.4785235    747.76145  0.018209659  0.017418055           59 
 3423000   0.71673617   -7.4709921     748.2991  0.018217429  0.017412089           28 
 3424000   0.69699517   -7.4553595    747.65202  0.018196359  0.017406141           56 
 3425000   0.69372597   -7.4768465    748.92254   0.01822196  0.017400198           30 
 3426000   0.71387681   -7.4635487     747.4429   0.01818065  0.017394253           41 
 3427000   0.70466879   -7.4930875    747.17066  0.018168725  0.017388301           48 
 3428000   0.68679173    -7.486308    746.76365  0.018153531  0.017382345           22 
 3429000   0.69464143   -7.5119819    747.48058   0.01816566  0.017376386           24 
 3430000   0.70148846   -7.4843008      747.894  0.018170408  0.017370448           25 
 3431000   0.72356074   -7.4610587    748.76654  0.018186305  0.017364526           25 
 3432000    0.6855616   -7.4927133    747.46343  0.018149364  0.017358625           66 
 3433000   0.70224687   -7.4757943    748.95081  0.018180183  0.017352701           35 
 3434000   0.69788544   -7.4822668    748.42715  0.018162181  0.017346788           42 
 3435000   0.70494074   -7.4844625    748.55279  0.018159942  0.017340867           28 
 3436000    0.6915055   -7.4908534    748.03977  0.018142214  0.017334921           49 
 3437000   0.70071492   -7.4917281    746.68327  0.018104046  0.017328955           87 
 3438000   0.69233261   -7.4702977    747.01116  0.018106728  0.017323015           29 
 3439000   0.70522319   -7.4780451    748.28885  0.018132423  0.017317079           89 
 3440000   0.69393069   -7.4654101    751.00714  0.018193002  0.017311157           77 
 3441000     0.700146   -7.4737494    747.67901  0.018107116  0.017305273           32 
 3442000   0.72263008    -7.480457    748.12658  0.018112691  0.017299361           39 
 3443000   0.69567103   -7.4965979    747.54633  0.018093386  0.017293458           39 
 3444000   0.69710699   -7.4813311    749.66579  0.018139416  0.017287562           51 
 3445000   0.69547697   -7.5043856    748.01894  0.018094314   0.01728165           49 
 3446000   0.71488771   -7.4720893    749.30153  0.018120079  0.017275752           53 
 3447000   0.70280419   -7.4907128    748.30188  0.018090656  0.017269857           27 
 3448000   0.69422627   -7.4786648    749.07617  0.018104122  0.017263959           42 
 3449000   0.68661877   -7.4601839    749.41336   0.01810702  0.017258066           38 
 3450000   0.69703642   -7.4690945    748.50012  0.018079713  0.017252175           32 
 3451000   0.70570244    -7.487707     748.4619  0.018073551  0.017246297           51 
 3452000   0.69353027   -7.4869485    747.01117  0.018033294  0.017240416           28 
 3453000   0.69514166   -7.4662906    749.10085  0.018078503  0.017234541           61 
 3454000   0.69779357   -7.4650515    749.45005  0.018081694  0.017228665           36 
 3455000   0.68553935   -7.4883863    748.25345  0.018047599   0.01722278           28 
 3456000   0.70206974    -7.471732    749.78559  0.018079321  0.017216903           41 
 3457000   0.70981723    -7.460094    749.12564  0.018058182  0.017211046           38 
 3458000   0.72721512   -7.4833848    746.02551  0.017978251  0.017205179           56 
 3459000   0.69308592   -7.4886418    746.57745  0.017986351  0.017199303           60 
 3460000    0.7020111   -7.4890447    748.00337  0.018015496  0.017193423           33 
 3461000   0.70414092   -7.4886819    747.72925   0.01800369  0.017187541           24 
 3462000   0.70132043   -7.4731581    749.50543  0.018041244  0.017181656           43 
 3463000   0.69196044   -7.4999767    747.09413  0.017978009  0.017175755           25 
 3464000   0.69853586   -7.4658746    748.95978  0.018017701  0.017169874           20 
 3465000   0.70111247   -7.4939254    748.58054   0.01800338  0.017164021           52 
 3466000   0.68677685    -7.493605    747.19889  0.017964967  0.017158157           46 
 3467000   0.70406334   -7.4856841    747.22898  0.017960508  0.017152282           69 
 3468000   0.67988978   -7.4816636    747.75786  0.017968038  0.017146419           29 
 3469000   0.70269449   -7.4694852    749.76856   0.01801116  0.017140571           18 
 3470000    0.6982123   -7.4695716    749.25484  0.017993632  0.017134735           41 
 3471000   0.69832221   -7.4837807    747.89042   0.01795569  0.017128866           33 
 3472000   0.67319858    -7.491758    749.17718  0.017981403  0.017122989           47 
 3473000   0.70451373   -7.5057726    746.71158  0.017917065  0.017117112           68 
 3474000   0.68318514   -7.5144063     747.2204  0.017924112  0.017111237           22 
 3475000   0.70078453    -7.486537    747.30773  0.017921049  0.017105347           23 
 3476000   0.70673945   -7.4879972    747.83779  0.017928601  0.017099487           30 
 3477000   0.68288295   -7.4992943    746.90151  0.017901004  0.017093603           22 
 3478000   0.68269469   -7.4876859    749.29531  0.017953213  0.017087751           31 
 3479000    0.7038305   -7.4950214     747.9158  0.017915009  0.017081893           37 
 3480000   0.69927513   -7.5054429     747.6955  0.017904586  0.017076012           61 
 3481000    0.6882544   -7.5231528    746.13374  0.017862055   0.01707013           35 
 3482000   0.68941542    -7.537035    747.58993  0.017891775  0.017064248           35 
 3483000   0.70118368   -7.4849043     748.3692  0.017905283  0.017058393           34 
 3484000   0.69355006   -7.4988133    748.15935  0.017895124  0.017052527           28 
 3485000   0.69652427   -7.5082094     748.8709  0.017907004   0.01704667           29 
 3486000    0.6939874   -7.5200032    746.08345  0.017835233  0.017040796           22 
 3487000   0.69584811   -7.5115907    747.81593  0.017871521  0.017034931           53 
 3488000    0.6907962   -7.5180583    746.51162  0.017835236  0.017029057           41 
 3489000   0.69863235   -7.5443775    747.33645  0.017849825  0.017023188           47 
 3490000   0.68453406   -7.5152862    749.00757  0.017884612  0.017017332           26 
 3491000     0.684906   -7.5008021    746.77196  0.017826123  0.017011468           60 
 3492000   0.69223303   -7.5261795    746.93717  0.017824961  0.017005597           51 
 3493000   0.68875706   -7.5421672    745.59678   0.01778788  0.016999735           69 
 3494000   0.69660042   -7.5092292    748.08631  0.017842165  0.016993871           35 
 3495000   0.68167353   -7.5070204    747.18577  0.017815588  0.016988017           46 
 3496000    0.6946474   -7.5071968    748.06197  0.017831378  0.016982157           54 
 3497000   0.68595436   -7.5204412    746.63157  0.017792193  0.016976312           23 
 3498000   0.68947408   -7.4947137    747.96097  0.017818777  0.016970461           79 
 3499000   0.67932538   -7.5124972    747.84698  0.017810969  0.016964606           63 
 3500000   0.70544617   -7.5252226    747.05331  0.017786983  0.016958758           80 
 3501000   0.69878043    -7.493126    746.77421   0.01777526  0.016952902           35 
 3502000   0.67925429   -7.5079969    746.72903  0.017769109  0.016947058           60 
 3503000   0.68700462   -7.5097357     747.4469  0.017781114  0.016941207           45 
 3504000   0.68086846   -7.5343988    748.69561  0.017805736  0.016935365           37 
 3505000   0.67617596   -7.5193569    746.89129  0.017757758  0.016929527           49 
 3506000    0.6834221   -7.5197295    748.11352  0.017781744  0.016923676           48 
 3507000    0.6843564   -7.5325119     747.4011  0.017759745  0.016917816           48 
 3508000   0.70570619    -7.483673    747.93603  0.017767389  0.016911973           40 
 3509000   0.69256154   -7.5366443    747.39307  0.017749432  0.016906144           44 
 3510000   0.68784833   -7.5277767    746.27618  0.017717858  0.016900311           44 
 3511000   0.69031866   -7.5459587    746.85429  0.017726533  0.016894449           57 
 3512000   0.68701402    -7.520911     747.3259  0.017732676  0.016888624           24 
 3513000   0.68423905   -7.5409187     745.8624  0.017692912  0.016882793           61 
 3514000   0.67280219   -7.5227081    745.97265  0.017690492   0.01687697           27 
 3515000   0.67285634    -7.522091    745.20611  0.017667286  0.016871156           28 
 3516000   0.68057417   -7.5195265     747.6093  0.017719219  0.016865309           29 
 3517000   0.65922717   -7.4917619     748.7691  0.017741662  0.016859483           24 
 3518000   0.68597271   -7.5040037    747.48991  0.017706318  0.016853641           60 
 3519000   0.69264165   -7.4976768    748.34761  0.017721597  0.016847834           24 
 3520000    0.6861982    -7.542455    745.86622  0.017657818  0.016842014           30 
 3521000   0.69055281   -7.4894196    749.65374  0.017742444  0.016836214           42 
 3522000   0.68691024   -7.5344378    746.96091  0.017673692  0.016830401           71 
 3523000   0.68793066   -7.5194236    749.04372  0.017717942  0.016824583           40 
 3524000    0.6768081   -7.5066689    748.00173  0.017688274  0.016818782           61 
 3525000   0.68831583   -7.5135621    748.05173  0.017684438  0.016812979           88 
 3526000   0.67873047    -7.510722    746.85342  0.017651102  0.016807163           88 
 3527000    0.6816256   -7.5287988    747.76281  0.017667584  0.016801332           60 
 3528000   0.68798659   -7.5453386    745.06383  0.017598824   0.01679553           59 
 3529000   0.69770125   -7.5536315     746.7084  0.017632672  0.016789726           70 
 3530000   0.69342968   -7.5400129    745.96144  0.017610043  0.016783918           66 
 3531000   0.67673304   -7.5309217    748.22308  0.017658432  0.016778126           40 
 3532000   0.67498401   -7.5216699    747.57821  0.017638218  0.016772329          110 
 3533000   0.67035931   -7.5277688    747.05815  0.017620958  0.016766527           76 
 3534000   0.68968378   -7.5218942    745.71701  0.017584348  0.016760731           78 
 3535000   0.69153684   -7.5265136    746.93587  0.017608106  0.016754934           34 
 3536000   0.66580182   -7.5235813    746.83868  0.017600836  0.016749157           73 
 3537000   0.68806006   -7.5293521     747.2191  0.017604823  0.016743379           80 
 3538000   0.68906627   -7.5326326    748.57695   0.01763183   0.01673761           91 
 3539000    0.6962774   -7.5270529    747.45628  0.017600459  0.016731838           82 
 3540000    0.6746721   -7.5109903    747.77586   0.01760301  0.016726066           84 
 3541000   0.69992915   -7.5156986    747.07184   0.01758147  0.016720295           72 
 3542000   0.69085894   -7.5407061    747.11005  0.017577406  0.016714511           86 
 3543000   0.66672368   -7.5414162    747.07842  0.017571701  0.016708739          100 
 3544000   0.68988411   -7.5467796    746.95327  0.017563799  0.016702963           96 
 3545000   0.68431614   -7.5505627     746.8108  0.017555496  0.016697192           68 
 3546000   0.68159504   -7.5305041    747.77026  0.017573093  0.016691436           77 
 3547000   0.69309593    -7.534297    746.88699  0.017547387  0.016685684           84 
 3548000   0.68767369   -7.5169148    748.35475  0.017576915  0.016679935           82 
 3549000   0.67530024    -7.505638    747.50375  0.017551981    0.0166742           32 
 3550000   0.68077349   -7.5342551     747.3429  0.017543261   0.01666844           42 
 3551000   0.68523298   -7.4963539     748.1288  0.017556763  0.016662691           46 
 3552000   0.68620794   -7.5042013    746.66777  0.017517543  0.016656939           50 
 3553000   0.68673392   -7.5341547    748.07515  0.017545622    0.0166512           29 
 3554000   0.68301679    -7.532833    748.78056  0.017557226  0.016645468           41 
 3555000   0.68409347   -7.5163529    745.40788  0.017473227  0.016639729           29 
 3556000   0.68535154   -7.5295646    747.15324  0.017509215  0.016634001           35 
 3557000   0.66993273   -7.5111624    749.56904   0.01756089  0.016628271           44 
 3558000   0.67296559   -7.5047319    747.60715  0.017510005  0.016622538           42 
 3559000   0.69039953   -7.5256855    747.93669  0.017512801   0.01661681           67 
 3560000   0.69909736   -7.5255569    747.13909  0.017489211  0.016611089           26 
 3561000   0.67695436   -7.5262005    747.58153  0.017494653  0.016605371           34 
 3562000   0.69499345   -7.5557411    746.02719  0.017453378  0.016599664           36 
 3563000   0.69625449   -7.5061348    747.36436  0.017479754  0.016593943          107 
 3564000   0.70705296   -7.5307065    747.82107  0.017485528  0.016588217           70 
 3565000   0.68923937   -7.5447954    748.01895  0.017485249   0.01658249           48 
 3566000   0.69813289   -7.5443185    747.25536  0.017462501  0.016576753          121 
 3567000   0.69302132   -7.5554353    746.29199  0.017435099  0.016571026           82 
 3568000   0.68011916   -7.5438921    748.18546  0.017474436  0.016565314           66 
 3569000   0.68548109   -7.5669878    744.78658  0.017390179  0.016559579           63 
 3570000    0.6908922   -7.5254878    747.26593  0.017443182  0.016553843           70 
 3571000   0.68921733   -7.5452768     748.2461  0.017461171  0.016548113          105 
 3572000    0.6774675   -7.5700606     747.1726  0.017431238  0.016542389          101 
 3573000   0.67925238    -7.568581    745.74349  0.017393029  0.016536659           90 
 3574000   0.67919274   -7.5539036    748.37687  0.017449563   0.01653093           56 
 3575000    0.6735587   -7.5537087    747.06691  0.017414147  0.016525194           61 
 3576000   0.68018604   -7.5590781    745.52194  0.017373274  0.016519464           50 
 3577000   0.68258063   -7.5555177    747.80915  0.017421702  0.016513743           87 
 3578000   0.68291828   -7.5740022    747.60031  0.017411969  0.016508008          105 
 3579000    0.6605664   -7.5717239    745.95061  0.017368693  0.016502276           53 
 3580000   0.68612134   -7.5689852    747.23867  0.017393824  0.016496537           56 
 3581000   0.68909802   -7.5600124    746.58837  0.017373833  0.016490813           95 
 3582000   0.68090248   -7.5750732    746.22539  0.017360538   0.01648509          101 
 3583000   0.68392903   -7.5563827    746.94346  0.017372394  0.016479359           72 
 3584000   0.69010817   -7.5671644    745.87299  0.017342657  0.016473643           81 
 3585000   0.68321809   -7.5679301    745.75602    0.0173351  0.016467919           75 
 3586000   0.67547207   -7.5742683    745.89738  0.017333551  0.016462195           71 
 3587000   0.67599789   -7.5481408    747.07558  0.017356091  0.016456459           87 
 3588000   0.70002565    -7.539992    747.84898  0.017369216  0.016450745           50 
 3589000   0.66631965   -7.5688637    747.04089  0.017345614  0.016445039           41 
 3590000   0.66844784   -7.5562791    746.73293  0.017333633  0.016439323           48 
 3591000   0.67256196   -7.5367361    747.30553  0.017342094  0.016433613           40 
 3592000   0.68097289   -7.5558987    746.65161  0.017322096  0.016427887           62 
 3593000   0.68391018   -7.6022529    746.40069  0.017311455  0.016422146           56 
 3594000    0.6881507   -7.5573492    747.15364  0.017324097  0.016416437           53 
 3595000   0.68206811     -7.57065    746.05184  0.017293738  0.016410725           56 
 3596000   0.68187063   -7.5617637    746.30138  0.017294711  0.016405013           43 
 3597000   0.66778142   -7.5765222    746.11869  0.017285671  0.016399277           40 
 3598000     0.683828   -7.5638524    747.12192  0.017304102  0.016393557           61 
 3599000   0.67734812   -7.5938497     745.6897  0.017266132  0.016387839           54 
 3600000   0.67407837   -7.5921665    746.00351    0.0172686  0.016382119           63 
 3601000   0.69550131   -7.5834219    745.53433  0.017252947  0.016376412           67 
 3602000   0.67788162   -7.5631022    746.60497  0.017272926  0.016370711           49 
 3603000   0.68038407   -7.5649022    745.87199  0.017251179   0.01636501           41 
 3604000   0.66759424   -7.5653827    746.17825  0.017253474   0.01635932           45 
 3605000   0.67768858   -7.5610142    746.79578  0.017262963  0.016353629           60 
 3606000   0.68388392   -7.5857851    745.15248    0.0172202   0.01634795           72 
 3607000   0.65614217    -7.587068    745.90366   0.01723278  0.016342247           97 
 3608000   0.68175985   -7.5545699    748.93649  0.017298053  0.016336568           33 
 3609000   0.67584431   -7.6013334    745.65096  0.017217395  0.016330864           44 
 3610000   0.67079476   -7.5547517    747.44339  0.017254003  0.016325176           57 
 3611000   0.68094566   -7.5623901    745.68983  0.017208756  0.016319485           43 
 3612000   0.67192089   -7.5618476    748.14464  0.017260627  0.016313814           35 
 3613000   0.67714388   -7.5978642    744.74934  0.017177538  0.016308145           52 
 3614000   0.66588186   -7.5709791    747.25833  0.017230639  0.016302462           68 
 3615000   0.67292156   -7.5702392    747.72181  0.017236556   0.01629679           92 
 3616000   0.67433955    -7.547594    747.74197  0.017232254  0.016291122           46 
 3617000   0.68771606   -7.5439777     748.2513  0.017239225   0.01628548           57 
 3618000   0.64654702    -7.566241    747.06494  0.017207134  0.016279826           88 
 3619000   0.68310711   -7.5829288    746.30057  0.017184779  0.016274156           52 
 3620000   0.67092577   -7.6013497    746.11938   0.01717586  0.016268489           50 
 3621000   0.65740931   -7.5915923    746.88858  0.017188819  0.016262816           53 
 3622000   0.67143636   -7.5692608    747.88135  0.017206915  0.016257153           37 
 3623000   0.66773118   -7.5720518    746.59021  0.017172468  0.016251511           75 
 3624000   0.67444817   -7.5652731    745.39592  0.017140267  0.016245861           42 
 3625000   0.67581151   -7.5746923    746.23722  0.017154879  0.016240217           35 
 3626000   0.68234041   -7.5798586    745.47041  0.017132525  0.016234568           39 
 3627000   0.68000881   -7.5554901    748.45833  0.017196451  0.016228919           62 
 3628000   0.66481836   -7.5636178    747.29376  0.017164961  0.016223279           48 
 3629000   0.65525781   -7.5874031    746.09764  0.017132765  0.016217644           57 
 3630000   0.65752763   -7.5489771    746.67634   0.01714133  0.016212013           50 
 3631000   0.66534078   -7.5672279    746.19445   0.01712555  0.016206373           58 
 3632000   0.66607638   -7.5923571     746.5813   0.01712971   0.01620075           78 
 3633000   0.65856923   -7.5607508    746.32621  0.017119144  0.016195125           42 
 3634000   0.67101223   -7.5674007    747.45841  0.017140397    0.0161895           37 
 3635000   0.64737815   -7.5850386    747.84367  0.017144513  0.016183887           41 
 3636000   0.68811639   -7.5853149     746.4584  0.017108049  0.016178265           51 
 3637000   0.68118108   -7.5790274    746.51981  0.017104752  0.016172646           61 
 3638000   0.65979829   -7.5859391    746.86052  0.017107855  0.016167031           34 
 3639000   0.66314819   -7.5852067    746.51286  0.017095192  0.016161415           52 
 3640000   0.68770139   -7.5745348    746.50196  0.017090246  0.016155814           38 
 3641000   0.67492078   -7.5766041    745.90372   0.01707186   0.01615022           35 
 3642000   0.68014119   -7.5859383    745.43678  0.017056489  0.016144616           40 
 3643000   0.67432743   -7.5654644    746.64043   0.01707934  0.016139003           59 
 3644000   0.67079954    -7.588943    746.00567  0.017060137  0.016133385           71 
 3645000    0.6561587   -7.5794466    747.57191  0.017091264  0.016127768           34 
 3646000   0.66553082   -7.5784314    745.96914  0.017049944  0.016122161           48 
 3647000   0.67045034   -7.5895123     746.6045  0.017059787  0.016116569           90 
 3648000   0.66434933   -7.6020845    747.18281  0.017068321  0.016110974           74 
 3649000   0.66262972   -7.5878617    746.48813  0.017047779  0.016105375           32 
 3650000   0.65166526   -7.5643036    747.33335  0.017062405  0.016099783           32 
 3651000   0.64841954   -7.5848288     747.1366  0.017053241  0.016094193           40 
 3652000   0.67064624   -7.5677105    747.24473  0.017051039  0.016088593           30 
 3653000   0.66075984   -7.5775813    746.19739  0.017022479  0.016083003           59 
 3654000   0.65870264   -7.5847334    747.26174  0.017042094  0.016077392           43 
 3655000   0.66199101   -7.5957986    746.41465  0.017018118  0.016071789           69 
 3656000   0.67105549   -7.5554996    747.17017  0.017030684  0.016066208           40 
 3657000   0.67143466   -7.5970546    746.39074  0.017008266  0.016060623           68 
 3658000   0.68725856   -7.5826867    745.94814  0.016993533  0.016055022           51 
 3659000   0.66423306   -7.5784606    746.93404  0.017011343  0.016049422          100 
 3660000   0.64992068   -7.6058727    745.72787  0.016979232  0.016043815           78 
 3661000    0.6587614   -7.5870342    745.12928  0.016960969  0.016038223           90 
 3662000   0.66298151   -7.5942101    747.11327  0.017001485   0.01603263           57 
 3663000   0.66288685   -7.6193663    745.39357  0.016957721  0.016027044          128 
 3664000   0.66787972   -7.6054236    746.42614  0.016976577  0.016021438          102 
 3665000   0.67002217   -7.5956861    745.92083  0.016960455  0.016015833           74 
 3666000   0.66855927   -7.5951267    745.69867  0.016950779  0.016010242          108 
 3667000   0.66163459   -7.5629427    747.06317  0.016977165  0.016004649           45 
 3668000   0.67240139   -7.5603264    748.23764  0.016999219  0.015999072           77 
 3669000   0.65918387    -7.595616    747.14527  0.016969775  0.015993492           88 
 3670000   0.65823284   -7.5686309    745.53657  0.016928623  0.015987916           77 
 3671000    0.6696683   -7.5728811    745.94473  0.016933277  0.015982338           67 
 3672000   0.66070928   -7.5862258     747.0435  0.016953601   0.01597676           81 
 3673000   0.65901597   -7.5766086    745.40599  0.016911834  0.015971191           69 
 3674000    0.6694219   -7.5899415    746.20066  0.016925255  0.015965619          106 
 3675000   0.65800328   -7.6110007    745.93243  0.016914568  0.015960049           59 
 3676000   0.66278392   -7.6058017    745.08411  0.016890735  0.015954473          147 
 3677000   0.66972166   -7.5881462    746.76336  0.016924199  0.015948894           63 
 3678000   0.67131488   -7.6075104    744.92704  0.016877992   0.01594332           50 
 3679000    0.6722087   -7.5767846    746.72848  0.016914209  0.015937747           77 
 3680000   0.65631648   -7.5899997    746.38039   0.01690173  0.015932178          177 
 3681000   0.66262552   -7.5888549    745.86911  0.016885563  0.015926591           64 
 3682000   0.65496909   -7.5948628    745.35969  0.016869448   0.01592102          136 
 3683000   0.65507347   -7.6009755    746.03975  0.016880255  0.015915442           59 
 3684000   0.65040531   -7.5812378    746.32223  0.016882063  0.015909889           75 
 3685000   0.66392338   -7.6002768    745.43025   0.01685731  0.015904335           58 
 3686000   0.66034001   -7.6111598    745.10891  0.016845472  0.015898773           75 
 3687000   0.67336026   -7.6091659    746.83442  0.016879903  0.015893227           86 
 3688000   0.65672975   -7.5859244    747.26095  0.016884964  0.015887679          168 
 3689000   0.64338525   -7.5766316    747.21991  0.016879459  0.015882122           77 
 3690000    0.6649161   -7.5876566    746.78419  0.016865045  0.015876569          100 
 3691000    0.6572625    -7.600113    746.37668  0.016851275  0.015871019           91 
 3692000   0.66348859   -7.6226136    746.11816  0.016840876  0.015865468          118 
 3693000   0.66037292   -7.5825604    745.21066  0.016815838  0.015859916          168 
 3694000   0.66419429   -7.6059748    746.80333  0.016847215  0.015854363          203 
 3695000   0.64592425   -7.6047122    746.07598  0.016826251  0.015848813           87 
 3696000   0.66554621   -7.6176552     744.3872  0.016783622   0.01584326          207 
 3697000   0.67220084   -7.5942513    744.23326  0.016775612  0.015837721          270 
 3698000   0.66811811   -7.5659162    746.84758  0.016829989  0.015832179          123 
 3699000   0.65451499   -7.6185247    745.78716  0.016801549  0.015826639          148 
 3700000   0.64105079   -7.5930861    745.79179  0.016797112  0.015821092           89 
 3701000   0.67475774   -7.5981156    744.92888  0.016773144  0.015815551           67 
 3702000   0.65912548     -7.58677    746.11936  0.016795411  0.015810005          154 
 3703000   0.64142967   -7.6053356    746.21312  0.016792986  0.015804474          190 
 3704000   0.66119224   -7.5962685     745.4948  0.016772291  0.015798934          155 
 3705000   0.65968194   -7.5937778     745.9841   0.01677877  0.015793409          187 
 3706000   0.65271305   -7.5962939    746.16287  0.016778262  0.015787895          133 
 3707000   0.65717661   -7.5915206    745.93467  0.016768606  0.015782372          117 
 3708000   0.65560896   -7.6093233     744.6949  0.016736221  0.015776842           87 
 3709000   0.66118698   -7.5991232    746.22174  0.016766014  0.015771316          136 
 3710000   0.66435761   -7.6053552    745.78107  0.016751596  0.015765797           93 
 3711000   0.65662152   -7.5810735     746.0421  0.016752944  0.015760283           97 
 3712000   0.66467692   -7.6080204    745.69586  0.016740658  0.015754771          223 
 3713000   0.66998453   -7.5916742    746.75857      0.01676   0.01574925          122 
 3714000   0.65291066   -7.5941654     745.5846  0.016729147  0.015743738          132 
 3715000   0.66537255   -7.5967604    743.87884   0.01668638  0.015738216          242 
 3716000   0.66134844   -7.6206176    745.63594  0.016721294  0.015732702          256 
 3717000   0.67061813   -7.6181763    746.62032  0.016738865  0.015727189          123 
 3718000     0.662522   -7.6087853    746.19142  0.016724749  0.015721673          127 
 3719000   0.65303886   -7.6088122     746.3864  0.016724621  0.015716157          118 
 3720000   0.63884052     -7.59688    745.25988   0.01669489  0.015710626          144 
 3721000   0.65300184   -7.6398557    744.25258  0.016667844  0.015705109          158 
 3722000   0.65368723    -7.623866    745.09671  0.016682266  0.015699591          154 
 3723000   0.63838357   -7.6180351    744.37963  0.016661734  0.015694088          221 
 3724000   0.64714156   -7.6087461    745.23955  0.016676503   0.01568858          109 
 3725000   0.64591104   -7.6102008    745.22134  0.016671618  0.015683078          106 
 3726000   0.65153961   -7.6185969    744.98224  0.016661796  0.015677564          156 
 3727000    0.6615303   -7.6235945    743.83626  0.016631702  0.015672068          230 
 3728000   0.64974418   -7.6170774    745.08554  0.016655167  0.015666566           87 
 3729000   0.65180456   -7.6091272    745.54324  0.016660929  0.015661073           94 
 3730000   0.65475723   -7.6314786    744.74032  0.016638524  0.015655574          108 
 3731000   0.64699856   -7.6100932    744.02855  0.016618167  0.015650074          199 
 3732000   0.65242862   -7.5959342    744.14419  0.016616296  0.015644575          104 
 3733000   0.65219501   -7.6298239    744.82274  0.016626992  0.015639078           76 
 3734000   0.65328857   -7.6254449    744.80708   0.01662219  0.015633589          135 
 3735000   0.65547602   -7.6304263     744.2635  0.016605611  0.015628086          121 
 3736000   0.64607997   -7.6320159    744.90686  0.016615517   0.01562259          159 
 3737000   0.64944533   -7.6048936    745.55188  0.016625454   0.01561711           88 
 3738000   0.64356111   -7.6123823    745.82954  0.016627197  0.015611628           95 
 3739000   0.66297639   -7.6254213    744.60567  0.016595473  0.015606127          132 
 3740000   0.65492863   -7.6244151    745.15614  0.016603301  0.015600631           67 
 3741000   0.65044748   -7.6443827    744.27268  0.016579183  0.015595146           79 
 3742000   0.64013813   -7.6309027    744.54064   0.01658072  0.015589654          157 
 3743000   0.64285846    -7.622171    744.54003  0.016576276  0.015584163          170 
 3744000   0.64652914    -7.634113    746.43216  0.016613964  0.015578671          118 
 3745000   0.66136292   -7.6285146    744.03955  0.016556287  0.015573196          104 
 3746000   0.65304013    -7.635121    746.05177  0.016596631  0.015567719          125 
 3747000   0.64445608   -7.6151703    744.59492  0.016559802  0.015562237           68 
 3748000   0.64445979   -7.6123862      744.035  0.016542934   0.01555676          196 
 3749000   0.65079395   -7.6288129    745.19155  0.016564229  0.015551288           56 
 3750000   0.64973415   -7.6264447    743.69134  0.016526474   0.01554582          111 
 3751000   0.65483892   -7.6320114    745.02516  0.016551701  0.015540347           84 
 3752000   0.65949456   -7.6344638     745.9553  0.016567948  0.015534869          199 
 3753000   0.65190916   -7.6386753    743.21391  0.016502663  0.015529406          161 
 3754000   0.66210761   -7.6345567    743.17016  0.016497295  0.015523931           75 
 3755000   0.64509081   -7.6278685    744.94576  0.016532307  0.015518466          119 
 3756000   0.65555366     -7.62016    743.85041  0.016503603  0.015512998          176 
 3757000   0.65285316   -7.6361508    744.07949  0.016504292  0.015507533          200 
 3758000   0.65701481   -7.6596622    743.54149   0.01648797  0.015502066           90 
 3759000   0.66598568   -7.6525637    744.92601  0.016514277  0.015496591          247 
 3760000   0.64830914   -7.6396079    743.64251  0.016481439  0.015491116          142 
 3761000   0.63813077   -7.6644111    743.68895  0.016478085  0.015485628           93 
 3762000   0.64476299   -7.6628442     742.8353  0.016454796  0.015480149          103 
 3763000   0.64809366   -7.6588215    744.09187   0.01647825  0.015474682          196 
 3764000   0.64289137   -7.6358346    744.20479  0.016476373  0.015469214          160 
 3765000   0.65284128   -7.6541244    743.58067  0.016458182  0.015463749          339 
 3766000   0.63496812   -7.6458058    743.58212  0.016453844  0.015458275          123 
 3767000   0.64851641     -7.64259    744.44495  0.016468564  0.015452797          186 
 3768000   0.65350193    -7.653371    744.58689  0.016467332  0.015447322          283 
 3769000   0.65244462   -7.6518786    742.47711  0.016416315   0.01544184          263 
 3770000   0.63955639   -7.6504676    743.83451  0.016441965  0.015436378          219 
 3771000   0.65162061   -7.6506174    744.68783  0.016456462  0.015430911           84 
 3772000   0.64203604   -7.6507281    744.17629  0.016440798  0.015425451          121 
 3773000   0.64315395   -7.6440356    744.14775   0.01643581  0.015419985          143 
 3774000   0.65038908   -7.6488159    743.38817  0.016414683  0.015414519          279 
 3775000   0.63193866    -7.663178    742.55533   0.01639195  0.015409063          232 
 3776000   0.65420751   -7.6539607    743.93167  0.016417984  0.015403613          146 
 3777000   0.65954542   -7.6490754    743.38856  0.016401654  0.015398164          223 
 3778000   0.65581322    -7.653097    744.41725  0.016420003  0.015392732          172 
 3779000   0.65120011   -7.6372553    742.48029  0.016372945  0.015387283          154 
 3780000   0.64256593   -7.6623505    743.39231  0.016388719  0.015381836          165 
 3781000   0.64269256   -7.6749666    741.95621  0.016352733  0.015376382          300 
 3782000   0.65111598   -7.6583382    742.91606  0.016369559  0.015370928          449 
 3783000   0.64656557   -7.6581775    742.87724  0.016364377  0.015365483          200 
 3784000   0.65516078   -7.6288592     744.5788  0.016397525  0.015360039          139 
 3785000   0.64523344   -7.6498901    744.04393  0.016381416  0.015354602          237 
 3786000   0.65407348   -7.6426195    744.66433  0.016390745  0.015349179          309 
 3787000    0.6392338   -7.6670201    743.76111  0.016366542  0.015343738          318 
 3788000   0.65203552   -7.6499862    744.06812  0.016368975  0.015338303          296 
 3789000   0.65238431   -7.6780497    744.34815  0.016370814  0.015332877          285 
 3790000   0.65118725    -7.668063    742.63604  0.016328849   0.01532744          217 
 3791000   0.65020743   -7.6564897    745.82755  0.016394697  0.015322011          361 
 3792000   0.64198838   -7.6511545    742.78664  0.016323546  0.015316588          229 
 3793000   0.64194578   -7.6749355    745.11737  0.016370449  0.015311158          220 
 3794000   0.64992154   -7.6691088    742.70043  0.016313048  0.015305748          358 
 3795000   0.63830163   -7.6444058    743.82313  0.016333402  0.015300325          202 
 3796000   0.65011373   -7.6756932    742.75376  0.016305623  0.015294922          364 
 3797000   0.65435917   -7.6675324    744.45811  0.016338735  0.015289507          323 
 3798000   0.65323275   -7.6784649    742.65998  0.016294979  0.015284083          165 
 3799000   0.64032842   -7.6684166    743.41845  0.016307328   0.01527866          296 
 3800000   0.62845819   -7.6772824    743.22726  0.016298843  0.015273231          232 
 3801000   0.64864332   -7.6683794    742.69162  0.016282812  0.015267812          162 
 3802000   0.65306179   -7.6796209    743.56615  0.016297698   0.01526239          264 
 3803000   0.65340353     -7.69376    741.76765  0.016254002  0.015256958          206 
 3804000   0.62829635   -7.6883237     741.5978  0.016246009  0.015251524          226 
 3805000    0.6557959   -7.6669947    744.10641   0.01629668  0.015246101          234 
 3806000   0.65024827   -7.6841089    743.21359   0.01627285  0.015240684          228 
 3807000   0.63419758   -7.6683141    742.92958  0.016262358  0.015235272          244 
 3808000    0.6327917   -7.6886131    743.17465  0.016263451   0.01522986          285 
 3809000   0.64162709   -7.6799698    743.85723  0.016274115  0.015224449          160 
 3810000   0.63000154   -7.6588917    743.81544  0.016268929  0.015219043          403 
 3811000   0.65603011   -7.6915208    743.14542  0.016250009   0.01521364          361 
 3812000   0.63369044   -7.6824871    743.79371  0.016259918   0.01520824          233 
 3813000   0.63596795   -7.6947883    742.44936  0.016226273  0.015202834          196 
 3814000   0.64131013   -7.6786689    742.00629  0.016212338  0.015197432          160 
 3815000   0.64717393   -7.6828432    743.68893  0.016244843  0.015192026          402 
 3816000   0.64547262   -7.6727139     743.1955  0.016229811   0.01518663          237 
 3817000   0.63903173   -7.6813412    743.91738  0.016241319  0.015181235          331 
 3818000   0.63792635   -7.6821896    742.39839  0.016203911  0.015175845          129 
 3819000   0.63727996   -7.6853766    743.07321  0.016214393  0.015170455          411 
 3820000   0.64783651   -7.6643452    743.43659  0.016218076  0.015165073          147 
 3821000   0.63353081   -7.6954881    742.95836  0.016203401  0.015159696          313 
 3822000   0.63213145   -7.7124468    744.92987  0.016242148  0.015154313          282 
 3823000   0.64344876   -7.6822336    742.90518  0.016193765  0.015148942          210 
 3824000   0.65432448   -7.6814871     742.5542  0.016181882  0.015143571          315 
 3825000   0.65102175    -7.687703    743.27912  0.016193445  0.015138196          442 
 3826000   0.62983609   -7.6632853    741.47788   0.01614998  0.015132819          226 
 3827000   0.66168446   -7.6810513    743.91116  0.016198745  0.015127458          326 
 3828000   0.65172191   -7.6897318    742.51236  0.016164062  0.015122096          285 
 3829000   0.64153914   -7.6958246    742.90677  0.016168424  0.015116744          250 
 3830000   0.64283518   -7.6722822    743.84111  0.016184532  0.015111395          103 
 3831000   0.64288987   -7.7006948    742.46973  0.016150477  0.015106046          286 
 3832000   0.64176472    -7.690754    742.80556  0.016153566  0.015100683          431 
 3833000   0.63882697    -7.706923    742.41246  0.016140805   0.01509533          209 
 3834000   0.63361974   -7.7066011    743.10417  0.016151629  0.015089968          416 
 3835000   0.62935109   -7.6656295    742.58853  0.016136213  0.015084606          175 
 3836000     0.646615   -7.6959027    742.49906  0.016130063  0.015079242          361 
 3837000   0.62138364   -7.6884549    741.41754   0.01610237  0.015073893          341 
 3838000   0.64740745   -7.6767932    742.94813  0.016131408  0.015068538          292 
 3839000   0.63317351   -7.7157272    741.03682  0.016085717  0.015063178          298 
 3840000   0.62278058   -7.6875748    743.38435  0.016132473  0.015057828          360 
 3841000   0.63326363   -7.7010549    741.23678   0.01608168  0.015052476          419 
 3842000    0.6530287   -7.6896285    742.62279  0.016107557  0.015047136          383 
 3843000   0.64384069   -7.6872903    743.06071  0.016112861  0.015041797          486 
 3844000   0.64604161   -7.7085426    742.93374  0.016105917  0.015036449          401 
 3845000   0.63224343   -7.6900496    742.40585  0.016090287  0.015031105          315 
 3846000   0.64160297   -7.6968828    741.00554  0.016055762  0.015025758          486 
 3847000    0.6343869   -7.7144745    741.36168  0.016059303  0.015020421          443 
 3848000    0.6488821   -7.6924847    743.62991  0.016104251  0.015015089          302 
 3849000   0.63931988   -7.6936695    744.08243  0.016109865  0.015009757          171 
 3850000   0.63255123   -7.6975314    740.95991  0.016038093  0.015004421          283 
 3851000   0.63557861   -7.6926647    741.68334  0.016049583  0.014999095          491 
 3852000   0.64139038   -7.7200471    741.63221  0.016044311  0.014993758          234 
 3853000   0.64810013    -7.722803    743.00314  0.016069797   0.01498843          429 
 3854000   0.63354688    -7.717411    741.34752  0.016029829  0.014983105          409 
 3855000   0.63596029   -7.6854391    742.35149  0.016047373  0.014977777          254 
 3856000   0.63552389   -7.7031575    741.45476  0.016023832  0.014972454          501 
 3857000   0.63720441   -7.7014579    743.10792  0.016055395  0.014967125          660 
 3858000   0.63878779   -7.7109661    742.97951   0.01604846  0.014961814          567 
 3859000   0.64529976   -7.7076682    741.39352  0.016010053  0.014956495          442 
 3860000    0.6301667   -7.7120951    742.52828  0.016030403  0.014951177          523 
 3861000   0.63443147   -7.6824291    743.20985  0.016040962  0.014945871          560 
 3862000   0.62055697   -7.6997689    743.55423  0.016044239  0.014940567          549 
 3863000   0.63655868   -7.7170075    742.03119  0.016007231  0.014935254          376 
 3864000   0.63715991   -7.7057828    741.52388  0.015992147  0.014929948          317 
 3865000   0.61684148   -7.6920279    742.88799  0.016017421  0.014924644          666 
 3866000   0.64432432   -7.7004871    741.03255  0.015973283  0.014919337          364 
 3867000   0.63689718   -7.7160504    741.91667  0.015988205  0.014914038          361 
 3868000   0.62909986   -7.6967241     741.6061  0.015977381  0.014908736          443 
 3869000   0.64012211   -7.6812347    743.02455  0.016003803   0.01490346          520 
 3870000   0.63823703   -7.6822347    743.87593     0.016018  0.014898184          318 
 3871000   0.63793395   -7.6934902    742.53865  0.015985074  0.014892898          478 
 3872000   0.63337914   -7.6821707    742.71534  0.015984748  0.014887614          496 
 3873000   0.64035649   -7.6975196     743.4314  0.015996028  0.014882333          529 
 3874000   0.61613806   -7.7151277    742.06471    0.0159625  0.014877053          535 
 3875000    0.6247493   -7.7022227    743.41161  0.015987346  0.014871774          610 
 3876000   0.62688262   -7.6927133    741.21135  0.015935917  0.014866502          472 
 3877000   0.64194874    -7.688055    742.35325   0.01595635   0.01486123          515 
 3878000   0.63151846   -7.7195058    742.64488  0.015958503  0.014855968          552 
 3879000   0.64284403   -7.6656848    742.75809  0.015956821  0.014850707          433 
 3880000   0.63070326   -7.7001915    742.35397  0.015944029  0.014845441          484 
 3881000   0.62590423   -7.6965504    743.11148  0.015956186  0.014840181          254 
 3882000   0.63792922   -7.7020829    741.47328  0.015916909  0.014834907          527 
 3883000   0.64016613   -7.6880051    742.67118  0.015938518  0.014829648          555 
 3884000   0.62546682     -7.69639    742.11162  0.015922408  0.014824393          233 
 3885000    0.6195069   -7.6968173    743.35472  0.015944975  0.014819145          356 
 3886000   0.62888389    -7.667328    743.08409  0.015935068  0.014813895          471 
 3887000   0.62333808   -7.6933692    742.40762  0.015916466  0.014808639          627 
 3888000   0.63140231   -7.6890785     742.0333  0.015904349  0.014803374          387 
 3889000   0.62369577   -7.6988055    741.23154  0.015883079  0.014798116          465 
 3890000   0.63420761   -7.6925452    742.87696  0.015914245  0.014792869          370 
 3891000   0.64192351   -7.6879161    743.32442  0.015919738  0.014787622          424 
 3892000    0.6195246   -7.7171008    743.40936  0.015917467   0.01478238          354 
 3893000   0.62273415   -7.7126651    742.81158  0.015900582  0.014777138          552 
 3894000   0.63719391   -7.6921901    742.45734  0.015888917  0.014771898          414 
 3895000   0.61251295   -7.6840003     742.4769  0.015885257  0.014766657          296 
 3896000   0.63994075   -7.6889844    742.32608  0.015877953  0.014761408          297 
 3897000   0.62794909   -7.6949029    742.82706  0.015884592  0.014756168          274 
 3898000   0.61897621   -7.6941597     741.3129  0.015848147  0.014750941          427 
 3899000   0.62480454   -7.7266988    742.11559  0.015861238  0.014745716          417 
 3900000   0.63009946   -7.6948321    743.48808  0.015886497  0.014740491          524 
 3901000   0.62556322   -7.6950341    742.59507  0.015863349  0.014735259          564 
 3902000   0.63339742   -7.7067521    740.87591  0.015822568  0.014730032          617 
 3903000   0.62427793    -7.701466    743.22993  0.015868775  0.014724803          443 
 3904000   0.63485156   -7.7197117    743.65997  0.015873889  0.014719589          544 
 3905000    0.6368169   -7.7216397     742.1005  0.015836545  0.014714359          471 
 3906000   0.63665869   -7.7216219    741.57095  0.015821193  0.014709142          567 
 3907000   0.62247862   -7.6961579    741.31876  0.015811764  0.014703922          441 
 3908000   0.62227066   -7.6879939    743.72667  0.015859064  0.014698706          534 
 3909000   0.63531745   -7.7111704    741.00768  0.015797043  0.014693497          522 
 3910000   0.61774697   -7.7109002    742.73759  0.015829872  0.014688281          220 
 3911000   0.61891117   -7.7112741    742.81935  0.015827567  0.014683071          462 
 3912000   0.62871549   -7.7273393    742.30137  0.015812487  0.014677852          546 
 3913000   0.62208374   -7.7223453    740.80735  0.015776628  0.014672642          477 
 3914000   0.61382284   -7.7139108    740.65909  0.015769441  0.014667429          588 
 3915000   0.61237572   -7.7055938    741.57569  0.015784923  0.014662223          620 
 3916000   0.63201591   -7.7194743    741.24043  0.015773758  0.014657009          584 
 3917000   0.62648243   -7.7097701    741.54509  0.015776212  0.014651803          470 
 3918000   0.62486678   -7.7312202    742.90034  0.015801011  0.014646606          643 
 3919000   0.61276427   -7.7287982    741.27696   0.01576246  0.014641401          443 
 3920000   0.62400794   -7.7033166    741.94236  0.015772584  0.014636202          573 
 3921000   0.63448111   -7.7458541    740.41858  0.015736176  0.014630999          486 
 3922000   0.62771196   -7.7372016    740.45008  0.015732834  0.014625801          500 
 3923000   0.61681564   -7.7106751    741.19551  0.015744658  0.014620609          543 
 3924000   0.62272677   -7.7250387    741.05219  0.015737602   0.01461542          722 
 3925000   0.62152369   -7.7104235    740.87593   0.01572985  0.014610229          624 
 3926000   0.63625439   -7.7302138    741.03685  0.015729259  0.014605042          616 
 3927000   0.62310289   -7.7242194    742.43384  0.015754899  0.014599863          440 
 3928000   0.61916729   -7.7239942    742.31974  0.015748467  0.014594682          478 
 3929000   0.62777174   -7.7170383    742.44201  0.015747052  0.014589496          608 
 3930000   0.62711251   -7.7302802    741.62771  0.015725778  0.014584322          624 
 3931000   0.62391272   -7.7346095    742.57727  0.015741908  0.014579149          470 
 3932000   0.62267293   -7.7192276    740.60137  0.015696028  0.014573974          519 
 3933000   0.62444878   -7.7319157    741.02966  0.015701111  0.014568808          236 
 3934000   0.63759884   -7.6949962    740.38437  0.015683451   0.01456364          514 
 3935000   0.63062977   -7.7050369     741.2556  0.015697916  0.014558479          486 
 3936000   0.63336693   -7.7232482    742.13681  0.015712585  0.014553318          432 
 3937000    0.6291967   -7.7429408    740.71964  0.015678597  0.014548148          530 
 3938000   0.62566425   -7.7267752    741.57828  0.015692786  0.014542976          492 
 3939000   0.63067108   -7.7130013    741.71129  0.015691616  0.014537801          631 
 3940000   0.62403719   -7.7272865    741.29601   0.01567885  0.014532637          558 
 3941000   0.62376738   -7.7072463    741.47996  0.015678761  0.014527473          526 
 3942000   0.61739431   -7.7110098    741.69139  0.015679253  0.014522315          435 
 3943000   0.61394659    -7.730746    740.90509  0.015658659  0.014517158          524 
 3944000     0.601215   -7.6992397    742.68352  0.015692265  0.014512012          468 
 3945000   0.62269568   -7.7120281    742.09691  0.015675896  0.014506866          686 
 3946000   0.62697824   -7.7281969    740.72389  0.015642927  0.014501716          666 
 3947000   0.61724589   -7.7373806    742.17783  0.015669661  0.014496568          693 
 3948000   0.62148988    -7.722077    740.39978  0.015628162  0.014491426          693 
 3949000    0.6136305   -7.7260718    741.95384  0.015656998  0.014486284          647 
 3950000    0.6155149   -7.7269811    741.80053    0.0156498  0.014481146          583 
 3951000   0.62249899   -7.7324073    741.31647   0.01563563  0.014476018          540 
 3952000   0.60714721   -7.7001565     742.1644  0.015649553   0.01447088          501 
 3953000   0.61984686   -7.7306027    742.63851  0.015655589  0.014465745          400 
 3954000   0.61408669   -7.7379027    740.73606  0.015611534  0.014460606          481 
 3955000   0.62495067   -7.7139739    741.60322  0.015625858  0.014455475          600 
 3956000   0.60329466   -7.7062234     741.3467  0.015616504  0.014450342          510 
 3957000   0.61610559   -7.7262234    742.19859  0.015630499   0.01444522          466 
 3958000   0.62586776   -7.7302924      739.663  0.015573164  0.014440094          250 
 3959000   0.60169087   -7.7325146     741.6795  0.015611676  0.014434971          369 
 3960000   0.61724866    -7.722493    741.59478  0.015605951  0.014429855          514 
 3961000   0.60271152   -7.7277924    741.25394   0.01559484  0.014424735          449 
 3962000    0.6121301    -7.737641    741.33393  0.015592587  0.014419618          592 
 3963000   0.62316695   -7.7413549    741.49673  0.015592075  0.014414503          446 
 3964000   0.62258672   -7.7373725    741.10524  0.015579912  0.014409388          657 
 3965000   0.63341089   -7.7259514    741.26915  0.015579427  0.014404278          496 
 3966000   0.61525565   -7.7202171    740.31959  0.015555547  0.014399162          483 
 3967000    0.6107929   -7.7230378    740.63306  0.015558211  0.014394062          210 
 3968000   0.62051674   -7.7391263    740.02499  0.015541519  0.014388953          408 
 3969000    0.6263925   -7.7329032    739.70486  0.015530882  0.014383848          278 
 3970000   0.61791086   -7.7291054      742.013   0.01557542  0.014378741          372 
 3971000    0.6067671   -7.7560024     740.0791  0.015530914   0.01437363          313 
 3972000   0.61436947   -7.7221688    741.93096  0.015565856  0.014368539          547 
 3973000   0.61524188   -7.7407793    739.38125  0.015508458  0.014363437          386 
 3974000   0.62706878   -7.7442145    741.35473  0.015545939  0.014358333          560 
 3975000   0.61377154   -7.7289619    740.84626  0.015531368  0.014353234          642 
 3976000   0.62038215   -7.7366827    741.57887  0.015542817  0.014348144          291 
 3977000   0.61712945   -7.7748325    740.90034  0.015524691  0.014343047          569 
 3978000   0.60632038   -7.7667857    740.71913  0.015516992  0.014337948          656 
 3979000   0.61336054   -7.7331631    740.03657  0.015498797  0.014332846          468 
 3980000   0.61461709   -7.7620765    740.29936  0.015500405  0.014327748          615 
 3981000   0.59990247   -7.7414997    740.70771   0.01550506  0.014322655          611 
 3982000    0.6182946   -7.7524658    740.42405   0.01549523  0.014317568          343 
 3983000   0.61198675    -7.761311    740.59131  0.015494839  0.014312495          548 
 3984000   0.61799574   -7.7204645    740.76397  0.015494561   0.01430742          494 
 3985000   0.60758108   -7.7424727    742.00654  0.015516657  0.014302334          670 
 3986000   0.62008521    -7.739435    742.36358  0.015520229  0.014297253          495 
 3987000   0.62510041   -7.7552379    740.32153  0.015473655  0.014292185          451 
 3988000   0.62135186   -7.7520673     740.8119  0.015480021  0.014287107          664 
 3989000   0.61600556   -7.7305233    740.01908  0.015459578  0.014282034          538 
 3990000   0.61563364   -7.7432869    739.77334  0.015450571   0.01427696          425 
 3991000   0.60572519   -7.7533923    739.94934  0.015450375  0.014271887          474 
 3992000   0.60056214   -7.7336428    739.62144  0.015439659  0.014266804          522 
 3993000   0.61280591   -7.7614591    740.24953  0.015448901  0.014261734          510 
 3994000   0.61893905   -7.7649001    741.21047  0.015465082  0.014256666          378 
 3995000   0.61362686   -7.7470229    740.01559  0.015436287  0.014251595          361 
 3996000   0.61059622   -7.7618183    739.97318  0.015431539  0.014246532          467 
 3997000   0.60293445   -7.7705815    741.57241  0.015461021  0.014241467          376 
 3998000   0.61474772   -7.7476943    741.27806  0.015451018  0.014236404          315 
 3999000   0.60884166   -7.7447035    741.07401  0.015442903  0.014231337          499 
 4000000   0.60441029   -7.7619824    740.65391   0.01543029  0.014226273          572 
 4001000   0.61552811   -7.7575237    739.71859  0.015406952  0.014221216          329 
 4002000   0.60360613   -7.7626011    741.19925  0.015433934  0.014216159          498 
 4003000   0.61125452   -7.7504513    740.07187  0.015406609  0.014211108          595 
 4004000    0.6044806   -7.7369807    741.78292  0.015438372   0.01420605          440 
 4005000   0.61451936   -7.7561075    741.55127  0.015429698  0.014201001          318 
 4006000   0.61841808   -7.7430916    740.15854  0.015396874  0.014195957          550 
 4007000   0.59701419   -7.7354466    741.72596  0.015425629  0.014190909          486 
 4008000   0.60677024   -7.7506989    740.37509  0.015393694  0.014185871          531 
 4009000    0.6026327   -7.7553597    740.64433   0.01539545  0.014180833          628 
 4010000   0.61167255   -7.7485231    740.00204  0.015378263  0.014175793          581 
 4011000   0.60818402   -7.7736103     740.2607  0.015379803  0.014170758          667 
 4012000   0.61129449   -7.7392636     741.7312  0.015406514  0.014165723          373 
 4013000   0.62902582   -7.7546836    741.68634  0.015401743  0.014160691          288 
 4014000   0.61601485   -7.7313126    740.91522  0.015381897  0.014155658          616 
 4015000   0.59570208   -7.7518967    740.13086  0.015361786  0.014150626          636 
 4016000   0.59940455    -7.750306    739.60186  0.015346984   0.01414559          545 
 4017000   0.60982277   -7.7476478    739.73658  0.015345958  0.014140555          279 
 4018000   0.59641558   -7.7723062    741.08414  0.015370087   0.01413553          617 
 4019000   0.60517809    -7.736593    739.35776  0.015330467  0.014130496          589 
 4020000   0.61463583   -7.7575669    740.47221  0.015349756  0.014125472          533 
 4021000   0.60788348   -7.7652171    739.76841  0.015331352  0.014120437          526 
 4022000   0.60712224   -7.7487182    740.02208  0.015332796  0.014115417          598 
 4023000   0.61918462   -7.7617357     739.3695  0.015315467   0.01411041          349 
 4024000   0.61448269   -7.7728029    740.00346   0.01532479  0.014105394          552 
 4025000   0.61392958   -7.7486297    740.06856   0.01532233  0.014100391          537 
 4026000   0.60815045   -7.7494218    740.67269  0.015331029  0.014095388          607 
 4027000   0.60401253   -7.7367496    740.79271  0.015329706  0.014090386          624 
 4028000   0.60092704   -7.7779303    741.04903  0.015331203  0.014085384          417 
 4029000   0.60600932   -7.7426107    741.22668  0.015331072  0.014080381          571 
 4030000   0.60883516   -7.7524522    740.93038  0.015321141   0.01407538          672 
 4031000   0.61178154   -7.7637358    740.48758  0.015308186  0.014070376          564 
 4032000   0.60885504   -7.7628697    739.81998  0.015290592  0.014065376          535 
 4033000    0.6124944   -7.7726041    739.63931  0.015283067  0.014060376          583 
 4034000   0.60067246    -7.760991    740.07523  0.015288284  0.014055374          626 
 4035000   0.60475481   -7.7703603    739.47284  0.015272054  0.014050375          646 
 4036000   0.59963634   -7.7631219    739.08021  0.015260163  0.014045386          636 
 4037000   0.61111411   -7.7779372    740.02652  0.015275917  0.014040405          625 
 4038000   0.60510539    -7.764361    740.30617  0.015277905  0.014035416          548 
 4039000   0.60195476   -7.7607075    738.70668  0.015241122  0.014030424          671 
 4040000   0.59761608   -7.7631534    740.00371  0.015264103  0.014025437          720 
 4041000   0.60521572   -7.7600741     740.2242  0.015264873  0.014020454          586 
 4042000     0.610117   -7.7385813    739.70548  0.015250402  0.014015473          640 
 4043000   0.60377243   -7.7550341    739.84838  0.015249575  0.014010493          678 
 4044000   0.61761876   -7.7772074    739.35195  0.015235574  0.014005513          717 
 4045000   0.61102483   -7.7601248    740.82711  0.015262198  0.014000538          592 
 4046000   0.60652669   -7.7470364    741.15928  0.015265268  0.013995566          576 
 4047000   0.60235631   -7.7707992    740.35923  0.015245022  0.013990595          373 
 4048000   0.60667478   -7.7639674    739.96414  0.015233122  0.013985624          544 
 4049000   0.61455563   -7.7700128    737.94886  0.015187883  0.013980663          626 
 4050000   0.60377772    -7.763221      740.079  0.015227963  0.013975701          729 
 4051000   0.60546523   -7.7453682    739.54475  0.015213214  0.013970744          581 
 4052000   0.61137419   -7.7684404    739.88121  0.015216379  0.013965784          559 
 4053000   0.60176555   -7.7851773    741.17527  0.015239232  0.013960828          724 
 4054000   0.59673289   -7.7702283     740.3212  0.015217916  0.013955861          608 
 4055000   0.59604986    -7.770062    740.34824  0.015214719  0.013950907          665 
 4056000   0.60208121   -7.7636752    740.99216  0.015224198  0.013945953          692 
 4057000   0.61383352   -7.7954174    740.59686  0.015212326  0.013941005          759 
 4058000   0.59763948    -7.768488     738.9546  0.015174852   0.01393606          460 
 4059000   0.61297244    -7.782264    740.48522  0.015202538  0.013931112          449 
 4060000   0.60083836   -7.7536165    738.96478  0.015167586  0.013926161          642 
 4061000   0.60344431    -7.777068    739.56152  0.015176096  0.013921222          612 
 4062000   0.60264441    -7.767904    739.84688  0.015178214  0.013916284          600 
 4063000   0.60536894     -7.77179     740.3862   0.01518554  0.013911351          627 
 4064000   0.62039655   -7.7541024    741.15762  0.015197622  0.013906422          652 
 4065000   0.60776221   -7.7521688    740.92469  0.015189108  0.013901496          675 
 4066000   0.61286438   -7.7845931    739.87054  0.015163767  0.013896557          616 
 4067000   0.60265562   -7.7598335    739.65017  0.015155524  0.013891628          675 
 4068000   0.58432316   -7.8044705    740.47278  0.015168649   0.01388669          720 
 4069000   0.60799155    -7.775416    740.20236  0.015159383  0.013881751          687 
 4070000   0.60836467   -7.7771124    739.36861  0.015138587  0.013876817          575 
 4071000   0.60719067   -7.7758547    740.71551   0.01516244  0.013871886          380 
 4072000   0.59777916   -7.7924548    739.46961  0.015133219  0.013866959          742 
 4073000   0.60726802   -7.7666673    738.20861  0.015103703  0.013862028          658 
 4074000    0.6059293   -7.7798904    739.58653  0.015128181    0.0138571          654 
 4075000   0.59779482   -7.7868333    740.19213  0.015136853  0.013852174          654 
 4076000   0.60711933    -7.765071    741.04425  0.015150561  0.013847251          627 
 4077000   0.58770475    -7.758303    737.97986  0.015084209  0.013842341          740 
 4078000   0.59457585   -7.7682801    739.38684  0.015109262  0.013837421          684 
 4079000   0.59332781   -7.7876314    739.78289  0.015113649  0.013832507          662 
 4080000    0.6049498   -7.7714996    739.76932  0.015109667  0.013827592          636 
 4081000   0.59643054    -7.782378    739.90419  0.015108719  0.013822674          675 
 4082000   0.59961485   -7.7821115    739.01266  0.015086817  0.013817759          661 
 4083000   0.59389461   -7.7895934    740.93358  0.015122328  0.013812852          555 
 4084000   0.59787112   -7.7970095    739.46527  0.015088664  0.013807944          681 
 4085000   0.60304234   -7.7997734    738.20065  0.015059173  0.013803033          597 
 4086000   0.60405746   -7.7742891    739.49775  0.015081941  0.013798122          529 
 4087000   0.59066726   -7.7871325    738.20414  0.015051875  0.013793214          615 
 4088000   0.59512043   -7.7880722    739.38517  0.015072268  0.013788303          655 
 4089000   0.59594806   -7.7925271    738.70641  0.015054749  0.013783394          658 
 4090000   0.58534124   -7.8100033    739.37583  0.015064707  0.013778481          647 
 4091000   0.60603218   -7.8072205    738.41197  0.015041391  0.013773567          683 
 4092000   0.59026503   -7.7708326    738.27271  0.015034879  0.013768655          617 
 4093000   0.60242648   -7.8116279    737.41254  0.015013693  0.013763756          650 
 4094000    0.5814028   -7.7842855    740.43202  0.015071487  0.013758854          734 
 4095000   0.61357504   -7.7916018    737.74765   0.01501318  0.013753956          723 
 4096000   0.59834615   -7.8122351    737.19991  0.014998371  0.013749054          687 
 4097000   0.60535812   -7.7736771     738.9646  0.015030604  0.013744155          498 
 4098000   0.60641279   -7.7851186     739.2613  0.015032969  0.013739258          750 
 4099000   0.60034979   -7.7872721    739.37303  0.015031573  0.013734361          739 
 4100000   0.60088571   -7.7889467    739.46068  0.015029689  0.013729468          553 
 4101000   0.59386492    -7.788311    738.54821  0.015007482  0.013724577          615 
 4102000   0.59885837    -7.788534    740.31197  0.015039655  0.013719693          497 
 4103000   0.59920957    -7.780669    739.06134  0.015010589  0.013714805          661 
 4104000   0.58946817    -7.804542    737.94349  0.014984233  0.013709919          544 
 4105000   0.59972812   -7.7701685    738.90842  0.015000171  0.013705043          619 
 4106000   0.59134565   -7.7867874     738.1628  0.014981385  0.013700162          645 
 4107000   0.59300368   -7.8142197     739.4232  0.015003311  0.013695285          688 
 4108000    0.5851883   -7.7902742    738.08548  0.014972523  0.013690406          662 
 4109000   0.59863045   -7.7792894     738.6883  0.014981105   0.01368553          710 
 4110000    0.5954932   -7.7709529    739.94981  0.015003037  0.013680656          678 
 4111000   0.58695056   -7.8045748    738.88521  0.014977808  0.013675779          667 
 4112000   0.59264742    -7.802005    738.59174  0.014968218  0.013670912          684 
 4113000   0.58371754   -7.8221019    737.59425  0.014944368   0.01366604          742 
 4114000   0.59536448   -7.7878225    739.77683  0.014984946  0.013661184          707 
 4115000   0.58912916   -7.7825522    739.16058  0.014968825   0.01365632          639 
 4116000   0.58888387   -7.8104445    738.50916     0.014952  0.013651456          778 
 4117000   0.59034712   -7.8032913    737.61909  0.014930352  0.013646595          660 
 4118000   0.59346954    -7.812039    738.52171  0.014944992  0.013641738          733 
 4119000   0.59094599   -7.7810314    738.11933  0.014933223  0.013636881          633 
 4120000   0.58962301   -7.8087972    739.53209  0.014958173  0.013632031          695 
 4121000   0.59140386   -7.7799745    739.66504  0.014957232  0.013627179          587 
 4122000   0.58856035   -7.7975056    739.54749  0.014951227  0.013622321          756 
 4123000   0.59331574   -7.7911135    738.04529  0.014917238  0.013617472          669 
 4124000   0.57864367   -7.7866943    738.58681  0.014924564  0.013612621          594 
 4125000   0.59352567   -7.8003439    737.44777  0.014897935  0.013607767          718 
 4126000   0.60267048   -7.7923788    738.20119  0.014909541  0.013602924          622 
 4127000   0.58152857    -7.815926    737.66145   0.01489503  0.013598076          535 
 4128000   0.58766185   -7.7975891    737.90956   0.01489643  0.013593226          823 
 4129000   0.59133727   -7.7964097    738.36063  0.014901926  0.013588389          666 
 4130000   0.57739913   -7.8189515    738.26433  0.014896375   0.01358355          752 
 4131000   0.60717812    -7.806359     737.0118  0.014867502  0.013578713          738 
 4132000   0.58892259    -7.800968    737.29157  0.014869546  0.013573881          764 
 4133000   0.58012884   -7.8082737    737.52937  0.014870743  0.013569051          745 
 4134000    0.5805613   -7.7950422    739.59094  0.014908703  0.013564225          678 
 4135000   0.59444223   -7.7804769     738.4539  0.014882183  0.013559389          790 
 4136000   0.58718362   -7.8082793    739.73676  0.014904432  0.013554562          722 
 4137000   0.59210964   -7.7972319    737.46805   0.01485513  0.013549738          708 
 4138000   0.59963321   -7.8072912      736.817  0.014838428  0.013544921          792 
 4139000   0.59144804   -7.8058991       737.57  0.014850004  0.013540099          766 
 4140000   0.58447315   -7.8077534     737.3376  0.014841739   0.01353528          690 
 4141000   0.58795606    -7.788767    738.44248   0.01486039  0.013530463          743 
 4142000   0.59390332    -7.809076    738.29775   0.01485389  0.013525644          754 
 4143000   0.59481567   -7.8087873    736.63745  0.014816909  0.013520822          779 
 4144000   0.58852683   -7.8388044    738.34862  0.014847744  0.013516005          670 
 4145000    0.5915447   -7.8198324    737.25727  0.014822221  0.013511196          633 
 4146000    0.5930861   -7.8256178    737.55852  0.014824701  0.013506386          836 
 4147000   0.60351055   -7.8078801    737.40851  0.014818112  0.013501573          739 
 4148000   0.59265134   -7.8211816    736.91387  0.014804602  0.013496761          719 
 4149000   0.60628821   -7.7929763    739.56494  0.014854281   0.01349196          613 
 4150000   0.58820784   -7.8200854    737.44571  0.014808147  0.013487151          760 
 4151000   0.58530109   -7.8291242    738.95464  0.014834872  0.013482337          736 
 4152000   0.58664929   -7.8125172    738.07625  0.014813669  0.013477528          792 
 4153000   0.59304292   -7.7992837    736.76567  0.014783804  0.013472719          701 
 4154000   0.58615648   -7.8211437     737.5635  0.014796251  0.013467913          761 
 4155000   0.58537909    -7.813257    737.01763  0.014781742  0.013463112          697 
 4156000    0.5840975   -7.8196026    737.63756  0.014790615  0.013458311          791 
 4157000   0.57447623   -7.7976916    737.25264  0.014779341  0.013453516          764 
 4158000   0.59314731    -7.814437     736.7096  0.014764903  0.013448721          707 
 4159000   0.58639398   -7.8116453    737.41103  0.014775407  0.013443932          748 
 4160000   0.58474767   -7.8043435    738.04826  0.014784621  0.013439141          710 
 4161000    0.5902244   -7.7900368    738.91186  0.014798363   0.01343435          751 
 4162000   0.57928841   -7.8289456    737.98158  0.014776181  0.013429563          815 
 4163000   0.57597652   -7.8062945    738.84748  0.014789965  0.013424788          790 
 4164000   0.58555578   -7.8181076    737.56472  0.014760741  0.013420004          745 
 4165000   0.56942646   -7.8238163    738.57889  0.014777489  0.013415226          679 
 4166000   0.57912057   -7.8149751    737.53426  0.014753046  0.013410451          689 
 4167000   0.58610722   -7.8112562    738.04991  0.014759817  0.013405678          630 
 4168000   0.58515002   -7.8097444    736.09502  0.014717191  0.013400909          650 
 4169000   0.58169113   -7.8201047    737.85933  0.014748927  0.013396146          660 
 4170000   0.58055308   -7.8110951    737.50588  0.014738327  0.013391385          622 
 4171000   0.57897874   -7.8196864    736.93786  0.014723445  0.013386624          557 
 4172000   0.60102143   -7.8289366    737.80797  0.014737296  0.013381864          730 
 4173000   0.58465521   -7.8221334    737.62765  0.014730163  0.013377103          651 
 4174000   0.58568784   -7.8224107    737.86353  0.014731343  0.013372347          666 
 4175000   0.58554316   -7.8105726    738.56301  0.014741777  0.013367595          684 
 4176000   0.58640598   -7.8133039     736.5467  0.014698011  0.013362841          593 
 4177000   0.57207424   -7.8182193    738.06552  0.014724793  0.013358096          750 
 4178000    0.5758475   -7.8131818    737.30092  0.014706018  0.013353345          679 
 4179000   0.57790597   -7.8168982    736.31078  0.014682755  0.013348603          599 
 4180000   0.57822232   -7.8180411    737.27333  0.014698432  0.013343859          653 
 4181000   0.57966264   -7.7982758    738.41561  0.014717683  0.013339117          693 
 4182000   0.59275354   -7.8201202    737.67572   0.01469942  0.013334376          669 
 4183000   0.58882958    -7.826503    737.48771  0.014692161  0.013329636          774 
 4184000   0.57252379   -7.8262702    737.50491  0.014688992  0.013324896          706 
 4185000   0.58601249   -7.8370419    738.25252  0.014700369  0.013320168          726 
 4186000    0.5930632   -7.8058091    737.90595  0.014689958   0.01331543          645 
 4187000   0.57355197   -7.8150737    738.14418  0.014691191  0.013310702          666 
 4188000   0.58239262   -7.8207673    737.17696  0.014668437  0.013305975          569 
 4189000   0.57532387   -7.8294141    738.46157   0.01469049  0.013301252          688 
 4190000   0.58373037   -7.8325822    738.22152   0.01468221  0.013296518          740 
 4191000   0.57400159    -7.838017    736.06727  0.014635872  0.013291786          596 
 4192000   0.57112616   -7.8217605     736.7395  0.014645744   0.01328706          598 
 4193000   0.57236687   -7.8335823    737.74982   0.01466233  0.013282335          708 
 4194000   0.57389277   -7.8357543    736.35489  0.014631118  0.013277612          636 
 4195000   0.57981397   -7.8235162    737.55706  0.014651511  0.013272884          750 
 4196000   0.57116882   -7.8302612    738.20058    0.0146608  0.013268164          630 
 4197000   0.57493802   -7.8280995    737.36698  0.014640755  0.013263439          673 
 4198000   0.58429494   -7.8161259    737.22188  0.014634387  0.013258724          851 
 4199000   0.58770681   -7.8076564    739.28538  0.014671854  0.013254012          807 
 4200000   0.58773313    -7.826787    738.04084  0.014643667  0.013249312          736 
 4201000   0.58695358   -7.8315759    736.56296  0.014610866  0.013244608          640 
 4202000   0.57199209   -7.8264176    738.02985   0.01463648    0.0132399          647 
 4203000   0.56958147   -7.8308217    736.36206   0.01459993  0.013235189          655 
 4204000   0.58354188    -7.824845    736.29922  0.014595211  0.013230488          663 
 4205000   0.59617441   -7.8259687    737.32114  0.014611993  0.013225794          568 
 4206000   0.57686107   -7.8310589    737.94238  0.014620827  0.013221101          683 
 4207000   0.59450149   -7.8420979    735.90439  0.014576983  0.013216407          657 
 4208000   0.56295706   -7.8213009    737.75146  0.014610097  0.013211707          594 
 4209000   0.58116309   -7.8337363    737.31999  0.014598083  0.013207015          589 
 4210000   0.57280756   -7.8251531    737.29153  0.014594052  0.013202329          610 
 4211000   0.57266072    -7.828272     737.7427  0.014599515  0.013197639          582 
 4212000   0.59505906    -7.824017    736.34429  0.014568382  0.013192949          677 
 4213000   0.57334004   -7.8416794    737.63917  0.014590537  0.013188261          700 
 4214000   0.58018705   -7.8478348    737.33366  0.014581033  0.013183575          725 
 4215000   0.58221039   -7.8378974    737.06341   0.01457223  0.013178892          731 
 4216000   0.58213673   -7.8206775    736.60439  0.014559701  0.013174212          602 
 4217000   0.58750766   -7.8329861    737.05824  0.014565217  0.013169538          696 
 4218000   0.58753878   -7.8358341    737.73703  0.014575175  0.013164862          642 
 4219000   0.57669571   -7.8201935    737.78717   0.01457271  0.013160189          647 
 4220000   0.56783134   -7.8323488    736.01595   0.01453428  0.013155514          725 
 4221000   0.57518945    -7.836129    737.53584  0.014560843  0.013150839          768 
 4222000   0.57381234    -7.847911    737.69948  0.014560624   0.01314617          637 
 4223000   0.59055041    -7.821556    736.91735  0.014541743  0.013141508          636 
 4224000     0.584207    -7.834582    738.00252  0.014559709   0.01313685          658 
 4225000   0.58260778    -7.830256    737.86462  0.014553543   0.01313219          583 
 4226000    0.5860967   -7.8286466    736.93975  0.014531861  0.013127532          513 
 4227000   0.57626566    -7.838597    736.70014    0.0145237  0.013122876          821 
 4228000   0.59026653   -7.8263121    736.96183  0.014525422   0.01311822          562 
 4229000   0.58619071   -7.8536609    736.84224  0.014519631  0.013113574          709 
 4230000   0.57387413   -7.8264874     736.6665  0.014512736  0.013108922          770 
 4231000   0.58350932   -7.8201156    737.11009  0.014518043  0.013104279          683 
 4232000   0.56361615   -7.8334448    738.39139  0.014539843  0.013099636          752 
 4233000   0.58272673    -7.836535    738.27304  0.014534078  0.013094997          595 
 4234000   0.56933544   -7.8340037    737.84008  0.014522124   0.01309036          690 
 4235000   0.56648128   -7.8584296    737.14163  0.014504951  0.013085717          765 
 4236000   0.57863008   -7.8304721    736.63941  0.014491647  0.013081077          733 
 4237000   0.57205745   -7.8278965    738.46269  0.014524087  0.013076441          811 
 4238000   0.58896532   -7.8260355     737.7112  0.014505883  0.013071811          707 
 4239000   0.56977872   -7.8127487     738.8353   0.01452456   0.01306718          736 
 4240000   0.56218905   -7.8302285      737.292  0.014490802  0.013062555          811 
 4241000   0.56994939   -7.8373258    737.01229  0.014481889   0.01305793          543 
 4242000   0.55979336   -7.8496014    736.70677  0.014472473  0.013053304          731 
 4243000   0.57554187   -7.8420546     736.4932  0.014464868  0.013048677          819 
 4244000   0.57676012   -7.8462333    737.08177  0.014473016  0.013044056          824 
 4245000    0.5810666   -7.8524399    736.68073  0.014461734   0.01303944          728 
 4246000   0.57667741   -7.8324392    735.92808  0.014443556  0.013034819          622 
 4247000   0.58372984   -7.8442195    737.59653  0.014472893  0.013030193          658 
 4248000   0.57392484   -7.8335997    737.03286  0.014458429  0.013025575          868 
 4249000   0.55886841    -7.837419     736.1306   0.01443733   0.01302096          758 
 4250000   0.57658027   -7.8142706    737.27945   0.01445646  0.013016345          621 
 4251000   0.56564732   -7.8275863    737.55591  0.014458479  0.013011741          598 
 4252000   0.57158077   -7.8254163    735.49889  0.014414764  0.013007129          715 
 4253000   0.56406341   -7.8377404    736.42868  0.014429592  0.013002524          799 
 4254000   0.57340632   -7.8444294    736.98822  0.014437161  0.012997924          628 
 4255000   0.57312979   -7.8462373    735.56611  0.014405917  0.012993323          812 
 4256000    0.5713376   -7.8375257    736.69034  0.014424544  0.012988721          779 
 4257000   0.57650626   -7.8644745    737.07769  0.014428739  0.012984117          666 
 4258000    0.5701039   -7.8271232    736.37657  0.014411628  0.012979523          757 
 4259000   0.56395016    -7.850242     736.1719   0.01440424  0.012974925          838 
 4260000   0.56985102   -7.8465301    736.29786  0.014403323  0.012970329          780 
 4261000   0.57901541   -7.8651773    736.86598  0.014411053  0.012965735          662 
 4262000   0.55106423   -7.8349384    736.57839  0.014402049  0.012961141          792 
 4263000    0.5748147    -7.841716    737.83125  0.014423162  0.012956551          799 
 4264000   0.56878306   -7.8660891      736.179  0.014387488  0.012951963          788 
 4265000   0.58063426    -7.826947    737.00656  0.014400285  0.012947375          803 
 4266000   0.57766898   -7.8506281    736.80581  0.014392987  0.012942793          727 
 4267000   0.57159877   -7.8375736    737.14336  0.014396207  0.012938211          783 
 4268000   0.56839873   -7.8413262    735.57273  0.014362167   0.01293363          608 
 4269000   0.58031887   -7.8464382    736.24395  0.014371905  0.012929054          745 
 4270000   0.56535327   -7.8165018    737.15285  0.014386277  0.012924487          796 
 4271000   0.56945819   -7.8511303    736.95656  0.014379079  0.012919919          769 
 4272000   0.56213236    -7.833286    736.44509  0.014365736  0.012915355          678 
 4273000   0.56405675   -7.8417611    738.23582  0.014397297  0.012910791          622 
 4274000   0.56716278   -7.8252327    737.74301   0.01438432  0.012906221          756 
 4275000   0.57115106   -7.8266352    736.91652  0.014364844  0.012901663          787 
 4276000   0.56954496   -7.8415018    736.65739  0.014356435  0.012897102          816 
 4277000   0.56684574   -7.8549416     737.5246  0.014369975  0.012892543          751 
 4278000   0.56806625   -7.8546353    737.21674  0.014360619  0.012887991          859 
 4279000   0.58201484   -7.8436261    735.70969  0.014327913  0.012883437          471 
 4280000   0.56220987   -7.8238126    738.00672   0.01436929  0.012878886          862 
 4281000   0.55338885   -7.8300676    738.42428  0.014374061  0.012874336          736 
 4282000   0.55407357   -7.8321851    735.72548  0.014318182  0.012869784          760 
 4283000   0.56607946   -7.8409771    736.63992  0.014332631   0.01286523          790 
 4284000   0.56014944   -7.8534534    735.17503   0.01430079  0.012860677          677 
 4285000   0.57332978   -7.8637512    736.61308   0.01432542  0.012856128          759 
 4286000   0.55755597   -7.8444704    736.23653  0.014314756  0.012851585          705 
 4287000   0.56286958   -7.8724795    735.61538  0.014299343  0.012847038          738 
 4288000    0.5760815   -7.8714159     736.3318  0.014309931  0.012842492          337 
 4289000   0.55912823   -7.8565974    736.31398  0.014306248  0.012837939          738 
 4290000   0.56428271   -7.8521492    735.89236  0.014294723  0.012833396          772 
 4291000   0.55918181   -7.8559722    736.86776  0.014310335  0.012828855          644 
 4292000   0.55096161   -7.8728342    736.46468  0.014299174  0.012824319          737 
 4293000   0.55846677   -7.8702967    736.88365  0.014303976   0.01281978          755 
 4294000   0.57342077   -7.8513418    735.82682  0.014280135  0.012815249          698 
 4295000   0.56819437   -7.8619654    735.77252  0.014275757  0.012810714          885 
 4296000   0.55722435   -7.8686896    735.93106  0.014275509  0.012806177          837 
 4297000   0.56924083   -7.8543351    735.64788  0.014266695  0.012801643          719 
 4298000   0.55434339   -7.8699411    735.57106  0.014261887  0.012797121          791 
 4299000   0.56343204   -7.8749954    737.01745  0.014286606   0.01279259          602 
 4300000   0.55955069   -7.8813069    735.30856  0.014250166  0.012788064          768 
 4301000    0.5647407   -7.8416641    735.65074  0.014253483  0.012783533          661 
 4302000   0.56446691   -7.8685562    734.90228  0.014235671  0.012779011          799 
 4303000   0.57157235   -7.8326183    734.75872  0.014229582  0.012774495          754 
 4304000   0.57219796   -7.8629595    736.01845  0.014250667  0.012769979          795 
 4305000   0.57186448   -7.8560775    735.20744  0.014231658  0.012765459          862 
 4306000   0.56276829   -7.8534878    734.95055  0.014223381   0.01276094          839 
 4307000   0.56381403   -7.8664516    737.08506  0.014261378   0.01275643          790 
 4308000     0.569845   -7.8822292     736.1636  0.014240243  0.012751917          680 
 4309000   0.56794715   -7.8484146    734.66296  0.014207917  0.012747408          668 
 4310000   0.55783881   -7.8755845    735.92064  0.014228937  0.012742902          725 
 4311000   0.56790208   -7.8663654    735.68403  0.014221063  0.012738391          747 
 4312000   0.56351914   -7.8614283    735.71711  0.014218404  0.012733887          780 
 4313000   0.56456901    -7.864281    736.04872  0.014221515  0.012729385          609 
 4314000   0.57042207    -7.856157    735.61842  0.014209906   0.01272488          787 
 4315000   0.56327012   -7.8743048    735.45562  0.014203469  0.012720378          349 
 4316000   0.55190571   -7.8502299    736.80071  0.014226149  0.012715868          770 
 4317000   0.56418917    -7.870206    736.33661  0.014213895   0.01271137          853 
 4318000   0.55885627   -7.8703833    735.35764   0.01419171  0.012706872          699 
 4319000   0.57296292   -7.8674101    736.33519  0.014207285  0.012702379          605 
 4320000   0.57181978   -7.8547985    734.83526  0.014175063  0.012697889          634 
 4321000   0.57490867   -7.8469649    736.23745  0.014198825  0.012693404          766 
 4322000   0.56177849   -7.8658777    735.43359   0.01418004  0.012688919          734 
 4323000   0.55892749   -7.8628024    735.57165  0.014179421  0.012684437          709 
 4324000   0.56364831   -7.8492412    735.18003  0.014168594   0.01267995          678 
 4325000   0.56828863   -7.8617291    735.97467   0.01418063  0.012675468          788 
 4326000   0.55736402   -7.8793731    736.85376  0.014194286  0.012670993          767 
 4327000   0.56331707   -7.8486766    735.81408  0.014170982  0.012666519          472 
 4328000   0.55473166   -7.8603282    734.70215  0.014146298  0.012662047          847 
 4329000   0.55343514   -7.8586396    735.25422  0.014153658  0.012657569          763 
 4330000   0.55103693   -7.8676034    735.98493  0.014164452  0.012653098          711 
 4331000   0.56326503   -7.8702728     734.8632  0.014139598  0.012648631          634 
 4332000   0.56550321   -7.8755447    735.56679  0.014149869  0.012644158          782 
 4333000   0.55123457   -7.8573731    735.58694  0.014146991  0.012639692          561 
 4334000   0.54975104   -7.8867541    735.98499   0.01415138  0.012635229          789 
 4335000   0.56544839   -7.8831511    736.42927  0.014156656  0.012630767          672 
 4336000   0.56261566    -7.861032    734.79857  0.014122051  0.012626309          626 
 4337000   0.56253389   -7.8657592    736.71491  0.014155617  0.012621857          720 
 4338000   0.55740098   -7.8473868    735.07574  0.014120865  0.012617402          393 
 4339000   0.56043715    -7.876225    736.24121  0.014139994   0.01261295          755 
 4340000   0.55744015   -7.8718319    734.75552  0.014108209  0.012608499          792 
 4341000   0.55498494   -7.8679483    737.35893  0.014154936  0.012604049          736 
 4342000   0.55986675   -7.8794881    736.13867  0.014128256  0.012599603          701 
 4343000   0.55730605   -7.8523399    736.04571   0.01412322  0.012595157          669 
 4344000   0.55172642   -7.8773276    735.99403  0.014118977  0.012590716          748 
 4345000   0.56036446   -7.8733428     736.1113  0.014117977  0.012586268          581 
 4346000   0.56704321   -7.8696605    736.83473    0.0141286  0.012581832          732 
 4347000   0.55685005   -7.8787447    735.21523  0.014094303  0.012577398          745 
 4348000   0.55565638   -7.8754063    735.99613  0.014106028  0.012572965          746 
 4349000   0.54470852   -7.8619521    735.76245  0.014098307  0.012568531          636 
 4350000   0.55858883   -7.8621387     735.7958  0.014095705  0.012564099          352 
 4351000    0.5572005   -7.8761104    735.76771  0.014091927  0.012559668          736 
 4352000   0.55515156   -7.8731365    736.07266  0.014094529  0.012555241          768 
 4353000   0.56021785   -7.8959176    733.96377  0.014050918  0.012550817          863 
 4354000   0.55897844   -7.8785735    734.23318  0.014052848  0.012546391          683 
 4355000   0.55021848   -7.8734121    735.17643   0.01406767  0.012541969          536 
 4356000   0.55169969   -7.8750596    736.14777  0.014083023  0.012537541          757 
 4357000   0.56441961   -7.8731734     736.0113   0.01407718  0.012533122          793 
 4358000   0.56435069   -7.8617317    735.77927  0.014069513  0.012528705          818 
 4359000   0.55800729   -7.8792482    734.64382  0.014044579  0.012524294          756 
 4360000   0.55325683     -7.88926     736.0524   0.01406828  0.012519882          750 
 4361000   0.53906799   -7.8869408    734.39396  0.014033363  0.012515471          719 
 4362000   0.57465924   -7.8658357    736.25754  0.014065749  0.012511067          588 
 4363000    0.5507938   -7.8728513    735.41823  0.014046494  0.012506665          678 
 4364000   0.55912343   -7.8752551    735.91428  0.014052748  0.012502261          367 
 4365000   0.54738963   -7.8574829     735.5143  0.014041892  0.012497863          716 
 4366000   0.56708728   -7.8840173    734.04659  0.014010662  0.012493465          759 
 4367000   0.55130837   -7.8931699     734.1694  0.014009797  0.012489062          822 
 4368000   0.55417334   -7.8888202    735.56298  0.014033177  0.012484667          689 
 4369000   0.56441607   -7.8859379    735.70415  0.014032657  0.012480269          824 
 4370000   0.56198703   -7.8875406      735.018  0.014016362  0.012475872          787 
 4371000    0.5537804   -7.8847651    735.89319   0.01402984  0.012471482          807 
 4372000   0.55625104   -7.8605856    736.16217  0.014031758   0.01246709          704 
 4373000   0.55920703   -7.8995918     735.6011  0.014017858  0.012462698          759 
 4374000   0.55135777   -7.8759927    735.55176  0.014013713  0.012458308          705 
 4375000   0.54966037   -7.8696222    735.19865  0.014003784  0.012453922          798 
 4376000   0.56189758    -7.872994    733.85508  0.013974998  0.012449544          802 
 4377000   0.56581334   -7.8806685    736.12859   0.01401509  0.012445162          707 
 4378000   0.54987454   -7.8911662     734.6652  0.013984034  0.012440781          781 
 4379000   0.55434368   -7.8672689    734.65226  0.013980594  0.012436406          690 
 4380000   0.56107524   -7.9087756    734.77417  0.013979722  0.012432026          759 
 4381000   0.54726504   -7.8731545    735.65758  0.013993335   0.01242765          710 
 4382000   0.55657858   -7.8750481    735.26802  0.013982733  0.012423273          830 
 4383000   0.56600636   -7.8952969    735.65763   0.01398695  0.012418897          767 
 4384000   0.56080578   -7.8923505    734.56918   0.01396307  0.012414525          742 
 4385000    0.5471246   -7.8924977    736.38817  0.013994454  0.012410154          726 
 4386000   0.54979792   -7.8665329    734.49471  0.013955288  0.012405784          331 
 4387000    0.5534052   -7.8780414    734.10004   0.01394461  0.012401417          711 
 4388000   0.54877363   -7.8923881    735.35444  0.013965255  0.012397045          648 
 4389000   0.54264531   -7.8789044    734.97357  0.013954841  0.012392677          744 
 4390000   0.55151697   -7.8824398     735.6667   0.01396482  0.012388313          326 
 4391000   0.55717508   -7.8986558    735.04017  0.013949749  0.012383953          824 
 4392000   0.54812016   -7.8877589    733.87634   0.01392449  0.012379594          777 
 4393000   0.54390249   -7.8752402    735.40917  0.013950398  0.012375244          807 
 4394000   0.55299582   -7.8979435    734.96594  0.013938817  0.012370879          793 
 4395000   0.54103562   -7.8910979    733.62378  0.013910197  0.012366523          771 
 4396000   0.54181576   -7.8700926    733.33429  0.013901545  0.012362169          727 
 4397000   0.53306257   -7.9009581    735.79949  0.013945104  0.012357812          757 
 4398000   0.54453832   -7.8926601    735.08045  0.013928309  0.012353459          640 
 4399000   0.54580265   -7.8942093    736.72066  0.013956215  0.012349118          654 
 4400000   0.54976227   -7.8898151     734.5997  0.013912873  0.012344771          692 
 4401000   0.54991564    -7.890037    733.54953  0.013889827  0.012340427          705 
 4402000   0.54493421   -7.8754355    734.38949  0.013902572  0.012336085          765 
 4403000    0.5472884   -7.8844106    735.69664  0.013924155  0.012331747          748 
 4404000   0.54691508   -7.8819019    734.69496  0.013902039   0.01232741          694 
 4405000   0.55038864   -7.9105598    735.53693  0.013914811  0.012323071          732 
 4406000   0.55344348   -7.8935775    734.87061  0.013899051  0.012318737          704 
 4407000   0.54445168   -7.8961162    733.71725  0.013874088    0.0123144          736 
 4408000   0.54981056   -7.8940645    734.45925  0.013884968  0.012310064          612 
 4409000   0.53642062    -7.909864    734.43764   0.01388141  0.012305731          720 
 4410000   0.53775234   -7.8724019    735.22733  0.013893185  0.012301404          709 
 4411000   0.54176769   -7.9131217    733.22687  0.013852242  0.012297077          680 
 4412000    0.5588307   -7.8901227    734.59603  0.013874963  0.012292748          611 
 4413000   0.53459725   -7.8982697    732.81765  0.013838236  0.012288419          741 
 4414000   0.53955622   -7.8953019    734.41303  0.013865221  0.012284093          367 
 4415000   0.55654472   -7.8882712    734.55949  0.013864845  0.012279773          723 
 4416000   0.54049439   -7.9127066    734.17373  0.013854426  0.012275454          770 
 4417000   0.54219567    -7.886152     734.2958  0.013853592  0.012271139          686 
 4418000   0.54387477   -7.9042931    732.99626  0.013825944  0.012266829          790 
 4419000   0.55575946   -7.8855629    735.51762  0.013870363  0.012262514          718 
 4420000   0.54439298   -7.8891087    736.03298  0.013876942  0.012258199          783 
 4421000    0.5393629   -7.9213653    733.63533  0.013828608  0.012253886          863 
 4422000   0.52865751   -7.8970108    734.42989  0.013840455  0.012249578          655 
 4423000    0.5403416   -7.8740395    734.31478  0.013835157  0.012245266          779 
 4424000    0.5407024   -7.8973119    735.23504  0.013849364  0.012240965          698 
 4425000   0.53571776   -7.9080865    735.31108  0.013847666  0.012236663          759 
 4426000   0.52970442   -7.8976351    734.12831  0.013822268  0.012232363          725 
 4427000   0.54439722   -7.9067503     733.4858  0.013807051  0.012228065          727 
 4428000   0.54669261   -7.8957567    736.13542  0.013853798  0.012223767          774 
 4429000   0.54346524    -7.904217    733.73085  0.013805427   0.01221948          600 
 4430000   0.54861586    -7.897645    734.34944  0.013813947   0.01221519          821 
 4431000    0.5425548   -7.9102111    733.79304  0.013800366  0.012210896          739 
 4432000   0.55199391   -7.8916003    734.35498  0.013807818  0.012206607          819 
 4433000   0.55318529   -7.8992471     734.7551  0.013812225  0.012202316          648 
 4434000   0.54909313   -7.9086727    734.29621  0.013800485  0.012198028          659 
 4435000   0.55226599   -7.9128122    735.02076  0.013810988  0.012193743          773 
 4436000   0.53784721   -7.9282992    734.96288  0.013806787  0.012189455          697 
 4437000   0.53575413   -7.9033917    735.01279  0.013804613  0.012185172          694 
 4438000   0.53918979   -7.9117914    733.77039  0.013778173  0.012180897          693 
 4439000   0.53890269   -7.9103944    734.76285  0.013793701  0.012176618          695 
 4440000   0.53834666   -7.9013372    734.66061  0.013788675   0.01217234          660 
 4441000   0.53152499   -7.8929755    734.91533   0.01379035  0.012168068          644 
 4442000    0.5357853   -7.9025494    734.16139  0.013773101  0.012163795          742 
 4443000   0.52556974   -7.9100701    734.07344  0.013768352  0.012159525          740 
 4444000   0.53952307   -7.8999052     734.9046  0.013780839  0.012155257          757 
 4445000   0.52849673    -7.891556     734.4296  0.013768834  0.012150994          723 
 4446000   0.53443075   -7.9006395    734.99539  0.013776342   0.01214673          784 
 4447000   0.54899376   -7.9013497    733.97232  0.013754072  0.012142467          831 
 4448000   0.53946751   -7.9154396    734.73647  0.013765297  0.012138205          759 
 4449000   0.54410769   -7.9170894    735.17226  0.013770365  0.012133942          781 
 4450000   0.54573264   -7.9209964    732.74569  0.013721829  0.012129682          720 
 4451000   0.52934064   -7.8950592      733.728  0.013737138  0.012125423          724 
 4452000   0.53526255   -7.9039693    733.76922  0.013734824  0.012121172          697 
 4453000   0.54514496   -7.8987854    734.16522   0.01373915  0.012116919          726 
 4454000   0.52926816   -7.8978995    735.20477  0.013755515   0.01211267          732 
 4455000   0.53908945   -7.9043515    733.92327  0.013728456   0.01210842          749 
 4456000   0.54319433   -7.9102248    733.96021  0.013726066  0.012104171          648 
 4457000    0.5415182   -7.8946014    734.41241  0.013731441  0.012099925          751 
 4458000   0.54311094   -7.9142643    734.78446  0.013735316  0.012095678          715 
 4459000   0.53368477   -7.9089438    733.03168  0.013699478  0.012091437          882 
 4460000   0.54543652   -7.9263921    734.56448  0.013725046  0.012087192          673 
 4461000   0.53837827   -7.9029748    733.56065  0.013703218  0.012082952          766 
 4462000   0.54524584    -7.901528    733.57026  0.013700326  0.012078714          646 
 4463000   0.54127398   -7.9190478    734.47706  0.013714188  0.012074475          791 
 4464000   0.53651456   -7.9251732    732.74134  0.013678714  0.012070237          682 
 4465000   0.54007367   -7.9110871     733.8528  0.013696394  0.012066003          814 
 4466000   0.54226571    -7.919497    733.58059  0.013688248  0.012061772          778 
 4467000   0.53793254    -7.908042    735.05174  0.013712629  0.012057546          795 
 4468000   0.55113807   -7.8907753    734.14804  0.013692704  0.012053317          726 
 4469000   0.53202034   -7.9080661     733.7747  0.013682679  0.012049095          820 
 4470000   0.52888801   -7.9125166    733.06126  0.013666317   0.01204487          756 
 4471000   0.52209792   -7.9185708    733.56662   0.01367268  0.012040646          804 
 4472000   0.53964811   -7.9020528    734.03656   0.01367838  0.012036422          753 
 4473000   0.53646171   -7.9075547    734.65313  0.013686808    0.0120322          718 
 4474000   0.54288525    -7.919683    734.74702  0.013685498  0.012027983          722 
 4475000   0.52148311   -7.9098049    734.95451  0.013686304  0.012023762          823 
 4476000   0.53313161   -7.9189093    732.72872  0.013641807  0.012019552          766 
 4477000   0.53458248   -7.9179529    732.53393  0.013635134  0.012015345          795 
 4478000   0.52987878   -7.9284184    734.45745  0.013667885  0.012011138          749 
 4479000   0.53537174   -7.9088258    733.16243  0.013640739  0.012006928          830 
 4480000   0.53672941   -7.9225777    734.82837  0.013668683  0.012002722          858 
 4481000   0.53399411   -7.9162761    734.13841  0.013652801  0.011998514          817 
 4482000   0.54029704   -7.9080708    734.12997  0.013649598  0.011994308          653 
 4483000   0.52443005   -7.9253304    733.20178  0.013629299   0.01199011          641 
 4484000   0.53910909   -7.9135998    734.26269  0.013645976  0.011985909          747 
 4485000   0.54576584   -7.9077963    734.10046  0.013639919  0.011981717          760 
 4486000   0.53047781    -7.906704    732.38385  0.013604991  0.011977524          671 
 4487000   0.52169741   -7.9138289    734.06421  0.013633166  0.011973327          707 
 4488000    0.5279177   -7.9289517    732.51664  0.013601393  0.011969137          712 
 4489000    0.5473612   -7.9190245    734.17663  0.013629179  0.011964946          733 
 4490000   0.52694226   -7.9306545    733.73371  0.013617923  0.011960759          814 
 4491000   0.53415525   -7.9074243    733.35357  0.013607837  0.011956573          739 
 4492000   0.52450756   -7.9245604     733.2067  0.013602083  0.011952391          758 
 4493000   0.52497331   -7.9237527    733.74094  0.013608965  0.011948206          761 
 4494000   0.51549903   -7.9146705    733.61427  0.013603587  0.011944024          879 
 4495000   0.52951049   -7.9250732    733.56737  0.013599692  0.011939844          713 
 4496000   0.53154527   -7.9200856    733.15659  0.013589053  0.011935668          719 
 4497000   0.51588052   -7.9312719    734.79751  0.013616439  0.011931485          740 
 4498000   0.53652731   -7.9270451    733.23838  0.013584526  0.011927309          834 
 4499000   0.52487531   -7.9312867    733.49084  0.013586183  0.011923134          737 
 4500000   0.53734714   -7.9168581    733.16702  0.013577167  0.011918959          794 
 4501000   0.51780718   -7.9191161    733.69984  0.013584015  0.011914786          858 
 4502000   0.54080125    -7.935692    732.85993  0.013565451  0.011910618          817 
 4503000   0.52385245   -7.9235694    734.06239  0.013584692  0.011906451          642 
 4504000   0.53595879   -7.9133496    734.08141  0.013582027  0.011902288          786 
 4505000    0.5313503   -7.9226833     734.7978  0.013592264  0.011898123          802 
 4506000   0.52905462   -7.9196781    732.61865  0.013548947  0.011893962          813 
 4507000   0.53027538   -7.9346652    732.68807  0.013547224  0.011889803          740 
 4508000   0.52352782   -7.9014752    734.92699  0.013585607  0.011885649          859 
 4509000   0.53039894   -7.9049143    732.26465   0.01353339  0.011881493          775 
 4510000   0.53348182   -7.9215338    733.72853  0.013557438  0.011877337          731 
 4511000   0.53262945   -7.9178849     733.1123  0.013543049  0.011873184          745 
 4512000   0.53383078   -7.9227433    732.98875  0.013537765  0.011869033          888 
 4513000   0.52459714    -7.919727    733.37935  0.013541978  0.011864884          770 
 4514000   0.52871177   -7.9024661    734.26025   0.01355524  0.011860741          824 
 4515000    0.5278593   -7.9085118    733.39213  0.013536215  0.011856595          999 
 4516000   0.52709606   -7.9205731      733.725   0.01353936  0.011852452          769 
 4517000   0.52327695   -7.9189089     733.7444  0.013536721  0.011848312          838 
 4518000   0.53401962   -7.9396081    733.27853  0.013525132  0.011844177          747 
 4519000   0.52817365   -7.9337351    733.23177  0.013521276  0.011840038          754 
 4520000   0.51239248   -7.9212237    733.26935  0.013518978  0.011835901          914 
 4521000   0.51837689    -7.942959    732.68222  0.013505165  0.011831766          728 
 4522000   0.53943081   -7.9413336    732.91479  0.013506464   0.01182763          833 
 4523000   0.51929605   -7.9171551     733.7886  0.013519578  0.011823497          780 
 4524000   0.52898422   -7.9221036    732.22272  0.013487745  0.011819369          800 
 4525000    0.5301215   -7.9274943    733.24174  0.013503531  0.011815239          826 
 4526000    0.5264601   -7.9295001    732.93093  0.013494825  0.011811113          846 
 4527000   0.53116637   -7.9389714    733.61498  0.013504436  0.011806984          660 
 4528000   0.52550527    -7.921003    734.38264  0.013515582  0.011802862          892 
 4529000   0.52699796   -7.9380538    732.89596  0.013485243   0.01179874          860 
 4530000   0.53117034   -7.9211386    733.24073  0.013488608  0.011794619          835 
 4531000   0.52108348   -7.9059159    733.66264  0.013493391  0.011790499          803 
 4532000   0.54424037   -7.9270688    733.78555  0.013492673  0.011786384          708 
 4533000   0.53249948    -7.931748     732.7907  0.013471408  0.011782273          837 
 4534000   0.51366054   -7.9207044     732.1306  0.013456304  0.011778161          830 
 4535000   0.52261607   -7.9320156    733.53599  0.013479162  0.011774046          794 
 4536000   0.52284098   -7.9225332    733.79774  0.013480999  0.011769934          870 
 4537000   0.51276469   -7.9274642    733.70668  0.013476355  0.011765824          817 
 4538000   0.53342659   -7.9439722    732.58521  0.013452791  0.011761719          895 
 4539000   0.51497981   -7.9295394    734.41755  0.013483468  0.011757615          805 
 4540000   0.52083631   -7.9302647    732.72895  0.013449503   0.01175351          782 
 4541000    0.5110962   -7.9219729    732.24123  0.013437591  0.011749406          805 
 4542000   0.51823882   -7.9262004    733.49165  0.013457575  0.011745302          705 
 4543000   0.51976787   -7.9217478    732.62534  0.013438722  0.011741202          829 
 4544000   0.51010897   -7.9305824    734.26662  0.013465864  0.011737108          682 
 4545000   0.53976441   -7.9372159    732.91705  0.013438156  0.011733014          758 
 4546000   0.51822314   -7.9354531    731.45413  0.013408383  0.011728922          744 
 4547000   0.53435298   -7.9296681    731.18232  0.013400453  0.011724826          772 
 4548000   0.53049161   -7.9383502    732.80643  0.013427265  0.011720737          814 
 4549000    0.5247239   -7.9252625    735.07153  0.013465808  0.011716646          577 
 4550000   0.53370039   -7.9345833    732.68221  0.013419088   0.01171256          805 
 4551000   0.53021151   -7.9329262    733.36361  0.013428617  0.011708475          833 
 4552000   0.53223865   -7.9385206    733.07237  0.013420335  0.011704393          735 
 4553000   0.52291928   -7.9280777    732.99177  0.013415912  0.011700312          777 
 4554000   0.53062677   -7.9270937        731.7  0.013389328  0.011696234          792 
 4555000   0.53181939   -7.9247006    733.63118  0.013421719  0.011692155          740 
 4556000   0.53087315   -7.9440476    732.28226  0.013394101  0.011688082          872 
 4557000   0.50655014   -7.9171591    733.31754  0.013410093  0.011684008          801 
 4558000   0.53328198   -7.9434262     734.0494  0.013420532  0.011679937          756 
 4559000   0.52608224   -7.9308889    732.94625  0.013397424  0.011675865          715 
 4560000   0.51917115   -7.9368158    733.47554  0.013404158  0.011671796          833 
 4561000   0.52085302   -7.9366877    733.21998   0.01339655  0.011667728          863 
 4562000   0.53171337   -7.9468994    733.79208  0.013404064  0.011663662          824 
 4563000   0.51860546    -7.942979    732.62357  0.013379786  0.011659597          760 
 4564000   0.51482601   -7.9321829       733.16  0.013386649  0.011655538          945 
 4565000   0.52091379   -7.9168124    735.16721  0.013420358  0.011651479          771 
 4566000   0.52005966   -7.9268535    733.64817  0.013389695  0.011647424          857 
 4567000   0.51157511     -7.93537    733.35635  0.013381438  0.011643373          751 
 4568000   0.52141328   -7.9316405    731.51757  0.013344964  0.011639321          833 
 4569000   0.53199041   -7.9256739    733.07071  0.013370371  0.011635268          847 
 4570000    0.5190995   -7.9369664    732.99437  0.013366053  0.011631219          730 
 4571000   0.52592226   -7.9285892    732.92158  0.013361802  0.011627173          686 
 4572000   0.52257869   -7.9331329    734.02375  0.013378969  0.011623131          743 
 4573000   0.52202603   -7.9256192    732.26249  0.013343948  0.011619087          779 
 4574000   0.51709484   -7.9466128    733.45552  0.013362766  0.011615045          880 
 4575000   0.52412082   -7.9537623    733.38955  0.013358644  0.011611003          869 
 4576000      0.50837   -7.9515851    733.23575  0.013352924  0.011606966          659 
 4577000   0.51867468   -7.9402095     733.6346  0.013357268  0.011602927          816 
 4578000    0.5176894   -7.9285384    733.40058  0.013350091  0.011598894          811 
 4579000   0.51969523   -7.9252454    734.56827  0.013368426  0.011594859          811 
 4580000   0.52595232   -7.9288154    733.02263  0.013337384  0.011590833          756 
 4581000   0.51443204   -7.9282197    731.98844   0.01331566  0.011586804          774 
 4582000   0.52119151   -7.9291641    733.21715    0.0133351  0.011582775          913 
 4583000   0.52940791   -7.9372163    733.37924  0.013335138  0.011578744          866 
 4584000    0.5231154    -7.935325    733.29964  0.013330782  0.011574718          624 
 4585000   0.53045285   -7.9384792    733.62005  0.013333698  0.011570697          636 
 4586000   0.51647479   -7.9352464    732.78578  0.013315631  0.011566675          739 
 4587000   0.51349147   -7.9327447    733.50428  0.013325781  0.011562656          840 
 4588000   0.51544353   -7.9375077    732.08682  0.013297131  0.011558639          743 
 4589000   0.51557251   -7.9464592    732.09468  0.013294376  0.011554628          842 
 4590000   0.51586748   -7.9516331    732.84782  0.013305153  0.011550611          818 
 4591000    0.5145462   -7.9540917    732.29775   0.01329227  0.011546595          735 
 4592000   0.52922838   -7.9472746    732.91749  0.013300622  0.011542588          815 
 4593000   0.50924502    -7.941982    732.06211  0.013282207  0.011538575          801 
 4594000   0.52696266   -7.9438804    732.47718  0.013286845  0.011534566          834 
 4595000   0.52721584   -7.9370102    731.94235  0.013274254  0.011530561          761 
 4596000   0.52584528     -7.93504    733.17202  0.013293662  0.011526553          771 
 4597000    0.5128135   -7.9489681    732.45352  0.013277745  0.011522555          590 
 4598000   0.51266247   -7.9350217    732.63137   0.01327808  0.011518561          673 
 4599000   0.51441054   -7.9367489     731.0437  0.013246425  0.011514564          819 
 4600000   0.51426902   -7.9472314    731.86547  0.013258432  0.011510572          726 
 4601000   0.51303183   -7.9384728     732.2244  0.013262052  0.011506577          811 
 4602000   0.51108162   -7.9467003    732.40896  0.013262512  0.011502583          793 
 4603000   0.52458622   -7.9402168    732.51271  0.013261509  0.011498594          799 
 4604000   0.51381701   -7.9508033     731.9889  0.013249147  0.011494599          824 
 4605000   0.51559109   -7.9642639    731.72778  0.013241545  0.011490609          648 
 4606000   0.51558054   -7.9607776    731.32633  0.013231407  0.011486615          790 
 4607000   0.51060063     -7.95507    732.05233  0.013241667  0.011482627          796 
 4608000    0.5268619   -7.9541387    733.53934  0.013265685  0.011478642          790 
 4609000   0.51700399   -7.9445545    731.87463  0.013232708   0.01147466          783 
 4610000   0.51379756   -7.9487195    732.36855  0.013238766  0.011470677          725 
 4611000   0.51516852   -7.9547696     732.7785  0.013243304  0.011466702          775 
 4612000   0.51569792   -7.9532595    732.70916   0.01323918  0.011462726          764 
 4613000   0.50782374   -7.9484635    732.05828  0.013224552   0.01145875          800 
 4614000   0.52309075   -7.9598836    732.09019  0.013222262  0.011454773          758 
 4615000   0.50418489   -7.9409479    733.12483  0.013238079  0.011450797          841 
 4616000    0.5167513   -7.9439166    733.40321  0.013240237  0.011446828          650 
 4617000   0.51770858   -7.9298135    733.09028  0.013231721  0.011442863          722 
 4618000   0.52303571   -7.9412168    731.21546  0.013195024  0.011438896          770 
 4619000   0.50193727    -7.963578    731.01054   0.01318847  0.011434932          779 
 4620000   0.51306119   -7.9566992    733.00962  0.013221674  0.011430965          705 
 4621000   0.50904945   -7.9596962    732.75306  0.013214186  0.011427002          755 
 4622000   0.51883018   -7.9430295    731.63739  0.013191212  0.011423041          912 
 4623000   0.51263354   -7.9688566    732.01346  0.013195138  0.011419083          819 
 4624000   0.51482479   -7.9682818    732.45727  0.013200282  0.011415123          893 
 4625000   0.50886654   -7.9633985    732.25496  0.013193783  0.011411166          708 
 4626000   0.50252518   -7.9597869    731.89195  0.013184392  0.011407208          672 
 4627000   0.50697353   -7.9501803    731.96418  0.013182843  0.011403253          860 
 4628000   0.52022686   -7.9481158    732.42293  0.013188255  0.011399301          747 
 4629000   0.50972481   -7.9636157    730.81845  0.013156521  0.011395348          759 
 4630000   0.50558482   -7.9526219    731.43088  0.013164703  0.011391403          648 
 4631000   0.50043168   -7.9489902     732.1691  0.013175144  0.011387453          823 
 4632000   0.50789134   -7.9435862    732.22167  0.013173245  0.011383508          850 
 4633000   0.50302598   -7.9603133    730.87811  0.013146235  0.011379564          853 
 4634000   0.52501708   -7.9647176    731.36345  0.013152126  0.011375618          786 
 4635000    0.5000172    -7.968291    730.75817  0.013138407  0.011371676          842 
 4636000   0.50385246   -7.9430172    733.32462  0.013181705  0.011367739          895 
 4637000   0.50097102   -7.9467074    732.72274  0.013168046  0.011363804          866 
 4638000   0.51567357   -7.9640917    732.95876  0.013169447  0.011359872          832 
 4639000   0.51116799   -7.9587388    731.58983  0.013142018  0.011355939          777 
 4640000   0.48930115   -7.9481192    732.07413  0.013147883  0.011352011          802 
 4641000   0.50433805     -7.95142    732.37391  0.013150433  0.011348084          737 
 4642000   0.50253071   -7.9517339    734.04203  0.013177546  0.011344159          758 
 4643000   0.50699567   -7.9665138    731.28243  0.013125178  0.011340236          837 
 4644000   0.50322827   -7.9522087     732.1774  0.013138412   0.01133631          816 
 4645000   0.51441848   -7.9438965    732.14267   0.01313496  0.011332387          802 
 4646000   0.50187803   -7.9742359    731.84196  0.013126739  0.011328464          820 
 4647000   0.51964556   -7.9627333    731.57647  0.013119153  0.011324543          837 
 4648000   0.51304766   -7.9612885    731.84469   0.01312114  0.011320625          842 
 4649000    0.5000774    -7.968169    730.81045  0.013099779  0.011316707          660 
 4650000   0.51396231   -7.9515427    732.11322  0.013120309   0.01131279          917 
 4651000    0.4975893   -7.9540401    731.52363  0.013106924  0.011308879          784 
 4652000   0.50603553   -7.9565318     731.6291  0.013105996   0.01130497          806 
 4653000     0.509454   -7.9668444    732.80172   0.01312418  0.011301061          868 
 4654000    0.5058144   -7.9685101    731.75232   0.01310257  0.011297153          837 
 4655000   0.51782058   -7.9572765     732.3856  0.013111092   0.01129325          811 
 4656000   0.50083487   -7.9756138    730.86787  0.013081112  0.011289343          883 
 4657000   0.49700858   -7.9625347    731.23203  0.013084819  0.011285439          957 
 4658000   0.50527334   -7.9633436    731.30293  0.013083278  0.011281536          812 
 4659000   0.50415322   -7.9628432    732.81096  0.013107444  0.011277635          767 
 4660000   0.50478199   -7.9465949    732.29073  0.013095328  0.011273737          906 
 4661000   0.50906519   -7.9773185     732.8005  0.013101632  0.011269836          760 
 4662000   0.51227687   -7.9732604    731.66652  0.013078552  0.011265936          866 
 4663000    0.5083772   -7.9722456    731.68608  0.013076097  0.011262043          818 
 4664000    0.5047101   -7.9634434    731.57423  0.013071295   0.01125815          802 
 4665000   0.51496868   -7.9591763    733.03105  0.013094517  0.011254261          779 
 4666000   0.50520508   -7.9598069    732.18096  0.013076528  0.011250369          799 
 4667000   0.50144038   -7.9626244    732.54882  0.013080295  0.011246482          779 
 4668000   0.50808677   -7.9813332    729.80481  0.013028506  0.011242596          718 
 4669000   0.50585273   -7.9746204    730.89011  0.013045087  0.011238712          852 
 4670000   0.49876443   -7.9635721     731.6869  0.013056511  0.011234826          838 
 4671000    0.5042121   -7.9555237    731.96752  0.013058723  0.011230944          853 
 4672000   0.50548729   -7.9575532    732.34833   0.01306272  0.011227064          756 
 4673000   0.50163065   -7.9645322    732.05972  0.013054778  0.011223191          829 
 4674000   0.50603925   -7.9662258    731.37785  0.013039828  0.011219319          779 
 4675000   0.49882812   -7.9494539    730.76074  0.013026038  0.011215445          801 
 4676000   0.49991769   -7.9652292    732.85011  0.013060488  0.011211573          964 
 4677000   0.50177803    -7.968562     731.2354  0.013028925  0.011207703          778 
 4678000   0.48841305   -7.9640854    732.31873  0.013045438  0.011203834          913 
 4679000   0.50573817   -7.9768848    731.92521  0.013035642  0.011199968          761 
 4680000   0.50589976   -7.9562799    731.53215  0.013025857  0.011196103          797 
 4681000   0.49093695   -7.9621119    732.69481  0.013043773  0.011192244          795 
 4682000   0.50360169   -7.9693607    732.03564  0.013029255  0.011188383          874 
 4683000   0.51022439    -7.962849    731.85707  0.013023295   0.01118452          907 
 4684000   0.50579396   -7.9651657    732.41626  0.013030463  0.011180665          787 
 4685000   0.50365536   -7.9772859    730.84074  0.012999658  0.011176807          801 
 4686000   0.49469583    -7.969658    730.72122  0.012994758  0.011172952          812 
 4687000    0.5065061   -7.9619997    732.20005  0.013018278  0.011169094          876 
 4688000   0.50101992    -7.973415    730.94053  0.012993112  0.011165239          837 
 4689000   0.49458202   -7.9688034    730.64818  0.012985146  0.011161384          856 
 4690000   0.49658052   -7.9576113    730.95376  0.012987807  0.011157537          806 
 4691000   0.49399746   -7.9654035    730.89082   0.01298392  0.011153691          848 
 4692000   0.51766832   -7.9727413    731.23084  0.012987192  0.011149844          778 
 4693000   0.49828496    -7.990046    731.92234  0.012996703     0.011146          756 
 4694000    0.5011306   -7.9742109    732.23182  0.012999429  0.011142159          783 
 4695000   0.50421109   -7.9667687    731.41193  0.012982107  0.011138316          801 
 4696000   0.49111303   -7.9781925    730.65361  0.012965886  0.011134476          876 
 4697000   0.49819456   -7.9642143    730.29257   0.01295672  0.011130636          772 
 4698000   0.49457187   -7.9772724    730.49307  0.012957519  0.011126795          781 
 4699000   0.48924575   -7.9813855    731.62432  0.012974823  0.011122963          933 
 4700000   0.49494003   -7.9774008    731.81973  0.012975527  0.011119128          787 
 4701000    0.5083896   -7.9645635    730.09289  0.012942156  0.011115297          850 
 4702000   0.49707894   -7.9760036    732.68281  0.012985304  0.011111464          848 
 4703000   0.50579429   -7.9796845    731.15896  0.012955542  0.011107635          955 
 4704000   0.49665843   -7.9755292    731.24312  0.012954279  0.011103807          756 
 4705000   0.50121719   -7.9775505    731.73299  0.012960202  0.011099984          881 
 4706000   0.50040166   -7.9644657    732.08978  0.012963766  0.011096157          793 
 4707000   0.49422645   -7.9663526    731.10531  0.012943582  0.011092334          921 
 4708000   0.50281963   -7.9694054    732.79495   0.01297074  0.011088516          965 
 4709000   0.49138759   -7.9641562    730.63484  0.012929759  0.011084699          896 
 4710000   0.49697421   -7.9699894    732.08288  0.012952634  0.011080883          847 
 4711000   0.48973084   -7.9840721    730.96623  0.012930132  0.011077069          882 
 4712000   0.49117113   -7.9835343    732.24367   0.01294998  0.011073252          887 
 4713000    0.4983014   -7.9784407    731.37377  0.012931851  0.011069442          831 
 4714000   0.48811076   -7.9705674    731.74128  0.012935605  0.011065632          823 
 4715000   0.48789571   -7.9898865    731.02487  0.012920199  0.011061823          791 
 4716000   0.49271845   -7.9875058     730.8666  0.012914663  0.011058016          867 
 4717000    0.5085606   -7.9735464    731.31619  0.012919868  0.011054209          908 
 4718000   0.49537412   -7.9617326    730.25315  0.012898353  0.011050405          841 
 4719000   0.51078994   -7.9836398    731.83699  0.012923589  0.011046606          919 
 4720000   0.49497226   -7.9716156    730.31148  0.012893917  0.011042804          860 
 4721000   0.49005249   -7.9661131    729.53436  0.012877469  0.011039006          818 
 4722000   0.49592311   -7.9659238    730.89926  0.012898829  0.011035213          759 
 4723000   0.49598206   -7.9723404    732.77767  0.012929241  0.011031419          741 
 4724000   0.49671087   -7.9803487    730.33086  0.012883341  0.011027626          930 
 4725000   0.47970355    -7.972374     731.8593  0.012907571  0.011023838          922 
 4726000   0.50447831   -7.9758772    731.57572   0.01289984  0.011020051          813 
 4727000   0.49560579   -7.9806153    731.44801   0.01289486  0.011016265          766 
 4728000   0.50100236   -7.9781136    730.11802   0.01286869  0.011012478          882 
 4729000   0.49660536   -7.9881694    731.03898  0.012882198   0.01100869          957 
 4730000   0.48757528   -7.9721862    730.89699  0.012876973  0.011004909          913 
 4731000   0.50128669    -7.968505    731.20761  0.012879723  0.011001128          956 
 4732000   0.49595153   -7.9803187    731.56821  0.012883351  0.010997346          907 
 4733000    0.5086037   -7.9851332    730.05769  0.012854033  0.010993562          938 
 4734000   0.48966371   -7.9688855    731.81557  0.012882263  0.010989785          935 
 4735000   0.49648374   -7.9678165    732.00683  0.012882908  0.010986005          807 
 4736000   0.49611785   -7.9831047    731.81766  0.012876859  0.010982226          962 
 4737000    0.5125647   -7.9778054    731.23398  0.012863873  0.010978453          963 
 4738000   0.49194944   -8.0004289    730.51973  0.012848595  0.010974679          918 
 4739000   0.49758813   -7.9672771    731.10179  0.012856119  0.010970911          921 
 4740000   0.48715093   -7.9985764    730.09242  0.012835661  0.010967141          962 
 4741000   0.49206881   -7.9840436    731.44913  0.012856801  0.010963371          904 
 4742000   0.48157277   -7.9769895    731.01734  0.012846502  0.010959603          957 
 4743000   0.50031897    -7.994958    732.30867  0.012866482  0.010955838          962 
 4744000   0.49044381   -7.9714269    731.25388  0.012845241  0.010952075          854 
 4745000   0.49326145   -8.0077902    731.90676     0.012854  0.010948317          934 
 4746000   0.49052509   -7.9697184    731.15074  0.012838017  0.010944557          841 
 4747000   0.49812326   -7.9799624    729.64339  0.012808851  0.010940798          863 
 4748000    0.5020271    -8.009302    729.46412  0.012803007   0.01093704          913 
 4749000   0.49211609   -7.9812315    731.33557   0.01283315  0.010933286          914 
 4750000   0.48815395   -7.9677283    729.99366  0.012806906  0.010929537          885 
 4751000   0.49176954   -7.9751534    731.79288  0.012835769  0.010925783          868 
 4752000   0.48973278   -8.0132909    729.38528  0.012790847   0.01092203          943 
 4753000   0.48246319   -7.9874265    730.51866  0.012808028   0.01091828          993 
 4754000   0.49433207   -7.9875776    730.37745  0.012802858   0.01091453          924 
 4755000   0.48666048   -7.9888293    731.74734  0.012824174  0.010910786          975 
 4756000   0.48630323   -7.9869727    729.37082  0.012779836  0.010907039          997 
 4757000   0.48849281   -7.9959403    731.90538   0.01282155  0.010903299          952 
 4758000   0.49652277   -7.9855495     731.1605   0.01280581  0.010899559          881 
 4759000   0.49407654   -7.9783286    730.77213  0.012796318  0.010895818          913 
 4760000   0.48896013   -7.9864188    730.63361  0.012791205  0.010892078          979 
 4761000   0.48144202   -8.0046175    731.21629  0.012798717  0.010888345          931 
 4762000    0.5024384   -7.9911955    731.14045  0.012794702  0.010884607          902 
 4763000   0.48546009   -7.9988795    729.81172  0.012768768   0.01088087          894 
 4764000   0.48409173   -7.9924146    731.00196  0.012786908  0.010877136          861 
 4765000   0.48680601   -7.9893741    731.40286  0.012791236  0.010873407          934 
 4766000   0.48347327   -8.0190073      730.125  0.012766209  0.010869679          866 
 4767000   0.47865909   -7.9829782    730.78939  0.012775145  0.010865953          859 
 4768000   0.49722939   -7.9970059    730.34505    0.0127647   0.01086223          955 
 4769000   0.49750852   -7.9950023    731.47944  0.012781845  0.010858503          926 
 4770000   0.49730442   -8.0018001     729.5487  0.012745435  0.010854781          830 
 4771000   0.48847271   -7.9868497    730.14971  0.012753261  0.010851061          973 
 4772000    0.5019984   -8.0014196    730.83773  0.012762604  0.010847345          934 
 4773000   0.48823687   -7.9863499    730.41932  0.012752625  0.010843631          891 
 4774000   0.48205447   -8.0012092    730.45104  0.012750507  0.010839915          839 
 4775000   0.48842239   -7.9934743    731.94949  0.012773988  0.010836202          925 
 4776000   0.49413557   -7.9881419    730.81457   0.01275151  0.010832493          874 
 4777000   0.47905281   -7.9840886    731.03901  0.012752756  0.010828786          928 
 4778000   0.48474492    -7.981581    730.94155  0.012748388  0.010825079          898 
 4779000   0.48049875   -8.0019428    729.42972  0.012719358  0.010821374          960 
 4780000   0.48361231   -7.9982841    732.09591  0.012763178  0.010817672          863 
 4781000   0.48966712   -7.9846164    730.44264  0.012731692  0.010813968          857 
 4782000   0.48781552   -7.9787509    731.58996  0.012749023  0.010810267          793 
 4783000    0.4834575   -7.9955298    730.53112   0.01272791  0.010806567          755 
 4784000   0.48253551   -7.9887279    730.44769  0.012723796  0.010802872          856 
 4785000   0.47674136   -7.9845352    730.50516  0.012722138  0.010799174          811 
 4786000   0.47938906   -7.9922515    731.20626  0.012731687  0.010795476          824 
 4787000   0.47550337   -7.9963831    729.96745  0.012707462  0.010791784          886 
 4788000   0.48456509   -7.9857404    731.30179  0.012728032   0.01078809          805 
 4789000   0.48604384   -7.9922178    731.22912  0.012724109  0.010784398          975 
 4790000   0.48794688   -8.0018513    730.54797  0.012709603   0.01078071          886 
 4791000   0.48555039   -7.9859841    730.92471  0.012713503  0.010777024          905 
 4792000   0.48860641   -8.0016173    731.06498  0.012713289  0.010773344          907 
 4793000   0.49312482   -8.0095944    730.21458  0.012695851   0.01076966          786 
 4794000   0.48303568   -7.9695858    731.01011  0.012707032  0.010765983          819 
 4795000   0.46554272   -7.9935131    730.98805  0.012703998  0.010762304          793 
 4796000   0.49506116   -7.9757341    729.15931  0.012669574  0.010758624          898 
 4797000   0.48749324   -7.9695984    730.32194   0.01268713  0.010754948          801 
 4798000   0.48283792   -8.0007982    729.83823  0.012676084  0.010751273          908 
 4799000   0.48638631   -7.9763774    730.21423  0.012679972    0.0107476          880 
 4800000   0.48325755   -8.0132341    729.60127  0.012666689  0.010743925          849 
 4801000   0.48548725   -8.0001571    730.78432  0.012684585  0.010740253          813 
 4802000   0.48114897   -7.9877204    729.29417  0.012656084  0.010736584          823 
 4803000   0.47392773   -7.9991574    729.88358  0.012663675   0.01073292          958 
 4804000   0.46772624   -8.0044186    730.26808  0.012667709   0.01072925          849 
 4805000   0.49044807   -8.0055108    730.05853  0.012661438  0.010725591          959 
 4806000     0.477487    -7.992661    731.32035  0.012680683  0.010721932          908 
 4807000   0.49816463   -7.9787634    731.17214  0.012675476  0.010718273          941 
 4808000   0.47561842   -8.0010209    729.31866  0.012640714  0.010714616          862 
 4809000   0.49516851   -8.0000304    730.72725  0.012662495  0.010710959          912 
 4810000   0.48410991   -8.0004515    730.78747  0.012660906  0.010707301          904 
 4811000   0.48927248    -7.997085    730.96775  0.012661397  0.010703649          935 
 4812000   0.48388467   -7.9856448    728.74624  0.012620294  0.010699993          938 
 4813000   0.48195421   -8.0051262    730.66553  0.012650903  0.010696343          801 
 4814000   0.47679554   -7.9904949     731.0175  0.012654367  0.010692692          788 
 4815000   0.48339149   -8.0149484    731.01851  0.012651757  0.010689044          875 
 4816000   0.47778888   -7.9946924    731.40102  0.012655749  0.010685399          761 
 4817000   0.49311497   -8.0096705    730.06852  0.012630069  0.010681752          892 
 4818000   0.47532531   -7.9993585    729.76288  0.012622161  0.010678109          811 
 4819000   0.46817872   -8.0130439    730.11901    0.0126257  0.010674467          834 
 4820000    0.4808683   -7.9847544    730.25877  0.012625497  0.010670827          904 
 4821000   0.48059883   -8.0011355    729.63615  0.012612116  0.010667188          964 
 4822000   0.47902595   -7.9999976    729.72493  0.012611035  0.010663552          821 
 4823000   0.47338549    -8.008961    731.12218  0.012632562  0.010659914          911 
 4824000    0.4817174   -7.9981079    730.71708  0.012622946   0.01065628          952 
 4825000   0.48590286   -7.9903983    730.14024  0.012610367  0.010652647          875 
 4826000   0.47072791   -8.0115609    731.47272  0.012630763  0.010649018          913 
 4827000   0.48486806   -7.9937161    731.07777  0.012621327  0.010645391          791 
 4828000   0.48115243   -7.9939318    730.99757  0.012617329  0.010641765          734 
 4829000   0.47252889   -7.9958535    730.10853  0.012599374   0.01063814          905 
 4830000    0.4714187   -8.0133657    729.07917  0.012579006  0.010634516          871 
 4831000   0.49002708   -8.0213444    730.35932  0.012598484  0.010630891          787 
 4832000   0.48003572   -8.0074341    730.15334  0.012592324  0.010627273          889 
 4833000   0.48794992   -8.0005516    729.62285  0.012580572  0.010623653          888 
 4834000   0.48111221   -7.9946389    730.69773  0.012596499  0.010620034          944 
 4835000   0.48643532   -7.9949704    729.92312  0.012580543  0.010616415          829 
 4836000   0.48022931   -7.9975147    731.62071  0.012607194  0.010612802          878 
 4837000   0.47483078   -8.0237127    730.07192  0.012577905  0.010609188          817 
 4838000   0.46935405   -7.9834351    730.50564  0.012582776  0.010605573          917 
 4839000   0.48044149   -8.0091337     730.0043  0.012571542  0.010601961          966 
 4840000   0.48559767   -8.0131989    729.86305  0.012566513  0.010598354          944 
 4841000   0.46940099   -8.0184189    729.56709  0.012558822  0.010594743          875 
 4842000   0.46966838   -8.0096666    728.55043  0.012538731   0.01059114          756 
 4843000   0.47434445   -8.0169008    731.02707  0.012578758  0.010587532          877 
 4844000   0.47723184   -8.0211305    730.58437  0.012568545  0.010583932          877 
 4845000   0.47571473   -8.0136561    730.77524  0.012569234  0.010580333          853 
 4846000   0.48070319   -8.0031324     730.8852  0.012568531  0.010576733          864 
 4847000   0.47360598   -8.0130591    731.00016  0.012567914  0.010573136          868 
 4848000   0.47327967   -8.0071657    729.47868  0.012539169  0.010569541          909 
 4849000    0.4771692   -8.0011426    729.31106  0.012533702  0.010565945          850 
 4850000   0.47159598    -8.013905    729.69018  0.012537632  0.010562355          983 
 4851000   0.46267905   -8.0165545    730.46084  0.012548286  0.010558763          941 
 4852000   0.46936862   -7.9900929     730.2573  0.012542204  0.010555169          818 
 4853000   0.47960705   -7.9968597    730.08617  0.012536681   0.01055158          919 
 4854000    0.4791151   -8.0074087    729.93924  0.012531576  0.010547991          934 
 4855000    0.4731316   -8.0269472    730.41773  0.012537208  0.010544403          989 
 4856000   0.47013997   -8.0033761    729.45771  0.012518151  0.010540819          885 
 4857000   0.47491177   -8.0164206    730.36105  0.012531073  0.010537234          925 
 4858000   0.47364957   -8.0190058    729.51347  0.012513954  0.010533649          813 
 4859000   0.47782319   -8.0203564     729.5728  0.012512396  0.010530064          931 
 4860000   0.47203514   -8.0111178    729.20972  0.012503596  0.010526489          904 
 4861000   0.48090281   -8.0014564    730.80275  0.012528333  0.010522912          825 
 4862000   0.47425938   -8.0195667    729.89596  0.012510215  0.010519334          906 
 4863000   0.46983537   -8.0191264    730.12092  0.012511497  0.010515757          957 
 4864000   0.47422327   -8.0103778    730.57505  0.012516705  0.010512185          936 
 4865000   0.46977181   -8.0222952     729.7391  0.012499813  0.010508614          898 
 4866000   0.46827666   -8.0091378    729.17022  0.012487502  0.010505041          928 
 4867000   0.47408965   -8.0234183    729.23061   0.01248597  0.010501472          961 
 4868000   0.46164591   -8.0158146    730.39888  0.012503405  0.010497907          885 
 4869000   0.47385534   -8.0170776    729.63846  0.012487822  0.010494343          884 
 4870000   0.46815377   -8.0031485    730.17631  0.012494461  0.010490778          888 
 4871000   0.47388992   -8.0149447    729.32925  0.012477405  0.010487216          875 
 4872000   0.46340406   -8.0183484    728.03408   0.01245269  0.010483652          902 
 4873000   0.47172036   -8.0145043     728.8523  0.012464127  0.010480094          982 
 4874000   0.46781094   -8.0206694    729.90277   0.01247953  0.010476537          865 
 4875000   0.46814867   -8.0239161     731.1806  0.012498814  0.010472981          929 
 4876000   0.47355387   -8.0082907    730.24335  0.012480232  0.010469429          936 
 4877000    0.4678959   -8.0287672    729.64303  0.012467416  0.010465875          922 
 4878000   0.47072887   -8.0211429    729.39959  0.012460701  0.010462325          911 
 4879000   0.47651104    -8.006827    729.75907  0.012464287   0.01045877          936 
 4880000   0.48251923   -8.0130655    729.82153  0.012462799   0.01045522          974 
 4881000   0.46208655   -8.0064441    729.17835  0.012449265  0.010451674          945 
 4882000   0.47515266   -8.0166749    730.26096  0.012465195  0.010448129          887 
 4883000   0.47314346   -8.0119796    728.13299  0.012426326  0.010444584          884 
 4884000   0.48184844   -8.0023264     729.5698  0.012448297  0.010441042          864 
 4885000   0.47119108   -8.0122468    729.50021  0.012444562    0.0104375          876 
 4886000   0.46683672   -8.0091877    729.68154  0.012445107  0.010433958          772 
 4887000   0.46800974   -8.0244673    729.31867  0.012436373  0.010430421          881 
 4888000   0.47138296     -8.02734    729.86953   0.01244322  0.010426885          898 
 4889000   0.47133759   -8.0071626    730.02748  0.012443367  0.010423351          987 
 4890000   0.46032276     -8.02359    729.31883  0.012428746  0.010419816          857 
 4891000   0.46305154   -8.0172708    729.80596  0.012434505  0.010416284          977 
 4892000   0.46415639   -8.0154582    729.45317  0.012425953  0.010412757          877 
 4893000   0.45802597   -8.0384247    729.61869  0.012426233  0.010409227          966 
 4894000   0.47524235   -8.0122014    730.04501  0.012430953  0.010405697          901 
 4895000   0.46679263   -8.0178644    728.64951  0.012404656  0.010402171          938 
 4896000   0.47483484   -8.0039627    729.98262  0.012424813  0.010398654          918 
 4897000   0.46770315   -8.0093432    729.44266  0.012413087  0.010395133          925 
 4898000   0.47185919   -8.0156748    730.42096  0.012427198  0.010391611          842 
 4899000   0.47259702   -8.0160706    729.83912  0.012414764   0.01038809          827 
 4900000   0.47430954   -8.0122511    728.78604   0.01239432  0.010384572          932 
 4901000   0.47263998   -8.0268151    730.43055  0.012419754  0.010381058          835 
 4902000   0.47419946    -8.007548    729.78161  0.012406188  0.010377543          933 
 4903000   0.46368801   -8.0224184    728.90087  0.012388688  0.010374031          891 
 4904000   0.46608798   -8.0156503    729.80265  0.012401486  0.010370519          869 
 4905000   0.47490835   -8.0042544      728.786  0.012381685   0.01036701          960 
 4906000   0.47570012   -8.0182543    728.49265  0.012374179  0.010363502          894 
 4907000   0.46827803   -8.0215572    728.86045  0.012377903  0.010359997          937 
 4908000   0.46073744   -8.0231445    729.41142  0.012384736  0.010356493          942 
 4909000   0.46942014   -8.0194676    729.43577  0.012382627   0.01035299          967 
 4910000   0.46607032   -8.0140472    729.07207  0.012373932  0.010349486          881 
 4911000   0.47491891   -8.0316192    729.16099  0.012372921  0.010345985          831 
 4912000   0.47345516   -8.0371402     729.6509  0.012378714  0.010342484          897 
 4913000   0.47050345    -8.020625    728.64153  0.012359073  0.010338984          846 
 4914000   0.46688476   -8.0211894    729.82889  0.012376694  0.010335483          783 
 4915000   0.46052274   -8.0450425    728.57993     0.012353  0.010331988          948 
 4916000   0.46145015   -8.0347083    728.80938  0.012354377   0.01032849          910 
 4917000   0.47265452   -8.0210308     729.2039   0.01235855  0.010324996          905 
 4918000    0.4698592   -8.0280971    729.94211  0.012368546  0.010321498          865 
 4919000   0.46815043   -8.0248696    729.40756  0.012356976  0.010318006          858 
 4920000   0.46953118   -8.0169668    728.89029  0.012345703  0.010314517          840 
 4921000   0.45398289    -8.042858    728.67037   0.01233947  0.010311027          860 
 4922000   0.46501123   -8.0206563    728.92406  0.012341258  0.010307536          856 
 4923000   0.46576394   -8.0287074    728.29676  0.012328133  0.010304052          925 
 4924000   0.47156237   -8.0520499    728.10379  0.012322363  0.010300566          822 
 4925000   0.46151895   -8.0254828    729.82104  0.012348918  0.010297081          922 
 4926000   0.47484376   -8.0279022    730.26484  0.012353919    0.0102936          899 
 4927000   0.45975522   -8.0273078    729.15235  0.012332595  0.010290119         1019 
 4928000   0.45767294   -8.0212698    728.06854  0.012311765   0.01028664          947 
 4929000   0.46385737   -8.0224071    728.88379   0.01232305  0.010283163          843 
 4930000   0.46409883   -8.0356616    728.90199  0.012320859  0.010279689          836 
 4931000   0.45980177   -8.0381953    730.22003  0.012340635  0.010276215          925 
 4932000   0.46419384   -8.0238331    728.73743  0.012313082  0.010272742          876 
 4933000   0.45624746   -8.0295943     730.0308  0.012332435  0.010269271          816 
 4934000    0.4651679   -8.0453705    729.18007  0.012315567  0.010265804          847 
 4935000   0.46066233   -8.0295213    728.38166  0.012299589  0.010262335          823 
 4936000   0.46771717   -8.0292658    730.42017  0.012331513  0.010258868          866 
 4937000   0.46499377   -8.0140726    729.56921  0.012314651  0.010255404          815 
 4938000   0.45030576    -8.047224    728.46266  0.012293484  0.010251938          871 
 4939000   0.46783988   -8.0257998    729.00275  0.012300107  0.010248477          822 
 4940000   0.46708906   -8.0287389    727.61698  0.012274241  0.010245015          856 
 4941000   0.46437109   -8.0413541     728.5366  0.012287266  0.010241556          926 
 4942000   0.46181462   -8.0315185     728.7393  0.012288198  0.010238095          970 
 4943000   0.45691602   -8.0175995    728.47805  0.012281308  0.010234638          934 
 4944000   0.46035508   -8.0319614     728.4706  0.012278698  0.010231183          892 
 4945000   0.46466494   -8.0415748    728.45999  0.012276036  0.010227727          898 
 4946000   0.46892776   -8.0402311    728.33795  0.012271498  0.010224278          948 
 4947000   0.47026932   -8.0420714    728.79823  0.012276771  0.010220824          946 
 4948000   0.46196058   -8.0477118    728.39559  0.012267509  0.010217372          924 
 4949000   0.45216252     -8.04036     728.8671  0.012272969  0.010213923          909 
 4950000   0.45976473   -8.0357515    727.93233  0.012254753  0.010210477          920 
 4951000   0.46192456   -8.0373056    728.55557  0.012262768   0.01020703          929 
 4952000   0.45161275   -8.0302854     729.8739  0.012282477  0.010203588          908 
 4953000   0.45556807   -8.0425645     727.8005  0.012245112  0.010200144          911 
 4954000   0.45715167   -8.0342385    729.12691  0.012264953  0.010196705          818 
 4955000   0.46118996   -8.0373295    728.42216  0.012250625  0.010193266          920 
 4956000   0.46261585   -8.0420827    728.97319  0.012257418  0.010189828          866 
 4957000   0.46161814   -8.0434212    728.01467  0.012238832  0.010186392          869 
 4958000   0.45862591   -8.0344254    727.87043  0.012233939  0.010182954          937 
 4959000   0.46823403   -8.0359444    728.85506  0.012248018   0.01017952          853 
 4960000   0.45573198   -8.0429368    728.50236  0.012239623  0.010176088          912 
 4961000   0.46786518   -8.0479918    728.99017   0.01224535  0.010172656          962 
 4962000   0.46112508    -8.043245    728.08935  0.012227753  0.010169226          850 
 4963000   0.46166029   -8.0455085    728.62333  0.012234256  0.010165796          713 
 4964000   0.45959895   -8.0237334    728.32933  0.012226856  0.010162368          795 
 4965000   0.45173345   -8.0468361    728.65573  0.012229871  0.010158942          881 
 4966000   0.46550042   -8.0184334    729.27423  0.012237787  0.010155518          898 
 4967000   0.45357373   -8.0351164    730.25375  0.012251757  0.010152098          909 
 4968000   0.45647339   -8.0388713     728.1273  0.012213622  0.010148678          913 
 4969000   0.45139113   -8.0413358     728.8938  0.012224019   0.01014526          864 
 4970000   0.45526019   -8.0321381    727.99068  0.012206416  0.010141844          968 
 4971000   0.45771447   -8.0371948    728.08283  0.012205506   0.01013843          794 
 4972000   0.46128661   -8.0446927    728.84656  0.012215851  0.010135013          860 
 4973000     0.452001   -8.0525716      728.789   0.01221243    0.0101316          908 
 4974000   0.45326167   -8.0446748    729.23117  0.012217383   0.01012819          894 
 4975000   0.45326058   -8.0443592    728.85738  0.012208666  0.010124784          908 
 4976000   0.46375858   -8.0283253     727.4589  0.012182792  0.010121375          908 
 4977000   0.44957714   -8.0418495    728.14646  0.012191857  0.010117969          913 
 4978000   0.44608223   -8.0440661    728.77508  0.012199931  0.010114563          917 
 4979000   0.45880578   -8.0334391    729.17918  0.012204244  0.010111159          968 
 4980000   0.45747259   -8.0294234    728.21523  0.012185663  0.010107754          947 
 4981000    0.4627668   -8.0364218    729.10935  0.012198175  0.010104352          939 
 4982000   0.45045632   -8.0392018    729.07387  0.012195134  0.010100951          947 
 4983000   0.45229199     -8.03866    728.41393   0.01218165  0.010097552          960 
 4984000   0.45165735   -8.0484107     728.0431  0.012173005  0.010094151          946 
 4985000    0.4457287   -8.0337416    728.88037   0.01218456  0.010090754          941 
 4986000   0.45177466   -8.0397894    727.66022  0.012161723  0.010087355          803 
 4987000   0.45049083   -8.0315101    728.34167  0.012170672   0.01008396          835 
 4988000   0.45291751   -8.0457874    729.07608  0.012180501  0.010080568         1022 
 4989000   0.45442446   -8.0381161    728.22623  0.012163864  0.010077177          881 
 4990000   0.45228685   -8.0353352    727.26896   0.01214544  0.010073787          899 
 4991000   0.45596174   -8.0423369    727.54078  0.012147545  0.010070401          931 
 4992000   0.45458314   -8.0377006    728.63778  0.012163424  0.010067016          864 
 4993000   0.46079333   -8.0436224    728.83668  0.012164308  0.010063636          893 
 4994000   0.45901728   -8.0469598     727.9841  0.012147645  0.010060255          855 
 4995000   0.46449692   -8.0281829    727.90059   0.01214382  0.010056876          879 
 4996000    0.4326625   -8.0478973    727.57269   0.01213592  0.010053496          943 
 4997000   0.44352235   -8.0590454    728.99782  0.012157258  0.010050117          954 
 4998000   0.45015053   -8.0505199    728.09632  0.012139795  0.010046739          973 
 4999000   0.45398949   -8.0487885    728.29887  0.012140743  0.010043361          865 
 5000000   0.44746957    -8.036395    729.47035  0.012157839  0.010039986          850 
 5001000   0.44309203    -8.053311    729.35124  0.012153423  0.010036611          949 
 5002000   0.46196813   -8.0446942     728.9169  0.012143758  0.010033241          888 
 5003000   0.45247364   -8.0438359    728.81791  0.012139681  0.010029873          908 
 5004000    0.4491522   -8.0375006    729.25741  0.012144575  0.010026504          839 
 5005000   0.45012609   -8.0557718    728.66585  0.012132299  0.010023138          940 
 5006000   0.45225262   -8.0379317    727.90139  0.012117149  0.010019773          926 
 5007000    0.4464804   -8.0432533    727.31609  0.012104988  0.010016406          908 
 5008000   0.44891007   -8.0500926    728.22195  0.012117644  0.010013041          958 
 5009000   0.44223193   -8.0528716    728.32402  0.012116923   0.01000968          996 
 5010000   0.42970546   -8.0381352     728.8592  0.012123406  0.010006317          904 
 5011000   0.44763886   -8.0551944    726.98549  0.012089827  0.010002955          968 
 5012000   0.45616043   -8.0467897    727.96739  0.012103741 0.0099995985          870 
Loop time of 13125 on 48 procs for 5000000 steps with 4000 atoms

Performance: 65828.808 tau/day, 380.954 timesteps/s
99.4% CPU use with 48 MPI tasks x no OpenMP threads

MPI task timing breakdown:
Section |  min time  |  avg time  |  max time  |%varavg| %total
---------------------------------------------------------------
Pair    | 962.9      | 1078.6     | 1173.7     | 142.1 |  8.22
Neigh   | 92.079     | 95.322     | 99.263     |  18.1 |  0.73
Comm    | 822.9      | 923.77     | 1030.2     | 147.9 |  7.04
Output  | 16.452     | 16.458     | 16.557     |   0.4 |  0.13
Modify  | 10865      | 10892      | 10921      |  13.1 | 82.99
Other   |            | 118.5      |            |       |  0.90

Nlocal:        83.3333 ave          91 max          77 min
Histogram: 3 3 5 5 7 16 3 5 0 1
Nghost:        2439.50 ave        2453 max        2426 min
Histogram: 3 3 6 2 7 9 7 8 1 2
Neighs:        16890.4 ave       18943 max       14993 min
Histogram: 2 8 5 6 6 3 5 5 6 2
FullNghs:      33779.8 ave       36921 max       31036 min
Histogram: 3 3 5 5 7 15 4 5 0 1

Total # of neighbors = 1621430
Ave neighs/atom = 405.35750
Neighbor list builds = 266854
Dangerous builds = 0

#clear
#
#next RN
#
#jump SELF
Total wall time: 3:38:48
