
units lj                  # Use reduced LJ style units
atom_style atomic         # Uncharged point particles
atom_modify map hash      # Needed for indexing of clusters etc
                          # Used to be able to find where atoms are in relation to each other.

lattice fcc 1.0 spacing 1 1 1
Lattice spacing in x,y,z = 1.5874011 1.5874011 1.5874011
region box block 0 10 0 10 0 10 units lattice
create_box 2 box
Created orthogonal box = (0.0000000 0.0000000 0.0000000) to (15.874011 15.874011 15.874011)
  3 by 4 by 4 MPI processor grid
create_atoms 1 box
Created 4000 atoms
  using lattice units in orthogonal box = (0.0000000 0.0000000 0.0000000) to (15.874011 15.874011 15.874011)
  create_atoms CPU = 0.003 seconds
set type 1 type/fraction 2 0.42 78393
Setting atom values ...
  1685 settings made for type/fraction
mass 1 1.0
mass 2 1.0
pair_style lj/cut  3.5
pair_modify tail  yes
pair_coeff 1  1  1.0  1.0   # Intearaction between 1 and 1 set with epsilon = 1 and sigma = 1
pair_coeff 1  2  1.5  0.8
pair_coeff 2  2  0.5  0.88

write_data data.0
System init for write_data ...
Neighbor list info ...
  update every 1 steps, delay 10 steps, check yes
  max neighbors/atom: 2000, page size: 100000
  master list distance cutoff = 3.8
  ghost atom cutoff = 3.8
  binsize = 1.9, bins = 9 9 9
  1 neighbor lists, perpetual/occasional/extra = 1 0 0
  (1) pair lj/cut, perpetual
      attributes: half, newton on
      pair build: half/bin/atomonly/newton
      stencil: half/bin/3d
      bin: standard
WARNING: Not all mixed pair coeffs generated from mixing. Use write_data with 'pair ij' option to store all pair coeffs. (../write_data.cpp:312)


#############################
#   M E L T   S Y S T E M   #
#############################

velocity all create 2.4 5300450 mom yes dist gaussian # Assign velocities
                                                    # Temperature 2.4, random number seed, zero linear momentum
                                                                                # Gaussian distribution

timestep 0.002   # simulation timestep
thermo 1000       # output thermodynamic data every 1000 steps bf 100

# Define a fix  in this case with index 1 applied to all
# particles in the simulation. This fix is for simulations
# in the anisotropic NPT ensemble. Note that we use the MTK
# correction.
fix 1 all npt temp 2.4 2.4 0.1 iso 5.68 5.68 0.5 mtk yes tchain 5 pchain 5 # Use NPT ensemble
                                                                         # Set temperature and pressure and damping
                                                                         # Numbers of thermostats in chain and in barostat
run 10000          # run for 10000 steps
Per MPI rank memory allocation (min/avg/max) = 3.642 | 3.644 | 3.648 Mbytes
Step Temp E_pair E_mol TotEng Press Volume 
       0          2.4   -5.7538232            0   -2.1547232    -4.186528         4000 
    1000    2.4053248      -4.9291            0   -1.3220148    6.0508169    3858.3242 
    2000    2.4170456   -5.0656753            0   -1.4410134    5.6725901    3821.3549 
    3000    2.3913371   -5.0567605            0   -1.4706515    5.4389138    3848.5018 
    4000    2.4051609   -4.9794373            0   -1.3725978    6.2005662    3824.1546 
    5000    2.3874985   -5.0100641            0   -1.4297117    5.4384043    3868.0251 
    6000    2.4027578   -5.0219614            0   -1.4187257    5.6550818     3849.369 
    7000    2.3958267   -4.9862182            0   -1.3933766     5.756551    3863.5661 
    8000    2.3757319   -4.9891726            0   -1.4264656    5.9053536    3841.2992 
    9000    2.4716273   -5.0007032            0   -1.2941892     5.788063    3850.5858 
   10000    2.3482055   -4.9671345            0   -1.4457067    5.7009851    3866.9668 
Loop time of 2.61799 on 48 procs for 10000 steps with 4000 atoms

Performance: 660048.142 tau/day, 3819.723 timesteps/s
99.5% CPU use with 48 MPI tasks x no OpenMP threads

MPI task timing breakdown:
Section |  min time  |  avg time  |  max time  |%varavg| %total
---------------------------------------------------------------
Pair    | 1.1039     | 1.1914     | 1.2808     |   2.8 | 45.51
Neigh   | 0.20994    | 0.21815    | 0.25542    |   1.5 |  8.33
Comm    | 0.78059    | 0.86291    | 0.99824    |   5.7 | 32.96
Output  | 0.00024368 | 0.00025329 | 0.00039687 |   0.0 |  0.01
Modify  | 0.28319    | 0.3301     | 0.38186    |   6.4 | 12.61
Other   |            | 0.01515    |            |       |  0.58

Nlocal:        83.3333 ave          94 max          74 min
Histogram: 1 3 5 9 7 7 8 5 2 1
Nghost:        1680.06 ave        1704 max        1654 min
Histogram: 2 3 3 4 6 12 10 4 0 4
Neighs:        9871.12 ave       11113 max        8686 min
Histogram: 4 2 7 3 7 9 7 5 2 2

Total # of neighbors = 473814
Ave neighs/atom = 118.45350
Neighbor list builds = 907
Dangerous builds = 213

# Equilibrate just above the melting temperature to avoid step fn in T

fix 1 all npt temp 1.25 1.25 0.1 iso 5.68 5.68 0.5 mtk yes tchain 5 pchain 5
run 2000
Per MPI rank memory allocation (min/avg/max) = 3.643 | 3.645 | 3.649 Mbytes
Step Temp E_pair E_mol TotEng Press Volume 
   10000    2.3482055   -4.9671345            0   -1.4457067    5.7009851    3866.9668 
   11000    1.2339345   -7.0265252            0   -5.1760862    5.5309311    3053.4461 
   12000    1.2338974   -7.1358909            0   -5.2855075    5.3320503    3030.8084 
Loop time of 0.602923 on 48 procs for 2000 steps with 4000 atoms

Performance: 573207.851 tau/day, 3317.175 timesteps/s
99.6% CPU use with 48 MPI tasks x no OpenMP threads

MPI task timing breakdown:
Section |  min time  |  avg time  |  max time  |%varavg| %total
---------------------------------------------------------------
Pair    | 0.26624    | 0.29449    | 0.32603    |   2.3 | 48.84
Neigh   | 0.039106   | 0.041539   | 0.045659   |   0.6 |  6.89
Comm    | 0.18576    | 0.22074    | 0.25181    |   3.0 | 36.61
Output  | 4.9268e-05 | 5.0588e-05 | 6.6455e-05 |   0.0 |  0.01
Modify  | 0.038224   | 0.041489   | 0.0445     |   0.8 |  6.88
Other   |            | 0.004618   |            |       |  0.77

Nlocal:        83.3333 ave          93 max          74 min
Histogram: 1 2 4 9 9 9 9 3 1 1
Nghost:        1986.02 ave        2012 max        1954 min
Histogram: 1 1 1 7 8 12 6 9 1 2
Neighs:        12634.5 ave       15107 max       10735 min
Histogram: 3 1 5 9 14 9 5 1 0 1

Total # of neighbors = 606454
Ave neighs/atom = 151.61350
Neighbor list builds = 143
Dangerous builds = 10

#############################
# L I N E A R  Q U E N C H  #
#############################

# Define solid atoms. This closely follows ten Wolde  Ruiz-Montero and Frenkel  Faraday Discuss  1996  104  93-110
# Compute components of the per-atom q6 vector
compute q6 all orientorder/atom degrees 1 6 components 6 nnn NULL cutoff 1.3 # compute the Q6 parameter.
                                                                             # Use all neighbours within 1.3 unit cell.

# get number of connections
compute coord_number all coord/atom orientorder q6 0.5

# An atom is solid if it has 8 or more connections (of a possible 14)
variable is_solid atom c_coord_number>=8
group solid dynamic all var is_solid    # Must be dynamic to update
dynamic group solid defined

# do clustering
compute cluster solid cluster/atom 1.3 # Create a cluster where all atoms within are solid and max 1.3 units from another member

# define chunks one chunk per cluster
compute clus_chunks solid chunk/atom c_cluster nchunk every compress yes  # Says which atoms are in which chunk

# count the size of each chunk
compute size_chunks solid property/chunk clus_chunks count


# Find the maximum entry in the vector of chunk sizes
variable max_n equal max(c_size_chunks)


# Thermo style which includes this variable
# thermo_style custom step temp pe vol v_max_n

thermo ${N}  # Print the thermo information every 100 steps
thermo 1000  

# Reset the npt fix at a lower temperature (below freezing)
fix 1  all npt temp  ${temp} ${temp}  0.1  iso  5.68  5.68  0.5  mtk yes tchain  5  pchain  5
fix 1  all npt temp  0.45 ${temp}  0.1  iso  5.68  5.68  0.5  mtk yes tchain  5  pchain  5
fix 1  all npt temp  0.45 0.45  0.1  iso  5.68  5.68  0.5  mtk yes tchain  5  pchain  5

dump dmp2 all dcd ${N} traj.dcd
dump dmp2 all dcd 1000 traj.dcd


compute msd all msd com yes
variable twopoint equal c_msd[4]/6/(step*dt+1.0e-6)
fix 9 all vector 10 c_msd[4]
variable fit equal slope(f_9)/6/(10*dt)
thermo_style custom step temp pe c_msd[4] v_twopoint v_fit v_max_n

fix 1 all npt temp 1.25 ${temp} 0.1 iso 5.68 5.68 0.5 mtk yes tchain 5 pchain 5
fix 1 all npt temp 1.25 0.45 0.1 iso 5.68 5.68 0.5 mtk yes tchain 5 pchain 5
run 500000 # 5000000  # Run for this many steps
Neighbor list info ...
  update every 1 steps, delay 10 steps, check yes
  max neighbors/atom: 2000, page size: 100000
  master list distance cutoff = 3.8
  ghost atom cutoff = 3.8
  binsize = 1.9, bins = 8 8 8
  4 neighbor lists, perpetual/occasional/extra = 1 3 0
  (1) pair lj/cut, perpetual
      attributes: half, newton on
      pair build: half/bin/atomonly/newton
      stencil: half/bin/3d
      bin: standard
  (2) compute orientorder/atom, occasional
      attributes: full, newton on
      pair build: full/bin/atomonly
      stencil: full/bin/3d
      bin: standard
  (3) compute coord/atom, occasional
      attributes: full, newton on
      pair build: full/bin/atomonly
      stencil: full/bin/3d
      bin: standard
  (4) compute cluster/atom, occasional
      attributes: full, newton on
      pair build: full/bin/atomonly
      stencil: full/bin/3d
      bin: standard
Per MPI rank memory allocation (min/avg/max) = 9.828 | 9.834 | 9.838 Mbytes
Step Temp PotEng c_msd[4] v_twopoint v_fit v_max_n 
   12000    1.2338974   -7.1358909 1.0637789e-30 7.3873534e-33 8.3333333e+20            1 
   13000    1.2484298   -7.1040606   0.46793293   0.00299957  0.037907021            1 
   14000     1.267327   -7.1111717   0.92301414 0.0054941316  0.037331323            1 
   15000    1.2525616   -7.1508304    1.3497108 0.0074983931  0.036831695            1 
   16000    1.2600464   -7.1167237    1.7532188 0.0091313475  0.036040756            1 
   17000    1.2353812   -7.1308036    2.1743913  0.010658781  0.035672926            1 
   18000    1.2311078   -7.1472358    2.5557107  0.011831994  0.035326684            2 
   19000    1.2288118   -7.1949265    3.0041974  0.013176304  0.035055769            1 
   20000    1.1933676   -7.1375594    3.3809969  0.014087487  0.035003697            1 
   21000    1.2381331   -7.1166548    3.8197532   0.01515775  0.034833987            2 
   22000    1.2430699   -7.1778916    4.2104333   0.01594861  0.034698205            1 
   23000    1.2516739   -7.1147386    4.6371979  0.016801441  0.034546044            1 
   24000    1.2472695   -7.1936823    5.0567854  0.017558282  0.034581451            1 
   25000    1.2155341   -7.1762632    5.5274172  0.018424724  0.034648794            1 
   26000    1.1976652    -7.195202    5.9701313  0.019135036   0.03477685            1 
   27000    1.2229154   -7.1774109    6.3100503  0.019475463  0.034797452            2 
   28000    1.2319809   -7.1659062    6.7391101  0.020056875  0.034749202            1 
   29000    1.2507545    -7.177953    7.0920999  0.020379597  0.034709607            1 
   30000     1.204804   -7.1719703    7.5524508   0.02097903  0.034643596            1 
   31000    1.2321051   -7.1879257    7.9193286  0.021288517  0.034583084            1 
   32000     1.221429   -7.1769595    8.2241388  0.021417028  0.034431118            2 
   33000    1.2040984   -7.1858905    8.5790036   0.02166415  0.034251466            1 
   34000    1.2136324   -7.2019116    8.8425946  0.021673026  0.034044258            3 
   35000    1.2211144   -7.2232649    9.1883607  0.021877049  0.033784045            1 
   36000    1.1951617   -7.2382329       9.5527  0.022112731  0.033525721            2 
   37000    1.1861953   -7.2195244    10.075193  0.022691876  0.033365265            1 
   38000    1.2320587   -7.2083688      10.5323  0.023097148  0.033309877            2 
   39000    1.2275855   -7.2505595    10.857648  0.023200101  0.033249765            2 
   40000    1.2031484   -7.2600885    11.326881  0.023597669  0.033188967            1 
   41000     1.178109   -7.2309429    11.773156  0.023929179  0.033206349            1 
   42000    1.2091014   -7.2493699    12.100885  0.024009692  0.033182399            3 
   43000    1.2215546   -7.2631159    12.297051  0.023831494  0.033117492            1 
   44000    1.2014615   -7.2780296    12.635689   0.02393123  0.032997071            1 
   45000    1.1884317   -7.2343688    13.003167  0.024079939  0.032877332            3 
   46000    1.1784173   -7.2309339    13.266474  0.024033468  0.032727898            1 
   47000    1.1752246   -7.2531169    13.608526  0.024128591  0.032573667            4 
   48000    1.2117185   -7.3204703    13.959719  0.024235623  0.032436933            1 
   49000    1.1861084    -7.273612     14.29655   0.02431386   0.03230688            1 
   50000    1.1734862   -7.2745203    14.551295  0.024252158  0.032153288            4 
   51000    1.2226607   -7.2648152    14.920489  0.024379885    0.0319989            2 
   52000     1.173518   -7.2314746    15.361351  0.024617549  0.031882761            1 
   53000    1.1802729   -7.2891788    15.647714  0.024603323  0.031767671            1 
   54000    1.1526712    -7.257011    15.946578  0.024608916  0.031648864            2 
   55000     1.197809   -7.2608086    16.167763   0.02449661  0.031511657            1 
   56000    1.1745328   -7.2888677    16.536397  0.024607734  0.031369416            2 
   57000    1.1830345   -7.2795929    16.801219  0.024563186  0.031221189            1 
   58000    1.1596089   -7.3054162    17.113998  0.024589077  0.031086536            3 
   59000    1.1591024   -7.2996266    17.564857   0.02480912  0.030972197            1 
   60000    1.2010882   -7.2626786     18.07733  0.025107403   0.03088999            2 
   61000    1.1576219   -7.3138432    18.482609  0.025249466  0.030834965            2 
   62000    1.1881036   -7.3022949    18.755103  0.025208471  0.030780648            2 
   63000    1.1655134   -7.2939773    19.075771  0.025232501  0.030725652            1 
   64000    1.1732828   -7.3196346    19.320849  0.025157356  0.030660476            1 
   65000    1.1719972   -7.3466782     19.63756  0.025176358  0.030575142            1 
   66000    1.1395068   -7.3896355    19.909686  0.025138493  0.030490944            1 
   67000    1.1678589   -7.3358551    20.057804  0.024947517  0.030407587            2 
   68000    1.1711667    -7.344582    20.342344  0.024929343  0.030298308            2 
   69000    1.1798632   -7.3165158    20.651966  0.024941987  0.030188682            2 
   70000    1.1442246   -7.3137018    21.062502  0.025074407  0.030087887            2 
   71000    1.1875723   -7.3534644    21.480121   0.02521141  0.030000276            1 
   72000    1.1274858   -7.3758742    21.775496   0.02520312  0.029925821            2 
   73000    1.1743191   -7.3948765    21.957657  0.025065818  0.029844104            1 
   74000    1.1439397   -7.3594749    22.161576  0.024956729   0.02975346            1 
   75000    1.1731384   -7.3488419    22.516331  0.025018145  0.029655401            1 
   76000    1.1296463   -7.3510092    22.630274  0.024813897  0.029546625            2 
   77000    1.1683222   -7.3563321     22.92815  0.024814015  0.029433658            2 
   78000    1.1598673   -7.3868048    23.167809  0.024751932  0.029324519            2 
   79000    1.1168985   -7.3400912    23.646248    0.0249433  0.029221795            1 
   80000    1.1398271    -7.349495    23.888201  0.024883543  0.029130032            2 
   81000    1.1246139    -7.407171    24.328788  0.025029617  0.029049411            2 
   82000    1.1262652   -7.3728318    24.619176  0.025019488  0.028974503            2 
   83000    1.1569151   -7.3743734    24.827712  0.024927422  0.028891166            3 
   84000     1.139215   -7.4036432    24.970097  0.024771922  0.028802662            1 
   85000    1.1271909   -7.4335118    25.189542   0.02469563  0.028709974            4 
   86000     1.133772    -7.385552    25.420453  0.024632222  0.028611261            1 
   87000    1.1287541   -7.4344053    25.561063  0.024483777   0.02850192            1 
   88000    1.1496868   -7.4124882    25.901217  0.024527667  0.028396517            2 
   89000    1.1515931    -7.383846     26.23506  0.024564662  0.028297486            3 
   90000    1.1252241    -7.420895    26.479435  0.024517995   0.02819502            5 
   91000    1.1301803   -7.4441113    26.768786   0.02451354  0.028097491            1 
   92000    1.1220346   -7.4565673    27.089182  0.024537302  0.028003879            1 
   93000    1.1108874   -7.4764738    27.323481  0.024483406  0.027915057            1 
   94000    1.1188974   -7.4376182    27.628674  0.024493505  0.027830441            2 
   95000    1.1054719   -7.4098527    27.937175  0.024506294  0.027749648            1 
   96000    1.1276083   -7.4786977     28.09943  0.024391866   0.02766709            1 
   97000    1.1113276   -7.4508106    28.247038  0.024267214  0.027577933            2 
   98000    1.1292421   -7.4307313    28.580895  0.024303482  0.027489397            1 
   99000    1.0960432   -7.4317531    28.820026  0.024259281  0.027403328            2 
  100000    1.0902934   -7.4683057    29.029596   0.02419133  0.027317342            3 
  101000    1.1243246   -7.4926387    29.198534    0.0240912  0.027226098            2 
  102000    1.1035633   -7.4760994    29.442299  0.024054166  0.027131726            2 
  103000    1.1213942   -7.4904562    29.755426  0.024073969  0.027042262            2 
  104000    1.1148238   -7.4738331    29.941362  0.023991476  0.026954753            2 
  105000    1.1212619   -7.4801297     30.28843  0.024038436  0.026868575            2 
  106000    1.0933456   -7.4805163    30.477384  0.023960207  0.026780892            2 
  107000    1.1114005   -7.5241411    30.630959  0.023855887  0.026694889            1 
  108000    1.1008765   -7.5089232     30.84653  0.023801335  0.026607119            2 
  109000    1.1008835     -7.46263    31.357444  0.023973581  0.026526641            3 
  110000    1.0898754   -7.5031139    31.592403  0.023933639  0.026451536            2 
  111000    1.0900603   -7.5309511    31.624634  0.023742217  0.026376506            3 
  112000    1.1104011    -7.563011    31.920089  0.023750066  0.026296941            2 
  113000    1.0720025   -7.5013588    32.026267  0.023618191  0.026219165            2 
  114000    1.0901593    -7.494436    32.289798  0.023603653  0.026138374            1 
  115000    1.0796757   -7.4998365    32.528874  0.023571648   0.02605474            2 
  116000    1.0766379   -7.4962649    32.858445  0.023605204  0.025975587            1 
  117000    1.0737231   -7.5272495    32.981571  0.023491147  0.025896559            3 
  118000    1.0932979   -7.5332463    33.259314  0.023488216  0.025815226            4 
  119000    1.0892871   -7.4833678    33.602432  0.023531115  0.025741814            3 
  120000    1.0881894   -7.5360551    33.700217  0.023402928  0.025666342            2 
  121000    1.0801632   -7.5457751     33.81668  0.023289725  0.025589248            1 
  122000    1.0958457   -7.5412191     33.95783  0.023195239  0.025513457            4 
  123000    1.0763444   -7.5566078    34.250834  0.023205172  0.025436181            2 
  124000    1.0772248   -7.5725882      34.5286  0.023204704   0.02535868            5 
  125000    1.0765688   -7.5794792    34.657813  0.023105209  0.025282285            4 
  126000    1.0715714   -7.5824919    34.956013  0.023119056  0.025209557            1 
  127000    1.0388413   -7.5374504    35.324284  0.023178664  0.025137434            4 
  128000    1.0677705   -7.5988666    35.498308  0.023110878  0.025067637            3 
  129000    1.0661505   -7.5522355    35.552454  0.022966701  0.024994556            3 
  130000    1.0786789   -7.5448156    36.006152  0.023080867  0.024925826            6 
  131000    1.0687432   -7.6212117    36.139564  0.022989545  0.024860076            2 
  132000    1.0672212   -7.5891159    36.319342  0.022928877  0.024793321            2 
  133000    1.0617738   -7.6194946    36.607107  0.022936784  0.024727709            2 
  134000    1.0520055   -7.6033824    36.892014  0.022942794  0.024665142            1 
  135000    1.0644051   -7.5722889    37.067471  0.022881155  0.024603021            2 
  136000    1.0414082    -7.564836    37.316335  0.022865401  0.024539545            1 
  137000    1.0320516   -7.5983956    37.372009  0.022732365  0.024475617            4 
  138000    1.0564033   -7.5748912    37.610365  0.022711573  0.024409733            2 
  139000    1.0509432   -7.6274617    37.707822  0.022606608  0.024340136            3 
  140000     1.058701    -7.622664    37.941525  0.022584241  0.024271724            1 
  141000    1.0537668   -7.6670679    37.996049  0.022456293  0.024203388            3 
  142000    1.0489917   -7.6044945    38.330707  0.022494546  0.024134997            2 
  143000    1.0676763   -7.6302379    38.544309  0.022461718  0.024066899            1 
  144000    1.0505899   -7.6266405    38.922801  0.022524769  0.024004526            2 
  145000    1.0599358   -7.6288117    39.231866  0.022547049  0.023945557            1 
  146000    1.0519214   -7.6548132    39.472133  0.022529756  0.023886674            1 
  147000     1.037748    -7.600119    39.624889  0.022463089    0.0238285            2 
  148000    1.0377382   -7.6288639    39.620351  0.022308756  0.023766637            2 
  149000    1.0203456   -7.6246853    39.712943  0.022210818  0.023703696            2 
  150000    1.0386684   -7.6277423    40.036425  0.022242458  0.023641024            3 
  151000    1.0309605   -7.6630025    40.398191  0.022294807  0.023583661            3 
  152000    1.0275592   -7.6125841    40.367993  0.022131575  0.023524996            2 
  153000    1.0066688   -7.6367656    40.583417  0.022104257  0.023464997            2 
  154000    1.0336976   -7.7050725    40.622911  0.021982095  0.023403612            2 
  155000     1.026486   -7.7206674    40.887231  0.021982382  0.023340962            2 
  156000    1.0486741   -7.6923732    41.063331   0.02193554  0.023278669            2 
  157000    1.0356669   -7.6848342    41.180242  0.021857878  0.023216395            2 
  158000    1.0212448   -7.6763848    41.319312  0.021792886  0.023155255            2 
  159000    1.0080848   -7.6725265    41.618338  0.021812546  0.023094012            3 
  160000    1.0190823   -7.7144435    41.734218  0.021736572  0.023032467            2 
  161000    1.0315377   -7.6905242    41.826565   0.02164936  0.022968848            4 
  162000   0.99863804   -7.7106392    42.031704  0.021621247  0.022904856            2 
  163000    1.0065845   -7.6718064    41.976311  0.021460282  0.022837818            2 
  164000    1.0301433   -7.6785734    42.245674  0.021466298  0.022771392            2 
  165000   0.99710598   -7.7268353    42.236685  0.021331659  0.022703637            2 
  166000   0.99814281   -7.7308579    42.183743  0.021176578  0.022633666            2 
  167000    1.0102251   -7.7232849    42.416974  0.021166155   0.02256321            3 
  168000    1.0485728   -7.7239899    42.531173  0.021096812  0.022494298            1 
  169000   0.97336562   -7.7255989    42.763131  0.021086356  0.022426053            4 
  170000   0.99811603   -7.7527483    42.983355  0.021070272  0.022358728            1 
  171000    1.0223776   -7.7409431    43.089877  0.020998965  0.022292406            1 
  172000   0.99230254   -7.7656846    43.326666  0.020991602  0.022226208            1 
  173000    1.0027221    -7.746342    43.560407  0.020982855  0.022160173            1 
  174000    1.0043539   -7.7477213    43.568292   0.02086604  0.022095233            2 
  175000   0.98737799    -7.772713    43.847447  0.020879737  0.022030351            2 
  176000   0.99301738    -7.779279    44.054352  0.020859068   0.02196691            4 
  177000   0.97315581   -7.7984969    44.001915  0.020716532  0.021902773            2 
  178000    0.9869064   -7.7436541    44.400251  0.020786634  0.021838787            3 
  179000   0.96831009   -7.7622591    44.436848  0.020687546  0.021775966            2 
  180000   0.98253281    -7.787203     44.43905  0.020573634  0.021712502            1 
  181000   0.99580294   -7.8227238    44.481501  0.020479512  0.021647837            2 
  182000   0.96839193   -7.8216726      44.5941  0.020418544   0.02158175            2 
  183000    0.9613799   -7.8197612    44.885163   0.02043951  0.021516672            1 
  184000   0.98525961   -7.8240589    45.010132  0.020385023  0.021452159            4 
  185000   0.98255016   -7.8531737    45.092207  0.020311805  0.021387006            2 
  186000   0.96875971   -7.8471997    45.057175  0.020186906  0.021321546            5 
  187000   0.97592556   -7.8211475    45.395242  0.020229609  0.021256179            2 
  188000    0.9783711   -7.8385766    45.427823  0.020136446  0.021190781            2 
  189000   0.95590612   -7.8105841    45.699994  0.020149909  0.021126057            3 
  190000   0.96168309   -7.8201877    45.556916  0.019981104  0.021061461            2 
  191000   0.94708815   -7.8499768    45.832202  0.019996598  0.020996566            1 
  192000   0.97630343   -7.8314251     46.01895  0.019973503  0.020932941            3 
  193000   0.95737377   -7.8375599    46.122686  0.019914804  0.020870715            1 
  194000   0.92272953   -7.8431571    46.331591  0.019901886  0.020809279            5 
  195000   0.94514671   -7.8520145    46.399618  0.019828896   0.02074753            2 
  196000   0.95639431   -7.8558927     46.54181  0.019788184  0.020684151            3 
  197000   0.96157588   -7.8408579    46.717141  0.019761904  0.020621402            1 
  198000   0.94163689   -7.8788426    46.815928  0.019703673  0.020559553            4 
  199000   0.95106086   -7.8840617    46.927681  0.019651458  0.020497822            3 
  200000   0.95398263   -7.8760371    47.041833  0.019600764  0.020435819            3 
  201000   0.94537225    -7.844478    47.040417   0.01950266  0.020373735            3 
  202000   0.92344847   -7.8591954    47.240041  0.019488466  0.020311418            5 
  203000   0.95849822   -7.8334777    47.439024  0.019474148  0.020249614            2 
  204000   0.93686028   -7.8630292    47.413285  0.019368172   0.02018771            4 
  205000   0.94387482   -7.9147285    47.262456  0.019212381  0.020125357            4 
  206000   0.94327037   -7.8864779      47.5049  0.019217193  0.020061766            2 
  207000   0.95553575   -7.8989045    47.603483  0.019164043  0.019998538            2 
  208000   0.93155916   -7.9207152    47.756931  0.019133386  0.019935423            2 
  209000   0.95384124   -7.9576779     47.95835  0.019122149  0.019873531            2 
  210000   0.94676573   -7.9173409    47.960513  0.019031949  0.019811843            2 
  211000   0.93814213   -7.9390325     48.12661   0.01900735  0.019750976            3 
  212000   0.94188308   -7.9164309     48.27102  0.018974458  0.019690805            4 
  213000   0.91842255   -7.9240781    48.501217  0.018975437  0.019631408            3 
  214000   0.92512728   -7.9275972    48.465347  0.018872799  0.019571804            3 
  215000   0.91639481   -7.9634182    48.508362  0.018801691  0.019511426            2 
  216000   0.93272067   -7.9015453    48.651544  0.018769886  0.019450697            2 
  217000   0.92137987   -7.9091766    48.754816  0.018723047  0.019390662            3 
  218000   0.93287686   -7.9319061    48.698901  0.018615788  0.019330374            1 
  219000   0.92272523   -7.9614336      48.9024  0.018608219  0.019270291            3 
  220000   0.90609549   -7.9488685    49.080755  0.018591195  0.019209448            4 
  221000   0.93053587   -7.9541937    48.973395  0.018466589  0.019149198            1 
  222000   0.91333944   -7.9819368    49.289019  0.018501884  0.019089818            2 
  223000   0.91924201   -7.9866912    49.365881  0.018447639  0.019029887            4 
  224000   0.90875128   -7.9840149    49.304458  0.018342432  0.018969583            2 
  225000    0.9275457   -7.9688517    49.284759  0.018253614  0.018909372            2 
  226000   0.92420083   -7.9501634    49.560996  0.018274703  0.018849059            6 
  227000   0.91803554   -7.9641391    49.592847  0.018205891  0.018789702            5 
  228000    0.9094095   -8.0158729    49.610812  0.018132607  0.018730176            2 
  229000   0.90294655   -8.0252528    49.589709  0.018045746  0.018670279            3 
  230000   0.90341347   -7.9861673     49.56465  0.017958207  0.018610076            2 
  231000   0.89627437   -8.0011147    49.700559  0.017929495  0.018549243            2 
  232000   0.87977672   -8.0160014    49.710396  0.017855746  0.018488512            2 
  233000   0.89831554   -8.0274308    49.871192  0.017836621  0.018427806            3 
  234000    0.9176093   -7.9956773      49.8646  0.017758049  0.018367603            1 
  235000   0.88615563     -8.00087    50.002426  0.017731357  0.018307072            3 
  236000   0.89428489   -7.9871436    50.058783  0.017676124  0.018247361            2 
  237000   0.87418935   -8.0223365     50.24816  0.017668129  0.018187704            3 
  238000   0.89858755   -8.0247791    50.461056  0.017668437  0.018128705            2 
  239000   0.89192723   -8.0093095    50.448499  0.017590132  0.018070258            1 
  240000    0.8673122   -8.0435081    50.335909  0.017477746  0.018011478            2 
  241000    0.8923234   -8.0467229    50.452672  0.017445599  0.017952891            3 
  242000     0.869509   -8.0286997    50.684509  0.017453343  0.017894502            1 
  243000   0.90746405   -8.0399264    50.624379  0.017360898   0.01783636            2 
  244000   0.88171483   -8.0349932    50.665484  0.017303785   0.01777785            4 
  245000   0.88337427   -8.0536216    50.854181   0.01729734  0.017719484            2 
  246000   0.86557497   -8.0675706    50.784635  0.017203467  0.017661244            1 
  247000   0.87686926   -8.0657047    51.025165  0.017214968  0.017603626            4 
  248000   0.87054776   -8.0770471    51.049794  0.017153829  0.017546634            1 
  249000    0.8608739   -8.1030445     51.10594  0.017103728  0.017490194            5 
  250000   0.84508793   -8.1252255    51.205632  0.017068544   0.01743328            3 
  251000   0.87094561   -8.1051218    51.221026  0.017005653  0.017376937            4 
  252000   0.86066666   -8.1201387    51.403434   0.01699849  0.017320879            4 
  253000   0.85284907   -8.1240483     51.43714  0.016942405  0.017265546            5 
  254000   0.85295259   -8.1210486    51.499882  0.016896287  0.017209824            3 
  255000   0.88012712   -8.1145628    51.591551  0.016859984  0.017154507            2 
  256000   0.84919853   -8.1187704    51.621881  0.016803998  0.017098762            3 
  257000    0.8537395   -8.1296041    51.717395  0.016769583  0.017043871            5 
  258000    0.8602258   -8.1237895    51.910698  0.016767021  0.016989639            3 
  259000   0.86103871   -8.0952131    51.966461  0.016720226  0.016935314            4 
  260000   0.86898388   -8.1149949     51.83269  0.016613042  0.016881101            5 
  261000   0.85230397    -8.076213    51.982346  0.016597173  0.016826733            2 
  262000   0.84396764   -8.1293091    52.140945   0.01658427  0.016773027            3 
  263000   0.85300035   -8.1438799    52.054526   0.01649383  0.016719433            5 
  264000   0.84457385   -8.1482988    52.132754  0.016456046  0.016666035            3 
  265000   0.85317184    -8.166072    52.284461  0.016441654  0.016612152            1 
  266000   0.86391379   -8.1639765    52.235148  0.016364395  0.016558641            2 
  267000   0.85830773   -8.1502324    52.466916  0.016375442  0.016505589            1 
  268000   0.84505115   -8.1512692    52.345404  0.016276556  0.016452452            2 
  269000   0.86078773   -8.1435818    52.544566  0.016277747  0.016399514            2 
  270000   0.81826057   -8.1953634    52.312499  0.016145833   0.01634662            4 
  271000    0.8336081   -8.1618433    52.525345  0.016151705  0.016293956            4 
  272000   0.83508348   -8.1895184    52.450879   0.01606951   0.01624124            2 
  273000   0.83379501   -8.2081981    52.570157  0.016047056  0.016188801            3 
  274000   0.84740886    -8.210579    52.672326  0.016019564  0.016136316            2 
  275000   0.81534508   -8.1863205    52.625738  0.015947193   0.01608354            6 
  276000   0.84068602   -8.1965181    52.669093  0.015902504  0.016030484            3 
  277000   0.83874023   -8.2123895    52.580598  0.015818471  0.015977742            4 
  278000   0.81991663   -8.2262003    52.723707  0.015804468  0.015924306            1 
  279000   0.81611373    -8.217656    52.726873  0.015748767  0.015871262            2 
  280000   0.81856691   -8.2144604    52.790128  0.015711348  0.015818509            3 
  281000   0.81080451   -8.2207064    52.860547  0.015676319  0.015765627            5 
  282000   0.83281609   -8.2495971    52.831907  0.015612266  0.015713172            2 
  283000   0.82261741    -8.232855    52.981033  0.015601011  0.015661605            2 
  284000   0.83340193   -8.2665954    52.907105  0.015524385  0.015609816            3 
  285000   0.82437922    -8.263865    52.970512  0.015488454  0.015557793            8 
  286000   0.81600016   -8.2663051    52.940083  0.015425432  0.015505932           10 
  287000    0.8069816   -8.2669712    52.992816  0.015386997  0.015454474            8 
  288000   0.81066971   -8.2404952      53.0443  0.015348466  0.015402909            5 
  289000   0.79809434   -8.2715529    53.268822  0.015360099  0.015352138            2 
  290000   0.81501031   -8.2659503    53.137039  0.015269264  0.015301263            2 
  291000   0.80555718   -8.2595946    53.314301  0.015267555  0.015250427            3 
  292000   0.80613358   -8.2617543    53.370234  0.015231231  0.015199645            3 
  293000   0.78887108   -8.3215256    53.289373  0.015156249  0.015149054            3 
  294000   0.79157903   -8.2490875     53.39873  0.015135695  0.015098806            3 
  295000    0.7833173   -8.2866498    53.471604  0.015104973  0.015048997            2 
  296000   0.80148767   -8.3163965    53.615453  0.015094441   0.01499986            4 
  297000   0.79137679   -8.3289928    53.435744  0.014993194  0.014950443            5 
  298000   0.79257469    -8.291969    53.538608  0.014971646  0.014900922            3 
  299000   0.79492222   -8.3415628    53.451196  0.014897212  0.014850994            3 
  300000   0.79734213   -8.3156485    53.542941  0.014873039  0.014801236            2 
  301000   0.79161028   -8.3154777    53.565444  0.014829857  0.014751909            3 
  302000   0.77076752   -8.3341249    53.670016  0.014809607  0.014702839            2 
  303000   0.77666242   -8.3430964    53.799754  0.014796412  0.014654453            2 
  304000   0.77897019   -8.3306458    53.679089  0.014714663  0.014605687            3 
  305000   0.79032455   -8.3219958    53.746254  0.014684769  0.014557857            2 
  306000   0.78461249    -8.314933    54.023136  0.014712183  0.014509791            4 
  307000   0.77444824   -8.3522001    53.886629  0.014627207  0.014461877            7 
  308000   0.77602044   -8.3773657    53.891327  0.014580987  0.014413843            3 
  309000   0.76552903   -8.3763962    53.976557  0.014556785  0.014366045            2 
  310000   0.78549272   -8.4021408    53.883155  0.014484719  0.014318442            8 
  311000   0.76651377   -8.3393729    53.834519  0.014425112  0.014270584            3 
  312000   0.78704635   -8.4144658    53.919253   0.01440151  0.014222841            6 
  313000   0.77333488   -8.3859281     53.80016  0.014323791  0.014175051            3 
  314000   0.76757612   -8.3962619     53.89949  0.014304536  0.014127509            2 
  315000   0.77048727   -8.3351622    53.950295  0.014272565  0.014079942            2 
  316000   0.75512736   -8.3592883    53.947283  0.014226604  0.014032254            5 
  317000   0.74983131   -8.3753773    53.898126  0.014168803   0.01398482            3 
  318000   0.75349849   -8.3909514    53.920457  0.014130099  0.013937405            2 
  319000   0.73756252   -8.3877939    54.032035  0.014114952  0.013890267            3 
  320000   0.72489866   -8.4218704    54.019839  0.014067666  0.013843132            4 
  321000   0.75681059    -8.400703    54.037317  0.014028379  0.013796153            4 
  322000   0.74607663    -8.399791    53.948118  0.013961728  0.013749217            5 
  323000   0.73686842   -8.3818606    54.055043  0.013946089  0.013702703            3 
  324000   0.74295589   -8.4103242    54.182808  0.013935907  0.013656164            3 
  325000   0.77086083   -8.4085963      54.0418  0.013856872  0.013609599            4 
  326000   0.75590952   -8.4410284    53.885273  0.013774354  0.013562886            3 
  327000   0.72883162   -8.4507668    53.895734  0.013734897  0.013516113            6 
  328000    0.7559708   -8.4460002    53.983779  0.013715391  0.013469515            5 
  329000   0.75144983   -8.4494355    54.023473  0.013683757  0.013423078            3 
  330000    0.7330287   -8.4378422    53.966647  0.013627941  0.013376673            4 
  331000   0.73460677   -8.4481519    54.012724   0.01359837  0.013330563            7 
  332000   0.74778302   -8.4470231    53.983242   0.01355001   0.01328467            5 
  333000   0.74662547   -8.4573087    54.076548   0.01353267   0.01323887            2 
  334000   0.73353233   -8.4533104     54.11037  0.013500591  0.013193249            3 
  335000    0.7396862   -8.4376864    54.164167  0.013473673  0.013147716            2 
  336000   0.73032563   -8.4685034    54.005061  0.013394112  0.013102288            2 
  337000   0.73903803   -8.4552839    54.104065  0.013378849  0.013056699            2 
  338000   0.73997726   -8.4640338    54.103663  0.013339167  0.013011619            2 
  339000   0.73575695   -8.5235701    54.066488   0.01329068  0.012966481            4 
  340000   0.71185677   -8.4948827    54.116688  0.013263894  0.012921602            9 
  341000    0.7164411   -8.4962262    54.265631  0.013261396  0.012876904            3 
  342000   0.71622699   -8.5158905    54.132036  0.013190067  0.012832254            1 
  343000   0.70815523    -8.500671    54.100216  0.013143881  0.012787553            4 
  344000   0.70073746   -8.5026185    54.041802  0.013091522  0.012742962            4 
  345000   0.72427374   -8.5002639    54.067017  0.013059666  0.012698491            3 
  346000   0.72861446   -8.5121162     53.95791  0.012995643  0.012654192            5 
  347000   0.70502759   -8.5351282    54.066335   0.01298423  0.012609872            2 
  348000   0.69775972   -8.4931569     54.25921  0.012993106  0.012565863            3 
  349000   0.72198346   -8.5252143    54.069091   0.01291048  0.012522139            2 
  350000    0.7127836   -8.5020103    54.136096  0.012889547  0.012478528            1 
  351000   0.70480174   -8.5088183    54.049935  0.012832368  0.012434921            5 
  352000   0.70237373   -8.5267008    54.148105  0.012819154  0.012391497            6 
  353000    0.7014095   -8.5257605    54.156052  0.012784715  0.012348356            3 
  354000   0.68862353   -8.5481569    54.162786  0.012750185  0.012305241            4 
  355000   0.68554515   -8.5444346    54.145589  0.012710232  0.012262209            6 
  356000   0.69094489   -8.5708469    54.234684  0.012695385   0.01221919            2 
  357000   0.70231352   -8.5478789    54.268904  0.012667811  0.012176419            1 
  358000   0.69379982   -8.5490533    54.169567  0.012609303   0.01213393            5 
  359000   0.69746027     -8.53926    54.202177   0.01258175  0.012091617            6 
  360000   0.67812946   -8.5613284    54.270825  0.012562691  0.012049357            3 
  361000   0.69502851   -8.5373676    54.307461  0.012536348  0.012007426            3 
  362000    0.7036494   -8.5516776    54.336006  0.012508289  0.011965629            2 
  363000   0.69390236   -8.5501883    54.324343  0.012471153  0.011923977            2 
  364000   0.69008565   -8.5565144    54.255909  0.012421225   0.01188259            2 
  365000   0.69910819   -8.5737208    54.240387   0.01238365  0.011841124            2 
  366000    0.6897308   -8.5788474    54.148178   0.01232882  0.011799679            1 
  367000   0.69004734   -8.5927235    54.281866  0.012325583  0.011758429            3 
  368000   0.67705944   -8.5792535    54.181312  0.012269319  0.011717213            2 
  369000   0.67560533    -8.595866    54.225508   0.01224605  0.011676109            2 
  370000   0.67496714   -8.5970203    54.123533  0.012189985   0.01163495            1 
  371000   0.67477381   -8.6153304    54.138837  0.012160565   0.01159392            2 
  372000   0.69505538   -8.6155253    54.128379  0.012125533  0.011553038            3 
  373000   0.67343829   -8.5853358    54.180243  0.012104612  0.011512346            2 
  374000   0.66933539   -8.6325733    54.219293  0.012080948  0.011471834            2 
  375000   0.66497983   -8.6250053    54.242738  0.012053942  0.011431573            6 
  376000   0.65206253   -8.6323265    54.115365  0.011993653  0.011391498            2 
  377000   0.65663046   -8.6296721    54.296467  0.012001872  0.011351449            3 
  378000   0.67662455    -8.629298    54.163107   0.01194072  0.011311641            2 
  379000   0.65834661   -8.6525996    54.124414  0.011900707  0.011272074            3 
  380000   0.64967536   -8.6393151    54.142163  0.011873281  0.011232495            5 
  381000   0.65960904   -8.6648433    54.029587  0.011817495  0.011193041            9 
  382000   0.66898105    -8.641652    54.192675  0.011822137  0.011153699            1 
  383000   0.65646172   -8.6343473    54.191804   0.01179108  0.011114547            3 
  384000   0.65562776   -8.6671529    54.212499  0.011764865  0.011075585            7 
  385000   0.65156073   -8.6658232    54.317446  0.011757023  0.011036862            5 
  386000   0.63929762   -8.6600728     54.14183  0.011688651  0.010998055            3 
  387000   0.64470224    -8.672992    54.035155  0.011635477  0.010959261            3 
  388000   0.65618703   -8.6968282    54.060206  0.011610869  0.010920561            4 
  389000   0.63956901   -8.6755741     54.10185  0.011589942  0.010882119            4 
  390000   0.64634176   -8.6656918    54.072745  0.011554005  0.010843715            1 
  391000   0.64065778   -8.6966237    53.965587  0.011501617  0.010805437            2 
  392000   0.64738036    -8.679017     54.08974  0.011498669  0.010767322            5 
  393000   0.64076022   -8.7164375    54.152161  0.011482647  0.010729438            5 
  394000   0.61688119   -8.7070363    54.070486  0.011436228  0.010691592            4 
  395000   0.64895675   -8.6902405    54.058478  0.011404742  0.010653879            5 
  396000   0.62813147    -8.686396    54.092469  0.011383095  0.010616433            7 
  397000   0.63709154   -8.7078123    54.050819   0.01134568  0.010578944            6 
  398000   0.63096169   -8.7117724    54.039167  0.011314733  0.010541571            3 
  399000   0.62317637   -8.7317438    53.999321  0.011278054  0.010504319            3 
  400000   0.64257803   -8.7253102    54.031536   0.01125657  0.010467201            5 
  401000   0.63638189   -8.7110329    53.998874  0.011221711  0.010430311            5 
  402000   0.61933932   -8.6978338     54.02946  0.011200137  0.010393556            3 
  403000   0.61811216   -8.7382498    53.935107  0.011152834  0.010356986            1 
  404000   0.62720034   -8.7310675    54.036847  0.011146214  0.010320583            6 
  405000   0.61954436   -8.7537566    53.960955  0.011103077   0.01028431           10 
  406000   0.61748465   -8.7401821    54.009754  0.011085746  0.010248141            5 
  407000   0.62036338   -8.7373989    54.015736  0.011059733   0.01021203            2 
  408000    0.6030477    -8.751586    53.922849  0.011013654  0.010176117            6 
  409000   0.60810377   -8.7673415     53.92086   0.01098632  0.010140243            3 
  410000   0.61619942   -8.7699077    53.927841  0.010960943  0.010104508            5 
  411000    0.6044566   -8.7513484    53.878215  0.010924212  0.010068951            6 
  412000   0.61399358   -8.7529635    53.926099  0.010907382  0.010033646            4 
  413000   0.60800827   -8.7626548     53.95548  0.010886901 0.0099983804            2 
  414000    0.6148841   -8.7880056    54.019892  0.010873569 0.0099632391            4 
  415000   0.60251253   -8.7767393    53.982133  0.010839786 0.0099282843            7 
  416000   0.60164853   -8.7701899    53.902846  0.010797846 0.0098934214            3 
  417000   0.61890444   -8.7805102    53.930888  0.010777555 0.0098587271            5 
  418000   0.59799576   -8.7741936    53.861863  0.010738011 0.0098242576            7 
  419000    0.5865597   -8.7803438    53.787403  0.010697574  0.009789772            7 
  420000   0.59559583   -8.7953412    53.903838  0.010695206 0.0097553821            6 
  421000   0.59820375   -8.7927435    53.990891  0.010687033 0.0097211838            8 
  422000   0.59655287   -8.7916181    53.965144  0.010656624 0.0096871858            7 
  423000   0.59399917    -8.782181     53.93297  0.010625093 0.0096533963            6 
  424000   0.59828574   -8.7965116    53.818874  0.010577609 0.0096197616            3 
  425000   0.59957986    -8.784123    53.931295  0.010574764 0.0095861793            4 
  426000   0.58093397   -8.8275726    53.808879  0.010525994 0.0095527421            5 
  427000   0.59120181   -8.8044539    53.874807  0.010514209 0.0095194301            9 
  428000   0.59298963    -8.798156    53.902578   0.01049505 0.0094862266            8 
  429000   0.57937611   -8.8140036    53.845646  0.010459527 0.0094531286            6 
  430000   0.59442954   -8.8072755    53.810715  0.010428433 0.0094201818            4 
  431000   0.59563205   -8.8318021    53.850107  0.010411854 0.0093873437            6 
  432000   0.58820715   -8.8357808    53.869385  0.010391471 0.0093546434            9 
  433000   0.56733225   -8.8314977    53.912635  0.010375796 0.0093221262            5 
  434000   0.58407585   -8.8280585    53.819581  0.010334021 0.0092896892            8 
  435000   0.57789832   -8.8373651    53.833942  0.010313016 0.0092573758           10 
  436000   0.56242345   -8.8316849    53.905668  0.010303071  0.009225218           11 
  437000   0.56596063   -8.8351688    53.860329  0.010270848 0.0091932405            8 
  438000   0.56704599   -8.8332951    53.849104  0.010245263 0.0091613597            8 
  439000   0.56540443   -8.8497057    53.784557  0.010209673 0.0091295866           13 
  440000   0.56777476   -8.8394457    53.681742  0.010166997 0.0090978896            9 
  441000   0.55646396   -8.8408827     53.75331  0.010157466 0.0090663435            5 
  442000   0.56867331   -8.8535387    53.724151  0.010128988 0.0090349215            7 
  443000   0.55818208   -8.8568617    53.800599  0.010120504 0.0090036046            7 
  444000   0.55172132   -8.8443774    53.834793  0.010104128 0.0089725148            7 
  445000   0.56140766    -8.873883    53.785254  0.010072145 0.0089414442            6 
  446000   0.55481776      -8.8626    53.662652  0.010026654 0.0089105803           20 
  447000       0.5493   -8.8586779    53.781821  0.010026439 0.0088798482            9 
  448000   0.54626577   -8.8702009    53.684288 0.0099859166 0.0088492459           10 
  449000   0.54850878   -8.8680133    53.748859 0.0099756606 0.0088187156            8 
  450000   0.56221762   -8.8774671    53.787394 0.0099606286 0.0087883031            3 
  451000   0.54451913   -8.8805619    53.721047 0.0099262836 0.0087580186            6 
  452000   0.54353995    -8.876973    53.752331 0.0099100905  0.008727932           10 
  453000   0.54726564   -8.8801891    53.758659  0.009889378 0.0086979373            8 
  454000   0.53415644   -8.8927586    53.678117 0.0098528116 0.0086680306            9 
  455000   0.53503629   -8.8667298    53.752049 0.0098446976 0.0086383083            5 
  456000   0.54031387   -8.8818353    53.744392 0.0098217091 0.0086086768            6 
  457000   0.52675965   -8.8830856    53.719933 0.0097957572 0.0085791773           11 
  458000   0.52211772   -8.8886637     53.68497 0.0097680077 0.0085497755           12 
  459000   0.54628381   -8.8939836    53.650355 0.0097404421 0.0085205038            5 
  460000   0.52547122   -8.9075356     53.67199 0.0097231867  0.008491373            6 
  461000   0.52477308   -8.8963334    53.618064 0.0096923471 0.0084623561            9 
  462000   0.54609389   -8.9153053    53.728123 0.0096912199 0.0084334938            9 
  463000   0.53088482   -8.9031645    53.721137 0.0096690312 0.0084047353           11 
  464000   0.52319258   -8.8957977    53.682611 0.0096412736 0.0083760842            8 
  465000   0.51076287   -8.9054678    53.650747 0.0096148292 0.0083476162            6 
  466000   0.52200016   -8.9204394    53.609871 0.0095868868 0.0083192243           14 
  467000   0.52268385   -8.9177672    53.686514 0.0095800346 0.0082909694            7 
  468000   0.51618965   -8.9115485    53.671774 0.0095569399 0.0082627958           20 
  469000   0.51725871   -8.9237344    53.631977 0.0095294912  0.008234744            5 
  470000   0.51976193   -8.9265701    53.559397  0.009496347  0.008206771            4 
  471000   0.51700981   -8.9400963    53.592791 0.0094820932 0.0081789719            9 
  472000   0.49232476   -8.9195793    53.560929 0.0094563787 0.0081512537           10 
  473000   0.50834276   -8.9494214    53.627358 0.0094480899  0.008123623            8 
  474000   0.49796896   -8.9242856    53.664127 0.0094346215 0.0080961737           10 
  475000   0.50509864   -8.9481826    53.578032 0.0093996547 0.0080688795            6 
  476000   0.50966235   -8.9432164    53.632079 0.0093893695 0.0080416508            7 
  477000   0.50130421   -8.9305881    53.493752 0.0093455192 0.0080145888            3 
  478000   0.51435414   -8.9373712    53.670577 0.0093567952 0.0079875816            7 
  479000   0.51523505   -8.9569505    53.589673 0.0093231859 0.0079607328            9 
  480000   0.51097686   -8.9585304    53.503763 0.0092888477 0.0079339973           13 
  481000   0.49545385   -8.9719608     53.61791 0.0092893123 0.0079073747            6 
  482000   0.49283731   -8.9470723    53.632527 0.0092725669 0.0078808492            5 
  483000    0.4976439   -8.9640943    53.621458 0.0092514592  0.007854458            6 
  484000   0.49912551   -8.9580196     53.51591 0.0092141717 0.0078281423           11 
  485000   0.49089325   -8.9653752    53.617452 0.0092126206 0.0078019357            8 
  486000    0.4914961   -8.9738329    53.581138 0.0091874379  0.007775849            9 
  487000   0.48436978   -8.9749081    53.545876 0.0091625386 0.0077498623            3 
  488000   0.48706406   -8.9896449     53.53475 0.0091418631 0.0077239991           12 
  489000    0.4790451   -8.9818206    53.475376 0.0091130498 0.0076982076            4 
  490000   0.48195011   -8.9873505    53.629364 0.0091206401 0.0076725437            3 
  491000   0.49722041   -8.9932465    53.488911 0.0090782266 0.0076469775            6 
  492000   0.48442967   -8.9905023    53.515068 0.0090642053  0.007621529            6 
  493000   0.47397783   -8.9770197    53.414125 0.0090287567 0.0075961994            4 
  494000   0.47395137   -9.0033329    53.570617 0.0090368787 0.0075710031            5 
  495000   0.47302481   -8.9788255    53.483824 0.0090040108 0.0075458539            8 
  496000    0.4667206   -8.9785585    53.624861 0.0090095533  0.007520854            7 
  497000   0.47036099   -9.0058252    53.452514 0.0089625275 0.0074959256            8 
  498000   0.47432383    -9.008356    53.454201 0.0089448127 0.0074711317            4 
  499000   0.47353736   -9.0055995    53.506635 0.0089356439 0.0074464079           12 
  500000   0.47579257   -8.9868536    53.483893 0.0089139822 0.0074218031            4 
  501000   0.46543758   -9.0046916    53.443856 0.0088895303 0.0073973456            5 
  502000   0.45880867   -8.9819698     53.51241 0.0088832022 0.0073729255            8 
  503000   0.47382906    -8.998439    53.376762 0.0088430686 0.0073486108            8 
  504000   0.47157965   -9.0139921    53.443045 0.0088364822 0.0073243974            9 
  505000   0.45797425   -9.0318396    53.476413 0.0088244906 0.0073003049            4 
  506000   0.45982742    -9.018224    53.441988 0.0088013814 0.0072763238            7 
  507000   0.45533445   -9.0138322    53.329599 0.0087655488  0.007252455            5 
  508000   0.45104691   -9.0119625    53.415456 0.0087623779 0.0072286308           10 
  509000   0.45612407   -9.0232701    53.364869 0.0087368809 0.0072049389            7 
  510000   0.45356533   -9.0328215     53.43707 0.0087315473 0.0071813518            6 
  511000   0.46062725   -9.0224955    53.437187 0.0087144793 0.0071578359            9 
  512000   0.45012335   -9.0233163     53.44535 0.0086987874 0.0071344468            7 
Loop time of 1238.91 on 48 procs for 500000 steps with 4000 atoms

Performance: 69738.654 tau/day, 403.580 timesteps/s
99.4% CPU use with 48 MPI tasks x no OpenMP threads

MPI task timing breakdown:
Section |  min time  |  avg time  |  max time  |%varavg| %total
---------------------------------------------------------------
Pair    | 80.482     | 87.92      | 92.964     |  29.8 |  7.10
Neigh   | 8.2627     | 8.586      | 8.9587     |   6.1 |  0.69
Comm    | 79.201     | 84.351     | 92.349     |  31.8 |  6.81
Output  | 0.91602    | 0.91665    | 0.92583    |   0.1 |  0.07
Modify  | 1043.7     | 1046.3     | 1048.2     |   3.5 | 84.45
Other   |            | 10.84      |            |       |  0.88

Nlocal:        83.3333 ave          89 max          77 min
Histogram: 1 0 7 2 8 15 7 3 3 2
Nghost:        2215.90 ave        2238 max        2195 min
Histogram: 1 2 4 13 10 5 7 2 0 4
Neighs:        14769.8 ave       16613 max       13467 min
Histogram: 7 1 8 4 12 8 2 4 0 2
FullNghs:      29538.8 ave       31695 max       27163 min
Histogram: 1 0 8 3 8 10 11 3 2 2

Total # of neighbors = 1417860
Ave neighs/atom = 354.46500
Neighbor list builds = 26692
Dangerous builds = 0

#clear
#
#next RN
#
#jump SELF
Total wall time: 0:20:42
