
units lj                  # Use reduced LJ style units
atom_style atomic         # Uncharged point particles
atom_modify map hash      # Needed for indexing of clusters etc
                          # Used to be able to find where atoms are in relation to each other.

lattice fcc 1.0 spacing 1 1 1
Lattice spacing in x,y,z = 1.5874011 1.5874011 1.5874011
region box block 0 10 0 10 0 10 units lattice
create_box 2 box
Created orthogonal box = (0.0000000 0.0000000 0.0000000) to (15.874011 15.874011 15.874011)
  3 by 4 by 4 MPI processor grid
create_atoms 1 box
Created 4000 atoms
  using lattice units in orthogonal box = (0.0000000 0.0000000 0.0000000) to (15.874011 15.874011 15.874011)
  create_atoms CPU = 0.003 seconds
set type 1 type/fraction 2 0.14 78393
Setting atom values ...
  590 settings made for type/fraction
mass 1 1.0
mass 2 1.0
pair_style lj/cut  3.5
pair_modify tail  yes
pair_coeff 1  1  1.0  1.0   # Intearaction between 1 and 1 set with epsilon = 1 and sigma = 1
pair_coeff 1  2  1.5  0.8
pair_coeff 2  2  0.5  0.88

write_data data.0
System init for write_data ...
Neighbor list info ...
  update every 1 steps, delay 10 steps, check yes
  max neighbors/atom: 2000, page size: 100000
  master list distance cutoff = 3.8
  ghost atom cutoff = 3.8
  binsize = 1.9, bins = 9 9 9
  1 neighbor lists, perpetual/occasional/extra = 1 0 0
  (1) pair lj/cut, perpetual
      attributes: half, newton on
      pair build: half/bin/atomonly/newton
      stencil: half/bin/3d
      bin: standard
WARNING: Not all mixed pair coeffs generated from mixing. Use write_data with 'pair ij' option to store all pair coeffs. (../write_data.cpp:312)


#############################
#   M E L T   S Y S T E M   #
#############################

velocity all create 2.4 9580093 mom yes dist gaussian # Assign velocities
                                                    # Temperature 2.4, random number seed, zero linear momentum
                                                                                # Gaussian distribution

timestep 0.002   # simulation timestep
thermo 1000       # output thermodynamic data every 1000 steps bf 100

# Define a fix  in this case with index 1 applied to all
# particles in the simulation. This fix is for simulations
# in the anisotropic NPT ensemble. Note that we use the MTK
# correction.
fix 1 all npt temp 2.4 2.4 0.1 iso 5.68 5.68 0.5 mtk yes tchain 5 pchain 5 # Use NPT ensemble
                                                                         # Set temperature and pressure and damping
                                                                         # Numbers of thermostats in chain and in barostat
run 10000          # run for 10000 steps
Per MPI rank memory allocation (min/avg/max) = 3.642 | 3.644 | 3.648 Mbytes
Step Temp E_pair E_mol TotEng Press Volume 
       0          2.4   -7.4253508            0   -3.8262508   -3.2887046         4000 
    1000    2.3992483   -4.6556808            0   -1.0577081    5.7840144    4704.2119 
    2000    2.4397152   -4.6504957            0  -0.99183784    5.6194301    4712.8577 
    3000     2.441886   -4.6524104            0  -0.99049709    5.7752211    4713.2207 
    4000    2.4669518   -4.7487183            0   -1.0492158    5.6894771    4666.8324 
    5000    2.3768735   -4.7745762            0   -1.2101573    5.5408973    4661.3519 
    6000    2.4122937    -4.739036            0   -1.1215001    5.8194528    4650.5873 
    7000    2.4329976   -4.7172918            0   -1.0687078    5.9116829    4651.6751 
    8000    2.3940046   -4.6924421            0    -1.102333    5.6149418    4692.4472 
    9000    2.3958583   -4.7428859            0   -1.1499968    5.7984211    4657.1652 
   10000    2.4273134   -4.6946978            0    -1.054638    5.6821726    4698.8187 
Loop time of 2.24504 on 48 procs for 10000 steps with 4000 atoms

Performance: 769695.144 tau/day, 4454.254 timesteps/s
99.6% CPU use with 48 MPI tasks x no OpenMP threads

MPI task timing breakdown:
Section |  min time  |  avg time  |  max time  |%varavg| %total
---------------------------------------------------------------
Pair    | 0.90696    | 0.99247    | 1.042      |   2.9 | 44.21
Neigh   | 0.19479    | 0.20172    | 0.20994    |   0.7 |  8.99
Comm    | 0.69713    | 0.77858    | 0.87102    |   3.6 | 34.68
Output  | 0.00024795 | 0.00025341 | 0.00031981 |   0.0 |  0.01
Modify  | 0.23543    | 0.25718    | 0.28991    |   2.7 | 11.46
Other   |            | 0.01483    |            |       |  0.66

Nlocal:        83.3333 ave          91 max          76 min
Histogram: 4 2 7 3 7 5 6 8 4 2
Nghost:        1475.65 ave        1496 max        1450 min
Histogram: 2 2 3 5 6 8 8 7 4 3
Neighs:        8114.60 ave        8967 max        7026 min
Histogram: 2 1 4 4 7 9 7 6 6 2

Total # of neighbors = 389501
Ave neighs/atom = 97.375250
Neighbor list builds = 905
Dangerous builds = 221

# Equilibrate just above the melting temperature to avoid step fn in T

fix 1 all npt temp 1.25 1.25 0.1 iso 5.68 5.68 0.5 mtk yes tchain 5 pchain 5
run 2000
Per MPI rank memory allocation (min/avg/max) = 3.642 | 3.644 | 3.648 Mbytes
Step Temp E_pair E_mol TotEng Press Volume 
   10000    2.4273134   -4.6946978            0    -1.054638    5.6821726    4698.8187 
   11000    1.2356647   -6.3278288            0   -4.4747951    5.7403531    3845.0686 
   12000    1.2457295   -6.3413538            0   -4.4732267    5.7347732    3843.4137 
Loop time of 0.485911 on 48 procs for 2000 steps with 4000 atoms

Performance: 711241.559 tau/day, 4115.981 timesteps/s
99.6% CPU use with 48 MPI tasks x no OpenMP threads

MPI task timing breakdown:
Section |  min time  |  avg time  |  max time  |%varavg| %total
---------------------------------------------------------------
Pair    | 0.21771    | 0.23494    | 0.25781    |   1.9 | 48.35
Neigh   | 0.032301   | 0.033892   | 0.03642    |   0.5 |  6.97
Comm    | 0.14044    | 0.16438    | 0.18499    |   2.4 | 33.83
Output  | 4.994e-05  | 5.1776e-05 | 6.6039e-05 |   0.0 |  0.01
Modify  | 0.041155   | 0.047993   | 0.055258   |   1.5 |  9.88
Other   |            | 0.004649   |            |       |  0.96

Nlocal:        83.3333 ave          90 max          74 min
Histogram: 1 1 1 4 3 11 15 7 4 1
Nghost:        1684.60 ave        1711 max        1662 min
Histogram: 2 4 6 4 14 6 6 3 2 1
Neighs:        9920.52 ave       10854 max        8752 min
Histogram: 2 1 2 7 7 6 10 8 3 2

Total # of neighbors = 476185
Ave neighs/atom = 119.04625
Neighbor list builds = 141
Dangerous builds = 6

#############################
# L I N E A R  Q U E N C H  #
#############################

# Define solid atoms. This closely follows ten Wolde  Ruiz-Montero and Frenkel  Faraday Discuss  1996  104  93-110
# Compute components of the per-atom q6 vector
compute q6 all orientorder/atom degrees 1 6 components 6 nnn NULL cutoff 1.3 # compute the Q6 parameter.
                                                                             # Use all neighbours within 1.3 unit cell.

# get number of connections
compute coord_number all coord/atom orientorder q6 0.5

# An atom is solid if it has 8 or more connections (of a possible 14)
variable is_solid atom c_coord_number>=8
group solid dynamic all var is_solid    # Must be dynamic to update
dynamic group solid defined

# do clustering
compute cluster solid cluster/atom 1.3 # Create a cluster where all atoms within are solid and max 1.3 units from another member

# define chunks one chunk per cluster
compute clus_chunks solid chunk/atom c_cluster nchunk every compress yes  # Says which atoms are in which chunk

# count the size of each chunk
compute size_chunks solid property/chunk clus_chunks count


# Find the maximum entry in the vector of chunk sizes
variable max_n equal max(c_size_chunks)


# Thermo style which includes this variable
# thermo_style custom step temp pe vol v_max_n

thermo ${N}  # Print the thermo information every 100 steps
thermo 1000  

# Reset the npt fix at a lower temperature (below freezing)
fix 1  all npt temp  ${temp} ${temp}  0.1  iso  5.68  5.68  0.5  mtk yes tchain  5  pchain  5
fix 1  all npt temp  0.45 ${temp}  0.1  iso  5.68  5.68  0.5  mtk yes tchain  5  pchain  5
fix 1  all npt temp  0.45 0.45  0.1  iso  5.68  5.68  0.5  mtk yes tchain  5  pchain  5

dump dmp2 all dcd ${N} traj.dcd
dump dmp2 all dcd 1000 traj.dcd


compute msd all msd com yes
variable twopoint equal c_msd[4]/6/(step*dt+1.0e-6)
fix 9 all vector 10 c_msd[4]
variable fit equal slope(f_9)/6/(10*dt)
thermo_style custom step temp pe c_msd[4] v_twopoint v_fit v_max_n

fix 1 all npt temp 1.25 ${temp} 0.1 iso 5.68 5.68 0.5 mtk yes tchain 5 pchain 5
fix 1 all npt temp 1.25 0.45 0.1 iso 5.68 5.68 0.5 mtk yes tchain 5 pchain 5
run 5000000 # 5000000  # Run for this many steps
Neighbor list info ...
  update every 1 steps, delay 10 steps, check yes
  max neighbors/atom: 2000, page size: 100000
  master list distance cutoff = 3.8
  ghost atom cutoff = 3.8
  binsize = 1.9, bins = 9 9 9
  4 neighbor lists, perpetual/occasional/extra = 1 3 0
  (1) pair lj/cut, perpetual
      attributes: half, newton on
      pair build: half/bin/atomonly/newton
      stencil: half/bin/3d
      bin: standard
  (2) compute orientorder/atom, occasional
      attributes: full, newton on
      pair build: full/bin/atomonly
      stencil: full/bin/3d
      bin: standard
  (3) compute coord/atom, occasional
      attributes: full, newton on
      pair build: full/bin/atomonly
      stencil: full/bin/3d
      bin: standard
  (4) compute cluster/atom, occasional
      attributes: full, newton on
      pair build: full/bin/atomonly
      stencil: full/bin/3d
      bin: standard
Per MPI rank memory allocation (min/avg/max) = 9.760 | 9.764 | 9.770 Mbytes
Step Temp PotEng c_msd[4] v_twopoint v_fit v_max_n 
   12000    1.2457295   -6.3413538 1.0261108e-30 7.1257693e-33 8.3333333e+20            4 
   13000    1.2543828   -6.3285555   0.54513779 0.0034944729  0.044872202            3 
   14000    1.2554846   -6.3644578    1.0377543 0.0061771087  0.043051206            3 
   15000    1.2609654   -6.3377294    1.5295542  0.008497523   0.04180871            3 
   16000    1.2490668     -6.37398    2.0370921  0.010609854  0.041657434            3 
   17000    1.2459051   -6.3480452    2.5840021  0.012666676  0.041901821            1 
   18000    1.2402485   -6.3092789    3.0822605  0.014269724   0.04234008            2 
   19000    1.2405389   -6.3136327    3.6040344  0.015807168  0.042560081            2 
   20000    1.2353713   -6.3488948    4.1633473   0.01734728  0.042861687            3 
   21000    1.2337447   -6.3309962    4.6511632  0.018456997   0.04311335            4 
   22000    1.2569764   -6.3373444    5.1521975  0.019515899  0.043081688            1 
   23000    1.2313729   -6.3870007    5.6575045  0.020498204  0.043005607            2 
   24000    1.2845842    -6.401124    6.1727054  0.021433004  0.043042468            2 
   25000    1.2364422   -6.3440865    6.7647926  0.022549308  0.043144277            2 
   26000     1.277942   -6.3801865    7.2855359  0.023351076  0.043279106            2 
   27000    1.2576548   -6.3397277    7.8086022  0.024100624  0.043388512            3 
   28000    1.2575571   -6.3586517    8.2007419  0.024406969  0.043327511            3 
   29000    1.2351538   -6.3139741    8.7386158  0.025110965  0.043177916            4 
   30000    1.2277486   -6.3633075    9.2679982  0.025744439  0.043060362            1 
   31000    1.2493616   -6.3853577    9.7540641  0.026220602   0.04299732            2 
   32000    1.2874942   -6.3253063    10.130864  0.026382457  0.042836339            1 
   33000     1.243881   -6.3634627    10.710378  0.027046409  0.042641696            3 
   34000    1.2545945   -6.3736895    11.121244  0.027257951  0.042512196            3 
   35000    1.2516817   -6.3484865    11.478717  0.027330277  0.042303597            2 
   36000    1.2366083    -6.348841     11.95116  0.027664722  0.042049259            1 
   37000    1.2014185   -6.3605658    12.506266  0.028167265   0.04189173            1 
   38000    1.2371832   -6.4059946     13.02153  0.028555985  0.041781476            1 
   39000    1.2605966   -6.3299418    13.521789  0.028892711  0.041676781            1 
   40000    1.2559037    -6.395224    13.969134  0.029102361  0.041624936            6 
   41000      1.25791   -6.3843961    14.584148  0.029642578  0.041580437            1 
   42000    1.2141072   -6.3949511     15.28842  0.030334166  0.041634615            2 
   43000    1.2651162   -6.3858413    15.869943  0.030755702  0.041756329            2 
   44000    1.2615294   -6.3849366    16.568953  0.031380592  0.041925459            1 
   45000    1.2138819   -6.3190072    17.224426  0.031897085  0.042126294            2 
   46000    1.2497809   -6.3391688    17.901915  0.032431006  0.042355321            1 
   47000    1.2285355   -6.3870735    18.382939  0.032593862  0.042585157            3 
   48000    1.2500355   -6.3833795    18.910048  0.032829945   0.04275765            2 
   49000    1.2326618    -6.394358    19.313223  0.032845616  0.042896453            7 
   50000    1.2232307   -6.3646051    19.946581  0.033244301  0.043021664            1 
   51000      1.23763    -6.399921    20.471328  0.033449882  0.043142184            3 
   52000    1.2370821   -6.3506167    21.000443  0.033654555  0.043287563            2 
   53000    1.2573506   -6.3365045    21.559938  0.033899274  0.043387678            1 
   54000    1.2407837   -6.3399852    22.020973  0.033982983  0.043480531            2 
   55000    1.2525982    -6.370987    22.363203   0.03388364  0.043535146            2 
   56000    1.2602377   -6.3510229    22.942754  0.034141003  0.043556178            2 
   57000    1.2294531   -6.3315246    23.639077  0.034560054  0.043612329            3 
   58000    1.2399192   -6.3563805    24.102331  0.034629786  0.043665246            1 
   59000    1.2525659   -6.3968038    24.770827  0.034987044  0.043721032            1 
   60000    1.2251964   -6.3797653     25.40611  0.035286264  0.043803704            2 
   61000    1.2363748   -6.3674645     26.02657  0.035555423  0.043895259            4 
   62000    1.2502731   -6.3932076    26.536824  0.035667774  0.043969465            2 
   63000    1.2442929   -6.3757603    26.750496  0.035384254  0.044003346            1 
   64000    1.2609395   -6.3189641    27.271932  0.035510328  0.044004894            1 
   65000    1.2278134   -6.3950314    27.632189  0.035425884  0.043999022            4 
   66000    1.2192505   -6.3489079     28.29233  0.035722638  0.043990654            3 
   67000    1.2453671   -6.3334547    28.734685  0.035739658  0.043973597            1 
   68000    1.2469498   -6.3328737     29.28559  0.035889203  0.043966984            5 
   69000    1.2519602   -6.4196565    29.768587  0.035952399  0.043965371            3 
   70000    1.2275847   -6.4017935    30.239724  0.035999672  0.043959798            3 
   71000    1.2364052   -6.3839226    30.863821  0.036225142  0.043946832            2 
   72000    1.2368772   -6.3689645    31.345979  0.036280068  0.043927776            3 
   73000    1.2293265   -6.3959757    32.000224  0.036529935  0.043914645            2 
   74000    1.2311293   -6.4022547    32.345704  0.036425342  0.043915256            2 
   75000     1.245919   -6.3763117    32.971409  0.036634899  0.043912548            4 
   76000    1.2454832    -6.365886    33.546143  0.036783052  0.043919196            1 
   77000    1.2456226   -6.3521995    34.225875   0.03704099  0.043931717            2 
   78000    1.2262571    -6.336368    34.776215  0.037154076  0.043944614            1 
   79000    1.2434362   -6.3860374    35.224662  0.037156816  0.043956294            2 
   80000     1.254299   -6.3224032    35.871266  0.037365902  0.043968768            1 
   81000    1.2239142   -6.3446923    36.250733  0.037294992  0.043972788            2 
   82000    1.2409397   -6.3571717    36.671109  0.037267387  0.043980577            2 
   83000     1.235319   -6.3907951    37.233927  0.037383461  0.043980125            2 
   84000    1.2431507   -6.3824976    37.890263  0.037589547  0.043984422            1 
   85000     1.224395   -6.3790059    38.477835  0.037723367  0.043994891            1 
   86000    1.2243974   -6.3688169    39.117462  0.037904517  0.044024058            2 
   87000    1.2318407   -6.4026677    39.740028  0.038065161  0.044051345            1 
   88000    1.1998186   -6.3727824    40.329174  0.038190506  0.044081518            3 
   89000    1.2147024   -6.3701667    40.827602  0.038228092  0.044116692            1 
   90000    1.2231595   -6.3606843    41.605618   0.03852372  0.044157826            2 
   91000    1.2603624   -6.3840597    42.011691  0.038472244  0.044203195            2 
   92000    1.2201781   -6.3521724    42.703338  0.038680559  0.044242222            3 
   93000    1.2123122   -6.4150717    43.346838  0.038841253   0.04428521            2 
   94000    1.2522267   -6.3491382    43.894618  0.038913668  0.044332614            2 
   95000    1.2521742   -6.3712312    44.367464  0.038918828  0.044371589            3 
   96000     1.271592   -6.3790816    44.947702  0.039017103   0.04441055            2 
   97000    1.2332699   -6.3783009    45.350316  0.038960753  0.044442195            1 
   98000    1.2392433   -6.3590851     45.79558  0.038941819  0.044466515            1 
   99000    1.2598363   -6.3617022    46.482317  0.039126529  0.044482853            1 
  100000    1.2380952   -6.4028492    46.827498  0.039022915  0.044505729            2 
  101000     1.242176   -6.3785007    47.644979  0.039311039  0.044530972            1 
  102000    1.2350125   -6.4097242    48.281812  0.039445924  0.044565276            3 
  103000    1.2247809   -6.4191483    48.665393  0.039373295   0.04460206            2 
  104000    1.2438586   -6.3625742    49.002033  0.039264449  0.044620457            1 
  105000    1.2488047   -6.3388047    49.700878  0.039445141  0.044636198            2 
  106000    1.2369522   -6.4200739    49.952844  0.039271104  0.044645408            1 
  107000    1.2427399   -6.3992546    50.588461  0.039399113  0.044654307            2 
  108000    1.2389243   -6.3781247    51.197118  0.039503949  0.044663236            3 
  109000    1.2225892   -6.3485731    51.470754  0.039350729  0.044663183            4 
  110000    1.2292326   -6.3934035    51.997633  0.039392146  0.044660124            2 
  111000    1.2351901   -6.3590355    52.306836  0.039269396   0.04465171            1 
  112000    1.2175607    -6.354218    52.860453  0.039330694  0.044637245            4 
  113000    1.2466164    -6.378043    53.283992  0.039294979  0.044622791            3 
  114000    1.2341381   -6.3857356    53.904106  0.039403586  0.044610071            2 
  115000    1.2250975   -6.3878473    54.534153  0.039517502  0.044606077            1 
  116000    1.2441685   -6.4273263    55.053271  0.039549764  0.044596972            2 
  117000    1.2419398   -6.3695165    55.427669  0.039478396  0.044586851            1 
  118000      1.21801   -6.3272786    56.258522  0.039730595  0.044575674            3 
  119000    1.2279159   -6.3568017    56.552831  0.039602823  0.044566457            2 
  120000    1.1921793   -6.4237045    56.960782  0.039556098    0.0445527            4 
  121000    1.2561686   -6.3818668    57.823065  0.039823048  0.044549701            1 
  122000    1.2219406   -6.3843335    58.100633  0.039686225  0.044544186            2 
  123000    1.2489378   -6.3957959    58.908969  0.039911226  0.044541969            3 
  124000    1.2334495   -6.4057537    59.513524  0.039995648  0.044539503            1 
  125000    1.2334182   -6.4074521    60.100414  0.040066942  0.044537646            2 
  126000    1.2214481   -6.3972903    60.625237  0.040096056   0.04453685            4 
  127000    1.2357196   -6.4101681    60.842494  0.039922896  0.044538075            1 
  128000    1.2225436    -6.398163    61.503256  0.040041182  0.044533836            2 
  129000    1.2263387   -6.4029594    61.934326  0.040009255  0.044528837            3 
  130000    1.2408892    -6.344119    62.509607   0.04007026  0.044521982            3 
  131000    1.2149779   -6.4061902    63.230162  0.040222749  0.044521691            2 
  132000    1.2282385   -6.3844441    63.963226  0.040380825  0.044527962            4 
  133000    1.2162616   -6.4122123    64.435762  0.040373284  0.044538283            6 
  134000    1.2274108   -6.3785504    65.037644  0.040446296  0.044550424            6 
  135000     1.230891    -6.397682    65.475943  0.040417249  0.044555046            1 
  136000    1.2190062    -6.380998    66.003376  0.040443245  0.044553393            1 
  137000    1.2225845   -6.3921071    66.417327  0.040399834  0.044555775            3 
  138000    1.2266969   -6.3959329    66.989568  0.040452638  0.044553798            2 
  139000    1.2285857   -6.3857171    67.348935  0.040377059  0.044550542            3 
  140000    1.2294168   -6.3723423    68.088464  0.040528847  0.044549404            2 
  141000    1.2233717   -6.3733565    68.252055  0.040338094  0.044547538            1 
  142000     1.214377   -6.4103898    68.653239  0.040289459   0.04453923            2 
  143000    1.2525383   -6.3475726    69.425947  0.040458011  0.044531693            2 
  144000    1.2224479   -6.4274733    70.248473  0.040653051  0.044529507            2 
  145000    1.2150787   -6.3976462    70.541087  0.040540855  0.044527245            2 
  146000    1.2148884   -6.3861045    71.057395  0.040557874  0.044523335            3 
  147000    1.2230612    -6.364575     71.50589  0.040536219  0.044517814            2 
  148000    1.2215155   -6.3845378    71.994907  0.040537673  0.044511594            3 
  149000      1.22478    -6.388242    72.602326  0.040605328  0.044508094            5 
  150000    1.2171075   -6.3594098    73.030838  0.040572688  0.044505702            4 
  151000    1.2243255   -6.3696344    73.507655  0.040567138  0.044497066            2 
  152000    1.2019232   -6.3720944    74.451089  0.040817483  0.044493308            5 
  153000      1.26785   -6.4093576    74.909447  0.040800352  0.044491834            3 
  154000    1.2370409   -6.4289624    75.230309  0.040709042  0.044489163            3 
  155000    1.2474046   -6.4016503    75.644387  0.040669025  0.044484683            3 
  156000    1.2186145   -6.4649853    75.980338  0.040587787  0.044476067            2 
  157000    1.2161679   -6.3865498    76.962168  0.040850408  0.044468191            3 
  158000    1.2104805   -6.3594264      77.2996  0.040769831  0.044462717            1 
  159000    1.2406181   -6.4132877     77.98524  0.040872767  0.044460094            1 
  160000    1.2119427    -6.371653    78.460818  0.040865009  0.044458005            1 
  161000    1.2043415   -6.3806994    79.094115  0.040938983  0.044456757            1 
  162000    1.2185283   -6.4003526    79.690458  0.040993034  0.044454047            1 
  163000    1.2267358   -6.3528618    80.332167  0.041069615  0.044451767            1 
  164000    1.2269554   -6.3774201     80.79314  0.041053425  0.044450225            2 
  165000    1.2378168   -6.3917367    81.463133  0.041142996   0.04445008            1 
  166000    1.2495024   -6.4376494    81.990202   0.04115974  0.044447468            2 
  167000    1.2244606   -6.3903362    82.044336  0.040940288  0.044444053            2 
  168000    1.2158914   -6.4393537    82.352889  0.040849647  0.044437894            3 
  169000    1.2043774   -6.4144171    82.825819  0.040841133  0.044430613            1 
  170000    1.2257832   -6.4075782      83.3422  0.040854019  0.044423238            2 
  171000     1.235162   -6.4043748    84.081599  0.040975438   0.04441842            1 
  172000    1.2322822   -6.3794673    84.843321   0.04110626  0.044416392            2 
  173000     1.224515   -6.3736639    85.668187  0.041265986  0.044416432            2 
  174000    1.2270178   -6.4238853    86.149768  0.041259467  0.044415728            1 
  175000    1.2043027   -6.3862592    86.578101  0.041227667  0.044418653            1 
  176000    1.2075157   -6.3966586    87.251276  0.041312157  0.044420702            4 
  177000    1.2067483   -6.3488381    87.585795   0.04123625  0.044421005            5 
  178000    1.2095526   -6.4216471    88.076152  0.041234153  0.044416623            1 
  179000    1.1990701   -6.4082312     88.37552  0.041143166  0.044413674            3 
  180000    1.2185637    -6.407172    88.573137  0.041006082  0.044407541            2 
  181000    1.2299701   -6.4165181    88.899253  0.040929674   0.04439939            2 
  182000    1.2145368   -6.4309212    89.651919  0.041049413    0.0443895            3 
  183000    1.2351588   -6.3707061    89.910611  0.040942901  0.044378476            2 
  184000    1.2128199   -6.3797149    90.657656  0.041058721  0.044365846            5 
  185000    1.2404257   -6.4227361    90.890624  0.040941722  0.044355639            4 
  186000    1.2570866   -6.4173393    91.837509  0.041145837  0.044347653            3 
  187000    1.2235555   -6.3862806     92.43948  0.041194064  0.044340594            4 
  188000    1.2092392   -6.4014068    92.342212  0.040931831  0.044329248            2 
  189000    1.2340486   -6.4153884    93.123896  0.041059919  0.044318444            2 
  190000    1.2375641   -6.4297874    93.831807  0.041154301  0.044307859            5 
  191000    1.2074798   -6.4006773    94.384547  0.041179994  0.044299107            2 
  192000    1.2221807   -6.4032545    94.921615  0.041198618  0.044291254            1 
  193000    1.2205463   -6.3665486    95.651098  0.041300128  0.044283831            2 
  194000    1.2183447   -6.3570011    96.282102  0.041358291  0.044275966            3 
  195000    1.2315105   -6.3863815    96.475019   0.04122864  0.044267926            2 
  196000    1.2090193   -6.3857705    96.735718  0.041129132  0.044258911            1 
  197000    1.2406617   -6.3897535    97.421734  0.041210547  0.044249158            2 
  198000    1.2352121   -6.3709359    98.307261   0.04137511  0.044241415            3 
  199000    1.2359543   -6.3971295    98.738994  0.041347987  0.044233816            2 
  200000    1.2002932   -6.4217464    98.794444  0.041164352  0.044225826            1 
  201000    1.2474267   -6.4066256     99.55416  0.041274527  0.044218403            2 
  202000    1.2356508   -6.4256466     100.1394  0.041311632  0.044211685            3 
  203000    1.2349069   -6.4038841     100.5224  0.041265355  0.044204702            2 
  204000    1.2196755   -6.4238006     100.6504  0.041115361  0.044194673            2 
  205000    1.2485086   -6.4126631    101.40633  0.041222087  0.044185567            2 
  206000     1.235938   -6.4244337    101.94904  0.041241521  0.044176236            2 
  207000    1.2080298   -6.4140001    102.71694  0.041351425  0.044167748            1 
  208000     1.237086   -6.4404038    102.92704  0.041236796  0.044161818            3 
  209000    1.2101354   -6.4616963    103.88758   0.04142248  0.044156153            2 
  210000    1.2042225   -6.3693265     104.5319  0.041480911  0.044153203            2 
  211000    1.2148168   -6.3963965    105.28052  0.041579985  0.044151389            2 
  212000    1.2274638   -6.3893228     105.5772  0.041500471  0.044149167            2 
  213000    1.2391122   -6.4361905    106.39618  0.041626049  0.044148256            2 
  214000    1.2190043   -6.4105652    106.79452  0.041586649  0.044147041            3 
  215000    1.2334952    -6.393649    107.45936  0.041650914  0.044146942            1 
  216000    1.2015314   -6.4197169    107.74755  0.041569272  0.044144557            3 
  217000    1.2259159   -6.4350918    108.31109  0.041594122  0.044142583            2 
  218000     1.192295   -6.4166158    108.86528  0.041615168  0.044142512            1 
  219000    1.2347657   -6.3954044    109.64793  0.041722955  0.044141745            3 
  220000    1.2523805   -6.4216012    110.31545  0.041786154   0.04414369            3 
  221000    1.2086302   -6.4042732    110.39881   0.04162851   0.04414339            1 
  222000    1.2074952   -6.3946911    110.69265  0.041551296  0.044139748            2 
  223000    1.2382532   -6.4357049    111.51121  0.041670855  0.044138768            2 
  224000    1.2097011   -6.4313073    112.11633  0.041709943  0.044137308            3 
  225000    1.2071177   -6.3876352     112.7441  0.041757075  0.044135961            1 
  226000    1.2108162   -6.4022901     112.9899  0.041662943  0.044135202            2 
  227000    1.2151924   -6.4278055    113.45255  0.041649246   0.04413405            3 
  228000    1.2193709   -6.4107752     113.8514  0.041612355  0.044129995            1 
  229000    1.2253327   -6.4283254    114.77082  0.041765219  0.044128887            3 
  230000    1.2074378   -6.3779424    115.11116  0.041706941  0.044128033            3 
  231000    1.1999659   -6.4111879    115.39487  0.041628741  0.044124375            1 
  232000     1.195147   -6.3742992    116.08736  0.041698045  0.044118602            3 
  233000    1.2100153   -6.4686865    116.20932  0.041562703   0.04411161            5 
  234000    1.2006157   -6.3915015    116.37979  0.041445794  0.044101991            1 
  235000    1.2102873    -6.435564    116.61595  0.041353175   0.04409139            2 
  236000    1.2308225   -6.3856236    117.35655  0.041439461  0.044079564            1 
  237000    1.2185484   -6.4003768    118.12586  0.041535111  0.044067779            3 
  238000     1.204911    -6.442902    118.22886  0.041396658  0.044055115            2 
  239000    1.2304041   -6.3802771    118.64908  0.041369971  0.044041606            1 
  240000    1.2512969   -6.4507298     119.0727  0.041344686  0.044030733            3 
  241000    1.2102133   -6.4170798    119.81436  0.041429586  0.044018596            3 
  242000    1.2101782    -6.429736    119.99229  0.041319658  0.044005778            2 
  243000    1.2402675   -6.3826321    121.27937  0.041591006  0.043994017            2 
  244000    1.2073401   -6.4327717    121.25082    0.0414108  0.043984039            2 
  245000    1.1867964   -6.4232088    122.00809  0.041499351  0.043974451            3 
  246000    1.2117054   -6.4300572    122.35596  0.041448496    0.0439641            2 
  247000    1.2108555    -6.441744    122.74162  0.041410802  0.043952677            2 
  248000    1.2305002   -6.4102074    123.76928   0.04158914  0.043943256            1 
  249000    1.2077126   -6.4189248    124.60742  0.041702618  0.043935407            2 
  250000    1.2060202   -6.4151871    124.82205   0.04160735  0.043928946            8 
  251000    1.1867739   -6.4778935    125.20127  0.041567487  0.043923274            2 
  252000    1.2084278   -6.3784992    126.48651  0.041827551  0.043917896            2 
  253000     1.208235   -6.4218769    126.87751  0.041791011  0.043913222            2 
  254000    1.2021496   -6.4089488    126.77098  0.041591529  0.043908901            2 
  255000    1.1860211   -6.4238908    126.61047  0.041375971  0.043902358            3 
  256000    1.2217963   -6.4244883    127.52675  0.041512613  0.043894699            3 
  257000    1.2139676   -6.3995218    128.42628  0.041642764    0.0438886            2 
  258000    1.1930931   -6.4246917    128.93611   0.04164603  0.043881758            3 
  259000    1.1999012   -6.4025671     129.5172  0.041672201  0.043874283            2 
  260000    1.2147213   -6.4050541    129.48574  0.041501839  0.043866637            1 
  261000    1.2007532   -6.4025049    130.65992  0.041717728  0.043859082            1 
  262000    1.1938508   -6.4533837    131.08971  0.041695201  0.043853894            2 
  263000    1.1972014    -6.440815    131.64682  0.041713188  0.043849754            2 
  264000    1.1959258   -6.4194324     132.1244  0.041705935  0.043846342            3 
  265000    1.1985413   -6.4260738    133.13436   0.04186615   0.04384168            2 
  266000    1.2275908   -6.4381659    132.70824  0.041575263  0.043838175            5 
  267000    1.1883451   -6.4104688     133.4732  0.041658303  0.043833251            3 
  268000    1.2058968   -6.4370104    134.25207  0.041745048   0.04382849            3 
  269000    1.1774763   -6.4470591    134.69116  0.041725885  0.043825169            2 
  270000    1.2451197   -6.4574966    134.88858  0.041632277  0.043820023            3 
  271000    1.2324188   -6.4152777    136.17108  0.041873025  0.043815868            3 
  272000    1.1965422   -6.3807495    137.12439  0.042011149  0.043812202            1 
  273000    1.2016129   -6.4697196    136.23418  0.041585526  0.043807169            2 
  274000    1.2016476   -6.4062596    137.09355  0.041695118  0.043802521            1 
  275000    1.2311488   -6.4196171    137.54269  0.041679603  0.043797016            1 
  276000    1.1988461   -6.4136032     138.5432  0.041830676  0.043792396            3 
  277000      1.19402   -6.4404733    139.34273  0.041920195  0.043789646            3 
  278000    1.2039191   -6.4065616    139.38076  0.041780804  0.043786128            2 
  279000    1.1827775   -6.4157092    139.59689  0.041695605  0.043780387            2 
  280000    1.1928412   -6.4202558     139.9946  0.041665059  0.043773811            2 
  281000    1.2383856   -6.3985143    140.42574  0.041644643  0.043765787            1 
  282000    1.1872463   -6.4519698    140.45421  0.041505381  0.043755518            1 
  283000    1.2403504   -6.4488983    141.14254  0.041561407  0.043746584            4 
  284000    1.1854854   -6.4449537    141.91425  0.041641504  0.043738413            2 
  285000    1.2127341   -6.4013149    142.13778  0.041560754  0.043732063            2 
  286000    1.2432379   -6.3899629    142.80258  0.041609143  0.043723173            1 
  287000    1.2224921   -6.4653893    143.19525   0.04157818  0.043714878            4 
  288000    1.1887423   -6.4403962    143.22291  0.041441814  0.043706193            2 
  289000    1.1877992    -6.449823     144.3478  0.041622779  0.043696237            2 
  290000    1.2150972   -6.4361607    143.91067  0.041353641  0.043686706            2 
  291000    1.2221748   -6.4288321    144.77221  0.041458252  0.043673801            2 
  292000     1.201457    -6.463616    144.65487  0.041282783  0.043660578            1 
  293000    1.2227502    -6.420415    145.63203  0.041419803  0.043646198            2 
  294000    1.2007255    -6.428254    146.20314    0.0414408  0.043633758            2 
  295000    1.1957543   -6.4219738    146.16997  0.041290951  0.043619869            1 
  296000    1.1994547   -6.4469642    147.26503   0.04145975  0.043606781            3 
  297000    1.2006236   -6.4328782    147.34274  0.041341959  0.043593272            2 
  298000    1.2077248   -6.4432494    147.56282  0.041264769  0.043580085            5 
  299000    1.2038486   -6.4154386    148.66807  0.041434801  0.043568093            1 
  300000    1.2136275   -6.4313866     148.5663  0.041268418  0.043556639            3 
  301000    1.2082244    -6.436825    149.26864  0.041325759  0.043543739            4 
  302000    1.1887208   -6.4528653     150.0313  0.041399365  0.043530491            1 
  303000    1.2192751   -6.4294732    150.04027  0.041265201  0.043517124            2 
  304000    1.2289609   -6.4586711     150.6883  0.041307101  0.043503647            3 
  305000    1.2186247   -6.4250121    151.35421  0.041353609   0.04349216            3 
  306000    1.2084592   -6.4081758    151.56106  0.041274798  0.043480167            2 
  307000    1.2133974    -6.424016    152.45994  0.041384349  0.043467501            2 
  308000    1.2058927   -6.4591778    153.13564  0.041432804  0.043455841            3 
  309000    1.1861446   -6.4348204    153.26779  0.041334354  0.043444273            2 
  310000    1.1959262   -6.4385871    153.90004  0.041370977  0.043433064            3 
  311000    1.1956358   -6.4273659    153.90068  0.041238125  0.043422516            1 
  312000    1.2212099   -6.4548625    155.02405  0.041405997  0.043413615            1 
  313000     1.216907   -6.4451734    155.37746  0.041367801  0.043403753            3 
  314000    1.1999623    -6.481118    156.24226  0.041465567   0.04339346            1 
  315000    1.1962916   -6.4337579    156.55327   0.04141621   0.04338316            2 
  316000    1.2008156   -6.4595779    156.98141   0.04139805  0.043372316            3 
  317000    1.2195398   -6.4663716    157.56452  0.041420747  0.043360549            5 
  318000    1.1961874   -6.4629682    157.73003  0.041333866  0.043348642            1 
  319000    1.2237456   -6.4044297    158.56371  0.041422078  0.043337769            3 
  320000    1.2076944   -6.3892001    158.72753  0.041335295  0.043326905            1 
  321000    1.1959773   -6.4323483    158.88197  0.041246617  0.043315254            4 
  322000    1.1960343   -6.4314648    159.54356  0.041289741  0.043302816            2 
  323000    1.2088479   -6.4340583    160.69528   0.04145905  0.043290616            3 
  324000     1.188794   -6.4121759     160.6414  0.041317232  0.043279771            3 
  325000    1.1819373   -6.4384571    160.91999  0.041261535  0.043267739            3 
  326000    1.2243584   -6.4781024    160.40868  0.041004263  0.043254563            1 
  327000    1.2157091   -6.4727192    161.65488  0.041196452  0.043241543            5 
  328000      1.20617   -6.4416109    162.60941  0.041313366  0.043228865            3 
  329000    1.1984758   -6.4162399     163.6388  0.041448532  0.043219233            4 
  330000    1.1981759   -6.4306275     163.9907  0.041411793  0.043209696            2 
  331000     1.185882   -6.4571323    165.09954  0.041565846  0.043201592            4 
  332000    1.2428148   -6.4428096     164.7445  0.041351531  0.043193667            4 
  333000    1.2188519   -6.4235109    165.81893  0.041496229  0.043185221            3 
  334000    1.1883366   -6.4535537    166.13389  0.041450572  0.043176625            2 
  335000    1.1949846   -6.4212185    166.34754  0.041379984  0.043166953            2 
  336000    1.1898084   -6.4656593    166.82707  0.041375762   0.04315606            1 
  337000    1.1969705   -6.4231551    167.11346  0.041323804  0.043146708            3 
  338000    1.1907928   -6.4365652    168.12988  0.041452139  0.043136964            5 
  339000    1.1824967   -6.4565926     167.7751   0.04124265  0.043126665            2 
  340000     1.203172   -6.4668003    168.56937  0.041316021  0.043116309            2 
  341000    1.2058081   -6.4744572    168.66839  0.041219059  0.043105907            3 
  342000    1.2118653   -6.4668174    169.01768  0.041183645  0.043093808            4 
  343000    1.1783546   -6.4639295    169.36695  0.041148434  0.043081498            2 
  344000    1.1953671    -6.403939    170.51402  0.041306691  0.043069719            3 
  345000    1.2005985   -6.4349765    170.68024  0.041227112  0.043059171            2 
  346000    1.2294872   -6.4104996    171.03419  0.041193205  0.043049781            3 
  347000    1.1755217   -6.4343024    171.52395   0.04119211  0.043039422            3 
  348000    1.1962987   -6.4671154     172.4661  0.041299354  0.043029501            1 
  349000    1.1739834   -6.4725758    172.52539  0.041195174  0.043017445            3 
  350000    1.2083379   -6.4709461    173.17481  0.041232098  0.043006972            5 
  351000    1.2037826   -6.4167961    173.59609  0.041214645  0.042995996            2 
  352000    1.2037433   -6.4617756    174.36217  0.041278923  0.042984869            4 
  353000    1.1709228   -6.4326508    174.56431  0.041209705  0.042974191            2 
  354000    1.2038528   -6.4443496    175.18367  0.041239094  0.042963766            3 
  355000    1.1890541   -6.4507195    175.17574  0.041121065  0.042953005            4 
  356000    1.2020657    -6.404222    176.37376  0.041285993  0.042942637            1 
  357000    1.2091963   -6.4533594    176.60661  0.041224699  0.042931364            4 
  358000    1.1929121   -6.4620867    175.80675  0.040923359  0.042919221            2 
  359000    1.2030977   -6.4247063    176.18819  0.040897908  0.042905729            3 
  360000    1.1928765   -6.4728791    176.66664  0.040895055  0.042890878            5 
  361000    1.2225303   -6.4712156    176.60118  0.040766663  0.042875014            2 
  362000    1.1798187   -6.5033659    177.17284  0.040785646  0.042858651            1 
  363000     1.190817     -6.43708    178.00158  0.040863541  0.042842902            1 
  364000    1.1921135   -6.4747266     178.5511  0.040877082  0.042827343            2 
  365000     1.213299   -6.4119359    179.30964  0.040938273  0.042811998            2 
  366000    1.1823194   -6.4916105    179.92226  0.040965907  0.042796799            3 
  367000    1.1841395   -6.4470314    180.24429  0.040927405  0.042781671            2 
  368000    1.1847157   -6.4691815    180.51207  0.040876827  0.042766421            2 
  369000    1.2024933   -6.4576338    180.37308  0.040734662  0.042751873            2 
  370000     1.189591    -6.463812    181.95043  0.040979826  0.042737533            2 
  371000    1.1890636   -6.4551375    181.93153  0.040865125  0.042723512            3 
  372000    1.1953721   -6.4790837    182.39463  0.040859012  0.042709524            2 
  373000    1.1857581   -6.4512642    182.89765  0.040861853  0.042696173            2 
  374000    1.1782805   -6.4819599    183.22304  0.040825097  0.042681202            2 
  375000    1.1934901   -6.4850848    183.97351  0.040883003  0.042667188            2 
  376000     1.185787   -6.4061919     184.3079  0.040848382  0.042652672            1 
  377000    1.1909006   -6.4435103    184.68222  0.040822773  0.042638002            4 
  378000    1.2022501   -6.4614284    185.70467  0.040940182  0.042624008            4 
  379000    1.1922614   -6.4637686    186.12959  0.040925592  0.042611248            2 
  380000    1.2141104   -6.4349081    186.70284  0.040943604  0.042599269            2 
  381000    1.1903276   -6.4759588    186.95772   0.04089189  0.042587143            1 
  382000      1.21143   -6.4253474    187.88709  0.040987584  0.042575368            1 
  383000    1.1995531   -6.4575485    188.13943  0.040935471   0.04256389            1 
  384000    1.1609715   -6.4705228    188.99192  0.041013871  0.042551643            3 
  385000    1.2045624   -6.4666317    188.41419  0.040782293  0.042539445            3 
  386000    1.1954197   -6.4594229    189.38667  0.040886588  0.042527452            3 
  387000    1.1824699   -6.4722166    189.10974  0.040721305  0.042515445            1 
  388000    1.2020084   -6.4764893    190.22166  0.040855166  0.042502814            3 
  389000    1.1748649   -6.4435489    190.43526    0.0407959  0.042491026            2 
  390000    1.2005418   -6.4627214    191.53397  0.040926063  0.042479137            1 
  391000    1.1855449   -6.4718441     192.3042   0.04098555  0.042467035            1 
  392000    1.1858556   -6.4502145    192.34367  0.040889385  0.042455873            2 
  393000    1.2064749   -6.4670937    192.50486  0.040819521  0.042444934            2 
  394000     1.178734   -6.4857084    193.74766  0.040978777  0.042434432            1 
  395000    1.1773458   -6.4629959    193.65787  0.040856092  0.042422556            2 
  396000    1.2077055   -6.4485905    194.47124  0.040924083  0.042411583            5 
  397000     1.186291   -6.4593682    194.93129  0.040917567  0.042401003            4 
  398000    1.1906269   -6.4555687    195.41966  0.040917014  0.042390267            2 
  399000    1.1679045   -6.4803348    196.03345  0.040942659  0.042379414            2 
  400000    1.2094144   -6.4899782    195.64399  0.040759165  0.042368512            1 
  401000    1.1847654   -6.4680501    195.96595  0.040724429  0.042357439            2 
  402000    1.1958552   -6.4448273    196.67725  0.040770574  0.042346231            3 
  403000    1.1607143   -6.4237954    197.71168  0.040883308  0.042335608            2 
  404000    1.2160559    -6.414311    198.29113  0.040901635  0.042325505            1 
  405000    1.2112419   -6.4306974    198.03413  0.040747764  0.042315116            2 
  406000    1.2218337   -6.5238716    198.06239    0.0406532  0.042302654            2 
  407000      1.18026   -6.4571006    198.90307  0.040725444  0.042290528            2 
  408000    1.1997151   -6.4356358    199.08293  0.040662363  0.042278559            4 
  409000    1.2023784   -6.4367579    199.22702  0.040592302  0.042266055            2 
  410000    1.2069501   -6.4792072    200.74449  0.040801726  0.042253645            3 
  411000    1.2041799   -6.4771393    200.74114  0.040701772  0.042240868            4 
  412000    1.1693492   -6.4960139    200.56101  0.040566547  0.042228744            1 
  413000    1.1698553   -6.4800615    201.09307  0.040575681  0.042215822            3 
  414000    1.1994249    -6.460173    202.50743  0.040762364  0.042204154            2 
  415000    1.1791935   -6.4584283    202.60984  0.040684706  0.042192905            4 
  416000    1.1849536   -6.4676216    203.61299  0.040787859  0.042181956            2 
  417000    1.1991532   -6.4793578    203.52046  0.040671555   0.04217061            3 
  418000    1.1808879   -6.4793173    203.80014  0.040630011  0.042158511            2 
  419000    1.2030947   -6.4747586    203.51606  0.040476543  0.042145597            2 
  420000    1.1992252   -6.4667307    204.67612  0.040610341  0.042133302            1 
  421000     1.191318   -6.4466048    205.33982  0.040645254   0.04212177            2 
  422000    1.1851535   -6.4356881    206.19541  0.040717892   0.04210986            2 
  423000    1.1832066   -6.4817125    205.17373  0.040420357  0.042096902            2 
  424000    1.1740507   -6.5201773    206.76473  0.040637723  0.042084751            4 
  425000    1.1489461   -6.4572497    207.19397  0.040626269  0.042073638            3 
  426000    1.1823047   -6.4644842    207.50614  0.040591967  0.042062636            2 
  427000    1.1794178   -6.4558553    207.50685  0.040497042  0.042050951            1 
  428000    1.1619034   -6.4952257    208.34841  0.040566279  0.042039593            2 
  429000    1.1782431   -6.5164468    208.83538  0.040566313  0.042029918            2 
  430000    1.1655879   -6.4831823     210.2069  0.040737771  0.042020057            2 
  431000    1.1648649   -6.4990873    209.87229  0.040578555  0.042010539            2 
  432000    1.1934003   -6.4469959    211.27173  0.040754577  0.042000405            3 
  433000    1.1652205   -6.4664854    211.40126  0.040685384  0.041990831            8 
  434000    1.2085806   -6.4418286    212.14198  0.040733867  0.041981076            2 
  435000    1.1651642   -6.4478196    211.86526  0.040587215  0.041970676            1 
  436000    1.1841685   -6.4951897    212.03956  0.040527438  0.041958956            3 
  437000    1.1641931   -6.4920405    212.99068  0.040616072   0.04194763            2 
  438000    1.1879198   -6.4816347    213.27733  0.040577879  0.041936468            4 
  439000    1.1502033   -6.4651286    213.61963  0.040550423  0.041923421            3 
  440000    1.1755914   -6.4949486     213.7525  0.040483428  0.041911378            3 
  441000     1.180459   -6.4883429    214.41685  0.040517168  0.041899484            2 
  442000    1.1695072   -6.4699736    215.33043  0.040597742  0.041888163            2 
  443000    1.1903132   -6.4618531    216.32652  0.040693476  0.041877528            4 
  444000     1.185425   -6.4489487    216.08567   0.04055662  0.041867592            1 
  445000    1.1776432   -6.4652101    216.89081  0.040616256  0.041857638            2 
  446000     1.177911   -6.5101318    216.51016  0.040454066  0.041847242            2 
  447000    1.1694454   -6.5017646    216.75337  0.040408905  0.041837286            1 
  448000    1.1499147   -6.4569993    218.41175  0.040627186  0.041827122            2 
  449000    1.1771602   -6.5184122    218.78785  0.040606504  0.041817499            2 
  450000    1.1818941   -6.4844477    219.22602  0.040597412  0.041808409            2 
  451000    1.2023108   -6.4759937    219.71815  0.040598328   0.04179916            2 
  452000     1.180239   -6.4530562    220.81113  0.040710016  0.041790209            2 
  453000    1.1944756   -6.4510084     220.9666  0.040648749  0.041781988            2 
  454000    1.1843899   -6.4902999    221.10771  0.040585115  0.041773281            2 
  455000    1.1884809   -6.4427662    221.51678  0.040570839  0.041763509            3 
  456000     1.151073   -6.4650321    220.96479  0.040380992  0.041753758            3 
  457000    1.1913278   -6.5025636    222.17018  0.040512432  0.041744156            2 
  458000    1.1687429   -6.4949649    222.72277  0.040524522  0.041734661            3 
  459000    1.1754884   -6.4736671    223.22441  0.040527308  0.041725634            2 
  460000    1.1833952     -6.47866    223.73367  0.040531462  0.041716729            2 
  461000     1.178458   -6.4959862    224.24476   0.04053593  0.041707864            3 
  462000    1.1788391   -6.4732988    225.02279  0.040588527  0.041698857            3 
  463000    1.1762078   -6.4791664    225.37738  0.040564684  0.041689439            6 
  464000     1.201643   -6.4800398     226.3211  0.040646749   0.04168067            2 
  465000    1.1988933   -6.4815839    225.34213  0.040383893  0.041671736            2 
  466000    1.1826616   -6.5262076    226.19324  0.040449435  0.041662152            1 
  467000    1.1743346   -6.4882331    227.07885   0.04052085  0.041652477            2 
  468000    1.1841249   -6.5128014    227.10375  0.040438701   0.04164292            5 
  469000    1.1853987   -6.4931963    228.85397  0.040663464  0.041634025            2 
  470000    1.1802279   -6.4708962    228.81223  0.040569544   0.04162504            3 
  471000    1.1924876   -6.4813161    228.62247  0.040449835  0.041615967            2 
  472000    1.1892961   -6.4843615    229.16961  0.040460737  0.041606303            1 
  473000    1.1605678   -6.4447096    229.74477  0.040476527  0.041596827            5 
  474000     1.158502   -6.4812353    229.11894  0.040281108   0.04158772            4 
  475000    1.1814623   -6.5176677    230.32104    0.0404072  0.041578248            2 
  476000    1.1604992     -6.49198    231.04891   0.04044974  0.041568705            1 
  477000    1.1652216   -6.4303783    231.45174  0.040435314  0.041560345            2 
  478000    1.1844394   -6.5007554    231.74386  0.040401649  0.041551606            3 
  479000     1.165019   -6.4860395    232.74704   0.04049183  0.041542577            3 
  480000    1.1756551   -6.4878299      232.746  0.040407292  0.041533171            2 
  481000    1.1411638   -6.4873929    232.99012  0.040365578  0.041523644            4 
  482000    1.1518275   -6.4958449     233.7909   0.04042028  0.041514803            3 
  483000    1.1754257   -6.4708492    234.42852  0.040446604  0.041506439            2 
  484000    1.1773516   -6.4863616    235.47822  0.040543771  0.041498131            5 
  485000     1.169332   -6.5010414    235.58477  0.040478483  0.041490345            1 
  486000    1.1797531   -6.5021954    234.49411  0.040208181  0.041481813            3 
  487000    1.2087228   -6.4664801    235.85226  0.040358019  0.041472556            1 
  488000    1.1745005   -6.4922316    235.74164  0.040256428  0.041463235            1 
  489000    1.1911881   -6.4241494    237.33797  0.040446143  0.041454441            2 
  490000    1.1517948   -6.5244537     236.6125   0.04024022  0.041445426            2 
  491000     1.168473    -6.486931    238.25293  0.040436681  0.041436032            3 
  492000     1.200592    -6.501442     237.9344  0.040300542   0.04142746            3 
  493000    1.1828047    -6.481079    239.08377  0.040413078  0.041419001            2 
  494000    1.1413006   -6.5151341    240.55974  0.040580252   0.04141101            1 
  495000    1.1831444   -6.5016539    239.54211  0.040326954  0.041402844            4 
  496000    1.1710903   -6.4898719    240.45911  0.040399716  0.041395512            1 
  497000    1.1732955   -6.5021526    240.35207  0.040300482  0.041387492            1 
  498000    1.1861768   -6.5148143    241.64262  0.040435512  0.041379752            2 
  499000    1.1765277   -6.4670719    242.28611  0.040461942  0.041371559            3 
  500000    1.1665217   -6.4965455    243.58006  0.040596677  0.041364454            5 
  501000    1.1684387    -6.514487    242.81553  0.040388478  0.041357206            2 
  502000    1.1721992   -6.5114092    242.84663  0.040313185  0.041349734            5 
  503000    1.1653488    -6.506296    243.64837  0.040365866  0.041341038            3 
  504000    1.1728792   -6.4970103    243.51567  0.040263834  0.041332682            2 
  505000    1.1643696   -6.5192168    243.55358  0.040190359  0.041324268            2 
  506000    1.1967494   -6.5001237    244.08201  0.040197959   0.04131573            2 
  507000    1.1557086   -6.4939309    245.22451  0.040306461  0.041307337            4 
  508000    1.1406013   -6.4494513    246.68645  0.040466938  0.041299522            3 
  509000     1.184734   -6.5532167    245.96397   0.04026915  0.041292275            2 
  510000    1.1694378   -6.4888847    246.67829   0.04030691   0.04128467            3 
  511000    1.1742489   -6.5198112    246.92076  0.040267574  0.041277698            3 
  512000    1.1768895   -6.5053199    247.46515  0.040277531  0.041269786            2 
  513000    1.1580096   -6.5230607    248.63567   0.04038916  0.041262165            1 
  514000    1.1868453   -6.5099761    248.12614  0.040227973  0.041254364            4 
  515000    1.1496682   -6.4955622    249.66781  0.040399322  0.041246158            1 
  516000    1.1537067   -6.5123744     249.9028  0.040358979  0.041238282            6 
  517000     1.157949   -6.5042437    250.87749  0.040438023  0.041231405            3 
  518000    1.1469594   -6.4616961    251.30381  0.040428541  0.041223863            2 
  519000    1.1623953   -6.5155793    250.64902  0.040245508  0.041216746            2 
  520000    1.1797847   -6.4988739    251.01087    0.0402261  0.041209513            2 
  521000    1.1932521   -6.4949713    251.45573  0.040220046  0.041201639            1 
  522000    1.1535735   -6.4998914    252.36415  0.040288019  0.041193986            2 
  523000    1.2006066   -6.5181042    252.63579  0.040254268  0.041186575            3 
  524000    1.1883399   -6.4969622    253.49813  0.040314588  0.041179454            2 
  525000    1.1915216   -6.4928127    254.13706  0.040339216  0.041172288            3 
  526000    1.1910143    -6.543916    253.77002  0.040204375  0.041165786            3 
  527000    1.1605876   -6.5125067    255.48546  0.040399346  0.041159565            3 
  528000    1.1771585   -6.5179041     256.0594  0.040413416  0.041153683            2 
  529000    1.1724483   -6.5060239    256.56896  0.040417291   0.04114834            4 
  530000    1.1454621   -6.4892912    256.59832  0.040345648  0.041143423            2 
  531000    1.1559954   -6.4880806    257.97247  0.040485322    0.0411379            3 
  532000    1.1601678   -6.5661697    257.14178  0.040279101  0.041131842            3 
  533000     1.154991   -6.5254657    258.02142  0.040341061   0.04112544            5 
  534000    1.1554689   -6.4864851    258.89237  0.040401431  0.041119447            3 
  535000    1.1512274   -6.5042672    259.30355   0.04038996   0.04111438            6 
  536000    1.1644683    -6.518445    260.17408   0.04044995  0.041108536            1 
  537000    1.1435345   -6.4843492    260.68351   0.04045368  0.041102999            4 
  538000    1.1758941    -6.492279    260.95312  0.040420247   0.04109798            2 
  539000    1.1620306   -6.5156272    261.48873  0.040428065  0.041092868            2 
  540000    1.1740593   -6.5267231    261.09762  0.040292842  0.041087709            2 
  541000    1.1867225   -6.5085317     261.8973  0.040341543  0.041082338            3 
  542000    1.1942625   -6.5105737    261.73549  0.040242234  0.041075416            4 
  543000    1.1571953   -6.4966944    262.28533  0.040252506  0.041068781            3 
  544000    1.1535046   -6.5503943    262.48814   0.04020958  0.041061796            3 
  545000    1.1782775   -6.4743956    262.36492   0.04011696  0.041054283            4 
  546000    1.1904589   -6.4938932    262.63494  0.040084697  0.041046535            2 
  547000    1.1644207   -6.4697613    262.48621  0.039988759  0.041037952            3 
  548000    1.1882936    -6.487264    263.55084  0.040077683  0.041029439            1 
  549000    1.1460175   -6.5166579    264.11741  0.040090681  0.041021432            2 
  550000    1.1451073   -6.5385514    264.67785  0.040102704  0.041012982            3 
  551000    1.1634727   -6.5217032    264.91847  0.040066314  0.041003765            2 
  552000    1.1552416   -6.5606963    264.81811  0.039978579  0.040994839            3 
  553000     1.165851   -6.5155928    265.09188  0.039947541  0.040986156            2 
  554000    1.1880445   -6.4747862    266.85617   0.04014082  0.040977315            2 
  555000    1.1724349   -6.5103656    266.66215  0.040039361  0.040968565            2 
  556000    1.1370909   -6.4474056    266.79049  0.039986584  0.040959875            2 
  557000    1.1605021   -6.4899454    267.85986  0.040074784  0.040951131            1 
  558000    1.1404666   -6.5208389     266.5902  0.039813351  0.040942083            4 
  559000    1.1602042    -6.493769    268.34792  0.040004162  0.040932831            4 
  560000    1.1633412   -6.4779771    268.67574  0.039981509   0.04092389            1 
  561000     1.151151   -6.5279586    269.39038  0.040016396  0.040914648            3 
  562000    1.1763845   -6.5418647     268.4383  0.039804018  0.040905494            3 
  563000    1.1608984   -6.4974092    269.98835  0.039962752  0.040896646            1 
  564000    1.1844941    -6.499863    269.83591  0.039869372  0.040887594            3 
  565000      1.15901   -6.5210412    271.05496  0.039978607  0.040878772            5 
  566000    1.1661101    -6.513797    271.05454  0.039907912  0.040870084            2 
  567000    1.1675392   -6.5213769    271.68575  0.039930299  0.040860661            4 
  568000    1.1790167   -6.5176486    271.94801  0.039898476  0.040852119            2 
  569000    1.1892943   -6.5330452    273.22696  0.040015665  0.040844122            3 
  570000    1.1229098   -6.5377648    273.04313  0.039918586   0.04083627            1 
  571000    1.1635171   -6.5017313    273.99191  0.039987144  0.040828801            1 
  572000    1.1613381   -6.5453445    273.49817  0.039845305  0.040821729            2 
  573000    1.1520235    -6.512564     275.3822  0.040049767   0.04081452            1 
  574000    1.1709218   -6.5205475    275.79543  0.040039987  0.040807581            2 
  575000    1.1553252   -6.5037848    277.25075  0.040181269  0.040801299            3 
  576000    1.1496537   -6.5422816    276.73915  0.040037493  0.040794196            3 
  577000    1.1522012    -6.536022    276.24586   0.03989686  0.040787429            4 
  578000    1.1862771   -6.5254679    277.65624  0.040031177  0.040780436            2 
  579000    1.1583459   -6.4689118    278.55208  0.040090973  0.040773658            2 
  580000    1.1558197   -6.5130437    277.53662  0.039875951  0.040767107            1 
  581000    1.1649766   -6.5343181    278.42265  0.039934402  0.040759692            3 
  582000    1.1409021   -6.5306584    279.66619  0.040043842  0.040752699            9 
  583000    1.1318572   -6.4960358    280.33787  0.040071165   0.04074626            3 
  584000    1.1426375   -6.5054237    281.39535  0.040153445  0.040739753            3 
  585000    1.1714619   -6.5003746    280.80336  0.040000479  0.040733648            2 
  586000    1.1720993   -6.5275795    281.51663   0.04003365  0.040727547            2 
  587000    1.1523765   -6.5261027     282.8004    0.0401477  0.040721562            2 
  588000    1.1517106   -6.5385625    282.52149  0.040039894  0.040715445            2 
  589000    1.1666176   -6.5444551    283.03398  0.040044423  0.040709138            3 
  590000    1.1632291    -6.486745    284.96223  0.040248903   0.04070345            1 
  591000    1.1528152   -6.4869081    284.60963  0.040131082  0.040698543            1 
  592000     1.154332   -6.4620275    285.73282  0.040221399  0.040693217            3 
  593000    1.1700538   -6.5350817     284.6939  0.040007575  0.040687096            5 
  594000    1.1569744   -6.5269881    285.28951   0.04002378  0.040680868            1 
  595000    1.1484603   -6.5309744     285.5547  0.039993656  0.040674912           10 
  596000    1.1360152   -6.4949764     286.6475  0.040079348  0.040668564            3 
  597000    1.1461208   -6.4987618      286.655  0.040013261  0.040662106            3 
  598000    1.1318015   -6.4945613    286.76825  0.039962131  0.040656068            3 
  599000     1.181743   -6.5207965    287.98489  0.040064676  0.040650065            3 
  600000    1.1766788   -6.5107432     288.5166   0.04007175   0.04064386            2 
  601000    1.1527707   -6.5227372    287.77834  0.039902709  0.040636516            2 
  602000    1.1522711   -6.5455285    288.17987  0.039892009  0.040629234            2 
  603000    1.1558704   -6.5605206    288.01138  0.039802568  0.040622329            3 
  604000    1.1582975   -6.5173509    289.53324  0.039946638  0.040615187            4 
  605000    1.1707566   -6.5345542    289.54952  0.039882854  0.040608066            1 
  606000    1.1540246   -6.5043727    290.24262  0.039912352  0.040601192            5 
  607000    1.1625232   -6.5676223    289.33504  0.039721999  0.040594363            3 
  608000    1.1781669   -6.5133917    290.24768  0.039781754  0.040587646            3 
  609000    1.1603349   -6.5571674    290.87673  0.039802509  0.040581006            2 
  610000     1.150292   -6.5654806    291.72501  0.039853144  0.040574687            5 
  611000     1.156166   -6.5390315    292.91037  0.039949586  0.040568475            3 
  612000    1.1638226   -6.5151468    293.69632  0.039991329  0.040562493            2 
  613000    1.1553207    -6.533866    293.18228   0.03985621  0.040557259            2 
  614000     1.131593   -6.5047252    294.63515  0.039988484   0.04055169            2 
  615000    1.1368385   -6.5264557    295.36838  0.040022816  0.040545525            5 
  616000    1.1624639   -6.5293114    295.27558  0.039945289  0.040539683            1 
  617000    1.1410066   -6.5418606    295.54485  0.039916917  0.040533498            2 
  618000     1.160306   -6.5606534    294.95183  0.039772361  0.040526742            2 
  619000    1.1441643   -6.5560214    296.18091  0.039873575  0.040519814            1 
  620000    1.1653615   -6.4985727    295.72359  0.039747794  0.040512455            4 
  621000    1.1310311   -6.5131294    296.34873  0.039767677   0.04050516            4 
  622000    1.1343508   -6.5570717    296.62109  0.039740232  0.040497591            7 
  623000    1.1419553   -6.5379556    297.44356  0.039786459  0.040490468            2 
  624000    1.1705916   -6.5023222    297.25303  0.039697253  0.040483464            2 
  625000    1.1784037   -6.5589569    297.75928  0.039701237  0.040475421            2 
  626000    1.1545759   -6.5004396    297.54011   0.03960864  0.040467526            2 
  627000    1.1380873   -6.5524429    298.36734  0.039655415  0.040459288            4 
  628000     1.141473   -6.5137246    298.18652  0.039568274  0.040451024            2 
  629000    1.1410343   -6.5431818    298.68207  0.039571021  0.040442491            2 
  630000    1.1275879   -6.5168127    298.94779  0.039543359   0.04043411            1 
  631000    1.1849893   -6.5332317    299.80916  0.039594448    0.0404253            2 
  632000    1.1226745   -6.5422474    299.53839  0.039496096  0.040416423            5 
  633000    1.1673773   -6.5414741     299.3934  0.039414613  0.040407532            2 
  634000     1.133417   -6.5436347    300.32114  0.039474388  0.040398759            4 
  635000     1.138006   -6.5344518    301.62018  0.039582701  0.040389761            1 
  636000    1.1438347   -6.4974587    302.46412  0.039631043  0.040381215            1 
  637000    1.1545197   -6.5442561    302.29179  0.039546283  0.040372931            3 
  638000    1.1524516   -6.5447994    302.46108  0.039506411  0.040364671            2 
  639000    1.1551401    -6.513265    303.28791  0.039552414  0.040357138            1 
  640000    1.1549814   -6.5299391    303.83168  0.039561417  0.040349345            2 
  641000     1.150692   -6.5487167    304.82419   0.03962873  0.040341177            3 
  642000    1.1458939    -6.515209    305.21122   0.03961724  0.040333072            2 
  643000    1.1453297   -6.5396356    304.11888  0.039414059  0.040324358            3 
  644000    1.1493529   -6.5329142    304.78408  0.039438934  0.040315759            2 
  645000    1.1477468   -6.5643357    305.03793  0.039410585  0.040306913            5 
  646000    1.1417007   -6.5365649    306.36501   0.03952077  0.040298126            2 
  647000    1.1578661   -6.5303173    306.42487  0.039467398  0.040289458            2 
  648000    1.1441687   -6.5198132    307.39612  0.039531393  0.040280962            2 
  649000    1.1304555   -6.5364775    307.11379  0.039434231  0.040272116            3 
  650000    1.1484815   -6.5508769     307.7457  0.039454577  0.040262977            3 
  651000    1.1539877   -6.5630393     308.1545    0.0394463  0.040253924            3 
  652000    1.1269231   -6.5088201    307.89091  0.039352111  0.040244914            2 
  653000    1.1346318   -6.5286017    308.99971  0.039433348  0.040235874            3 
  654000    1.1306387   -6.5639933    308.24439  0.039276808  0.040226128            2 
  655000    1.1564723   -6.5344185    308.40714   0.03923755  0.040215791            4 
  656000    1.1390536    -6.554793    308.79076  0.039226469  0.040205695            3 
  657000    1.1856627   -6.5637992    308.90056   0.03918069  0.040195442            2 
  658000    1.1412041   -6.5226447    309.61203   0.03921125  0.040184824            2 
  659000    1.1561804   -6.5693669    309.62651   0.03915358  0.040174728            3 
  660000    1.1750897   -6.5405676    310.16387  0.039162105  0.040164029            2 
  661000    1.1409845   -6.5483135    310.99147  0.039207195  0.040153454            2 
  662000    1.1341449   -6.5454955    310.77207  0.039120352  0.040142882            4 
  663000    1.1445456   -6.5792462    312.19334  0.039239988  0.040132761            2 
  664000    1.1280236   -6.5669232    312.29107  0.039193157  0.040123052            3 
  665000    1.1648106   -6.5238113    312.28711  0.039133724  0.040114181            2 
  666000    1.1368304   -6.5451516    312.21789  0.039066302  0.040104686            3 
  667000    1.1484266   -6.5396239    312.75976  0.039075433  0.040094279            2 
  668000    1.1618977    -6.518189    314.94185  0.039289153  0.040084666            2 
  669000    1.1276092   -6.5663938    314.72379  0.039203262  0.040074874            1 
  670000    1.1427469   -6.5137123    314.63093    0.0391332  0.040064749            1 
  671000    1.1613471   -6.5386176    314.81731  0.039098026  0.040054521            4 
  672000     1.126934   -6.5082195    316.07646  0.039195989  0.040044711            2 
  673000    1.1240114   -6.5268225    316.25393  0.039159723  0.040035384            3 
  674000    1.1434754   -6.5360686    315.75657   0.03904013  0.040025787            5 
  675000    1.1491233   -6.5891025      316.206  0.039037777  0.040016278            2 
  676000    1.1607333    -6.499269    317.72854   0.03916772  0.040006807            5 
  677000    1.1247566   -6.5518057    316.50957  0.038959819  0.039997358            4 
  678000    1.1525275   -6.5574643     317.7789  0.039058371   0.03998769            5 
  679000    1.1573366   -6.5439858    317.25721   0.03893682  0.039978288            3 
  680000    1.1447056   -6.5224727    318.57963  0.039041621  0.039968154            2 
  681000    1.1315891   -6.5572048    318.68995  0.038997792  0.039957676            4 
  682000    1.1254956   -6.5400131    319.59723   0.03905147  0.039948016            2 
  683000    1.1826329   -6.5681106    319.37151  0.038966753  0.039937722            2 
  684000     1.145244   -6.5555455    318.87838  0.038849705  0.039926754            2 
  685000    1.1482421   -6.5453397    318.94609  0.038801227  0.039915206            2 
  686000    1.1313058   -6.5575915    319.77025  0.038844783  0.039903893            2 
  687000    1.1383947   -6.5818092     320.9083  0.038926286  0.039892792            2 
  688000    1.1203335   -6.5846802    320.35512  0.038802703  0.039881964            2 
  689000    1.1536123   -6.5496253    322.36756  0.038989787  0.039872004            1 
  690000    1.1419664   -6.5533799    321.57828  0.038837957  0.039861318            3 
  691000    1.1386775   -6.5119619    322.42528  0.038883898  0.039850444            1 
  692000    1.1513551    -6.531444    322.86207  0.038880307  0.039839509            2 
  693000    1.1708886    -6.551131    321.85643  0.038703274  0.039828586            3 
  694000    1.1420603   -6.5514634    323.55159  0.038851055  0.039817881            3 
  695000    1.1337203   -6.5711923    324.22622  0.038876046  0.039807324            3 
  696000    1.1220314    -6.546929    323.39872  0.038721111  0.039796088            2 
  697000    1.1438051   -6.5907616    323.76252  0.038709054  0.039784839            2 
  698000    1.1599928   -6.5479166    323.11629  0.038576443  0.039773203            2 
  699000     1.143231   -6.5818223    324.68369  0.038708117  0.039761713            3 
  700000    1.1677457   -6.5800008    324.98956  0.038689233  0.039749857            4 
  701000    1.1384567   -6.5368474    324.57942  0.038585285  0.039738329            3 
  702000    1.1204922   -6.5119309    325.77432  0.038672166  0.039726599            2 
  703000    1.1265964    -6.558805    326.32433  0.038682353  0.039714875            4 
  704000    1.1642919   -6.5978818    325.84451   0.03857061  0.039703304            2 
  705000    1.1114246   -6.5690647    326.60228   0.03860547  0.039691419            2 
  706000    1.1590395   -6.5601987    327.88164  0.038701799  0.039680048            4 
  707000    1.1343868   -6.5322901      327.365  0.038586162  0.039668084            3 
  708000    1.1215147   -6.5884788    328.00684  0.038607208  0.039656007            3 
  709000    1.1716026   -6.5549682    329.76313  0.038759183  0.039644563            3 
  710000    1.1420115   -6.5558068    328.54884  0.038562071  0.039633311            4 
  711000    1.1543684   -6.5602072    329.29576  0.038595377  0.039621783            2 
  712000    1.1355521   -6.5497785    330.14247   0.03864027   0.03961038            3 
  713000    1.1072733   -6.5721872    330.08395  0.038579236  0.039598855            5 
  714000    1.1343376   -6.5593165    330.86215   0.03861603  0.039587856            3 
  715000    1.1060738   -6.5613559     331.2109  0.038602668  0.039577106            5 
  716000    1.1340868   -6.5930105    331.05216  0.038530279  0.039565784            4 
  717000    1.1365093    -6.607301    331.83816  0.038567894  0.039554537            4 
  718000    1.1419859   -6.5949873    332.53229  0.038594741  0.039543708            2 
  719000    1.1253345    -6.602006     332.0761   0.03848819  0.039532805            4 
  720000    1.1237052   -6.5854923    332.99124  0.038540653    0.0395219            3 
  721000     1.117461   -6.5613398     334.8178  0.038698313  0.039511554            3 
  722000    1.1465565   -6.5991804    334.15915  0.038568692  0.039501732            3 
  723000    1.1587043    -6.573381    335.70464  0.038693481  0.039491941            3 
  724000    1.1520092   -6.5547409    336.28571  0.038706918  0.039482207            5 
  725000    1.1126925   -6.5032778    337.22486  0.038761479  0.039472288            2 
  726000    1.1391758   -6.5907833    335.86571  0.038552079  0.039462604            5 
  727000    1.1426436   -6.5924158    336.86414  0.038613496  0.039452978            2 
  728000    1.1447037   -6.5784109     337.8074   0.03866843  0.039442926            2 
  729000    1.1480492   -6.5657397    337.74859  0.038608663  0.039432848            2 
  730000    1.1559663   -6.5667841     338.2058  0.038607967  0.039423275            1 
  731000    1.1297707   -6.5353402    338.04149  0.038536422  0.039413606            1 
  732000    1.1289436   -6.5257507    339.11398  0.038605872    0.0394035            4 
  733000    1.1454565   -6.5673547     338.7781  0.038515018  0.039393007            1 
  734000    1.1445917   -6.5514911    339.24641  0.038515714  0.039382507            5 
  735000     1.122766   -6.5765338    339.98566  0.038547127  0.039372052            3 
  736000    1.1302588   -6.5459848    339.81375  0.038475289  0.039361829            3 
  737000    1.1474067   -6.5711044    339.82279  0.038424106  0.039351537            7 
  738000    1.1440431   -6.5843415    341.37153  0.038546921  0.039341112            3 
  739000    1.1130406   -6.5751087    340.54744  0.038401831  0.039330789            2 
  740000    1.1589686   -6.5731337    342.85061  0.038609303  0.039320966            6 
  741000    1.1281432   -6.5954123    342.23815  0.038488321  0.039311367            2 
  742000    1.1472205   -6.5655266    343.30917  0.038556735  0.039301428            2 
  743000    1.1090748   -6.5652332    343.40575  0.038515674  0.039291529            1 
  744000    1.1656445   -6.5647708    343.19326  0.038440105  0.039281945            3 
  745000    1.1109551   -6.5722775    344.44946  0.038529022  0.039272128            3 
  746000    1.1485486   -6.5887085    343.26379  0.038344927  0.039262353            1 
  747000    1.1647206   -6.5953813    344.16767   0.03839443  0.039252446            1 
  748000    1.1144269   -6.5382415    346.26809  0.038577104  0.039242628            3 
  749000    1.1526943   -6.5641315    345.89542  0.038484137  0.039233388            1 
  750000    1.1161094   -6.5559287    346.40287  0.038489208  0.039224312            2 
  751000    1.1346914   -6.5458591    346.34559  0.038431602  0.039214616            2 
  752000    1.1188138   -6.5704296     346.0668  0.038349601  0.039205513            4 
  753000     1.130836   -6.5864837    347.62898  0.038471555  0.039196399            2 
  754000    1.1264521   -6.5969898    347.62675  0.038420286  0.039187647            2 
  755000    1.1341032   -6.5637935    348.80365  0.038499299  0.039178631            2 
  756000    1.1125644    -6.571515    348.30938  0.038393891  0.039169208            2 
  757000    1.1236514   -6.5427342    348.73981  0.038390556  0.039160018            3 
  758000    1.0868095   -6.5691409     350.3603  0.038518063  0.039150475            2 
  759000    1.1306912   -6.6124667    350.03496  0.038431594  0.039140899            5 
  760000    1.1336074   -6.5595944    351.02714  0.038489818  0.039131932            3 
  761000    1.1365044   -6.5722424    351.68281   0.03851104  0.039122726            2 
  762000     1.135472    -6.572931    352.13751  0.038510227  0.039114021            6 
  763000    1.1256026   -6.5742913    351.50099  0.038390234  0.039104837            2 
  764000    1.1392214   -6.5842065    351.86153  0.038379312  0.039095915            4 
  765000    1.1135099   -6.6029398    352.36778   0.03838429   0.03908688            3 
  766000    1.1242338   -6.5809446    353.27309  0.038432669  0.039078113            2 
  767000    1.0997341   -6.6090651    352.85127  0.038336731  0.039069141            3 
  768000    1.0852423   -6.5923889    354.47717  0.038463234  0.039060066            3 
  769000    1.1170891   -6.5818326    353.24148   0.03827931  0.039050774            3 
  770000    1.1329992   -6.5684914    354.47236   0.03836281  0.039041686            3 
  771000    1.1685667   -6.5858423    354.32013  0.038296598  0.039032137            2 
  772000    1.1269083    -6.626444    354.14914  0.038228534  0.039022375            4 
  773000     1.139789   -6.5664038    355.23873  0.038296543  0.039012329            2 
  774000    1.1363916   -6.5417202    354.29608  0.038145573  0.039002551            1 
  775000    1.1343068   -6.6396674    354.50875   0.03811922  0.038992919            2 
  776000    1.1520014   -6.6259691    355.38127  0.038163796  0.038983344            2 
  777000     1.125211   -6.5731987    356.21709  0.038204321  0.038973597            2 
  778000     1.105182   -6.5712352    358.02217  0.038348561  0.038964173            3 
  779000    1.1539673     -6.58257     357.6687  0.038261522  0.038954613            2 
  780000    1.1284894   -6.5894997    358.23449  0.038272916  0.038944961            2 
  781000    1.1336196   -6.5614828    357.45057  0.038140266  0.038935374            6 
  782000      1.11641   -6.5478403    359.27651  0.038286073  0.038925878            3 
  783000    1.1275439   -6.6129687    358.04691  0.038106312  0.038916712            2 
  784000    1.1616107   -6.6424447    358.45315  0.038100888  0.038907139            2 
  785000    1.1010387   -6.5641626    359.12189  0.038123343  0.038897636            1 
  786000    1.1285744   -6.5313735    360.78726  0.038251406  0.038888019            1 
  787000    1.1500594   -6.5927925    359.85294  0.038103869  0.038878676            3 
  788000    1.1380356   -6.6246537    360.44939   0.03811859  0.038868868            2 
  789000    1.1463272   -6.5913122    361.12605  0.038141745  0.038859283            3 
  790000    1.1372453    -6.574643    361.68922  0.038152871  0.038849764            3 
  791000    1.1539665   -6.5356815    361.49144  0.038083801  0.038839991            3 
  792000    1.1091113   -6.5762681      361.065  0.037990846  0.038830281            3 
  793000     1.127223   -6.5592583    363.12639  0.038159562  0.038820695            5 
  794000    1.1190001   -6.5736779    363.29352  0.038129043  0.038810885            6 
  795000    1.1335448   -6.5782021    363.32326    0.0380842  0.038801061            5 
  796000    1.1361327   -6.5461773    363.16366  0.038019646  0.038791628            2 
  797000    1.1303709   -6.5730129    363.42086  0.037998835  0.038781879            5 
  798000    1.1330033   -6.5815549    364.43083  0.038056686  0.038771651            4 
  799000    1.1345158   -6.6107694    363.83961  0.037947394  0.038761565            1 
  800000    1.1262479   -6.5464355    365.73677  0.038097581  0.038751623            1 
  801000    1.1430766   -6.5738174    366.08691  0.038086445  0.038741784            2 
  802000    1.0814597   -6.5141409    366.04896  0.038035013  0.038731946            5 
  803000    1.1187745   -6.5466731    365.54809  0.037935667  0.038722087            3 
  804000    1.1205197   -6.5979312    365.40135  0.037873275  0.038711509            3 
  805000     1.125726   -6.5889099    366.56922  0.037947124  0.038701272            1 
  806000    1.1250908   -6.6040996    368.04046  0.038052157  0.038691092            2 
  807000    1.1224708    -6.590588      366.717  0.037868339  0.038680957            6 
  808000    1.0919562   -6.5891242    367.35336  0.037887103  0.038670866            3 
  809000    1.1142319   -6.5789475     367.6202  0.037867759  0.038660711            4 
  810000     1.146115   -6.5727208    367.96075  0.037856044  0.038650421            2 
  811000     1.110916   -6.5828839      367.592  0.037771476  0.038639966            5 
  812000    1.1156734   -6.5891216    369.81716  0.037953321  0.038629829            3 
  813000    1.1243037   -6.5505685    370.40477  0.037966869  0.038619945            3 
  814000     1.120425   -6.6028015    370.36105   0.03791575   0.03861025            3 
  815000    1.0945646   -6.6124436     368.5927  0.037688415  0.038600058            2 
  816000    1.1158316   -6.5809243    371.62133  0.037951525  0.038590113            5 
  817000    1.1417681   -6.5691277     370.7918  0.037820461  0.038580171            1 
  818000    1.1053848   -6.5812108    371.48559  0.037844905  0.038570309            3 
  819000    1.1163036   -6.5723703    372.31173  0.037882757  0.038560787            2 
  820000    1.0983917   -6.6042464    372.62899  0.037868799  0.038550976            2 
  821000    1.1171145   -6.5902544    371.39488   0.03769741  0.038540903            1 
  822000    1.1360478   -6.5938978    373.63266  0.037878412  0.038531143            3 
  823000     1.104706   -6.6228093    373.26382  0.037795041  0.038521173            2 
  824000    1.1133511   -6.5922233    374.69324  0.037893734  0.038511253            4 
  825000    1.1086198   -6.5688269    375.26879  0.037905938  0.038501827            6 
  826000    1.1047417   -6.5947142    374.62362  0.037794958  0.038492427            5 
  827000    1.1196445   -6.6056552    376.19368  0.037907465  0.038483066            2 
  828000    1.1246619   -6.5890172    375.52283  0.037794166  0.038473514            1 
  829000    1.1328226   -6.6261146    376.85171  0.037882158    0.0384637            5 
  830000     1.111448   -6.5797313    375.77396  0.037728309  0.038454166            2 
  831000    1.1319827   -6.5954044    375.92298  0.037697852  0.038444798            3 
  832000    1.1267645   -6.6081776    376.79788  0.037740173  0.038435048            2 
  833000    1.1292159   -6.5954609    376.63704  0.037678775  0.038425523            2 
  834000    1.1103029    -6.583725    376.68431   0.03763832  0.038415947            3 
  835000    1.1343138   -6.5603089    378.27894  0.037752389  0.038406472            3 
  836000    1.1073141   -6.5888789    378.06064   0.03768547  0.038396434            4 
  837000    1.1015959   -6.5950738    378.11071  0.037645431  0.038386665            3 
  838000    1.1010262   -6.5823701    378.00764  0.037590259  0.038376521            2 
  839000    1.0911918   -6.5895312    380.27542  0.037770701  0.038366635            2 
  840000    1.1275886   -6.6072897     380.4185   0.03773993  0.038356892            4 
  841000    1.1196572   -6.6043739    380.01784  0.037655355  0.038347079            3 
  842000    1.1089232   -6.5916908    380.50412  0.037658761  0.038337245            4 
  843000     1.114071   -6.6075608    379.27785  0.037492867  0.038327175            2 
  844000    1.1162193   -6.5573262      381.961  0.037713369  0.038317314            1 
  845000     1.098189     -6.62913    380.89448  0.037563559  0.038307586            3 
  846000    1.1111149    -6.611263    381.42747  0.037571657  0.038297863            3 
  847000    1.1052597   -6.6041408    383.41839  0.037723179  0.038288324            3 
  848000    1.1192608   -6.6128954    382.78365  0.037616318  0.038278725            3 
  849000    1.1242287    -6.605519    382.51263   0.03754541  0.038268712            2 
  850000    1.1124463   -6.6126212     383.3034  0.037578765  0.038259121            4 
  851000    1.1260942   -6.6187395    384.35249  0.037637337  0.038249687            3 
  852000    1.1183089   -6.5832895    383.57083  0.037516709  0.038240048            1 
  853000    1.1314714   -6.5984632    383.02381  0.037419285  0.038230493            4 
  854000    1.1037863   -6.5672989    386.10934  0.037676555  0.038220872            2 
  855000    1.1108138   -6.6073769    385.70458  0.037593039  0.038211786            2 
  856000     1.093107     -6.61031    385.47212  0.037526491  0.038202431            4 
  857000    1.1165471   -6.6011284    386.53322  0.037585883  0.038193203            3 
  858000     1.130557   -6.5709897    387.83619  0.037668627   0.03818414            4 
  859000    1.1084641   -6.6144123    387.07359  0.037550795  0.038174996            2 
  860000    1.0986207   -6.6076374    387.52156  0.037550539  0.038166151            3 
  861000    1.0942053   -6.6619381    387.70966  0.037525132  0.038156821            3 
  862000    1.1302863   -6.5724524    389.74413   0.03767828    0.0381478            3 
  863000     1.105581    -6.571956    390.21073  0.037679676  0.038139046            2 
  864000    1.1257937    -6.593472    390.19417  0.037634468   0.03812971            2 
  865000    1.0623528   -6.6223778    389.66169  0.037539662  0.038120609            4 
  866000    1.1481173   -6.5713651    392.04305  0.037725466  0.038111804            3 
  867000    1.1303812   -6.6127026    390.83446  0.037565788   0.03810336            5 
  868000    1.0971633   -6.5842995    392.35948  0.037668921  0.038094981            3 
  869000     1.086415   -6.5371018    392.88287  0.037675764  0.038086957            3 
  870000    1.0946036   -6.5831546    392.11194  0.037558615  0.038078592            3 
  871000    1.1045654   -6.6140538    392.48661  0.037551341   0.03807019            2 
  872000    1.1074862    -6.624149    392.43474  0.037503319  0.038061653            4 
  873000    1.1212687   -6.6208565    393.43776  0.037556106   0.03805292            3 
  874000    1.1293083   -6.6049648    393.79982  0.037547656  0.038043908            2 
  875000    1.1194003   -6.6355877    392.78169   0.03740778  0.038034998            3 
  876000    1.1117504   -6.6181253    393.66003  0.037448633  0.038025762            2 
  877000    1.1067594   -6.6676122    393.35365  0.037376819  0.038016587            3 
  878000    1.1167674   -6.6117793     394.0652  0.037401785  0.038007479            3 
  879000    1.1019812    -6.627623    393.38391  0.037294644  0.037998148            3 
  880000    1.1065539   -6.6063802    395.76903  0.037478127   0.03798889            3 
  881000    1.0995027   -6.6223665    393.45659  0.037216855  0.037979699            3 
  882000    1.1170806    -6.642469    396.67976  0.037479191  0.037970627            3 
  883000     1.117807   -6.6062278    395.80781  0.037354455  0.037962245            2 
  884000     1.110312   -6.6212806    394.94461  0.037230827  0.037953218            5 
  885000    1.1331667    -6.644102    396.19704  0.037306689  0.037944151            3 
  886000    1.1077239    -6.650427    396.86874  0.037327759  0.037935054            3 
  887000    1.0940107   -6.6200648    397.52586  0.037347413  0.037925825            3 
  888000    1.0887079   -6.6082666    398.66538  0.037412292  0.037917081            2 
  889000    1.1107271   -6.6202805    398.96442   0.03739824  0.037908387            2 
  890000    1.1228555   -6.6301051    399.99053  0.037452297  0.037899531            4 
  891000    1.0925981   -6.5845147    399.27629  0.037343462  0.037890718            4 
  892000     1.099416   -6.5962468    399.74039  0.037344954  0.037882061            2 
  893000    1.0967889   -6.6123583    400.10033  0.037336724  0.037873043            2 
  894000    1.1211189   -6.6052738    399.78412  0.037265485  0.037864034            4 
  895000     1.108692   -6.5911896    400.43206  0.037284177  0.037855129            2 
  896000    1.1051028   -6.6134226    401.81141  0.037370853  0.037845863            2 
  897000     1.109264   -6.6053877    401.78801  0.037327017  0.037836977            3 
  898000    1.0909868    -6.621011    401.41943  0.037251246  0.037827824            2 
  899000     1.130373   -6.6237717    401.72284  0.037237935  0.037818542            3 
  900000    1.1202468   -6.5832993    402.26073  0.037246364  0.037809443            5 
  901000    1.1049526   -6.6164348    402.21951  0.037201212  0.037800213            4 
  902000    1.1129621    -6.525747    402.61181  0.037196213  0.037790919            4 
  903000    1.1111146   -6.6268411    402.69168  0.037162392  0.037781688            2 
  904000    1.1043051   -6.6078305    402.55097  0.037108312  0.037772245            3 
  905000    1.1005159   -6.6070092    404.32609  0.037230763  0.037762745            2 
  906000    1.0955383   -6.6114327    404.82544    0.0372356  0.037753482            2 
  907000    1.0973401   -6.6075731    405.24283  0.037232895  0.037744152            3 
  908000    1.1272918   -6.6300117    405.24558  0.037192142    0.0377349            4 
  909000    1.1134223   -6.6087986     405.6833  0.037191355  0.037725726            8 
  910000    1.1155148   -6.6326974    405.12164  0.037099052  0.037716362            2 
  911000    1.1007848   -6.6063831    407.97339   0.03731919  0.037707062            3 
  912000    1.0908185   -6.5950525    406.26794  0.037122436  0.037697793            6 
  913000    1.1331978    -6.625212    406.33121  0.037087551  0.037688716            3 
  914000    1.1051414   -6.6590113     406.5612  0.037067943  0.037679433            1 
  915000    1.0774221   -6.6025066    410.12015  0.037351562   0.03767059            5 
  916000    1.1384965   -6.6161306    407.57534  0.037079271  0.037661752            2 
  917000    1.0978108   -6.5742914    407.88599  0.037067066  0.037652824            3 
  918000    1.0968518   -6.6371311    409.54132  0.037176954  0.037643873            3 
  919000    1.1175458   -6.6323851    408.82916  0.037071923  0.037635079            5 
  920000    1.0861211    -6.573899    410.52662  0.037185382  0.037626219            3 
  921000    1.1209577   -6.6176141    410.94985  0.037183301  0.037617456            3 
  922000    1.0944288   -6.6345099    409.73511   0.03703318  0.037608791            3 
  923000    1.0789352   -6.6129567    411.38322  0.037141858  0.037600353            3 
  924000     1.115127   -6.6214373    410.97445  0.037064795  0.037591823            7 
  925000    1.1079449   -6.6188777    410.89924   0.03701795    0.0375833            1 
  926000    1.0834635    -6.657144     412.7784  0.037147084  0.037574919            3 
  927000      1.10517   -6.6316971    413.52589  0.037174208  0.037566461            1 
  928000    1.1127578   -6.6272091    413.28824  0.037112808  0.037557908            3 
  929000    1.0960694   -6.6412422    413.73518  0.037112951  0.037549363            3 
  930000    1.0959402    -6.598103    412.97122   0.03700459  0.037540868            4 
  931000    1.0841226   -6.6149143    414.46471  0.037098524  0.037532986            1 
  932000    1.0900866   -6.6347594    415.00102  0.037106672  0.037524572            4 
  933000    1.1112041   -6.6517211     414.0511  0.036982056  0.037515894            3 
  934000    1.1020752   -6.5899646    415.70599  0.037090114  0.037507081            2 
  935000    1.1256387   -6.6034105     415.5553  0.037037015    0.0374984            2 
  936000    1.1094372   -6.6465514    415.48991  0.036991623  0.037489572            3 
  937000    1.1034213   -6.6138025    417.25453  0.037109083  0.037480708            3 
  938000    1.0829201    -6.657909     416.6774  0.037018248  0.037472145            2 
  939000    1.0963016   -6.6178699    418.12167  0.037106999  0.037463723            5 
  940000    1.0942524   -6.5981361    418.11716  0.037067124  0.037454997            3 
  941000    1.1218079   -6.6598011    415.96721  0.036837337  0.037445925            2 
  942000    1.1082702   -6.5963531    418.57627   0.03702904  0.037436844            2 
  943000    1.0878508   -6.6006665    417.12184  0.036861245  0.037428004            5 
  944000    1.0888754   -6.6388642    417.11032   0.03682118  0.037419116            2 
  945000    1.0949914   -6.6530784    418.09812  0.036869323  0.037410007            2 
  946000    1.1080433   -6.6262533    419.13688  0.036921854  0.037401196            2 
  947000    1.1120923   -6.6166625    419.71931  0.036934118  0.037392508            7 
  948000    1.1111484   -6.6343127    420.22654  0.036939745  0.037384292            4 
  949000    1.1105611    -6.636068    420.13547  0.036892823   0.03737587            2 
  950000    1.0841217   -6.6195359    421.08283   0.03693709  0.037367468            1 
  951000    1.1151736   -6.6242815    421.17336  0.036906183  0.037359156            4 
  952000    1.0900487   -6.6676848    421.46362  0.036892824  0.037351046            3 
  953000    1.0859648   -6.6114337    422.92681  0.036982057  0.037342795            2 
  954000    1.0897582   -6.6083299    423.53828  0.036996705  0.037334885            1 
  955000    1.0965603    -6.618974    424.03083  0.037000945  0.037326703            3 
  956000     1.089045   -6.6243763    423.23422  0.036892802  0.037318554            1 
  957000    1.0952835   -6.5869825    424.59256  0.036972533  0.037310748            3 
  958000    1.1092616   -6.6412167    424.29752  0.036908274  0.037302767            1 
  959000    1.0986417   -6.6275073     425.1799  0.036946463  0.037294659            3 
  960000     1.108999   -6.6414436    426.12177  0.036989737  0.037286597            2 
  961000    1.1100821   -6.6450282    425.11589  0.036864021   0.03727847            2 
  962000    1.1076572   -6.6273338    425.99211  0.036901603  0.037270216            3 
  963000    1.0910833   -6.6297706    426.13935  0.036876025  0.037261793            2 
  964000    1.1012497   -6.6370569    426.23692  0.036846206  0.037253363            5 
  965000    1.1115691   -6.6583873     427.3541  0.036904499  0.037245249            1 
  966000    1.0874701   -6.6364348    427.43158  0.036872979  0.037237281            3 
  967000    1.0912951    -6.604817    428.52484  0.036929062  0.037229083            3 
  968000    1.1126799   -6.6701641    427.60252  0.036811511  0.037220942            3 
  969000    1.0944186   -6.5889322    429.79927  0.036962442  0.037212799            5 
  970000    1.1365248   -6.6120123    429.61516  0.036908519  0.037204974            1 
  971000    1.1093334   -6.6370582    428.55546  0.036779563   0.03719692            2 
  972000     1.088043    -6.623785    429.41759  0.036815637  0.037188681            4 
  973000    1.0876768    -6.612249    430.02534  0.036829851  0.037180774            2 
  974000    1.0835554    -6.658593    428.82106  0.036689003  0.037172669            3 
  975000    1.1247908   -6.6308851    430.78951  0.036819616  0.037164386            2 
  976000    1.0914381   -6.6745423     430.2538  0.036736151  0.037155833            2 
  977000    1.0886326   -6.6359521    431.68723  0.036820815  0.037147099            3 
  978000    1.0999129    -6.664848    429.56363  0.036602218  0.037138406            2 
  979000    1.0947395   -6.6470014    432.01131  0.036773179   0.03712973            1 
  980000    1.0982853    -6.642631    431.57709  0.036698732  0.037121197            2 
  981000    1.1137681   -6.6262191    432.30182  0.036722886  0.037112745            3 
  982000    1.0984092   -6.6754102     430.6642   0.03654652  0.037103959            2 
  983000     1.102004   -6.6863112    431.15233  0.036550723  0.037095067            5 
  984000    1.0857337    -6.614729    432.45777  0.036624134  0.037086224            2 
  985000    1.0831683   -6.6680046    431.29066  0.036488212  0.037077362            7 
  986000    1.0958989   -6.6561997     433.8735  0.036669498  0.037068292            2 
  987000    1.0863354    -6.661665     433.3846  0.036591067  0.037059317            4 
  988000     1.091918   -6.6422163    432.14585  0.036449548  0.037050572            7 
  989000    1.1112445   -6.6498973    434.62673  0.036621733  0.037041673            5 
  990000    1.0786125   -6.6391176    435.34499  0.036645201  0.037033094            3 
  991000    1.0993398   -6.6552327    435.78162   0.03664494  0.037024409            3 
  992000    1.1056629   -6.6428742    435.31894  0.036569131  0.037015932            2 
  993000    1.1067421    -6.663757    435.41577  0.036540431   0.03700708            5 
  994000    1.0941389   -6.6834974    434.74856  0.036447733  0.036998436            5 
  995000    1.0957709   -6.6554073    435.10501  0.036440956  0.036989528            2 
  996000     1.081582   -6.6303591    437.26474  0.036585069  0.036980669            2 
  997000    1.1038211   -6.6273354    437.40381  0.036559997  0.036971871            4 
  998000     1.102915   -6.6257992    436.67527  0.036462531  0.036963106            3 
  999000    1.1034104    -6.647098    437.08745  0.036460414  0.036954171            4 
 1000000    1.0901518   -6.6463282    438.72509  0.036560424  0.036945392            3 
 1001000    1.1271448   -6.6182344    438.43142  0.036499453  0.036936513            2 
 1002000    1.0873211   -6.6488229    438.84779  0.036497654  0.036927851            5 
 1003000    1.0740237   -6.6336335    439.11971  0.036483858  0.036919326            6 
 1004000    1.1119527    -6.642279    438.94918  0.036433365  0.036910482            3 
 1005000    1.0794238   -6.6382923    439.59664    0.0364508  0.036901548            2 
 1006000    1.0993743   -6.6325948    439.14577  0.036377218  0.036892435            3 
 1007000    1.1181938   -6.6630824     439.7934  0.036394687  0.036883483            1 
 1008000    1.1105373   -6.6621597    440.16067  0.036388944  0.036874554            3 
 1009000    1.0820796   -6.6755586    440.17095  0.036353729  0.036865486            3 
 1010000    1.0721718   -6.6452006    440.70478  0.036361781  0.036856279            2 
 1011000    1.1173083   -6.6347213    442.91752  0.036508203   0.03684718            2 
 1012000    1.0836198   -6.6698539    439.89312  0.036223083  0.036837998            2 
 1013000    1.0961593   -6.6666308    441.17365  0.036292666  0.036828721            5 
 1014000    1.0768687   -6.6229308    443.29892  0.036431535  0.036819641            2 
 1015000    1.0782947   -6.6399181    442.73741  0.036349541  0.036810546            3 
 1016000    1.0969109   -6.6518868    442.24641  0.036273491  0.036801322            7 
 1017000    1.0999758   -6.6144843     442.8467  0.036287013   0.03679229            7 
 1018000    1.0941661   -6.6171278    443.58403  0.036311725  0.036783445            4 
 1019000    1.0660471   -6.6585517    443.39395  0.036260546  0.036774807            2 
 1020000    1.1032099   -6.6441507    444.86387  0.036345087  0.036765975            3 
 1021000    1.0845593   -6.6430276    444.67299  0.036293911  0.036757066            2 
 1022000    1.1158641   -6.6867374    444.90609  0.036277405   0.03674829            3 
 1023000    1.0896568   -6.6820176    445.43758  0.036285238  0.036739881            3 
 1024000    1.0870165   -6.6313485    445.64874  0.036266988  0.036731355            2 
 1025000    1.0723933   -6.6641593    446.14106  0.036271631  0.036722691            5 
 1026000    1.0833147   -6.7078734    446.37196  0.036255032   0.03671399            7 
 1027000    1.1025531   -6.6365554    446.11874  0.036199183  0.036705392            3 
 1028000    1.0976576    -6.693665    446.57947  0.036201319  0.036696512            3 
 1029000    1.0862574   -6.6415187    448.22008  0.036299003  0.036687776            3 
 1030000    1.0957268   -6.6599637    448.36743  0.036275682  0.036679255            2 
 1031000    1.0905352   -6.6619503    448.78327  0.036274109  0.036670459            3 
 1032000    1.0915696   -6.6197555    450.24199   0.03635675  0.036662062            4 
 1033000    1.0850978   -6.6580651    449.60516   0.03627018  0.036653419            2 
 1034000    1.1176884   -6.6162979     450.8057  0.036331858  0.036644703            4 
 1035000    1.0995921   -6.6539334    450.54627  0.036275867  0.036636359            3 
 1036000    1.1101251   -6.6457179    451.94625  0.036353463  0.036627895            2 
 1037000    1.0787282   -6.6497489    450.98733  0.036241348  0.036619229            2 
 1038000    1.0919274   -6.6408903    450.14759  0.036139017  0.036610637            5 
 1039000    1.0926027   -6.6917756    450.27579  0.036114516  0.036602277           11 
 1040000    1.0863259   -6.6258579    452.62093  0.036267703  0.036593735            3 
 1041000    1.0597647   -6.6579923    452.80309  0.036247446  0.036585263            2 
 1042000    1.0977435   -6.6564368    452.55791  0.036193051  0.036576574            2 
 1043000    1.0864865   -6.6465206    452.04711  0.036117538  0.036567912            3 
 1044000    1.0833322    -6.673889    452.30923  0.036103866   0.03655921            2 
 1045000    1.0749504   -6.6996204    452.24113  0.036063886   0.03655075            4 
 1046000    1.0776114   -6.6578104    454.02577  0.036171587  0.036542097            2 
 1047000     1.084242    -6.660066    454.32774  0.036161074  0.036533292            7 
 1048000    1.0567896    -6.647668    453.91598  0.036093828   0.03652438            2 
 1049000    1.1007563   -6.6729639    453.71364  0.036043346    0.0365156            1 
 1050000    1.0874037   -6.6848612    454.20066  0.036047671  0.036506826            3 
 1051000    1.0690442   -6.6675923    454.83104  0.036063356  0.036498178            3 
 1052000    1.0864394   -6.6965624    455.62266  0.036091782  0.036489098            2 
 1053000    1.0875366   -6.6513079    456.17662  0.036101347  0.036480253            2 
 1054000    1.0583197   -6.6723001     455.7373  0.036032361  0.036471581            4 
 1055000    1.0861486   -6.6453846    456.37553   0.03604862  0.036462733            3 
 1056000    1.0799039   -6.6965786    455.86087  0.035973869  0.036454055            5 
 1057000    1.0790466   -6.6638435       457.96  0.036105329  0.036445525            2 
 1058000    1.0791316   -6.6881795    457.34848  0.036023037  0.036437116            2 
 1059000    1.0790196   -6.7038127    458.01708  0.036041634  0.036428644            6 
 1060000    1.0860276   -6.6996098    458.85944  0.036073856  0.036420104            2 
 1061000    1.0914195   -6.6595166    459.47937  0.036088546  0.036411661            4 
 1062000    1.0675751   -6.6891868    458.98782  0.036015994  0.036403312            1 
 1063000     1.092828   -6.6740411    459.38731   0.03601343    0.0363951            3 
 1064000    1.1150698   -6.7060756    459.42825  0.035982789  0.036386698            2 
 1065000    1.0933964   -6.6353434    462.02826  0.036152446  0.036378499            3 
 1066000    1.0754359   -6.6213101     463.2298  0.036212461  0.036370757            2 
 1067000    1.0699479   -6.6420511     463.3061  0.036184481  0.036362903            4 
 1068000    1.0799406   -6.6577205    463.49471  0.036165318  0.036354917            2 
 1069000    1.0734158   -6.6842665    463.59296  0.036139145  0.036347013            4 
 1070000    1.0771259   -6.6978595    462.73829  0.036038807  0.036339112            2 
 1071000    1.0667962   -6.7075799    462.56048  0.035991322  0.036330936            5 
 1072000    1.1027665   -6.6591317     464.2672  0.036090423  0.036322926            4 
 1073000    1.0814202   -6.6349176    464.04731   0.03603971  0.036314967            5 
 1074000    1.0739641   -6.6582636    464.27368  0.036023718  0.036307139            2 
 1075000    1.0758113   -6.6661964    465.77517  0.036106602  0.036299471            2 
 1076000    1.0868516    -6.668029    465.86372  0.036079904  0.036291754            7 
 1077000    1.0565168   -6.6869429    466.33271  0.036082692  0.036283824            2 
 1078000    1.0893523   -6.6851634    464.99072  0.035945479  0.036276052            3 
 1079000    1.0953916   -6.6881949    467.12591  0.036077071   0.03626815            3 
 1080000    1.0936555   -6.6524579    467.14767  0.036045345  0.036260283            2 
 1081000    1.0721738   -6.6502285    467.99126  0.036077032  0.036252562            2 
 1082000    1.0877342   -6.6674409    467.39669  0.035997897  0.036244745            2 
 1083000    1.0854735   -6.6471634    469.79376  0.036149104  0.036237004            3 
 1084000    1.0843177   -6.6951814    468.58553  0.036022873  0.036229273            2 
 1085000    1.0615515   -6.6752484    468.38329  0.035974139  0.036221742            4 
 1086000    1.0621609   -6.6431903     470.5142  0.036104528  0.036214359            4 
 1087000    1.0587682   -6.6677238    470.16598  0.036044616  0.036206842            4 
 1088000    1.0652971    -6.675098     470.0286  0.036000965  0.036199487            5 
 1089000     1.096031   -6.6734313    471.25188  0.036061515  0.036192017            5 
 1090000    1.0659202   -6.6718563     470.1786  0.035946376  0.036184772            1 
 1091000    1.0498471   -6.7088669    470.69175  0.035952624  0.036177467            4 
 1092000     1.032313   -6.6852865    470.12162  0.035876192  0.036169932            3 
 1093000    1.0812516   -6.6463191    472.47022  0.036022433  0.036162682            3 
 1094000    1.1049061   -6.6857938    473.08393  0.036036253  0.036155282            7 
 1095000    1.0604705   -6.6960636    472.98754  0.035996007  0.036147733            2 
 1096000    1.0449962   -6.6765123    471.91113  0.035881321   0.03614012            4 
 1097000    1.0959105   -6.7046452    471.64856  0.035828666  0.036132311            5 
 1098000    1.0801839   -6.7026715    472.38042   0.03585158  0.036124339            4 
 1099000      1.07986   -6.6449269    472.15381  0.035801775  0.036116722            3 
 1100000     1.099576   -6.6863269    473.58756  0.035877846   0.03610919            2 
 1101000    1.0754664   -6.6693471    475.79683  0.036012476  0.036101843            2 
 1102000    1.0533629    -6.695632    475.81305  0.035981023  0.036094539            3 
 1103000    1.0893352   -6.6858418    474.75866  0.035868741  0.036087233            2 
 1104000    1.0995759     -6.69878    475.46968  0.035889921  0.036079727            5 
 1105000     1.088863   -6.6591945    476.49904  0.035935071  0.036072295            3 
 1106000    1.0576015   -6.6872651    477.31064  0.035963731  0.036065048            3 
 1107000    1.0803841   -6.7158902    476.94432  0.035903667  0.036057818            3 
 1108000    1.0765842   -6.6337784    477.78078  0.035934174  0.036050641           10 
 1109000    1.0628354   -6.6780496    478.65436  0.035967415  0.036043941            3 
 1110000    1.0576976   -6.7021266    478.55954  0.035927893  0.036036966            4 
 1111000    1.0604261   -6.6559182    480.81914  0.036065042   0.03602992            5 
 1112000    1.0807639   -6.6869622    479.36128  0.035923358  0.036023215            8 
 1113000    1.0664352   -6.6646107    480.42733  0.035970899  0.036016218            2 
 1114000    1.0882458   -6.6686216    481.36494  0.036008748  0.036009639            3 
 1115000    1.0741031   -6.6656967     483.6563  0.036147705  0.036003173            1 
 1116000    1.0762811   -6.7039961    480.44558  0.035875566  0.035996414            5 
 1117000    1.0800773   -6.6606242    482.55398  0.036000745  0.035989635            6 
 1118000    1.1110035   -6.6763497    482.29382  0.035949152  0.035983096            7 
 1119000    1.0815047   -6.6940765    482.76303  0.035951968  0.035976273            2 
 1120000     1.072135   -6.6438175     483.3332  0.035962292  0.035969497            2 
 1121000     1.066817   -6.7016919    482.02246  0.035832773   0.03596282            4 
 1122000    1.0811237   -6.6845001    483.74011   0.03592841  0.035955881            2 
 1123000     1.066985   -6.6907807    483.62075  0.035887559  0.035949053            3 
 1124000    1.0751649   -6.6950878    485.79915  0.036017138  0.035941931            1 
 1125000    1.0643851   -6.7264907    483.98747  0.035850924  0.035935136            2 
 1126000    1.0708853   -6.6790248    484.45655  0.035853801  0.035928476            9 
 1127000    1.0708245   -6.6661412    485.04392  0.035865419  0.035921913            3 
 1128000    1.0763869   -6.6440701    486.88848  0.035969894  0.035915449            6 
 1129000    1.0741278   -6.6888468    487.59291  0.035990029   0.03590936            4 
 1130000    1.0591415   -6.6958734    487.45416  0.035947947  0.035903187            3 
 1131000    1.0390624   -6.6761149    489.12075  0.036038959  0.035897075            3 
 1132000    1.0619299   -6.6810951    488.84113  0.035986538  0.035890679            5 
 1133000    1.0839209   -6.7183349     487.7841   0.03587703  0.035884059            2 
 1134000    1.0643803    -6.683943    487.53676  0.035827216  0.035877408            2 
 1135000    1.0825345   -6.6699216    489.47089  0.035937657  0.035870863            2 
 1136000    1.0594022   -6.6664486    490.01972  0.035946282  0.035864479            4 
 1137000    1.0679016   -6.6837203    490.57409  0.035955298  0.035858157            2 
 1138000    1.0744709   -6.6998037    489.12331  0.035817465  0.035852014            5 
 1139000    1.0384389   -6.6515302    489.58189   0.03581957  0.035845262            2 
 1140000    1.0752228   -6.6521645    490.09458  0.035825627  0.035838616            5 
 1141000     1.055537   -6.6965654    489.00274  0.035714486  0.035831779            3 
 1142000    1.0917557   -6.6917154    488.85609  0.035672511  0.035824888            2 
 1143000    1.0741344   -6.6740412    490.99781  0.035797449  0.035818077            4 
 1144000    1.0642535   -6.7237654    489.62401  0.035666084  0.035811229            2 
 1145000    1.0683252   -6.7345534    490.63134  0.035708249  0.035804352            4 
 1146000    1.0707683   -6.6490941    491.23239  0.035720796  0.035797451            2 
 1147000    1.0728527   -6.6926743    491.89124  0.035737521  0.035790928            1 
 1148000    1.0477311   -6.7078612    492.60485  0.035758192  0.035784377            2 
 1149000    1.0656599   -6.7067073    493.69288  0.035805982  0.035777629            2 
 1150000     1.046154   -6.6807928    494.27504  0.035817032  0.035771049            5 
 1151000    1.0530668   -6.7008051    494.16403  0.035777876  0.035764501            4 
 1152000    1.0663293   -6.6937754    494.43285  0.035766265  0.035757939            2 
 1153000    1.0677305   -6.6868955    495.31987  0.035799354  0.035751503            3 
 1154000    1.0714815   -6.6478458    495.10871  0.035753084  0.035744982            2 
 1155000    1.0829846   -6.7059645     494.1226  0.035650982  0.035738063            4 
 1156000    1.0687892   -6.6785904    493.89185  0.035603507  0.035731337            3 
 1157000    1.0748664   -6.7333814    494.92831  0.035647386  0.035724465            7 
 1158000    1.0739743   -6.7107189    493.71908  0.035529582  0.035717484            3 
 1159000    1.0587509   -6.7050942    495.93737  0.035658425  0.035710614            4 
 1160000    1.0824762     -6.69939    498.01958  0.035777268  0.035703718            3 
 1161000    1.0605779   -6.7150728    496.67084  0.035649644  0.035696762            2 
 1162000    1.0805761   -6.6834872    498.23414  0.035731077   0.03568996            4 
 1163000     1.051409   -6.6789865    497.66115  0.035659297  0.035683254            3 
 1164000    1.0549664   -6.6930496    498.11383   0.03566107  0.035676618            5 
 1165000    1.0599897   -6.6907443    498.43907  0.035653725  0.035669954            2 
 1166000    1.0755947   -6.7197093     497.5108  0.035556804  0.035663249            4 
 1167000    1.0547898   -6.6742684    498.81592  0.035619532  0.035656513            2 
 1168000    1.0587265   -6.7320842     498.5639  0.035571055  0.035649788            2 
 1169000    1.0953086   -6.6780582    499.13795  0.035581548  0.035643006            3 
 1170000     1.019558   -6.7063391    499.24373   0.03555867  0.035636422            3 
 1171000    1.0441633    -6.694113    500.85724  0.035643128  0.035629767            3 
 1172000    1.0798692   -6.7230962    499.50026   0.03551623  0.035622922            2 
 1173000    1.0821967   -6.6965109    501.03936  0.035595294  0.035615941            3 
 1174000    1.0719503   -6.7081121     500.9257  0.035556907  0.035609176            3 
 1175000    1.1044597   -6.7024128    499.32676  0.035413246  0.035602194            5 
 1176000    1.0712365   -6.7050579    501.19191    0.0355153  0.035595118            5 
 1177000    1.0934334   -6.7199051    499.93074  0.035395833  0.035588064            3 
 1178000    1.0671551   -6.6933415    502.43907  0.035543228   0.03558101            5 
 1179000    1.0778636   -6.6967711      503.609  0.035595774  0.035574192            5 
 1180000    1.0456703   -6.6826873    503.00051  0.035522635   0.03556742            2 
 1181000    1.0888516   -6.7278241    503.16419  0.035504106  0.035560628            5 
 1182000    1.0655995   -6.7140972     502.5949  0.035433932  0.035553737            3 
 1183000    1.0602613   -6.6881476    503.72616  0.035483668  0.035546777            2 
 1184000    1.0071683   -6.7174375    504.58481  0.035514134  0.035539904            2 
 1185000     1.049732   -6.6987995     504.4967  0.035477968  0.035532876            3 
 1186000    1.0841785   -6.6996412    504.63816  0.035457993  0.035525846            3 
 1187000    1.0461259   -6.7230511    504.97937  0.035452076  0.035518828            1 
 1188000    1.0685453   -6.6780954    505.95068  0.035490367  0.035511913            4 
 1189000    1.0731068   -6.7135571    506.01434  0.035464981  0.035505126            5 
 1190000    1.0719308   -6.7350396    505.05829  0.035368227  0.035498309            2 
 1191000    1.0624751   -6.6741673     507.2552  0.035492247  0.035491436            8 
 1192000    1.0426613   -6.7186037    507.25314  0.035462328  0.035484711            3 
 1193000    1.0476181   -6.7090099     508.1321     0.035494   0.03547803            8 
 1194000    1.0492692   -6.7051464     506.8791  0.035376822  0.035471083            3 
 1195000    1.0522992   -6.7349044    505.94904   0.03528236  0.035464005            2 
 1196000    1.0802859   -6.7069613    509.22527  0.035481136  0.035456953            4 
 1197000    1.0536106   -6.6794976    507.49766  0.035331221  0.035449817            3 
 1198000    1.0718336   -6.6878168    507.85862  0.035326838  0.035442874            4 
 1199000    1.0710113    -6.711019    507.43996  0.035268276  0.035435636            3 
 1200000    1.0451316   -6.6904103    508.34144  0.035301489  0.035428455            2 
 1201000    1.0710823   -6.7256927    508.56025  0.035287278  0.035421069            4 
 1202000    1.0600878   -6.7034958    508.00402  0.035219358  0.035413858            4 
 1203000    1.0529233   -6.7156781    509.88018  0.035320046  0.035406578            1 
 1204000    1.0812963    -6.710228    509.41331  0.035258397  0.035399423            5 
 1205000    1.0657391   -6.7035163    508.10824  0.035138882  0.035392175            3 
 1206000    1.0649576   -6.7066339    511.09694  0.035316262  0.035384842            2 
 1207000    1.0584569   -6.7215945     510.4565  0.035242785  0.035377444            6 
 1208000    1.0566377   -6.7164382    510.66262  0.035227829  0.035370308            2 
 1209000    1.0771303   -6.7179563    511.05613  0.035225815   0.03536287            6 
 1210000    1.0686322   -6.7323223     510.2185  0.035139015  0.035355531            3 
 1211000    1.0402783   -6.7398469    510.72792  0.035145054  0.035348037            3 
 1212000    1.0679235   -6.7164563    512.46068  0.035235196  0.035340718            5 
 1213000    1.0748659   -6.7117387    511.59855  0.035146919  0.035333432            4 
 1214000    1.0659246    -6.751466    511.71936   0.03512626  0.035326015            9 
 1215000    1.0492325   -6.6792533    513.42832  0.035214562  0.035318739            2 
 1216000    1.0844337   -6.7097428    511.53511   0.03505586  0.035311584            7 
 1217000    1.0567578   -6.7375461    513.73743  0.035177858  0.035304221            4 
 1218000    1.0615401   -6.7176712    515.09827  0.035242082  0.035296975            6 
 1219000     1.064934   -6.6914187    513.99192  0.035137539  0.035289752            3 
 1220000    1.0826929   -6.6992646    514.06553  0.035113766  0.035282553            2 
 1221000    1.0451391   -6.6967031    515.57513  0.035188038  0.035275435            3 
 1222000    1.0462282   -6.7160861    515.11515  0.035127874  0.035268228            6 
 1223000    1.0729628   -6.7271378     515.4511  0.035122043  0.035261082            4 
 1224000     1.050006   -6.6840871    516.40824  0.035158513  0.035254239            5 
 1225000    1.0436876    -6.736678    516.18679  0.035114747  0.035247245            2 
 1226000    1.0537467   -6.6913448    518.72146  0.035258391  0.035240506            2 
 1227000    1.0831889   -6.7471574    516.79365  0.035098727  0.035233653            2 
 1228000    1.0587794   -6.6881371    518.69303  0.035199038  0.035226622            5 
 1229000    1.0339743   -6.7020721    516.99473  0.035055243  0.035219629            4 
 1230000    1.0609812   -6.6981668    518.02245  0.035096372  0.035212464            2 
 1231000    1.0414569    -6.714884    519.11372  0.035141735  0.035205126            5 
 1232000    1.0878013   -6.7423187    517.49376  0.035003636  0.035197757            2 
 1233000    1.0761944   -6.6921168    518.71403   0.03505772  0.035190332            3 
 1234000     1.048392   -6.7007619    517.73726  0.034963348  0.035183007            3 
 1235000    1.0505019    -6.713738    517.49883  0.034918949  0.035175574            4 
 1236000    1.0591606   -6.6967376    518.27649  0.034943129  0.035168078            2 
 1237000    1.0718327   -6.7235548    519.62848  0.035005961  0.035160585            3 
 1238000    1.0687542   -6.7214533    520.15842  0.035013357   0.03515329            3 
 1239000    1.0667278   -6.7247762    520.79633  0.035028002  0.035145951            3 
 1240000    1.0490963   -6.7403671    519.46829  0.034910503  0.035138442            4 
 1241000    1.0447763   -6.7161763    522.73772  0.035101915  0.035131213            4 
 1242000    1.0740509   -6.7295016    521.20378  0.034970732  0.035123784            3 
 1243000    1.0459249   -6.7257603    522.00235  0.034996135  0.035116243            2 
 1244000      1.04596   -6.7544506    520.42664  0.034862449  0.035108696            4 
 1245000    1.0499315   -6.7701061    521.33576  0.034895298  0.035101257            6 
 1246000     1.069523   -6.7599886    521.67796  0.034890179  0.035093719            3 
 1247000    1.0608629   -6.7394193    522.15758  0.034894252  0.035086281            3 
 1248000    1.0579143   -6.7259987    522.87772  0.034914378  0.035078893            4 
 1249000    1.0616755    -6.716784     521.8245  0.034816153  0.035071239            3 
 1250000    1.0583279   -6.6770209    524.29112  0.034952742  0.035063848            5 
 1251000    1.0460384   -6.7023617    524.08563  0.034911113   0.03505654            3 
 1252000    1.0426319   -6.7405719    524.59204  0.034916935  0.035049035            4 
 1253000    1.0340659    -6.726385    525.24518  0.034932507  0.035041463            3 
 1254000    1.0558725   -6.7364022    525.02913  0.034890293     0.035034            4 
 1255000    1.0638522   -6.7540295    524.12002  0.034802126  0.035026396            4 
 1256000    1.0603247   -6.7036057    524.77231  0.034817696  0.035018727            2 
 1257000    1.0342644   -6.7255956    525.50915  0.034838846  0.035011057            4 
 1258000    1.0354493   -6.6999362    525.03077  0.034779463    0.0350034            3 
 1259000    1.0412765   -6.7103236    525.37277  0.034774475  0.034995663            2 
 1260000    1.0340133   -6.6593039    525.93867  0.034784304  0.034988159            3 
 1261000    1.0660281   -6.7104747    526.85585  0.034817331  0.034980433            4 
 1262000    1.0247768   -6.7139472    528.22984   0.03488047  0.034972594            3 
 1263000    1.0422955   -6.7681314    526.43688  0.034734553  0.034964877            6 
 1264000    1.0401563    -6.710202    527.62663  0.034785511   0.03495729            6 
 1265000    1.0485296   -6.7397606     527.1375  0.034725791  0.034949586            3 
 1266000     1.041604   -6.6952718     526.9132  0.034683596  0.034941864            5 
 1267000    1.0235549   -6.7327982    527.93219  0.034723243  0.034933849            2 
 1268000     1.070442   -6.7450704    528.40764  0.034727106  0.034926058            2 
 1269000    1.0424826   -6.7108448    527.50881  0.034640715  0.034918431            5 
 1270000    1.0408449   -6.7456014    528.81168  0.034698929  0.034910694            2 
 1271000    1.0679485   -6.7003104    530.35576  0.034772866  0.034903212            2 
 1272000    1.0341462   -6.7049366    530.50915  0.034755578   0.03489579            2 
 1273000    1.0525972    -6.696498    530.68831  0.034740005  0.034888515            3 
 1274000    1.0298791   -6.7547463    531.08724   0.03473883  0.034881018            3 
 1275000    1.0673073   -6.7551388    531.72876  0.034753514  0.034873292            2 
 1276000    1.0396741    -6.711338    531.20601  0.034692137  0.034865696            5 
 1277000    1.0387763   -6.7254087     531.6697   0.03469523  0.034858089            2 
 1278000    1.0340715   -6.7520343    529.57772  0.034531672   0.03485033            3 
 1279000    1.0505991   -6.7558819    532.20566  0.034675896  0.034842536            3 
 1280000    1.0349772   -6.7282394    532.56082  0.034671928  0.034834826            3 
 1281000     1.017473   -6.7563107    532.37512  0.034632782  0.034827134            2 
 1282000    1.0620472   -6.7256685    532.59807  0.034620259  0.034819329            5 
 1283000     1.048653    -6.731054    531.80225  0.034541585   0.03481136            5 
 1284000    1.0331066   -6.7339356    532.36541  0.034551234  0.034803457            4 
 1285000    1.0546794   -6.7270086    532.73544  0.034548342  0.034795511            2 
 1286000    1.0504244   -6.7577045    531.69724  0.034454201  0.034787294            2 
 1287000    1.0471516   -6.7436832    534.65253  0.034618786  0.034779185            3 
 1288000    1.0245498   -6.7084325    531.99892   0.03442022  0.034771117            9 
 1289000    1.0439582   -6.7019709    533.11831  0.034465885  0.034763066            7 
 1290000     1.046464   -6.7389367     532.6097  0.034406311  0.034754928            2 
 1291000     1.049828   -6.7198136    533.37768  0.034429233  0.034746422            4 
 1292000    1.0428396   -6.7425792    533.80688  0.034430268  0.034737999            6 
 1293000    1.0436713   -6.7481411    533.39709  0.034377229  0.034729608            5 
 1294000    1.0239496   -6.7142986    534.96725   0.03445178   0.03472125            2 
 1295000    1.0279431   -6.7357636    532.75338  0.034282714  0.034712826            6 
 1296000    1.0408085   -6.7607745    533.63563   0.03431299  0.034704463            3 
 1297000    1.0537856   -6.7272821    535.52534   0.03440795  0.034696015            1 
 1298000     1.060536   -6.7679423    535.84987  0.034402277  0.034687806            3 
 1299000    1.0355805   -6.7758032    534.46928  0.034287226  0.034679317            6 
 1300000    1.0391179   -6.7405593    535.14782  0.034304348  0.034670774            4 
 1301000      1.06324   -6.7632919    535.85409  0.034323218  0.034662312            5 
 1302000    1.0189219   -6.7105635    535.74328  0.034289764  0.034653892            4 
 1303000    1.0215358   -6.7520935    536.58486  0.034317272  0.034645484            3 
 1304000       1.0384   -6.7376052    536.61462  0.034292857   0.03463709            3 
 1305000     1.036955   -6.7539669    536.57424     0.034264  0.034628522            3 
 1306000    1.0476067   -6.7371833    540.05859  0.034460094  0.034620164            2 
 1307000    1.0542723   -6.7383907    538.96143  0.034363774  0.034611853            3 
 1308000     1.052274   -6.7480705    537.84144  0.034266147  0.034603732            2 
 1309000    1.0405104   -6.7096969     538.4282  0.034277323  0.034595456            5 
 1310000     1.044281   -6.7240556    540.17217  0.034362097  0.034587265            3 
 1311000    1.0492702   -6.7646848    538.71062  0.034242983  0.034579112            4 
 1312000    1.0390689   -6.7315889    538.59788  0.034209723  0.034570849            4 
 1313000    1.0501358   -6.7523247    538.22315  0.034159885  0.034562481            3 
 1314000    1.0307016   -6.7479153    539.96362  0.034244268  0.034554226            2 
 1315000     1.031619   -6.7460537    539.16758  0.034167781  0.034545629            4 
 1316000    1.0341255   -6.7475308    539.89069  0.034187607  0.034536942            7 
 1317000    1.0470237   -6.7060885    540.07687  0.034173429  0.034528557            4 
 1318000    1.0586434    -6.710704    541.82507  0.034258034  0.034520188            3 
 1319000    1.0478483   -6.7424477     540.6625  0.034158611  0.034512001            2 
 1320000    1.0177964   -6.7350182    540.21772  0.034104654  0.034503909            5 
 1321000     1.028854    -6.755792    540.50001  0.034096644  0.034495582            4 
 1322000    1.0418721   -6.7330731    542.66707  0.034207455  0.034487303            3 
 1323000    1.0179103    -6.798511    541.25477  0.034092641  0.034478853            4 
 1324000    1.0526743   -6.7747589    542.11649  0.034121128  0.034470353            4 
 1325000    1.0242673   -6.7364166    543.33583  0.034172065  0.034462099            2 
 1326000    1.0372678   -6.7497326    543.52614  0.034158254  0.034453765            1 
 1327000    1.0299938    -6.764103    542.25319  0.034052574  0.034445332            4 
 1328000     1.061551    -6.701252    544.02119  0.034137876  0.034437162            3 
 1329000    1.0430706   -6.7693381    543.78086  0.034097119   0.03442886            4 
 1330000    1.0390307    -6.717154    542.28415  0.033977704  0.034420474            9 
 1331000      1.03308   -6.8061356    542.28582   0.03395228  0.034412066            7 
 1332000    1.0451101    -6.774931     542.6647  0.033950494  0.034403537            2 
 1333000    1.0244919   -6.7744076    545.63051  0.034110435   0.03439512            3 
 1334000    1.0327119   -6.7534577    544.67191  0.034024982   0.03438668            4 
 1335000    1.0201896   -6.7241566    544.66485  0.033999055  0.034378208            3 
 1336000    1.0249641   -6.7813968    542.70458  0.033851333  0.034369597            4 
 1337000    1.0275519   -6.7484234    544.82861  0.033958403  0.034360987            5 
 1338000    1.0360612   -6.7512214    546.90783   0.03406252  0.034352351            3 
 1339000    1.0481306   -6.7617239    545.69347  0.033961506   0.03434373            2 
 1340000    1.0247287   -6.7452099    547.92617  0.034075011  0.034335249            2 
 1341000    1.0292411   -6.7485541    546.49599  0.033960725   0.03432672            4 
 1342000    1.0431904   -6.6895082    547.39182  0.033991047  0.034318366            2 
 1343000    1.0546421   -6.7712546    548.24758  0.034018837   0.03431016            2 
 1344000    1.0381292   -6.7787112    547.42556  0.033942557  0.034301688            2 
 1345000    1.0063815   -6.7769179    549.86611  0.034068532  0.034293276            4 
 1346000    1.0402183   -6.7888793    546.32102  0.033823738  0.034284679            8 
 1347000    1.0438852   -6.7783492    549.73177  0.034009637  0.034276306            3 
 1348000    1.0393785    -6.769849    548.33366  0.033897976  0.034267966            4 
 1349000    1.0223714   -6.7343285    550.81068  0.034025864   0.03425985            3 
 1350000    1.0357524   -6.7862276    550.09505  0.033956485  0.034251682            2 
 1351000    1.0231742   -6.7651724    550.71398  0.033969528  0.034243475            4 
 1352000    1.0322197   -6.7787446    550.50629  0.033931601  0.034235354            6 
 1353000    1.0229688    -6.743752    550.49806  0.033906015  0.034227165            3 
 1354000    1.0495417   -6.7328322    554.34446  0.034117705  0.034219159            4 
 1355000    1.0367462   -6.7514946    551.86091  0.033939785  0.034211137            2 
 1356000    1.0401064   -6.7557054    551.39515  0.033886132  0.034203075            3 
 1357000    1.0420018   -6.7425415    554.25238  0.034036624   0.03419506            3 
 1358000     1.054116   -6.7017939    554.74663  0.034041889   0.03418726            2 
 1359000    1.0400173   -6.7891831    554.51191  0.034002447  0.034179515            2 
 1360000    1.0379007   -6.7615957    556.66995  0.034109678  0.034171724            2 
 1361000    1.0403781   -6.7269068    555.06742  0.033986494  0.034164025            5 
 1362000     1.022285   -6.7759363    554.81159  0.033945888  0.034156462            3 
 1363000    1.0197315   -6.7701585     557.2678  0.034071154  0.034149005            2 
 1364000    1.0276182   -6.7459657    556.64221  0.034007955  0.034141556            3 
 1365000    1.0363207   -6.7812602    557.07489  0.034009456  0.034134155            5 
 1366000    1.0432801   -6.7594817    557.40274   0.03400456  0.034126671            4 
 1367000    1.0171984   -6.7760691    557.38896  0.033978844  0.034119245            5 
 1368000    1.0230893   -6.7407349    559.19112  0.034063786   0.03411188            5 
 1369000    1.0555082   -6.7616356    557.73352  0.033950178  0.034104659            2 
 1370000     1.055378   -6.7429158    559.20221  0.034014733  0.034097194            4 
 1371000    1.0334649   -6.7698708    558.38282  0.033940118  0.034089757            2 
 1372000    1.0471851   -6.7857645    558.14435  0.033900896  0.034082036            2 
 1373000    1.0184259   -6.7624737    558.59518  0.033903568  0.034074456            6 
 1374000    1.0021691   -6.7537936    560.01888   0.03396524  0.034067102            5 
 1375000    1.0307809   -6.7506007    561.65348  0.034039605  0.034059772            2 
 1376000    1.0353927   -6.7886866    560.70788  0.033957599  0.034052391            5 
 1377000    1.0246108   -6.7377388    560.45366  0.033917554  0.034045011            3 
 1378000    1.0492431    -6.765396     560.6194  0.033902963  0.034037688            3 
 1379000    1.0405684   -6.7885219    559.39468  0.033804368  0.034030343            2 
 1380000    1.0299294   -6.7752692    559.89642   0.03381017  0.034022737            3 
 1381000    1.0382652   -6.7829359     560.3509  0.033813113  0.034015237            5 
 1382000    1.0350036   -6.7279509    562.96614  0.033946342  0.034007856            6 
 1383000    1.0216883   -6.7623313    562.94475  0.033920508  0.034000603            7 
 1384000    1.0463142   -6.7686927    563.44067  0.033925859  0.033993472            3 
 1385000    1.0299173   -6.7500898    563.12094  0.033882126    0.0339861            2 
 1386000    1.0306361   -6.7168707    564.35511  0.033931885  0.033978732            2 
 1387000    1.0433998   -6.7524738    562.65986  0.033805567  0.033971493            2 
 1388000      1.04006   -6.7477869    563.24951  0.033816613  0.033964089            4 
 1389000    1.0359653   -6.7689806    564.57784  0.033871961   0.03395657            3 
 1390000    1.0450848   -6.7680628    563.46033  0.033780596  0.033948959            2 
 1391000    1.0364103   -6.7461298    565.55624  0.033881874  0.033941523            5 
 1392000    1.0451018    -6.785653    562.32764   0.03366425  0.033933723            5 
 1393000    1.0177877   -6.7544076    564.58102  0.033774888  0.033925942            2 
 1394000    1.0374324   -6.7739296    566.17716  0.033846076  0.033918291            3 
 1395000    1.0139796   -6.7740656    566.78408   0.03385807  0.033910761            4 
 1396000    1.0391147   -6.7836619    564.98665  0.033726519  0.033903171            2 
 1397000     1.022761   -6.7900356    564.94249  0.033699743  0.033895456            2 
 1398000    1.0659981   -6.7870674    564.93263  0.033675049  0.033887792            2 
 1399000    1.0100951   -6.7573541    566.39104  0.033737851  0.033880041            5 
 1400000    1.0326141   -6.7420605    567.77102  0.033795894  0.033872366            6 
 1401000     1.030567   -6.7322682    567.09126  0.033731338  0.033864859            2 
 1402000    1.0347038   -6.7281304    569.19579   0.03383237  0.033857267            3 
 1403000    1.0210202   -6.7391071    567.99832   0.03373713  0.033849793            3 
 1404000     1.010843   -6.7510585    568.39868  0.033736864  0.033841922            5 
 1405000    1.0149944   -6.7652477    566.69999  0.033612099  0.033834199            4 
 1406000    1.0342955     -6.76096     567.8054  0.033653711  0.033826545            3 
 1407000    1.0460369   -6.7987168    568.93773  0.033696857  0.033818967            4 
 1408000    1.0548767   -6.7682624    570.26722  0.033751611  0.033811535            1 
 1409000    1.0217758   -6.7610728    569.46756  0.033680362  0.033804084            4 
 1410000    1.0283596   -6.7471768    569.61963  0.033665463  0.033796596            2 
 1411000     1.030573   -6.7638398    569.62378  0.033641849  0.033788983            4 
 1412000     1.036004   -6.7897702    570.16101  0.033649729   0.03378141            2 
 1413000    1.0210903   -6.7707392    571.70714    0.0337171  0.033773836           10 
 1414000    1.0397644   -6.7649262    570.66872  0.033632056   0.03376622            4 
 1415000    1.0072183   -6.7797177    571.68394  0.033668076  0.033758762            5 
 1416000    1.0384497   -6.7427397    572.21035   0.03367528  0.033751268            6 
 1417000    1.0108327   -6.7545467    571.16354  0.033589952  0.033743725            2 
 1418000    1.0239757   -6.7756545    571.45376  0.033583319  0.033736068            2 
 1419000    1.0387925   -6.7620935    570.69232  0.033514935  0.033728489            3 
 1420000     1.018431   -6.7845924    570.81548  0.033498561  0.033720969            5 
 1421000     1.023345   -6.7409449     571.5524  0.033518203  0.033713154            4 
 1422000    1.0372054   -6.7844175    571.71214  0.033503993  0.033705442            4 
 1423000    1.0332332   -6.7870847    572.18106  0.033507909  0.033697593            4 
 1424000    1.0195199   -6.7955658    570.80302  0.033403735  0.033689798            2 
 1425000    1.0022826   -6.7665511      572.727  0.033492807  0.033681891            2 
 1426000    1.0350937   -6.7624147     573.5193  0.033515621  0.033674004            3 
 1427000    1.0314344   -6.7661227    573.88819  0.033513676  0.033666165            2 
 1428000    1.0434288   -6.7679165     573.2119  0.033450741  0.033658434            3 
 1429000    1.0232912    -6.779653    575.35185  0.033552126  0.033650724            5 
 1430000    1.0299051   -6.7879879    574.65584  0.033488103  0.033643022            5 
 1431000    1.0264858   -6.7781741    574.09787  0.033432208  0.033635106            4 
 1432000   0.99549562   -6.7792136    575.76719  0.033506005  0.033627185            3 
 1433000   0.99933673   -6.7817271    573.46379  0.033348674    0.0336191            4 
 1434000    1.0294467   -6.7892546    573.40072  0.033321753     0.033611            2 
 1435000    1.0177979   -6.7649297    575.53188  0.033422293  0.033602955            3 
 1436000    1.0200767   -6.8125817    575.62613  0.033404488  0.033594919            5 
 1437000     1.003525   -6.7535855    575.23067  0.033358308  0.033586748            6 
 1438000    1.0150865   -6.7790973    574.04859  0.033266608  0.033578666            3 
 1439000    1.0109796   -6.7547108    576.38064   0.03337854   0.03357048            5 
 1440000    1.0022653   -6.7750922    572.78665  0.033147376  0.033562243            4 
 1441000    1.0291876   -6.7560385    575.17171  0.033262301  0.033554009            3 
 1442000    1.0091167   -6.8005572    573.49965  0.033142606  0.033545559            2 
 1443000    1.0214573   -6.7885147    577.21338  0.033334106  0.033537265            2 
 1444000    1.0286207   -6.7697688    575.73021  0.033225428  0.033528965            3 
 1445000   0.98086265   -6.7713881    576.24855  0.033232327  0.033520637            1 
 1446000    1.0146679   -6.7772344    576.76682  0.033239213  0.033512465            3 
 1447000    1.0425361   -6.7969916    578.10958  0.033293572  0.033504329            8 
 1448000    1.0031167   -6.7911519    578.36946  0.033285535  0.033496344            3 
 1449000    1.0402483   -6.8001317    577.94994  0.033238437  0.033488359            3 
 1450000    1.0096493   -6.7818299    577.95961  0.033216069  0.033480127            5 
 1451000    1.0011699   -6.7830151    577.30462  0.033155561  0.033471908            2 
 1452000    1.0225428   -6.8010586    577.88714  0.033166158  0.033463708            3 
 1453000    1.0196594   -6.7866409     576.5841  0.033068599  0.033455315            4 
 1454000    1.0074464   -6.7680641    579.60785  0.033219157  0.033447099            2 
 1455000    1.0260938   -6.8130626    578.15343  0.033113026  0.033438748            3 
 1456000    1.0084475   -6.7782107    578.61821  0.033116885  0.033430273            1 
 1457000    1.0242334   -6.7885066    579.13278  0.033123586  0.033421908            3 
 1458000    1.0429534   -6.7590164    579.33055  0.033112171  0.033413686            5 
 1459000     1.030753   -6.8074564    579.62446  0.033106264  0.033405469            3 
 1460000    1.0321322   -6.8022946    577.99779  0.032990741   0.03339702           11 
 1461000   0.99864913   -6.7664929    578.65143  0.033005443  0.033388656            3 
 1462000    1.0235711   -6.8081929    580.30673  0.033077219  0.033380178            3 
 1463000    1.0174073   -6.7877989    577.37445  0.032887585  0.033371577            5 
 1464000    1.0160671   -6.8052771    580.55618  0.033046231  0.033363279            2 
 1465000    1.0182602   -6.7838744     582.3159  0.033123771  0.033354923            3 
 1466000    1.0224365    -6.800982    581.09396  0.033031717  0.033346646            3 
 1467000     1.003963   -6.8256802    581.61958  0.033039058  0.033338392            6 
 1468000    1.0098515   -6.8219413    580.41249  0.032948029  0.033330028            2 
 1469000    1.0163347   -6.8225415    580.00787  0.032902647  0.033321591            3 
 1470000    1.0195466   -6.7812339    582.33859  0.033012392  0.033313217            6 
 1471000    1.0196802   -6.7963152    583.96767  0.033082238  0.033305083            4 
 1472000   0.99762033     -6.79338    584.36979  0.033082529  0.033296907            4 
 1473000     1.013623   -6.7962882    582.85302   0.03297426   0.03328868            2 
 1474000    1.0170722   -6.8051077    583.69236  0.032999342  0.033280435            5 
 1475000    1.0017026   -6.7831968    583.28121   0.03295374  0.033272135            2 
 1476000    1.0292256   -6.7793862    585.04456  0.033030971  0.033263903            3 
 1477000    1.0236547   -6.7972758    584.43322  0.032974115  0.033255617            1 
 1478000    1.0100307   -6.8146298      584.848  0.032975192   0.03324736            2 
 1479000   0.99629055   -6.7739315    586.15626  0.033026609  0.033239182            6 
 1480000    1.0208359   -6.7533531    587.45648  0.033077504  0.033230986            2 
 1481000    1.0207163   -6.7941895    584.82761  0.032907248   0.03322276            3 
 1482000    1.0316083   -6.7895914    586.77267  0.032994415  0.033214662            2 
 1483000    1.0200605   -6.7763202    586.45794  0.032954481  0.033206526            4 
 1484000    1.0137444    -6.817001    585.17119  0.032860017  0.033198362            2 
 1485000    1.0345608   -6.8107078    585.50978   0.03285689  0.033190108            6 
 1486000    1.0182535   -6.7866194    586.84388  0.032909594  0.033181892            3 
 1487000    1.0051828   -6.8106443    586.78979  0.032884431  0.033173648            5 
 1488000   0.99416647   -6.7979837     588.1548  0.032938777  0.033165535            3 
 1489000    1.0222348   -6.7937376    587.23232  0.032865028  0.033157316            2 
 1490000    1.0231325   -6.8467222    586.43077  0.032798141  0.033149025            5 
 1491000    1.0186757   -6.7959606    590.13697  0.032983287  0.033140804            2 
 1492000    1.0107621   -6.7890874    589.64085   0.03293347  0.033132642            3 
 1493000    1.0151947   -6.8067336    589.28856  0.032891748  0.033124383            3 
 1494000   0.99884766   -6.8173067    589.67384  0.032891223  0.033116241            7 
 1495000     1.020919   -6.8008303    588.64231  0.032811723  0.033108032            2 
 1496000    1.0050113   -6.8099587    589.38284  0.032831041  0.033099868            3 
 1497000   0.99859786   -6.8633893    588.30556   0.03274914  0.033091519            2 
 1498000    1.0061486   -6.8064225    588.81453  0.032755592  0.033083001            5 
 1499000   0.99075957   -6.7852908    589.79903  0.032788472  0.033074673            3 
 1500000     1.024454   -6.8062983    590.47942  0.032804412  0.033066545            2 
 1501000    1.0019112   -6.8003371    591.63101  0.032846492  0.033058229            2 
 1502000    1.0231489   -6.8027889    590.39932  0.032756287  0.033049868            4 
 1503000    1.0185615   -6.8107256    590.84763  0.032759349  0.033041551            3 
 1504000    1.0032751   -6.7936685    591.76125   0.03278819  0.033033174            3 
 1505000    1.0121729    -6.784728    591.35718   0.03274403  0.033024776            1 
 1506000    1.0254621   -6.8168749    590.77775  0.032690225  0.033016262            3 
 1507000    1.0062882   -6.8502985    590.06795  0.032629283    0.0330078            3 
 1508000     1.017915   -6.8015079    591.75636  0.032700948  0.032999358            4 
 1509000    1.0311661   -6.8293024    591.68275  0.032675213  0.032990926            5 
 1510000   0.99617444   -6.8328313    591.63144  0.032650742  0.032982482            7 
 1511000    1.0201897   -6.8279652    592.73257  0.032689862  0.032974159            2 
 1512000    1.0227477    -6.783144    591.64314  0.032608198  0.032965833            4 
 1513000    1.0139412   -6.8152425    593.92242  0.032712184  0.032957502            4 
 1514000     1.009927   -6.7829558    594.62043  0.032728998  0.032949247            8 
 1515000    1.0067635   -6.8006805    593.25744  0.032632422  0.032941014           10 
 1516000   0.99101371   -6.8206481    593.11733  0.032603195  0.032932793            2 
 1517000    1.0141532   -6.8097456    595.47442  0.032711186  0.032924376            4 
 1518000    1.0110367   -6.7886207    595.86703  0.032711189  0.032916223            1 
 1519000    1.0208619   -6.7935159    596.03705  0.032698982  0.032908226            5 
 1520000    1.0180157   -6.8138758    596.16894  0.032684701  0.032900234            5 
 1521000    1.0188259   -6.8424335    595.59429  0.032631728  0.032892194            3 
 1522000   0.98658439   -6.7903466    597.92087  0.032737673  0.032884165            4 
 1523000    1.0135913   -6.8358925    596.44405  0.032635372  0.032876266            5 
 1524000    1.0076563   -6.8403878    596.35714  0.032609205  0.032868226            2 
 1525000   0.99673567   -6.7982668    598.77776  0.032720096   0.03286044            6 
 1526000    1.0092759   -6.7819448    598.70171  0.032694501  0.032852804            2 
 1527000    1.0015524   -6.8440866    598.36261  0.032654585  0.032845043            5 
 1528000   0.99576688   -6.8002757    599.88336  0.032716152  0.032837229            3 
 1529000    1.0069185   -6.7945803    600.23566  0.032713956  0.032829471            7 
 1530000   0.99337534   -6.7838654    599.97463  0.032678357  0.032821783            4 
 1531000   0.96256873   -6.8165676    601.12846  0.032719816  0.032814111            2 
 1532000    1.0012698   -6.8070577    600.66134  0.032673049  0.032806549            4 
 1533000   0.99395668   -6.8125685     600.9085  0.032665172  0.032799041            3 
 1534000   0.99735379   -6.8285935    599.30793  0.032556928  0.032791376            3 
 1535000    1.0017492    -6.817109    600.13369  0.032580548  0.032783665            4 
 1536000    1.0066317   -6.8282194    601.77034  0.032648131  0.032775986            3 
 1537000     1.012625   -6.7991316    602.71695  0.032678212   0.03276832            2 
 1538000    1.0166889   -6.8353435    602.67666  0.032654782  0.032760726            3 
 1539000    1.0053528   -6.8096645    603.90941  0.032700315  0.032753356            2 
 1540000     1.023869   -6.8310245    604.24326  0.032697146  0.032745845            2 
 1541000    1.0076607   -6.8037625    605.12109  0.032723399  0.032738324            3 
 1542000    1.0172667   -6.8129053    603.67838   0.03262421  0.032730897            6 
 1543000   0.98826939   -6.8122978    604.91424  0.032669812  0.032723452            2 
 1544000   0.98621898   -6.8715566    604.43365  0.032622714  0.032715983            2 
 1545000    1.0198696   -6.8061141    604.54212   0.03260745  0.032708466            3 
 1546000    1.0158166   -6.8215071    605.23129  0.032623506  0.032701002            5 
 1547000    1.0072548   -6.8354053    606.38314  0.032664466  0.032693605            3 
 1548000    1.0189501   -6.8269881    605.28882  0.032584454  0.032686101            4 
 1549000    1.0031584   -6.8651757    604.78619  0.032536378  0.032678741            2 
 1550000    1.0165444   -6.8203602     605.6674  0.032562764  0.032671267            5 
 1551000   0.98071826   -6.8259369    607.16693  0.032622337  0.032663886            3 
 1552000    1.0003092   -6.8113212    609.00838  0.032700192   0.03265643            3 
 1553000    1.0152536   -6.8326934     606.8068     0.032561  0.032649076            1 
 1554000    1.0040118    -6.790009    608.19557   0.03261452  0.032641858            5 
 1555000    1.0239814   -6.8229287     606.4056  0.032497621  0.032634612            9 
 1556000   0.98636023   -6.8334432    607.78341  0.032550525  0.032627051            3 
 1557000   0.97399448   -6.8578205    606.94873  0.032484946    0.0326196            3 
 1558000   0.99270508   -6.8384941    609.70434  0.032611486  0.032612098            2 
 1559000   0.97829937   -6.8355581     609.6017  0.032585081  0.032604649            2 
 1560000     1.006489   -6.8329633    607.64405  0.032459618   0.03259712            3 
 1561000    1.0092505   -6.8496518    609.70696  0.032548952  0.032589524            3 
 1562000     1.004329   -6.8169557    608.68576  0.032473632  0.032581932            4 
 1563000   0.98894672   -6.8087098    608.71068  0.032454184   0.03257444            4 
 1564000   0.98748935   -6.8077636    609.18687  0.032458806  0.032566952            5 
 1565000   0.98611119   -6.7750453    610.44573  0.032505098  0.032559263            1 
 1566000    1.0005357   -6.8618159    610.64165  0.032494766  0.032551576            3 
 1567000    1.0175763   -6.8328939    608.11905  0.032339877   0.03254385            3 
 1568000    1.0064948   -6.8156483    610.53043  0.032447408  0.032536094            3 
 1569000    1.0070869   -6.8393922    609.26082  0.032359296  0.032528268            2 
 1570000    1.0049861   -6.8194864    610.04091  0.032380091  0.032520425            3 
 1571000    1.0013607   -6.8162224     608.3769  0.032271212  0.032512667            5 
 1572000    1.0032711   -6.7812767    610.65213  0.032371296  0.032504914            4 
 1573000   0.99934034    -6.791554    611.00029  0.032369161  0.032497252            3 
 1574000   0.99547687   -6.8385127    610.90448  0.032343524  0.032489466            4 
 1575000    1.0121446   -6.8098729    612.37801  0.032400953  0.032481715            3 
 1576000    1.0331956   -6.8577668    611.41774  0.032329618  0.032474025            3 
 1577000   0.99863171   -6.8315339    611.46518  0.032311625  0.032466345            8 
 1578000    1.0240811   -6.8107296    611.60757  0.032298668  0.032458785            3 
 1579000    0.9817507   -6.8293637    612.34638  0.032317204  0.032451172            4 
 1580000    1.0089242      -6.7976    612.14483   0.03228612  0.032443475            4 
 1581000    1.0244613   -6.8041895    614.53411  0.032391636  0.032435918            3 
 1582000   0.98260782   -6.8525749    613.17463  0.032299548  0.032428219            4 
 1583000   0.99395767     -6.79784    615.81327   0.03241805   0.03242065            4 
 1584000   0.99275094   -6.8204019    613.16512  0.032258266     0.032413            3 
 1585000   0.98748641   -6.7892794    613.39831  0.032250174   0.03240541            3 
 1586000    1.0135876   -6.8184355    614.37386  0.032281098   0.03239774            4 
 1587000    1.0071488   -6.8110324    615.42324   0.03231586  0.032390051            4 
 1588000     0.991089   -6.7820986    615.00212  0.032273411   0.03238231            2 
 1589000   0.98739867   -6.8318163    615.16899  0.032261852  0.032374501            4 
 1590000    1.0097929   -6.8241829    614.95183   0.03223018  0.032366675            2 
 1591000    1.0063205   -6.8598907    614.95585  0.032210132  0.032358955            3 
 1592000   0.99648864   -6.8290329    615.89259  0.032238934   0.03235114            3 
 1593000    1.0093352   -6.8183878     614.1688   0.03212852  0.032343237            3 
 1594000   0.99601157   -6.8166771    616.41083  0.032225576  0.032335403            3 
 1595000    1.0018136   -6.8165148    616.55277  0.032212788  0.032327713            3 
 1596000    1.0059072   -6.8591271    615.83353  0.032155051  0.032319878            7 
 1597000   0.97595648   -6.8130047    617.93228  0.032244431  0.032312054            4 
 1598000    1.0091308   -6.8357847    616.86342  0.032168514  0.032304311            6 
 1599000   0.99979181   -6.8247894    617.83104  0.032198824  0.032296627            2 
 1600000   0.97124584   -6.8491275    617.32946  0.032152576  0.032289002            5 
 1601000    0.9923887    -6.840066    617.80278   0.03215713  0.032281497            5 
 1602000   0.99380431   -6.8510139    617.92346  0.032143335  0.032273885            2 
 1603000   0.99922192   -6.8551648    616.56822  0.032052829  0.032266131            4 
 1604000    0.9780517   -6.8528184    619.60176  0.032190449   0.03225849            5 
 1605000   0.97278763   -6.8510948    618.06672  0.032090692  0.032250832            4 
 1606000    0.9719106   -6.8211463    619.26107  0.032132683  0.032243077            3 
 1607000   0.99012385   -6.8190902    620.04323  0.032153248  0.032235434            4 
 1608000   0.98908659   -6.8482369    619.67292  0.032114061  0.032227918            6 
 1609000    1.0147442   -6.8039193    622.76697  0.032254349  0.032220446            3 
 1610000    1.0033247   -6.8331761     621.9056  0.032189731  0.032212836            4 
 1611000   0.99645447   -6.8025727    620.59616  0.032102015  0.032205304            4 
 1612000    1.0044803   -6.8437077    620.67348  0.032086098  0.032197814            6 
 1613000   0.98024117   -6.8563228    621.94459  0.032131876  0.032190231            9 
 1614000   0.97061979   -6.8293021    620.48186  0.032036445  0.032182776            6 
 1615000    1.0105613   -6.8326464     621.3683  0.032062348  0.032175365            2 
 1616000    1.0031574   -6.8749517    621.42181  0.032045266  0.032167697            5 
 1617000   0.99245058   -6.8334479    620.49618  0.031977746  0.032160128            4 
 1618000   0.99333927   -6.8031946    623.20934  0.032097721  0.032152582            3 
 1619000   0.98607679   -6.8656084    623.30973  0.032083062  0.032145044            4 
 1620000    0.9827566    -6.844698    622.60066  0.032026783  0.032137388            3 
 1621000    1.0128286   -6.8547384    619.78738  0.031862399  0.032129694            6 
 1622000   0.98600388   -6.8453391    624.23949  0.032071491  0.032122052            5 
 1623000   0.98771041   -6.8482812    623.80545  0.032029444  0.032114536            2 
 1624000   0.99090787   -6.8593122     624.5468  0.032047763  0.032107006            2 
 1625000    1.0082275   -6.8389999     622.6742   0.03193201  0.032099516            3 
 1626000   0.98139779   -6.8308584     625.1249  0.032037971  0.032091827            2 
 1627000   0.97661903   -6.8540732    624.27044  0.031974516  0.032084243            2 
 1628000    0.9850969   -6.8203631    626.43305  0.032065574  0.032076782            3 
 1629000   0.95385257   -6.8136921    627.07593  0.032078777  0.032069298            4 
 1630000   0.97804073   -6.8269258    625.95342  0.032001708   0.03206178            6 
 1631000   0.98149352   -6.8268097     625.8208  0.031975312  0.032054327            3 
 1632000   0.97069331   -6.8511959    626.88483  0.032010051  0.032046877            2 
 1633000   0.98815146   -6.8330487    628.24895  0.032060061  0.032039652            9 
 1634000    1.0074366   -6.8536641     627.7681  0.032015917  0.032032321            6 
 1635000   0.98994582   -6.8707815    626.39388  0.031926294  0.032024881            6 
 1636000    1.0061958   -6.8627651    626.88506  0.031931798  0.032017414            5 
 1637000    1.0021119      -6.8695    627.42002  0.031939525  0.032009837            6 
 1638000   0.99596183    -6.830106    626.71326  0.031884069  0.032002296            2 
 1639000   0.99509456   -6.8499966    629.39064  0.032000744  0.031994775            6 
 1640000   0.96640725   -6.8392007    626.34076  0.031826258  0.031987183            3 
 1641000   0.99813441   -6.8346891    629.01478  0.031942656  0.031979649            6 
 1642000   0.98596622   -6.8184981    628.10163  0.031876859  0.031972043            7 
 1643000   0.99664575   -6.8477747    627.34553  0.031819108  0.031964346            5 
 1644000   0.95525938   -6.8841574    627.30204  0.031797549  0.031956638            5 
 1645000    1.0113793    -6.847957     627.5752  0.031792057  0.031948929            7 
 1646000    1.0108481   -6.8177762    629.44911  0.031867614  0.031941304            6 
 1647000   0.99585685   -6.8370901    628.81413  0.031816137  0.031933738            2 
 1648000   0.99670617   -6.8695988    628.03661  0.031757515  0.031926098            3 
 1649000   0.99090382   -6.8392637    629.12891  0.031793456  0.031918484            3 
 1650000   0.99466602    -6.809208    629.27404  0.031781517  0.031910874            4 
 1651000   0.97763595   -6.8769324    628.83152  0.031739932  0.031903141            3 
 1652000   0.98974052   -6.8434743    627.94707  0.031676103   0.03189545            4 
 1653000    0.9956059   -6.8771438     630.8562  0.031803599  0.031887584            7 
 1654000   0.97089191    -6.825853     630.7817  0.031780618  0.031879869            2 
 1655000   0.96264278   -6.8508378    629.84072  0.031714034  0.031872242            3 
 1656000    0.9873363   -6.8683197    630.50912  0.031728519  0.031864604           11 
 1657000   0.98108807   -6.8596121    630.17304  0.031692468  0.031856936            2 
 1658000   0.96523828   -6.8921226    629.48334  0.031638688   0.03184921            4 
 1659000   0.99331395   -6.8425555    631.14692   0.03170318   0.03184154            2 
 1660000   0.99193151   -6.8412037    630.38564  0.031645866  0.031833766            8 
 1661000    1.0038506   -6.8683342    631.57003  0.031686235  0.031826013            4 
 1662000   0.98597574   -6.8557204    631.68856  0.031673113  0.031818331            2 
 1663000   0.97293159   -6.8409412    632.82991   0.03171126  0.031810628            5 
 1664000      1.00296   -6.8439144    632.84121  0.031692769  0.031802932            3 
 1665000   0.98758783   -6.8494494    632.97054  0.031680207  0.031795278            6 
 1666000   0.96896766   -6.8348379     632.4163  0.031633468  0.031787494            4 
 1667000   0.97593116   -6.8443995     633.7374  0.031680534  0.031779797            2 
 1668000   0.98723292   -6.8979496    632.56641  0.031603038  0.031772088            4 
 1669000   0.97502822   -6.8957618     632.7822  0.031594877  0.031764302            4 
 1670000   0.97898608    -6.847264    633.63049  0.031618288  0.031756523            3 
 1671000   0.98038966   -6.8614228    632.06059  0.031521075   0.03174854            3 
 1672000   0.97325136   -6.8797381    633.71923   0.03158489  0.031740535            2 
 1673000   0.97130721   -6.8398639    632.22278  0.031491472  0.031732683            3 
 1674000   0.97531564   -6.8740816    633.29174  0.031525873  0.031724738            6 
 1675000   0.98115115   -6.8624109     633.7506   0.03152988  0.031716818            3 
 1676000   0.96458806   -6.8657316    634.82899  0.031564687  0.031708836            4 
 1677000    1.0055743    -6.844576    634.45691  0.031527376  0.031700983            2 
 1678000   0.98862812   -6.8779046    634.81912  0.031526575  0.031693177            3 
 1679000   0.98511154   -6.8385364    635.42907  0.031538072  0.031685457            5 
 1680000   0.98439407   -6.8609146    635.81796   0.03153859  0.031677765            2 
 1681000   0.99654387   -6.8323549    638.42639  0.031649137  0.031670041            2 
 1682000    0.9783215   -6.8409371    637.39744  0.031579342   0.03166247            4 
 1683000   0.97389606   -6.8722646    635.91948  0.031487398  0.031654851            3 
 1684000   0.99709076   -6.8661632    635.95433  0.031470424  0.031647181            4 
 1685000    0.9864841   -6.8684501     637.3668  0.031521602  0.031639401            2 
 1686000   0.96785859     -6.84834    637.62221   0.03151553   0.03163173            3 
 1687000   0.97253537   -6.8936722    636.76352  0.031454432  0.031624059            6 
 1688000   0.97686971   -6.8703123    638.23406  0.031508395  0.031616375            3 
 1689000   0.98701346   -6.8546778    638.41681  0.031498757  0.031608721            3 
 1690000   0.97939472   -6.8792999    639.65577  0.031541211  0.031601157            3 
 1691000   0.96058858   -6.8937675    640.29249  0.031553937  0.031593536            5 
 1692000   0.98207757   -6.8707534    639.56956  0.031499683  0.031585923            6 
 1693000   0.98873712   -6.8860902    639.98397  0.031501475  0.031578193            3 
 1694000   0.99193513   -6.8795053    639.34736  0.031451562  0.031570486            3 
 1695000   0.97545717   -6.8518272    638.99755  0.031415809  0.031562817            3 
 1696000   0.97426903   -6.8764629    640.01536  0.031447296  0.031555141            7 
 1697000   0.97898254   -6.8482953    640.48782  0.031451965  0.031547523            1 
 1698000   0.98785721   -6.8759084    640.48268   0.03143319  0.031539901            7 
 1699000   0.97379769   -6.8870933    640.82069  0.031431268  0.031532086            2 
 1700000   0.96459583   -6.9086055    640.12643  0.031378746  0.031524343            5 
 1701000   0.98161902   -6.8739842    640.06336   0.03135721  0.031516591            6 
 1702000   0.98033746   -6.8617195    640.44903  0.031357669  0.031508809            2 
 1703000   0.98805267    -6.889168    639.75822  0.031305452  0.031500976            4 
 1704000   0.99336113   -6.8998688    640.00764  0.031299278  0.031493133            3 
 1705000    0.9889718    -6.882661    640.73095  0.031316273  0.031485251            3 
 1706000   0.95439712   -6.8784811    641.77771  0.031349048  0.031477327            4 
 1707000   0.97383542   -6.8666626    640.32746  0.031259884  0.031469467            3 
 1708000   0.98327703   -6.8558659    642.86467  0.031365372  0.031461762            2 
 1709000   0.96108947   -6.8688595    640.64455  0.031238763  0.031453971            2 
 1710000   0.97901284   -6.8649391    641.17547  0.031246368  0.031446112            3 
 1711000   0.98646032   -6.8406015    641.69546  0.031253432  0.031438205            3 
 1712000   0.98111197   -6.8796197    641.94361  0.031247255  0.031430184            3 
 1713000   0.97629469   -6.8844612    642.15326  0.031239213  0.031422201            1 
 1714000    0.9702668   -6.8887942    642.01279  0.031214158  0.031414291            2 
 1715000   0.98852339   -6.8332035    643.51079  0.031268746  0.031406331            3 
 1716000   0.95220415   -6.8755701    641.13472  0.031135136  0.031398407            5 
 1717000   0.98348746   -6.8336415    645.08007  0.031308487  0.031390474            2 
 1718000    0.9764853   -6.8710084    644.87375  0.031280256  0.031382549            2 
 1719000   0.97185712   -6.8491625    642.59015  0.031151355  0.031374733            2 
 1720000   0.98513799   -6.8640947     644.7223  0.031236546  0.031366779            7 
 1721000   0.97865519   -6.8635084    643.84816  0.031176068  0.031358822            4 
 1722000   0.96090137   -6.8723216    644.43552  0.031186388   0.03135089            5 
 1723000   0.97790491   -6.8579845    645.67555  0.031228262  0.031342999            3 
 1724000   0.96614917   -6.8637684    644.53127  0.031154837  0.031335102            2 
 1725000   0.97765797   -6.8875482    645.29235  0.031173543   0.03132711            4 
 1726000   0.95271312    -6.909164    642.86353  0.031038216  0.031319062            6 
 1727000    0.9645296   -6.8648077    645.07312  0.031126863  0.031311012            3 
 1728000   0.98440505   -6.8778923    645.31515  0.031120522  0.031302971            5 
 1729000   0.95942881   -6.8847788    645.27843  0.031100753  0.031294947            4 
 1730000   0.97387612   -6.8679044    645.01479  0.031070077  0.031286774            2 
 1731000   0.98239628   -6.8913954    644.90562  0.031046872  0.031278668            7 
 1732000   0.97953032   -6.8701071    645.32285  0.031049021  0.031270514            6 
 1733000   0.95780974   -6.9208395    643.34634  0.030936062  0.031262296            4 
 1734000   0.97901728   -6.9039721    643.08055  0.030905447  0.031254034            4 
 1735000   0.96382308   -6.8644476    646.51024  0.031052365   0.03124584            3 
 1736000   0.99113113   -6.9032213    645.64268  0.030992832  0.031237744            3 
 1737000   0.96495561   -6.8895121    644.44076  0.030917327  0.031229645            6 
 1738000   0.95715389   -6.8742607    646.14933   0.03098146  0.031221656            4 
 1739000   0.95952577    -6.905968    647.70997  0.031038431  0.031213744            5 
 1740000   0.99576561   -6.8508352    648.14065  0.031041219  0.031205847            2 
 1741000   0.97284229   -6.8716482    648.99219  0.031064149  0.031197981            3 
 1742000   0.95676863   -6.9041428    647.74837  0.030986814  0.031190143            5 
 1743000    0.9675282   -6.9078308    649.45518   0.03105064  0.031182237            2 
 1744000   0.98414982   -6.9128047    648.79895  0.031001479  0.031174319            8 
 1745000   0.97618466   -6.8922919    650.31751  0.031056233  0.031166358            6 
 1746000   0.95364616   -6.8420687    651.36547  0.031088462  0.031158495            3 
 1747000   0.94573927   -6.8574823    650.03099  0.031007012  0.031150783            2 
 1748000   0.98101996   -6.8722963    649.31307  0.030955047  0.031142906            3 
 1749000   0.96219709   -6.8885464    649.51004  0.030946733   0.03113507            2 
 1750000   0.97406842   -6.9157041    651.68596  0.031032665  0.031127368            2 
 1751000   0.96913528   -6.8527592    652.16826  0.031037895  0.031119601            4 
 1752000   0.98417262   -6.8681706    651.29267  0.030978533  0.031111851            3 
 1753000   0.99413693   -6.9271124    651.53743  0.030972496  0.031104015            2 
 1754000   0.94829168   -6.9079991    651.19757  0.030938691  0.031096156            5 
 1755000   0.95036758   -6.9066911    651.91821  0.030955281  0.031088317            3 
 1756000   0.97470565    -6.890993    652.19605  0.030950838  0.031080631            3 
 1757000   0.97623301   -6.8789143    654.00314  0.031018931  0.031073017            5 
 1758000    1.0088281   -6.8450085    654.94761  0.031046056  0.031065414            3 
 1759000   0.97269898   -6.8915981    653.51235  0.030960411  0.031057888            9 
 1760000   0.96868064   -6.8753462    655.42537  0.031033398  0.031050269            3 
 1761000   0.95143521   -6.8931725    654.45734  0.030969967  0.031042657            3 
 1762000   0.95342922   -6.8801421    656.29189  0.031039155  0.031035012            4 
 1763000   0.97805395    -6.895554    654.32483   0.03092857  0.031027509            3 
 1764000   0.96905039   -6.8863771     653.1373  0.030854937   0.03101976            3 
 1765000    0.9596911   -6.8693204     654.9243  0.030921827  0.031012022            5 
 1766000   0.96339243   -6.8784187    654.47858  0.030883285  0.031004281            2 
 1767000   0.97238287   -6.8788124    654.83317   0.03088253  0.030996536            3 
 1768000   0.95891187   -6.8783329     654.2472  0.030837444  0.030988699            5 
 1769000   0.94780022    -6.877439    654.15666  0.030815746  0.030980902            6 
 1770000   0.96442862   -6.9001165    654.64161  0.030821168  0.030973036            3 
 1771000   0.97624278   -6.8689483    655.84773  0.030860518  0.030965173            3 
 1772000   0.99012264   -6.8476319    655.49464  0.030826498  0.030957273            1 
 1773000   0.97207469   -6.9355008     654.6815  0.030770892  0.030949241            3 
 1774000   0.96501412   -6.9032136    655.11302  0.030773817  0.030941272            8 
 1775000   0.97404265   -6.9123309    655.33565  0.030766932  0.030933344            2 
 1776000   0.96087718   -6.8990439    655.07798  0.030737518  0.030925401            3 
 1777000   0.98378283   -6.9149748     656.4207  0.030783188  0.030917457            7 
 1778000   0.96544346   -6.8813973    654.44233   0.03067315  0.030909498            4 
 1779000   0.96049983   -6.8704304    655.95621  0.030726823  0.030901499            6 
 1780000   0.96314904   -6.8816159    655.14706  0.030671679  0.030893537            4 
 1781000   0.95968925   -6.8636928    655.95383  0.030692206  0.030885527            2 
 1782000   0.97274919    -6.892783    657.29661  0.030737777  0.030877512            6 
 1783000   0.96197653   -6.8893259    654.58252  0.030593687   0.03086956            2 
 1784000   0.97051931   -6.9004027    656.15586  0.030650031  0.030861529            4 
 1785000   0.96771728   -6.9133837    655.43058     0.030599  0.030853485            5 
 1786000   0.96053363    -6.911981    657.19608  0.030664244  0.030845276            3 
 1787000   0.96711857   -6.8963547    657.68373  0.030669825   0.03083716            3 
 1788000   0.97031541   -6.8720415    657.86835  0.030661276  0.030828988            2 
 1789000   0.97288982     -6.90518      657.226  0.030614217  0.030820876            4 
 1790000    0.9762545   -6.9217197    655.26362  0.030505755   0.03081274            9 
 1791000   0.97128932    -6.902065    657.81338   0.03060736  0.030804642            3 
 1792000   0.96399299   -6.9100839    656.81413  0.030543812    0.0307966            5 
 1793000   0.96674334   -6.9149196    658.48247  0.030604316  0.030788538            4 
 1794000   0.96981699   -6.8904689    659.00208  0.030611394  0.030780442            2 
 1795000   0.96184109   -6.8870535     659.4175  0.030613626  0.030772497            3 
 1796000   0.96120819   -6.8963303    660.20429  0.030633087  0.030764537            3 
 1797000   0.95777865   -6.9233045    658.50759  0.030537358  0.030756503            4 
 1798000    0.9455045   -6.9105847    659.12315  0.030548904  0.030748473            7 
 1799000   0.96708213   -6.8814807    658.07482  0.030483362  0.030740498            2 
 1800000   0.96887779   -6.8683112    659.16004  0.030516668  0.030732492            8 
 1801000   0.95166836    -6.929142    659.60337  0.030520237  0.030724384            2 
 1802000   0.98370585   -6.9115658    659.74993  0.030510078  0.030716244            3 
 1803000   0.96107868   -6.8804761    659.83969  0.030497305  0.030708234            3 
 1804000    0.9367759   -6.8696376    661.35462   0.03055038  0.030700246            3 
 1805000   0.97296147   -6.8877737    661.62192  0.030545795  0.030692357            3 
 1806000   0.97281695   -6.8914499     662.1214  0.030551929  0.030684413            3 
 1807000   0.96725461   -6.9015225    660.84268   0.03047605  0.030676311            3 
 1808000   0.95978422   -6.9181811    660.21375  0.030430206  0.030668261            2 
 1809000   0.97802036   -6.8986807    663.16721  0.030549438  0.030660326            6 
 1810000   0.95586981   -6.8718257    664.40449  0.030589525  0.030652372            3 
 1811000   0.94759624   -6.9182924    662.85604  0.030501382  0.030644495            2 
 1812000   0.97468332   -6.9063864    660.92135  0.030395574  0.030636445            4 
 1813000   0.95315197   -6.8945962    662.84247  0.030467111  0.030628425            5 
 1814000   0.95840363   -6.8923926    663.98577  0.030502838  0.030620497           10 
 1815000   0.95299526   -6.8935616    660.98133  0.030348087  0.030612461            2 
 1816000   0.97881911   -6.9214034     662.6249  0.030406796  0.030604376            4 
 1817000   0.96454652   -6.8713352    662.73339  0.030395037  0.030596335            3 
 1818000   0.97650421    -6.884026    661.97117   0.03034338  0.030588372            3 
 1819000   0.97175401   -6.9157872    663.86678  0.030413542  0.030580356            3 
 1820000   0.95490708   -6.9099925    663.17527  0.030365168  0.030572382            3 
 1821000   0.96905798   -6.9040354    664.64513  0.030415757  0.030564435            3 
 1822000   0.94916615   -6.9306874    663.11379  0.030329025  0.030556415            4 
 1823000   0.95387842   -6.9135752    664.24594  0.030364141  0.030548332            5 
 1824000   0.97320681   -6.9229291    663.76081  0.030325329  0.030540314            5 
 1825000   0.97850297   -6.8658621    664.39871  0.030337841  0.030532375            2 
 1826000   0.95595765   -6.9160044    664.58546  0.030329749  0.030524548            4 
 1827000   0.95687325   -6.8733768    665.97333  0.030376452  0.030516615            4 
 1828000   0.96411159   -6.9057483    665.26957  0.030327752  0.030508685            5 
 1829000   0.94603149   -6.9092702     666.1595  0.030351718  0.030500768            3 
 1830000   0.94432397   -6.9247406    666.41782  0.030346895  0.030492974            3 
 1831000   0.96970046    -6.883821    666.71856  0.030344009  0.030485155            3 
 1832000   0.96333107   -6.9145258    668.24574  0.030396913  0.030477371            4 
 1833000   0.96306099   -6.8810911    664.82906  0.030224998  0.030469602            3 
 1834000   0.96657261   -6.9004806    666.62124  0.030289951  0.030461771            3 
 1835000   0.98542836   -6.8829895     667.3274  0.030305513  0.030453943            3 
 1836000   0.95630412   -6.8763567    667.06866  0.030277263  0.030446063            4 
 1837000   0.94972174   -6.9188621     666.3935  0.030230153  0.030438139            3 
 1838000   0.96045593   -6.8827897    667.43713  0.030261023  0.030430219            4 
 1839000    0.9719348    -6.923779    665.73186  0.030167295   0.03042228            5 
 1840000   0.94477437   -6.9165634     668.1418  0.030260045  0.030414472            6 
 1841000   0.97371482   -6.9385453    667.73534   0.03022521  0.030406557            3 
 1842000   0.97236386   -6.8836639    668.16118  0.030228067  0.030398708            4 
 1843000   0.96163324   -6.9091926    667.00749  0.030159499  0.030390737            2 
 1844000   0.97359577   -6.9102196    667.70465   0.03017465  0.030382711            6 
 1845000   0.95836148   -6.9121976     670.1682  0.030269567  0.030374751            2 
 1846000   0.96006674   -6.9468924    668.82705  0.030192626  0.030366769            4 
 1847000   0.96986118   -6.9087498    668.69343  0.030170251   0.03035879            2 
 1848000   0.93272634   -6.9049676    668.93793   0.03016495  0.030350682            4 
 1849000   0.95002282   -6.9185921     670.2288  0.030206814  0.030342609            4 
 1850000     0.961301   -6.9513843    670.12714  0.030185907   0.03033455            3 
 1851000   0.94317718   -6.9067298    670.49502  0.030186161  0.030326565            3 
 1852000   0.97928592   -6.9181876    670.06999  0.030150737  0.030318627            5 
 1853000   0.97111083   -6.9545706    668.20102  0.030050415  0.030310613            3 
 1854000   0.94310418   -6.9536226    669.75535   0.03010407   0.03030254            5 
 1855000   0.95404048   -6.9371521     668.1961  0.030017794  0.030294537            4 
 1856000   0.94502134   -6.9028483    670.36357  0.030098939  0.030286502            6 
 1857000   0.94970173   -6.9236777    670.53799  0.030090558  0.030278484            3 
 1858000    0.9382644   -6.9436014    670.49176  0.030072289  0.030270431            4 
 1859000    0.9344496   -6.9175365    669.62969  0.030017469  0.030262357            4 
 1860000   0.96003976   -6.9106427     671.0528   0.03006509  0.030254355            2 
 1861000   0.96474739   -6.9148885    670.23256  0.030012205  0.030246363            4 
 1862000   0.96028905     -6.92606    671.91253  0.030071273  0.030238332            5 
 1863000   0.94823718   -6.9429967    672.07271  0.030062297   0.03023033            2 
 1864000   0.95139475    -6.929222     674.0657  0.030135269  0.030222292            3 
 1865000   0.94499058    -6.910798     674.6712  0.030146166  0.030214435           11 
 1866000   0.94801459   -6.9364454    672.12309  0.030016215  0.030206466            3 
 1867000   0.97092878   -6.9205855    674.20953  0.030093266  0.030198444            9 
 1868000   0.96053637   -6.8965691    672.30076  0.029992004  0.030190524            6 
 1869000   0.95360907   -6.9226127    672.96058  0.030005376  0.030182589            2 
 1870000   0.95279721   -6.9332278    673.20428  0.030000191  0.030174714            3 
 1871000   0.95487636   -6.9437263    672.26659  0.029942392   0.03016677            4 
 1872000   0.93380823   -6.8963539    677.16816  0.030144594   0.03015888            3 
 1873000   0.94377486   -6.9014034    675.64167  0.030060583  0.030150857            2 
 1874000   0.93336501   -6.9368253    673.74003   0.02995998  0.030142941            2 
 1875000   0.95814444   -6.9362056    675.87824  0.030039033  0.030135007            5 
 1876000   0.94399203   -6.9455466    675.33316  0.029998808  0.030127132            5 
 1877000   0.95476401   -6.9237711    672.95978  0.029877454  0.030119226           13 
 1878000   0.93745346   -6.9152967    675.10728  0.029956837  0.030111301            3 
 1879000   0.94511286   -6.9241284    675.58665  0.029962154  0.030103333            4 
 1880000   0.93314919    -6.918905    675.01554  0.029920902  0.030095538            3 
 1881000   0.95385775   -6.9554834     674.3848  0.029877051  0.030087548            4 
 1882000   0.95498249   -6.9009892    677.26506  0.029988712  0.030079681            3 
 1883000   0.96162475   -6.9111742    676.00746   0.02991713  0.030071829            1 
 1884000    0.9521742   -6.9372943    675.30064  0.029869986  0.030063935            4 
 1885000   0.96446128   -6.9396591    676.27003  0.029896995  0.030056083            7 
 1886000   0.95433151   -6.9075258    677.52659  0.029936665  0.030048295            3 
 1887000   0.94859601   -6.9077951    679.76607  0.030019699  0.030040521            5 
 1888000   0.96478012   -6.9479951    679.44733   0.02998973  0.030032767            4 
 1889000   0.96607019   -6.9301954     678.5009  0.029932103  0.030024942            7 
 1890000   0.95620021   -6.9056642    677.61346  0.029877137  0.030017139            3 
 1891000     0.942216   -6.9175825    677.96341  0.029876759  0.030009335            2 
 1892000   0.93814377   -6.9333481    679.15347  0.029913384  0.030001452            5 
 1893000   0.94584609   -6.9222191    677.38087  0.029819549  0.029993599            4 
 1894000   0.96381743    -6.919811    677.61577   0.02981414  0.029985759            2 
 1895000   0.94026881   -6.9099294    677.22886  0.029781392  0.029977893            4 
 1896000   0.94838745   -6.8931151    678.69849  0.029830278    0.0299701            9 
 1897000   0.94009714   -6.9618714     676.8632  0.029733931  0.029962201            5 
 1898000   0.95026285   -6.9508858    680.20253  0.029864881  0.029954367            3 
 1899000   0.96513691   -6.9697741     680.8569   0.02987787  0.029946593            2 
 1900000   0.94948841   -6.9335309      679.822  0.029816755  0.029938748            2 
 1901000   0.95845477   -6.9351456    678.27022  0.029733045  0.029930989            5 
 1902000   0.93591721    -6.955099    680.78267  0.029827492  0.029923198            2 
 1903000   0.95743163   -6.9298332    681.83287  0.029857807  0.029915393            3 
 1904000    0.9522828   -6.9423047    681.43324  0.029824634  0.029907604            4 
 1905000   0.95813687   -6.9269579    683.71047  0.029908595  0.029899753            3 
 1906000   0.92593748   -6.9256725      682.178  0.029825901   0.02989193            6 
 1907000    0.9506092   -6.9267418    680.20794  0.029724171  0.029884073            6 
 1908000   0.95004426   -6.9043205    680.90585  0.029739074  0.029876163            4 
 1909000   0.94922325   -6.9467522    680.40373  0.029701577  0.029868283            4 
 1910000    0.9237943   -6.9201936    680.79809  0.029703233   0.02986041            3 
 1911000   0.96760501   -6.9574557    681.60249  0.029722767  0.029852604            6 
 1912000   0.95362244   -6.9137555    682.58777  0.029750164  0.029844692            3 
 1913000   0.93491227   -6.9323955    680.49038  0.029643247  0.029836872            3 
 1914000   0.94703202   -6.9474567    682.54424  0.029717182    0.0298291            3 
 1915000   0.94570081   -6.9449843    680.42634  0.029609501  0.029821321            4 
 1916000   0.93288457   -6.9177055    684.16334  0.029756582  0.029813515            2 
 1917000   0.94711225   -6.9186594    684.13536  0.029739844   0.02980572            2 
 1918000   0.94650031   -6.9122026    685.26054  0.029773225  0.029798014            4 
 1919000   0.93564774   -6.9399843    683.95734  0.029701118  0.029790389            7 
 1920000   0.96433065   -6.9505216    684.94485  0.029728509  0.029782736            7 
 1921000   0.94157322   -6.9223598    686.21505  0.029768135  0.029775128            3 
 1922000   0.94412784   -6.9570674    685.91622   0.02973969  0.029767574            4 
 1923000   0.93013136   -6.9385528    685.29766   0.02969742  0.029760045            4 
 1924000   0.95235251   -6.8915768    686.84534  0.029749019  0.029752524            8 
 1925000    0.9456696   -6.9663076    684.81402  0.029645629  0.029745027            6 
 1926000   0.94297547   -6.9222018    686.68003  0.029710974  0.029737436            2 
 1927000    0.9509716   -6.9574871    686.70469  0.029696622  0.029729835            3 
 1928000   0.94491805   -6.9235278    686.81363  0.029685928  0.029722276            3 
 1929000   0.93409902   -6.9413824    686.52581  0.029658105  0.029714795            3 
 1930000   0.95596661   -6.9299471    686.81464  0.029655209  0.029707296            3 
 1931000   0.95366739   -6.9387846    686.93709  0.029645136  0.029699772            6 
 1932000   0.94434436   -6.9576802    687.08512  0.029636177  0.029692128            5 
 1933000   0.93479854    -6.927422    688.31545  0.029673886  0.029684547            3 
 1934000   0.91096105   -6.9434215    687.79391   0.02963607  0.029676938            5 
 1935000    0.9645383   -6.9209214    686.90545  0.029582491  0.029669294            3 
 1936000   0.94194221   -6.9742001    687.77834  0.029604784  0.029661657            2 
 1937000   0.96017144   -6.9269452    689.77472  0.029675388  0.029654167            4 
 1938000   0.93560038    -6.956251     687.5575  0.029564736  0.029646654            4 
 1939000   0.94077958   -6.9429197    688.04266  0.029570339  0.029639048            2 
 1940000   0.93853283   -6.9480325    688.34795  0.029568211  0.029631452            3 
 1941000   0.92735876   -6.9413832    689.16963  0.029588255  0.029623878            4 
 1942000   0.94749375   -6.9432525    692.77112  0.029727563  0.029616404            5 
 1943000   0.94354137   -6.9568067    688.86586   0.02954477  0.029608928            4 
 1944000   0.94366593   -6.9614325    688.98996  0.029534892  0.029601427            3 
 1945000   0.91850791   -6.9492703    690.56001  0.029586976  0.029593892            4 
 1946000   0.90102469   -6.9163794    692.81798  0.029668464  0.029586384            5 
 1947000   0.95182949   -6.9644189    692.00551  0.029618452  0.029578931            5 
 1948000   0.93548057   -6.9189578    692.01628  0.029603708  0.029571476            5 
 1949000   0.94301619   -6.9589804    691.47745   0.02956548  0.029563963            6 
 1950000   0.93151561   -6.9501028    691.76715  0.029562699  0.029556478            5 
 1951000   0.93188122   -6.9874508    690.06826  0.029474981  0.029548958            4 
 1952000   0.90633595   -6.9588239    690.84801   0.02949317  0.029541329            3 
 1953000   0.95529458   -6.9431313    694.20969  0.029621509  0.029533768            5 
 1954000   0.93738686   -6.9233882    693.14568  0.029560972  0.029526227            5 
 1955000   0.92470847   -6.9538946    692.42852  0.029515282  0.029518746            3 
 1956000   0.94075219   -6.9597138    692.81556  0.029516682  0.029511226            4 
 1957000   0.92289278   -6.9669425    693.37299  0.029525336  0.029503724            6 
 1958000   0.92405689   -6.9167329     692.9642  0.029492858  0.029496256            5 
 1959000   0.92905405   -6.9805756    691.77567  0.029427245  0.029488744           10 
 1960000   0.96504042   -6.9681192    693.79339  0.029498018   0.02948123            4 
 1961000   0.93558113   -6.9857068    693.16069  0.029456089  0.029473669            5 
 1962000   0.91699783   -6.9291812    693.94395  0.029474344  0.029466286            7 
 1963000   0.96809981   -6.9416651    694.69331   0.02949114  0.029458886            3 
 1964000   0.93956677   -6.9385998    694.74234  0.029478205  0.029451508            7 
 1965000   0.92534225    -6.973182    694.02107  0.029432615  0.029444003            9 
 1966000   0.92138102   -6.9529464    693.77822  0.029407351  0.029436435            8 
 1967000   0.94260943   -6.9346364    695.41218  0.029461624  0.029428939            2 
 1968000   0.92727866   -6.9590362    694.62618  0.029413372  0.029421507            4 
 1969000   0.92539136   -6.9331648    694.18272  0.029379665  0.029414045            4 
 1970000   0.93328341   -6.9196514     694.1846  0.029364831  0.029406542            4 
 1971000   0.90432043   -6.9469481    695.95438  0.029424758   0.02939912            3 
 1972000   0.94429082   -6.9369496    696.07936  0.029415118  0.029391712            7 
 1973000   0.91446893    -6.941481     695.8825  0.029391895  0.029384259            4 
 1974000   0.93370042   -6.9391914    694.95721  0.029337944  0.029376769            6 
 1975000   0.94892923    -6.951758    696.45682  0.029386364  0.029369275            6 
 1976000   0.92876545   -6.9891212    694.91955  0.029306661  0.029361765           21 
 1977000   0.95159075   -6.9824712    694.93294  0.029292402  0.029354145            9 
 1978000   0.93671204    -6.973713    695.91395  0.029318923  0.029346561            4 
 1979000   0.95283716   -6.9604269    695.29799  0.029278171  0.029339029            2 
 1980000   0.93651989   -6.9519041    696.64202   0.02931995  0.029331531            4 
 1981000   0.94247843   -6.9463845    699.15641  0.029410921  0.029324073            4 
 1982000    0.9330296   -6.9553121    695.69589  0.029250584  0.029316623            5 
 1983000   0.94032114   -6.9184361    696.75145  0.029280192  0.029309138            4 
 1984000   0.93758914   -6.9630135    699.25286    0.0293705  0.029301722            2 
 1985000   0.91883318   -6.9502968    697.69023  0.029290102  0.029294301            6 
 1986000   0.92648097   -6.9798968    696.00945  0.029204828  0.029286853            4 
 1987000   0.93690874   -6.9621893    697.46137  0.029251022  0.029279473            5 
 1988000   0.92884751    -6.991684    698.00979  0.029259297   0.02927201            4 
 1989000   0.92264706   -6.9646377    697.82708  0.029236932  0.029264494            7 
 1990000   0.94647082   -6.9777726    697.97818  0.029228567  0.029256964            3 
 1991000   0.92964675   -6.9952935    697.85717  0.029208822   0.02924942            3 
 1992000   0.91409453   -6.9497528    698.76483   0.02923213  0.029241903            3 
 1993000   0.94268434   -6.9463809    699.29653  0.029239695  0.029234516            8 
 1994000   0.93994423   -6.9892983    697.42518  0.029146823  0.029227046            3 
 1995000   0.93403481    -6.986884    697.34496  0.029128862  0.029219542            2 
 1996000   0.92934253   -6.9603845    698.62476    0.0291677  0.029212004            6 
 1997000   0.93519685   -6.9499458     698.8586  0.029162853  0.029204605            2 
 1998000    0.9402496   -6.9800581    700.12595  0.029201116  0.029197133            7 
 1999000   0.93636659     -6.99597    699.22704  0.029149035  0.029189544            4 
 2000000   0.94154649   -6.9353425      700.445  0.029185208  0.029181982            7 
 2001000   0.95118173   -6.9468201    700.25689  0.029162789  0.029174491            4 
 2002000   0.92436889   -6.9635515    697.48002  0.029032635     0.029167            6 
 2003000   0.94668574    -6.967179     700.9712  0.029163388  0.029159439            7 
 2004000   0.93823628   -6.9941165    700.19341  0.029116492  0.029151742            3 
 2005000   0.92768515   -6.9914092    699.23113  0.029061976  0.029144133            3 
 2006000   0.93794489   -6.9462861    700.93743  0.029118371  0.029136506            2 
 2007000    0.9319465   -6.9731089    699.51221  0.029044686  0.029128976            6 
 2008000   0.96340127    -6.952603    701.93007  0.029130564  0.029121552            5 
 2009000   0.92279139   -6.9848112    701.77694  0.029109712  0.029114103            5 
 2010000   0.92001201   -6.9430202    703.32306  0.029159331  0.029106612            3 
 2011000   0.93347214   -6.9903711    701.17113  0.029055658  0.029099084            6 
 2012000    0.9388553    -6.963372    702.04815  0.029077541  0.029091579            2 
 2013000   0.95441237   -6.9305778    703.26218  0.029113354  0.029084146            3 
 2014000   0.93502785   -6.9547301    703.15161  0.029094323  0.029076765            5 
 2015000   0.94262799   -6.9945621    702.44714   0.02905075  0.029069249            4 
 2016000   0.92423305   -6.9842713    705.98095  0.029182414  0.029061781            6 
 2017000   0.90057346   -7.0013283    703.26222   0.02905562  0.029054395            5 
 2018000   0.94427923   -6.9741627    705.24377   0.02912305  0.029046964            2 
 2019000   0.93327085   -6.9579636    704.77586  0.029089313  0.029039629            6 
 2020000   0.93890698   -6.9828594    703.61865  0.029027172  0.029032222            3 
 2021000   0.91230182    -6.944461    703.38603  0.029003218  0.029024718            2 
 2022000   0.93798472   -6.9461065    705.69703  0.029084118  0.029017298            2 
 2023000   0.92463522   -6.9568347     706.6027  0.029107048  0.029009895            3 
 2024000   0.93406982   -6.9597835    705.60626  0.029051641   0.02900241            4 
 2025000   0.94348292   -6.9613702    705.57661  0.029036074  0.028995005            5 
 2026000    0.9147707   -7.0159626    704.30884  0.028969597  0.028987531            4 
 2027000   0.91318011   -6.9777457    705.75854  0.029014905  0.028980135            5 
 2028000   0.92621374    -6.983833    706.27191  0.029021692  0.028972735            5 
 2029000   0.92863041   -6.9945955    706.25841  0.029006835  0.028965356            3 
 2030000    0.9487232   -6.9843576    704.37974  0.028915424  0.028957991            3 
 2031000   0.92498112   -6.9627763    707.08642  0.029012244  0.028950574           10 
 2032000   0.94781459   -6.9779187    708.78388  0.029067581  0.028943181            3 
 2033000   0.92165524   -6.9766609    706.79938  0.028971937  0.028935813            5 
 2034000   0.91355244   -6.9759916    705.14921  0.028890086  0.028928426            7 
 2035000   0.92018147   -6.9758101    704.59896  0.028853356  0.028920966            7 
 2036000   0.92955732   -6.9911354    706.42727  0.028914017  0.028913476            6 
 2037000    0.9318229   -6.9740007    707.58748  0.028947287  0.028906002            3 
 2038000   0.92550797    -6.997032    707.29164  0.028920986  0.028898537            3 
 2039000   0.92915628   -6.9825757     707.0074  0.028895185  0.028891069            3 
 2040000   0.95866571   -6.9678075    706.61424  0.028864961  0.028883683            4 
 2041000   0.90416642   -6.9752459    707.47284  0.028885875  0.028876277            2 
 2042000   0.94496266   -6.9835629    707.54624  0.028874724  0.028868916            3 
 2043000   0.92831267   -6.9833217    710.05327  0.028962851  0.028861532            3 
 2044000   0.92867981   -6.9953624    711.06335  0.028989862  0.028854208           10 
 2045000   0.92656527   -6.9888788    708.99601  0.028891443  0.028846904           13 
 2046000   0.90795013   -6.9701373    708.42854  0.028854209  0.028839574            5 
 2047000   0.94267189   -6.9757506     709.3693  0.028878411  0.028832291            5 
 2048000   0.93291256   -6.9844111    709.40369   0.02886571  0.028824944            3 
 2049000    0.9510869   -6.9611566    709.50503  0.028855744  0.028817611            7 
 2050000   0.90927227   -7.0181373    708.04097  0.028782153  0.028810259            8 
 2051000   0.91623711   -7.0135213     710.6155  0.028872724  0.028802935            9 
 2052000    0.9299345   -6.9846225     708.1968  0.028760429  0.028795632            6 
 2053000   0.91269863   -6.9710347    710.85515  0.028854325  0.028788436            7 
 2054000   0.91218755     -7.01389    710.88906  0.028841653  0.028781166            5 
 2055000   0.91807988   -6.9907502    712.64286  0.028898737  0.028773867            3 
 2056000   0.90429681    -6.960073    711.43055  0.028835544  0.028766597            3 
 2057000    0.9403041   -6.9951567    711.33319  0.028817582  0.028759345            4 
 2058000   0.90403786   -6.9957869    710.68181  0.028777203  0.028752049            6 
 2059000   0.89972872   -7.0090498    712.33007  0.028829937  0.028744772            7 
 2060000   0.96075466   -6.9896305    711.35825  0.028776628  0.028737471            4 
 2061000   0.92381953   -6.9754032    710.76024  0.028738486  0.028730186            6 
 2062000   0.92760228   -7.0103963    713.21669  0.028823824  0.028722861            3 
 2063000   0.90976679   -7.0105612    709.99822  0.028679844  0.028715515            8 
 2064000   0.92271806   -6.9787052     712.5719   0.02876986  0.028708104            3 
 2065000   0.91721264   -6.9809155    712.47401  0.028751978  0.028700649            8 
 2066000    0.9249239   -7.0451789     711.2183  0.028687411  0.028693187            4 
 2067000   0.91423287   -7.0190388     714.3351   0.02879919  0.028685805            3 
 2068000   0.93999238   -6.9863981    712.49277  0.028711024  0.028678374            2 
 2069000   0.91987285   -6.9600084    712.08612  0.028680769   0.02867098            4 
 2070000   0.90971282   -6.9794386    713.84595   0.02873776  0.028663598            6 
 2071000   0.91596506   -6.9838939    713.35932  0.028704302  0.028656242            2 
 2072000   0.89436379   -6.9748204    712.88887  0.028671528  0.028648876            3 
 2073000   0.92116495   -6.9542275    713.93214  0.028699636  0.028641452            8 
 2074000   0.93374118   -7.0061858    713.24949  0.028658369  0.028634048            6 
 2075000   0.92593368   -6.9995305    710.38385  0.028529472  0.028626624            4 
 2076000   0.94283217   -6.9983426    714.11792   0.02866562  0.028619275            5 
 2077000   0.92410734   -7.0181001    714.09763  0.028651004  0.028611928            6 
 2078000   0.90174614    -7.005092    714.68483  0.028660765  0.028604516            3 
 2079000   0.92125924   -7.0074457    714.82477  0.028652588  0.028597128            5 
 2080000   0.91586522   -7.0211297    713.66599  0.028592388  0.028589723            5 
 2081000   0.90611453   -6.9553039    715.33908  0.028645646  0.028582286            8 
 2082000   0.92019988   -7.0169115    712.09219  0.028501929  0.028574889            4 
 2083000   0.91947679   -6.9631062    713.50099  0.028544607  0.028567458            8 
 2084000   0.89968493   -6.9817792    715.86582  0.028625473  0.028560038            3 
 2085000   0.92711085   -6.9672366    716.01233  0.028617599  0.028552608            5 
 2086000   0.90522483    -6.996562    714.61905   0.02854822  0.028545227            4 
 2087000   0.93715263    -6.985992     715.9343  0.028587059  0.028537653            4 
 2088000   0.90567196   -6.9812057    713.15948  0.028462623  0.028530098            4 
 2089000   0.92467771   -6.9551194    716.31531  0.028574889  0.028522636            3 
 2090000   0.90248775   -6.9759677    715.45241  0.028526811   0.02851519            3 
 2091000   0.91452885   -6.9828606    714.31086  0.028467674  0.028507683            5 
 2092000   0.91780838   -7.0098217    714.84944  0.028475519  0.028500187            6 
 2093000   0.93295494   -6.9994844    714.84669  0.028461805  0.028492645            3 
 2094000   0.89489199   -7.0054383    715.62934  0.028479359  0.028485075            4 
 2095000   0.91637744   -7.0468496    713.49942  0.028381043   0.02847748            2 
 2096000   0.91242956   -7.0237025    715.15582  0.028433358  0.028469837            5 
 2097000   0.92111877   -6.9961462    714.88196  0.028408916  0.028462186            3 
 2098000   0.91175826   -6.9985056    714.96032  0.028398488  0.028454594            3 
 2099000   0.92021244   -7.0062936    715.84698   0.02842016  0.028447022            4 
 2100000   0.89740916   -6.9901493    716.76079  0.028442889  0.028439559            6 
 2101000   0.89709614    -7.015801    716.34423  0.028412828  0.028432028            6 
 2102000   0.93601198     -7.02216    716.33894  0.028399102  0.028424466            4 
 2103000   0.91231624   -7.0005491    716.24453  0.028381856  0.028416974            5 
 2104000   0.92341552   -7.0092808    718.12451  0.028442828  0.028409451            3 
 2105000   0.89879881   -6.9739056    715.91764  0.028341949  0.028401929            6 
 2106000   0.91609639   -6.9935916    718.40626  0.028426965  0.028394419            2 
 2107000   0.91041222   -6.9873361    717.81804  0.028390209  0.028386954            6 
 2108000   0.91797035   -7.0112045    718.46247  0.028402216  0.028379536            7 
 2109000   0.91577478   -7.0086201    716.16776  0.028298078  0.028372048            6 
 2110000   0.88817615   -7.0145094    718.27479  0.028367883  0.028364518            2 
 2111000   0.90793248    -6.978182    718.44011  0.028360971  0.028356971            2 
 2112000   0.93073521   -7.0035225    718.20215  0.028338153  0.028349438            2 
 2113000   0.90388116   -6.9920026    719.57186  0.028378761  0.028341909            6 
 2114000   0.91906966   -7.0253715    717.92608   0.02830046  0.028334347            5 
 2115000   0.90656999   -6.9874349    718.20736  0.028298162  0.028326794            3 
 2116000   0.88402558   -7.0064512    716.79411  0.028229132  0.028319239            4 
 2117000   0.90831025   -7.0158115    717.48853  0.028243132  0.028311755            3 
 2118000   0.90214859    -7.040633    717.69312  0.028237847   0.02830417            6 
 2119000    0.9109156   -7.0318731    719.48553  0.028295011  0.028296602            8 
 2120000    0.9130778   -7.0086344    717.92577  0.028220352  0.028289088            2 
 2121000   0.92068109   -7.0089734    720.15434  0.028294607  0.028281628            3 
 2122000   0.90948677   -6.9922106    718.30419  0.028208616  0.028274109            3 
 2123000   0.92358845   -7.0108905    719.69082  0.028249757  0.028266568            5 
 2124000   0.91821641    -7.011055     719.0552  0.028211519  0.028259136            3 
 2125000    0.9021478   -7.0151875    719.93177  0.028232619  0.028251666            5 
 2126000   0.93263739   -6.9877499    720.84233   0.02825503  0.028244181            3 
 2127000   0.91455533   -7.0061469    720.11511  0.028213254  0.028236769            3 
 2128000   0.92038123   -7.0222812     721.2294  0.028243633  0.028229378            3 
 2129000   0.92352332   -6.9917268    721.52294  0.028241856  0.028221935            5 
 2130000   0.92222786   -7.0027924    719.78227  0.028160496   0.02821447            4 
 2131000   0.91418255   -6.9840141    721.91166  0.028230551  0.028206932            1 
 2132000   0.92216252   -7.0052008    722.46662  0.028239002  0.028199473            3 
 2133000   0.90647458   -6.9917945    721.46635  0.028186683  0.028191958            2 
 2134000   0.90440094   -7.0284892    720.72142  0.028144385  0.028184458            5 
 2135000   0.88139897   -7.0548807    720.55029  0.028124524  0.028176919            4 
 2136000   0.89519519   -7.0209504    722.69944  0.028195203  0.028169349            4 
 2137000    0.8974296   -6.9920643    722.80778  0.028186234  0.028161836            4 
 2138000   0.92189877   -7.0056429    723.18737  0.028187846  0.028154313            6 
 2139000   0.91715607   -6.9987768    721.42651  0.028106066  0.028146822            4 
 2140000   0.90645928   -7.0312623    721.64592  0.028101477  0.028139341            5 
 2141000   0.91386147   -7.0134053    721.69594  0.028090298  0.028131867            6 
 2142000   0.90379622   -7.0162169    723.89903  0.028162894  0.028124353            7 
 2143000   0.90626028   -7.0209415    722.37935  0.028090658  0.028116767            5 
 2144000   0.92396682   -6.9935673    722.24762  0.028072435  0.028109239            4 
 2145000   0.90336977   -7.0178654    724.14073  0.028132895  0.028101732           10 
 2146000   0.92102772   -7.0152233    723.46791  0.028093659   0.02809421            5 
 2147000   0.92265924    -6.960133    724.38826  0.028116296  0.028086685            5 
 2148000   0.91246364   -6.9897716    724.31773   0.02810047  0.028079243            4 
 2149000   0.91057878   -7.0434924    722.59367  0.028020539  0.028071751            4 
 2150000    0.9066729   -6.9859505    723.50926  0.028042995   0.02806431            2 
 2151000   0.91931979   -7.0151448    726.32066  0.028138876  0.028056885            4 
 2152000   0.91332171   -7.0233575     725.3241   0.02808721  0.028049421            3 
 2153000   0.92818701   -7.0406075    723.35482  0.027997942   0.02804198            7 
 2154000   0.91128439   -7.0125268    725.24251  0.028057974   0.02803452            2 
 2155000   0.88700216   -7.0055617    726.64197  0.028099071  0.028027077            4 
 2156000   0.89849489   -7.0086503    725.40438  0.028038203  0.028019626            3 
 2157000   0.90343259   -7.0124499    724.50168  0.027990329  0.028012272            3 
 2158000   0.89135545   -6.9844998    727.38266   0.02808861  0.028004925            2 
 2159000     0.913682   -6.9951463    725.28856  0.027994772  0.027997518            6 
 2160000   0.89755629   -7.0375117    725.46952  0.027988793  0.027990091            4 
 2161000   0.93157219   -7.0603963    725.21236  0.027965925  0.027982676           10 
 2162000   0.91496586   -7.0054322    727.02093    0.0280227  0.027975316            6 
 2163000   0.89262746   -7.0075989    727.08901  0.028012367  0.027968018            5 
 2164000   0.91833567   -7.0317213    726.75639  0.027986614  0.027960705            6 
 2165000   0.92042281   -7.0643603    726.35774  0.027958343  0.027953367            3 
 2166000   0.90907444   -7.0336679    728.64257   0.02803334  0.027946102            4 
 2167000   0.90798679   -7.0110531    728.69164   0.02802229  0.027938869            5 
 2168000   0.90003619   -7.0026232    727.80658  0.027975345  0.027931604            4 
 2169000    0.9349641   -7.0259503    727.33285  0.027944246  0.027924279            4 
 2170000   0.90822558   -7.0371561    728.28724   0.02796802  0.027916897            5 
 2171000   0.91122389   -7.0086015    726.34875  0.027880729  0.027909557            7 
 2172000   0.88886917   -7.0463648    729.67571  0.027995538  0.027902171            6 
 2173000   0.89703488   -6.9999451    727.94239  0.027916183  0.027894789           11 
 2174000   0.88901535   -6.9956856    729.18109  0.027950824  0.027887532            6 
 2175000   0.89467602   -7.0068099    728.68436  0.027918941  0.027880196            3 
 2176000   0.90011201   -7.0514768    727.98682  0.027879397  0.027872839            4 
 2177000   0.89311286   -7.0267125    728.26557  0.027877261  0.027865514            3 
 2178000   0.91663284   -7.0213609    731.16196  0.027975282  0.027858196            7 
 2179000   0.90643649   -7.0127782    731.67973  0.027982245  0.027850966            4 
 2180000   0.91135011   -7.0104132    730.24373  0.027914516   0.02784375            4 
 2181000   0.89159076   -7.0003391    729.33903  0.027867149  0.027836486            5 
 2182000   0.93109526   -7.0561308    729.79131  0.027871651  0.027829111            5 
 2183000   0.91734347   -7.0309986    731.07553  0.027907907  0.027821795            3 
 2184000   0.90246929   -7.0204891    730.43347   0.02787063  0.027814458            5 
 2185000   0.90972692   -7.0247965    730.86588  0.027874366  0.027807219            3 
 2186000   0.88730656   -7.0266772     731.6128  0.027890088  0.027800036            7 
 2187000   0.89246919   -7.0016575    730.98431  0.027853388  0.027792854            6 
 2188000   0.89575941     -7.04689    733.12723  0.027922274  0.027785656            3 
 2189000   0.90755064    -7.031162    734.49497  0.027961587  0.027778419            6 
 2190000   0.93576356   -6.9968919    732.73714  0.027881931  0.027771213            4 
 2191000   0.91865815   -7.0160449    733.19299  0.027886543  0.027764015            3 
 2192000   0.90022418   -7.0355248    732.70217  0.027855161  0.027756784            5 
 2193000   0.90373463   -7.0331686    730.36139  0.027753511  0.027749527            5 
 2194000   0.88418731   -7.0237774    731.97529  0.027802161   0.02774233            4 
 2195000   0.89343617   -7.0194887    732.87133  0.027823513  0.027735132            7 
 2196000   0.88516764   -7.0471854    732.51421  0.027797291  0.027727825            4 
 2197000    0.8977336    -7.024177    732.29314  0.027776253  0.027720495            3 
 2198000   0.89034608    -7.035605    731.38089   0.02772903  0.027713217           10 
 2199000   0.88262075   -7.0208636    734.87012  0.027848648  0.027705951            6 
 2200000   0.90996464   -7.0339033    732.32914   0.02773974   0.02769865            2 
 2201000   0.90168958   -7.0302592    734.62048  0.027813891   0.02769139            2 
 2202000    0.8875809   -7.0366115    734.95447  0.027813899  0.027684183            3 
 2203000   0.90388971   -7.0232819    737.05835  0.027880857  0.027677014            3 
 2204000   0.89024724   -7.0395292    732.20159  0.027684573  0.027669751            5 
 2205000   0.88052412   -7.0293225    734.88108  0.027773283   0.02766255            5 
 2206000   0.89230081   -7.0268611    734.78856  0.027757199  0.027655297            6 
 2207000   0.90571855   -7.0604154      734.082  0.027717943  0.027648121            3 
 2208000   0.90618046   -7.0084857    733.77052  0.027693634  0.027640909            8 
 2209000   0.89851199    -7.030639    735.35894  0.027741019  0.027633724            3 
 2210000   0.88769057    -7.022773    736.43598  0.027769079  0.027626531            3 
 2211000   0.89148846   -7.0190658    735.06997  0.027705034  0.027619361            4 
 2212000   0.89316547     -7.06319    734.84426  0.027684006  0.027612176            5 
 2213000   0.91270507   -7.0356256    736.66788  0.027740167  0.027605014            3 
 2214000   0.89960021   -7.0333945    737.05002  0.027742021  0.027597839            3 
 2215000   0.90635619   -7.0466258    736.66015  0.027714829  0.027590726            4 
 2216000   0.89049783   -7.0339049    738.31322  0.027764486   0.02758363            3 
 2217000   0.89135109   -7.0319199    736.16559  0.027671237  0.027576524            6 
 2218000   0.89539057   -7.0800872    735.77161  0.027643959  0.027569405            7 
 2219000   0.90601379   -7.0551009    738.27853  0.027725647  0.027562293            8 
 2220000   0.89729187   -7.0442597     736.5208  0.027647177  0.027555144            2 
 2221000   0.91131366   -7.0512646    737.84539  0.027684429  0.027548074            3 
 2222000   0.89318621   -7.0420693    736.58001  0.027624513  0.027540908            6 
 2223000   0.88851435   -7.0393147     738.5358  0.027685403  0.027533728            5 
 2224000   0.89295358   -7.0737958    737.51137  0.027634569  0.027526565            9 
 2225000   0.89097866   -7.0499218    736.19478  0.027572838  0.027519342            8 
 2226000   0.88754834   -7.0589472    738.31983  0.027640006  0.027512165            4 
 2227000   0.89828471     -7.05049    738.17313  0.027622105  0.027505037            6 
 2228000   0.91108192   -7.0686397    737.91704  0.027600129  0.027497886            6 
 2229000   0.86997472    -7.023348    737.32201  0.027565501  0.027490738            4 
 2230000   0.89778612   -7.0708394    738.40946  0.027593776  0.027483573            3 
 2231000   0.89404628   -7.0415585    737.61667  0.027551795  0.027476423            3 
 2232000   0.90082064   -7.0319936    738.03764  0.027555169  0.027469269            2 
 2233000   0.90797656   -7.0373172    738.34931   0.02755446  0.027462185            4 
 2234000   0.90168204   -7.0589687    739.44389  0.027582956  0.027455039            4 
 2235000   0.90799381   -7.0398121    739.39718  0.027568873  0.027447918            2 
 2236000   0.89995502   -7.0181384    738.45747  0.027521522   0.02744083            3 
 2237000   0.91278912    -7.076175    739.08128  0.027532457  0.027433751            3 
 2238000   0.88402555   -7.0570379    740.22207  0.027562633  0.027426663            5 
 2239000   0.88701562   -6.9981821    739.09212  0.027508267  0.027419569            2 
 2240000   0.90698288   -7.0419351    740.52566  0.027549318   0.02741246            4 
 2241000   0.89266651   -7.0830174     737.9882  0.027442667  0.027405313            4 
 2242000   0.91724788   -7.0505271    741.09729  0.027545989  0.027398235            2 
 2243000   0.90199217   -7.0634115    742.27898  0.027577611  0.027391147            4 
 2244000   0.90405183   -7.0835782    741.19509   0.02752507  0.027384037            3 
 2245000   0.88942034   -7.0250776    742.08143   0.02754571     0.027377            5 
 2246000    0.8992991   -7.0133602    741.75307  0.027521263  0.027369944            4 
 2247000   0.88503785   -7.0653776     741.0755  0.027483886  0.027362855            3 
 2248000    0.8950973   -7.0934011    742.95163  0.027541208  0.027355805            5 
 2249000   0.88709226   -7.0396418     742.8961  0.027526905  0.027348775            5 
 2250000   0.88895338   -7.0749928     741.7867  0.027473581  0.027341693            3 
 2251000   0.90612384   -7.0489973     744.4212  0.027558907  0.027334588            7 
 2252000   0.89352004   -7.0586063    743.72282  0.027520827  0.027327535            6 
 2253000   0.89722684   -7.0579131    744.28699  0.027529479  0.027320565            5 
 2254000   0.89708046   -7.0515319    744.70134  0.027532584  0.027313536            4 
 2255000   0.89441674   -7.0629772    740.75788  0.027374644  0.027306501            8 
 2256000    0.8879108   -7.0668814    743.87206  0.027477544  0.027299434            7 
 2257000   0.88788627   -7.0600983    744.81252  0.027500093  0.027292435            4 
 2258000   0.87705132   -7.0311013    743.68699  0.027446376  0.027285458            2 
 2259000   0.89751195   -7.0456882     743.6155  0.027431588  0.027278436            2 
 2260000   0.90058719   -7.0598463    741.92294  0.027357041  0.027271367            5 
 2261000   0.87899587    -7.048132    744.32894  0.027433618   0.02726431            4 
 2262000   0.88172011   -7.0531719    744.38066  0.027423396  0.027257383            4 
 2263000   0.87981975   -7.0446908    743.50726  0.027379115  0.027250448            3 
 2264000   0.89271479   -7.0524013    744.30667  0.027396447  0.027243482            4 
 2265000    0.8863228   -7.0346051    746.52932  0.027466126  0.027236461            4 
 2266000   0.89709413   -7.0393321    747.46535  0.027488429  0.027229496            5 
 2267000    0.9028546   -7.0490856    745.59017  0.027407373  0.027222464            7 
 2268000   0.89076498    -7.045288    746.30813  0.027421669  0.027215468            4 
 2269000   0.89440149    -7.063663    745.23333  0.027370109  0.027208463            2 
 2270000   0.88624349   -7.0445484    747.04448   0.02742454  0.027201481            6 
 2271000   0.89163927   -7.0395433    743.18818  0.027270959  0.027194419            4 
 2272000   0.88825127   -7.0305194    747.34822   0.02741154  0.027187388            5 
 2273000   0.86084885   -7.0484763    746.26095  0.027359618  0.027180411            2 
 2274000   0.88377517   -7.0197098    746.51448  0.027356878  0.027173443            9 
 2275000   0.88751488   -7.1023561    745.77468  0.027317754  0.027166436            9 
 2276000   0.89911161   -7.0287085    745.88708  0.027309867  0.027159396           12 
 2277000   0.85892187   -7.0970508    745.31572  0.027276962  0.027152378            5 
 2278000   0.89224751   -7.0538012    747.12622   0.02733122  0.027145322            4 
 2279000   0.89428019   -7.0496016    748.48899  0.027369058  0.027138352           10 
 2280000   0.87719526   -7.0500357    747.07406  0.027305338   0.02713142            4 
 2281000   0.90995506   -7.0494431     748.2301  0.027335602  0.027124469            3 
 2282000   0.90032864   -7.0881131    748.13456  0.027320134  0.027117523            6 
 2283000   0.87817028   -7.0855544    745.78847  0.027222531  0.027110565            2 
 2284000   0.89391764   -7.0729395    749.06651  0.027330214  0.027103644            5 
 2285000   0.86575699    -7.056522     750.0798  0.027355208  0.027096732            5 
 2286000   0.89836736   -7.0481238    750.51085  0.027358955  0.027089823            3 
 2287000   0.88960206   -7.0518888    749.44851  0.027308283  0.027082926            6 
 2288000   0.87578402   -7.0684356    750.49646  0.027334515   0.02707607            2 
 2289000   0.87765084    -7.040488    749.43103  0.027283786  0.027069127            5 
 2290000    0.8627889   -7.0502731    749.09331  0.027259582  0.027062214            4 
 2291000   0.90896017   -7.0702622    749.85461  0.027275375  0.027055274            9 
 2292000   0.87089232   -7.0443557     750.7214   0.02729499  0.027048403            4 
 2293000   0.88504929   -7.0668861    749.34049    0.0272329   0.02704156            2 
 2294000   0.90360207   -7.0574764    751.48916  0.027299083  0.027034725            6 
 2295000   0.89739235   -7.0530678    749.39533  0.027211159  0.027027821            6 
 2296000   0.87946221   -7.0609103    751.35408  0.027270401  0.027020916            6 
 2297000   0.91744117   -7.0377256    751.59886  0.027267409  0.027014103            4 
 2298000   0.87483177   -7.0848285    750.52361  0.027216551  0.027007314           11 
 2299000     0.869548   -7.0436577    751.76723  0.027249791  0.027000533            8 
 2300000   0.89110064   -7.0446577     752.7235  0.027272591  0.026993763            7 
 2301000   0.87855435   -7.0467714     752.9525  0.027269031  0.026986987            6 
 2302000    0.8918527   -7.0681728    750.58436  0.027171458  0.026980182            5 
 2303000   0.88609353   -7.0465421    752.34398  0.027223331  0.026973409            3 
 2304000   0.90074237   -7.0803442    751.34629   0.02717543  0.026966621            3 
 2305000   0.87582683   -7.0875635      751.998  0.027187202  0.026959837            2 
 2306000     0.867092   -7.0847479    752.85222  0.027206281  0.026952984            4 
 2307000   0.89034029   -7.0482614    751.59355  0.027149023  0.026946128            4 
 2308000   0.88271202   -7.0757121    753.04776  0.027189766  0.026939286            5 
 2309000   0.88752478   -7.0400141    752.90267  0.027172754  0.026932438            3 
 2310000    0.8854623   -7.0720437    751.76751   0.02712004  0.026925555            3 
 2311000   0.87889259   -7.0635486    753.35921  0.027165701  0.026918683            2 
 2312000   0.89395043   -7.0766575    752.82811  0.027134808  0.026911759            8 
 2313000   0.88260249   -7.0549064    752.52618  0.027112198  0.026904868            7 
 2314000   0.88875601   -7.0579006     752.8956  0.027113786  0.026897953            4 
 2315000   0.85868896   -7.0730356    751.86772  0.027065073  0.026891002           11 
 2316000   0.86612501   -7.0508485    754.78946  0.027158516  0.026884124            5 
 2317000    0.8674544   -7.0730558    753.30944  0.027093563  0.026877239            4 
 2318000   0.89016481   -7.0381796    753.44238  0.027086654  0.026870332            3 
 2319000   0.87955807   -7.0550663    751.96748  0.027021973  0.026863434            5 
 2320000    0.8893445   -7.0642834    754.23458  0.027091759  0.026856527            8 
 2321000   0.87950874   -7.0855757    753.18935  0.027042559  0.026849561            3 
 2322000   0.90426752   -7.0780036    753.91381  0.027056912  0.026842612            4 
 2323000   0.87831486   -7.0833126    752.48039  0.026993844  0.026835715           11 
 2324000    0.8809124   -7.0692398    753.99005  0.027036362  0.026828827            5 
 2325000   0.88882068   -7.0420805    754.99786  0.027060855  0.026821924            5 
 2326000   0.88213018   -7.0779166    753.66386  0.027001428  0.026814983            5 
 2327000   0.88044806   -7.0759766    752.83371  0.026960096  0.026807982            6 
 2328000    0.8721699   -7.1023567    754.18364  0.026996837  0.026800989            7 
 2329000   0.88052782   -7.0642224    753.56986  0.026963284   0.02679401            6 
 2330000   0.87830948   -7.0960645    754.65539  0.026990536  0.026787011            5 
 2331000   0.87676019   -7.0762777     755.4266  0.027006528  0.026780081            4 
 2332000   0.86565826   -7.0699592    754.02531  0.026944872  0.026773123            4 
 2333000   0.86310856   -7.0809252    754.24887  0.026941308  0.026766178            5 
 2334000   0.87702864   -7.0952667      754.358  0.026933662  0.026759284            6 
 2335000   0.86768171   -7.0782064    755.80032  0.026973602  0.026752288            5 
 2336000   0.88060007   -7.0734048    753.66315  0.026885814  0.026745287            3 
 2337000   0.87412477    -7.071323     755.6352   0.02694463  0.026738385            5 
 2338000   0.87929805    -7.063234    757.21825   0.02698953  0.026731502            5 
 2339000    0.8638292   -7.0693648    754.42043  0.026878311  0.026724569            2 
 2340000   0.88203144   -7.1029851    754.20874  0.026859286  0.026717558            7 
 2341000   0.89273499   -7.0905928    755.05739  0.026878022  0.026710551            7 
 2342000   0.87978176   -7.0778956    755.88547   0.02689601  0.026703595            3 
 2343000   0.89270878     -7.09155    755.14383  0.026858153  0.026696582           20 
 2344000   0.86331071   -7.0690593    755.31536  0.026852793  0.026689611            7 
 2345000   0.86982459   -7.1066125    755.61553  0.026852009  0.026682622            4 
 2346000    0.8775745   -7.0975772    756.47529  0.026871103  0.026675702            6 
 2347000   0.87069168    -7.106537    756.83221  0.026872327  0.026668839            6 
 2348000   0.87139082   -7.0923186    757.44279  0.026882552  0.026661954           11 
 2349000   0.85561925   -7.0880066    759.19517  0.026933275  0.026655076            7 
 2350000   0.88725419   -7.0606027    756.94018   0.02684185  0.026648151            8 
 2351000   0.87081709   -7.0909721    757.80922  0.026861237  0.026641229            5 
 2352000   0.87194869   -7.1137652    755.62266  0.026772345  0.026634313            5 
 2353000   0.86215252   -7.0998369    756.69202  0.026798839  0.026627441           11 
 2354000   0.86728803   -7.0865447     757.6532  0.026821481  0.026620555            6 
 2355000   0.87718688   -7.1056917    757.73537     0.026813  0.026613668            4 
 2356000   0.89896464   -7.0924215    756.98495  0.026775076  0.026606823            3 
 2357000   0.88397412   -7.0593754    759.06682  0.026837322  0.026600014            9 
 2358000   0.86791865   -7.0844852    758.95473   0.02682198  0.026593174            3 
 2359000   0.87850254   -7.0986373    758.75981  0.026803724   0.02658629            9 
 2360000   0.88038745   -7.0974341    759.70419  0.026825713  0.026579412            4 
 2361000   0.86649701   -7.0525962     759.8478   0.02681942  0.026572547            4 
 2362000   0.86909345    -7.074508    758.43404  0.026758187   0.02656573           11 
 2363000   0.86768497   -7.0885079    758.88494  0.026762764   0.02655883            9 
 2364000   0.86249136   -7.1217632    758.51803  0.026738509  0.026551945            3 
 2365000    0.8691008   -7.0932095    758.27024  0.026718472  0.026545015            4 
 2366000   0.86682968   -7.0711497    757.17801   0.02666871  0.026538093            7 
 2367000   0.88392352   -7.0714279    758.90268  0.026718162  0.026531187            4 
 2368000     0.882072   -7.0852866    761.31325  0.026791711  0.026524341            7 
 2369000   0.88192347    -7.114194    760.64596  0.026756928  0.026517442            5 
 2370000   0.85105025   -7.0895516    759.92917  0.026720435  0.026510516            2 
 2371000   0.87547923   -7.0757648    759.24657  0.026685174  0.026503622            2 
 2372000   0.85940143   -7.0772043     760.6057  0.026721673  0.026496717            6 
 2373000   0.87695785   -7.1013134    759.82796    0.0266831  0.026489784            2 
 2374000   0.87246883   -7.1105892    761.47171   0.02672956  0.026482874            7 
 2375000   0.87316345   -7.0647674    763.10172  0.026775499  0.026476045            3 
 2376000   0.87432656   -7.1261932    760.64021  0.026677897  0.026469204            7 
 2377000    0.8815224   -7.1188282    760.81925  0.026672951  0.026462365            8 
 2378000   0.85299623   -7.1061795     761.9177  0.026700228  0.026455597            5 
 2379000   0.86265415   -7.0854179    763.03834  0.026728259   0.02644884            5 
 2380000   0.86062458   -7.0845437    763.96649  0.026749527  0.026442113            3 
 2381000   0.86460083   -7.0800736    763.83472   0.02673368  0.026435397            4 
 2382000   0.86479263    -7.082447    763.30606  0.026703962  0.026428739            6 
 2383000   0.88389223   -7.0729077     762.3796  0.026660358  0.026421997            3 
 2384000   0.88429937   -7.0881716    764.17546   0.02671195  0.026415251            4 
 2385000   0.87350024    -7.111992    762.98812  0.026659264  0.026408494           12 
 2386000   0.86966847   -7.0773239    764.38096  0.026696737  0.026401777            7 
 2387000   0.87504457   -7.1219186    762.69552  0.026626711  0.026395019            6 
 2388000   0.87085121   -7.1078714    761.41718  0.026570951  0.026388211            3 
 2389000   0.88794251   -7.0989197    763.55988  0.026634571  0.026381451            3 
 2390000   0.86894743   -7.0996245    765.57541  0.026693703   0.02637468            9 
 2391000   0.85827052   -7.1044143    764.13888  0.026632472  0.026367938            6 
 2392000   0.87768365   -7.1108932    764.81992  0.026645064  0.026361183            4 
 2393000   0.86664336   -7.1082527    765.52893   0.02665862  0.026354395            6 
 2394000   0.86216184   -7.1256066    763.81792  0.026587925  0.026347612            4 
 2395000   0.86071959   -7.0823405     764.9716  0.026616966  0.026340867            4 
 2396000   0.84153185   -7.1087635    764.03088  0.026573139  0.026334123            4 
 2397000   0.85237969   -7.1006004     764.0975  0.026564369  0.026327365            6 
 2398000   0.85991918   -7.0944537    766.64519  0.026641826  0.026320639            4 
 2399000   0.87812143   -7.0828212    766.17306  0.026614321  0.026313962            6 
 2400000   0.88322881   -7.0731713    766.46564   0.02661339  0.026307244            2 
 2401000   0.85952838   -7.0988588    764.95273  0.026549796  0.026300462            6 
 2402000   0.87739581   -7.0764451    765.33418  0.026551977  0.026293653            6 
 2403000   0.86984207   -7.0688559    766.85221  0.026593571  0.026286886            5 
 2404000   0.86109927   -7.1198312    765.28099  0.026528043  0.026280063            2 
 2405000   0.86059437   -7.0964205    764.70036  0.026496894  0.026273221            7 
 2406000   0.88731089   -7.0958767    766.98794  0.026565113   0.02626643            3 
 2407000   0.88368537   -7.1122989    764.39527  0.026464315  0.026259687            5 
 2408000   0.87088795   -7.0784808    764.77106   0.02646633  0.026252907            7 
 2409000   0.86711652   -7.1001546     767.0125   0.02653288  0.026246166            3 
 2410000   0.87880695   -7.0980523    766.69452  0.026510875  0.026239412            4 
 2411000   0.87116353   -7.0747821    766.21157  0.026483187  0.026232652            2 
 2412000   0.83919673    -7.107242    764.10477  0.026399419  0.026225819            3 
 2413000   0.85231153   -7.0882742    767.11176  0.026492325  0.026219002            3 
 2414000    0.8810045   -7.1026589    763.95216  0.026372278  0.026212159            7 
 2415000   0.84599728   -7.1213942     766.8894  0.026462712  0.026205311            8 
 2416000     0.874338   -7.1118843    765.60201  0.026407354  0.026198458            6 
 2417000   0.85250948   -7.0970283    765.76945  0.026402202  0.026191639           12 
 2418000   0.87793425   -7.1018606    765.52887  0.026382991  0.026184826            5 
 2419000   0.86486694   -7.0867559    765.29064  0.026363878  0.026177989            8 
 2420000   0.85134873   -7.1095109    764.85309  0.026337916  0.026171161            5 
 2421000   0.85507068   -7.0987682     766.6531  0.026388996  0.026164294            3 
 2422000   0.86297381   -7.1035835    766.42344  0.026370198  0.026157429            4 
 2423000   0.84622271   -7.1077185    766.50858  0.026362243  0.026150557            4 
 2424000   0.85321236   -7.1250081    766.93779  0.026366123  0.026143696            5 
 2425000   0.87499607   -7.0905491     767.2663  0.026366539  0.026136819            4 
 2426000   0.86821465   -7.1211551    766.28831  0.026322077  0.026129947            8 
 2427000   0.85456189   -7.1157894    767.42254  0.026350176  0.026123069            3 
 2428000   0.88432675   -7.0963078    768.16018  0.026364641  0.026116278            5 
 2429000    0.8803604   -7.0953987    769.97941    0.0264162  0.026109493            8 
 2430000   0.85712954    -7.154084    767.32786  0.026314399  0.026102674            5 
 2431000   0.87042179   -7.0903951    768.21958  0.026334142  0.026095802            6 
 2432000   0.88776589   -7.1220482    767.82516  0.026309799  0.026088951            3 
 2433000   0.86186049   -7.0977353    769.68974  0.026362849  0.026082149           11 
 2434000   0.86586081   -7.1007296    768.78532  0.026321053  0.026075325            2 
 2435000   0.86407598   -7.1026012    768.37052  0.026296048   0.02606852            4 
 2436000   0.85161633   -7.1091731    768.03348  0.026273723  0.026061636            5 
 2437000   0.85603163   -7.1211519    768.94759    0.0262942  0.026054782            5 
 2438000   0.88013612   -7.1166207    768.64567  0.026273095  0.026047997            3 
 2439000   0.87655597   -7.1172319    768.53807  0.026258647  0.026041167           11 
 2440000   0.86620038    -7.104871    771.20157  0.026338852  0.026034312            6 
 2441000   0.85161557   -7.1156326     768.5854  0.026238748   0.02602744            6 
 2442000   0.86722361   -7.1116025      768.821  0.026236043  0.026020568            4 
 2443000   0.86844892   -7.1211546    767.68168   0.02618644  0.026013701            7 
 2444000   0.86634896   -7.1044028    769.74883  0.026246209  0.026006779            4 
 2445000   0.87537409   -7.1268545    767.96279  0.026174601   0.02599984            4 
 2446000   0.86547428   -7.1228406     769.1228  0.026203421  0.025992907            5 
 2447000   0.87064626    -7.094595    768.79616  0.026181588  0.025985998            4 
 2448000   0.87003768   -7.1414006    767.94746  0.026142002  0.025979061            4 
 2449000   0.86527297   -7.1286559     769.9219  0.026198513  0.025972111            4 
 2450000   0.87168998   -7.0876619    769.75438  0.026182122  0.025965187            4 
 2451000   0.86011702   -7.1368539    769.34099  0.026157384  0.025958241            9 
 2452000    0.8695148   -7.1093825    769.23837  0.026143229  0.025951311           11 
 2453000   0.86807914   -7.1086809    769.50255  0.026141546  0.025944411            4 
 2454000   0.86635539    -7.124072    768.51182   0.02609725  0.025937506            3 
 2455000   0.85743277   -7.0966743     771.0676  0.026173374  0.025930558            3 
 2456000   0.85986354   -7.1293531    769.05119  0.026094299  0.025923628            7 
 2457000   0.85377141   -7.1533126    771.19775  0.026156483  0.025916682            5 
 2458000   0.85517658   -7.1487337    767.11478  0.026007417   0.02590973            4 
 2459000   0.85376926   -7.1335919    770.37236  0.026107237  0.025902789            3 
 2460000    0.8415664   -7.1217456    769.61376  0.026070927  0.025895811            6 
 2461000   0.87928987   -7.1030867    771.19205  0.026113777   0.02588887            3 
 2462000   0.85115128   -7.0920314    773.98147  0.026197586  0.025882018            3 
 2463000   0.86366104   -7.0736468    772.02083  0.026120613  0.025875164            7 
 2464000    0.8529431   -7.0980727    769.00474  0.026008007  0.025868325            4 
 2465000   0.87411227   -7.1159502    769.77364   0.02602345  0.025861456            5 
 2466000   0.85755389   -7.1321449    772.18272  0.026094306   0.02585457            4 
 2467000   0.85093404   -7.1550485    771.23537  0.026051728  0.025847699            5 
 2468000   0.84979056   -7.1408479    773.22303  0.026108287  0.025840859            6 
 2469000   0.84318156   -7.0994586    773.42935  0.026104676  0.025834073            5 
 2470000   0.84911696   -7.1376085    771.52226  0.026029766   0.02582729            5 
 2471000   0.84935081   -7.1173463    772.00714  0.026035584  0.025820559            3 
 2472000   0.85830786   -7.1229172    771.82332  0.026018855  0.025813776            3 
 2473000   0.85651773   -7.1206673    772.12819  0.026018607  0.025807037            8 
 2474000   0.86455119   -7.1330285    771.80895  0.025997337  0.025800292            4 
 2475000   0.84414586   -7.1270735    772.55902  0.026012088  0.025793498            9 
 2476000    0.8446286   -7.0870712    773.40931    0.0260302  0.025786625            5 
 2477000   0.85238236   -7.1326991    770.89128  0.025934978  0.025779746            7 
 2478000   0.84926058   -7.1468913     770.9754  0.025927341  0.025772809           11 
 2479000   0.85863144   -7.1224031    774.15574  0.026023791  0.025765934            4 
 2480000   0.86404846    -7.109577    773.81078  0.026001706  0.025759157            7 
 2481000   0.84465628   -7.1369663    774.80719  0.026024694  0.025752327            8 
 2482000    0.8724853   -7.1526941    772.49752  0.025936661   0.02574546            3 
 2483000   0.85737824   -7.1268661    774.28832  0.025986317  0.025738575            2 
 2484000   0.85695101   -7.1378028    772.84048  0.025927284  0.025731704            6 
 2485000   0.85300761   -7.1235738    774.36739  0.025968055  0.025724872            5 
 2486000   0.86828802   -7.1233408    772.99692  0.025911669  0.025718035            5 
 2487000   0.84326236   -7.1255628    773.38923  0.025914396  0.025711129            5 
 2488000   0.83819746   -7.1078792    773.34154  0.025902383  0.025704242            6 
 2489000   0.84639811   -7.1405961     774.2282  0.025921662  0.025697394            4 
 2490000   0.84967734   -7.1198466    776.32873  0.025981551  0.025690551            6 
 2491000   0.87228763   -7.1207083    775.04919  0.025928315  0.025683703            9 
 2492000   0.85847824   -7.1370494    774.70067  0.025906256  0.025676965            4 
 2493000   0.87697809    -7.115479    775.55008  0.025924257  0.025670129           10 
 2494000   0.85118639   -7.1267682    774.87713  0.025891377  0.025663303            5 
 2495000   0.82728204   -7.1059082    774.95922  0.025883742   0.02565653            6 
 2496000   0.86272922   -7.1533562    773.96417   0.02584015   0.02564969            5 
 2497000   0.85449916   -7.1432822    774.41844  0.025844962  0.025642808            3 
 2498000   0.85509731   -7.1140789    775.44592  0.025868892  0.025635909            5 
 2499000   0.84257578   -7.1296092    776.02186  0.025877747  0.025629068            5 
 2500000   0.86763855    -7.140846    775.46181  0.025848727  0.025622194            7 
 2501000   0.86318477   -7.1241174    775.83527  0.025850835  0.025615295            4 
 2502000   0.82482457   -7.1388343    772.80737  0.025739654  0.025608396            9 
 2503000   0.83864489   -7.1536329    774.49455  0.025785542  0.025601474            5 
 2504000   0.83611954   -7.1799835    774.93237  0.025789815  0.025594577           10 
 2505000   0.85362109    -7.152399    774.81965   0.02577577  0.025587654            5 
 2506000   0.84352819   -7.1667349    774.96489  0.025770314  0.025580743            3 
 2507000   0.83934295   -7.1567788    774.31524   0.02573844  0.025573822            7 
 2508000   0.87287843   -7.1685422     772.2599  0.025659885  0.025566874            6 
 2509000   0.86624567   -7.1763227    774.97149   0.02573972  0.025559902            6 
 2510000   0.86454024   -7.1063011    775.37547  0.025742877  0.025552964            3 
 2511000   0.83589637   -7.1486873    775.25076  0.025728487  0.025546047            6 
 2512000   0.83497737   -7.1068145     775.1096  0.025713562  0.025539118            5 
 2513000   0.83852806   -7.1608294     774.0497  0.025668182  0.025532129            8 
 2514000   0.83429427   -7.1274852    774.77784  0.025682108   0.02552514            3 
 2515000   0.85676329   -7.1393201    774.33052  0.025657075  0.025518203           12 
 2516000   0.83997083   -7.0873378    775.52576  0.025686465  0.025511267            3 
 2517000   0.86066629   -7.1554686    775.09904  0.025662132  0.025504263            5 
 2518000   0.83820061   -7.1548218    777.11857  0.025718777  0.025497219            2 
 2519000   0.86359558   -7.1603854    774.68305  0.025627996  0.025490152            6 
 2520000    0.8429697   -7.1309935    776.30732  0.025671538   0.02548314            6 
 2521000    0.8293066   -7.1619664     774.0982  0.025588331  0.025476107            3 
 2522000   0.84658222   -7.1295212    776.44716  0.025655801   0.02546909            5 
 2523000   0.84765878   -7.1374758    773.39679   0.02554488  0.025462072            5 
 2524000   0.84176423   -7.1287647    776.54068  0.025638559  0.025455084            2 
 2525000   0.84701147    -7.093796    777.11673  0.025647417  0.025448051            7 
 2526000   0.86002973   -7.1300158    775.89464  0.025596946  0.025441063            7 
 2527000   0.83379558   -7.1448558    775.66844  0.025579358  0.025434045            3 
 2528000   0.85692673   -7.1488607    775.23157  0.025554838  0.025427041            3 
 2529000   0.83833637   -7.1401756     775.1752  0.025542876   0.02541999            5 
 2530000   0.86119435   -7.1276665     775.9693  0.025558936   0.02541294            7 
 2531000   0.84692637   -7.1337763    777.61327  0.025602966  0.025405942            6 
 2532000   0.85133081   -7.1380212    777.27314  0.025581659  0.025398951            4 
 2533000   0.85700533   -7.1371351     775.5126   0.02551364  0.025391948            3 
 2534000   0.84242263   -7.1611992    775.41181  0.025500257  0.025384888            6 
 2535000   0.84824776    -7.160944    774.83745  0.025471317  0.025377818            5 
 2536000   0.83961072   -7.1306314    777.51351  0.025549208  0.025370794           10 
 2537000   0.85329463    -7.157262    773.68523  0.025413389  0.025363753            9 
 2538000   0.83085361   -7.1879115    775.57608  0.025465461  0.025356687            3 
 2539000   0.85258271    -7.157951    776.03414  0.025470466  0.025349622            2 
 2540000   0.85516736   -7.1590067    776.12321   0.02546336  0.025342567            4 
 2541000   0.85125248   -7.1464733    776.58919  0.025468621  0.025335512            5 
 2542000   0.85015054   -7.1544575    775.68844  0.025429073  0.025328467            2 
 2543000   0.84545525   -7.1404305    776.68437   0.02545171  0.025321397            3 
 2544000   0.84169161   -7.1487821    778.89646  0.025514166  0.025314374            6 
 2545000    0.8314737   -7.1559895    777.47204    0.0254575  0.025307369           12 
 2546000   0.84407972   -7.1286935    777.96179  0.025463531   0.02530037            8 
 2547000   0.85299188    -7.153688    778.74558  0.025479177   0.02529337            2 
 2548000   0.83952273   -7.1537501    777.16118  0.025417359  0.025286392            8 
 2549000   0.84401968    -7.132996    776.70468  0.025392464   0.02527938            4 
 2550000    0.8530314   -7.1563642    779.34853  0.025468906  0.025272397            5 
 2551000   0.83720446   -7.1557612    777.84833  0.025409915  0.025265423            5 
 2552000   0.84476123   -7.1707105    777.95858  0.025403559  0.025258435            2 
 2553000   0.83475648   -7.1296668     778.2229  0.025402236  0.025251469            5 
 2554000   0.84087416   -7.1632652     776.9484  0.025350705  0.025244453            6 
 2555000    0.8413205   -7.1706033    778.68146  0.025397308  0.025237367            4 
 2556000   0.82205976   -7.1527885      778.393  0.025377967  0.025230346            3 
 2557000   0.83485318   -7.1334326    778.73584  0.025379215  0.025223315            3 
 2558000    0.8650561   -7.1697326    776.97428  0.025311906  0.025216313            4 
 2559000   0.84679756   -7.1567674    777.15782  0.025307992  0.025209258            6 
 2560000   0.84380337   -7.1623454    779.20746  0.025364826  0.025202203            6 
 2561000   0.84940084   -7.1584041    777.60722  0.025302851  0.025195166            5 
 2562000    0.8425795    -7.169706    778.46926  0.025321014   0.02518814            4 
 2563000    0.8416713   -7.1528605    780.01283  0.025361322  0.025181127            3 
 2564000   0.82251149   -7.1651797    778.40773  0.025299263  0.025174079            4 
 2565000   0.85010009   -7.1426053    778.77827  0.025301438  0.025167037            3 
 2566000   0.82270377     -7.15753    778.34798  0.025277604  0.025159979            5 
 2567000    0.8518596   -7.1385782    778.57247  0.025275044  0.025152893            3 
 2568000   0.83263032   -7.1424314    778.09356  0.025249661  0.025145868            5 
 2569000   0.83858041    -7.159058    781.15488  0.025339136  0.025138813            5 
 2570000   0.85613977   -7.1343459    779.15358  0.025264383  0.025131781            9 
 2571000   0.82940684   -7.1531214    780.08666    0.0252848  0.025124717            4 
 2572000   0.83287444   -7.1854094    779.02879  0.025240694  0.025117705            6 
 2573000   0.83424143   -7.1523831    778.48631  0.025213315  0.025110641            7 
 2574000   0.83462738   -7.1617303    779.95138  0.025250951  0.025103562            4 
 2575000   0.84367777   -7.1330416    780.94572  0.025273324  0.025096507            9 
 2576000   0.83250661   -7.1505381    779.69921  0.025223189   0.02508941            3 
 2577000   0.83461817   -7.1579127    778.41339  0.025171821  0.025082311           19 
 2578000   0.84256676   -7.1671425    778.68468  0.025170826   0.02507519            5 
 2579000   0.84075383   -7.1735718    780.89525  0.025232495  0.025068103            5 
 2580000   0.81984188   -7.1737254    778.37513  0.025141315  0.025060985            7 
 2581000   0.82419335   -7.1479561    779.92961  0.025181764  0.025053931            9 
 2582000   0.85473291   -7.1773219    782.18794  0.025244899  0.025046863            6 
 2583000   0.83556498   -7.1551662    778.36367  0.025111746  0.025039752            7 
 2584000   0.84177637   -7.1711539     780.4618  0.025169692  0.025032702            6 
 2585000   0.84466621   -7.1859002    778.78537  0.025105911  0.025025586            7 
 2586000   0.84719695   -7.1723068    780.35576  0.025146809  0.025018448            3 
 2587000   0.85205901   -7.1761689    781.32477  0.025168302  0.025011342            4 
 2588000   0.84304132   -7.1484321    779.87283  0.025111825  0.025004257           10 
 2589000   0.84644961    -7.158813    781.02425  0.025139187  0.024997152            3 
 2590000    0.8371539   -7.1563127    781.91077  0.025158004  0.024990071            5 
 2591000   0.82173166   -7.1615318    782.52516  0.025168055  0.024982988            5 
 2592000   0.84116179   -7.1861924    778.51894  0.025029544  0.024975887            7 
 2593000    0.8362947   -7.1460949    781.75909  0.025124023  0.024968802            7 
 2594000   0.82773903   -7.1882469     779.8667  0.025053543  0.024961743            4 
 2595000   0.84411399     -7.18071     779.9198  0.025045594  0.024954613            3 
 2596000   0.83900595   -7.1498156     782.8592  0.025130303  0.024947554            5 
 2597000   0.86295696   -7.1627868    781.91213  0.025090237  0.024940526            4 
 2598000   0.82884395    -7.178822    781.62533   0.02507138  0.024933489            6 
 2599000   0.85181678   -7.1735828    780.33598  0.025020392  0.024926474            4 
 2600000   0.82249347   -7.1396044    782.48963  0.025079796   0.02491944            4 
 2601000    0.8360436   -7.1086025    784.14403  0.025123159  0.024912451            2 
 2602000    0.8305121   -7.1596171    782.12145  0.025048727  0.024905458            4 
 2603000    0.8398305   -7.1425071    783.59376  0.025086239  0.024898489            3 
 2604000   0.83690658   -7.2021551    782.60095  0.025044833  0.024891507            5 
 2605000   0.84287633   -7.1894296     783.0174  0.025048541  0.024884522            6 
 2606000   0.83943325   -7.1802334    782.64745  0.025027099  0.024877547            7 
 2607000   0.83986273   -7.1310892    783.48747  0.025044351  0.024870606            5 
 2608000   0.83353428   -7.1866628     783.1954  0.025025415  0.024863641            3 
 2609000   0.82365253   -7.1878915     781.0014  0.024945745  0.024856617            9 
 2610000   0.80672083   -7.1503838    782.67573  0.024989647  0.024849612            9 
 2611000   0.82915219   -7.1692231    782.52845  0.024975375   0.02484261            6 
 2612000    0.8425718   -7.2055788    783.47713   0.02499608  0.024835621            9 
 2613000   0.83719892   -7.2141181    782.67149  0.024960821  0.024828599           12 
 2614000   0.83367133   -7.1823034    783.87198  0.024989543  0.024821594            9 
 2615000   0.83348746   -7.1945226    783.03439  0.024953295  0.024814606            7 
 2616000   0.84447377   -7.1876627    783.61666  0.024962304  0.024807574           14 
 2617000   0.83157538   -7.1427234    783.57245  0.024951358  0.024800609           10 
 2618000   0.85132064   -7.1654406    783.67772  0.024945178  0.024793621            5 
 2619000   0.84337662   -7.1464869    785.58514  0.024996345  0.024786641            3 
 2620000   0.82881976    -7.191069     784.3976  0.024949033  0.024779676            6 
 2621000   0.83448524   -7.1725692    785.64279  0.024979104  0.024772689            4 
 2622000   0.82078795   -7.1860172     781.9545  0.024852355  0.024765715            4 
 2623000   0.83090465   -7.1291042    784.65342  0.024928626  0.024758762            7 
 2624000   0.82359232   -7.1876672    784.75244   0.02492227  0.024751793            3 
 2625000   0.83145139   -7.1745628    783.06827   0.02485931  0.024744845            3 
 2626000   0.83282366   -7.1530113    784.67234  0.024900747  0.024737914            4 
 2627000   0.82548487   -7.2085951    785.11257  0.024905233  0.024730977            6 
 2628000   0.83615019   -7.1760604     786.5923  0.024942678  0.024724064            4 
 2629000   0.82582636   -7.1863427    784.92161  0.024880234  0.024717175            6 
 2630000   0.83780418   -7.1927158    784.75197  0.024865398  0.024710224           11 
 2631000   0.84375217   -7.1704214     786.1213  0.024899319  0.024703251            5 
 2632000   0.82744159   -7.1664719    786.72476  0.024908965  0.024696357            5 
 2633000   0.84022029   -7.2031634    785.49635  0.024860626  0.024689445            8 
 2634000   0.84389654   -7.1835799    785.79564  0.024860657  0.024682587            6 
 2635000   0.82867699   -7.1931101    785.96885    0.0248567  0.024675694            6 
 2636000   0.81654873   -7.1727707    785.69019  0.024838461  0.024668784            4 
 2637000   0.83414855   -7.1825034    788.23689  0.024909521  0.024661853            8 
 2638000   0.80888573   -7.1952599    788.65711  0.024913353  0.024654917            7 
 2639000    0.8157272   -7.1517461    786.28988  0.024829161  0.024648013            5 
 2640000   0.82549312   -7.1722749    786.57253  0.024828678  0.024641169            4 
 2641000   0.83373365   -7.1702597    786.72616  0.024824125  0.024634321            5 
 2642000   0.82339113   -7.1769214    788.74687  0.024878466  0.024627468            7 
 2643000   0.84729604   -7.1712254      788.548  0.024862782  0.024620606            4 
 2644000   0.83930075   -7.1696035    786.11222  0.024776608  0.024613716            5 
 2645000     0.834447   -7.1734449    786.91744   0.02479261  0.024606851            5 
 2646000   0.83075929   -7.1994877    788.32996  0.024827726  0.024599964            6 
 2647000   0.82979525   -7.1684774    788.70244  0.024830073  0.024593102            4 
 2648000   0.83299095   -7.1701558    789.49349  0.024845591  0.024586265            5 
 2649000   0.82607566   -7.1898777    787.39268  0.024770123  0.024579451            3 
 2650000   0.81983966   -7.1901699    788.36592  0.024791381  0.024572627            9 
 2651000   0.83182126   -7.1693038    787.98125  0.024769938  0.024565781            4 
 2652000   0.82939086   -7.1981659    787.92089  0.024758701  0.024558893            6 
 2653000   0.84628854   -7.1902216    787.62768  0.024740158  0.024552033            3 
 2654000   0.82903564   -7.1748508     787.5768  0.024729239   0.02454516           17 
 2655000    0.8299028   -7.1821291    788.37554  0.024744995  0.024538296           11 
 2656000   0.81725328   -7.1679452    789.62767  0.024774965   0.02453145            2 
 2657000   0.84030001   -7.1760125    789.32523  0.024756155  0.024524582            8 
 2658000   0.81676134   -7.2214846    787.34074  0.024684623  0.024517692            6 
 2659000   0.83927484   -7.2042966    787.98547  0.024695546  0.024510807            4 
 2660000   0.84008255   -7.1750311    787.24861  0.024663177  0.024503913            8 
 2661000   0.82923491   -7.1850358    789.48101   0.02472382  0.024497038            4 
 2662000   0.82346203   -7.1953046    788.45457  0.024682399  0.024490163            5 
 2663000   0.81560293   -7.2076588    788.73677  0.024681962  0.024483219            4 
 2664000   0.81952366   -7.2162716    786.40987  0.024599908   0.02447623            7 
 2665000   0.83880441   -7.1803429    787.52175  0.024625445  0.024469257            7 
 2666000   0.82711428    -7.173265    789.13271  0.024666564  0.024462305            6 
 2667000   0.83855555   -7.1983752    789.09682  0.024656193  0.024455371            8 
 2668000   0.83469839   -7.1692904    788.79859  0.024637637  0.024448449            6 
 2669000   0.82025608   -7.1914065    788.63917  0.024623429  0.024441576            5 
 2670000   0.81534569   -7.1790851    790.29701  0.024665949  0.024434669            6 
 2671000   0.82478092   -7.1832616    788.52522  0.024601436  0.024427767            4 
 2672000   0.83379322    -7.164324     789.3575  0.024618185  0.024420862            5 
 2673000   0.82125394    -7.168178    790.82096    0.0246546   0.02441397            6 
 2674000   0.80390579   -7.1871144    789.21765  0.024595414  0.024407113            5 
 2675000   0.82245923   -7.1623926    788.35159   0.02455924  0.024400255            9 
 2676000   0.82568847    -7.175239    790.49392  0.024616776  0.024393349           14 
 2677000   0.81239704   -7.2092278    790.62686  0.024611719  0.024386497            6 
 2678000   0.82193368   -7.1911864    790.95869  0.024612854   0.02437962            4 
 2679000   0.86089563     -7.21248    788.84682  0.024537975  0.024372735            4 
 2680000   0.82507999   -7.1999507    791.12692  0.024599718  0.024365859            6 
 2681000   0.81466797   -7.1714203    789.93671  0.024553547  0.024358985            7 
 2682000   0.80091625    -7.231975    790.21335  0.024552987  0.024352158            6 
 2683000   0.80731643   -7.1991283    789.45707  0.024520346  0.024345305           11 
 2684000   0.80745226     -7.17536    791.27349  0.024567607  0.024338486            6 
 2685000   0.81503518    -7.217797    792.60088  0.024599655  0.024331646           10 
 2686000   0.82786355   -7.1673211    793.13931  0.024607201  0.024324841            4 
 2687000   0.81002114   -7.2125069    791.56195  0.024549124  0.024318041            5 
 2688000   0.81383366   -7.2136201    791.36304  0.024533824  0.024311197            5 
 2689000   0.82798448    -7.217146     790.5787  0.024500394  0.024304363            7 
 2690000   0.82792057   -7.1823133    793.60689  0.024585096  0.024297547            7 
 2691000   0.82769845   -7.2067761    791.87191  0.024522232   0.02429073            9 
 2692000   0.81485317   -7.2311937    792.39147  0.024529206  0.024283914            8 
 2693000   0.82292422    -7.215415    790.81455    0.0244713  0.024277074            4 
 2694000   0.81602321   -7.2145063    792.47265  0.024513507   0.02427023            8 
 2695000    0.8123577   -7.2242448    789.74318  0.024420012  0.024263396            8 
 2696000   0.82623489   -7.1985388    792.01436  0.024481156  0.024256569            4 
 2697000   0.82195889   -7.2084227    793.67509  0.024523393   0.02424976            4 
 2698000   0.82611652   -7.1755204    795.01327  0.024555636  0.024242937            4 
 2699000   0.81276985   -7.1920968    794.72818  0.024537735  0.024236143            4 
 2700000   0.81041562   -7.2134303    793.55793  0.024492529  0.024229325            8 
 2701000   0.79851138   -7.1990607    792.89792  0.024463098  0.024222521            5 
 2702000    0.8243845   -7.1947876    791.68471  0.024416627  0.024215736            3 
 2703000   0.82534688    -7.198491    793.25802  0.024456099  0.024208949            7 
 2704000   0.82911264   -7.1863623    793.89726  0.024466755  0.024202194            6 
 2705000   0.82588932   -7.1830544    793.78701  0.024454313  0.024195467            2 
 2706000   0.82354995   -7.1524144     793.8219  0.024446351  0.024188692            5 
 2707000   0.78640768   -7.1965571    793.21332  0.024418585  0.024181882            4 
 2708000   0.80694251   -7.1736374    792.69421  0.024393593  0.024175109            7 
 2709000   0.83717986   -7.2147059     792.5099  0.024378919  0.024168329            8 
 2710000   0.81103444   -7.1653936    793.66733  0.024405514  0.024161578            3 
 2711000    0.8076582   -7.2092071    794.94818  0.024435884  0.024154811            6 
 2712000   0.82473694   -7.1780809    793.68382  0.024388023  0.024148032            4 
 2713000   0.82311247   -7.1785608     793.7637  0.024381487  0.024141246            4 
 2714000   0.83838183   -7.2142937    793.95911  0.024378504  0.024134432            5 
 2715000   0.81797032   -7.2123479    792.62194  0.024328482  0.024127632            7 
 2716000   0.82287103   -7.2112034    794.77975  0.024385731  0.024120835            7 
 2717000   0.82231987   -7.1995811    795.45426  0.024397444  0.024114046            4 
 2718000   0.82160975   -7.2090046    794.77315  0.024367585  0.024107257            3 
 2719000   0.81165263   -7.2205957    794.68315  0.024355864  0.024100503            6 
 2720000   0.82528672   -7.2426407    793.86664  0.024321895   0.02409371            5 
 2721000   0.79564941   -7.2196487    794.56452  0.024334329  0.024086935            7 
 2722000   0.80028609   -7.1983731    794.78511  0.024332143  0.024080177            7 
 2723000   0.82309663   -7.2047943     792.9146  0.024265963  0.024073424            6 
 2724000   0.79947383   -7.1854986      793.838  0.024285303   0.02406667            4 
 2725000   0.81637146   -7.2252562    793.76398  0.024274128  0.024059901           10 
 2726000   0.82128883   -7.1768911    795.54857  0.024319778  0.024053132            3 
 2727000   0.80412176   -7.2116413    795.45266  0.024307929  0.024046395           14 
 2728000   0.81139794   -7.2004872    796.98716  0.024345893  0.024039666           11 
 2729000   0.79551588   -7.2066244    795.54243  0.024292855  0.024032924            7 
 2730000   0.81589564   -7.2127102    797.25587   0.02433626  0.024026218            3 
 2731000   0.81963426   -7.1679758    795.38974  0.024270406  0.024019488            6 
 2732000   0.80582025   -7.2243241    794.86058  0.024245381  0.024012757            4 
 2733000   0.80907159   -7.2242103    796.43835  0.024284619  0.024006034            6 
 2734000   0.80538079   -7.2141742    795.73023  0.024254152  0.023999309            2 
 2735000   0.80639112   -7.2160033    796.70598  0.024275015  0.023992615            4 
 2736000   0.81951849   -7.2046637    796.81048  0.024269325  0.023985962            4 
 2737000   0.82081727   -7.2000621    798.25403   0.02430441  0.023979285            8 
 2738000   0.80138472   -7.2251782    797.68366  0.024278173  0.023972627            3 
 2739000   0.80367906   -7.2188251    795.38886  0.024199491   0.02396594            4 
 2740000   0.79401891   -7.2052809    798.55565  0.024286972  0.023959239            5 
 2741000   0.82205309   -7.2288485    796.02855  0.024201281  0.023952552            4 
 2742000   0.80999896    -7.220962    797.32063  0.024231723  0.023945894            3 
 2743000   0.80834362   -7.2225234    797.12111  0.024216828  0.023939262            4 
 2744000    0.8108226   -7.1790433     799.7043  0.024286452  0.023932615            5 
 2745000    0.7956684   -7.2319559    798.80936  0.024250436  0.023925989           10 
 2746000   0.82102392   -7.1872727    798.39359  0.024228987  0.023919339            5 
 2747000   0.80210829   -7.2424629    797.83125  0.024203108  0.023912639            5 
 2748000   0.81501088   -7.2105725    796.82476  0.024163779  0.023905899            6 
 2749000    0.8206908   -7.2255265    797.27978  0.024168782  0.023899161            7 
 2750000   0.83141783   -7.2355023    797.30456  0.024160744  0.023892447            9 
 2751000   0.80451751   -7.2042202    799.10874  0.024206614  0.023885757            4 
 2752000   0.81100472   -7.2055315    799.04708  0.024195951  0.023879085            7 
 2753000    0.8050292   -7.2183728    796.94883  0.024123648  0.023872409           10 
 2754000    0.8186792   -7.1967871    796.53907  0.024102489  0.023865719            7 
 2755000   0.83565789   -7.2339235    798.13015  0.024141868  0.023859048            8 
 2756000   0.81363407   -7.2362396    798.57183  0.024146463  0.023852357            9 
 2757000   0.80760047   -7.2007096    799.38366  0.024162243  0.023845656            4 
 2758000   0.82017348   -7.2279264     799.2051  0.024148087  0.023838988            5 
 2759000   0.79987018   -7.2137565    801.01597  0.024194031  0.023832286            8 
 2760000   0.78817019   -7.2251931    799.00303  0.024124488  0.023825628            7 
 2761000   0.82453818   -7.2252729    798.54202  0.024101836  0.023818973            4 
 2762000   0.78076222   -7.2299762    799.70277  0.024128131  0.023812275           20 
 2763000   0.80931885   -7.2355277    799.82369  0.024123045  0.023805599           12 
 2764000   0.80810196   -7.2073875     800.1972  0.024125579  0.023798982            6 
 2765000   0.80097558   -7.2199536    798.75163  0.024073286  0.023792335            3 
 2766000   0.82172084   -7.1946374    798.85699  0.024067757  0.023785704            8 
 2767000   0.81617399   -7.2361097    800.05792  0.024095227  0.023779094            5 
 2768000   0.80755887    -7.239626    799.24135  0.024061938  0.023772509            5 
 2769000   0.79771286   -7.2474021    798.46989  0.024030031  0.023765854            6 
 2770000   0.82522101   -7.2231488    798.93611  0.024035382  0.023759201            8 
 2771000   0.80605565   -7.2197817    799.82251  0.024053366  0.023752548            3 
 2772000   0.80945702   -7.2243197    799.46744  0.024034014  0.023745903            3 
 2773000   0.80929208   -7.2272336    801.83275  0.024096428  0.023739299            4 
 2774000   0.81618889    -7.241487    799.57262  0.024019845   0.02373269            4 
 2775000   0.79211868   -7.2684298    798.81897  0.023988558  0.023726052            5 
 2776000   0.79287059   -7.2132552     798.8377  0.023980478  0.023719382            8 
 2777000   0.79166122   -7.2085135    800.48058  0.024021143  0.023712735            6 
 2778000   0.80498322   -7.2123416    800.52546  0.024013843  0.023706099            7 
 2779000   0.80844385    -7.237318    799.64173  0.023978701  0.023699509            9 
 2780000   0.80014863   -7.2257039    800.88275  0.024007277  0.023692901           22 
 2781000   0.80218107   -7.1982652    800.97283  0.024001343  0.023686319           11 
 2782000    0.7970975   -7.2153152    800.99442  0.023993363  0.023679734           10 
 2783000   0.80066381   -7.2542301    802.58901  0.024032489  0.023673124            3 
 2784000   0.80767224   -7.2571142    800.89455  0.023973137  0.023666538            4 
 2785000   0.80538946   -7.2509002    802.12203  0.024001258  0.023659934            5 
 2786000   0.80201369    -7.225277    801.41357  0.023971452  0.023653378            5 
 2787000   0.79753026   -7.2154341    801.41697  0.023962952  0.023646795            5 
 2788000   0.81123485   -7.2039087    800.35714  0.023922679  0.023640208            8 
 2789000   0.82625251   -7.2416132    803.18865  0.023998705  0.023633636            3 
 2790000   0.81442942   -7.1922681    804.18251  0.024019788  0.023627088           13 
 2791000   0.82403756    -7.214589    801.74401  0.023938374  0.023620575            4 
 2792000   0.78671779   -7.2515304    801.61352  0.023925905  0.023613967            6 
 2793000   0.82490653   -7.2376296    803.15303  0.023963272    0.0236074            8 
 2794000   0.80249257   -7.2187892    802.07454  0.023922529  0.023600815            3 
 2795000   0.81244714   -7.2511509    802.87631  0.023937874  0.023594275            5 
 2796000   0.80336289   -7.2581586    803.20072  0.023938982  0.023587738           11 
 2797000   0.80656564   -7.2525957     803.6127  0.023942697  0.023581158            4 
 2798000   0.80486544   -7.2635028    804.69423  0.023966352  0.023574596           13 
 2799000    0.8034828   -7.2745022    803.71034  0.023928496  0.023568039            8 
 2800000   0.79459589   -7.2594078    801.93034  0.023866974  0.023561504            4 
 2801000   0.81134861   -7.2623031    803.76118  0.023912923  0.023554986            7 
 2802000   0.81167301   -7.2134274    804.03938  0.023912663  0.023548489            8 
 2803000   0.77282631   -7.2193007    805.23996  0.023939825  0.023542029            7 
 2804000   0.81043175   -7.2303247    806.58055  0.023971129  0.023535597            9 
 2805000   0.80489066    -7.210218    805.71665  0.023936918  0.023529168           11 
 2806000   0.79717261   -7.2276217    805.03445  0.023908127  0.023522712            5 
 2807000   0.79231631   -7.2216536     805.4015  0.023910507  0.023516244            4 
 2808000    0.7910062   -7.2146428    806.05431  0.023921365  0.023509783            7 
 2809000   0.80100955   -7.2039596    804.56968  0.023868805  0.023503325            8 
 2810000   0.80741998   -7.2255709    805.51565  0.023888364  0.023496823            5 
 2811000   0.78963052   -7.2363226    806.24277  0.023901422  0.023490357            8 
 2812000     0.810497   -7.2404706     805.2783   0.02386434  0.023483896            2 
 2813000   0.80345944   -7.2420102    804.89654  0.023844547  0.023477412            5 
 2814000   0.80332855   -7.2327834    806.48861  0.023883221  0.023470948            8 
 2815000   0.78824271   -7.2564241    803.45585  0.023784957  0.023464452            6 
 2816000   0.78748124   -7.2079462    805.82937   0.02384675  0.023457919           11 
 2817000   0.80939578   -7.2373278    804.08883  0.023786795  0.023451396            6 
 2818000   0.80805275   -7.2262841    804.62927  0.023794336  0.023444852            5 
 2819000   0.80041834   -7.2443318    805.95751   0.02382516  0.023438336            6 
 2820000    0.8019472   -7.2224278    805.67057  0.023808232  0.023431851            9 
 2821000   0.78096129   -7.2291317    806.27576   0.02381767  0.023425334            2 
 2822000    0.7994774   -7.2278841    807.58044  0.023847757  0.023418827           11 
 2823000   0.80773744   -7.2415327    802.98135  0.023703547  0.023412292            5 
 2824000   0.78989473    -7.238061    803.98197   0.02372468  0.023405775            6 
 2825000   0.80940087   -7.2413495    804.88163  0.023742821  0.023399224            6 
 2826000   0.79425635    -7.254567    806.20742  0.023773514  0.023392724            4 
 2827000   0.79676924   -7.2369128    803.63105   0.02368916  0.023386201            3 
 2828000   0.78999403    -7.246309    805.75875   0.02374348   0.02337966            4 
 2829000   0.80060615   -7.2516364    805.82236  0.023736961  0.023373098            7 
 2830000   0.79483774    -7.263225    804.28659  0.023683351  0.023366541            5 
 2831000   0.79447958   -7.2358773    806.22445  0.023732028  0.023360004            6 
 2832000   0.80006053   -7.2019924    807.49228  0.023760955  0.023353576            4 
 2833000   0.80707337   -7.2397283    804.23161  0.023656654  0.023347073            5 
 2834000    0.8031836   -7.2623201    804.58875  0.023658808  0.023340583            5 
 2835000   0.79494825   -7.2473624    804.72736  0.023654537  0.023334078           12 
 2836000   0.78545303   -7.2424017    805.87834  0.023680017  0.023327596           13 
 2837000   0.79812552   -7.2631721    806.25348   0.02368269  0.023321099            5 
 2838000   0.79565036    -7.241224    808.13253   0.02372952  0.023314599            4 
 2839000   0.81151994   -7.2730205    804.43001  0.023612481  0.023308117            7 
 2840000   0.81136703   -7.2441629    806.31561  0.023659496  0.023301629            8 
 2841000   0.79470675   -7.2416128    805.75775  0.023634804  0.023295124            8 
 2842000   0.79702637   -7.2536951    806.86287  0.023658892  0.023288621           11 
 2843000   0.78071182   -7.2838538    806.17391  0.023630376  0.023282098            8 
 2844000    0.7889527   -7.2470734    806.45828    0.0236304  0.023275567            7 
 2845000    0.8096233   -7.2548211    806.19115  0.023614269   0.02326906            5 
 2846000   0.79743153   -7.2572782     807.0531  0.023631211  0.023262521           14 
 2847000   0.78691087   -7.2522775    808.77284  0.023673248  0.023255984            9 
 2848000   0.81280092   -7.2586483    806.61882  0.023601908  0.023249462           13 
 2849000   0.79051374   -7.2243577    808.16087  0.023638729  0.023242936            7 
 2850000   0.80018613   -7.2372579    806.66232  0.023586617  0.023236449           26 
 2851000   0.77570401   -7.2475633    806.28606  0.023567346  0.023229979            6 
 2852000   0.79136807   -7.2425967    807.06181   0.02358175  0.023223464            5 
 2853000   0.78842521   -7.2508866    807.63549  0.023590241  0.023216967            8 
 2854000   0.78378687   -7.2415101    806.17258   0.02353926  0.023210465            7 
 2855000   0.79895186   -7.2575225    807.81382  0.023578921  0.023203959           19 
 2856000   0.77530983   -7.2265698     807.3951  0.023558447  0.023197419           11 
 2857000   0.78570091   -7.2308424    808.02589    0.0235686  0.023190914            6 
 2858000   0.80224589   -7.2659782     807.9808  0.023559039   0.02318435            5 
 2859000   0.77461378   -7.2543692    807.32098  0.023531566  0.023177805            4 
 2860000   0.78983301    -7.259629    807.75306  0.023535928  0.023171236            7 
 2861000   0.79637333   -7.2480265    805.21882  0.023453886  0.023164678           25 
 2862000    0.8013581   -7.2494258    806.10804  0.023471583  0.023158095            9 
 2863000   0.78876191   -7.2601269    807.69316  0.023509523  0.023151512            9 
 2864000   0.77302733    -7.267056    808.39699  0.023521793  0.023144939            4 
 2865000   0.80204321   -7.2790326    805.16646  0.023419618  0.023138332           11 
 2866000   0.79517823   -7.2744346    805.53162  0.023422064  0.023131701            5 
 2867000   0.80579275   -7.2791821    804.69108  0.023389463  0.023125064            5 
 2868000   0.78116479   -7.2639294    807.00742  0.023448612  0.023118446            8 
 2869000   0.80199626   -7.2654914    805.22762  0.023388742  0.023111847            7 
 2870000   0.79476028   -7.2605902    809.11718   0.02349353  0.023105252            7 
 2871000   0.78876694   -7.2337897    806.20503  0.023400819  0.023098693            5 
 2872000   0.79852515   -7.2531535     807.0256  0.023416481  0.023092138           10 
 2873000   0.78889711   -7.2503727    805.60972  0.023367262  0.023085524            8 
 2874000   0.79165004   -7.2578359    806.68804  0.023390398  0.023078913           10 
 2875000   0.80141663   -7.2538386    808.33364   0.02342996  0.023072339            5 
 2876000   0.77271048   -7.2527487    807.86493  0.023408233  0.023065779            9 
 2877000   0.77952364   -7.2547057    808.29677  0.023412605  0.023059205            7 
 2878000   0.80163147   -7.2782798    807.47905  0.023380793  0.023052623           10 
 2879000   0.79339992   -7.2410262    808.42269  0.023399985  0.023046038            5 
 2880000   0.77952616   -7.2421498     808.8087  0.023403029  0.023039476            8 
 2881000   0.79482837   -7.2512225    808.42061  0.023383681  0.023032904            5 
 2882000   0.77614339   -7.2720513    808.06621   0.02336532  0.023026326            4 
 2883000   0.78102857   -7.2720992     807.5381   0.02334195  0.023019733            4 
 2884000    0.7885682   -7.3085745    805.62644  0.023278619  0.023013139           10 
 2885000   0.77776521   -7.2582927    807.83707  0.023334404  0.023006555            5 
 2886000   0.78401749   -7.2447901    809.79408  0.023382827  0.023000014            2 
 2887000   0.78754394   -7.2470632    809.31236  0.023360823  0.022993487            6 
 2888000   0.78609204   -7.2548552    809.03667  0.023344779  0.022986921            5 
 2889000   0.78526395   -7.2522705    807.90528  0.023304064  0.022980368            5 
 2890000   0.78722836   -7.2671067    807.71403  0.023290485  0.022973833            6 
 2891000   0.80136776   -7.2803048    805.16578  0.023208976  0.022967238            6 
 2892000   0.81093986   -7.2650275    809.14101  0.023315497  0.022960666           11 
 2893000   0.79438092   -7.2581782    807.50024  0.023260175   0.02295413           11 
 2894000   0.80722287   -7.2814388    809.24815  0.023302469  0.022947577           10 
 2895000   0.79762785   -7.2833466    808.51621  0.023273351   0.02294101            4 
 2896000   0.80998354   -7.2881665    808.72835  0.023271419  0.022934446            8 
 2897000    0.7884694   -7.2832061    808.31279  0.023251432  0.022927868            8 
 2898000    0.8079218   -7.2651133    808.13997   0.02323844  0.022921331            7 
 2899000   0.77385327   -7.2484566    811.69383  0.023332581  0.022914812            5 
 2900000   0.78922888   -7.2566232    809.62996  0.023265229  0.022908275            9 
 2901000    0.8099068   -7.2789375    809.75505  0.023260802  0.022901743            6 
 2902000   0.79613582   -7.2767643    810.31769  0.023268943  0.022895217            4 
 2903000   0.79745895   -7.2666871    809.67986  0.023242618  0.022888689            7 
 2904000   0.78698215   -7.2544013     808.3435  0.023196267  0.022882156            8 
 2905000   0.78567194   -7.2850117    811.32644  0.023273851  0.022875606            5 
 2906000   0.78458708    -7.288635    809.70777  0.023219424  0.022869068           10 
 2907000    0.7765043   -7.2759207     809.5505  0.023206929  0.022862543           10 
 2908000   0.78336052   -7.2668974    809.90947  0.023209235  0.022856031           21 
 2909000   0.78936393   -7.2776778    807.57767  0.023134458  0.022849462           14 
 2910000   0.78509655   -7.2542288    810.09639  0.023198637  0.022842876            6 
 2911000   0.78281578   -7.2646106    809.96658  0.023186951  0.022836342            9 
 2912000   0.77459023   -7.2582941     808.2216  0.023129052  0.022829796           15 
 2913000   0.79885721   -7.2652547    809.35686  0.023153589  0.022823221            6 
 2914000   0.77296565    -7.283519    809.56382  0.023151562  0.022816634            8 
 2915000   0.77211137    -7.281924    809.35917  0.023137769  0.022810053            8 
 2916000   0.77558259   -7.3036552    809.82175  0.023143054  0.022803464            6 
 2917000   0.79085382   -7.2776927    809.54298  0.023127156  0.022796904            5 
 2918000    0.7864947   -7.3017609    808.83086  0.023098894  0.022790362            8 
 2919000   0.78259908   -7.2629121    809.16639  0.023100559  0.022783817            7 
 2920000   0.78055751   -7.2925113    809.89152  0.023113342  0.022777255            6 
 2921000   0.78204093   -7.2862517    811.79596  0.023159762  0.022770729            4 
 2922000   0.77816381   -7.2637698    810.03113  0.023101504  0.022764216            6 
 2923000   0.79881953   -7.2566638    810.82583  0.023116257  0.022757701            9 
 2924000   0.77673361   -7.2809608    812.25903  0.023149197   0.02275121            5 
 2925000   0.78685079   -7.2797012    812.59368  0.023150817  0.022744729            7 
 2926000   0.77878228   -7.2371937     811.9962  0.023125889  0.022738244            8 
 2927000    0.7815622   -7.3010604    812.40824  0.023129719  0.022731737            5 
 2928000   0.78528078    -7.293058     810.1465  0.023057448  0.022725214            7 
 2929000    0.7731721   -7.2739154    811.89904  0.023099438  0.022718712            6 
 2930000   0.77561918   -7.2898697     810.5569  0.023053382  0.022712198            4 
 2931000   0.77431474   -7.2408002    811.08048  0.023060403   0.02270572            4 
 2932000   0.77525059   -7.2683558    810.56355  0.023037845  0.022699245           16 
 2933000   0.77176721   -7.2848721    813.28538  0.023107324   0.02269276            7 
 2934000    0.7830236   -7.2900029    811.93509  0.023061097  0.022686282            5 
 2935000   0.77008735   -7.2719319    810.14715  0.023002474   0.02267983            7 
 2936000   0.79582651    -7.233508    812.48867    0.0230611  0.022673349            4 
 2937000     0.794442   -7.2854542     812.4833  0.023053096  0.022666904            8 
 2938000   0.77921273   -7.2758149    811.10119  0.023006047  0.022660395           17 
 2939000   0.78728157    -7.277986    811.70248  0.023015268  0.022653894            6 
 2940000   0.77750825   -7.2860944    811.50867  0.023001946  0.022647376            9 
 2941000   0.78207007   -7.2776819    811.37351  0.022990296  0.022640873           11 
 2942000   0.78387364   -7.2897279    811.02605  0.022972639  0.022634368            3 
 2943000   0.77428391   -7.2872897    812.88184  0.023017381   0.02262786            5 
 2944000   0.79421792   -7.2830709    813.17719  0.023017923  0.022621353            4 
 2945000   0.76452391   -7.2869822    811.90641  0.022974149  0.022614853            4 
 2946000    0.7848166   -7.3019047    811.25412  0.022947899  0.022608346            8 
 2947000   0.78068541   -7.2966134    812.00189  0.022961257  0.022601849            6 
 2948000   0.79041158   -7.2709903     812.4619  0.022966472  0.022595369            5 
 2949000   0.77946698   -7.2786376    813.18201  0.022979033  0.022588884            5 
 2950000   0.80668302   -7.2956243    812.26228  0.022945262  0.022582398            7 
 2951000   0.76857568   -7.2745422    812.70808  0.022950076  0.022575928            6 
 2952000   0.77548525    -7.277945    811.36778  0.022904465  0.022569459            5 
 2953000   0.77109703   -7.2667795    811.39222  0.022897399  0.022563008           11 
 2954000   0.78020326   -7.3212222    811.29726  0.022886969  0.022556529           17 
 2955000   0.79388516   -7.2767359    811.32958  0.022880135  0.022550056            2 
 2956000    0.7770484    -7.268225    813.77271  0.022941269  0.022543606            4 
 2957000   0.76919408   -7.2684455    813.93791  0.022938167   0.02253714            3 
 2958000   0.79927968   -7.2815133     813.3998  0.022915253  0.022530694            9 
 2959000   0.77764628   -7.2968742    813.01788  0.022896752   0.02252424            8 
 2960000   0.79638266   -7.2957185    812.80639  0.022883063  0.022517837            4 
 2961000   0.78755463    -7.291416    812.88999  0.022877688  0.022511389           12 
 2962000   0.77927466   -7.2881203    814.01236  0.022901541  0.022505006            8 
 2963000   0.76251232   -7.2722048    813.32702  0.022874537  0.022498602            6 
 2964000   0.77359536   -7.2873419    813.19591  0.022863133   0.02249216            6 
 2965000   0.76978427   -7.2879586    811.45596  0.022806519  0.022485706            6 
 2966000   0.76800536   -7.2961112    812.66122  0.022832693  0.022479278            3 
 2967000   0.77068644    -7.283567    811.90202  0.022803674  0.022472844            3 
 2968000   0.77800757   -7.2781632    813.06549  0.022828658   0.02246642            4 
 2969000   0.77861911   -7.2778135    814.18432  0.022852372  0.022460025           11 
 2970000   0.77847053   -7.2718782    813.27296  0.022819106  0.022453606            8 
 2971000   0.77556878    -7.274805    811.09528  0.022750345  0.022447146            6 
 2972000   0.77627353   -7.2979345    814.28453  0.022832114  0.022440701            4 
 2973000    0.7980434   -7.2695293    814.60056  0.022833293  0.022434287            8 
 2974000   0.78917343   -7.3132732    812.48981  0.022766471  0.022427875            4 
 2975000   0.74879487   -7.3106422    813.59802   0.02278986  0.022421407            7 
 2976000   0.76242783   -7.2979276    812.39693   0.02274857  0.022414947            6 
 2977000   0.79459076   -7.3315961    814.52869  0.022800602  0.022408519           10 
 2978000   0.78051286   -7.3217722    814.20316  0.022783836  0.022402079            6 
 2979000   0.77473407   -7.3075962     813.7625  0.022763861  0.022395644            8 
 2980000   0.79003971   -7.2902058    814.77494  0.022784534  0.022389252            3 
 2981000    0.7742544   -7.3027676    815.63393  0.022800904  0.022382848           10 
 2982000   0.76158249   -7.2755783    813.71971  0.022739764  0.022376442            8 
 2983000   0.76720848     -7.31394    813.41562  0.022723646  0.022370048            7 
 2984000   0.77261358   -7.2823792    816.68675  0.022807382  0.022363638            6 
 2985000   0.78089347    -7.278908    816.11272  0.022783716   0.02235727            4 
 2986000   0.77712338   -7.2975176    815.28619  0.022753019  0.022350849            4 
 2987000   0.76970466   -7.2806077    814.45236  0.022722139  0.022344419            7 
 2988000   0.76583112   -7.2767193    816.13004  0.022761324  0.022337993            7 
 2989000   0.78524618   -7.3066743    814.37478  0.022704772   0.02233159           12 
 2990000   0.75025337   -7.3006327    814.02023  0.022687297  0.022325183            6 
 2991000   0.77747456   -7.3219058    815.09824  0.022709747  0.022318757            7 
 2992000   0.76965626   -7.3058824    814.91991   0.02269719  0.022312344            9 
 2993000    0.7650057   -7.3292074    813.83346  0.022659357  0.022305903            5 
 2994000   0.78092883   -7.2921409    815.57586  0.022700285  0.022299475           12 
 2995000   0.76781992   -7.2642744    814.48738   0.02266242  0.022293039           10 
 2996000   0.78192489    -7.291594    815.18957  0.022674387  0.022286659            7 
 2997000   0.77487104   -7.2794883    815.68836  0.022680691  0.022280282           11 
 2998000   0.77144026   -7.2886865    816.23341  0.022688276  0.022273902            8 
 2999000   0.76048791   -7.2817618    817.43845  0.022714195   0.02226749            6 
 3000000   0.76060327   -7.3344155    813.87877  0.022607744  0.022261054            7 
 3001000   0.76413959   -7.3081649    815.48169  0.022644721  0.022254627            7 
 3002000   0.76818794   -7.3104584    814.46419  0.022608933  0.022248204            4 
 3003000   0.76544372   -7.3108432    814.27357  0.022596114  0.022241807            4 
 3004000   0.79035738   -7.3250122     815.6395  0.022626484  0.022235365           12 
 3005000   0.76423413   -7.3230482    814.61672  0.022590591   0.02222894            9 
 3006000   0.75578542   -7.3134833    816.94936  0.022647742  0.022222522            8 
 3007000   0.76486261   -7.3047298    817.01231  0.022641955  0.022216112           18 
 3008000    0.7749874   -7.3098497    814.18027  0.022555969  0.022209707           10 
 3009000   0.77550611   -7.3271215    815.79648  0.022593234  0.022203318           10 
 3010000   0.76247952   -7.2915652    817.13958  0.022622912  0.022196935            5 
 3011000   0.76394454   -7.2926627    814.97896    0.0225556  0.022190606            6 
 3012000   0.75786392   -7.3146964    818.39081  0.022642508  0.022184262            6 
 3013000   0.75631229   -7.2999266    818.39036  0.022634981  0.022177911           13 
 3014000   0.77755538   -7.2867174    817.71637  0.022608836  0.022171543            6 
 3015000   0.78512762   -7.2845459    817.56328  0.022597106  0.022165229            4 
 3016000   0.77767225   -7.3170582    818.83447  0.022624737  0.022158896            6 
 3017000   0.75292045   -7.2969963    817.75652  0.022587463   0.02215254            4 
 3018000    0.7593422   -7.3260558    817.28552  0.022566974  0.022146164            2 
 3019000   0.75982812   -7.3209712    816.72531  0.022544035  0.022139812           12 
 3020000   0.77027218   -7.3252885    817.52877  0.022558741  0.022133475            8 
 3021000   0.76339525   -7.3074489    818.44387  0.022576516  0.022127133            8 
 3022000   0.77324902   -7.2934501    816.82003  0.022524267  0.022120777            7 
 3023000   0.74811271   -7.2953473    817.01053  0.022522068  0.022114425            4 
 3024000   0.79072354   -7.3095354    817.77502  0.022535687  0.022108077            5 
 3025000   0.77162639   -7.2976249    817.96412  0.022533447  0.022101779            6 
 3026000    0.7612179   -7.3114353    819.75268  0.022575256  0.022095492            3 
 3027000   0.73846344   -7.2920276    817.97647  0.022518899  0.022089204            8 
 3028000   0.77530146   -7.2926358    820.31733  0.022575884  0.022082919            7 
 3029000   0.77076921   -7.2699827    820.05046  0.022561089  0.022076655            6 
 3030000    0.7760924   -7.2868771    818.65629  0.022515299  0.022070398            5 
 3031000   0.78093703   -7.3093627    819.58226   0.02253333  0.022064113            4 
 3032000   0.77737165   -7.3336883    817.98282  0.022481938  0.022057813           10 
 3033000   0.76797068   -7.3195738    817.80696  0.022469693  0.022051495            5 
 3034000   0.77082866   -7.3027537    818.56046  0.022482983  0.022045224           12 
 3035000   0.78051131   -7.3119486    819.81695  0.022510076  0.022038943            3 
 3036000   0.76987437   -7.3063822    819.39745  0.022491147   0.02203266           10 
 3037000   0.76727069   -7.3447645    817.39903  0.022428905  0.022026358            5 
 3038000   0.77538835   -7.3099041    820.26633  0.022500174  0.022020067            5 
 3039000   0.75681684   -7.3303897    817.62244  0.022420271  0.022013781            9 
 3040000    0.7624105   -7.3067838    819.22656  0.022456868  0.022007479            8 
 3041000   0.76410274   -7.3164493    820.52388  0.022485034  0.022001214            3 
 3042000   0.75417541   -7.3057926     820.7835  0.022484755  0.021994932            4 
 3043000    0.7505864   -7.3208045    821.25165  0.022490187  0.021988676            7 
 3044000   0.76933568   -7.2850726    821.91371  0.022500923  0.021982419           10 
 3045000   0.76919228   -7.3190745    818.55113  0.022401509  0.021976171            9 
 3046000    0.7707426   -7.3200955    818.60271  0.022395565  0.021969887            6 
 3047000   0.75298894   -7.3294045    822.39561  0.022491949  0.021963624            8 
 3048000   0.76623952   -7.3225122    821.25039  0.022453259  0.021957396           13 
 3049000   0.76135536   -7.3201167     820.4351  0.022423611  0.021951136            7 
 3050000   0.76034262   -7.3261198     820.6544  0.022422251  0.021944852           19 
 3051000   0.76015415   -7.3281322    818.96181  0.022368672  0.021938546            5 
 3052000   0.75898942   -7.3202796    818.09652  0.022337716  0.021932241            9 
 3053000   0.76564466   -7.3162519     820.2797  0.022389991  0.021925947            6 
 3054000   0.76278322    -7.315285    821.68111  0.022420899  0.021919679            8 
 3055000    0.7602484    -7.316191    820.39858  0.022378575  0.021913419            4 
 3056000   0.76429763   -7.2934148    821.27814  0.022395237  0.021907138            6 
 3057000   0.77045818   -7.2883718    820.21152  0.022358835  0.021900846            7 
 3058000   0.74842244   -7.3566139    817.13531  0.022267694  0.021894517            6 
 3059000   0.76348511   -7.3091343    820.35252  0.022348058  0.021888207           12 
 3060000   0.75664466   -7.2961108    819.49298  0.022317347  0.021881903            8 
 3061000   0.77392482    -7.325241    817.94133  0.022267814  0.021875576            8 
 3062000    0.7612672   -7.3267468    820.61501  0.022333307   0.02186929            7 
 3063000   0.76624998   -7.3440389     818.5466  0.022269741  0.021862999            6 
 3064000   0.76269728   -7.3340412    821.04881  0.022330527  0.021856702            9 
 3065000   0.75950286   -7.3237557     818.7307  0.022260215  0.021850419           10 
 3066000   0.77286477    -7.341659     820.5024  0.022301109  0.021844137            7 
 3067000   0.75483812   -7.3051499    820.24452  0.022286831  0.021837816            5 
 3068000   0.76061321   -7.3025364    822.10442  0.022330085  0.021831537            7 
 3069000   0.77404828   -7.3218855    820.03449  0.022266604  0.021825242            8 
 3070000   0.76215068   -7.3207388    822.44974  0.022324911  0.021818967           10 
 3071000   0.75026949   -7.3083384    820.48363  0.022264291  0.021812684            8 
 3072000   0.74645505   -7.3074298    820.32366  0.022252703  0.021806394            9 
 3073000    0.7684039   -7.3235675    822.08908  0.022293337   0.02180014            3 
 3074000   0.76815464   -7.3296427    821.38615  0.022267029  0.021793878            6 
 3075000   0.76397096   -7.3313898     819.2472  0.022201821  0.021787572            9 
 3076000   0.76294424   -7.2953199    820.69593  0.022233852   0.02178128           10 
 3077000   0.75741383   -7.3060205    821.59451  0.022250962   0.02177501            6 
 3078000   0.77275958   -7.3346736    821.40589  0.022238626   0.02176875           12 
 3079000   0.76466431   -7.3430139    820.45236  0.022205596  0.021762456            6 
 3080000   0.75515622   -7.3333473    819.70497  0.022178165  0.021756166            3 
 3081000   0.75587981   -7.3279619    820.78597  0.022200205  0.021749875            5 
 3082000   0.76665114    -7.331255    822.05029  0.022227187  0.021743625            6 
 3083000   0.75807274   -7.3114017    822.29025  0.022226464  0.021737367            4 
 3084000    0.7472831    -7.337979      821.564  0.022199632  0.021731102            8 
 3085000   0.75164952   -7.3244635    822.31714  0.022212781  0.021724842           16 
 3086000   0.76000268   -7.3384594    821.56613  0.022185303  0.021718602            7 
 3087000   0.75911105   -7.3183995    823.27739  0.022224311  0.021712387           10 
 3088000   0.72965024    -7.326721    819.70007  0.022120576  0.021706143            6 
 3089000   0.75931597   -7.3222595    822.36144  0.022185212  0.021699884           10 
 3090000   0.76422123   -7.3334903    820.65874  0.022132113  0.021693624            3 
 3091000   0.76668169   -7.3170822    822.18903  0.022166209  0.021687358            5 
 3092000   0.76534903   -7.3470091    821.18561  0.022131997  0.021681117            7 
 3093000   0.74836468   -7.3379881    821.29141  0.022127692   0.02167486           10 
 3094000   0.74718874   -7.3417705    822.51729  0.022153558  0.021668619            7 
 3095000   0.75875673   -7.3226551    823.63909  0.022176605  0.021662393           10 
 3096000   0.75793152   -7.3273051    821.78849   0.02211963  0.021656135            4 
 3097000   0.76602618   -7.3464819    820.98238  0.022090797  0.021649884            5 
 3098000   0.76208573    -7.351596    822.72041  0.022130418  0.021643628            8 
 3099000   0.76281434   -7.3651551    822.43416  0.022115579  0.021637398            7 
 3100000   0.76895738   -7.3192282    822.11011  0.022099734  0.021631186            5 
 3101000    0.7473205   -7.3242867    822.68125  0.022107956  0.021624979            4 
 3102000   0.74942918   -7.3347483    822.46243   0.02209495  0.021618796            8 
 3103000   0.75407476   -7.3155941    824.99454  0.022155831  0.021612613           10 
 3104000   0.74276489   -7.3808779    822.63805  0.022085429  0.021606411            5 
 3105000   0.73862353   -7.3594594     823.7052  0.022106957  0.021600185            6 
 3106000   0.75778301   -7.3295007    821.91841    0.0220519  0.021593967            8 
 3107000   0.76927094   -7.3258323    822.79385  0.022068283  0.021587772            6 
 3108000   0.76022383   -7.3440583    821.76369  0.022033561  0.021581574            6 
 3109000   0.75060873   -7.2996105    824.32971  0.022095253  0.021575367            8 
 3110000   0.75682309   -7.3323329    823.43005  0.022064042  0.021569207            7 
 3111000   0.76228995   -7.3285134     824.0104  0.022072496  0.021563045            7 
 3112000   0.75842483    -7.355771    822.58965  0.022027358   0.02155688            7 
 3113000   0.76037729   -7.3510094    822.38486    0.0220148  0.021550701           10 
 3114000   0.75620017   -7.3267831     823.3994   0.02203488  0.021544516            5 
 3115000   0.75996563   -7.3449143    824.05145   0.02204525  0.021538354            5 
 3116000   0.74020281   -7.3564404    823.84847  0.022032747  0.021532164           13 
 3117000   0.74610746   -7.3184524    825.30134  0.022064521  0.021525991           12 
 3118000    0.7633876   -7.3250987    824.86486  0.022045779  0.021519813            8 
 3119000   0.77640391   -7.3400107    822.06954  0.021964025  0.021513628            7 
 3120000   0.75420289   -7.3500447    823.46242  0.021994189  0.021507426           25 
 3121000   0.75616441   -7.3423214    823.73397  0.021994392  0.021501238           16 
 3122000   0.74972177   -7.3699792    823.61025  0.021984045  0.021495048            9 
 3123000   0.75515355   -7.3445306    824.31959  0.021995933  0.021488903           10 
 3124000   0.75300683   -7.3479437    822.57743   0.02194242  0.021482708            8 
 3125000   0.75684876   -7.3346682    823.68445  0.021964919  0.021476545            4 
 3126000   0.74909825   -7.3479206     824.3425  0.021975435  0.021470372            6 
 3127000   0.75422395   -7.3318406    824.02691  0.021959997    0.0214642            8 
 3128000   0.75917457   -7.3668118    823.74762  0.021945536  0.021458034           12 
 3129000   0.74360375   -7.3340098    825.06493  0.021973605  0.021451868            6 
 3130000   0.77424966   -7.3613219    822.84172  0.021907394  0.021445704            8 
 3131000   0.75687983   -7.3406845    823.76863  0.021925067  0.021439509           10 
 3132000   0.75734422   -7.3178287    823.88489   0.02192116  0.021433381           10 
 3133000   0.76266958   -7.3214667    824.74312  0.021936991  0.021427213            8 
 3134000   0.74036456   -7.3442931    824.75403  0.021930281  0.021421049            7 
 3135000   0.75147023   -7.3358006    825.86569  0.021952836  0.021414881            8 
 3136000   0.76303603   -7.3613266    824.19348    0.0219014    0.0214087            5 
 3137000    0.7537472   -7.3369576    825.38973  0.021926196  0.021402551           11 
 3138000   0.74789095   -7.3295662    824.91429  0.021906583  0.021396434           11 
 3139000   0.76406852   -7.3759485    826.01656  0.021928867  0.021390296            6 
 3140000   0.75498564   -7.3570781    823.47476  0.021854426   0.02138414            4 
 3141000   0.74758292   -7.3192783    825.82431  0.021909803  0.021377996            7 
 3142000   0.75147834   -7.3503941    824.59731  0.021870287  0.021371829            8 
 3143000   0.75030134   -7.3501615    823.11234  0.021823956  0.021365661            9 
 3144000   0.75336914   -7.3547231    825.36901  0.021876829  0.021359493            8 
 3145000   0.74578954   -7.3706585    824.11366   0.02183661  0.021353319            8 
 3146000   0.75510526   -7.3748297    823.43016  0.021811564  0.021347126           11 
 3147000   0.74528616   -7.3447872    825.31286  0.021854487  0.021340933            3 
 3148000   0.75642165   -7.3398076    825.35809  0.021848742   0.02133477            8 
 3149000   0.74333617    -7.380723     822.7044  0.021771578  0.021328557            7 
 3150000   0.74566327   -7.3608836    823.41539  0.021783476  0.021322342            2 
 3151000   0.72555224   -7.3668504    824.74028  0.021811602  0.021316144            6 
 3152000   0.75409343   -7.3525016    823.70523  0.021777317   0.02130991            5 
 3153000   0.73738194    -7.365554    823.18719  0.021756718    0.0213037            5 
 3154000   0.73077621   -7.3680149    822.09426  0.021720943  0.021297501            6 
 3155000   0.73669477    -7.370066    824.64951  0.021781551  0.021291282            6 
 3156000   0.73934512   -7.3587574    823.58906  0.021746648  0.021285064            6 
 3157000   0.74576703   -7.3644875    825.58245  0.021792378  0.021278845            3 
 3158000   0.75490576   -7.3377205    826.14942  0.021800438   0.02127264            6 
 3159000    0.7632864   -7.3620194     822.5302  0.021698064  0.021266446            8 
 3160000   0.76222223   -7.3378208    825.45621   0.02176836  0.021260266           13 
 3161000   0.74975484   -7.3484914    824.98454  0.021749039  0.021254102            2 
 3162000   0.74160323   -7.3753451    825.68998  0.021760752  0.021247955            6 
 3163000   0.75191881   -7.3525982    826.03149   0.02176287  0.021241811            6 
 3164000   0.75518441   -7.3631288    824.70765  0.021721124  0.021235629            5 
 3165000   0.73793441   -7.3523194    824.12258  0.021698857  0.021229452            4 
 3166000    0.7451636   -7.3432436    823.78384  0.021683087  0.021223326            6 
 3167000   0.75211639   -7.3604881    826.39716  0.021745005  0.021217172           13 
 3168000   0.74923322   -7.3518848    826.02254  0.021728287  0.021211024           14 
 3169000   0.76158146   -7.3735576    823.33917  0.021650867  0.021204855            6 
 3170000   0.74015611   -7.3673053    825.05133  0.021689047  0.021198716           12 
 3171000   0.74754605     -7.38982    825.86407  0.021703565   0.02119256           12 
 3172000   0.73991276   -7.3689982    824.82249  0.021669359  0.021186405            7 
 3173000   0.74037138    -7.364924    826.05682  0.021694948  0.021180257            4 
 3174000   0.73841566   -7.3677608    825.68916  0.021678459  0.021174099            4 
 3175000   0.73313099   -7.3558849      825.808  0.021674751  0.021167949           11 
 3176000   0.73062316   -7.3401163    825.58771  0.021662146  0.021161789            7 
 3177000   0.74550882   -7.3658211     826.4184  0.021677117  0.021155654            6 
 3178000   0.74026051   -7.3752354     826.3767  0.021669202  0.021149508            8 
 3179000   0.76017532   -7.3637558    825.33958  0.021635199  0.021143355            6 
 3180000   0.73900587   -7.3455761    826.54925  0.021660096  0.021137197            7 
 3181000   0.74413479   -7.3997298    826.68706  0.021656897   0.02113105            4 
 3182000   0.75797793   -7.3517996    828.40646   0.02169512  0.021124882            5 
 3183000   0.76521879   -7.3568985    825.82081   0.02162061  0.021118719            7 
 3184000   0.73010672   -7.3798123    824.89968  0.021589711  0.021112559            5 
 3185000   0.74958504    -7.371788     826.6534  0.021628817  0.021106416            4 
 3186000   0.75617328   -7.3849296    827.67758  0.021648817  0.021100281            6 
 3187000    0.7326393   -7.3677722    827.61412  0.021640365  0.021094133            5 
 3188000   0.74261454    -7.373447    825.48993  0.021578051   0.02108801            5 
 3189000   0.74358644   -7.3378366    825.52717  0.021572258  0.021081869            7 
 3190000   0.73683005   -7.3527055    825.03769  0.021552709  0.021075768           12 
 3191000    0.7490669   -7.3517733    827.43827  0.021608646  0.021069668            6 
 3192000   0.73534885   -7.3618912    827.24119  0.021596731  0.021063574            8 
 3193000   0.74307219   -7.3642821    827.40523  0.021594249  0.021057476           11 
 3194000   0.75299666   -7.3658243    826.60103  0.021566506  0.021051364            6 
 3195000   0.73234475   -7.3851071    827.63557  0.021586739  0.021045272            9 
 3196000   0.73377042   -7.3878903    825.19413  0.021516326  0.021039154           11 
 3197000   0.75119725   -7.3789563    826.42263  0.021541618  0.021033023           12 
 3198000   0.71913895   -7.3627204    829.88848  0.021625195  0.021026922            5 
 3199000   0.74225268   -7.3685841    825.89015  0.021514279  0.021020826           11 
 3200000    0.7287677     -7.37033    827.23228  0.021542507  0.021014735            5 
 3201000   0.73881967   -7.3925092     827.6158  0.021545762  0.021008598            7 
 3202000   0.73885472   -7.3614906    826.78307  0.021517361  0.021002487           11 
 3203000   0.73675238   -7.3766352    827.87709  0.021539106   0.02099637            7 
 3204000   0.75407548   -7.3652029    825.89335  0.021480788   0.02099027            6 
 3205000   0.73338689   -7.3527619    828.12496   0.02153211  0.020984197           12 
 3206000   0.74441239   -7.3390933    827.62202  0.021512321  0.020978119            5 
 3207000   0.74448069   -7.3498421    826.93124  0.021487663  0.020972051           12 
 3208000   0.73132841   -7.3698888    827.86934  0.021505334  0.020965957            8 
 3209000   0.74535733   -7.3702217    826.91866  0.021473945  0.020959842           10 
 3210000   0.74250798   -7.3670325    827.48502  0.021481958  0.020953724            7 
 3211000   0.73807586   -7.3521268    826.84115  0.021458558  0.020947627            5 
 3212000   0.74503466   -7.3704867    826.70257  0.021448282  0.020941506            3 
 3213000   0.75304209    -7.374289    827.78063  0.021469567  0.020935388            4 
 3214000   0.72575601   -7.3470453    827.41645  0.021453445  0.020929308            7 
 3215000   0.74154904   -7.3695596    829.61276    0.0215037  0.020923224           19 
 3216000   0.73428032   -7.3916696    826.88038  0.021426212  0.020917105           15 
 3217000   0.73197429    -7.383368    827.51748  0.021436055  0.020911011            8 
 3218000   0.72010665   -7.3871733    827.62385  0.021432149  0.020904906            6 
 3219000    0.7382322   -7.3879236     825.8608  0.021379849   0.02089879           16 
 3220000   0.74310627   -7.3895805     825.4153   0.02136168  0.020892656           16 
 3221000   0.73046579   -7.3976905    826.53691  0.021384066  0.020886539           11 
 3222000   0.74703699   -7.3949366    826.74256  0.021382748  0.020880389           14 
 3223000   0.73807159   -7.4111913    825.36583  0.021340517  0.020874223           13 
 3224000   0.74566162   -7.4180833    825.75472   0.02134395  0.020868052           11 
 3225000   0.74419313   -7.4001918    825.90821  0.021341297  0.020861894            4 
 3226000   0.73900833   -7.3969482    826.92485  0.021360944  0.020855714            5 
 3227000    0.7410397   -7.3965149    829.31841  0.021416135  0.020849549            6 
 3228000   0.73372391    -7.388484    826.26641  0.021330711  0.020843393           10 
 3229000   0.73645424   -7.4149643    827.38104  0.021352871  0.020837235            6 
 3230000   0.73721129   -7.3997734    826.07185  0.021312483   0.02083108            4 
 3231000   0.73072719   -7.4007235    825.74072  0.021297347  0.020824936            9 
 3232000   0.74012977   -7.3932179    826.09199  0.021299814  0.020818795            8 
 3233000   0.73397869   -7.4011858    826.34089  0.021299641  0.020812648           11 
 3234000   0.74345161   -7.3802161      826.715  0.021302695  0.020806513            6 
 3235000   0.74167107   -7.3947029    828.13995  0.021332817   0.02080036           10 
 3236000   0.75218137   -7.3961846    825.75768  0.021264876  0.020794227            7 
 3237000   0.73773412   -7.3893284    826.85576  0.021286576  0.020788094            8 
 3238000   0.72096067   -7.3915939    827.70588  0.021301881  0.020781968            9 
 3239000    0.7385664   -7.3966372    827.04996  0.021278428  0.020775838           10 
 3240000   0.73381866   -7.3823799    826.69133  0.021262637  0.020769725           13 
 3241000   0.73135133   -7.3899763    827.55736  0.021278344  0.020763642           12 
 3242000   0.73872713   -7.3475228    827.96466   0.02128225  0.020757575           14 
 3243000   0.73752821   -7.3895972    828.10837  0.021279381  0.020751516           10 
 3244000   0.74527707   -7.3913184    827.81156  0.021265196   0.02074544            6 
 3245000   0.74724923   -7.3968665    827.47448  0.021249987  0.020739373           10 
 3246000   0.71580885   -7.3944473    827.13547  0.021234737  0.020733272            7 
 3247000   0.74011302    -7.373924    828.52302  0.021263808  0.020727168           15 
 3248000   0.71223316   -7.3946733    829.01192  0.021269805  0.020721076            8 
 3249000   0.74258683   -7.4119299    828.76953  0.021257041  0.020715009            6 
 3250000   0.72928363   -7.3983507    827.81968  0.021226146   0.02070893           15 
 3251000   0.72560227   -7.3993077    829.24849  0.021256241  0.020702832            6 
 3252000   0.71028927   -7.4054017    828.28553  0.021225029  0.020696727            7 
 3253000     0.721159   -7.3869009    829.71005  0.021254997  0.020690639            9 
 3254000   0.72969541   -7.3604637    829.33325  0.021238815  0.020684575            5 
 3255000   0.74136934   -7.3725287    827.97387  0.021197488  0.020678531            8 
 3256000   0.73567655   -7.3875881    829.45142  0.021228794  0.020672496            5 
 3257000   0.71848683   -7.3829783    829.51499  0.021223902  0.020666469            9 
 3258000   0.73799081    -7.341678    830.33466  0.021238353  0.020660455            7 
 3259000   0.73208443     -7.37368    830.33971  0.021231966  0.020654421           18 
 3260000   0.70771529   -7.3644188    829.18146  0.021195845  0.020648398            7 
 3261000   0.74199416   -7.3890103    830.58299  0.021225161  0.020642368           11 
 3262000   0.74758275   -7.3771743    827.35108  0.021136089   0.02063633            9 
 3263000   0.73673679   -7.3787299    829.78515  0.021191775  0.020630297            7 
 3264000   0.73560135   -7.4066041    829.00116  0.021165267  0.020624256            7 
 3265000   0.72398495   -7.4113009    827.38929  0.021117644  0.020618211            7 
 3266000   0.72630286    -7.391657    829.20143  0.021157416   0.02061217           16 
 3267000   0.73031354    -7.404192    829.21634   0.02115132  0.020606133            3 
 3268000   0.71171377   -7.3905281    831.36204  0.021199562  0.020600112            6 
 3269000   0.73949026   -7.3823383    830.92593   0.02118196  0.020594096            7 
 3270000   0.71933724   -7.3676308     832.5334  0.021216448  0.020588072            7 
 3271000   0.73234383   -7.4002639    829.42675  0.021130815  0.020582045           14 
 3272000   0.74617372   -7.3930218    829.75361  0.021132682  0.020576023            7 
 3273000   0.72082172   -7.3904539     829.2968  0.021114594  0.020569995            8 
 3274000   0.72433167   -7.4213765    830.54107  0.021139816  0.020563978            6 
 3275000   0.72588198   -7.3895777    828.70719  0.021086697  0.020557945           14 
 3276000   0.71895776   -7.3882652    829.98346  0.021112725  0.020551929            8 
 3277000   0.73971568   -7.4020989    829.48236   0.02109354  0.020545893            7 
 3278000   0.73627499    -7.398726    828.40791   0.02105979  0.020539848            7 
 3279000   0.73196292   -7.4150467    829.20952   0.02107374  0.020533799           13 
 3280000   0.73081335   -7.4157142    830.09332  0.021089769  0.020527763            5 
 3281000   0.71307199   -7.4148763    829.24382  0.021061765  0.020521705            6 
 3282000   0.73833335   -7.4092299    827.86552  0.021020351  0.020515675           11 
 3283000   0.71414239   -7.4203368    828.31861   0.02102545  0.020509629            4 
 3284000   0.71755097   -7.4236045    828.63791   0.02102715  0.020503561            6 
 3285000   0.72025596   -7.4480031    829.35184  0.021038859  0.020497481            8 
 3286000   0.72746725   -7.4022503     830.0473  0.021050094   0.02049143            7 
 3287000   0.72135567    -7.432516    830.83281  0.021063604  0.020485388            9 
 3288000   0.72053254   -7.4247718    829.35113  0.021019646  0.020479368            7 
 3289000   0.73547957   -7.4252793    828.96472  0.021003464  0.020473362            6 
 3290000   0.72925641   -7.4019116    828.94917  0.020996686  0.020467341            9 
 3291000   0.71452759   -7.4457906    828.64744  0.020982666   0.02046133            3 
 3292000    0.7293811    -7.429949    830.87595  0.021032704  0.020455312            4 
 3293000   0.73797255    -7.428343    830.71111  0.021022146    0.0204493           10 
 3294000   0.73369858   -7.4093468    830.41603  0.021008299  0.020443296           11 
 3295000   0.71469373   -7.4302703    831.55697  0.021030778  0.020437288           13 
 3296000   0.72929264   -7.3938131    830.20178  0.020990134   0.02043127            9 
 3297000   0.73312569   -7.4120832    831.39074  0.021013819   0.02042529           30 
 3298000   0.73848409   -7.4168818    829.02842  0.020947757  0.020419288           14 
 3299000   0.73613582   -7.4310163     829.9598  0.020964934  0.020413301           10 
 3300000   0.73894091   -7.3857049    830.57054  0.020974004  0.020407327           12 
 3301000   0.71441487   -7.3867966    832.30025  0.021011316  0.020401372            7 
 3302000   0.72049654   -7.4138185    831.02553  0.020972782  0.020395406           13 
 3303000   0.71622149   -7.3994718     832.6724  0.021007983  0.020389426           11 
 3304000   0.70727591   -7.3853119    831.05542  0.020960841  0.020383465            7 
 3305000    0.7199862   -7.3980132    832.17114  0.020982631    0.0203775           17 
 3306000   0.71055938   -7.4205244    831.46088  0.020958381   0.02037154           13 
 3307000   0.70360806   -7.4179446    831.37377  0.020949848  0.020365576            6 
 3308000    0.7328221   -7.4274736    830.58855  0.020923734  0.020359604            9 
 3309000   0.70588803   -7.3917933    832.66601  0.020969729  0.020353665            7 
 3310000    0.7353553   -7.4229951    831.62786  0.020937257  0.020347716            9 
 3311000   0.72697723   -7.4059862    832.75294   0.02095925  0.020341769            7 
 3312000   0.72928279   -7.3912965    833.29537   0.02096657  0.020335821            7 
 3313000   0.72138324   -7.3936698    831.41749  0.020913007  0.020329882           10 
 3314000   0.71271573   -7.3940841    830.72222  0.020889213  0.020323924            9 
 3315000   0.70986335    -7.433417    829.84273  0.020860803   0.02031797            8 
 3316000   0.71935036   -7.4108253    833.64959  0.020950181  0.020312003            8 
 3317000   0.71660082   -7.4091253    831.63392  0.020893225   0.02030604            9 
 3318000   0.73655951   -7.3950109    832.48218  0.020908232  0.020300112            9 
 3319000   0.71504049   -7.3811797    831.24566  0.020870886  0.020294168           16 
 3320000   0.72840474    -7.382082    832.68893  0.020900827  0.020288214            5 
 3321000   0.72044057   -7.4251674    831.62707  0.020867888  0.020282254            6 
 3322000   0.72656482   -7.4081048    830.10782  0.020823495   0.02027629            8 
 3323000     0.710996   -7.3935652    831.46892  0.020851362   0.02027033            5 
 3324000   0.70188791   -7.3927261      831.631  0.020849153  0.020264369            4 
 3325000   0.71971324    -7.399729    829.78644  0.020796653  0.020258418            4 
 3326000   0.73706687   -7.4110546    832.48849    0.0208581  0.020252434            6 
 3327000   0.72913152   -7.4099494    830.76344  0.020808622  0.020246459            9 
 3328000   0.70471611   -7.4294197    831.01594  0.020808692  0.020240491           12 
 3329000   0.71728322   -7.4299566    832.58378  0.020841689  0.020234508            8 
 3330000   0.72390937   -7.4447049    831.19378  0.020800645  0.020228531           12 
 3331000   0.70847403   -7.4282708    829.00341  0.020739603  0.020222533            8 
 3332000   0.71703741   -7.4433057    829.31987  0.020741293   0.02021655           24 
 3333000   0.71202785   -7.4278455    832.24816  0.020808285  0.020210567            8 
 3334000   0.72123514    -7.421223    831.78966  0.020790583  0.020204599           13 
 3335000   0.72244896   -7.4366512    829.31474  0.020722507  0.020198642           22 
 3336000   0.71290474   -7.4095567    831.85968  0.020779868  0.020192663            7 
 3337000   0.71367826   -7.4618134    831.66909  0.020768881  0.020186666            7 
 3338000   0.71206913    -7.442675    831.15992  0.020749948  0.020180662            5 
 3339000     0.726104     -7.41375    830.28441  0.020721883  0.020174686            6 
 3340000   0.71029143   -7.4403254    831.86461  0.020755105  0.020168723            8 
 3341000   0.71185229   -7.4098922    832.24922  0.020758486  0.020162754           10 
 3342000   0.71746671   -7.4381927    832.26515  0.020752672  0.020156794            8 
 3343000   0.69994419   -7.4302117    833.36867  0.020773972   0.02015084            8 
 3344000   0.71498664   -7.4171029    831.57482  0.020723057  0.020144891           10 
 3345000   0.71748995   -7.4080122    830.94106  0.020701073  0.020138923           12 
 3346000   0.70674607   -7.3966842    831.09994  0.020698843   0.02013297            9 
 3347000   0.69368986   -7.4229787    832.84668  0.020736149  0.020127012           11 
 3348000   0.71904151   -7.4255394    833.00887  0.020733992  0.020121043            3 
 3349000   0.71882948   -7.4304241    830.76526  0.020671973   0.02011509            6 
 3350000   0.70551794   -7.4074864    831.96985  0.020695768  0.020109129            4 
 3351000   0.70311785   -7.4422681    832.12091  0.020693348  0.020103162            4 
 3352000   0.71920881   -7.4109992    830.65129  0.020650639  0.020097191            2 
 3353000   0.71969606   -7.3966938    831.83445  0.020673885  0.020091223            5 
 3354000   0.71593053   -7.4339678    830.57294  0.020636378  0.020085245            4 
 3355000   0.72959777   -7.4291014     831.5664  0.020654903  0.020079258           10 
 3356000   0.70777282   -7.4500778    831.09782  0.020637113  0.020073271            8 
 3357000   0.72013602   -7.4524803      829.375  0.020588199  0.020067275            5 
 3358000   0.71494424   -7.4676884    828.74542  0.020566444  0.020061293            7 
 3359000   0.71386839   -7.4502403    830.49135  0.020603636  0.020055293            8 
 3360000   0.71026155   -7.4514521    832.58388  0.020649402  0.020049298            5 
 3361000   0.69588966   -7.4164387    830.56012  0.020593081  0.020043307           10 
 3362000    0.6998345   -7.4259284    831.82231  0.020618241  0.020037338           11 
 3363000    0.7226736   -7.4455902    830.52741  0.020580023  0.020031342           10 
 3364000   0.72308987   -7.4446904    830.57346  0.020575046  0.020025384           13 
 3365000   0.70963742   -7.4446216    830.84533  0.020575664  0.020019412            8 
 3366000   0.71218368   -7.4724164    830.45727  0.020559944  0.020013419            6 
 3367000   0.71823399   -7.4667755    831.74529  0.020585717  0.020007452            6 
 3368000    0.7233615   -7.4367497    831.78438  0.020580571  0.020001461            8 
 3369000    0.7303887   -7.4343274    833.10325  0.020607085  0.019995512            7 
 3370000    0.7173244   -7.4409214    832.14894  0.020577372  0.019989556           15 
 3371000   0.71369135   -7.4311139    831.14423  0.020546431  0.019983617            5 
 3372000   0.71394122   -7.4399881    830.05796  0.020513493  0.019977667           22 
 3373000   0.69533769   -7.4161144     832.5033  0.020567825  0.019971712           11 
 3374000   0.71229037   -7.4351191    831.01082  0.020524867  0.019965777            7 
 3375000   0.71300511    -7.418949    831.95355  0.020542063  0.019959837           10 
 3376000   0.71024585   -7.4452253    830.47653  0.020499519  0.019953899            6 
 3377000   0.72142086   -7.4364655    833.33035  0.020563872   0.01994796           12 
 3378000   0.71860326    -7.439106    833.11995  0.020552594  0.019942015           13 
 3379000   0.70948001   -7.4482657    833.19541  0.020548372  0.019936079            8 
 3380000   0.70814635   -7.4485086    832.06023  0.020514306  0.019930136           11 
 3381000    0.7067526   -7.4448947    834.39023  0.020565667  0.019924198            8 
 3382000   0.70961665   -7.4472431    832.42215  0.020511092  0.019918274           12 
 3383000   0.71987584   -7.4258283    831.79441  0.020489566  0.019912345           11 
 3384000   0.70642559    -7.454905    830.99274  0.020463769  0.019906403           20 
 3385000   0.70370927   -7.4286156    831.44523  0.020468863   0.01990046           18 
 3386000   0.72477234   -7.4225615    831.20185  0.020456828  0.019894527            8 
 3387000   0.70374448   -7.4431826    831.87507  0.020467352  0.019888628           10 
 3388000   0.68623307   -7.4383623    832.75023  0.020482837   0.01988272            6 
 3389000   0.69636143   -7.4257878     831.2633  0.020440231  0.019876823           12 
 3390000   0.71661836   -7.4336063    832.13021  0.020455512  0.019870941           11 
 3391000   0.74033598   -7.4594758    833.07233  0.020472632  0.019865072            9 
 3392000   0.71119752   -7.4254463    832.65725  0.020456399  0.019859192            4 
 3393000   0.71794014   -7.4597471    832.36883  0.020443286  0.019853321            9 
 3394000   0.70644641    -7.420421    833.26259  0.020459207  0.019847426            8 
 3395000   0.70258673   -7.4351054     834.4099  0.020481343  0.019841526           16 
 3396000     0.691768   -7.4376316     831.8233   0.02041184   0.01983564            4 
 3397000   0.68821451     -7.43913    831.02468   0.02038624  0.019829755           10 
 3398000   0.71942451   -7.4395954    834.14064  0.020456657  0.019823869            6 
 3399000   0.70191401   -7.4497998    833.92449  0.020445339  0.019817981            7 
 3400000   0.70654622   -7.4295736     832.8261  0.020412404  0.019812086            9 
 3401000   0.69764858   -7.4421311     831.5743   0.02037573  0.019806207            8 
 3402000   0.70502998    -7.459293    831.30279   0.02036309   0.01980031           12 
 3403000   0.70800435   -7.4184467     834.3259  0.020431137  0.019794421            6 
 3404000   0.70976788   -7.4456283    834.82466  0.020437345  0.019788545           13 
 3405000   0.72144498   -7.4300376    833.59852  0.020401334  0.019782662           10 
 3406000    0.7056572   -7.4408388    833.16125  0.020384646  0.019776781           19 
 3407000   0.69361796   -7.4426783    832.32317  0.020358164  0.019770883           16 
 3408000   0.70931617   -7.4510425    834.51468  0.020405778  0.019765003            8 
 3409000   0.72188937   -7.4505647    834.37142   0.02039629  0.019759126           10 
 3410000    0.7081937   -7.4358908    832.56996  0.020346284  0.019753229           14 
 3411000   0.70641373   -7.4192952    831.86105     0.020323  0.019747322           18 
 3412000   0.70148002   -7.4541636    832.45283  0.020331497  0.019741436           13 
 3413000   0.70407254   -7.4520446    834.05452  0.020364648   0.01973554           10 
 3414000   0.70212499   -7.4616468     833.3388  0.020341213  0.019729637            8 
 3415000   0.70284542   -7.4565534    833.66225  0.020343149  0.019723759           13 
 3416000   0.70457777   -7.4581096    831.61597  0.020287275   0.01971788            7 
 3417000   0.71213551   -7.4500376    833.30954   0.02032264  0.019711987            5 
 3418000   0.70865513    -7.466985    832.96973   0.02030841  0.019706113           10 
 3419000   0.70515964   -7.4557232    833.35868   0.02031195  0.019700231            8 
 3420000   0.70332605   -7.4319041    831.42717  0.020258947  0.019694348            5 
 3421000   0.70292092    -7.477969    832.12782  0.020270092   0.01968846            5 
 3422000   0.69623434   -7.4785141     832.2409  0.020266922  0.019682553            8 
 3423000   0.70140323   -7.4762328    831.64625  0.020246525  0.019676652           12 
 3424000   0.70123157   -7.4702144    832.72005  0.020266746  0.019670744            6 
 3425000   0.70586584   -7.4636953    832.76869  0.020262012  0.019664841            8 
 3426000   0.69318678   -7.4505294    831.84399  0.020233605  0.019658935            6 
 3427000   0.71859214   -7.4680275    833.34168   0.02026412  0.019653028           10 
 3428000   0.71902031   -7.4696004    833.80518  0.020269476  0.019647135            9 
 3429000   0.70025226   -7.4514207     832.1808  0.020224089  0.019641221            9 
 3430000   0.69477982   -7.4667853    830.84842  0.020185822  0.019635324            7 
 3431000   0.69400577   -7.4773745    834.05755  0.020257883  0.019629409           10 
 3432000   0.70648743   -7.4850651    831.55276  0.020191161  0.019623515            9 
 3433000   0.69718304   -7.4783845    833.48455  0.020232172  0.019617608            7 
 3434000   0.70100814   -7.4545698    832.96023  0.020213556  0.019611733            6 
 3435000   0.71818701   -7.4667579    830.92571  0.020158314   0.01960582            4 
 3436000   0.69988931   -7.4647678    832.03039  0.020179239  0.019599912            4 
 3437000   0.70137859    -7.493236    831.39202   0.02015789  0.019593996           14 
 3438000   0.68537548   -7.4644338    833.45401  0.020202007  0.019588087            7 
 3439000   0.69988286   -7.4700139    833.52858   0.02019794  0.019582211           13 
 3440000   0.69654261   -7.4194092    833.91203  0.020201357  0.019576353            7 
 3441000   0.69333337   -7.4646014    833.02805  0.020174079  0.019570494           11 
 3442000   0.71075101   -7.4613108    833.61586  0.020182449  0.019564634            5 
 3443000   0.69616326   -7.4596961    833.69072  0.020178399   0.01955877           17 
 3444000   0.69686748   -7.4674301    832.83736  0.020151891  0.019552894            7 
 3445000    0.6989517   -7.4831941    832.01311  0.020126103  0.019547015            8 
 3446000   0.71384437   -7.4580995    833.56436  0.020157776  0.019541129           14 
 3447000   0.71258803   -7.4679458    832.47173  0.020125513  0.019535248            6 
 3448000   0.69864007   -7.4588351    833.65712  0.020148326   0.01952937            6 
 3449000   0.69692407   -7.4464843    833.38377  0.020135879  0.019523518            6 
 3450000   0.70838486   -7.4561044    833.44534   0.02013153  0.019517663            9 
 3451000   0.71002088   -7.4729661    833.16045  0.020118817  0.019511791            9 
 3452000   0.71010576   -7.4618881    832.70078  0.020101892  0.019505922           11 
 3453000   0.70447519   -7.4463759    834.09969  0.020129831  0.019500054           16 
 3454000   0.68706943   -7.4616603    835.14472  0.020149216  0.019494179            8 
 3455000   0.71403029   -7.4539192    834.82133  0.020135585  0.019488334            9 
 3456000   0.70321893   -7.4484969    835.12508  0.020137082  0.019482497            8 
 3457000   0.69176962   -7.4650687    834.35619  0.020112723  0.019476657            8 
 3458000   0.69635325   -7.4537403    836.03021  0.020147248  0.019470819           11 
 3459000   0.69939758   -7.4482649    834.51503   0.02010492  0.019464974            7 
 3460000   0.68361923   -7.4799315    834.18148  0.020091076   0.01945914            8 
 3461000   0.69065375   -7.4601349    834.41807  0.020090968  0.019453304            6 
 3462000    0.6886302   -7.4764228    834.99865  0.020099139  0.019447455            7 
 3463000   0.69591074   -7.4686126    832.86671  0.020042033  0.019441595            8 
 3464000   0.68071395   -7.4525749    833.59645  0.020053802  0.019435757           13 
 3465000   0.70131574   -7.4763187    834.18684  0.020062214  0.019429908           13 
 3466000   0.70511002   -7.4783915    833.39013   0.02003727  0.019424032           13 
 3467000   0.71432199    -7.460423    832.60649  0.020012655  0.019418181           11 
 3468000   0.69452604   -7.4746013    834.71233  0.020057486  0.019412319           27 
 3469000    0.7057459    -7.483725    833.92954    0.0200329  0.019406455            8 
 3470000   0.69312445   -7.4642991    834.02478  0.020029414  0.019400585            6 
 3471000   0.69584756   -7.4925069     834.4021  0.020032702  0.019394733            4 
 3472000     0.686256   -7.4699992    833.23059  0.019998814  0.019388887            7 
 3473000   0.70078254   -7.4939374    834.73289  0.020029103  0.019383049            7 
 3474000   0.69235062   -7.4599974    834.52335  0.020018311  0.019377223            9 
 3475000    0.6933209   -7.4767911    834.88176  0.020021145  0.019371381           24 
 3476000   0.68964265   -7.4756744    833.12105  0.019973174  0.019365542           12 
 3477000   0.70474512    -7.493143    833.26003  0.019970761  0.019359684           21 
 3478000   0.70612376   -7.4833069    835.21848  0.020011944  0.019353846           23 
 3479000   0.69325165   -7.4905154    833.31271  0.019960542  0.019348016           14 
 3480000   0.70024782   -7.4621708    833.63207  0.019962454   0.01934219           12 
 3481000   0.70706956   -7.4643733    835.19792  0.019994205  0.019336368           10 
 3482000   0.70271468   -7.4701483    834.03285  0.019960579  0.019330529           18 
 3483000   0.69144413   -7.4786233    833.95586  0.019953007  0.019324716           10 
 3484000   0.67990288   -7.4574324    834.13546  0.019951575  0.019318905            6 
 3485000   0.68188093   -7.4823455    835.06937  0.019968182   0.01931308           10 
 3486000   0.69833214   -7.5128229    833.36381  0.019921682  0.019307255           14 
 3487000   0.69218056   -7.4685545      835.525  0.019967618  0.019301455           10 
 3488000   0.70179772   -7.4868859    834.60061  0.019939808  0.019295656           11 
 3489000   0.69857101   -7.4608864    834.59104  0.019933865  0.019289865           10 
 3490000   0.67782001   -7.4591533    836.45143  0.019972575  0.019284085           14 
 3491000   0.68964494   -7.4883753    834.98493  0.019931847  0.019278304           11 
 3492000   0.69075709   -7.4636352    835.58299  0.019940411  0.019272516           14 
 3493000    0.6820295   -7.4985759    833.84663  0.019893278  0.019266727           17 
 3494000   0.69245028   -7.4730972    835.97668  0.019938387  0.019260929           15 
 3495000   0.70527609   -7.4956696    833.27396   0.01986824  0.019255132           12 
 3496000   0.69911748   -7.4758238    835.01917  0.019904156  0.019249346            9 
 3497000   0.67977071   -7.4835881    834.99898  0.019897983  0.019243556           18 
 3498000    0.6756932   -7.4765388    835.25766  0.019898458  0.019237778            8 
 3499000   0.68816848   -7.5006087    835.11033  0.019889262  0.019231986            9 
 3500000   0.68762098   -7.4897376     835.3332  0.019888886  0.019226201           17 
 3501000   0.68911048   -7.4817613    834.68639  0.019867809  0.019220411           17 
 3502000   0.68453242   -7.4919795    834.72787  0.019863123  0.019214618           10 
 3503000   0.68485779   -7.4812166    835.07372   0.01986568  0.019208803           16 
 3504000   0.67713408   -7.4826361    836.15384  0.019885698  0.019203022            7 
 3505000   0.69145428   -7.4965054    833.98485  0.019828456  0.019197236           11 
 3506000   0.69614209   -7.4752345    833.69238  0.019815849   0.01919144           31 
 3507000   0.69664819   -7.4856863     834.4681  0.019828631  0.019185645           11 
 3508000   0.70099365    -7.496723    833.31676  0.019795628   0.01917985            9 
 3509000   0.68270768   -7.4990619     834.0217  0.019806728  0.019174048           10 
 3510000   0.69890894    -7.492903    835.47425  0.019835571  0.019168252            5 
 3511000   0.70103929   -7.4895434     836.0917  0.019844577  0.019162454            5 
 3512000   0.67649323    -7.489664    835.38514  0.019822161  0.019156653           10 
 3513000   0.68124311   -7.4898274    835.44287  0.019817888  0.019150859            5 
 3514000   0.69724776   -7.4883738    834.40737  0.019787691  0.019145066           12 
 3515000   0.67550744   -7.4960033    835.52843   0.01980864  0.019139263            9 
 3516000   0.66534517    -7.510466    833.28538  0.019749843  0.019133459           10 
 3517000   0.71193893    -7.508784    836.25514  0.019814594  0.019127662            9 
 3518000   0.70443182   -7.5166617    834.40786  0.019765204  0.019121863            6 
 3519000    0.6998863   -7.4911281    834.83463  0.019769694  0.019116077           10 
 3520000   0.68633054   -7.4854998    834.30286  0.019751488  0.019110302            8 
 3521000   0.68562989   -7.4800663    836.31807  0.019793574  0.019104513            7 
 3522000   0.69355837    -7.500762    835.09627  0.019759045  0.019098732            7 
 3523000   0.69103968   -7.4992225    832.80079  0.019699139  0.019092937           14 
 3524000   0.67474863   -7.4994684    834.60252  0.019736155  0.019087141           10 
 3525000   0.68726181   -7.4987766    837.17485  0.019791368  0.019081354           14 
 3526000    0.6870898   -7.4927499     833.5836  0.019700879  0.019075561            8 
 3527000   0.68863745   -7.4712956    836.25265  0.019758356  0.019069769           17 
 3528000   0.70040401   -7.4742966    834.46082  0.019710431  0.019063996            7 
 3529000   0.68161434   -7.4906944    834.37681  0.019702862  0.019058212           14 
 3530000   0.69581448   -7.5031564    833.67039  0.019680604  0.019052433           15 
 3531000   0.68069902   -7.4864486    835.92547  0.019728251  0.019046641           11 
 3532000   0.68988225   -7.5084698    834.16145  0.019681046  0.019040843           12 
 3533000   0.69212523   -7.5352974    833.00315  0.019648154  0.019035049           13 
 3534000   0.69421764   -7.4878273    836.58367  0.019727025  0.019029264            7 
 3535000   0.68489616   -7.4889769    835.31531  0.019691544  0.019023481            9 
 3536000   0.68278467   -7.4981281     833.7436  0.019648935   0.01901771            8 
 3537000   0.68232868   -7.4913614    833.79798  0.019644661  0.019011929            8 
 3538000   0.69797181   -7.5059768     834.5442  0.019656685  0.019006141           12 
 3539000   0.67241658     -7.47535    836.67611  0.019701331  0.019000382           10 
 3540000   0.67900843   -7.4940427    833.02253  0.019609758  0.018994605           22 
 3541000   0.68719597    -7.488813    835.29651  0.019657736  0.018988827           28 
 3542000    0.6779766   -7.4994855    834.53367  0.019634238  0.018983069           20 
 3543000   0.68136989   -7.4854442    833.31944  0.019600137  0.018977315           15 
 3544000   0.68050741    -7.498576    834.35243  0.019618896  0.018971552           17 
 3545000   0.67820023   -7.4718995    836.04106  0.019653057  0.018965781           22 
 3546000   0.68762318   -7.4942252    835.23837  0.019628651  0.018960015            8 
 3547000   0.68585096   -7.5108101    835.85601  0.019637628  0.018954222           10 
 3548000   0.68377162   -7.5069908    833.89458  0.019586025  0.018948425           23 
 3549000    0.6817774   -7.5282686    834.56502  0.019596248  0.018942618           12 
 3550000   0.68566661   -7.4883125    833.74075  0.019571379  0.018936819            8 
 3551000   0.68226931   -7.5000114    833.38736  0.019557574  0.018931028            8 
 3552000   0.68243012   -7.5063734    832.67324  0.019535314  0.018925253           12 
 3553000   0.68683639   -7.4720752    834.91978  0.019582507  0.018919464            8 
 3554000   0.68037002   -7.4948031    833.29663  0.019538938  0.018913674            9 
 3555000   0.68378143   -7.5241335    833.98636   0.01954961  0.018907887           13 
 3556000    0.6761386   -7.5304679     832.0872  0.019499606  0.018902103           19 
 3557000   0.68945155   -7.4995348    835.43363  0.019572524  0.018896303           13 
 3558000   0.67307463   -7.4869331    833.80761   0.01952894  0.018890512           14 
 3559000   0.67224399   -7.4904052    834.77559  0.019546118  0.018884713           10 
 3560000   0.68988414   -7.4935035    835.43749  0.019556121  0.018878907           11 
 3561000   0.70706403   -7.4867887    833.49772  0.019505235  0.018873124           21 
 3562000    0.6824501   -7.5042165    834.16647  0.019515405  0.018867344           21 
 3563000   0.68596725   -7.5221206    833.72087  0.019499506  0.018861557           11 
 3564000   0.68188346   -7.5010931     834.5321  0.019513003  0.018855763            6 
 3565000   0.67524987   -7.5180229    834.95706  0.019517463  0.018849977           13 
 3566000   0.67160767    -7.506572    835.45525  0.019523632  0.018844188            7 
 3567000   0.67580331   -7.5136603    833.53228  0.019473233  0.018838402            7 
 3568000     0.692142   -7.5227741     832.3329  0.019439763   0.01883263            4 
 3569000     0.692233   -7.4938461    835.17164  0.019500599   0.01882686           15 
 3570000   0.69853855   -7.4855548    832.84516   0.01944083  0.018821096            5 
 3571000   0.68515104   -7.4853996    834.72783   0.01947932  0.018815346            6 
 3572000   0.68834189   -7.4925284    833.34927  0.019441706  0.018809592            5 
 3573000   0.68960973   -7.5208237    833.23148  0.019433517  0.018803813            8 
 3574000   0.67907986   -7.5064334    835.08994  0.019471413  0.018798033            4 
 3575000   0.67275846   -7.4952651    835.31084  0.019471115  0.018792269            7 
 3576000    0.6917551   -7.5091419    834.92784  0.019456745  0.018786519           10 
 3577000   0.68440841   -7.5226875     834.2679  0.019435931   0.01878076            9 
 3578000   0.69144755   -7.4778975     833.2489  0.019406766  0.018775005           13 
 3579000   0.66714737   -7.5079477    833.62215  0.019410034   0.01876923            4 
 3580000   0.67384323   -7.4908055     833.4454  0.019400498  0.018763474           14 
 3581000   0.66677824   -7.5104669    835.21036  0.019436153  0.018757721            6 
 3582000   0.67018282   -7.4952912    835.50023   0.01943747  0.018751962            6 
 3583000    0.6847045   -7.5163934    832.81058   0.01936949  0.018746197            8 
 3584000   0.67414471    -7.501567    834.70595  0.019408155  0.018740408           15 
 3585000   0.67695687   -7.5143768    834.41606  0.019396003  0.018734629            6 
 3586000   0.68178336   -7.5004098    835.32701  0.019411764  0.018728861           12 
 3587000   0.66820038   -7.5326575    832.25437  0.019334968  0.018723099            6 
 3588000   0.67642826   -7.5119712    834.12049  0.019372921  0.018717335           12 
 3589000   0.66675439    -7.501308    835.78269  0.019406118  0.018711577           10 
 3590000   0.68052653   -7.5317459    833.38832  0.019345133  0.018705806           19 
 3591000   0.68621352   -7.5262152    834.74513  0.019371232  0.018700045           13 
 3592000   0.67072393   -7.5198989    834.16685  0.019352423  0.018694276            7 
 3593000   0.67479586   -7.5130196    835.12785  0.019369326  0.018688513           15 
 3594000   0.67414767   -7.5115276    835.45229  0.019371459  0.018682758           10 
 3595000   0.66645509   -7.4908877    834.45388  0.019342927  0.018677014           13 
 3596000   0.67340107   -7.5019448    835.26409  0.019356324   0.01867127           10 
 3597000   0.66498757   -7.5097219    834.70632  0.019338021  0.018665542           16 
 3598000   0.68157904   -7.4884225    834.74058  0.019333439  0.018659815           12 
 3599000   0.68903894   -7.4899175    834.34115  0.019318819  0.018654101           12 
 3600000   0.67939848   -7.5223105    834.54632  0.019318202  0.018648395           13 
 3601000   0.67010082   -7.4934829     835.8176  0.019342257   0.01864267           12 
 3602000   0.66624807   -7.5107722    833.37122  0.019280289  0.018636945            6 
 3603000    0.6859364   -7.5171611    836.41798  0.019345406  0.018631218            8 
 3604000   0.69148698   -7.5020965    836.92687  0.019351805  0.018625508            9 
 3605000   0.68003771   -7.5245973    835.29219   0.01930865   0.01861979            6 
 3606000   0.66211678   -7.5127463    837.75511  0.019360212  0.018614085            6 
 3607000   0.65776888   -7.5226878    836.01834   0.01931472  0.018608385            6 
 3608000   0.68624299   -7.5273073     834.8064  0.019281375  0.018602661           12 
 3609000   0.66625725   -7.5128152    836.51036  0.019315377  0.018596948            9 
 3610000   0.67449834    -7.517743    836.16073  0.019301956  0.018591244            9 
 3611000   0.67333674   -7.5147379    835.54021   0.01928229  0.018585537           13 
 3612000   0.66009927   -7.5239947     834.0748  0.019243143  0.018579831            9 
 3613000   0.67123222   -7.5180891    836.34468  0.019290172   0.01857413           14 
 3614000   0.68292691   -7.5097071    833.91674  0.019228849  0.018568412           12 
 3615000   0.67494467   -7.5430556    835.62281  0.019262859  0.018562679           22 
 3616000   0.67216785   -7.5292326    834.19257  0.019224571  0.018556961           21 
 3617000   0.66292456   -7.5238618    834.88912  0.019235304  0.018551235           29 
 3618000   0.66062366   -7.5378562     834.8692  0.019229528  0.018545504           31 
 3619000   0.66494671   -7.5054023    833.81284   0.01919989  0.018539779           27 
 3620000   0.66800037   -7.5396798    834.32495  0.019206376   0.01853406           21 
 3621000   0.67861892   -7.5272119    834.59981  0.019207397  0.018528346           27 
 3622000   0.67319137   -7.5287867    834.26382  0.019194364  0.018522629           27 
 3623000   0.67527553   -7.5209356     834.0644  0.019184479  0.018516925           42 
 3624000   0.67972319   -7.5276031     833.4827  0.019165809  0.018511225           38 
 3625000   0.67191389   -7.5216643    834.32698   0.01917993  0.018505516           31 
 3626000    0.6741998   -7.5329316    835.22001  0.019195165  0.018499819           35 
 3627000    0.6657029    -7.503366    833.77195  0.019156602  0.018494128           13 
 3628000   0.67510414    -7.519027    835.62211  0.019193819  0.018488431           14 
 3629000   0.66185305   -7.5472884    834.65865  0.019166406  0.018482745           20 
 3630000   0.68299592   -7.5413597    835.72509  0.019185608  0.018477047           21 
 3631000   0.67006382   -7.5267996    835.00079  0.019163701  0.018471347           21 
 3632000   0.67226908   -7.5368395    834.64458  0.019150252  0.018465644           17 
 3633000   0.65991668   -7.5238062    834.01802  0.019130609  0.018459947           18 
 3634000   0.67955532   -7.5380936    834.56615  0.019137914  0.018454264           13 
 3635000   0.65907018   -7.5116942    835.14961  0.019146025  0.018448592           12 
 3636000   0.65553485   -7.5557613    835.76324  0.019154823  0.018442897           11 
 3637000   0.67051543     -7.53613    833.72617  0.019102882  0.018437198           22 
 3638000    0.6815128   -7.5326472    836.99983  0.019172619  0.018431515            7 
 3639000   0.67125786   -7.5365475    834.53725  0.019110957  0.018425838           16 
 3640000   0.67506914   -7.5200565    836.38988   0.01914812  0.018420169            9 
 3641000   0.67418914     -7.53758    834.27479  0.019094452  0.018414477           20 
 3642000   0.67457492   -7.5080512    835.40438  0.019115055  0.018408785           14 
 3643000   0.68296019   -7.5270107    834.22337  0.019082793  0.018403108           20 
 3644000    0.6786781   -7.5209419    835.61082  0.019109285  0.018397423           12 
 3645000   0.67180349    -7.541542    836.29207  0.019119617  0.018391741           12 
 3646000   0.67787164   -7.5451343    833.33683  0.019046828  0.018386056            6 
 3647000   0.65940546   -7.5426078    836.03694  0.019103303  0.018380372            9 
 3648000   0.66863071   -7.5325352    834.17739  0.019055587  0.018374686            6 
 3649000   0.67330967   -7.5515512    834.52679  0.019058345  0.018368988           14 
 3650000   0.67420955   -7.5139496    834.52637  0.019053113  0.018363299            6 
 3651000   0.68163685   -7.5719205    833.44361  0.019023181  0.018357605            6 
 3652000   0.67781656   -7.5367854    834.46762  0.019041339  0.018351903           10 
 3653000   0.65965092    -7.562028    834.56126  0.019038262  0.018346202           22 
 3654000    0.6540151   -7.5507073     834.9318  0.019041503  0.018340515           14 
 3655000   0.66458631   -7.5591395     833.1304  0.018995221  0.018334824           16 
 3656000   0.67042824   -7.5660203    833.48509   0.01899811  0.018329148           17 
 3657000   0.66944712   -7.5264426    833.80645  0.019000238  0.018323473           29 
 3658000   0.67118451   -7.5300376    834.63128  0.019013835  0.018317796            8 
 3659000   0.67633421   -7.5446349    836.21011  0.019044596  0.018312153           16 
 3660000   0.66469574   -7.5363558    835.14673  0.019015181  0.018306496           11 
 3661000   0.66463468   -7.5224629     835.2549  0.019012449  0.018300842           13 
 3662000   0.66450276   -7.5112405    835.62377  0.019015651   0.01829521            6 
 3663000   0.66692631   -7.5261348    835.13982   0.01899945  0.018289559           11 
 3664000   0.66433057   -7.5461051    835.28659  0.018997603  0.018283913           12 
 3665000   0.66536772   -7.5122988    834.55407  0.018975763  0.018278285            8 
 3666000   0.67360991   -7.5464013    834.97373  0.018980127  0.018272633           14 
 3667000   0.65939972   -7.5309859    835.25459  0.018981333  0.018266992           12 
 3668000    0.6745046   -7.5281084     835.5488  0.018982843  0.018261342           13 
 3669000   0.66950403   -7.5306866    835.44991  0.018975423  0.018255683           17 
 3670000   0.66246613   -7.5366503    834.22362  0.018942407  0.018250042           10 
 3671000   0.65165872   -7.5359608    834.85207  0.018951514  0.018244398            8 
 3672000   0.65661075   -7.5395319    835.38825  0.018958521  0.018238756           11 
 3673000   0.66531072    -7.544625    835.80472  0.018962808  0.018233119           12 
 3674000    0.6571287   -7.5524852    835.92872  0.018960459  0.018227484           23 
 3675000   0.66231133   -7.5113927    834.51315  0.018923201   0.01822186           13 
 3676000   0.65296427   -7.5487408    834.42735  0.018916108  0.018216237           18 
 3677000   0.66159973   -7.5313793    835.97187  0.018945968  0.018210604           14 
 3678000   0.66118011   -7.5344162    834.90444  0.018916631  0.018204977           13 
 3679000   0.66655806   -7.5301649    834.77038  0.018908453  0.018199353           14 
 3680000   0.65843648   -7.5559906    834.53376  0.018897957  0.018193746            6 
 3681000   0.67089334   -7.5546103    835.59113   0.01891676  0.018188121           15 
 3682000   0.66613973   -7.5622076    836.01742  0.018921271  0.018182509           15 
 3683000   0.65560521   -7.5410245    834.96942  0.018892421  0.018176867           13 
 3684000   0.66726787    -7.516553    836.50961  0.018922132  0.018171247           13 
 3685000   0.66651586   -7.5624073    835.45974  0.018893255  0.018165624           37 
 3686000   0.66778058   -7.5633978    835.33792  0.018885375  0.018160003           15 
 3687000   0.65925484   -7.5399974    835.27942  0.018878931  0.018154379           13 
 3688000    0.6638469   -7.5408497    834.76483  0.018862184  0.018148763           15 
 3689000   0.65404656   -7.5218115    836.66371  0.018899966  0.018143153            7 
 3690000   0.66310358   -7.5490355    835.86519  0.018876811   0.01813753           10 
 3691000   0.66559505   -7.5484341    833.76935  0.018824378  0.018131909           13 
 3692000   0.67378342   -7.5637163     834.9058   0.01884493  0.018126285           11 
 3693000   0.64910281   -7.5437347    835.16008  0.018845566  0.018120657            8 
 3694000   0.65732398   -7.5299161    834.26812  0.018820342  0.018115053            6 
 3695000   0.66357957   -7.5597936    835.38713  0.018840485  0.018109438           15 
 3696000   0.64285261   -7.5421378    835.64797  0.018841269   0.01810383           10 
 3697000   0.65399411    -7.539958    835.45936  0.018831921  0.018098218           12 
 3698000   0.66012304   -7.5519143    834.79404  0.018811836  0.018092611            9 
 3699000   0.66128421   -7.5467566    834.23129  0.018794073  0.018087006           11 
 3700000    0.6614429   -7.5565061    833.52572  0.018773102  0.018081411           17 
 3701000   0.66558998   -7.5557349    833.44728  0.018766263  0.018075794           14 
 3702000   0.64839217   -7.5424714    834.55846  0.018786207  0.018070179           15 
 3703000    0.6803622   -7.5721856    834.54771  0.018780892  0.018064572           15 
 3704000   0.67351663   -7.5581454    835.55253  0.018798428  0.018058962            9 
 3705000   0.65212744   -7.5624181    835.50465  0.018792277  0.018053358           27 
 3706000   0.66867701    -7.572273    835.66713   0.01879086  0.018047759            9 
 3707000    0.6561827   -7.5669397    833.13197  0.018728801  0.018042143           13 
 3708000   0.67499178    -7.587494    834.09888   0.01874548  0.018036528            9 
 3709000   0.65757169   -7.5550114    834.41088  0.018747436  0.018030912           10 
 3710000   0.65725134   -7.5453917    834.31076  0.018740134  0.018025326           13 
 3711000   0.65958388   -7.5382346    835.14709  0.018753864  0.018019729            7 
 3712000   0.64986947   -7.5507762    834.89355   0.01874312  0.018014129           10 
 3713000   0.66222792   -7.5681677    835.45099  0.018750583  0.018008527            6 
 3714000   0.65365634   -7.5787042     834.7473  0.018729745  0.018002928           16 
 3715000   0.66102669   -7.5367293    835.72593  0.018746656  0.017997321           11 
 3716000    0.6712723   -7.5660951     834.6311  0.018717059  0.017991716            9 
 3717000   0.65764171    -7.578078    835.06627   0.01872178  0.017986112            6 
 3718000   0.66255932   -7.5434538    834.39713  0.018701747  0.017980527            9 
 3719000   0.65397616   -7.5802603    833.95788  0.018686875   0.01797493           11 
 3720000   0.65718897   -7.5770251    834.25344  0.018688473  0.017969339           13 
 3721000   0.66606802   -7.5612617    834.95841  0.018699239  0.017963738            9 
 3722000   0.65875328    -7.552608     835.7381  0.018711672  0.017958133           11 
 3723000   0.65206273   -7.5815965      834.022  0.018668234  0.017952524           11 
 3724000   0.67070031    -7.585492    833.09134  0.018642395   0.01794692            7 
 3725000     0.646403   -7.5657696     835.6671  0.018695013  0.017941321            9 
 3726000   0.66021094   -7.5641629     834.4728  0.018663285   0.01793572           10 
 3727000   0.66145726   -7.5865283    835.09171  0.018672116  0.017930125            9 
 3728000   0.64943428   -7.5828262    834.76594  0.018659825  0.017924534           10 
 3729000   0.67127562   -7.5910061    833.96039  0.018636819  0.017918934           21 
 3730000   0.65412267   -7.5669945    834.17197   0.01863655  0.017913333           13 
 3731000   0.64163952   -7.5762989     833.9425   0.01862643  0.017907746            8 
 3732000     0.653643   -7.5965365    835.81907  0.018663341  0.017902171           19 
 3733000   0.66534262   -7.5717626    834.48787  0.018628625  0.017896591           12 
 3734000   0.65033736   -7.5557072    834.84653   0.01863164  0.017891009           13 
 3735000     0.654178   -7.5623328    836.74775  0.018669071  0.017885427           10 
 3736000   0.63837017   -7.6142009     834.4362  0.018612513  0.017879843           12 
 3737000   0.66798028   -7.5807806    831.99993  0.018553205  0.017874252           12 
 3738000    0.6466521   -7.5914389    833.86726  0.018589871  0.017868661           13 
 3739000   0.66584708   -7.5853529    833.36029    0.0185736  0.017863081           11 
 3740000   0.64751825   -7.6069319    833.72691  0.018576803  0.017857507           20 
 3741000   0.67066742   -7.5920034    835.33706  0.018607704  0.017851932           22 
 3742000   0.65619851   -7.5843918    836.56311  0.018630035  0.017846352           20 
 3743000   0.64890062   -7.5950602    834.20135  0.018572476  0.017840771           18 
 3744000   0.64441153   -7.5640448    834.57373  0.018575804  0.017835202           18 
 3745000   0.66229788   -7.5903428    833.81084  0.018553868  0.017829636           19 
 3746000   0.65399392   -7.5819628    834.83169  0.018571625  0.017824065           26 
 3747000   0.64263382   -7.5833775     835.1518  0.018573788  0.017818503           12 
 3748000     0.653121   -7.5756459    835.40954  0.018574563  0.017812948           14 
 3749000   0.65230385   -7.5799672    833.37936  0.018524481  0.017807377            6 
 3750000   0.64208918    -7.585491    834.63567  0.018547459  0.017801809           13 
 3751000   0.65014116   -7.5670438    834.76571  0.018545404  0.017796242           14 
 3752000   0.65148628   -7.5786951    833.60008  0.018514572  0.017790685            8 
 3753000   0.64232044   -7.5742227    834.04976  0.018519623  0.017785128           16 
 3754000   0.66362943   -7.5844819    834.60107  0.018526928  0.017779574           13 
 3755000   0.64703487   -7.5892193    834.04715  0.018509701  0.017774015           28 
 3756000   0.65768451   -7.5712591    836.91626   0.01856843  0.017768464           14 
 3757000   0.63881708   -7.5708372    834.76883  0.018515856  0.017762923           10 
 3758000   0.65187721   -7.5823314    834.42631  0.018503333  0.017757381            6 
 3759000   0.63087134   -7.5616644    837.22687  0.018560496  0.017751838           12 
 3760000   0.64374958   -7.5906388    836.30928  0.018535223  0.017746281           14 
 3761000   0.64673827   -7.5805107    834.26745  0.018485054  0.017740727           11 
 3762000   0.63805023   -7.5764622    832.93678  0.018450664  0.017735176           13 
 3763000   0.65322589   -7.5845222    833.04142  0.018448078  0.017729623           12 
 3764000   0.63301241   -7.5741183    833.94339  0.018463146  0.017724065            8 
 3765000   0.64104078   -7.5848314    834.51696  0.018470938  0.017718514            7 
 3766000   0.65161498   -7.5971313    833.29123   0.01843891  0.017712959            5 
 3767000   0.64858453   -7.5770895    833.56217  0.018440009   0.01770741            9 
 3768000   0.65365103   -7.5957933    834.72279  0.018460783  0.017701867           12 
 3769000   0.64534089   -7.5780673    835.49115  0.018472874  0.017696323            7 
 3770000   0.64199222   -7.5880272    835.34799   0.01846481  0.017690786            6 
 3771000    0.6395127   -7.5722024    833.54632  0.018420099  0.017685234            7 
 3772000   0.65400819    -7.574369     834.7517  0.018441846  0.017679702            6 
 3773000    0.6488924   -7.5847172    834.66689  0.018435085  0.017674182            6 
 3774000   0.65433652   -7.5580797    834.32134   0.01842257  0.017668668           27 
 3775000   0.64911869   -7.5754163    835.01323  0.018432963  0.017663147           12 
 3776000      0.65817   -7.6079809    834.60434  0.018419058   0.01765761           10 
 3777000   0.65675808   -7.5929038    835.94186  0.018443691  0.017652088            9 
 3778000    0.6523486   -7.5407305    835.43033  0.018427526  0.017646578            6 
 3779000   0.65256589   -7.5715907    836.33469  0.018442593  0.017641086            9 
 3780000   0.65531217    -7.598983    834.66537  0.018400912  0.017635573            5 
 3781000    0.6549895   -7.5689456    834.56024  0.018393728  0.017630069           26 
 3782000   0.64214104   -7.5898349    835.62948  0.018412425  0.017624558            6 
 3783000   0.65717293   -7.5993241    835.47901  0.018404243  0.017619055           20 
 3784000    0.6564006   -7.5860452    835.04549  0.018389832  0.017613554           14 
 3785000   0.64202173   -7.6064983     835.7677  0.018400874  0.017608055           12 
 3786000   0.64695232   -7.5769843    835.44728  0.018388961  0.017602544           27 
 3787000   0.65158878   -7.5622632    834.39272    0.0183609  0.017597052            7 
 3788000   0.65495003   -7.5708442    836.01852  0.018391819  0.017591574           20 
 3789000    0.6383453    -7.592465    835.12504  0.018367314  0.017586076            9 
 3790000   0.66291682   -7.5858645    836.14938  0.018384991  0.017580582           15 
 3791000   0.64652068   -7.5857691    836.52486  0.018388395  0.017575082            8 
 3792000     0.643386    -7.604913    834.42003   0.01833729  0.017569585           23 
 3793000   0.63748847    -7.561835    835.14271  0.018348333  0.017564081           10 
 3794000   0.66107989   -7.5855978    834.17007  0.018322133  0.017558584            7 
 3795000   0.65343781   -7.6110438    834.09543  0.018315666  0.017553089           15 
 3796000   0.64146281   -7.6306099    833.78756  0.018304082  0.017547584           13 
 3797000   0.63481133   -7.6078941    832.99778  0.018281928  0.017542076           18 
 3798000   0.65146043   -7.5954405    834.00891    0.0182993  0.017536574           16 
 3799000    0.6487273   -7.5952425    834.46324  0.018304449  0.017531074            9 
 3800000   0.64369889   -7.5984957    833.53386  0.018279251  0.017525573            9 
 3801000   0.63978258   -7.6141926    834.14769    0.0182879  0.017520073            9 
 3802000   0.64773229   -7.5879315     835.8504   0.01832041  0.017514578            6 
 3803000    0.6488153   -7.6350076    834.43123  0.018284495  0.017509072            8 
 3804000    0.6434341   -7.5813395    833.33036  0.018255572  0.017503585           16 
 3805000    0.6367306   -7.5995739    834.36703  0.018273478   0.01749809            9 
 3806000   0.63171463   -7.5603414    835.88505  0.018301915  0.017492606           15 
 3807000   0.65914283   -7.5998904    836.66584  0.018314198  0.017487136           11 
 3808000   0.64743307   -7.5921466    835.04488  0.018273916   0.01748167           18 
 3809000   0.64035905   -7.6085491     834.7464  0.018262589  0.017476209            5 
 3810000   0.63590527    -7.586284    835.82773  0.018281447  0.017470747           13 
 3811000   0.63888993   -7.5867927    836.49039   0.01829114  0.017465295           11 
 3812000    0.6432768   -7.5885027    835.41055  0.018262735  0.017459843           11 
 3813000   0.63281969   -7.5938698    835.57362  0.018261509  0.017454385           18 
 3814000     0.648154   -7.5884518    833.63163   0.01821429   0.01744894           11 
 3815000   0.62087556   -7.5901205    835.92733  0.018259662  0.017443488           10 
 3816000   0.63124859    -7.580129    835.47074  0.018244906  0.017438049            9 
 3817000   0.64708712   -7.6036567    836.42614  0.018260985  0.017432616           15 
 3818000   0.64498536   -7.5990517    836.25623  0.018252493  0.017427187           18 
 3819000   0.63353182   -7.5686311    837.13222  0.018266829   0.01742175           14 
 3820000   0.64089722   -7.5777813    836.17912  0.018241255   0.01741632           16 
 3821000   0.64166505   -7.6275709    835.85674   0.01822945  0.017410886           26 
 3822000   0.64364654   -7.5810822    834.55895  0.018196384  0.017405453           13 
 3823000   0.64983918   -7.6129746    835.79314  0.018218527  0.017400028           13 
 3824000   0.64405673   -7.5886533    835.65816  0.018210821  0.017394623           10 
 3825000   0.64351658   -7.5955033    834.84238  0.018188287  0.017389215            8 
 3826000   0.63720331   -7.5830694     835.1974  0.018191266  0.017383817           15 
 3827000   0.65293398    -7.603071    837.37394  0.018233907   0.01737842           14 
 3828000   0.64180738   -7.5714369    836.71887  0.018214883  0.017373025           23 
 3829000   0.63865707   -7.6009631    836.74182  0.018210626  0.017367623           21 
 3830000   0.63406221   -7.5776297    834.88081  0.018165379  0.017362224           19 
 3831000   0.64687127   -7.5989321    837.93598  0.018227094   0.01735682           20 
 3832000   0.62705368   -7.5765697    835.36606  0.018166451  0.017351416           12 
 3833000   0.62885275   -7.5680564      837.842  0.018215541  0.017346029           18 
 3834000   0.63963697   -7.5856681     836.8116  0.018188393  0.017340653           16 
 3835000    0.6437385   -7.5794855    835.45715  0.018154219  0.017335263           10 
 3836000   0.63841804   -7.5724916    835.54632  0.018151423  0.017329868           16 
 3837000   0.63655746   -7.5951829    836.00426  0.018156638  0.017324458            9 
 3838000   0.64756747   -7.6142104    834.56919  0.018120748  0.017319054           11 
 3839000   0.63409096   -7.6060369    834.24081    0.0181089  0.017313657           10 
 3840000     0.634381   -7.6095628    835.00247  0.018120713  0.017308252           12 
 3841000   0.62843938   -7.5981451    835.15575  0.018119321  0.017302841           21 
 3842000   0.63430375   -7.6457539     834.9935  0.018111086  0.017297424           21 
 3843000   0.63569245   -7.6107565    834.59731  0.018097782  0.017292013           24 
 3844000   0.64045683   -7.5933031    836.79184  0.018140649  0.017286616           18 
 3845000   0.64258257   -7.6255794    835.34777  0.018104633  0.017281222           18 
 3846000   0.62843888   -7.6197497    836.83512  0.018132153  0.017275825           14 
 3847000   0.63039664    -7.605014    836.67011  0.018123865  0.017270434           11 
 3848000   0.64971112   -7.6105141    836.82877  0.018122591  0.017265055           11 
 3849000   0.63191128   -7.6293044    834.75042  0.018072885  0.017259659           23 
 3850000   0.63583007   -7.6151091    834.86313  0.018070631  0.017254262           33 
 3851000   0.63331633   -7.5917134    837.14802  0.018115382  0.017248872           16 
 3852000   0.63111813   -7.6256999    836.25907  0.018091448  0.017243498           12 
 3853000   0.64460909   -7.6451094    836.38231  0.018089417  0.017238113           18 
 3854000   0.65199334    -7.630428    835.71519  0.018070299  0.017232743           29 
 3855000   0.63848451   -7.6251256    835.94505   0.01807058  0.017227365           17 
 3856000   0.63047176   -7.6323878    834.79136  0.018040961  0.017221987           21 
 3857000   0.64112863   -7.6160131    834.95209  0.018039757   0.01721662           29 
 3858000   0.62642885   -7.5840228    835.73197  0.018051926  0.017211272           27 
 3859000   0.63269935   -7.5972764     836.1137  0.018055491  0.017205911           14 
 3860000   0.63374761   -7.6172379    835.34267  0.018034168  0.017200547           29 
 3861000   0.63935109   -7.6271679    834.24568  0.018005821  0.017195185           23 
 3862000   0.65120966   -7.6114801    836.64633  0.018052959  0.017189829           21 
 3863000   0.63011947   -7.6174157    837.08415   0.01805773   0.01718447           25 
 3864000   0.62822006   -7.6186424     837.0225  0.018051727  0.017179108           23 
 3865000   0.63014327   -7.6071384    836.47951   0.01803535  0.017173766           29 
 3866000    0.6327483   -7.5880929    837.58584  0.018054532  0.017168431           20 
 3867000    0.6318546   -7.6238445     836.7049  0.018030879  0.017163104           28 
 3868000    0.6456969   -7.6140934    837.07982  0.018034295  0.017157765           18 
 3869000   0.64128031   -7.6167027    837.44915  0.018037588  0.017152419           20 
 3870000   0.63116657   -7.6344145    835.35176  0.017987764  0.017147069           37 
 3871000   0.62000288   -7.6081212     838.0076  0.018040291  0.017141731           21 
 3872000   0.63546934   -7.6122412    836.50893  0.018003377  0.017136405           25 
 3873000   0.63966375    -7.596575    837.06618  0.018010719  0.017131081           18 
 3874000   0.63235281   -7.6183655    836.38876  0.017991498  0.017125751           34 
 3875000   0.64082951   -7.6077673    836.28139  0.017984546  0.017120426           25 
 3876000   0.64317402   -7.6147031    836.78286  0.017990688  0.017115096           18 
 3877000   0.63378069   -7.6126627    835.92828  0.017967679  0.017109762           22 
 3878000   0.63392011    -7.604838     836.2337  0.017969608   0.01710444           15 
 3879000   0.63623358    -7.619896    835.71822  0.017953902  0.017099111           25 
 3880000    0.6309531   -7.6296589    836.75888  0.017971625   0.01709378           24 
 3881000   0.63155707   -7.6162439    835.65106  0.017943208  0.017088446           21 
 3882000   0.64212249   -7.6137422    835.61526  0.017937817  0.017083129           18 
 3883000   0.64022976   -7.6182001    836.86142  0.017959941  0.017077818           15 
 3884000   0.62785093   -7.6159971    836.11121  0.017939221  0.017072515           20 
 3885000    0.6325905   -7.6067775     835.5959   0.01792355  0.017067215           30 
 3886000    0.6210591   -7.6387635    836.62317  0.017940967  0.017061903           30 
 3887000   0.61531569   -7.6105434    837.93842  0.017964549  0.017056608           32 
 3888000   0.63750587   -7.6391539    839.29753  0.017989059   0.01705132           18 
 3889000   0.61635689   -7.6111567    837.56641  0.017947339  0.017046028           19 
 3890000   0.63156636   -7.6222395    836.18577  0.017913148  0.017040732           23 
 3891000   0.63672918   -7.6236011    837.00018  0.017925987  0.017035431           30 
 3892000   0.62923303    -7.624709    834.82823  0.017874876  0.017030142           25 
 3893000    0.6289567   -7.6305995    838.83544  0.017956063  0.017024863           19 
 3894000   0.63162427   -7.6353506    836.14452  0.017893865  0.017019569           14 
 3895000   0.64742219   -7.6323757    837.10687   0.01790986  0.017014284           17 
 3896000   0.63209262   -7.6041315    838.36206  0.017932111  0.017009008           35 
 3897000   0.63131967   -7.6103567    836.44663   0.01788655  0.017003736           50 
 3898000   0.64520867   -7.6126723    837.56409  0.017905851  0.016998458           28 
 3899000   0.63114734    -7.592373     837.1259  0.017891893  0.016993186           26 
 3900000   0.61778707   -7.6129354    838.33136  0.017913063  0.016987919           35 
 3901000   0.62568411   -7.6223423     837.2965  0.017886365  0.016982633           70 
 3902000   0.62688804   -7.6288435    836.74004  0.017869897  0.016977345           60 
 3903000   0.63967141   -7.6332756     838.4442  0.017901704   0.01697206           52 
 3904000   0.62395742   -7.6416138    837.06521  0.017867683  0.016966774           56 
 3905000   0.63197805   -7.6407532    837.86687  0.017880215  0.016961486           27 
 3906000   0.63465424   -7.6459323    837.05578  0.017858333  0.016956208           18 
 3907000   0.62066398   -7.6286354     837.5426  0.017864145  0.016950924           28 
 3908000   0.61785909   -7.6343198    837.14369  0.017851068  0.016945645           18 
 3909000   0.62658766   -7.6448763    837.64245  0.017857134  0.016940371           18 
 3910000   0.63211655   -7.6464418     837.7887  0.017855684  0.016935099           22 
 3911000   0.62456288   -7.6282698    838.11666  0.017858107  0.016929828           13 
 3912000   0.63325384    -7.646474     837.7526  0.017845787  0.016924569           12 
 3913000   0.63416254   -7.6507852    836.03234   0.01780459  0.016919298           23 
 3914000   0.63456223   -7.6330069    837.13591  0.017823537  0.016914022           10 
 3915000   0.62990236   -7.6523203    836.69284  0.017809554  0.016908757           43 
 3916000   0.63558805   -7.6288217    836.45932  0.017800037   0.01690349           21 
 3917000   0.62581997   -7.6206638    838.10254  0.017830451  0.016898233           18 
 3918000   0.62025184   -7.6322698    835.50332  0.017770617   0.01689298           14 
 3919000   0.63274187   -7.6345691    839.28238   0.01784644  0.016887738           50 
 3920000   0.62949177   -7.6122081    837.23683  0.017798402  0.016882497           30 
 3921000   0.62223963   -7.6509516    836.90088  0.017786723  0.016877262           37 
 3922000   0.63973163   -7.6540378    837.45643  0.017793992  0.016872013           23 
 3923000   0.63608132   -7.6366005    836.76873  0.017774848  0.016866771           33 
 3924000   0.61203161   -7.6170021    837.40749  0.017783883  0.016861532           25 
 3925000    0.6249154   -7.6358955     836.3741  0.017757412  0.016856301           30 
 3926000     0.624477   -7.6338874    838.06238  0.017788724  0.016851064           30 
 3927000   0.62959875   -7.6272372    838.03663  0.017783648  0.016845833           19 
 3928000   0.62948652   -7.6423834     836.7063  0.017750897  0.016840593           26 
 3929000   0.62147815   -7.6444627    836.90829  0.017750664  0.016835341           24 
 3930000   0.62799172   -7.6335437    837.56958  0.017760169  0.016830104           19 
 3931000   0.63372197   -7.6387133    836.94728  0.017742459  0.016824863           16 
 3932000   0.63986241   -7.6239716    836.73317  0.017733409  0.016819627           14 
 3933000   0.62744707   -7.6537005    836.11283  0.017715756  0.016814388           24 
 3934000   0.61242623   -7.6471683     837.1444  0.017733104   0.01680915           16 
 3935000   0.62149598    -7.635753    836.58132  0.017716673  0.016803908           11 
 3936000   0.61787596   -7.6509228    837.27358  0.017726829  0.016798684           16 
 3937000   0.62709481   -7.6552585    836.94377  0.017715345  0.016793442           19 
 3938000   0.61801234   -7.6472509    837.06219  0.017713352  0.016788208           13 
 3939000   0.62775156   -7.6520929    837.45914  0.017717253  0.016782986           46 
 3940000   0.61955314   -7.6454214    836.02557  0.017682436  0.016777752           14 
 3941000   0.61934341   -7.6358986    837.27065  0.017704277  0.016772527           27 
 3942000   0.62315405   -7.6354969    837.42577  0.017703065    0.0167673           17 
 3943000   0.60680599    -7.663632    836.31348  0.017675067  0.016762081           10 
 3944000   0.62024646    -7.631034    836.92748  0.017683559   0.01675686           16 
 3945000   0.62246099   -7.6525108     836.0094  0.017659683  0.016751644           18 
 3946000    0.6204076   -7.6614354    837.86136  0.017694318  0.016746431           14 
 3947000   0.61133921   -7.6295602    836.27652  0.017656375  0.016741209           15 
 3948000   0.61333158   -7.6316857    837.38619  0.017675325  0.016735995            7 
 3949000   0.62069676   -7.6561227    837.43531  0.017671885  0.016730783           12 
 3950000   0.62777229   -7.6284965    837.80916  0.017675299  0.016725568           22 
 3951000   0.61308607   -7.6321899    837.62705  0.017666984  0.016720361           12 
 3952000   0.63260294   -7.6192798     838.5363  0.017681686  0.016715168           16 
 3953000   0.61868965    -7.632398    837.31124  0.017651388  0.016709977            7 
 3954000   0.62339844   -7.6454724    835.38314  0.017606288  0.016704784            6 
 3955000   0.61390944   -7.6264934    836.76755  0.017631006   0.01669959           11 
 3956000   0.61108836   -7.6596411    837.39238  0.017639711  0.016694396           11 
 3957000   0.62319993   -7.6479723    839.06883  0.017670559  0.016689209           13 
 3958000   0.62035981   -7.6546124     837.6478  0.017636176  0.016684028           14 
 3959000   0.60782973   -7.6573312    836.37696  0.017604971  0.016678841           23 
 3960000   0.62214984   -7.6498316    837.86816  0.017631906  0.016673652           23 
 3961000   0.62649205   -7.6790077    837.83286  0.017626712  0.016668456           22 
 3962000   0.60928882   -7.6722682    837.41908   0.01761356  0.016663258           13 
 3963000   0.61537903   -7.6314061    837.49473  0.017610706  0.016658071            8 
 3964000   0.60484642   -7.6295811    837.01102  0.017596094  0.016652884            7 
 3965000   0.63228508   -7.6514776    837.47927  0.017601498    0.0166477            9 
 3966000   0.61824098   -7.6668618    836.74746  0.017581683  0.016642516           21 
 3967000    0.6319122   -7.6661557    837.95337  0.017602583  0.016637325           16 
 3968000    0.6292281   -7.6640528    838.14191  0.017602107  0.016632142           16 
 3969000   0.60884979   -7.6626886    836.21843  0.017557286  0.016626951           23 
 3970000   0.61288872   -7.6643883    838.19108  0.017594271  0.016621784           12 
 3971000   0.61351567   -7.6566809    835.10682  0.017525116   0.01661661           16 
 3972000   0.60316933   -7.6459597    836.39712  0.017547774  0.016611431           18 
 3973000   0.62377041   -7.6614809    837.11702  0.017558458  0.016606262           10 
 3974000   0.61225198    -7.642837     836.5838  0.017542858  0.016601092            9 
 3975000   0.60819124   -7.6685591    836.03014  0.017526837  0.016595922           17 
 3976000   0.61761988   -7.6423461    836.80549   0.01753868  0.016590759           10 
 3977000   0.62131139   -7.6535532    838.74761  0.017574965  0.016585589            9 
 3978000   0.61883614   -7.6389723    838.88849  0.017573498  0.016580431            8 
 3979000   0.61693231   -7.6630465     836.5622  0.017520361  0.016575275           18 
 3980000    0.6209401   -7.6413261     836.8473  0.017521928  0.016570117           25 
 3981000   0.62224188   -7.6558692    837.99263  0.017541502  0.016564962           20 
 3982000   0.60847506   -7.6607751    837.12707  0.017518983  0.016559805            9 
 3983000   0.61510863   -7.6393303    837.20209  0.017516154  0.016554652           13 
 3984000    0.6123435   -7.6769547    836.42512  0.017495505   0.01654951           11 
 3985000   0.63840964   -7.6368171    837.58352  0.017515339  0.016544362           10 
 3986000   0.60750215   -7.6378746    836.39979  0.017486197  0.016539216           18 
 3987000    0.6189152   -7.6451404    837.18121  0.017498144   0.01653407            8 
 3988000   0.61648957   -7.6515558    838.26408  0.017516384  0.016528932           10 
 3989000   0.62889356   -7.6572698     836.4773  0.017474666  0.016523786            9 
 3990000    0.6099643   -7.6478018    837.65428  0.017494868  0.016518653            8 
 3991000   0.61726199   -7.6367853    839.02163  0.017519035  0.016513522            8 
 3992000   0.60383451   -7.6517031    836.11628  0.017453997  0.016508378           11 
 3993000   0.62259607   -7.6525923    839.33105  0.017516718  0.016503243           17 
 3994000   0.60333125   -7.6251146    837.10353  0.017465856  0.016498115           17 
 3995000   0.61414831   -7.6602908    837.97888  0.017479743  0.016492984            9 
 3996000   0.60199606   -7.6544788    838.84185  0.017493365  0.016487856           14 
 3997000   0.61008711   -7.6382272    837.20575  0.017454878  0.016482726           14 
 3998000    0.6153965   -7.6349243    837.49486  0.017456538  0.016477606           18 
 3999000   0.60333695   -7.6364819    837.41936  0.017450599  0.016472492           13 
 4000000   0.60708492   -7.6538127    838.36675  0.017465974  0.016467394           13 
 4001000   0.60247559   -7.6425541    838.06654  0.017455356  0.016462286            9 
 4002000   0.60679656   -7.6255484    836.96146  0.017427983  0.016457168           13 
 4003000    0.6116086   -7.6461188    837.31006  0.017430886  0.016452049           14 
 4004000   0.60949565   -7.6890693    836.59469  0.017411644  0.016446924           27 
 4005000   0.61325324   -7.6524356    836.58358  0.017407066   0.01644179            8 
 4006000   0.60954526   -7.6773294    835.64651  0.017383227  0.016436649           13 
 4007000   0.61921257   -7.6449994    838.29436  0.017433956   0.01643152           12 
 4008000   0.61984398   -7.6480896    837.23968  0.017407678  0.016426391           19 
 4009000   0.62382584   -7.6699631    835.58479  0.017368936  0.016421268           16 
 4010000   0.59775409    -7.641845    836.00543  0.017373346  0.016416141            6 
 4011000   0.61831926   -7.6822272    837.29147  0.017395734  0.016411008            9 
 4012000   0.59048131   -7.6563081    836.75398  0.017380234  0.016405879            9 
 4013000   0.60140397   -7.6631752    837.06678  0.017382398  0.016400742           10 
 4014000   0.61900774   -7.6551483    837.13126  0.017379407  0.016395607           19 
 4015000   0.61097569    -7.673165    836.06751  0.017352999  0.016390477            6 
 4016000   0.60578159   -7.6790512    834.56642   0.01731753  0.016385347            8 
 4017000   0.61898647    -7.680087    836.69667  0.017357412  0.016380211           11 
 4018000   0.60810883   -7.6883158    837.84537  0.017376916  0.016375086           10 
 4019000   0.61613134   -7.6847687    835.56744   0.01732536   0.01636995            9 
 4020000   0.61373701    -7.660832    835.52019   0.01732007  0.016364826            8 
 4021000   0.60417982   -7.6555553    836.40702  0.017334142    0.0163597           13 
 4022000    0.6143725   -7.6919866    837.32548  0.017348862   0.01635457           14 
 4023000   0.62306844   -7.6756596    836.81131  0.017333899  0.016349433            9 
 4024000   0.59626254   -7.6721303    835.29192  0.017298126  0.016344303            9 
 4025000   0.59205557   -7.6900607    834.44404  0.017276274  0.016339185            9 
 4026000   0.60260988   -7.6846282    837.03993  0.017325715  0.016334063           21 
 4027000   0.59622339   -7.6634664    835.42539  0.017288002  0.016328948           13 
 4028000   0.61292211   -7.6759156    835.14853  0.017277982   0.01632383           24 
 4029000   0.60904258   -7.6851431    835.91938  0.017289637  0.016318712           25 
 4030000   0.60213018   -7.6779702    836.70398  0.017301571  0.016313603           22 
 4031000   0.61047333   -7.6726663    835.14811  0.017265114  0.016308489           14 
 4032000   0.60727209    -7.677643    835.68113  0.017271849  0.016303372           10 
 4033000   0.60521811   -7.6678798    837.43814  0.017303871  0.016298263           12 
 4034000   0.61246481   -7.6500597    835.96648   0.01726918  0.016293157            8 
 4035000   0.60887287   -7.6941307    836.46222  0.017275139  0.016288045           13 
 4036000   0.61026045   -7.6873995    838.53757  0.017313709  0.016282939           14 
 4037000   0.60866911   -7.6774354    835.53375  0.017247415  0.016277831           12 
 4038000   0.60064567   -7.6914099    837.06384   0.01727472  0.016272722           14 
 4039000   0.60557175   -7.6873214    835.84338  0.017245262  0.016267618           13 
 4040000   0.61878187    -7.688626    837.58932  0.017277007  0.016262516           15 
 4041000   0.59683075   -7.6969118    833.94172  0.017197511  0.016257412           12 
 4042000   0.60815721   -7.6808113    836.30867  0.017242056  0.016252307           30 
 4043000   0.60997469   -7.6681383    835.90377  0.017229445  0.016247205           17 
 4044000   0.60948114   -7.6799776    834.92296  0.017204974  0.016242108            8 
 4045000   0.61069612   -7.7120781    835.01867  0.017202692  0.016237005           20 
 4046000   0.60259107   -7.6880292    834.79757  0.017193886  0.016231911           16 
 4047000   0.60323952   -7.6853255    836.34134  0.017221426  0.016226826           15 
 4048000   0.59088301   -7.6639311    835.78282  0.017205674  0.016221746           25 
 4049000    0.5920501   -7.6844824    837.09418  0.017228414  0.016216667           13 
 4050000    0.6189563   -7.6857839    835.58595  0.017193127  0.016211588           12 
 4051000   0.60174467   -7.6981036     835.6585  0.017190375  0.016206499           18 
 4052000   0.59937256   -7.6808408     835.4637  0.017182126  0.016201421           11 
 4053000   0.60478245   -7.6761399    837.34548  0.017216578  0.016196349           15 
 4054000    0.6034763   -7.6817604    837.73812  0.017220402  0.016191284           23 
 4055000    0.5961669   -7.6643278    835.29739  0.017165996  0.016186212           16 
 4056000   0.60241097   -7.6732374     835.5451  0.017166854  0.016181133           10 
 4057000   0.60584056   -7.6817841    835.97338  0.017171419  0.016176071           11 
 4058000   0.59588572   -7.6808049    835.07205  0.017148679  0.016171004           23 
 4059000   0.61567552    -7.683472    835.99787  0.017163461  0.016165926           28 
 4060000    0.6081466   -7.6796545    835.61169  0.017151307  0.016160855           27 
 4061000   0.59969477   -7.6824629    835.58655  0.017146568  0.016155788           17 
 4062000   0.60852631   -7.6727357    835.92267  0.017149242  0.016150723           18 
 4063000   0.61341673   -7.7063656    836.83372  0.017163708  0.016145658           16 
 4064000   0.58859054   -7.7016627    836.78679  0.017158522  0.016140597           21 
 4065000   0.59731212   -7.6911381    836.91012  0.017156829   0.01613554           23 
 4066000   0.59836121   -7.6699645    836.40112  0.017142177  0.016130483           40 
 4067000   0.59637754   -7.6985931    837.53548  0.017161206   0.01612542           17 
 4068000   0.60697263   -7.6789825     837.0819  0.017147695  0.016120368           15 
 4069000   0.60111442   -7.6903669    834.65824  0.017093844  0.016115314           17 
 4070000   0.59845497   -7.6877344    836.41656  0.017125646  0.016110264           52 
 4071000   0.60520384   -7.6933905    837.37073  0.017140971  0.016105211           61 
 4072000   0.59371463    -7.708467    835.66045  0.017101761  0.016100159           24 
 4073000   0.59376121   -7.6886345    837.60152  0.017137276  0.016095106           27 
 4074000   0.60138438   -7.7125431    835.58238  0.017091768  0.016090061           65 
 4075000    0.6084175    -7.701046    835.28495  0.017081492  0.016085017           27 
 4076000   0.60897447   -7.7090374    835.86765  0.017089214   0.01607998           23 
 4077000   0.59683064   -7.6884112    836.84858  0.017105073  0.016074946           41 
 4078000   0.59962608   -7.6927025     835.8107  0.017079669  0.016069909           71 
 4079000   0.60438382   -7.7064256    836.75434  0.017094761  0.016064874           34 
 4080000   0.59629287   -7.6995885    835.84401  0.017071977  0.016059838           22 
 4081000   0.60315025   -7.7151065    836.04021    0.0170718  0.016054809           39 
 4082000   0.58791515   -7.6948922    836.64183    0.0170799  0.016049776           67 
 4083000   0.59835058    -7.708314    835.45909  0.017051577  0.016044746           49 
 4084000   0.61184704   -7.6685408    837.35352  0.017086058  0.016039724           56 
 4085000   0.59763147   -7.7101832    834.71149  0.017027978  0.016034692           34 
 4086000   0.59222757   -7.7257822    834.93172  0.017028302  0.016029658           63 
 4087000    0.5875266   -7.7057518     836.6522  0.017059216  0.016024615           72 
 4088000    0.5910592   -7.7101293    835.71797  0.017035999  0.016019587           55 
 4089000   0.59284088   -7.6912469    835.76831  0.017032859  0.016014562           58 
 4090000   0.59897254   -7.6823075    835.28279  0.017018802  0.016009533           45 
 4091000   0.58546124   -7.7199293    836.87635  0.017047102  0.016004509           23 
 4092000   0.58068622   -7.6885503    834.45157  0.016993556  0.015999489           32 
 4093000   0.59080682   -7.7003759     835.7256  0.017015343  0.015994482           21 
 4094000   0.58845543   -7.6830402    836.14763  0.017019777  0.015989471           18 
 4095000   0.61448345   -7.6949475    837.29042  0.017038877  0.015984458           67 
 4096000   0.60764138   -7.6918838    835.91261  0.017006685  0.015979452           36 
 4097000   0.60169242   -7.7129536    835.39981  0.016992104  0.015974438           16 
 4098000   0.60717952   -7.7057903     835.8058  0.016996214  0.015969433           26 
 4099000    0.6047713   -7.6917451      836.033  0.016996686  0.015964433           27 
 4100000   0.59691069   -7.7050684    834.98902  0.016971322  0.015959429           10 
 4101000    0.6010942   -7.7140693    835.88668  0.016985424  0.015954419           26 
 4102000   0.59552442   -7.7146474    835.27423  0.016968841  0.015949422           21 
 4103000   0.60197825   -7.6963103    836.36189  0.016986796  0.015944423           14 
 4104000   0.59165315   -7.7074936     836.0723  0.016976777  0.015939434           24 
 4105000   0.59893945   -7.6862046    835.92617  0.016969675  0.015934439           24 
 4106000   0.59767455   -7.7039711    837.47011  0.016996877  0.015929448           15 
 4107000   0.57965754   -7.6909783    836.13533  0.016965655  0.015924454           14 
 4108000   0.59517191   -7.7199121    835.51474  0.016948936  0.015919461           19 
 4109000   0.60620061   -7.7215356    836.41089  0.016962985  0.015914468           23 
 4110000   0.59011293   -7.7163723    836.14281  0.016953423  0.015909471           13 
 4111000   0.59311732   -7.7243073    835.83943  0.016943149  0.015904484           21 
 4112000   0.60001941   -7.7296845    835.66557  0.016935505  0.015899496           14 
 4113000   0.59218996   -7.7246706     836.4242  0.016946758   0.01589451           24 
 4114000   0.58457036   -7.7209842    836.63056  0.016946819  0.015889519           18 
 4115000   0.59229347   -7.7148359    835.16117  0.016912944  0.015884531           19 
 4116000   0.57416386   -7.7281809    836.05786  0.016926989  0.015879539           18 
 4117000   0.59118907   -7.7097609    835.48919  0.016911367  0.015874554           23 
 4118000   0.59087911   -7.6945066      835.855  0.016914663  0.015869579           29 
 4119000   0.59494724   -7.7086519    835.37821  0.016900911  0.015864599           37 
 4120000   0.60831093   -7.6931075    835.81046  0.016905551  0.015859622           18 
 4121000   0.58100469   -7.7212233    835.65867   0.01689838  0.015854649           17 
 4122000   0.58759267   -7.7125872    835.46494  0.016890363  0.015849674           16 
 4123000   0.58981655   -7.6797674    836.87668  0.016914801  0.015844706           20 
 4124000   0.59955837   -7.6954528    836.31669  0.016899383  0.015839746           21 
 4125000   0.59298013   -7.6814718    836.14761  0.016891871   0.01583479           20 
 4126000   0.58222322   -7.7040279    835.63871  0.016877499  0.015829832           20 
 4127000   0.59182721   -7.7119249    836.12762  0.016883281  0.015824876           21 
 4128000   0.59002355   -7.7242252    836.65949  0.016889928  0.015819921           29 
 4129000   0.59490097   -7.7144006    837.03445  0.016893405  0.015814958           23 
 4130000   0.59746881   -7.7263886     836.7524  0.016883624  0.015809989           23 
 4131000   0.59190238   -7.7102019    835.97705  0.016863896  0.015805018           28 
 4132000   0.58758362   -7.7343385    835.86973   0.01685765  0.015800065           26 
 4133000   0.58238211   -7.7286903    834.37252  0.016823383  0.015795104           20 
 4134000   0.58704672   -7.7164231    834.81789  0.016828292  0.015790146           21 
 4135000   0.58424335   -7.7264942    836.21746  0.016852428  0.015785188           29 
 4136000   0.58896965   -7.7054928    835.11054   0.01682605  0.015780238           16 
 4137000   0.59508921   -7.7096637    836.56273  0.016851235  0.015775291           12 
 4138000   0.59443085   -7.7114721     836.0538  0.016836914  0.015770344           21 
 4139000   0.59560495   -7.7363988    834.11605  0.016793832  0.015765391           20 
 4140000   0.59406403   -7.7275825    836.82991  0.016844402  0.015760441           33 
 4141000   0.59470956   -7.7258483    834.45168  0.016792475  0.015755484           15 
 4142000   0.58274687   -7.7074603    836.77009  0.016835065  0.015750535           18 
 4143000   0.59671916   -7.7022004    835.97577  0.016815025  0.015745593           18 
 4144000    0.6018823   -7.7291569    835.87537  0.016808948  0.015740656           15 
 4145000   0.58766514   -7.7237776    835.59534  0.016799263  0.015735722           13 
 4146000   0.59846915   -7.7477959     835.2667  0.016788606  0.015730788           11 
 4147000   0.59260597   -7.7153141    835.10908   0.01678139  0.015725852           18 
 4148000   0.59417237   -7.7245697    836.64001  0.016808101   0.01572092           18 
 4149000   0.58245727   -7.7255918     834.0328  0.016751683  0.015715984           24 
 4150000   0.58952304   -7.7093538    834.12593  0.016749517  0.015711051            7 
 4151000    0.5909498   -7.7205329    835.33887  0.016769832  0.015706121           18 
 4152000   0.59051695   -7.7237235    837.27736    0.0168047  0.015701195           18 
 4153000   0.58616043   -7.7472306    836.01675  0.016775358  0.015696269           22 
 4154000   0.61159529   -7.7294302    835.63197  0.016763601  0.015691342           14 
 4155000    0.5773725    -7.708893    835.31131  0.016753135   0.01568642           15 
 4156000   0.59982148   -7.7183833    837.05344  0.016784036  0.015681508           13 
 4157000   0.59421134   -7.7044616    835.78327  0.016754536  0.015676593           17 
 4158000   0.57573363   -7.7239716    835.25104   0.01673984  0.015671677           19 
 4159000   0.58321514   -7.7268931     837.3635  0.016778142  0.015666765           13 
 4160000   0.58772489   -7.7198923    835.89657  0.016744723  0.015661846           20 
 4161000   0.58666108   -7.7158311     836.0711  0.016744194  0.015656937           35 
 4162000   0.58502834   -7.7118089     836.0322  0.016739392  0.015652025           15 
 4163000   0.60032072   -7.7301355    836.10602  0.016736849  0.015647121           13 
 4164000   0.58554869   -7.7141171    835.98246  0.016730357  0.015642214           12 
 4165000    0.5969302   -7.7351242    837.77226   0.01676215  0.015637312           14 
 4166000   0.58457237   -7.7173836    836.08589  0.016724394  0.015632411           12 
 4167000   0.59521012   -7.7023645    835.82184    0.0167151  0.015627511           30 
 4168000   0.58559031   -7.7067322    836.85477  0.016731741  0.015622619           21 
 4169000   0.59464974   -7.7296201    836.15235  0.016713687  0.015617728           14 
 4170000   0.58513949   -7.7230518    835.16465  0.016689941  0.015612845           26 
 4171000    0.5838679   -7.7091792     836.6136  0.016714888  0.015607963           16 
 4172000   0.56745335    -7.704363    836.40449  0.016706705  0.015603085           19 
 4173000   0.58942034   -7.7281017    835.69862  0.016688606    0.0155982           21 
 4174000   0.59018005   -7.7267969    835.82538  0.016687138  0.015593317           27 
 4175000   0.57432257   -7.7135086    836.62821  0.016699166  0.015588437           15 
 4176000   0.59544371   -7.7201045    836.88936  0.016700378  0.015583557           25 
 4177000   0.57418381   -7.7201158    835.02137  0.016659113  0.015578686           20 
 4178000    0.5759941   -7.7098938    838.27292   0.01671998  0.015573809           21 
 4179000   0.58890407   -7.7073226    835.50017  0.016660688  0.015568934           16 
 4180000   0.57653236   -7.7172531    836.65441  0.016679713  0.015564055           20 
 4181000   0.60251829   -7.7310741     836.2221  0.016667107  0.015559177           21 
 4182000   0.59534531   -7.7048252    835.08849  0.016640533  0.015554299           14 
 4183000   0.58655928   -7.6956106    836.65322  0.016667727  0.015549428            9 
 4184000   0.57084629   -7.7118357    836.42295  0.016659157   0.01554456           29 
 4185000   0.58869623   -7.7125746    835.33198  0.016633452  0.015539697           15 
 4186000    0.5783847   -7.7110727    835.62259  0.016635264  0.015534827           29 
 4187000   0.57954588   -7.7227086    835.69186   0.01663267  0.015529969           29 
 4188000   0.59082712   -7.7102303    836.00045  0.016634839  0.015525115           12 
 4189000   0.57212469   -7.7289431    836.18921  0.016634623  0.015520253           17 
 4190000   0.57687768   -7.7373939    835.89043   0.01662471  0.015515395           16 
 4191000     0.568709   -7.7116031    836.18382  0.016626577  0.015510543           21 
 4192000   0.59339702   -7.7214751    835.79907  0.016614962  0.015505691           24 
 4193000   0.58220095   -7.7142706    834.98787  0.016594878  0.015500832           18 
 4194000   0.59731113   -7.7086995    835.95717  0.016610181  0.015495976           42 
 4195000   0.58163347   -7.7199995    835.31049  0.016593375  0.015491118           41 
 4196000   0.58723988   -7.7304332     836.9159  0.016621304  0.015486277           29 
 4197000   0.59280068   -7.7180502    835.50078  0.016589246  0.015481425           22 
 4198000   0.58804675   -7.7414893    836.32785  0.016601712  0.015476578           30 
 4199000   0.57577455   -7.7205589    835.75457  0.016586381  0.015471733            8 
 4200000   0.58089234   -7.7195261    835.05757  0.016568603  0.015466887           20 
 4201000   0.57472072   -7.7154276    836.03617  0.016584071  0.015462048           33 
 4202000   0.57459734   -7.7191877    837.04938  0.016600218  0.015457211           24 
 4203000   0.58459896   -7.7278653     834.9031  0.016553714  0.015452369           24 
 4204000   0.58685623   -7.7063922     837.1666  0.016594644  0.015447545           29 
 4205000   0.57055841   -7.7364928    835.02702  0.016548296  0.015442714           20 
 4206000   0.58743989    -7.748721    836.36982  0.016570967  0.015437883           23 
 4207000   0.59185524     -7.73357    835.95972  0.016558904  0.015433052           29 
 4208000   0.58173612   -7.7338193    836.34336  0.016562567  0.015428227           29 
 4209000   0.57695329    -7.707949    836.32316  0.016558232  0.015423402           49 
 4210000   0.57289178   -7.7358393    835.08248   0.01652974  0.015418577           27 
 4211000   0.58348816   -7.7254516    835.24263  0.016528984  0.015413749           31 
 4212000   0.57261698   -7.7173006     836.5402  0.016550732  0.015408929           32 
 4213000   0.57293195   -7.7293857    837.97473  0.016575179  0.015404102           23 
 4214000   0.58534881   -7.7393632    836.41189  0.016540339  0.015399277           38 
 4215000   0.56511986   -7.7275706    835.02205  0.016508937  0.015394453           44 
 4216000   0.57855371   -7.7224306    835.87908  0.016521962  0.015389632           28 
 4217000   0.58198839   -7.7440021    837.06671  0.016541513  0.015384811           31 
 4218000   0.57175472    -7.744713    835.73606  0.016511302  0.015379985           33 
 4219000   0.58283283   -7.7219125    835.89995  0.016510626  0.015375164           45 
 4220000   0.58071059   -7.7189428     834.6264  0.016481564  0.015370346           40 
 4221000   0.56564699   -7.7277058    835.52114  0.016495324  0.015365525           30 
 4222000   0.57081734   -7.7434928    835.80652   0.01649705  0.015360709           31 
 4223000   0.57431538   -7.7417099    836.80024  0.016512752  0.015355891           45 
 4224000   0.58478674   -7.7319999    835.47061  0.016482611  0.015351078           26 
 4225000   0.57668199   -7.7381487     836.9869  0.016508617  0.015346264           43 
 4226000   0.57273688   -7.7483491    836.32747  0.016491708  0.015341448           37 
 4227000   0.57967028   -7.7289393    833.93845  0.016440708  0.015336631           43 
 4228000    0.5694595   -7.7445404    835.04897  0.016458707  0.015331817           41 
 4229000   0.56386114   -7.7365869    834.43267  0.016442671  0.015327007           34 
 4230000   0.57535877   -7.7534246    836.05617  0.016470768  0.015322201           32 
 4231000   0.58220941   -7.7470156    834.64264  0.016439034  0.015317402           26 
 4232000   0.57707039   -7.7443183     836.2595  0.016466988  0.015312595           43 
 4233000   0.58211177   -7.7387519     835.9447    0.0164569  0.015307802           36 
 4234000   0.57407861   -7.7349652    834.35582  0.016421741  0.015303006           48 
 4235000   0.58528271   -7.7339033    834.90397  0.016428649  0.015298213           45 
 4236000   0.57913997   -7.7446405    834.82952  0.016423306  0.015293421           56 
 4237000   0.57391739   -7.7689627    836.06254  0.016443681  0.015288629           55 
 4238000   0.57527442   -7.7528385     834.8238  0.016415444  0.015283841           50 
 4239000   0.55983652   -7.7339522    835.63192  0.016427458  0.015279054           52 
 4240000    0.5800857   -7.7460496    835.37544  0.016418542  0.015274268           29 
 4241000   0.57435957   -7.7394038    835.34352  0.016414044  0.015269477           26 
 4242000   0.57372738   -7.7579498    835.84228  0.016419973  0.015264696           41 
 4243000   0.56621338   -7.7580023    835.70964  0.016413497  0.015259912           27 
 4244000   0.57204535   -7.7345702    834.81274  0.016392019  0.015255128           31 
 4245000   0.58754522   -7.7416682    837.39996  0.016438947   0.01525035           38 
 4246000   0.56993802    -7.758347     835.1625  0.016391162  0.015245567           35 
 4247000   0.56264688    -7.750825    835.40872  0.016392134  0.015240784           33 
 4248000   0.57175485   -7.7593556    834.80468  0.016376426  0.015235999           23 
 4249000   0.56842177   -7.7564725    835.63762  0.016388908  0.015231224           19 
 4250000   0.57490463   -7.7571926    835.91318  0.016390455  0.015226443           32 
 4251000   0.57996031   -7.7399013    835.12785  0.016371204  0.015221665           30 
 4252000   0.57526709   -7.7513069    835.12926  0.016367381  0.015216888           26 
 4253000   0.57683223   -7.7492878    836.05106  0.016381595  0.015212113           24 
 4254000   0.58018449   -7.7479105    835.56751  0.016368271  0.015207339           21 
 4255000   0.57663497   -7.7416934    834.52948  0.016344095  0.015202564           24 
 4256000   0.58078722   -7.7584696    835.42102  0.016357711  0.015197798           23 
 4257000   0.57842415   -7.7707135    834.56076  0.016337028  0.015193035           32 
 4258000   0.56825453   -7.7560019    834.22034  0.016326529  0.015188266           31 
 4259000   0.58077776   -7.7490057    834.59684  0.016330063  0.015183502           20 
 4260000   0.56890289   -7.7408982    836.54221  0.016364284  0.015178749           32 
 4261000   0.57092294   -7.7562236    833.89548  0.016308681  0.015173987           33 
 4262000   0.57691489   -7.7496531    835.24899  0.016331319  0.015169222           32 
 4263000   0.57493256   -7.7507956    836.51187  0.016352175  0.015164463           35 
 4264000   0.57166695   -7.7589777    835.23791  0.016323443  0.015159702           36 
 4265000   0.56398153   -7.7707902    835.69546  0.016328555  0.015154941           27 
 4266000   0.55814658   -7.7471765    835.94515  0.016329605  0.015150186           28 
 4267000   0.55884538   -7.7669122    835.29699   0.01631312  0.015145426           25 
 4268000   0.58280564   -7.7454595     835.2432  0.016308247  0.015140681           23 
 4269000   0.56983414   -7.7721992    835.04193  0.016300498  0.015135933           27 
 4270000   0.55851899   -7.7570416    835.58922  0.016307362  0.015131178           33 
 4271000   0.57061064   -7.7668495    835.18282  0.016295614   0.01512643           37 
 4272000   0.56742011   -7.7496859    834.19783  0.016272586  0.015121677           31 
 4273000   0.56936635   -7.7800719    835.57141  0.016295565  0.015116926           37 
 4274000   0.56461466    -7.771752    836.14619  0.016302959  0.015112179           16 
 4275000   0.56317105   -7.7703596    835.17516  0.016280218  0.015107438           19 
 4276000   0.56633886   -7.7495675     834.2135  0.016257669  0.015102696           74 
 4277000    0.5704894   -7.7697597    834.96089   0.01626843  0.015097953           20 
 4278000   0.56513668   -7.7462825     835.0044  0.016265475  0.015093211           35 
 4279000   0.56875399   -7.7670371    836.05448  0.016282124  0.015088469           23 
 4280000   0.56242821   -7.7697199    834.99995  0.016257787  0.015083726           29 
 4281000   0.57718058   -7.7762176    835.24488  0.016258757  0.015078981           55 
 4282000   0.56796615   -7.7930785    835.73084  0.016264418  0.015074231           35 
 4283000   0.58039169   -7.7807565    834.59272  0.016238476   0.01506949           21 
 4284000   0.56889915   -7.7758489    833.80671  0.016219396  0.015064741           26 
 4285000   0.57052852   -7.7827974    833.75863  0.016214676  0.015059996           27 
 4286000   0.56920759   -7.7716932    834.34306  0.016222256  0.015055262           21 
 4287000   0.57279863   -7.7626503    833.73311  0.016206615   0.01505052           27 
 4288000   0.56727228   -7.7762335    833.75244  0.016203211  0.015045784           27 
 4289000   0.56956679   -7.7758089    834.82893  0.016220349  0.015041051           21 
 4290000   0.55789142   -7.7759281    834.63753   0.01621285  0.015036318           37 
 4291000    0.5575401   -7.7746246    834.50875  0.016206571  0.015031588           24 
 4292000   0.56273229   -7.7913647    833.77574  0.016188563  0.015026852           25 
 4293000   0.56141794   -7.7714204    835.90249  0.016226075  0.015022118           39 
 4294000   0.57701936   -7.7582996    834.65324  0.016198052  0.015017389           27 
 4295000   0.56378009   -7.7686971    835.69491  0.016214492  0.015012657           37 
 4296000   0.57546853   -7.7652087    834.97325  0.016196719  0.015007928           39 
 4297000   0.56031736    -7.779882    835.36211  0.016200491  0.015003205           44 
 4298000   0.55824906   -7.7737142    833.87398  0.016167868  0.014998488           38 
 4299000   0.55265703   -7.7639621    833.92777   0.01616515  0.014993771           41 
 4300000   0.55946842    -7.787566    834.94018  0.016181011  0.014989056           38 
 4301000    0.5583888   -7.7742136    833.34977  0.016146434  0.014984339           51 
 4302000   0.56689183   -7.7629585    834.15129  0.016158207  0.014979629           51 
 4303000   0.56845343   -7.7937147    834.00505   0.01615162  0.014974913           67 
 4304000   0.56698958   -7.7642446    834.46346  0.016156743  0.014970202           39 
 4305000   0.55198724   -7.7718373    834.32685  0.016150346  0.014965491           65 
 4306000   0.57016683   -7.8041003    834.53414  0.016150607  0.014960779           37 
 4307000   0.56573845   -7.7830685    833.46163  0.016126105  0.014956077           36 
 4308000   0.56950926   -7.7656614    834.73923  0.016147076  0.014951382           29 
 4309000   0.55162576   -7.7880089    834.32213  0.016135262  0.014946681           29 
 4310000   0.56294589   -7.7764153    834.01516  0.016125583  0.014941978           37 
 4311000   0.57805909   -7.7681519    834.84239  0.016137833  0.014937281           35 
 4312000   0.55942658   -7.7775305    834.33022  0.016124193   0.01493258           28 
 4313000   0.56474839   -7.7811888    835.25782  0.016138377  0.014927883           26 
 4314000   0.55459571   -7.7732811    833.33639   0.01609752  0.014923185           33 
 4315000   0.55783125   -7.7651159    835.43306  0.016134281   0.01491849           30 
 4316000   0.56473325   -7.7734883    834.71875  0.016116751  0.014913791           31 
 4317000   0.57591946   -7.7928006    833.72445  0.016093824  0.014909096           38 
 4318000   0.56112348   -7.7824311    833.94467  0.016094347  0.014904409           35 
 4319000   0.55680993   -7.7879149    835.66067   0.01612373   0.01489972           37 
 4320000   0.56567063   -7.7692653    833.13133  0.016071206  0.014895042           37 
 4321000   0.54562338   -7.7690017    834.42509  0.016092438   0.01489036           27 
 4322000   0.55394929   -7.7783982    834.76625  0.016095292  0.014885681           31 
 4323000   0.54955178   -7.7771795    833.60886  0.016069259  0.014880999           35 
 4324000   0.55725752   -7.7809275     832.9023  0.016051925   0.01487631           27 
 4325000   0.55275054    -7.786632    835.42101  0.016096744  0.014871626           34 
 4326000   0.55346893   -7.7897011    833.65976  0.016059095  0.014866946           36 
 4327000   0.55376731   -7.7680657    834.76338  0.016076638  0.014862266           50 
 4328000   0.55870613   -7.7649844    835.54492  0.016087972  0.014857596           26 
 4329000   0.55294412    -7.784575    834.51056  0.016064344  0.014852923           57 
 4330000   0.56993752   -7.7832287    834.47777  0.016060003   0.01484825           17 
 4331000    0.5622828   -7.7750993    834.93821  0.016065155  0.014843587           37 
 4332000   0.55639471   -7.7798466    834.24969  0.016048201  0.014838924           23 
 4333000   0.56116658   -7.7754804    833.51947  0.016030454  0.014834264           34 
 4334000    0.5695162   -7.7854549    834.00024  0.016035999    0.0148296           34 
 4335000   0.56622045   -7.7817067    834.33988  0.016038829  0.014824941           38 
 4336000    0.5704698   -7.7956944    833.93448  0.016027339   0.01482029           40 
 4337000   0.55667139   -7.7834776     834.0467  0.016025799  0.014815631           25 
 4338000   0.55825413   -7.7827531    833.96049  0.016020449  0.014810974           39 
 4339000   0.55202855   -7.7839086    835.14465  0.016039499  0.014806323           30 
 4340000   0.55239263   -7.7749216    833.35184  0.016001379  0.014801668           19 
 4341000   0.55262885   -7.7898013    834.37524  0.016017339  0.014797018           38 
 4342000    0.5563564     -7.79076    833.83994  0.016003377  0.014792362           32 
 4343000   0.54999983   -7.7746091    834.37875   0.01601003  0.014787707           29 
 4344000    0.5647996   -7.7865694    834.01837  0.015999432  0.014783056           41 
 4345000    0.5466167   -7.7881758    833.85285  0.015992575    0.0147784           35 
 4346000   0.55844888   -7.7896868    835.12423  0.016013273  0.014773753           20 
 4347000   0.55311974   -7.7799387    835.70071  0.016020641  0.014769107           29 
 4348000   0.55176311   -7.7793043    834.34863  0.015991042  0.014764461           20 
 4349000   0.55230848   -7.8049442    833.83056  0.015977439  0.014759819           33 
 4350000    0.5607584   -7.7788083    834.74753  0.015991332  0.014755171           27 
 4351000   0.55369108    -7.786055    834.03289  0.015973969   0.01475053           28 
 4352000   0.55842394   -7.7948455    835.77376  0.016003634  0.014745893           33 
 4353000    0.5596017   -7.7952107    833.78824  0.015961947  0.014741256           27 
 4354000   0.56208613   -7.7703853    834.75833  0.015976847  0.014736621           20 
 4355000   0.54583779   -7.7904222    833.75461  0.015953973   0.01473199           37 
 4356000   0.56687204   -7.7983409    833.91708  0.015953418  0.014727354           21 
 4357000   0.56245269   -7.7979554    834.10838  0.015953416  0.014722723           38 
 4358000   0.57020528   -7.7708622    835.08248  0.015968382  0.014718103           32 
 4359000   0.55459482   -7.8072197     833.9465  0.015943001   0.01471348           30 
 4360000    0.5506131   -7.7926258    834.48793  0.015949693  0.014708853           53 
 4361000   0.55830171   -7.7953651    832.93728  0.015916404  0.014704232           55 
 4362000   0.55705957   -7.8007492    834.34693  0.015939686  0.014699611           26 
 4363000    0.5574836   -7.8039173    834.01011  0.015929599  0.014694988           31 
 4364000   0.55679796   -7.7758782     834.7398  0.015939883  0.014690367           30 
 4365000    0.5456288   -7.8070948    834.52912  0.015932209  0.014685748           30 
 4366000   0.55815248   -7.7726728    834.48479  0.015927714  0.014681141           45 
 4367000   0.54840978   -7.7724093    833.83938  0.015911751  0.014676537           28 
 4368000   0.54777409   -7.7855633    834.86437  0.015927663  0.014671929           38 
 4369000   0.55561154   -7.7833924    833.99038  0.015907347  0.014667323           23 
 4370000    0.5518123   -7.8094734    834.99843   0.01592293  0.014662711           37 
 4371000   0.56319351   -7.7890038    833.90962  0.015898529  0.014658099           34 
 4372000   0.56550598   -7.7925357    835.38615  0.015923036  0.014653495           39 
 4373000   0.55549567   -7.7874031    834.77494  0.015907747  0.014648892           60 
 4374000   0.55634737   -7.7743901    833.80448  0.015885621  0.014644292           43 
 4375000   0.54754112   -7.7921476    833.88567  0.015883537   0.01463969           37 
 4376000   0.54858003   -7.7970841    833.36562  0.015870004  0.014635088           18 
 4377000   0.54486824   -7.7933695    833.39468  0.015866931  0.014630491           31 
 4378000   0.54847199   -7.7920603    833.60085  0.015867231  0.014625895           37 
 4379000   0.54062737   -7.7982415    834.36845  0.015878215  0.014621298           32 
 4380000   0.55302063   -7.7847968     834.4617  0.015876364  0.014616703           76 
 4381000    0.5518648   -7.7922646    833.28014  0.015850265  0.014612107           73 
 4382000   0.55442845   -7.7875925    834.55349  0.015870864  0.014607516           63 
 4383000   0.55857193   -7.7868917     834.1319  0.015859227  0.014602931           45 
 4384000   0.54931704    -7.794894    834.98597  0.015871844  0.014598351           41 
 4385000   0.54872588    -7.795192    833.72282  0.015844219  0.014593766           34 
 4386000   0.53549574   -7.7776062    833.24236  0.015831478  0.014589181           33 
 4387000    0.5584357   -7.7711669    832.48215  0.015813429  0.014584602           65 
 4388000   0.54390134   -7.7900142    834.10351  0.015840617  0.014580021           28 
 4389000   0.55847697   -7.7866638    833.70325  0.015829408  0.014575437           29 
 4390000   0.54317383   -7.7957391    832.88579  0.015810284  0.014570854           32 
 4391000   0.54599853   -7.7804013    833.67704    0.0158217  0.014566268           27 
 4392000   0.54033456   -7.7933181    834.35324  0.015830928  0.014561685           33 
 4393000   0.54753311   -7.7798686    833.88335  0.015818411  0.014557106           25 
 4394000   0.53500202   -7.7937456    833.64145  0.015810223  0.014552529           24 
 4395000   0.54451677   -7.8008954    833.54021  0.015804706  0.014547952           28 
 4396000   0.52725629   -7.8124679    833.83538  0.015806706  0.014543378           28 
 4397000   0.54256373    -7.818947    832.81668  0.015783805  0.014538804           29 
 4398000   0.55100599   -7.7975384    832.87103  0.015781246  0.014534235           28 
 4399000   0.53713944   -7.8085882      833.189  0.015783682  0.014529669           23 
 4400000   0.54926298   -7.7969389    835.49204  0.015823713  0.014525097           28 
 4401000   0.56293308    -7.801341    833.50092  0.015782415  0.014520528           23 
 4402000   0.54516493   -7.8007566    832.88157  0.015767105  0.014515963           19 
 4403000   0.55278509   -7.7895355    832.75566  0.015761141  0.014511397           22 
 4404000   0.54361689   -7.7851356    833.49661  0.015771583  0.014506832           13 
 4405000   0.56090496   -7.8054078    831.67853  0.015733608  0.014502272           17 
 4406000   0.54878888   -7.7950772    833.23261   0.01575943  0.014497705           14 
 4407000   0.54943237   -7.7954783    833.42382   0.01575947  0.014493142           22 
 4408000   0.54837215   -7.7882993    833.08113  0.015749416  0.014488587           22 
 4409000   0.53969442   -7.8090738    833.84569  0.015760295  0.014484031           12 
 4410000   0.54638911   -7.8041942    833.41515  0.015748586  0.014479475           33 
 4411000   0.54501569   -7.8058331    834.13655  0.015758644   0.01447492           15 
 4412000   0.54356678   -7.8026352     832.4452  0.015723126  0.014470371           29 
 4413000    0.5628585    -7.793213    832.85592  0.015727319  0.014465818           23 
 4414000   0.54927784   -7.7937298     833.1335  0.015728997  0.014461275           21 
 4415000   0.53750553   -7.7952332    834.28878   0.01574724  0.014456729           23 
 4416000   0.53886861   -7.8046243    834.40241  0.015745818  0.014452192           27 
 4417000   0.54527432   -7.8012072    834.31932  0.015740686  0.014447656           36 
 4418000   0.55269096   -7.7871216     833.2506  0.015716965  0.014443123           27 
 4419000   0.54585044   -7.8063133     833.6047  0.015720086  0.014438576           23 
 4420000   0.55035658   -7.7899326    831.76475  0.015681839  0.014434039           26 
 4421000   0.54985118   -7.7974262    832.34959  0.015689316  0.014429503           50 
 4422000   0.53938468   -7.8129294    834.34982  0.015723463  0.014424967           23 
 4423000   0.54604514   -7.8135429    833.88165  0.015711087  0.014420436           43 
 4424000    0.5537656   -7.8098737    833.16836    0.0156941  0.014415904           27 
 4425000   0.54090985   -7.7985463    833.19786  0.015691109  0.014411372           17 
 4426000   0.54917594   -7.7904234    832.15529  0.015667934  0.014406838           17 
 4427000   0.55023129    -7.787794    833.81081  0.015695558  0.014402312           25 
 4428000   0.53646587   -7.8201284    833.42606  0.015684772  0.014397788           34 
 4429000   0.54084752    -7.803979    833.57846  0.015684098  0.014393264           29 
 4430000    0.5371433   -7.8048919    833.36262  0.015676498  0.014388735           33 
 4431000   0.53016175   -7.8048376    832.43027  0.015655425  0.014384213           32 
 4432000   0.54020989   -7.8143663    833.71113  0.015675976  0.014379687           42 
 4433000   0.54697741    -7.805987    833.35571  0.015665759  0.014375169           24 
 4434000   0.52992407   -7.8223858    834.45127  0.015682816  0.014370651           30 
 4435000   0.54755328   -7.8107887     833.8287  0.015667582  0.014366129           26 
 4436000   0.54397319   -7.8050862    831.06217  0.015612079  0.014361608           27 
 4437000    0.5384267   -7.8291979    833.62383  0.015656672  0.014357091           23 
 4438000   0.54309697   -7.8099878    834.38104  0.015667362  0.014352581           48 
 4439000    0.5564391   -7.8040597    832.93505  0.015636687  0.014348071           28 
 4440000   0.53412138   -7.8059374    833.22358  0.015638581   0.01434356           45 
 4441000   0.55658785   -7.8111948    834.10107  0.015651525  0.014339055           33 
 4442000   0.53807306   -7.7961011    834.36563  0.015652965  0.014334553           36 
 4443000   0.53281915    -7.802957    833.26858  0.015628865  0.014330048           31 
 4444000   0.55257146   -7.8033559    832.90119  0.015618459   0.01432554           26 
 4445000   0.54503536   -7.8363177    834.16003  0.015638546  0.014321042           16 
 4446000   0.54673577   -7.7947731    833.52979  0.015623216  0.014316543           35 
 4447000   0.54846687   -7.8188807    832.40164  0.015598562  0.014312043           30 
 4448000   0.52837626   -7.8165348    831.98216  0.015587196  0.014307543           27 
 4449000   0.53843018   -7.8053346    833.29219   0.01560823  0.014303046           25 
 4450000    0.5397147   -7.8294227    832.79971    0.0155955  0.014298547           29 
 4451000   0.54805802   -7.8197298    832.73405  0.015590767  0.014294045           37 
 4452000   0.54455239   -7.8290807    832.70582  0.015586737  0.014289545           27 
 4453000   0.53864601   -7.8169146    832.17282  0.015573262  0.014285046           22 
 4454000   0.53712413   -7.8196273    832.18996  0.015570086  0.014280553           29 
 4455000   0.53503017   -7.8051253     833.3294  0.015587905  0.014276066           30 
 4456000   0.55004768   -7.8260902    834.10356  0.015598885  0.014271582           27 
 4457000   0.53775569    -7.807845    833.29723  0.015580309  0.014267096           33 
 4458000    0.5301024    -7.816259    832.40519  0.015560139  0.014262608           36 
 4459000   0.52169396   -7.8253189    831.73254  0.015544078  0.014258125           21 
 4460000   0.53479609   -7.8159308    833.06925  0.015565569  0.014253642           24 
 4461000   0.53736758   -7.8128676    834.32686  0.015585572  0.014249157           27 
 4462000   0.53819668   -7.8014745    833.17142    0.0155605  0.014244677           22 
 4463000   0.54128548   -7.8149665    833.97019  0.015571928    0.0142402           29 
 4464000   0.53408378   -7.8255961    834.15294  0.015571851  0.014235727           39 
 4465000   0.53610988   -7.8263609     830.8498  0.015506715  0.014231245           30 
 4466000   0.53476927   -7.8144369     832.0771  0.015526144   0.01422677           27 
 4467000   0.53670339   -7.8234513    833.23492  0.015544268  0.014222303           25 
 4468000   0.53558474   -7.8058796    833.86362  0.015552514   0.01421783           34 
 4469000   0.54270751   -7.8277941    831.18484  0.015499083   0.01421336           35 
 4470000   0.54319402   -7.8256253    833.27798  0.015534638  0.014208884           58 
 4471000   0.54596263    -7.825535    835.59355  0.015574323  0.014204416           47 
 4472000   0.54201341   -7.8246001    832.50015  0.015513196  0.014199952           37 
 4473000   0.51850254   -7.8292583    833.16547  0.015522123  0.014195486           32 
 4474000   0.53118635   -7.8240356    832.46361  0.015505581   0.01419102           32 
 4475000   0.54288719   -7.8291147    832.01541  0.015493769  0.014186556           48 
 4476000   0.53784217    -7.789881    831.36569  0.015478211  0.014182099           25 
 4477000   0.52230028   -7.8301626    831.73674  0.015481661  0.014177643           23 
 4478000   0.53957907   -7.8341158    834.24881  0.015524952  0.014173191           47 
 4479000   0.53370709   -7.8033524    831.45759  0.015469554  0.014168738           39 
 4480000   0.52844085   -7.8250333    834.07921  0.015514866  0.014164286           26 
 4481000   0.53799475   -7.8184133    833.58609  0.015502233  0.014159832           37 
 4482000    0.5341988   -7.8160896    832.35624  0.015475908  0.014155381           43 
 4483000   0.52791623   -7.8122182    831.68514  0.015459981  0.014150933           29 
 4484000   0.53809014   -7.8137367    833.05278   0.01548195  0.014146485           35 
 4485000   0.53064835   -7.8204474    832.74882  0.015472851   0.01414204           39 
 4486000   0.53373221   -7.8135735     833.4512  0.015482449  0.014137591           39 
 4487000   0.53374707   -7.8328362    834.50659  0.015498599  0.014133144           36 
 4488000   0.53546285   -7.8207144    833.43367  0.015475224  0.014128707           80 
 4489000   0.52748838   -7.8129169    832.58666  0.015456053  0.014124268           42 
 4490000   0.53953716   -7.8245793    832.00214  0.015441762  0.014119827           60 
 4491000   0.53813177   -7.8290634    833.23161  0.015461137  0.014115388           39 
 4492000   0.53162984   -7.8069376    831.86444  0.015432332  0.014110953           33 
 4493000   0.52199325   -7.8112642    832.11213  0.015433491  0.014106515           41 
 4494000   0.52955035   -7.8323416    832.60782  0.015439249  0.014102081           35 
 4495000   0.52303053    -7.813672    832.48464  0.015433531  0.014097652           44 
 4496000   0.53283708   -7.8191698    830.56903  0.015394592  0.014093225           44 
 4497000   0.52191171   -7.8192247    832.22269  0.015421813  0.014088798           29 
 4498000     0.548616   -7.8481327    832.92418   0.01543138  0.014084371           53 
 4499000   0.52744281   -7.8317483    833.81567  0.015444463  0.014079948           34 
 4500000   0.52152458   -7.8326929    833.24308  0.015430427  0.014075528           26 
 4501000   0.53099039   -7.8066604    831.52388  0.015395169  0.014071102           32 
 4502000   0.53125888   -7.8168115    832.37371   0.01540748  0.014066678           35 
 4503000    0.5341966   -7.8431377    833.29782   0.01542116  0.014062255           41 
 4504000   0.53335111   -7.8140957    831.87719  0.015391452  0.014057834           25 
 4505000   0.52778906   -7.8351129    833.21713  0.015412821  0.014053411           54 
 4506000   0.52899815   -7.8228207    832.88599  0.015403277  0.014048991           45 
 4507000    0.5368533   -7.8325199    832.50893  0.015392888  0.014044573           30 
 4508000   0.53000683   -7.8043655    832.88316  0.015396391  0.014040164           29 
 4509000   0.52546081   -7.7954826    832.31753  0.015382523  0.014035752           35 
 4510000   0.52663743   -7.8279993    832.08807  0.015374872  0.014031349           68 
 4511000   0.52667056   -7.8188837    833.36001  0.015394961  0.014026946           30 
 4512000   0.53485575    -7.828911    832.02928  0.015366971  0.014022544           61 
 4513000   0.53511089   -7.8295739    832.54714  0.015373128  0.014018139           31 
 4514000   0.53540482   -7.8311649    831.27781  0.015346289  0.014013734           67 
 4515000   0.53120358   -7.8183466    831.08033  0.015339246  0.014009329           41 
 4516000   0.52962431   -7.8305648    830.69427  0.015328725  0.014004927           43 
 4517000   0.53524446   -7.8442398    831.97071   0.01534888  0.014000527           58 
 4518000   0.52296573   -7.8375532    831.93443  0.015344814  0.013996126           68 
 4519000   0.53344841   -7.8127475    832.17692   0.01534589   0.01399173           35 
 4520000   0.53025907   -7.8282135    833.30307  0.015363257  0.013987339           36 
 4521000   0.52704884   -7.8475562    832.73048  0.015349305  0.013982947           47 
 4522000   0.52428228   -7.8274087    831.30399  0.015319622  0.013978555           41 
 4523000   0.53681271   -7.8363163    833.59008  0.015358355  0.013974163           34 
 4524000   0.52183207   -7.8330756    833.44697  0.015352324  0.013969781           31 
 4525000   0.52717077   -7.8213595    832.79978  0.015337013  0.013965399           33 
 4526000   0.52617852   -7.8355906    831.60483  0.015311622  0.013961019           24 
 4527000   0.53334354    -7.811025    832.33792  0.015321735  0.013956641           43 
 4528000    0.5376648   -7.8244755    831.66675  0.015305999  0.013952261           28 
 4529000   0.53279744   -7.8287048    831.99766  0.015308708  0.013947885           68 
 4530000   0.53032452   -7.8277213     833.1597  0.015326705  0.013943508           74 
 4531000   0.51993377   -7.8315125    832.26815  0.015306925  0.013939131           40 
 4532000   0.51813694   -7.8325157    831.76282  0.015294256  0.013934759           46 
 4533000   0.52661691   -7.8416087    832.64261  0.015307056  0.013930388           58 
 4534000   0.52507795   -7.8346984    833.55732  0.015320492  0.013926016           45 
 4535000   0.53206894   -7.8368097    831.98276   0.01528818  0.013921647           36 
 4536000     0.528127   -7.8434486     833.3994  0.015310836  0.013917282           39 
 4537000   0.51710481   -7.8163746    832.89057  0.015298115  0.013912912           44 
 4538000   0.53177931   -7.8221767     831.9338  0.015277174  0.013908544           58 
 4539000   0.52071956   -7.8080607    832.98413  0.015293092  0.013904178           36 
 4540000   0.51970811   -7.8393367    831.20979  0.015257155  0.013899819           43 
 4541000   0.53166052   -7.8190788    832.20456   0.01527205   0.01389546           31 
 4542000   0.51367213   -7.8264652    831.79441  0.015261163  0.013891098           38 
 4543000   0.53570965   -7.8369321    834.59373  0.015309152  0.013886744           42 
 4544000   0.52579033   -7.8317417    832.27451   0.01526325  0.013882387           33 
 4545000    0.5258134   -7.8291548    832.67666  0.015267265  0.013878031           51 
 4546000   0.51847444   -7.8272029    831.69661  0.015245942  0.013873673           50 
 4547000   0.52680987    -7.843103    832.36487  0.015254836  0.013869318           39 
 4548000   0.52828662   -7.8359084    831.87526  0.015242511  0.013864971           41 
 4549000   0.51406413   -7.8420117    832.79801  0.015256064  0.013860626           46 
 4550000   0.51621386   -7.8436889    832.66473   0.01525027  0.013856279           28 
 4551000   0.53692523   -7.8383473    831.94696  0.015233776  0.013851933           38 
 4552000   0.53499528   -7.8279092    831.49545  0.015222163  0.013847588           48 
 4553000   0.53035613   -7.8336417    832.64547  0.015239869  0.013843247           53 
 4554000   0.52026373   -7.8366846    833.04398  0.015243815  0.013838909           40 
 4555000   0.53032166    -7.853255    832.35472  0.015227858  0.013834573           41 
 4556000   0.53179157   -7.8461128    831.25702  0.015204438  0.013830235           37 
 4557000   0.52435179    -7.839667    832.33816  0.015220872  0.013825898           36 
 4558000   0.53190454   -7.8433516    832.33533  0.015217481  0.013821568           36 
 4559000   0.53681676   -7.8422737    832.39165  0.015215172  0.013817239           30 
 4560000   0.53163787   -7.8402431    831.77736   0.01520061  0.013812908           40 
 4561000   0.52989435   -7.8328206    833.03749  0.015220301  0.013808578           35 
 4562000   0.51919208   -7.8184536    833.03867  0.015216986  0.013804254           39 
 4563000   0.53683893   -7.8304875    831.86688  0.015192251  0.013799932           36 
 4564000    0.5196615   -7.8323882    831.60823  0.015184199  0.013795611           64 
 4565000   0.52026663   -7.8616258    832.39195   0.01519518  0.013791292           52 
 4566000   0.51192233   -7.8541217    831.63998  0.015178128  0.013786964           45 
 4567000   0.52295015    -7.823894    831.77624  0.015177291   0.01378264           49 
 4568000   0.53675797   -7.8427249    832.17598  0.015181261  0.013778321           29 
 4569000   0.51927582   -7.8304372    831.72279  0.015169672  0.013773999           47 
 4570000   0.51699805   -7.8445897    831.14972  0.015155903  0.013769678           35 
 4571000   0.51399653   -7.8328679    832.04663  0.015168939  0.013765364           48 
 4572000   0.52387014   -7.8203925    831.65087  0.015158407  0.013761055           35 
 4573000   0.51135769   -7.8418624    832.00867  0.015161613  0.013756744           42 
 4574000   0.52430949   -7.8562816    833.80341  0.015190996  0.013752435           43 
 4575000   0.52426563   -7.8463526    831.56867   0.01514697  0.013748127           39 
 4576000   0.52530283   -7.8500874    831.72628   0.01514653  0.013743819           44 
 4577000    0.5195495   -7.8484626    832.57325  0.015158642  0.013739515           42 
 4578000   0.52607638   -7.8405929    830.57354   0.01511893  0.013735208           36 
 4579000     0.524317   -7.8561124    830.90825   0.01512172  0.013730898           35 
 4580000   0.51703531   -7.8394032    833.58793  0.015167175  0.013726595           35 
 4581000   0.50340361   -7.8353782    833.06893  0.015154423  0.013722292           32 
 4582000   0.51091026   -7.8404117    832.21338  0.015135555  0.013717996           27 
 4583000   0.51815006   -7.8679722    832.02447  0.015128818  0.013713696           42 
 4584000   0.49813913   -7.8574018    831.90555  0.015123356  0.013709397           39 
 4585000   0.51489502   -7.8517976    832.75953  0.015135579    0.0137051           38 
 4586000   0.50939902   -7.8412591    830.89439  0.015098386  0.013700803           41 
 4587000   0.51827947   -7.8545289    831.63275  0.015108509  0.013696505           36 
 4588000   0.51945947   -7.8541944    831.48252  0.015102487   0.01369221           37 
 4589000   0.51391178   -7.8562961    831.27836  0.015095489  0.013687919           45 
 4590000   0.51978724   -7.8444293    830.77675  0.015083093  0.013683625           44 
 4591000   0.51533593   -7.8475343    830.76485  0.015079591  0.013679333           37 
 4592000   0.52383963   -7.8587978    831.20511  0.015084297  0.013675048           63 
 4593000   0.51554279   -7.8551858    830.90871  0.015075635  0.013670758           66 
 4594000   0.51060853   -7.8459795    831.67878  0.015086322  0.013666468           37 
 4595000   0.52204282   -7.8554662    831.27902  0.015075789   0.01366218           58 
 4596000   0.50387487   -7.8438322    830.73655  0.015062673  0.013657893           31 
 4597000   0.52349995   -7.8366521    830.63078  0.015057479  0.013653611           42 
 4598000   0.51915559   -7.8382463    831.28958  0.015066144  0.013649327           44 
 4599000   0.51714836   -7.8540844     830.8017  0.015054028  0.013645048           46 
 4600000   0.52087584   -7.8456001    832.53022  0.015082069  0.013640769           51 
 4601000   0.52568318   -7.8522341     831.2561  0.015055714  0.013636489           47 
 4602000    0.5171821   -7.8751025    830.62043  0.015040932   0.01363221           43 
 4603000   0.50651178   -7.8520369    830.82814  0.015041425  0.013627933           40 
 4604000   0.51335009   -7.8537963    831.60991  0.015052308  0.013623657           46 
 4605000   0.52055023   -7.8411344    831.36997  0.015044697  0.013619386           47 
 4606000   0.51635182   -7.8518411    831.22052  0.015038727  0.013615114           40 
 4607000   0.50664614   -7.8474474    832.91575  0.015066127  0.013610845           28 
 4608000   0.51553984   -7.8436262    831.83639  0.015043337  0.013606581           33 
 4609000    0.5078617   -7.8519808    831.93319  0.015041824  0.013602312           38 
 4610000   0.51849219   -7.8733187    832.05626  0.015040786  0.013598045           33 
 4611000   0.51651259   -7.8463265     830.4726  0.015008903  0.013593777           49 
 4612000   0.49903714    -7.842059    831.53144   0.01502478  0.013589516           29 
 4613000   0.51742282   -7.8347993    832.48781    0.0150388  0.013585258           38 
 4614000   0.51325425   -7.8580529    831.61187   0.01501972  0.013580999           41 
 4615000   0.50870945   -7.8767508    831.47289  0.015013956  0.013576743           39 
 4616000   0.52127642   -7.8449063    831.27482  0.015007128  0.013572495           33 
 4617000   0.50725498   -7.8483953    831.41381  0.015006386  0.013568241           43 
 4618000   0.51068452   -7.8502399    832.13185  0.015016094  0.013563987           30 
 4619000   0.51819033   -7.8780727    830.70324  0.014987069  0.013559736           42 
 4620000   0.50834197   -7.8394868    831.23982  0.014993503  0.013555485           40 
 4621000   0.50825132   -7.8518025    830.65216  0.014979661  0.013551241           45 
 4622000   0.51236759   -7.8625528    831.23778  0.014986979  0.013546995           32 
 4623000   0.50778856   -7.8517278    831.32214  0.014985257  0.013542756           45 
 4624000    0.5138111   -7.8603491    830.73022  0.014971349  0.013538515           37 
 4625000   0.50848627   -7.8745587    830.53207  0.014964542  0.013534276           21 
 4626000    0.5132096   -7.8566669    830.59697  0.014962476  0.013530039           33 
 4627000   0.50597703   -7.8587324    831.83776  0.014981589  0.013525807           30 
 4628000   0.51180776   -7.8613859      830.929  0.014961989  0.013521575           35 
 4629000   0.50871693   -7.8514011     832.3748  0.014984784  0.013517345           32 
 4630000    0.5091137   -7.8402594    832.06963  0.014976055  0.013513112           23 
 4631000   0.50867049   -7.8641222     832.2221  0.014975565  0.013508884           29 
 4632000   0.50973215   -7.8513388    832.46845  0.014976764  0.013504657           29 
 4633000   0.51839072    -7.844516    831.35943  0.014953584  0.013500426           31 
 4634000   0.50658093   -7.8618571    830.20712  0.014929635  0.013496196           25 
 4635000   0.50411364   -7.8625574    831.43861  0.014948555  0.013491964           29 
 4636000   0.50153877    -7.879694    832.58198  0.014965883  0.013487738           46 
 4637000   0.51023201   -7.8601539    831.36243  0.014940738  0.013483512           30 
 4638000   0.49760903   -7.8642703    831.69067  0.014943414  0.013479288           49 
 4639000   0.51213589   -7.8614824    830.79201   0.01492405  0.013475061           31 
 4640000    0.5154291   -7.8735811    831.36765  0.014931172  0.013470838           28 
 4641000   0.51560315   -7.8607067     829.9866  0.014903157  0.013466613           25 
 4642000    0.5216049   -7.8675659    829.99933  0.014900175  0.013462393           36 
 4643000    0.5104264   -7.8645336    830.53227  0.014906531  0.013458171           24 
 4644000   0.50572521   -7.8685461     830.5896   0.01490435  0.013453953           24 
 4645000   0.51827795   -7.8683058     831.7881  0.014922643  0.013449738           25 
 4646000   0.51187568    -7.857625    831.61491  0.014916324  0.013445522           19 
 4647000   0.50113787   -7.8643916    831.30466  0.014907551  0.013441309           20 
 4648000   0.51116562   -7.8654587    829.15401  0.014865785  0.013437095           30 
 4649000   0.51801634   -7.8639265    830.16369  0.014880686  0.013432882           41 
 4650000   0.51063941   -7.8703001    831.17511  0.014895611  0.013428671           45 
 4651000   0.50817182   -7.8691381    831.49552  0.014898149  0.013424463           30 
 4652000   0.50606573   -7.8741723    831.35966  0.014892513  0.013420258           39 
 4653000   0.50352343   -7.8734799    830.85846  0.014880336  0.013416057           36 
 4654000   0.51635682   -7.8760737    831.68311  0.014891905  0.013411853           30 
 4655000   0.50337495   -7.8738691    830.86675  0.014874091  0.013407652           31 
 4656000   0.49884327   -7.8706715     831.3145  0.014878911  0.013403456           33 
 4657000   0.50222232   -7.8575969    830.77089  0.014865988  0.013399261           31 
 4658000   0.51659313   -7.8658864    830.81912   0.01486366  0.013395071           40 
 4659000   0.50389303   -7.8783348    831.43588  0.014871501  0.013390878           30 
 4660000   0.50859205   -7.8601867    832.45729  0.014886575  0.013386691           25 
 4661000   0.50996732   -7.8729238    831.37276  0.014863991  0.013382497           28 
 4662000   0.51453268    -7.879479    829.95204  0.014835408  0.013378304           34 
 4663000   0.51031133   -7.8766525    830.89102  0.014849007  0.013374107           35 
 4664000   0.49642998   -7.8837257    830.84381   0.01484498  0.013369917           31 
 4665000    0.5131651    -7.876912    830.23085  0.014830848  0.013365729           35 
 4666000   0.49976698   -7.8838344    830.58787  0.014834045  0.013361539           33 
 4667000   0.50489739   -7.8626885    831.12743  0.014840501  0.013357355           32 
 4668000   0.50441263   -7.8757856    830.65783  0.014828939  0.013353167           38 
 4669000   0.50783918   -7.8726881    830.18762   0.01481737   0.01334898           37 
 4670000   0.50581849   -7.8760357    830.73581   0.01482398  0.013344793           24 
 4671000   0.50738208   -7.8705097    830.44387  0.014815597  0.013340614           27 
 4672000   0.50758679   -7.8898394    830.80136  0.014818803  0.013336433           35 
 4673000   0.49738258   -7.8752727    829.39375   0.01479053  0.013332253           24 
 4674000   0.51289199   -7.8793731     830.2689  0.014802969  0.013328073           28 
 4675000   0.50662129   -7.8789147    831.46525  0.014821128  0.013323894           26 
 4676000   0.50873623   -7.8825124    831.08673  0.014811212  0.013319722           48 
 4677000   0.49884696   -7.9059308    830.66513  0.014800533  0.013315551           37 
 4678000   0.49820254    -7.888834    831.40539  0.014810556  0.013311379           26 
 4679000   0.50886539   -7.8805278    830.46853  0.014790705  0.013307211           21 
 4680000   0.50754385   -7.8805303    830.84872  0.014794315  0.013303048           26 
 4681000   0.51231418   -7.8816586     829.6094  0.014769091  0.013298883           19 
 4682000    0.5015037   -7.8623243      829.232   0.01475922  0.013294723           33 
 4683000   0.49486109   -7.8816425    829.64952  0.014763498  0.013290561           53 
 4684000   0.50584661   -7.8652332    829.98106  0.014766244  0.013286402           24 
 4685000   0.49543751   -7.8767319     829.8393  0.014760571  0.013282245           24 
 4686000   0.48925753   -7.8730224    831.11272  0.014780067  0.013278088           27 
 4687000   0.50151094   -7.8815548    829.80847  0.014753724  0.013273934           34 
 4688000   0.50264322   -7.8847156     832.1091  0.014791473  0.013269783           30 
 4689000   0.50606138   -7.8762103    829.78706  0.014747051  0.013265628           33 
 4690000   0.50206476   -7.8996211    830.73172  0.014760692  0.013261474           36 
 4691000   0.50826111   -7.8834743    830.18173  0.014747775  0.013257321           28 
 4692000   0.50690905   -7.8806121    830.08055  0.014742834  0.013253169           33 
 4693000   0.49242593   -7.8707168    830.59604  0.014748846  0.013249023           30 
 4694000   0.50144864   -7.8543719    830.81089  0.014749519  0.013244875           35 
 4695000   0.49616102   -7.8814012    830.74751  0.014745252  0.013240729           33 
 4696000   0.50362397   -7.8836476     829.4802  0.014719623  0.013236585           24 
 4697000    0.4975323   -7.8735319    830.42614  0.014733272   0.01323244           30 
 4698000   0.50522527   -7.8809684    830.40644  0.014729786  0.013228299           19 
 4699000   0.50018759   -7.8881124    830.57767  0.014729688   0.01322416           29 
 4700000   0.50802164   -7.8840502    830.88484  0.014732001   0.01322002           34 
 4701000   0.49854297   -7.9000625    830.48842   0.01472184  0.013215883           28 
 4702000   0.50544448   -7.8762836    831.27705  0.014732685  0.013211751           40 
 4703000    0.4977492   -7.8740441    830.41447  0.014714269  0.013207616           25 
 4704000   0.50928724   -7.8950006    829.40282  0.014693219  0.013203482           34 
 4705000   0.49468663   -7.9033379    829.69356  0.014695245  0.013199347           36 
 4706000   0.50718553   -7.8792417    828.93045   0.01467861  0.013195215           32 
 4707000     0.505902   -7.8968093    830.03293   0.01469501   0.01319109           42 
 4708000   0.49145122   -7.8812192     830.2824  0.014696304  0.013186964           43 
 4709000   0.50574899   -7.8847761    829.48227  0.014679024  0.013182842           34 
 4710000   0.49917706   -7.9096983    829.93125  0.014683851  0.013178719           30 
 4711000   0.50566423   -7.8786735     830.8602  0.014697166    0.0131746           28 
 4712000   0.51095345   -7.9043114    829.69779   0.01467349   0.01317048           29 
 4713000   0.50176632   -7.8912825    830.15189  0.014678405  0.013166361           25 
 4714000   0.50772151   -7.8964294    830.62918  0.014683729  0.013162245           49 
 4715000   0.49131103   -7.8915636    831.01009  0.014687347  0.013158128           34 
 4716000   0.48262253   -7.8767831    829.78594  0.014662601  0.013154013           33 
 4717000   0.50305251   -7.8851457    828.17846  0.014631094  0.013149902           28 
 4718000   0.49965235   -7.9050949    829.90488  0.014658487  0.013145786           32 
 4719000   0.48783296    -7.895798    829.86514  0.014654679  0.013141672           32 
 4720000   0.50136096   -7.8921763    829.68981  0.014648478   0.01313756           39 
 4721000   0.50093934   -7.8935689    829.95039  0.014649975  0.013133448           41 
 4722000   0.48893339   -7.8965578    829.14958   0.01463274  0.013129338           36 
 4723000   0.49076035   -7.8846794    829.02238  0.014627397  0.013125228           34 
 4724000   0.49683147   -7.8938583    829.58778  0.014634275  0.013121124           30 
 4725000   0.49557311   -7.8758244    829.53459   0.01463024  0.013117017           37 
 4726000   0.49293021   -7.8796036    829.06603  0.014618882  0.013112911           26 
 4727000   0.48773414   -7.8910445    829.28992  0.014619736  0.013108811           29 
 4728000   0.49005661   -7.8890679    829.14473  0.014614085  0.013104706           25 
 4729000   0.49970258   -7.8878977    830.22665   0.01463006  0.013100604           32 
 4730000   0.49359213   -7.8808403    831.32127  0.014646252  0.013096504           30 
 4731000    0.4989905    -7.899034     829.3492   0.01460842   0.01309241           63 
 4732000   0.47999592   -7.8973041    831.11674   0.01463646  0.013088313           30 
 4733000   0.50085518   -7.9064463     829.1303  0.014598392  0.013084217           37 
 4734000   0.49184484   -7.8938829    830.19746  0.014614094  0.013080124           25 
 4735000   0.48964136   -7.8944116    828.98478  0.014589665  0.013076032           45 
 4736000   0.48792618     -7.88158    829.31287  0.014592358  0.013071941           28 
 4737000   0.49132856    -7.908115    829.45401   0.01459176   0.01306785           20 
 4738000   0.49056876   -7.9011383    829.23253  0.014584785  0.013063757           31 
 4739000   0.49239882   -7.9049475    829.88918  0.014593254  0.013059668           27 
 4740000   0.49424302   -7.8987515    829.42059  0.014581937   0.01305558           43 
 4741000   0.49149426   -7.8886426    828.28624  0.014558923  0.013051494           56 
 4742000   0.48926187   -7.8975743    830.19575  0.014589409  0.013047407           30 
 4743000   0.49208293   -7.9029153    828.82527  0.014562254  0.013043322           29 
 4744000   0.49887625    -7.905104    830.27491  0.014584649  0.013039239           25 
 4745000   0.48654753   -7.8960484    829.74007  0.014572182  0.013035157           36 
 4746000   0.49433828   -7.9031799    830.57004  0.014583685  0.013031081           30 
 4747000   0.49390565   -7.9072532    828.65684  0.014547027  0.013027003           25 
 4748000   0.49921779   -7.9032087    828.75946  0.014545764  0.013022929           35 
 4749000    0.5015352   -7.9045221    828.59421  0.014539801  0.013018856           26 
 4750000   0.48530264   -7.9248697    829.95989    0.0145607  0.013014785           22 
 4751000   0.48767052   -7.8988592      828.911  0.014539237  0.013010714           31 
 4752000   0.50116284   -7.9159575    829.93639  0.014554159  0.013006644           27 
 4753000   0.48136992   -7.8993124    829.33678  0.014540585  0.013002575           37 
 4754000   0.48719037   -7.9057011     830.4867  0.014557683  0.012998513           33 
 4755000   0.48605651   -7.9046621    830.46301  0.014554206  0.012994451           24 
 4756000   0.48965738   -7.8888826    829.50216   0.01453431  0.012990389           19 
 4757000   0.48583534   -7.9026336    828.87751  0.014520312  0.012986331           21 
 4758000   0.49970527   -7.8897308    829.54506  0.014528952  0.012982271           34 
 4759000   0.50392688   -7.8857576    828.28708  0.014503871  0.012978215           29 
 4760000   0.49582848   -7.8853448    829.39663  0.014520249   0.01297416           27 
 4761000   0.48876735    -7.884501    829.31124  0.014515705  0.012970105           30 
 4762000   0.49958517   -7.8896993    829.47605  0.014515541  0.012966053           30 
 4763000   0.48122032   -7.9043745    830.52967  0.014530927  0.012961997           54 
 4764000   0.49229616   -7.9274076    829.32623  0.014506826  0.012957946           27 
 4765000   0.49173712   -7.8820784    830.08477  0.014517047  0.012953894           41 
 4766000   0.49065716   -7.8956663    830.10928   0.01451443  0.012949847           48 
 4767000   0.48943257   -7.8922422    828.96198  0.014491329  0.012945799           31 
 4768000   0.49737478   -7.9010589    829.34335  0.014494955  0.012941753           40 
 4769000    0.4799901   -7.8989466    830.64582  0.014514675  0.012937706           25 
 4770000   0.48863307    -7.910825    829.56502   0.01449275  0.012933659           40 
 4771000   0.48546207   -7.9104028    829.31954  0.014485425  0.012929616           35 
 4772000   0.48116562    -7.900819    830.17006  0.014497242  0.012925574           40 
 4773000   0.47870691   -7.8917614    830.27649  0.014496063  0.012921533           37 
 4774000   0.49717621    -7.901665    829.63452   0.01448182   0.01291749           36 
 4775000   0.48716464   -7.9004746    828.04131  0.014450983  0.012913448           35 
 4776000   0.48008877   -7.8845523    828.75728  0.014460449  0.012909409           34 
 4777000   0.48640357   -7.9019614    829.40357  0.014468697  0.012905372           38 
 4778000   0.49449571   -7.9163003    828.70736  0.014453526   0.01290134           30 
 4779000   0.49089147   -7.8932047    828.68961  0.014450192  0.012897309           42 
 4780000   0.49578279   -7.9020712    828.58563  0.014445356  0.012893276           35 
 4781000   0.48647544   -7.9121843    829.38739   0.01445631  0.012889245           30 
 4782000   0.48242441   -7.9075416    829.10747  0.014448408  0.012885216           30 
 4783000   0.49150062   -7.9164898    829.22045  0.014447356  0.012881191           45 
 4784000   0.48180996   -7.8897412    829.27692   0.01444532  0.012877165           36 
 4785000   0.49662133   -7.9163213    829.10029  0.014439225  0.012873145           30 
 4786000   0.49575564   -7.9122619    828.48557  0.014425504  0.012869122           25 
 4787000   0.48176064   -7.9069383    828.92986  0.014430225  0.012865103           23 
 4788000   0.49102467   -7.9086062    829.76606  0.014441765  0.012861085           37 
 4789000   0.48916212   -7.9155385    828.56958   0.01441793  0.012857066           22 
 4790000   0.48308396   -7.9004031    829.62559  0.014433291  0.012853052           24 
 4791000   0.48856678   -7.9200005    828.85107  0.014416807  0.012849039           33 
 4792000   0.49192564   -7.9094484    828.92716  0.014415122  0.012845028           34 
 4793000   0.48133921   -7.9204345    828.92671  0.014412106  0.012841016           38 
 4794000   0.47592525   -7.9099773    829.32175  0.014415967   0.01283701           17 
 4795000   0.48589963   -7.9124745     828.6584  0.014401432  0.012833002           32 
 4796000   0.49230738   -7.9224147    830.16827  0.014424664  0.012828995           33 
 4797000   0.47832993   -7.9221375    827.30595  0.014371933  0.012824988           27 
 4798000   0.48756409    -7.907481    829.27557  0.014403147  0.012820982           35 
 4799000    0.4775798   -7.9198153    829.26694  0.014399996  0.012816984           34 
 4800000   0.48478968   -7.9072235    829.12519  0.014394535  0.012812985           30 
 4801000   0.48247215   -7.9094102    830.27935   0.01441157  0.012808988           26 
 4802000   0.48396298   -7.9091371    830.03316  0.014404296  0.012804992           28 
 4803000   0.47142338   -7.8931963    828.66639  0.014377583  0.012800996           37 
 4804000   0.48601114   -7.9024472    829.72476   0.01439295  0.012797003           26 
 4805000    0.4876028   -7.9136144     829.6908  0.014389365  0.012793009           29 
 4806000   0.46594916   -7.9064545    828.29893  0.014362237  0.012789014           39 
 4807000    0.4820867   -7.9326743    828.62998  0.014364988   0.01278502           32 
 4808000   0.48044412   -7.9158784    828.24126  0.014355263   0.01278103           25 
 4809000   0.47660346   -7.9233079    827.95199  0.014347265  0.012777044           30 
 4810000   0.47156491   -7.9141221    828.03917  0.014345793  0.012773058           41 
 4811000   0.49417658   -7.9122449    829.32417  0.014365069  0.012769073           22 
 4812000   0.48575504   -7.9181051    828.47459  0.014347371  0.012765089           36 
 4813000   0.48478987   -7.9122525    829.44017  0.014361108  0.012761104           32 
 4814000   0.48851999   -7.9166811     828.1143  0.014335173  0.012757121           38 
 4815000   0.46905607   -7.9077727    829.29171  0.014352574   0.01275314           41 
 4816000   0.48129614   -7.9194264    827.39194  0.014316721  0.012749163           32 
 4817000   0.48390904   -7.9060538    827.84511  0.014321589  0.012745186           36 
 4818000   0.47886034   -7.9079153    828.02237  0.014321682  0.012741208           27 
 4819000   0.48970694   -7.9176862    828.90719  0.014334011  0.012737229           67 
 4820000   0.48136887   -7.9092873    829.10852  0.014334518  0.012733254           22 
 4821000    0.4894031   -7.9061154     827.7222  0.014307581  0.012729284           31 
 4822000   0.48827227   -7.9198829    828.61647  0.014320069  0.012725317           34 
 4823000   0.47402477   -7.9091741    828.71716   0.01431884   0.01272135           35 
 4824000   0.48200996   -7.9157715    826.69365  0.014280916  0.012717383           29 
 4825000   0.47997282   -7.9131477    828.77984  0.014313987  0.012713417           21 
 4826000   0.47873679   -7.9256302    828.07715  0.014298887  0.012709452           38 
 4827000   0.48002052   -7.9165917    828.37553  0.014301076  0.012705489           36 
 4828000   0.48244664   -7.9210425    829.22891  0.014312844  0.012701528           28 
 4829000   0.47918028   -7.9083878    827.58242  0.014281467  0.012697567           27 
 4830000   0.47628478   -7.9114679    828.52488   0.01429477  0.012693609           31 
 4831000   0.47356141    -7.916412    828.81037  0.014296736   0.01268965           37 
 4832000   0.46687702   -7.9311884    828.24721  0.014284065  0.012685694           34 
 4833000   0.47906943   -7.9272094    828.11674   0.01427886  0.012681737           34 
 4834000   0.47865003   -7.9390132     828.3464  0.014279865  0.012677781           40 
 4835000   0.47904819   -7.9193164    827.98292  0.014270647   0.01267383           44 
 4836000   0.48217381   -7.9076301    828.18148  0.014271117  0.012669879           31 
 4837000    0.4804099   -7.9175072    828.77877  0.014278457  0.012665928           31 
 4838000   0.47328594   -7.9198998    828.61578  0.014272698  0.012661982           33 
 4839000   0.47251772   -7.9232942    828.37629  0.014265625  0.012658035           33 
 4840000   0.46702965    -7.909032    827.92279  0.014254869  0.012654093           34 
 4841000   0.46259582   -7.9162843    828.14057  0.014255673   0.01265015           26 
 4842000   0.48651931   -7.9167273    828.43019  0.014257714   0.01264621           38 
 4843000   0.47906657   -7.9376854    828.91725   0.01426315   0.01264227           33 
 4844000   0.46921003   -7.9297517    828.46882  0.014252491  0.012638332           32 
 4845000   0.46575422    -7.914809    827.64119  0.014235315  0.012634395           30 
 4846000   0.47054386   -7.9219122    828.22043  0.014242338  0.012630457           34 
 4847000   0.49061758   -7.9333027    828.63468  0.014246522  0.012626527           31 
 4848000   0.47683586   -7.9199926    828.09359  0.014234282  0.012622591           26 
 4849000   0.47601936   -7.9216224    828.28245  0.014234592  0.012618659           29 
 4850000   0.48450071   -7.9143828    828.67916  0.014238474  0.012614728           29 
 4851000   0.47996124   -7.9385151     828.6395  0.014234857  0.012610801           36 
 4852000   0.47314715   -7.9110608    828.46232   0.01422888  0.012606874           29 
 4853000   0.46916156   -7.9369273     828.0965  0.014219667  0.012602949           30 
 4854000   0.48083508   -7.9204937    828.06434  0.014216185  0.012599028           31 
 4855000   0.46613854   -7.9134478    828.28951  0.014217122  0.012595107           41 
 4856000   0.45944176    -7.927168    827.59961  0.014202355  0.012591186           50 
 4857000   0.48403668   -7.9084213    827.73718  0.014201791  0.012587264           37 
 4858000   0.47487501   -7.9398329    828.94012  0.014219503  0.012583347           36 
 4859000   0.47079099   -7.9271216    828.55639  0.014209995  0.012579432           38 
 4860000    0.4818122   -7.9257682    828.66505  0.014208934  0.012575513           35 
 4861000   0.48073372   -7.9177019    828.80407  0.014208395  0.012571595           31 
 4862000   0.47856059   -7.9474771     828.8234  0.014205804  0.012567678           34 
 4863000    0.4804944   -7.9291926    828.91966  0.014204532  0.012563763           31 
 4864000   0.46983275    -7.930602    827.12063  0.014170789  0.012559849           30 
 4865000   0.48175302   -7.9386248    828.16662  0.014185793  0.012555941           36 
 4866000    0.4671319   -7.9195655    827.40914  0.014169906  0.012552033           29 
 4867000   0.47541255   -7.9271122    827.92142  0.014175766  0.012548121           32 
 4868000   0.46637966   -7.9243836    826.76153  0.014152998  0.012544215           31 
 4869000   0.46816542   -7.9371891     828.0137  0.014171522  0.012540308           39 
 4870000   0.47169831   -7.9464834    828.83032  0.014182586  0.012536404           40 
 4871000   0.47863494   -7.9322791    828.35602   0.01417156  0.012532503           32 
 4872000   0.47917622   -7.9232779    829.35215  0.014185689  0.012528601           24 
 4873000   0.47082311   -7.9336427    828.94279  0.014175778  0.012524703           22 
 4874000   0.47204779   -7.9385087     828.2672  0.014161319  0.012520805           40 
 4875000   0.46756378   -7.9422537    827.26131  0.014141219  0.012516907           32 
 4876000   0.46460725   -7.9337108    828.43187  0.014158324  0.012513011           28 
 4877000   0.47783631   -7.9435452    828.15549  0.014150699   0.01250912           31 
 4878000   0.47639764     -7.92759    828.13733  0.014147487  0.012505224           36 
 4879000   0.46556407   -7.9309628    828.39374  0.014148967  0.012501332           58 
 4880000   0.47730123   -7.9254165     826.4655   0.01411314  0.012497444           34 
 4881000   0.47331824   -7.9286945    827.25485  0.014123725  0.012493556           27 
 4882000   0.46997306   -7.9222006    827.74935  0.014129273   0.01248967           38 
 4883000   0.45351968   -7.9128623    826.72788  0.014108947  0.012485784           70 
 4884000    0.4756304   -7.9267645    827.86363  0.014125437  0.012481901           36 
 4885000   0.46698037   -7.9264087    827.10658  0.014109631  0.012478019           23 
 4886000   0.47228075   -7.9414087    828.69425  0.014133822  0.012474138           34 
 4887000   0.47505427   -7.9388283     828.5815  0.014129007  0.012470257           34 
 4888000   0.47917152   -7.9305834    827.94637  0.014115289  0.012466378           28 
 4889000   0.47567761   -7.9402907    828.36469  0.014119532  0.012462499           31 
 4890000   0.47215515   -7.9220074    828.31284  0.014115761  0.012458624           33 
 4891000   0.46549427    -7.937794    827.08162  0.014091897   0.01245475           30 
 4892000   0.46757751   -7.9474276    826.90608  0.014086026  0.012450878           47 
 4893000   0.46715798   -7.9327363    827.86845  0.014099538  0.012447003           37 
 4894000    0.4656619   -7.9364071    827.67706  0.014093398  0.012443129           29 
 4895000   0.45400539   -7.9427708    826.92721  0.014077753  0.012439257           26 
 4896000   0.46699792    -7.940669    827.83015  0.014090246  0.012435387           23 
 4897000    0.4703907   -7.9308629     826.9207  0.014071893  0.012431521           38 
 4898000   0.47354671   -7.9384773     827.0257  0.014070806  0.012427655           46 
 4899000   0.47161034   -7.9146813    826.53407  0.014059571  0.012423791           38 
 4900000   0.46853503   -7.9182902    827.26685  0.014069164  0.012419929           24 
 4901000   0.46234438   -7.9261058    828.65907  0.014089966  0.012416067           44 
 4902000     0.475311   -7.9256179    827.04604   0.01405967  0.012412204           55 
 4903000   0.46172712    -7.937175    828.03601  0.014073629  0.012408344           39 
 4904000   0.45865193   -7.9435723    827.25988   0.01405757  0.012404488           35 
 4905000   0.45865607   -7.9166059    827.14563  0.014052763  0.012400632           25 
 4906000   0.45714404   -7.9416302    827.31439  0.014052765  0.012396775           31 
 4907000   0.46241442   -7.9403893    828.15888  0.014064243  0.012392922           50 
 4908000   0.46527816   -7.9323316    827.47054   0.01404969  0.012389068           58 
 4909000   0.48022092   -7.9448773    827.74594  0.014051503  0.012385221           40 
 4910000   0.46469751    -7.937704    827.32534  0.014041503  0.012381371           55 
 4911000   0.46962198   -7.9372821    826.63313  0.014026898  0.012377522           31 
 4912000   0.47202634   -7.9293053    828.16625  0.014050052  0.012373677           44 
 4913000     0.476879   -7.9360088    827.39175  0.014034055   0.01236983           25 
 4914000   0.47681354    -7.926617    827.94308  0.014040549  0.012365987           40 
 4915000   0.47422191   -7.9411185    826.64901  0.014015751  0.012362145           35 
 4916000   0.46930248   -7.9550423    827.08996  0.014020375  0.012358304           35 
 4917000    0.4659708   -7.9550621    827.84749  0.014030362  0.012354467           37 
 4918000   0.46282557   -7.9516846    827.61967  0.014023649  0.012350626           39 
 4919000   0.47218541   -7.9290335    827.35311  0.014016282   0.01234679           27 
 4920000   0.46396627   -7.9523625    828.59723  0.014034506  0.012342953           31 
 4921000   0.46441927   -7.9620261     827.9155  0.014020109  0.012339116           26 
 4922000   0.46198334   -7.9452176    827.12492  0.014003876  0.012335284           29 
 4923000    0.4690916   -7.9541074    827.43346  0.014006254  0.012331449           38 
 4924000   0.46909785   -7.9508841    828.15407  0.014015605  0.012327618           26 
 4925000   0.46922765   -7.9338831     826.8776  0.013991161  0.012323791           35 
 4926000   0.46732906   -7.9564388    827.34712  0.013996263   0.01231996           32 
 4927000   0.46817772   -7.9590621     826.4899  0.013978924  0.012316133           49 
 4928000    0.4598133   -7.9530814    827.52057  0.013993516  0.012312309           25 
 4929000   0.46645505   -7.9399872    827.86565  0.013996511  0.012308484           32 
 4930000   0.46222646   -7.9544219    827.54285  0.013988216  0.012304661           36 
 4931000   0.46568428   -7.9396333    827.93501  0.013992007  0.012300841           33 
 4932000   0.46026895   -7.9557853    826.71361  0.013968532  0.012297023           39 
 4933000   0.46351856   -7.9466326    826.13248  0.013955883  0.012293205           49 
 4934000   0.45638545   -7.9530153     827.6942  0.013979432   0.01228939           45 
 4935000   0.46790014   -7.9532734    828.03804  0.013982405  0.012285573           34 
 4936000   0.44968807   -7.9433634    827.63971  0.013972848  0.012281758           30 
 4937000   0.45568621   -7.9507548    827.98538  0.013975852  0.012277946           38 
 4938000   0.46363358   -7.9695089    826.99215   0.01395626  0.012274135           24 
 4939000   0.46689411   -7.9559097    827.40877  0.013960464  0.012270323           24 
 4940000   0.45874793   -7.9626475    827.11072   0.01395261  0.012266514           33 
 4941000   0.45395466   -7.9557062    827.30033  0.013952984  0.012262707           33 
 4942000   0.47020038   -7.9403582    827.41287  0.013952058  0.012258906           35 
 4943000   0.46112674    -7.958868    827.74353   0.01395481  0.012255102           26 
 4944000   0.46105984   -7.9368148    827.16019  0.013942155  0.012251298           37 
 4945000   0.45250313   -7.9514512    828.16995  0.013956352  0.012247495           34 
 4946000   0.46156519   -7.9568286    827.14945  0.013936337  0.012243698           38 
 4947000   0.46423601   -7.9457147     827.4746  0.013938997  0.012239903           28 
 4948000   0.45993937   -7.9289211    827.10495  0.013929954  0.012236108           24 
 4949000    0.4626691    -7.944282    826.43905  0.013915927  0.012232315           32 
 4950000   0.45106609   -7.9574539    826.94159  0.013921576  0.012228523           42 
 4951000    0.4577884   -7.9600159    828.51204  0.013945197  0.012224734           32 
 4952000    0.4609194    -7.948415    827.40215  0.013923703  0.012220948           45 
 4953000   0.46376198   -7.9610843     826.8381  0.013911402  0.012217163           29 
 4954000   0.45645384    -7.951456    827.49194  0.013919593  0.012213376           34 
 4955000   0.46496665   -7.9468848    825.91053  0.013890187  0.012209592           37 
 4956000   0.46020504    -7.940678     826.4362  0.013896224  0.012205808           28 
 4957000   0.46444217   -7.9562404    827.83363  0.013916913  0.012202024           29 
 4958000   0.45864954    -7.979837    827.67483  0.013911437  0.012198243           43 
 4959000     0.467976   -7.9531577    826.85661  0.013894882  0.012194461           39 
 4960000   0.45067558   -7.9667408    826.49046  0.013885928  0.012190684           37 
 4961000    0.4494488   -7.9619412    826.98842  0.013891494  0.012186905           20 
 4962000   0.46075742   -7.9469217    827.74983  0.013901482  0.012183132           38 
 4963000   0.47119753   -7.9439698    826.22323  0.013873048   0.01217936           32 
 4964000    0.4570797   -7.9480798    826.87771   0.01388124  0.012175584           40 
 4965000   0.45242718   -7.9488114    827.17509  0.013883436  0.012171813           35 
 4966000   0.45168345   -7.9640067    826.35752   0.01386692  0.012168044           32 
 4967000   0.44272677   -7.9488945    827.03308  0.013875463  0.012164275           34 
 4968000   0.45205581    -7.951174    826.44142  0.013862745  0.012160508           25 
 4969000    0.4519733   -7.9565972    827.03105  0.013869844  0.012156742           42 
 4970000   0.44965922     -7.96627    827.01004  0.013866701  0.012152978           29 
 4971000   0.46077508    -7.956465    826.76138  0.013859743  0.012149213           25 
 4972000    0.4571789   -7.9525879    828.07232  0.013878927  0.012145452           27 
 4973000   0.45203531   -7.9537481    827.82878  0.013872055  0.012141693           30 
 4974000   0.45487053    -7.954833    826.31494  0.013843904  0.012137937           32 
 4975000   0.45825549   -7.9691617    828.46158  0.013877078  0.012134184           35 
 4976000    0.4555662   -7.9629909    826.28731  0.013837877   0.01213043           35 
 4977000   0.44944931   -7.9610422     827.0295  0.013847524  0.012126677           46 
 4978000   0.46006366   -7.9503172    827.49266  0.013852495  0.012122925           24 
 4979000   0.46243939   -7.9506356    828.00124  0.013858225  0.012119174           30 
 4980000   0.44330267    -7.956765    827.64945  0.013849556  0.012115423           46 
 4981000   0.45332833   -7.9531524    826.55891   0.01382853  0.012111673           38 
 4982000    0.4553719   -7.9551003    827.39965  0.013839817  0.012107925           28 
 4983000   0.45488258   -7.9627536    827.66966  0.013841556  0.012104176           39 
 4984000   0.45098944   -7.9614795    826.59874  0.013820872  0.012100431           43 
 4985000   0.45515671    -7.952213     827.7397  0.013837173  0.012096688           38 
 4986000   0.44761238   -7.9585215    828.47235  0.013846643  0.012092943           44 
 4987000   0.45284377   -7.9512009    826.65724  0.013813536  0.012089203           25 
 4988000   0.46034846   -7.9487267    827.07464   0.01381774  0.012085463           36 
 4989000   0.45670634   -7.9394923    826.22215  0.013800731  0.012081726           29 
 4990000   0.44294822   -7.9562867    827.41176  0.013817832   0.01207799           37 
 4991000   0.46531648   -7.9629642    827.20254   0.01381157  0.012074255           42 
 4992000   0.45005971   -7.9625026     826.4571  0.013796359  0.012070523           26 
 4993000   0.45414334   -7.9510691     826.6487  0.013796794  0.012066787           36 
 4994000   0.45013911   -7.9542677    826.31251  0.013788421  0.012063051           28 
 4995000   0.45185675   -7.9587155    826.55465  0.013789701  0.012059319           33 
 4996000   0.46430751   -7.9709598    827.04869  0.013795181  0.012055589           31 
 4997000   0.45120045   -7.9544213    826.49315  0.013783156  0.012051859           26 
 4998000   0.45261836   -7.9509666    826.55017  0.013781349  0.012048132           46 
 4999000   0.44929651   -7.9750664    826.63855  0.013780065  0.012044406           30 
 5000000   0.45747329    -7.956416    825.88997  0.013764833  0.012040682           35 
 5001000   0.44681782   -7.9669791    826.91411  0.013779146  0.012036958           55 
 5002000   0.45771388   -7.9581464    827.16102  0.013780505  0.012033239           29 
 5003000   0.45293515   -7.9539994    827.03256  0.013775611  0.012029518           39 
 5004000   0.45467831   -7.9592848    826.58729  0.013765442  0.012025801           41 
 5005000   0.45186723   -7.9620307    825.95979  0.013752244  0.012022084           34 
 5006000   0.44926472   -7.9635019    825.59563  0.013743435  0.012018367           34 
 5007000   0.44397072   -7.9635511    827.29741  0.013769014  0.012014653           36 
 5008000   0.45448234   -7.9707567    826.96054  0.013760659  0.012010941           24 
 5009000   0.45027134   -7.9604141    826.43591  0.013749183   0.01200723           38 
 5010000   0.45366257   -7.9774524    825.75396  0.013735096  0.012003517           41 
 5011000   0.44408554   -7.9505079    826.78601  0.013749518  0.011999809           35 
 5012000   0.44941862   -7.9613275    827.72361  0.013762364  0.011996102           26 
Loop time of 11178.8 on 48 procs for 5000000 steps with 4000 atoms

Performance: 77289.254 tau/day, 447.276 timesteps/s
99.4% CPU use with 48 MPI tasks x no OpenMP threads

MPI task timing breakdown:
Section |  min time  |  avg time  |  max time  |%varavg| %total
---------------------------------------------------------------
Pair    | 688.5      | 738.23     | 771.07     |  59.0 |  6.60
Neigh   | 70.911     | 72.076     | 73.696     |   7.6 |  0.64
Comm    | 647.18     | 687.13     | 747.41     |  70.2 |  6.15
Output  | 16.138     | 16.143     | 16.242     |   0.4 |  0.14
Modify  | 9508.9     | 9547.3     | 9576.4     |  18.2 | 85.41
Other   |            | 117.9      |            |       |  1.05

Nlocal:        83.3333 ave          90 max          76 min
Histogram: 2 1 5 8 5 9 4 7 4 3
Nghost:        1853.31 ave        1881 max        1818 min
Histogram: 1 1 3 2 11 10 8 6 5 1
Neighs:        11565.8 ave       12716 max       10281 min
Histogram: 1 4 2 6 8 9 8 6 1 3
FullNghs:      23130.8 ave       25015 max       20702 min
Histogram: 2 1 2 10 5 5 11 3 4 5

Total # of neighbors = 1110277
Ave neighs/atom = 277.56925
Neighbor list builds = 269145
Dangerous builds = 0

#clear
#
#next RN
#
#jump SELF
Total wall time: 3:06:21
