
units lj                  # Use reduced LJ style units
atom_style atomic         # Uncharged point particles
atom_modify map hash      # Needed for indexing of clusters etc
                          # Used to be able to find where atoms are in relation to each other.

lattice fcc 1.0 spacing 1 1 1
Lattice spacing in x,y,z = 1.5874011 1.5874011 1.5874011
region box block 0 10 0 10 0 10 units lattice
create_box 2 box
Created orthogonal box = (0.0000000 0.0000000 0.0000000) to (15.874011 15.874011 15.874011)
  3 by 4 by 4 MPI processor grid
create_atoms 1 box
Created 4000 atoms
  using lattice units in orthogonal box = (0.0000000 0.0000000 0.0000000) to (15.874011 15.874011 15.874011)
  create_atoms CPU = 0.003 seconds
set type 1 type/fraction 2 0.01 78393
Setting atom values ...
  36 settings made for type/fraction
mass 1 1.0
mass 2 1.0
pair_style lj/cut  3.5
pair_modify tail  yes
pair_coeff 1  1  1.0  1.0   # Intearaction between 1 and 1 set with epsilon = 1 and sigma = 1
pair_coeff 1  2  1.5  0.8
pair_coeff 2  2  0.5  0.88

write_data data.0
System init for write_data ...
Neighbor list info ...
  update every 1 steps, delay 10 steps, check yes
  max neighbors/atom: 2000, page size: 100000
  master list distance cutoff = 3.8
  ghost atom cutoff = 3.8
  binsize = 1.9, bins = 9 9 9
  1 neighbor lists, perpetual/occasional/extra = 1 0 0
  (1) pair lj/cut, perpetual
      attributes: half, newton on
      pair build: half/bin/atomonly/newton
      stencil: half/bin/3d
      bin: standard
WARNING: Not all mixed pair coeffs generated from mixing. Use write_data with 'pair ij' option to store all pair coeffs. (../write_data.cpp:312)


#############################
#   M E L T   S Y S T E M   #
#############################

velocity all create 2.4 5833274 mom yes dist gaussian # Assign velocities
                                                    # Temperature 2.4, random number seed, zero linear momentum
                                                                                # Gaussian distribution

timestep 0.002   # simulation timestep
thermo 1000       # output thermodynamic data every 1000 steps bf 100

# Define a fix  in this case with index 1 applied to all
# particles in the simulation. This fix is for simulations
# in the anisotropic NPT ensemble. Note that we use the MTK
# correction.
fix 1 all npt temp 2.4 2.4 0.1 iso 5.68 5.68 0.5 mtk yes tchain 5 pchain 5 # Use NPT ensemble
                                                                         # Set temperature and pressure and damping
                                                                         # Numbers of thermostats in chain and in barostat
run 10000          # run for 10000 steps
Per MPI rank memory allocation (min/avg/max) = 3.642 | 3.644 | 3.648 Mbytes
Step Temp E_pair E_mol TotEng Press Volume 
       0          2.4   -8.3261558            0   -4.7270558   -2.3168672         4000 
    1000    2.3698238   -4.4641801            0  -0.91033304    5.6759762    5140.0418 
    2000    2.4739926   -4.4026732            0  -0.69261206    5.8920393    5164.6088 
    3000    2.4068817   -4.3655404            0  -0.75612042    5.7800196    5202.0437 
    4000    2.3875049   -4.3278326            0  -0.74747067    5.9418608    5183.5331 
    5000    2.3989361   -4.4090226            0   -0.8115181    5.5553436    5196.9658 
    6000    2.3411908   -4.3959682            0  -0.88505986    5.4591429    5219.5405 
    7000    2.3654252   -4.4121781            0  -0.86492724    5.3759113    5230.1588 
    8000    2.3943842   -4.3514864            0  -0.76080793    5.8209776    5194.6737 
    9000    2.3880074   -4.3852258            0  -0.80411022    5.6660826    5195.6993 
   10000    2.3825727   -4.4040168            0  -0.83105121     5.616676    5187.9384 
Loop time of 2.02525 on 48 procs for 10000 steps with 4000 atoms

Performance: 853226.030 tau/day, 4937.651 timesteps/s
99.7% CPU use with 48 MPI tasks x no OpenMP threads

MPI task timing breakdown:
Section |  min time  |  avg time  |  max time  |%varavg| %total
---------------------------------------------------------------
Pair    | 0.84958    | 0.90021    | 0.96056    |   2.7 | 44.45
Neigh   | 0.16502    | 0.17159    | 0.18913    |   1.0 |  8.47
Comm    | 0.64594    | 0.70976    | 0.76975    |   3.3 | 35.05
Output  | 0.00024401 | 0.0002496  | 0.00036839 |   0.0 |  0.01
Modify  | 0.19382    | 0.22921    | 0.26181    |   3.5 | 11.32
Other   |            | 0.01424    |            |       |  0.70

Nlocal:        83.3333 ave          93 max          73 min
Histogram: 1 1 1 8 8 12 8 5 2 2
Nghost:        1386.50 ave        1403 max        1353 min
Histogram: 1 0 2 2 6 4 8 10 8 7
Neighs:        7328.67 ave        8384 max        6213 min
Histogram: 1 1 3 7 11 13 7 1 1 3

Total # of neighbors = 351776
Ave neighs/atom = 87.944000
Neighbor list builds = 902
Dangerous builds = 191

# Equilibrate just above the melting temperature to avoid step fn in T

fix 1 all npt temp 1.25 1.25 0.1 iso 5.68 5.68 0.5 mtk yes tchain 5 pchain 5
run 2000
Per MPI rank memory allocation (min/avg/max) = 3.642 | 3.644 | 3.648 Mbytes
Step Temp E_pair E_mol TotEng Press Volume 
   10000    2.3825727   -4.4040168            0  -0.83105121     5.616676    5187.9384 
   11000    1.2686063   -5.8262577            0   -3.9238239    5.7693869    4327.4506 
   12000     1.249173   -5.8931934            0   -4.0199023    5.4344704    4325.3647 
Loop time of 0.444509 on 48 procs for 2000 steps with 4000 atoms

Performance: 777487.655 tau/day, 4499.350 timesteps/s
99.7% CPU use with 48 MPI tasks x no OpenMP threads

MPI task timing breakdown:
Section |  min time  |  avg time  |  max time  |%varavg| %total
---------------------------------------------------------------
Pair    | 0.19307    | 0.20642    | 0.21988    |   1.4 | 46.44
Neigh   | 0.030573   | 0.031702   | 0.034036   |   0.4 |  7.13
Comm    | 0.14277    | 0.15396    | 0.16919    |   1.6 | 34.64
Output  | 5.0114e-05 | 5.1761e-05 | 6.4988e-05 |   0.0 |  0.01
Modify  | 0.043002   | 0.047974   | 0.054527   |   1.5 | 10.79
Other   |            | 0.004402   |            |       |  0.99

Nlocal:        83.3333 ave          92 max          76 min
Histogram: 2 4 5 10 6 9 6 1 3 2
Nghost:        1556.69 ave        1572 max        1534 min
Histogram: 1 2 1 4 4 13 7 4 8 4
Neighs:        8791.92 ave        9862 max        7982 min
Histogram: 2 5 6 10 8 7 5 2 2 1

Total # of neighbors = 422012
Ave neighs/atom = 105.50300
Neighbor list builds = 142
Dangerous builds = 5

#############################
# L I N E A R  Q U E N C H  #
#############################

# Define solid atoms. This closely follows ten Wolde  Ruiz-Montero and Frenkel  Faraday Discuss  1996  104  93-110
# Compute components of the per-atom q6 vector
compute q6 all orientorder/atom degrees 1 6 components 6 nnn NULL cutoff 1.3 # compute the Q6 parameter.
                                                                             # Use all neighbours within 1.3 unit cell.

# get number of connections
compute coord_number all coord/atom orientorder q6 0.5

# An atom is solid if it has 8 or more connections (of a possible 14)
variable is_solid atom c_coord_number>=8
group solid dynamic all var is_solid    # Must be dynamic to update
dynamic group solid defined

# do clustering
compute cluster solid cluster/atom 1.3 # Create a cluster where all atoms within are solid and max 1.3 units from another member

# define chunks one chunk per cluster
compute clus_chunks solid chunk/atom c_cluster nchunk every compress yes  # Says which atoms are in which chunk

# count the size of each chunk
compute size_chunks solid property/chunk clus_chunks count


# Find the maximum entry in the vector of chunk sizes
variable max_n equal max(c_size_chunks)


# Thermo style which includes this variable
# thermo_style custom step temp pe vol v_max_n

thermo ${N}  # Print the thermo information every 100 steps
thermo 1000  

# Reset the npt fix at a lower temperature (below freezing)
fix 1  all npt temp  ${temp} ${temp}  0.1  iso  5.68  5.68  0.5  mtk yes tchain  5  pchain  5
fix 1  all npt temp  0.45 ${temp}  0.1  iso  5.68  5.68  0.5  mtk yes tchain  5  pchain  5
fix 1  all npt temp  0.45 0.45  0.1  iso  5.68  5.68  0.5  mtk yes tchain  5  pchain  5

dump dmp2 all dcd ${N} traj.dcd
dump dmp2 all dcd 1000 traj.dcd


compute msd all msd com yes
variable twopoint equal c_msd[4]/6/(step*dt+1.0e-6)
fix 9 all vector 10 c_msd[4]
variable fit equal slope(f_9)/6/(10*dt)
thermo_style custom step temp pe c_msd[4] v_twopoint v_fit v_max_n

fix 1 all npt temp 1.25 ${temp} 0.1 iso 5.68 5.68 0.5 mtk yes tchain 5 pchain 5
fix 1 all npt temp 1.25 0.45 0.1 iso 5.68 5.68 0.5 mtk yes tchain 5 pchain 5
run 5000000 # 5000000  # Run for this many steps
Neighbor list info ...
  update every 1 steps, delay 10 steps, check yes
  max neighbors/atom: 2000, page size: 100000
  master list distance cutoff = 3.8
  ghost atom cutoff = 3.8
  binsize = 1.9, bins = 9 9 9
  4 neighbor lists, perpetual/occasional/extra = 1 3 0
  (1) pair lj/cut, perpetual
      attributes: half, newton on
      pair build: half/bin/atomonly/newton
      stencil: half/bin/3d
      bin: standard
  (2) compute orientorder/atom, occasional
      attributes: full, newton on
      pair build: full/bin/atomonly
      stencil: full/bin/3d
      bin: standard
  (3) compute coord/atom, occasional
      attributes: full, newton on
      pair build: full/bin/atomonly
      stencil: full/bin/3d
      bin: standard
  (4) compute cluster/atom, occasional
      attributes: full, newton on
      pair build: full/bin/atomonly
      stencil: full/bin/3d
      bin: standard
Per MPI rank memory allocation (min/avg/max) = 9.729 | 9.733 | 9.736 Mbytes
Step Temp PotEng c_msd[4] v_twopoint v_fit v_max_n 
   12000     1.249173   -5.8931934            0            0 8.3333333e+20            4 
   13000     1.261028   -5.8820041   0.57925443 0.0037131693  0.048078495            3 
   14000     1.256081   -5.8665322     1.130012 0.0067262615  0.047278349            3 
   15000    1.2823145    -5.887807    1.6966471 0.0094258168  0.046925427            2 
   16000    1.2230975   -5.8838241     2.201726  0.011467323  0.046176431            5 
   17000    1.2662805   -5.8980192    2.7701726  0.013579277  0.045951717            3 
   18000    1.2388865   -5.8919035    3.3247061  0.015392157  0.045769818            7 
   19000    1.2437622   -5.8452274    3.8116052  0.016717566   0.04548663            5 
   20000    1.2560112   -5.8798524    4.3817116  0.018257131  0.045299942            3 
   21000     1.245121   -5.8746075     4.852047  0.019254154  0.045091066            4 
   22000     1.251608   -5.8945121    5.4276499  0.020559279  0.044898025            4 
   23000    1.2225706   -5.8928655    6.0593342  0.021954109  0.045119961            2 
   24000    1.2599491   -5.8951751    6.6354421  0.023039729  0.045263866            4 
   25000    1.2440425   -5.8843458    7.2521158  0.024173719  0.045620071            3 
   26000    1.2576623   -5.8949516     7.699422  0.024677634  0.045841599            4 
   27000    1.2510214   -5.8960446     8.198866  0.025305141   0.04575218            2 
   28000    1.2456549   -5.8471612    8.7994892  0.026188956  0.045681473            4 
   29000    1.2189578   -5.9008432    9.3903777  0.026983843  0.045691141            2 
   30000    1.2428448   -5.8730942    10.068394   0.02796776  0.045870041            4 
   31000     1.232987   -5.8981752    10.647658  0.028622736  0.046092655            3 
   32000    1.2476473   -5.8662088    11.183623  0.029124019  0.046205343            2 
   33000    1.2188457   -5.8725564    11.515532  0.029079627  0.046192096            2 
   34000    1.2503832   -5.9083607    11.933651  0.029249143   0.04601382            4 
   35000    1.2505716   -5.8792058    12.447425  0.029636726  0.045796731            2 
   36000     1.254654   -5.8624227    13.071602  0.030258337  0.045643923            2 
   37000    1.2424172   -5.8562667    13.658012  0.030761289  0.045558312            4 
   38000    1.2443436   -5.8709682    14.065405  0.030845187  0.045512935            5 
   39000    1.2679588   -5.8682323    14.649321  0.031301967  0.045402422            3 
   40000    1.2598002   -5.8664891    15.198553  0.031663652  0.045324345            4 
   41000    1.2496645   -5.9229527    15.850417  0.032216295  0.045302092            3 
   42000    1.2230949    -5.883069    16.596883  0.032930323  0.045365556            1 
   43000    1.2700806   -5.9017156    17.253758  0.033437514  0.045490865            3 
   44000     1.209086      -5.8907     17.67989   0.03348464  0.045582446            3 
   45000    1.2304647   -5.8802289    18.348167  0.033978087   0.04565356            1 
   46000    1.2177657   -5.9085651    18.919906  0.034275193  0.045752541            3 
   47000    1.2500343   -5.8824852    19.536454  0.034639102   0.04586931            5 
   48000    1.2419138   -5.8881104    20.049019  0.034807324  0.045973612            3 
   49000    1.2457985   -5.8479877    20.630156  0.035085298  0.046080995            3 
   50000    1.2706694   -5.8448466    21.109758  0.035182929  0.046128103            2 
   51000    1.2303622   -5.9303212    21.640146  0.035359715  0.046192324            2 
   52000     1.229215   -5.8724563    22.413128  0.035918475  0.046255725            2 
   53000    1.2205623   -5.8283801    22.990911  0.036149231  0.046337841            1 
   54000    1.2242062   -5.8904945    23.204282  0.035809077  0.046357442            2 
   55000    1.2503368   -5.8781399    23.699765  0.035908734  0.046322633            3 
   56000    1.2464273   -5.9086975    24.165502  0.035960568   0.04628862            4 
   57000    1.2525804   -5.8842153    24.677001  0.036077486  0.046239103            4 
   58000    1.2320231   -5.8743652     25.48338  0.036614051  0.046215941            4 
   59000    1.2476864   -5.9027821    26.068726  0.036820234  0.046231506            5 
   60000    1.2478626   -5.9013812    26.599944  0.036944367  0.046253924            3 
   61000    1.2530156   -5.8657892    27.222775  0.037189583  0.046266338            3 
   62000    1.2386767   -5.8903685    27.743653  0.037289856  0.046277572            3 
   63000    1.2506283   -5.8839933    28.379357  0.037538832  0.046287339            3 
   64000    1.2173096   -5.8908796    28.858054  0.037575591  0.046299114            3 
   65000    1.2410179   -5.8981248    29.422363  0.037720977  0.046302059            2 
   66000    1.2670519   -5.8984436    29.911753  0.037767365  0.046297577            4 
   67000    1.2262429   -5.8805637    30.391458  0.037800321  0.046289367            5 
   68000    1.2811433   -5.8712627    30.758706  0.037694493   0.04626437            4 
   69000    1.2232244   -5.8337663    31.437503  0.037967999  0.046222553            3 
   70000    1.2577204   -5.8910746    31.880809  0.037953344  0.046177414            3 
   71000     1.269758   -5.8896652    32.262062  0.037866269  0.046133561           16 
   72000    1.2445507   -5.8625131    32.879773  0.038055293  0.046086848            4 
   73000    1.2670942    -5.882245    33.261401  0.037969635  0.046026152            4 
   74000    1.2392242   -5.8530762    33.935194  0.038215308  0.045978602            4 
   75000    1.2168391   -5.8969443     34.53143  0.038368255  0.045946475            6 
   76000    1.2397891   -5.8356285    35.065245  0.038448733  0.045922832            2 
   77000    1.2296381   -5.9170065    35.588841  0.038516061  0.045895477            2 
   78000    1.2217599   -5.8906555     36.21419  0.038690374  0.045875062            2 
   79000    1.2267733   -5.8651692    36.797959  0.038816412  0.045862147            4 
   80000    1.2456555   -5.8849789    37.393311  0.038951365   0.04584927            4 
   81000     1.225288   -5.8458954    38.077648  0.039174535  0.045838178            2 
   82000     1.269551      -5.9094    38.713052  0.039342532  0.045841549            2 
   83000    1.2869235   -5.9023427    39.262242  0.039419922  0.045859818            4 
   84000    1.2323959   -5.8995061    39.866516  0.039550115  0.045870603            4 
   85000    1.2348114   -5.9142682    40.343103  0.039552062   0.04588202            3 
   86000    1.2364175   -5.8875825    40.942812  0.039673267  0.045903029            4 
   87000    1.2315311   -5.9010422    41.566865  0.039815005  0.045924761            6 
   88000    1.2317348   -5.8957672    42.279259  0.040037177  0.045950999            2 
   89000     1.242687    -5.881429    42.766366  0.040043413  0.045972399            3 
   90000      1.20769   -5.8766588    43.195311  0.039995658  0.045989466            2 
   91000    1.2396523   -5.8874116    43.887507  0.040190025  0.045999648            3 
   92000    1.2223475    -5.879402    44.153347  0.039993974  0.046010351            3 
   93000      1.23868    -5.901756    44.780945  0.040126295  0.046014919            3 
   94000    1.2056864   -5.8992509    45.555963  0.040386492  0.046022043            5 
   95000    1.2477861   -5.8906798    46.077185  0.040418583  0.046041616            3 
   96000    1.2558152   -5.8604547    46.550835  0.040408711   0.04605717            2 
   97000    1.2500713   -5.9261246    47.162734  0.040517813  0.046070198            2 
   98000    1.2342204   -5.9314652    47.639325   0.04050963  0.046085236            3 
   99000    1.2403087    -5.869253    48.394421  0.040736044  0.046104525            5 
  100000    1.2392146   -5.9281216    48.938184  0.040781819  0.046121633            9 
  101000    1.2276031   -5.8763617    49.330316  0.040701581  0.046133512            2 
  102000    1.2390505   -5.9047704     49.85567  0.040731756  0.046141221            3 
  103000    1.2237382   -5.9065833    50.295929  0.040692499  0.046138067            2 
  104000    1.2235619    -5.908988    50.646624  0.040582231  0.046126836            4 
  105000     1.253248   -5.8696457    51.236439   0.04066384  0.046111207            3 
  106000    1.2333284   -5.8838093    51.771152  0.040700591  0.046096516            4 
  107000    1.2845338   -5.8487795    52.305995  0.040736756  0.046086213            2 
  108000    1.2364757   -5.9075005    52.875973  0.040799362  0.046076824            4 
  109000    1.2182317   -5.9071367    53.317969  0.040762973  0.046060161            3 
  110000    1.2573022   -5.9211231    53.427184  0.040475139  0.046032434            3 
  111000    1.2178148   -5.9033679    54.006563  0.040545468  0.046001539            3 
  112000      1.26497    -5.889791    54.528659  0.040571919  0.045969707            3 
  113000    1.2066993   -5.9086682    54.866621   0.04046211  0.045931827            5 
  114000    1.2262927   -5.8699071    55.587653  0.040634249  0.045901132            5 
  115000    1.2463029   -5.9044893    56.314982  0.040807958  0.045870838            3 
  116000    1.2338834   -5.8748207    56.657865  0.040702489  0.045844503            4 
  117000    1.2350047     -5.94377     57.16499  0.040715805  0.045815186            5 
  118000    1.2288538   -5.8788758    57.641549  0.040707308  0.045785753            5 
  119000    1.2539111   -5.8756819    58.150457  0.040721608  0.045753913            3 
  120000    1.2290676   -5.9073492    58.622331  0.040709952  0.045719332            2 
  121000    1.2676331    -5.882029    59.099618  0.040702216  0.045684099            2 
  122000    1.2366808   -5.8984449    59.314979  0.040515696  0.045646624            5 
  123000    1.2463564    -5.881841    60.115911  0.040728937  0.045607978            4 
  124000    1.2213103   -5.8785004    60.554526  0.040695246  0.045570233            3 
  125000    1.2173591   -5.9495772    61.040015  0.040693343  0.045533015            2 
  126000    1.2335942   -5.8661613    61.708401  0.040812434  0.045503967            1 
  127000    1.2510282   -5.8847635    62.095576  0.040745128  0.045473197            3 
  128000    1.2340509   -5.9342917    62.494179  0.040686314  0.045440004            5 
  129000    1.2220854    -5.895733    63.296273  0.040889065  0.045408173            5 
  130000    1.1968408   -5.8923656    63.571099  0.040750704  0.045378874            4 
  131000    1.2515225   -5.9113739    64.160955  0.040814857  0.045351749            3 
  132000    1.2527905   -5.8924192    64.786478  0.040900554  0.045323958            3 
  133000    1.2409291   -5.8865673    65.336734  0.040937803  0.045298623            2 
  134000    1.2116066   -5.9140243    65.919402  0.040994653  0.045271467            4 
  135000    1.2503038   -5.9253059    66.176869  0.040849919  0.045243918            2 
  136000    1.1976306   -5.8730721    67.051553   0.04108551  0.045217648            5 
  137000    1.2563593   -5.8924258    67.343614  0.040963269  0.045190732            2 
  138000    1.2569267   -5.9132629    67.767386  0.040922334  0.045164381            6 
  139000     1.250544   -5.9210946    68.381279  0.040995971  0.045138078            3 
  140000    1.2409373   -5.8827659    68.936195  0.041033449  0.045110368            5 
  141000     1.229369    -5.889498    69.341735  0.040982112  0.045087602            4 
  142000     1.229163   -5.9184145    69.467964  0.040767585  0.045063144            3 
  143000    1.2148454   -5.8826335    70.548633  0.041112257  0.045040854            4 
  144000    1.2441718   -5.9025193    71.470511  0.041360249  0.045025114            3 
  145000    1.1981685    -5.902879    71.604799  0.041152183  0.045010349            4 
  146000    1.2552864   -5.8922221    72.545669  0.041407345  0.044997661            4 
  147000    1.2176217   -5.9106732    72.818398  0.041280271  0.044985885            3 
  148000    1.2453781   -5.8911598    73.296514   0.04127056  0.044972279            1 
  149000    1.2451427   -5.8973962    73.490513  0.041102077  0.044949994            3 
  150000    1.2319545   -5.9226073    73.949735  0.041083186  0.044926009            3 
  151000    1.2198606   -5.9094437    74.218991  0.040959708  0.044896296            3 
  152000     1.240728    -5.894784    75.016137  0.041127268  0.044870431            7 
  153000    1.2249152   -5.9361939    75.385634  0.041059713  0.044840978            4 
  154000    1.2240239   -5.9121119    75.682095  0.040953515  0.044811756            2 
  155000    1.2396766   -5.9036192    76.232316  0.040985116  0.044783192            6 
  156000    1.2045023   -5.9407261    76.239816  0.040726397  0.044749311            6 
  157000    1.2423657   -5.9244102    76.901025  0.040817954  0.044715335            5 
  158000    1.2187853   -5.9510306    77.325129  0.040783296  0.044680509            7 
  159000    1.2162194   -5.9065341     77.86932  0.040812012  0.044645037            2 
  160000    1.2269158   -5.9325934    78.259051  0.040759922  0.044607812            3 
  161000     1.238878   -5.9188001    78.930052  0.040854064  0.044570165            4 
  162000    1.2211336   -5.9140558    79.224504  0.040753345  0.044537492            8 
  163000    1.2242133   -5.9126312    79.976802  0.040887935   0.04450846            5 
  164000    1.2337366   -5.9091539    80.591076   0.04095075  0.044479037            2 
  165000    1.2444332   -5.9018283    80.803094  0.040809644  0.044449527            2 
  166000    1.2216887   -5.9402529    81.322703   0.04082465  0.044419075            3 
  167000    1.2323429   -5.9416899    82.218999  0.041027444  0.044392337            3 
  168000    1.2526094   -5.9229691    82.541912  0.040943409  0.044366041            2 
  169000     1.231611   -5.9073447    82.830923  0.040843651  0.044339429            3 
  170000    1.2343553   -5.8810248     83.75007  0.041053956  0.044315535            4 
  171000    1.2325488   -5.9330673    84.098715  0.040983779  0.044292038            5 
  172000     1.201171   -5.9218495     84.92013  0.041143474  0.044272632            5 
  173000    1.2143716   -5.8919322    85.326878  0.041101579  0.044251003            5 
  174000    1.2143218   -5.9332124    85.822222  0.041102596  0.044228962            3 
  175000    1.2253923   -5.9210063    86.478362  0.041180172  0.044210706            5 
  176000    1.2358283    -5.925813     86.84998  0.041122149  0.044195217            2 
  177000    1.2260784   -5.8818255    87.715656   0.04129739  0.044180261            1 
  178000    1.2144518   -5.9188083    88.177707  0.041281698  0.044167082            4 
  179000    1.2242468   -5.9007777    88.643975  0.041268145  0.044151264            6 
  180000    1.2242952   -5.8751555    89.266855  0.041327248   0.04413621            1 
  181000    1.1937255   -5.9249158    89.338177  0.041131757  0.044121688            4 
  182000    1.2427848    -5.915524    90.024447  0.041219985   0.04410574            3 
  183000    1.2226814   -5.9594997    89.976053  0.040972701  0.044085374            3 
  184000     1.203249   -5.9074521     90.75968  0.041104927  0.044064576            2 
  185000    1.2168819   -5.8901447    91.756164  0.041331605  0.044046864            2 
  186000    1.2002171   -5.9055801    91.893908  0.041171105  0.044030336            3 
  187000    1.2185834   -5.9242465    92.409407  0.041180662  0.044016884            4 
  188000    1.2098968   -5.9364229    93.363727  0.041384631   0.04400313            3 
  189000     1.202418   -5.9357552    93.693917  0.041311251  0.043990033            5 
  190000    1.1946293   -5.9099584    94.206183  0.041318501  0.043978002            2 
  191000    1.2370557   -5.9131118    95.136366  0.041508013  0.043969666            4 
  192000    1.2006595   -5.9402804    95.713621   0.04154237  0.043961967            3 
  193000    1.2156728   -5.9133714    96.104527  0.041495909   0.04395412            5 
  194000    1.2116316   -5.9425071    96.240399  0.041340377  0.043948088            5 
  195000     1.209101   -5.9394624    97.172571   0.04152674  0.043943709            2 
  196000    1.2135896   -5.9042069    98.049105  0.041687544  0.043942129            2 
  197000    1.2051891   -5.9257511    98.678197  0.041742046  0.043940005            2 
  198000    1.2345127   -5.8973944    98.875005  0.041614059  0.043937569            3 
  199000    1.2075113   -5.9432284    99.806451  0.041794996  0.043936931            4 
  200000    1.1990882   -5.9119842    100.55301  0.041897086  0.043937566            4 
  201000    1.2311158   -5.9377404    101.13613  0.041930401  0.043941903            5 
  202000    1.2166929   -5.8993796    101.52847  0.041884682  0.043946783            5 
  203000    1.2109801    -5.919838    101.62503  0.041717994  0.043948865            5 
  204000    1.2545319   -5.9623247    101.89155  0.041622363  0.043948253            3 
  205000    1.2070827   -5.8751565    102.86347  0.041814419  0.043948126            5 
  206000    1.2121577   -5.9209887    103.36775  0.041815431   0.04394693            7 
  207000    1.2234712   -5.9341467     103.7755  0.041777577  0.043948128            2 
  208000    1.2372081   -5.9491853    104.67676  0.041937805  0.043950734            2 
  209000    1.2330786    -5.917501    105.09063  0.041902165  0.043952724            4 
  210000    1.2104076   -5.9202615    106.21255  0.042147839  0.043955288            2 
  211000    1.2172675   -5.9026074    106.26629  0.041969307  0.043958544            4 
  212000    1.2143853   -5.9323462    106.79401  0.041978777  0.043961861            8 
  213000      1.21962     -5.91814    107.03376  0.041875492  0.043963725            4 
  214000    1.2246271    -5.946162    107.39995  0.041822409  0.043961452            3 
  215000    1.2535378   -5.9314993    107.87779  0.041813098  0.043958262            3 
  216000     1.208143   -5.9317682     108.1501  0.041724576  0.043954079            2 
  217000    1.2094198   -5.9329806    108.82288  0.041790661  0.043952244            4 
  218000    1.2309963   -5.9005936    109.45236  0.041839588  0.043950935            3 
  219000    1.2372273   -5.9347236    110.41229  0.042013809  0.043950295            7 
  220000    1.2132164   -5.8960851     110.6915  0.041928597  0.043948193            2 
  221000    1.2148327   -5.9599685    111.13178  0.041904895  0.043947425            2 
  222000    1.1924021   -5.9161378    111.85903  0.041989126  0.043947234            5 
  223000     1.242134   -5.9108182    112.24692  0.041945784  0.043947241            5 
  224000    1.2253519   -5.9276827    113.11293  0.042080703  0.043949155            4 
  225000     1.210066   -5.8728297    113.77522  0.042138971  0.043953421            5 
  226000    1.2184899   -5.9254411    114.24584  0.042126047   0.04395657            2 
  227000    1.2189887   -5.9149297    115.03939  0.042231786  0.043960291            4 
  228000     1.207146   -5.9213486    115.61325  0.042256303  0.043964407            6 
  229000     1.207094   -5.9213579     116.3525  0.042340794  0.043967671            4 
  230000    1.2063752   -5.9272246    116.47312  0.042200407  0.043971601            2 
  231000    1.2131696   -5.9079118    116.95752  0.042192469   0.04397534            4 
  232000     1.211413   -5.9208967    117.66675  0.042265356  0.043979865            3 
  233000    1.2173014   -5.8982914    118.13674  0.042252053  0.043982973            2 
  234000    1.2091813   -5.9468205    118.27608  0.042121111  0.043984019            3 
  235000    1.2331887   -5.9040812    118.75704  0.042112426  0.043982457            4 
  236000    1.1956759   -5.9546739    118.93021  0.041995131  0.043981583            5 
  237000    1.1961791   -5.9065263    120.06654  0.042217489  0.043981555            2 
  238000    1.2220391   -5.9338947    120.45116  0.042174776  0.043982681            3 
  239000    1.1923955   -5.9625979    121.22862  0.042269394  0.043986208            5 
  240000    1.1969444   -5.9553682    121.47124  0.042177512  0.043988765            2 
  241000    1.2201178   -5.9164928    123.01651  0.042536828  0.043994968            3 
  242000    1.1926058   -5.9263786    123.24989  0.042441423  0.044000714            4 
  243000    1.2014612    -5.942733    124.38001  0.042654325  0.044007869            5 
  244000    1.2263618   -5.9624296    124.25138   0.04243558  0.044017048            1 
  245000    1.2331315   -5.9611035    125.08728  0.042546695  0.044026719            3 
  246000    1.2329735   -5.9394305     125.6162  0.042552912  0.044037211            4 
  247000    1.2320074   -5.8995152    126.67223  0.042736918  0.044047271            3 
  248000    1.1841014   -5.9489958    127.48472  0.042837609  0.044058731            2 
  249000    1.2197597     -5.95156    126.92964    0.0424798  0.044068166            2 
  250000     1.197822   -5.9666261    127.71388  0.042571292  0.044077362            2 
  251000    1.1779869   -5.9413888    128.21037  0.042566523  0.044083664            2 
  252000    1.1965567   -5.9356046    128.56347  0.042514374  0.044090985            5 
  253000    1.2046355   -5.9610157    129.21255  0.042560127  0.044096465            4 
  254000     1.205094    -5.933625    129.93768  0.042630473  0.044104088            5 
  255000     1.212278    -5.953141    130.65323  0.042697134   0.04411295            3 
  256000     1.210671   -5.9264038     131.1573  0.042694432  0.044123735            4 
  257000    1.2067552   -5.9511072    131.52866  0.042648722   0.04413042            4 
  258000     1.233116   -5.9456974    131.45511   0.04245966  0.044135119            4 
  259000    1.1966824   -5.9538774    132.09337  0.042501083  0.044139393            2 
  260000    1.2290079   -5.9408456    132.34742  0.042419044  0.044140806            4 
  261000    1.2206749    -5.961547    132.66956  0.042359375  0.044139998            2 
  262000    1.2208283   -5.9567614    133.18696  0.042362264  0.044138846            2 
  263000    1.2065288   -5.9363681    133.44248  0.042282155  0.044136002            3 
  264000    1.2135816   -5.9402809     133.7667  0.042224336  0.044131932            4 
  265000     1.259684   -5.9392432    134.96101  0.042440569  0.044128656            3 
  266000    1.2070134   -5.9792365    134.58797   0.04216415  0.044123417            8 
  267000    1.2066229   -5.9282104    135.34844  0.042243582  0.044118413            3 
  268000    1.2048327   -5.9564988     135.3588  0.042089179  0.044111663            4 
  269000    1.2136855   -5.9249221    136.04828  0.042146308  0.044105658            2 
  270000    1.2002068   -5.9746181    136.24944  0.042052297  0.044097857            3 
  271000    1.2160002   -5.9333563    136.78951  0.042063195  0.044089048            2 
  272000    1.2015165   -5.9181634    137.61632  0.042161863  0.044080826            4 
  273000    1.2115559   -5.9795505     137.6169  0.042007602  0.044072678            4 
  274000    1.2081962   -5.9530684    137.83287  0.041919973  0.044062463            2 
  275000    1.2294924   -5.9608482    138.32048  0.041915298  0.044052917            4 
  276000    1.2136747   -5.9692321    139.30528  0.042060773  0.044043785            4 
  277000    1.1961486   -5.9299105    139.88773  0.042084155  0.044032703            2 
  278000     1.205458   -5.9405982    140.46613  0.042106155  0.044021639            4 
  279000    1.2273711    -5.974192    140.23859  0.041887272   0.04401024            3 
  280000    1.2256071   -5.9180507    141.01965  0.041970133  0.043998892            3 
  281000    1.2126984   -5.9384246    141.65474  0.042009116  0.043989375            3 
  282000    1.2135565   -5.9715597    142.03925  0.041973774  0.043979961            5 
  283000    1.1844779   -5.9279491    143.17237  0.042159121   0.04397223            2 
  284000    1.1819474   -5.9250477    143.84524   0.04220811  0.043965667            4 
  285000    1.1902265   -5.9473563     144.2939    0.0421912  0.043959631            4 
  286000    1.1843209   -5.9464059    145.52391  0.042402071  0.043954623            5 
  287000    1.2158285   -5.9787223    145.42383   0.04222527  0.043950621            6 
  288000    1.2073571   -5.9355671    146.60731  0.042421096   0.04394635            2 
  289000    1.2045536   -5.9510079    146.48402  0.042238761  0.043940989            5 
  290000    1.1944378   -5.9460966    147.35341  0.042342933  0.043933761            3 
  291000    1.2295189   -5.9600425    146.99123  0.042093707  0.043927547            2 
  292000    1.1717446   -5.9107107    147.49086   0.04209214  0.043919364            4 
  293000    1.1923174   -5.9192379    148.05894   0.04211005   0.04391239            3 
  294000    1.1973076   -5.9534872     147.7409  0.041876672  0.043902493            4 
  295000    1.1974972   -5.9541861     148.5223  0.041955453   0.04389237            5 
  296000    1.2011259   -5.9420687    149.66023  0.042134074  0.043884988            2 
  297000    1.2127419   -5.9199429    150.22086  0.042149511  0.043876836            4 
  298000    1.2112558   -5.9599439    150.17034  0.041993943  0.043868883            4 
  299000    1.2322713   -5.9470108    151.33763  0.042178828  0.043861121            6 
  300000     1.233943   -5.9844979    151.21067  0.042002962  0.043852217            2 
  301000    1.1957952   -5.9351658    152.01012  0.042084752  0.043842537            2 
  302000    1.2086851   -5.9683531    151.74775  0.041872999  0.043832053            2 
  303000    1.1828349    -5.981046    152.28682  0.041883065  0.043821239            4 
  304000    1.2327455   -5.9321142    153.41694  0.042055083  0.043811867            3 
  305000    1.2068874   -5.9422684    154.62747  0.042247942  0.043804265            4 
  306000      1.21811   -5.9777193     154.1549  0.041981183  0.043795873            2 
  307000      1.18784   -5.9632813    155.00297  0.042074638  0.043787755            2 
  308000    1.1807096   -5.9472037    155.85859  0.042169532  0.043781659            2 
  309000    1.2285282   -5.9403531    156.41609  0.042183411  0.043774932            5 
  310000    1.2192148   -5.9538991     156.5299  0.042077931  0.043767543            2 
  311000    1.1906435   -5.9675705    157.61196  0.042232571  0.043761249            3 
  312000    1.2070632   -5.9457201    157.85004  0.042160801   0.04375503            3 
  313000    1.1938312   -5.9623929    158.99688  0.042331438  0.043750174            2 
  314000    1.2069381   -5.9204264    159.16529   0.04224132  0.043746209            3 
  315000    1.2077773   -5.9246137    159.47567  0.042189331  0.043741078            6 
  316000    1.2057307   -5.9376962    159.64727  0.042101074  0.043735572            2 
  317000    1.2050109   -5.9432795     160.0718  0.042079863  0.043729344            2 
  318000    1.1945593   -5.9419666    160.55781  0.042074899  0.043721837            4 
  319000    1.1893675   -5.9337456    161.42079   0.04216844  0.043714417            5 
  320000    1.2261287   -5.9789884     161.2578  0.041994219  0.043706122            5 
  321000    1.1975757   -5.9434147    162.83998  0.042274139   0.04369862            3 
  322000    1.2171596   -5.9291373    162.58414   0.04207664   0.04369238            3 
  323000    1.1658728   -6.0042938    163.30319  0.042131886   0.04368599            4 
  324000    1.1863524   -5.9769041    163.15904  0.041964775  0.043678518            2 
  325000    1.1835571   -5.9981589    164.12243  0.042082674  0.043670293            2 
  326000    1.1926911   -5.9337803    164.03859  0.041932155  0.043661761            3 
  327000    1.1732557   -5.9776727     164.8326   0.04200627  0.043652906            5 
  328000    1.1941931   -5.9679919    165.08964  0.041943507  0.043643871            3 
  329000    1.2010907   -5.9724415     166.0201  0.042051697  0.043635052            2 
  330000    1.2001047   -5.9371333    165.82971  0.041876188  0.043626417            7 
  331000    1.1936165   -5.9738617    165.72209   0.04172258  0.043616562            2 
  332000    1.1955552   -5.9450925    167.45777  0.042032574  0.043605948            6 
  333000    1.1892466   -5.9180975     167.8375  0.042001376  0.043596615            2 
  334000    1.1735177   -5.8929457      168.089  0.041938372  0.043586251            4 
  335000    1.2188505   -5.9600142    168.01891  0.041795749  0.043576827            3 
  336000    1.1989247   -5.9570612    169.03589  0.041923583  0.043566289            5 
  337000    1.2059524   -5.9353005    169.84247  0.041998633  0.043557013            3 
  338000    1.1869435   -5.9836955    170.08048  0.041933058  0.043549132            4 
  339000    1.2181815   -5.9457486    171.63121  0.042190562   0.04354227            4 
  340000    1.1913373   -5.9535288    172.07496  0.042175234  0.043536109            2 
  341000     1.202898   -5.9450701    172.40762   0.04213285   0.04353084            3 
  342000    1.2078625   -5.9727256    172.42864  0.042014775  0.043526705            3 
  343000     1.204011   -5.9864131    173.53021  0.042159915  0.043522567            7 
  344000    1.1848164   -5.9328869     174.2137  0.042202932  0.043518248            4 
  345000    1.2296002   -5.9724791    175.31987  0.042347795   0.04351454            3 
  346000    1.1519506   -5.9471782    174.65351  0.042064911  0.043509626            2 
  347000    1.1929158   -5.9794932    175.21571  0.042078702  0.043503325            4 
  348000     1.224054   -5.9517757    175.89456  0.042120345  0.043496957            7 
  349000    1.1710967   -5.9228675    176.18632  0.042069323   0.04349046            4 
  350000    1.2179316   -5.9355995    176.18155  0.041947988  0.043482792            4 
  351000    1.2087695   -5.9651384    177.26268  0.042085158  0.043475154            3 
  352000    1.1949558   -5.9537301    177.69097  0.042066991   0.04346683            4 
  353000    1.1970925    -5.958819    178.10644  0.042045901  0.043459059            5 
  354000    1.1600367   -5.9451035    178.31856  0.041977062  0.043452583            4 
  355000    1.2162826   -5.9447394    179.16117  0.042056612  0.043444931            3 
  356000     1.183638   -5.9494891    179.76715  0.042080325  0.043438076            4 
  357000    1.1727379   -5.9295797    180.22341  0.042068955  0.043430771            2 
  358000    1.2120315   -5.9566915    179.88194  0.041871959  0.043422114            3 
  359000    1.1970429   -5.9913708    181.12848  0.042044681  0.043413252            4 
  360000    1.1901134   -5.9641562     180.7339  0.041836551  0.043404811            5 
  361000    1.2056059   -5.9758696    181.46401  0.041889199  0.043395687            3 
  362000    1.1983459   -5.9501193    181.89071  0.041871709  0.043387538            6 
  363000    1.1731893   -5.9958516    181.85358  0.041747837  0.043378025            4 
  364000    1.2204658   -5.9553165    182.62951  0.041810785  0.043368798            2 
  365000    1.2004955   -5.9945608    183.63537  0.041925883  0.043360173            2 
  366000    1.1776849   -5.9510408    184.16391  0.041931674  0.043351881            4 
  367000    1.2008993    -5.960295    183.95933  0.041770965  0.043344602            5 
  368000    1.1965514   -5.9623493    185.27131  0.041954554  0.043336724            2 
  369000     1.179646   -6.0118218    184.82907  0.041740982  0.043327891            5 
  370000    1.1784808   -6.0201779    185.38151  0.041752593  0.043319077            3 
  371000    1.1925365    -5.988929    185.80591   0.04173538  0.043309069            5 
  372000    1.1966531   -5.9663474     186.6687  0.041816465  0.043298907            6 
  373000    1.2172542   -5.9604776    186.61006  0.041691255  0.043288259            3 
  374000    1.1877044   -5.9721766    186.90886  0.041646359  0.043277819            9 
  375000    1.1868009   -5.9780676    187.00714  0.041557143  0.043267734            5 
  376000    1.1892615   -6.0017505    187.61702  0.041581787  0.043255659            4 
  377000    1.1763046   -5.9615652     187.8541  0.041523896  0.043242491            6 
  378000    1.1935737   -5.9733279     188.0534  0.041457981  0.043229048            5 
  379000    1.2093785   -5.9514081    188.95938  0.041547797   0.04321794            5 
  380000     1.178822   -5.9882124    189.18783  0.041488558  0.043206012            2 
  381000    1.1819987    -6.008736    190.13131  0.041586025  0.043193993            2 
  382000     1.177824   -5.9759326     189.7606  0.041396291  0.043181468            3 
  383000    1.1784783   -5.9747619    190.28819     0.041403  0.043168577            5 
  384000    1.2099688   -5.9746718    191.29619   0.04151393  0.043156491            5 
  385000    1.1827291   -5.9777676    191.96898  0.041551728  0.043143349            4 
  386000    1.1836445   -5.9372068    192.12681  0.041478154  0.043130842            4 
  387000    1.1985984   -5.9977683    193.26451  0.041615958   0.04311974            2 
  388000    1.1830083   -5.9564294    192.91379  0.041433373  0.043108986            4 
  389000    1.1888222   -5.9716811    194.39365  0.041643883  0.043097046            2 
  390000     1.183297   -5.9404212    194.64207  0.041590186  0.043086618            3 
  391000    1.1778015   -5.9767719    194.54411  0.041462939  0.043074919            9 
  392000    1.2079473   -5.9782669    195.52574  0.041565846  0.043063717            3 
  393000    1.2062509   -5.9673553     196.2602  0.041615817  0.043053775            5 
  394000    1.1942828   -5.9521385    197.57232  0.041787716  0.043043948            1 
  395000    1.1741949   -5.9662274    197.56732  0.041680868  0.043034471            3 
  396000     1.174575    -5.978302    198.34373     0.041739  0.043025837            2 
  397000    1.2072706   -5.9639938    199.33492  0.041841922  0.043017404            3 
  398000    1.1648643   -5.9555774    198.35775  0.041532192   0.04300826            6 
  399000     1.193482   -5.9590249    199.66008  0.041700101  0.042998309            4 
  400000    1.1875395   -6.0135599    199.45863  0.041553881  0.042988268            3 
  401000    1.2005776   -5.9737103    200.89418  0.041748583  0.042978875            4 
  402000    1.1673157   -5.9830591    200.76959  0.041618903  0.042969947            3 
  403000    1.1726009   -5.9616989    200.89431   0.04154142  0.042959745            3 
  404000    1.2114497     -6.00979    201.58658   0.04158139  0.042950436            4 
  405000    1.2087857   -6.0002779    202.36271  0.041638417  0.042941061            7 
  406000    1.1783575   -5.9734752    202.01107  0.041463684  0.042930532            2 
  407000    1.1924128   -5.9445816     203.3418  0.041634276  0.042920199            3 
  408000    1.1825364   -5.9827515    202.75328  0.041412026   0.04290915            4 
  409000    1.1783658   -5.9803566    203.89088  0.041542559  0.042898705            6 
  410000    1.1945754   -5.9746949    203.98973  0.041461328  0.042888512            7 
  411000    1.2148819   -6.0000746    205.03395  0.041572172  0.042878854            2 
  412000    1.1918675    -5.970724    206.00177  0.041667026  0.042870125            7 
  413000    1.2034167   -5.9594599    205.94119  0.041553912  0.042862089            3 
  414000    1.1985058   -5.9779124    207.10191   0.04168718  0.042853698            3 
  415000     1.177518   -5.9768698    207.35424  0.041637397  0.042845006            5 
  416000    1.1557795   -5.9903454    208.09306  0.041685308  0.042837271            6 
  417000    1.2203885   -5.9498354    208.32416  0.041631526  0.042828941            4 
  418000    1.1710544   -5.9805927    208.21136  0.041509443  0.042820694            5 
  419000    1.1512702   -5.9400807     208.3876  0.041445425  0.042811453            8 
  420000    1.1753263   -5.9996761    208.32437  0.041334201  0.042801195            4 
  421000    1.1496768   -5.9903069    208.93182  0.041356258  0.042790378            2 
  422000    1.1787386   -5.9824372    209.26849  0.041324742  0.042778459            1 
  423000    1.1942781   -5.9864395    209.46379  0.041265522  0.042766618            3 
  424000    1.2000341   -5.9824368     210.2208  0.041316981  0.042754468            4 
  425000     1.198359   -6.0052546    210.46005  0.041266676  0.042742734            2 
  426000    1.1965079   -5.9700837    211.66188  0.041404906  0.042731833            4 
  427000    1.1775626   -5.9859425    212.05405  0.041384475  0.042721451            2 
  428000    1.1695123   -5.9657577    212.68221  0.041410087  0.042711263            5 
  429000    1.1779025   -6.0020784    212.83466  0.041343174  0.042701597            3 
  430000    1.2022863   -5.9783587    213.58798  0.041393019  0.042690721            4 
  431000    1.1813245   -6.0227954    214.31742  0.041438016  0.042681149            3 
  432000    1.1931633    -5.980115    215.39245   0.04154947  0.042672485            5 
  433000    1.1600784   -5.9599352    215.61337  0.041496029  0.042664529            3 
  434000    1.1801629   -6.0037237      215.525  0.041383448  0.042656266            4 
  435000    1.2154113   -5.9776893     216.4209  0.041459942  0.042647996            4 
  436000    1.1882234   -5.9985413    216.72719  0.041423392   0.04263922            3 
  437000    1.1769235   -5.9673794    217.30861  0.041439476  0.042630772            4 
  438000    1.1577976   -5.9925566    218.32006  0.041537302  0.042622153            8 
  439000    1.2060411   -6.0139474    217.60585   0.04130711  0.042613112            3 
  440000    1.1733155   -5.9731714     219.2382  0.041522386    0.0426032            2 
  441000    1.2079866   -5.9964727    218.37126   0.04126441  0.042592503            4 
  442000    1.1450359   -5.9943606    218.87335  0.041265715  0.042581485            8 
  443000    1.1862426   -5.9913499    219.50191  0.041290802  0.042571046            4 
  444000    1.1768519   -5.9525782    219.97728  0.041287027   0.04256112            3 
  445000    1.1651741    -6.014412    220.91085  0.041369074  0.042550768            5 
  446000    1.1599375   -6.0199632    220.48036  0.041195881  0.042541855            4 
  447000    1.2001139    -6.003834    221.61631  0.041315494  0.042533425            4 
  448000    1.1979382   -6.0014792    222.52532  0.041392359  0.042524303            4 
  449000    1.1646294   -5.9643084    223.22478  0.041429988  0.042515895            3 
  450000    1.1756295   -5.9657811    223.92228  0.041467089  0.042508037            4 
  451000    1.1687173   -5.9730334    224.42004  0.041467117  0.042499597            3 
  452000    1.1671929   -5.9922365    223.84826   0.04126996  0.042491594            4 
  453000    1.1778646   -6.0087596    225.07741  0.041404968  0.042483073            6 
  454000    1.1883908   -5.9603362    224.97213  0.041294444  0.042475301            5 
  455000    1.1864465   -6.0025835     225.5862  0.041316154  0.042467386            6 
  456000    1.1698432   -6.0013851    227.18677  0.041518049  0.042460891            2 
  457000    1.1729248    -5.984418    227.11702  0.041414481   0.04245384            2 
  458000    1.2000085   -6.0030651     228.0425  0.041492449  0.042447145            2 
  459000    1.1985902   -6.0380211    227.42866  0.041290606  0.042440448            3 
  460000    1.1873892   -6.0404027    228.31939  0.041362209  0.042432957           12 
  461000    1.1968192   -6.0213911    228.61616  0.041326131  0.042425033            6 
  462000    1.1797422   -5.9578306    229.37918  0.041374312  0.042417318            2 
  463000    1.1908727   -5.9921008    229.51489  0.041309376  0.042409486            5 
  464000    1.1732286   -6.0286844    229.90055   0.04128961   0.04240031            3 
  465000    1.1873048   -5.9994551     231.9126  0.041561398  0.042392186            3 
  466000    1.1695376   -6.0048832    231.67142  0.041429081   0.04238518            6 
  467000    1.1866158   -5.9621037    231.61483  0.041330269  0.042378034            2 
  468000    1.1910476   -6.0197796    231.43225  0.041209447   0.04237054            9 
  469000    1.1807912   -5.9630185    233.13243  0.041423673   0.04236309            7 
  470000    1.1718043   -5.9983845    232.12836  0.041157511  0.042354845            2 
  471000    1.1798119   -5.9353412     233.2086  0.041261252  0.042347016            4 
  472000    1.1843296      -6.0148    234.22855   0.04135391  0.042338898            4 
  473000    1.1744061   -5.9942177    233.82444  0.041195285  0.042330409            5 
  474000    1.1741183   -6.0133483    233.99104  0.041137665  0.042322358            4 
  475000    1.1626647   -5.9948358    234.83157  0.041198521  0.042314498            2 
  476000    1.2018766   -5.9706353    236.59878  0.041421355  0.042306797            4 
  477000    1.1616327   -5.9993443    237.26446  0.041450813  0.042299335            2 
  478000      1.17091   -6.0214982    237.12155  0.041339182   0.04229221            4 
  479000    1.1554744   -5.9738462     236.8651  0.041208263  0.042284573            7 
  480000    1.1766693   -5.9901978     238.4481   0.04139724  0.042277665            4 
  481000    1.1832432   -6.0129165     238.8079   0.04137351  0.042270522            5 
  482000     1.181452   -5.9860554    239.36956  0.041384778  0.042263998            5 
  483000    1.1702009   -5.9874932    239.58617  0.041336469  0.042257653            6 
  484000     1.177023   -6.0238897    239.31066  0.041203626  0.042251185            7 
  485000    1.1653863   -6.0055706    240.80021  0.041374606  0.042244335            2 
  486000    1.1730562   -6.0010752    241.43945  0.041399082  0.042237811            6 
  487000    1.1572537   -5.9856977    241.36982   0.04130216  0.042231239            5 
  488000    1.1733966   -6.0186346    242.19212  0.041357945  0.042225516            3 
  489000    1.1395641   -5.9955104    243.05406  0.041420255  0.042220297            4 
  490000    1.1636583   -5.9867288    244.13485  0.041519532  0.042215222            2 
  491000    1.1732122    -5.999981    244.79795  0.041547513  0.042211093            9 
  492000    1.1751085   -6.0374949    244.43905  0.041402278  0.042206489            7 
  493000    1.2030341   -5.9949514    245.32702  0.041468395  0.042201585            3 
  494000    1.1640406   -5.9839691    246.24842  0.041539882  0.042197152            2 
  495000    1.1790564   -6.0326491    245.67192  0.041358909  0.042192453            3 
  496000    1.2040425    -6.000731    246.87811  0.041478178  0.042187868            5 
  497000     1.158467   -6.0279177    247.11246  0.041434014  0.042182536            3 
  498000    1.1836251   -6.0140968    246.73811  0.041288172  0.042176281            3 
  499000    1.1667875   -6.0411072    247.38502  0.041313464  0.042170231            2 
  500000    1.1658459   -6.0212516    247.94455  0.041324091  0.042164065            4 
  501000     1.151722   -5.9712869    247.72527  0.041205134  0.042157783            2 
  502000    1.1484539   -5.9971383    247.88274  0.041149194  0.042151627            5 
  503000     1.193298   -5.9790795    249.03711  0.041258633  0.042145007            3 
  504000    1.1941835   -5.9718732    248.81636  0.041140271  0.042138133            4 
  505000     1.176566   -6.0148694     248.9613  0.041082723  0.042130451            6 
  506000    1.1702879   -6.0091063     250.2731  0.041217573  0.042123776            4 
  507000    1.1663783   -6.0154537    250.34398  0.041147926  0.042116581            5 
  508000    1.1822593   -6.0374215     251.4703  0.041251689  0.042109695            5 
  509000    1.1795093    -6.018112    250.81189   0.04106285  0.042102511            3 
  510000    1.1756796   -6.0015584    251.93405  0.041165694  0.042095394            3 
  511000    1.1444069    -6.015085    252.17939  0.041125145  0.042088368            5 
  512000    1.1641392   -5.9846768    252.94035  0.041168677  0.042081099            3 
  513000    1.1426727   -5.9913011    252.90438  0.041082583  0.042073517            7 
  514000    1.1895258   -6.0228048      253.692  0.041130351  0.042065996            4 
  515000    1.1726789   -6.0234047    253.55754  0.041028727  0.042057812            3 
  516000    1.1734828   -6.0551493    253.79231  0.040987131  0.042048882            2 
  517000    1.1583634   -6.0188781    254.21231  0.040975549  0.042039211            3 
  518000     1.144483   -6.0233183    253.44193  0.040772511  0.042028703            5 
  519000     1.156686    -6.025633    254.99765  0.040943746  0.042018422            4 
  520000    1.1595062   -5.9962489    255.52284  0.040949173  0.042008985            6 
  521000    1.1677789   -5.9833051    256.13405  0.040968337   0.04199972           12 
  522000    1.1523271   -6.0132998    256.49825  0.040947996  0.041990929            6 
  523000    1.1446124   -5.9751003    257.87282  0.041088723  0.041982338            3 
  524000    1.1748616   -6.0016864    257.73973  0.040989142  0.041973487            4 
  525000    1.1723367    -5.993102    258.70301  0.041063971  0.041964758            2 
  526000    1.1812388   -6.0000318    258.56127  0.040963446  0.041955869            2 
  527000    1.1896298   -6.0557956    257.70002  0.040749529  0.041946629           10 
  528000    1.1758965   -6.0339431     258.9951  0.040876751  0.041937196            4 
  529000    1.1688571   -6.0255957    259.24416  0.040838715  0.041927802            3 
  530000    1.1705813   -6.0346797    259.30705  0.040771548  0.041917723            5 
  531000    1.1623111   -6.0266845    260.79947  0.040928982  0.041907862            4 
  532000    1.1629218   -5.9939333    260.75211  0.040844629  0.041898417            3 
  533000    1.1763764   -6.0051325     260.7475  0.040767276  0.041888897            4 
  534000    1.1646377   -6.0482227    260.88433  0.040712287  0.041879245            4 
  535000    1.1592581   -6.0023125     261.8569   0.04078768   0.04186982            9 
  536000    1.1694964   -6.0167524    262.75629  0.040851414  0.041860394            3 
  537000    1.1668479   -5.9989125    263.04855  0.040820693  0.041851252            6 
  538000    1.1385663   -6.0299176    263.03593  0.040742865  0.041842052            2 
  539000    1.1703184   -5.9661227    265.11892   0.04098932  0.041832625            6 
  540000    1.1788075    -6.013564    264.20276  0.040772032  0.041823615            6 
  541000    1.1561355   -5.9980409    265.29471  0.040864866   0.04181356            3 
  542000    1.1462143   -5.9974057    265.77141  0.040862763  0.041804026            4 
  543000    1.1842538   -5.9833939    265.37255  0.040726297  0.041794823            5 
  544000    1.1803917   -5.9887196    266.49437   0.04082328  0.041785763            6 
  545000    1.1829838   -5.9836883     266.8679   0.04080549  0.041776601            6 
  546000    1.1685373   -6.0104632    267.19355  0.040780457  0.041767041            4 
  547000    1.1636586   -6.0349103    266.54745  0.040607473  0.041757647            5 
  548000    1.1871548   -5.9908573    267.81847  0.040726653  0.041748136            3 
  549000    1.1563134   -6.0215532    267.71587  0.040636896  0.041738349            7 
  550000    1.1445823   -5.9809929    268.30597   0.04065242   0.04172871            5 
  551000     1.178551   -6.0069654    268.98404  0.040681191   0.04171945            2 
  552000    1.1514988   -6.0145493    270.25006   0.04079862  0.041710204            7 
  553000    1.1556976   -6.0226398    269.98192  0.040684436  0.041700985            3 
  554000    1.1827664   -6.0223493    270.11427  0.040630906  0.041691503           12 
  555000    1.1611916   -5.9763531    270.57024  0.040626162  0.041682022            3 
  556000    1.1787029   -6.0365615     271.3018  0.040662739  0.041672358            2 
  557000    1.1784185   -6.0046455    271.48947  0.040617814  0.041662378            4 
  558000    1.1662457   -6.0133398    272.39601  0.040680407  0.041653095            3 
  559000    1.1885021   -6.0189422     272.8586  0.040676595  0.041643359            3 
  560000    1.1459492   -5.9768181    273.25939    0.0406636  0.041633782            1 
  561000    1.1738945   -6.0574673    273.44563   0.04061878  0.041624506            4 
  562000    1.1786446   -6.0284335    273.50478  0.040555276  0.041615048            6 
  563000    1.1434299   -6.0132677    275.05137  0.040712163  0.041605558            2 
  564000    1.1474158   -6.0207745    275.27333  0.040672774  0.041596106            3 
  565000    1.1652139   -6.0450965    274.55357  0.040494627  0.041586876            2 
  566000    1.1535763   -5.9995783    275.83407  0.040611612  0.041576869            3 
  567000    1.1454136   -6.0206565    276.11679  0.040581538   0.04156738            5 
  568000    1.1400448   -6.0052534     278.3762  0.040841579  0.041558455            2 
  569000    1.1471023   -6.0118278    278.14307  0.040735658  0.041550438            2 
  570000     1.148728   -5.9966569    277.72363  0.040602871  0.041541844            5 
  571000    1.1487642   -6.0225872    279.48145  0.040788302  0.041534241            6 
  572000    1.1269327   -6.0487394    279.55437  0.040727618  0.041526836            3 
  573000    1.1541272   -6.0442525    279.69973  0.040677681  0.041519505            2 
  574000    1.1624513   -6.0136544    280.63622  0.040742773  0.041512325            3 
  575000     1.171815   -5.9402279    281.47922  0.040794089  0.041505001            7 
  576000     1.139037   -5.9868389    281.12878  0.040672566  0.041497379            6 
  577000    1.1399884   -6.0191534    281.80473  0.040699701  0.041488795            3 
  578000    1.1470616    -6.038002    281.46692  0.040580582  0.041480402            2 
  579000    1.1733857   -6.0370666    282.85303  0.040709992  0.041471536            3 
  580000    1.1533728    -5.982379    282.53276  0.040593788  0.041463232            3 
  581000    1.1500433    -6.007848    283.67368  0.040687562  0.041454943            3 
  582000    1.1796599   -6.0277648    283.70383  0.040621968  0.041446782            4 
  583000    1.1493244   -6.0459426    284.03398  0.040599482  0.041438455            5 
  584000    1.1805775   -6.0175567     283.5061  0.040454638   0.04142979            3 
  585000    1.1536836   -6.0264392    284.66332   0.04055033  0.041421126            2 
  586000     1.153708   -6.0432619     284.1642  0.040410153  0.041412699            5 
  587000    1.1460949   -5.9963668    286.09106  0.040614858  0.041404122            3 
  588000    1.1417483   -6.0343941    284.95294  0.040384487  0.041395212            6 
  589000    1.1756277   -6.0526111    286.19363  0.040491459  0.041385791            4 
  590000    1.1435384   -6.0728111     286.2338  0.040428502  0.041376439            3 
  591000    1.1660374   -6.0388763    286.42307  0.040386784  0.041367276            4 
  592000    1.1844614   -6.0095283    287.37587  0.040452684  0.041358403            4 
  593000    1.1540757   -6.0200511    287.92658  0.040461858   0.04134904            3 
  594000      1.15879   -6.0515243    287.85383  0.040383534  0.041339452            1 
  595000    1.1637525    -5.999421    287.96114  0.040330691  0.041329994            4 
  596000    1.1643014   -6.0116646    288.60495  0.040353042  0.041320855            2 
  597000    1.1133952   -6.0284674    290.48366  0.040547691  0.041311322            3 
  598000    1.1717246    -6.092242    289.54699  0.040349358  0.041301979            3 
  599000    1.1792982   -6.0326137     290.5228  0.040417751  0.041292686           11 
  600000    1.1644573   -6.0484784    290.25934  0.040313798   0.04128334            8 
  601000     1.156102   -6.0516474    290.85791  0.040329716  0.041274167            4 
  602000    1.1624119    -6.062469     291.8119  0.040394781  0.041264783            2 
  603000    1.1670464   -6.0472226    292.59913  0.040436586  0.041255939            4 
  604000    1.1347203   -5.9978062    292.86347  0.040406108  0.041247496            7 
  605000    1.1214973   -6.0191379    294.48889  0.040563208  0.041238632            3 
  606000    1.1504235   -6.0540779    292.54397  0.040228819  0.041229392            3 
  607000    1.1716997   -6.0481168    293.47423  0.040290257   0.04122103            3 
  608000    1.1692794   -6.0529354    294.33473  0.040341931  0.041212623            5 
  609000     1.143085   -6.0314844    294.41297  0.040286394  0.041203597            5 
  610000    1.1743693   -6.0557609    294.52969  0.040236297  0.041194906            7 
  611000    1.1441515   -6.0026332    296.46351  0.040434193  0.041186309            3 
  612000    1.1593426    -6.021592    295.93319  0.040295914  0.041177382            5 
  613000    1.1570528    -6.046555     296.5636  0.040315878  0.041168364            4 
  614000    1.1527173   -6.0173773    297.02965  0.040313471  0.041159457            5 
  615000    1.1523718   -6.0401382    297.28053  0.040281914  0.041150543            5 
  616000     1.106191   -6.0214803     297.6107  0.040261188   0.04114199            3 
  617000    1.1707809    -6.023092    298.96383  0.040378692  0.041133586            3 
  618000    1.1384366   -6.0412831     299.7505  0.040419431  0.041125149            6 
  619000    1.1329158   -6.0199011    299.07509  0.040263205  0.041115997            4 
  620000    1.1351936   -5.9857457     300.4355  0.040381115  0.041106927            3 
  621000    1.1277075   -6.0436697    298.68705  0.040081461  0.041097414            3 
  622000    1.1525777    -6.084741    300.42138  0.040249381  0.041087628            6 
  623000    1.1407439   -6.0347121     301.0871  0.040273823   0.04107836            2 
  624000    1.1696773   -6.0300724    302.31638  0.040373448  0.041069102            2 
  625000    1.1661245   -6.0148558    302.89409  0.040385879  0.041060097            5 
  626000    1.1613404   -6.0656065    301.46765  0.040131476  0.041051451            4 
  627000    1.1533629   -6.0497335    302.50101  0.040204812   0.04104221            3 
  628000     1.144973    -6.033863    303.33774  0.040251823  0.041032968            4 
  629000    1.1534992   -6.0567173    303.74337  0.040241569  0.041023907            2 
  630000    1.1509468   -6.0423657    303.38298  0.040130024  0.041015109            5 
  631000    1.1280561   -6.0132246    303.72125    0.0401111  0.041006028            4 
  632000    1.1330015   -6.0438348    305.08204  0.040227062  0.040996935            3 
  633000    1.1204338   -6.0071462    304.52771  0.040090536  0.040987856            4 
  634000    1.1288875   -6.0312889    304.98139  0.040086934  0.040978513            3 
  635000    1.1286921   -6.0919897     305.9487  0.040150747  0.040969699            3 
  636000    1.1382686   -6.0098918    307.81395  0.040332016  0.040961162            6 
  637000    1.1711437   -6.0761011    306.18279  0.040055309  0.040952691            3 
  638000     1.162823    -6.040445    307.59061  0.040176412  0.040944295            5 
  639000    1.1540746    -6.058623    308.22869  0.040196751   0.04093605            5 
  640000    1.1658541   -6.0705279    307.59094  0.040050904  0.040927942            3 
  641000     1.173817    -6.047505    309.28761  0.040208998  0.040920206            5 
  642000    1.1365942   -6.0353932    309.59285  0.040185988  0.040912934            2 
  643000    1.1503431   -6.0375474    309.88753  0.040161681  0.040905378            4 
  644000    1.1462184   -6.0519067    311.60977  0.040322175  0.040898308            2 
  645000    1.1652282   -6.0494081    311.28975  0.040218314   0.04089105            3 
  646000     1.154327    -6.057264    311.21458  0.040146359  0.040883916            4 
  647000    1.1474154   -6.0207515    311.96691   0.04018121  0.040876418            3 
  648000    1.1682376   -6.0127884     312.0244  0.040126594  0.040869173            9 
  649000    1.1403766   -6.0720634    312.62659  0.040142089  0.040861865            7 
  650000      1.13084   -6.0558351    313.45078  0.040185997  0.040854602            4 
  651000    1.1356187   -6.0394432    314.19191  0.040219138  0.040847787            4 
  652000    1.1542677    -6.022745    314.73025  0.040226259  0.040841139            6 
  653000    1.1477847   -6.0531717    314.78027   0.04017104  0.040833808            5 
  654000    1.1258897   -5.9958862    315.98598  0.040263249  0.040826137            3 
  655000    1.1411454   -6.0349845    316.06066   0.04021128  0.040818563            3 
  656000     1.147746   -6.0539786    316.41496   0.04019499  0.040810812            3 
  657000    1.1351618    -6.045743    316.07099  0.040090181  0.040802427            4 
  658000    1.1536168   -6.0681662    316.32754  0.040061746  0.040794427            3 
  659000    1.1521384   -6.0624019    317.32158  0.040126654   0.04078606            3 
  660000    1.1560215   -6.0181814    317.76365  0.040121673  0.040777846            2 
  661000    1.1592846   -6.0680875    317.27702  0.039999625  0.040769544            3 
  662000    1.1462225   -6.0818911    318.15321  0.040049498  0.040761864            3 
  663000    1.1676465    -6.058987    318.15139  0.039988863   0.04075355            3 
  664000    1.1592493   -5.9858422    319.71173  0.040124464  0.040745316            4 
  665000    1.1676912   -6.0630269    318.93664  0.039966997  0.040737428            4 
  666000    1.1269499   -6.0509237     321.0841  0.040175688  0.040729041            4 
  667000    1.1272915   -6.0152291    320.66957  0.040063665  0.040720801            4 
  668000    1.1520611   -6.0172799    320.23095  0.039948971  0.040712816            3 
  669000    1.1396002   -6.0466443    320.76234  0.039955448  0.040704981            2 
  670000     1.145368   -6.0693912    320.98504  0.039923513  0.040696915            3 
  671000    1.1770517   -6.0687981    322.63936  0.040069468  0.040689238            4 
  672000    1.1445237   -6.0483129    323.01758  0.040056743  0.040681805            4 
  673000    1.1346368   -6.0264887     323.9147  0.040108309   0.04067462            5 
  674000    1.1371033   -6.0540058    324.83004  0.040161973  0.040666794            5 
  675000    1.1262437   -6.0553012    324.05786  0.040007143    0.0406595            3 
  676000    1.1285955   -6.0601697    324.61181  0.040016248  0.040651983            2 
  677000    1.1401554   -6.0652261     325.0606  0.040012383   0.04064435            3 
  678000    1.1269233    -6.099339    325.03984  0.039950816  0.040637104            2 
  679000    1.1493003   -6.0368474    326.03963  0.040014682  0.040629931            3 
  680000    1.1608998   -6.0616207    326.51903  0.040014587  0.040623037            4 
  681000    1.1202776   -6.0149721    328.54873  0.040204201  0.040615663            3 
  682000    1.1219599   -6.0523465    328.25874  0.040109816   0.04060891            2 
  683000    1.1570102   -6.0098544    328.97404  0.040138365   0.04060249            3 
  684000    1.1189618    -6.052183    329.94804  0.040198348  0.040596042            3 
  685000    1.1469502   -6.0792825    329.97959  0.040143502  0.040589718            6 
  686000     1.125071   -6.0589177    330.04556  0.040092998  0.040583634            3 
  687000    1.1365337   -6.0751678    331.02179  0.040153055  0.040577328            3 
  688000    1.1376655   -6.0822503    329.62326  0.039925298   0.04057084            4 
  689000    1.1109112   -6.0454065    331.60462  0.040106994  0.040564376            5 
  690000    1.1657149   -6.0819921    331.24653   0.04000562  0.040557801            4 
  691000    1.1371149   -6.0654353    332.00058  0.040038661  0.040551485            3 
  692000    1.1112399   -6.0230938    332.98708    0.0400996  0.040545452            2 
  693000    1.1478132   -6.0673037    333.07087  0.040051812  0.040539283            9 
  694000    1.1347895   -6.0688836    333.26262  0.040017126  0.040532751            5 
  695000    1.1408509   -6.0535263    333.51773  0.039990135  0.040526247            5 
  696000    1.1609046   -6.0648438    333.66928  0.039950824  0.040519599            5 
  697000    1.1359414   -6.0460674    334.08384   0.03994307  0.040512977            6 
  698000    1.1505234   -6.0935539    334.29654  0.039911239  0.040506169            3 
  699000    1.1356387   -6.0481291    336.09411  0.040068445  0.040498951            4 
  700000     1.155435    -6.038799    336.63876  0.040076042  0.040492604            3 
  701000    1.1480485     -6.06505    337.34778   0.04010316  0.040486324            4 
  702000    1.1418878   -6.0358321    336.96464  0.040000551  0.040480166            7 
  703000    1.1587542   -6.0608174    337.96761  0.040062543  0.040474012            4 
  704000    1.1253787   -6.0575226    337.21948  0.039917079   0.04046737            4 
  705000    1.1325348   -6.0786196    337.64442  0.039910688  0.040460847            5 
  706000    1.1226968   -6.0543182    339.24829  0.040043471  0.040454776            3 
  707000    1.1395451   -6.0850473     339.2682   0.03998918  0.040448489            4 
  708000    1.1405782   -6.0763821    340.38783  0.040064481  0.040442058            3 
  709000    1.1477109    -6.082427    339.92989  0.039954148  0.040435838            3 
  710000     1.131811   -6.0770686    340.20412  0.039930061  0.040429703            6 
  711000    1.1241606   -6.0313511    340.61617  0.039922195  0.040423628            4 
  712000    1.1369035   -6.0446778    341.57006  0.039977769  0.040417444            3 
  713000    1.1186273     -6.04721    340.43118   0.03978859  0.040411326            7 
  714000    1.1403504   -6.0777655     341.2409  0.039827369  0.040404574            4 
  715000    1.1214175   -6.0290877     342.2312  0.039887086  0.040397866            3 
  716000    1.1588611   -6.0599463    342.34971  0.039845171   0.04039099            3 
  717000    1.1435017   -6.0673085    342.94378  0.039858645  0.040383756            2 
  718000    1.1369613   -6.0658698    342.37857  0.039737531  0.040376795            9 
  719000    1.1372187   -6.0644112    343.04827  0.039759883  0.040369696            8 
  720000    1.1355958   -6.0447408    343.65299  0.039774651  0.040362575            4 
  721000    1.1189482   -6.0626733    343.94975  0.039753785  0.040355822            4 
  722000    1.1200187    -6.088574    343.97084  0.039701158   0.04034871            5 
  723000    1.1193223    -6.036861    345.28034   0.03979718  0.040341259            3 
  724000    1.1343075   -6.0463396    345.43375  0.039759869  0.040333767            2 
  725000    1.1685738   -6.0776592    345.32147  0.039692123  0.040326616            5 
  726000     1.123168   -6.0496096    346.08923  0.039725577  0.040318764            3 
  727000    1.1240224   -6.0711898    345.71485  0.039628021  0.040310739            2 
  728000    1.1427361   -6.0754803    346.52449  0.039666265  0.040302773            3 
  729000    1.1353165   -6.0842365    347.63885  0.039739238  0.040294719            6 
  730000    1.1398979   -6.0763905    346.31086  0.039533203   0.04028693            9 
  731000    1.1219155   -6.0437062    347.33994  0.039596436  0.040278843            6 
  732000    1.1485657   -6.0344258     348.8503  0.039714288  0.040271005            2 
  733000    1.1311191   -6.0891029    348.26749  0.039593849   0.04026267            5 
  734000    1.1583364   -6.0857633    347.32422  0.039432814  0.040254856            4 
  735000    1.1283824   -6.0645977     349.6731  0.039645476  0.040246957            4 
  736000    1.1536409    -6.059181    349.60083  0.039583427  0.040238723            4 
  737000    1.1251085   -6.0563799    349.96378  0.039570757   0.04023039            3 
  738000    1.1176818   -6.0645024    350.82968  0.039614915  0.040222417            2 
  739000    1.1224168   -6.1273693    350.55992  0.039530889  0.040214339            2 
  740000    1.1528123   -6.0752157    351.72549  0.039608727  0.040206234            2 
  741000    1.1146583   -6.0482757    351.74603  0.039557583  0.040198665            3 
  742000    1.1430505   -6.0477513    351.90205  0.039521793  0.040191093            4 
  743000    1.1487961   -6.0765265    354.06686  0.039711402  0.040183856            5 
  744000    1.1444069   -6.0932746    353.87208   0.03963621  0.040176256            6 
  745000    1.1536879   -6.0695322    354.60142  0.039664589  0.040168316            2 
  746000    1.1334987   -6.0708204    354.08812  0.039554079  0.040160105            6 
  747000    1.1435171   -6.0470588    353.78183  0.039466961  0.040152004            5 
  748000    1.1436747   -6.0564415    353.74237    0.0394098  0.040143853            3 
  749000    1.1300658   -6.0712181    355.42551  0.039544449  0.040135499            2 
  750000    1.1555707   -6.0437827    355.12116  0.039457907  0.040127097            4 
  751000    1.1417514   -6.0688585    354.97132   0.03938874  0.040118509            4 
  752000    1.1719711   -6.0385372    355.66693  0.039413446  0.040109821            3 
  753000    1.1112529    -6.080575    355.44525  0.039336571  0.040101165            8 
  754000    1.1312452   -6.0919451    357.89426  0.039555069  0.040092827            6 
  755000    1.1204292   -6.0334296    357.32962  0.039440355  0.040084637           10 
  756000    1.1293093   -6.0513564    358.31983  0.039497336  0.040076753            5 
  757000    1.1107976   -6.0227568    358.41301  0.039455417   0.04006919            2 
  758000    1.1331009    -6.048126    360.24319  0.039604573  0.040061136            3 
  759000    1.1264165   -6.0861116    358.66566   0.03937919  0.040052904            7 
  760000    1.1035734   -6.1012153    358.75979  0.039337696  0.040044704            4 
  761000     1.126355   -6.0622989    359.58924  0.039376833  0.040036083            4 
  762000    1.1198005    -6.095551    360.53243  0.039428306  0.040027326            3 
  763000    1.1057254   -6.0952265     360.4484  0.039367453  0.040018435            4 
  764000    1.1244116   -6.0927862    360.70229  0.039343618  0.040009491            3 
  765000     1.146428   -6.0967229      360.607  0.039281808  0.040000595            5 
  766000     1.143311   -6.0919073    360.58992  0.039228669  0.039991399            5 
  767000    1.1323053   -6.0783819    360.98931  0.039220916  0.039982207            2 
  768000    1.1368042   -6.0860016    361.02949  0.039174207  0.039972538            3 
  769000    1.1396286   -6.0653648    360.69695  0.039087229  0.039962526            5 
  770000    1.1453828   -6.1007135    361.88438  0.039164976  0.039952769            5 
  771000    1.1029175   -6.0741736    360.27883  0.038940643  0.039943143            5 
  772000    1.1526435    -6.054189    362.51481  0.039131565  0.039933377            3 
  773000    1.1317889   -6.0740383    362.61584  0.039091832  0.039923448            2 
  774000    1.1149469    -6.063448    363.39637  0.039125363  0.039913326            4 
  775000    1.1507313   -6.0344888    363.14195  0.039047522  0.039903434            2 
  776000    1.1242706   -6.0715966    363.92095  0.039080858  0.039893394            4 
  777000    1.1324409   -6.0202957    362.98609  0.038930297  0.039883486            1 
  778000    1.0951316   -6.0781086    364.33179  0.039024399  0.039873441            3 
  779000    1.1310394   -6.0425629    365.19163  0.039066285  0.039863644            4 
  780000    1.1156091    -6.043956    366.38081  0.039143249  0.039853812            5 
  781000    1.1231691   -6.1478242    365.63205  0.039013236   0.03984394            4 
  782000    1.1414373   -6.0751056    366.48018  0.039053727  0.039834271            2 
  783000     1.124476   -6.0609843    367.76311  0.039140391  0.039825111            4 
  784000     1.116389   -6.0680851     367.8043  0.039094844  0.039816008           11 
  785000    1.1413468   -6.0886268    368.56705  0.039126014  0.039806466            5 
  786000    1.1142094   -6.0886741    367.35922  0.038948179  0.039797425            3 
  787000    1.1131089   -6.0843368    369.57816  0.039133647  0.039788243            4 
  788000    1.1252469   -6.0558725    369.58887  0.039085118  0.039779608            5 
  789000    1.1283228   -6.1039609    369.56074  0.039032609  0.039770714            7 
  790000    1.1435466   -6.0581299    370.42552  0.039074422  0.039761765            8 
  791000    1.0946646   -6.1221075    369.59193  0.038937203  0.039752846            9 
  792000    1.1308329   -6.0904934    370.09049  0.038940497  0.039743766            5 
  793000    1.1319756   -6.0705717    372.75314  0.039171201  0.039734946            4 
  794000    1.1323093   -6.0590685    371.03697  0.038941747  0.039726169            6 
  795000     1.113135   -6.0743759    372.99883   0.03909841  0.039717436            2 
  796000    1.1152886   -6.0840799    373.19914  0.039070261   0.03970839            4 
  797000    1.0956182   -6.0668501    373.77458  0.039081407  0.039699825            7 
  798000    1.1437923    -6.077889    374.05794  0.039062024  0.039691048            6 
  799000    1.1163413   -6.0949775    374.09938  0.039017457  0.039681851            5 
  800000    1.1004898   -6.0713484      375.607   0.03912573  0.039673264            4 
  801000    1.1299996   -6.1106283     374.7612  0.038988889  0.039664786            5 
  802000    1.1308083   -6.0681461    374.88829  0.038953479  0.039656203            6 
  803000    1.1435865   -6.0521799    377.62553  0.039189034   0.03964825            4 
  804000    1.1545269   -6.1077354    376.74472  0.039048996  0.039640233            7 
  805000    1.1204125   -6.0919381    376.26683  0.038951017  0.039632029            7 
  806000    1.1154574   -6.0766408    376.69633  0.038947097  0.039623531            8 
  807000    1.1265004   -6.0691858    378.16918  0.039050928  0.039615328            3 
  808000    1.1214867   -6.0869268    378.84646  0.039072448  0.039607208            2 
  809000    1.1249451   -6.1074512     378.6067  0.038999454   0.03959926            4 
  810000    1.1221476   -6.0832181    378.21858  0.038911377  0.039590711            3 
  811000    1.1200049   -6.1171164    379.83742  0.039029739  0.039582243            5 
  812000    1.1199473   -6.0611469    379.16515   0.03891268  0.039574246            3 
  813000    1.0997476   -6.0748128     380.8137  0.039033795  0.039566067            4 
  814000    1.1280303   -6.0972784    381.63897  0.039070329  0.039558428            2 
  815000     1.123451   -6.0767766    381.55405  0.039013706  0.039550449            2 
  816000    1.1089483   -6.0500681    383.26381  0.039140504  0.039542918            5 
  817000    1.1093753   -6.0733057    383.20971  0.039087078  0.039535222            5 
  818000     1.114898   -6.0692186    382.98119  0.039016014  0.039527365            6 
  819000    1.1294594   -6.0668799     383.2707  0.038997833  0.039519896            3 
  820000    1.1326459   -6.1172236    383.23555  0.038946702  0.039511974            3 
  821000    1.1186156   -6.0782156    384.19416  0.038996565  0.039504223            6 
  822000    1.1227312   -6.1117843    383.42747  0.038871398  0.039496358            4 
  823000    1.1202575   -6.0876494    383.59895   0.03884153  0.039488225            3 
  824000    1.1210253   -6.0590037    384.54659  0.038890229  0.039479815            7 
  825000     1.125875   -6.0941339    384.43689  0.038832009  0.039471213            2 
  826000    1.0917195   -6.1004599    386.20461  0.038963339  0.039463035            5 
  827000    1.1199748   -6.1158393    385.80065  0.038875519  0.039455019            3 
  828000    1.1061926   -6.0637311    387.07558  0.038956882  0.039446824            2 
  829000    1.1246163   -6.0891025     387.8179  0.038984509   0.03943903            3 
  830000    1.1246527   -6.0762164    388.10107  0.038965971  0.039431335            4 
  831000     1.123716   -6.0839534    387.48154  0.038856953  0.039423075            4 
  832000    1.1081607   -6.0597131    388.19263  0.038881473  0.039414853            5 
  833000    1.1449488   -6.1061952     388.9888  0.038914446  0.039406824            5 
  834000    1.1054748   -6.0942837    389.15227  0.038884119   0.03939857            2 
  835000    1.0964831    -6.086975    388.67578  0.038789998  0.039390753            5 
  836000    1.0905043   -6.1129998    389.71379  0.038847069  0.039383007            5 
  837000    1.1416138   -6.1309199    389.19312  0.038748817  0.039374859           13 
  838000    1.1102751   -6.1087683    390.54813  0.038837324  0.039366867            2 
  839000    1.1082002   -6.0964469    390.66101  0.038802246   0.03935894            4 
  840000    1.1089893   -6.0803772    390.69882  0.038759803   0.03935064            6 
  841000    1.1231764   -6.1341474    391.04651  0.038748167  0.039342046            6 
  842000    1.1026962   -6.1026612    390.37756  0.038635942  0.039333575            4 
  843000     1.147694   -6.0749506     390.8392  0.038635745  0.039325215            6 
  844000    1.1311538    -6.117023    392.37392  0.038741501  0.039317043            4 
  845000    1.0991277   -6.1310374    392.00702  0.038659469  0.039308256            5 
  846000    1.1212439    -6.076043    393.73501  0.038783984  0.039299944            6 
  847000     1.125764   -6.0993889    394.36864  0.038800535  0.039291594            3 
  848000    1.1243912   -6.1314957    392.22161   0.03854379  0.039282523            3 
  849000    1.1261164   -6.0851236    395.00232  0.038771331  0.039273706            2 
  850000    1.1007054   -6.1144709     394.0763  0.038634931  0.039264707            9 
  851000    1.0947856   -6.0968435    393.96153  0.038578293  0.039255575            5 
  852000    1.1109077   -6.0606061    394.63453  0.038598839  0.039246616            2 
  853000    1.1061377   -6.1208188    393.44813  0.038437684   0.03923746            7 
  854000    1.1007906   -6.1176142    394.56025  0.038501195  0.039227975            3 
  855000    1.1100146   -6.1089718    396.39932  0.038635412  0.039218699            4 
  856000    1.1030962   -6.0781421    395.01222   0.03845524  0.039209308            6 
  857000    1.1289156   -6.1052743    394.87187   0.03839672  0.039199718            6 
  858000    1.1160392   -6.1144811    396.15172  0.038476274   0.03919042            5 
  859000    1.1128482   -6.1093811    396.87392  0.038501544  0.039181145            6 
  860000    1.1093651   -6.0591509    397.14663  0.038483201  0.039171755            3 
  861000    1.1166911    -6.086715    397.09317  0.038433331  0.039162111            4 
  862000    1.0900594   -6.0930888     397.5248  0.038430471  0.039152432            5 
  863000    1.0968355   -6.0946173    397.17552  0.038352213    0.0391426            4 
  864000    1.1148857   -6.1051747    399.22784  0.038505771  0.039132587            6 
  865000    1.0940239   -6.1214838    397.64666  0.038308927  0.039122559            5 
  866000    1.0962993   -6.0795759    398.41398  0.038338528   0.03911237            4 
  867000    1.1069518   -6.0505973    398.86901  0.038338044  0.039102413            5 
  868000    1.1319898   -6.1154032    398.40193  0.038249033  0.039092682            3 
  869000    1.1080454   -6.1118426    399.91795  0.038350398  0.039082473            4 
  870000    1.1101938   -6.1145011    400.20748   0.03833405  0.039072463            3 
  871000    1.1028368   -6.0994449    401.63602  0.038426714  0.039062567            6 
  872000    1.1023517   -6.0913657    400.90772  0.038313047  0.039052668            5 
  873000    1.0945256   -6.1031044    399.44805  0.038129825  0.039042243            6 
  874000    1.1100978   -6.1035516    399.96953   0.03813592  0.039031685            6 
  875000    1.1411399   -6.0839356    400.56081  0.038148649  0.039020924            4 
  876000    1.0874624   -6.1290665    400.10125  0.038061382  0.039009972            3 
  877000    1.0962105   -6.1167188    399.53304  0.037963991  0.038998937            8 
  878000    1.1047452   -6.0920625    400.53246  0.038015609  0.038987766            5 
  879000    1.1224469   -6.0912314     403.1397  0.038219539  0.038976481            6 
  880000    1.1112443   -6.0993669    400.75565  0.037950345  0.038965212            3 
  881000    1.1204374   -6.0959376    402.75128  0.038096035  0.038954298            4 
  882000    1.0996488   -6.0964464    402.83634  0.038060879  0.038943479            9 
  883000    1.1221784   -6.1343478    403.98061  0.038125765  0.038932871            5 
  884000    1.0921589   -6.1286206    403.83227  0.038068653   0.03892207            4 
  885000    1.1160037   -6.0895879    404.47106  0.038085788  0.038911518            3 
  886000    1.1036856   -6.1426178    404.01298  0.037999716  0.038901036            5 
  887000    1.1179388   -6.0888712    405.81692  0.038126355  0.038890771            2 
  888000    1.0803756   -6.0878904    404.75503  0.037983768  0.038880619           10 
  889000    1.1215261   -6.0536455    407.53218  0.038201367  0.038870571            4 
  890000    1.1052984   -6.1162848    407.35936  0.038142262  0.038860592            6 
  891000    1.1158214   -6.0841376    407.29706  0.038093627  0.038850907            3 
  892000    1.1261275   -6.1354562    406.37855  0.037965111  0.038841314            3 
  893000    1.1207714   -6.1039769    409.25463  0.038190988  0.038831494            7 
  894000    1.0899248   -6.0972523    408.65623  0.038092489  0.038821672           11 
  895000    1.0935742   -6.1174247    409.99547  0.038174625  0.038812084            5 
  896000    1.1240502   -6.1182665     409.8188  0.038115588  0.038802703            4 
  897000    1.1211074   -6.1263554    409.82414  0.038073592  0.038792983            4 
  898000    1.1335442   -6.0918167    411.24671  0.038163207  0.038783715            3 
  899000    1.1110133   -6.1278487    411.29828  0.038125536  0.038774393            3 
  900000    1.0872474   -6.1088409    411.77181  0.038127019  0.038765119            4 
  901000    1.1047381   -6.1088953    411.08655  0.038021324  0.038755857            6 
  902000     1.103673   -6.1202009    411.18164  0.037987956  0.038746393            9 
  903000    1.1002087   -6.0808799     413.2049  0.038132604  0.038737364            3 
  904000    1.1006508   -6.0916872    413.98075  0.038161942  0.038728209            3 
  905000    1.0849074   -6.1238166    413.50906   0.03807634  0.038718854            4 
  906000    1.0953242   -6.1081858    412.82015  0.037970949  0.038709423            4 
  907000    1.1274763   -6.1369468    412.86423  0.037933134  0.038699652            5 
  908000    1.1172405   -6.1671748    412.69105  0.037875463  0.038689614            4 
  909000    1.1065403   -6.1046886    413.44098  0.037902547  0.038679721            6 
  910000    1.1012075   -6.1041978    415.37259  0.038037783  0.038669723           10 
  911000    1.1335783   -6.1123803     415.2301  0.037982995  0.038660128            6 
  912000    1.1137035    -6.085041    414.87231  0.037908654  0.038650552            3 
  913000    1.0932216   -6.0943082    415.69362  0.037942098  0.038640981            3 
  914000    1.1270732   -6.1285167    414.38783  0.037781531  0.038631015            2 
  915000    1.1215074   -6.0673853     417.0066  0.037978743  0.038621203            4 
  916000    1.1166824   -6.0766186    416.93486  0.037930755  0.038611648            7 
  917000    1.1061759   -6.1221348    417.68194  0.037957283  0.038601711            3 
  918000    1.1023547   -6.1233957     415.9461  0.037758361  0.038591951            6 
  919000    1.1056341   -6.1344345    417.85947  0.037890775  0.038582221            5 
  920000    1.1126578   -6.0980803    418.91183  0.037944912  0.038572512            3 
  921000    1.1147479   -6.1539249    417.86887  0.037809344  0.038562906            4 
  922000    1.1044367   -6.1160323    419.58323  0.037923285  0.038553051            4 
  923000    1.0920687   -6.0991667    419.65013  0.037888238  0.038543346           10 
  924000    1.1103339   -6.1101386    420.21335   0.03789803  0.038533197            5 
  925000    1.1060176    -6.115367    419.22351  0.037767884  0.038523112            4 
  926000    1.0932788   -6.0998639    418.85937  0.037694327  0.038513088            3 
  927000    1.0988872   -6.1265579     420.4752  0.037798921  0.038503009            3 
  928000     1.090006   -6.1150302    419.94733  0.037710788  0.038493114            4 
  929000    1.1039958   -6.1351116    420.86942  0.037752908  0.038482971            6 
  930000    1.1276382   -6.1179858    421.02601  0.037726345   0.03847305            6 
  931000    1.1197214   -6.1038631    422.58824  0.037825657  0.038463091            3 
  932000    1.1139983   -6.1210476    422.08015  0.037739641  0.038453176            6 
  933000    1.1081499   -6.0935451    422.43757  0.037731115  0.038443243            3 
  934000    1.1185735   -6.0942223    423.35075  0.037772194  0.038433318            2 
  935000    1.0932083    -6.119851    423.48078  0.037743385  0.038423492            5 
  936000    1.0970246   -6.0869804    423.87498  0.037738157  0.038413878            8 
  937000    1.1123038   -6.1096994    426.00731  0.037887523  0.038404406            2 
  938000    1.1079652   -6.1458091     424.2708  0.037692857  0.038395196            4 
  939000    1.0875597   -6.1362382    425.30337  0.037744353  0.038385709            3 
  940000    1.1313234   -6.1198019    427.19641  0.037872022  0.038376196            6 
  941000    1.1108267   -6.1125089    428.04409  0.037906844  0.038367162            6 
  942000    1.0947891   -6.1318776    426.17427  0.037701192  0.038357833            7 
  943000    1.0867816    -6.145037    427.16781  0.037749011  0.038348351            4 
  944000    1.1126961   -6.1139807    427.69921  0.037755933  0.038339051            7 
  945000    1.0953446   -6.1299279     426.8588  0.037641869  0.038329865            6 
  946000    1.0775811   -6.1023309    428.34626  0.037733109  0.038320905            8 
  947000    1.1019755   -6.1177875    428.61017  0.037716488   0.03831183            5 
  948000    1.0983348   -6.1288991    430.07461  0.037805434  0.038302858            3 
  949000    1.1076319   -6.1729542     428.9913  0.037670469  0.038293909            6 
  950000    1.1034615   -6.0764439    430.43051  0.037757062  0.038284821            4 
  951000     1.094016   -6.1456542    430.41987  0.037716428  0.038276009            5 
  952000    1.0940723   -6.1284845    429.85712  0.037627549  0.038267286            4 
  953000    1.0874292   -6.1586382    430.08903  0.037608345  0.038258281            4 
  954000     1.097522    -6.130656    431.89335  0.037726533  0.038249226            4 
  955000    1.1169956    -6.132298    431.96091  0.037692924   0.03824032            3 
  956000    1.0963304   -6.1185722    432.40394  0.037692114  0.038231308            2 
  957000    1.0744234   -6.1501955    432.60469   0.03767021  0.038222243            4 
  958000    1.1136271    -6.164411    431.89558  0.037569205  0.038212892            2 
  959000    1.1012887   -6.1303158    432.63381  0.037594178   0.03820335            4 
  960000    1.0865608   -6.1398621    432.34677  0.037530101  0.038193735            3 
  961000     1.096595   -6.1075798       433.84  0.037620534  0.038184365            2 
  962000    1.1148979   -6.1333367      432.841  0.037494889  0.038174893            6 
  963000    1.0933084   -6.1215047    435.14289  0.037655148  0.038165422            5 
  964000    1.0854309    -6.116641    434.81063  0.037587364  0.038156299            6 
  965000    1.0781258   -6.0870282      435.342  0.037594301  0.038147448            2 
  966000     1.091761   -6.1221609    435.09365  0.037533959  0.038138418            3 
  967000    1.0629251   -6.1242691    435.62742  0.037541143  0.038129386            3 
  968000    1.1135908   -6.1113149    436.99936  0.037620468  0.038120437            3 
  969000    1.0917178   -6.1464474    435.85264  0.037483028   0.03811135            4 
  970000    1.1035057   -6.0974199     438.5736  0.037678144  0.038102461           10 
  971000    1.1023616    -6.114945    436.96136  0.037500975  0.038093475            4 
  972000    1.1067069   -6.1114088    438.83338  0.037622889   0.03808437            5 
  973000    1.0753098   -6.1253233    437.41129  0.037462427   0.03807516            4 
  974000    1.0974886   -6.1192192    438.39055  0.037507747  0.038065892            9 
  975000     1.117325   -6.1312964     439.4702  0.037561555  0.038056767            9 
  976000      1.06629      -6.1233    440.47162  0.037608574  0.038047852            3 
  977000    1.1031353   -6.1262315    438.94408  0.037439788  0.038038935            5 
  978000    1.1000777   -6.1882045    439.14387   0.03741853  0.038029746            5 
  979000    1.0922576   -6.1382114    440.40015  0.037487245   0.03802071            6 
  980000    1.0886939   -6.1054156    441.34966  0.037529733  0.038011886            5 
  981000    1.1349728   -6.1423306    439.81797  0.037361363  0.038003085            3 
  982000    1.0738359   -6.1387788    441.95654  0.037504798  0.037993856           10 
  983000    1.1074706   -6.1476377    440.46686  0.037340357  0.037984748            3 
  984000    1.0731783   -6.1370554    442.58197  0.037481535  0.037975443            4 
  985000    1.0963053   -6.0974805    442.47035  0.037434039   0.03796615            4 
  986000    1.0892178   -6.1444753    442.39278  0.037389519  0.037957234            7 
  987000    1.0968345   -6.1501637    442.70831  0.037378277  0.037948155            5 
  988000    1.1000568   -6.1424099    443.22329  0.037383881  0.037938706            4 
  989000    1.0963653   -6.1453505     442.8531  0.037314888  0.037929395            6 
  990000     1.102246   -6.1807092    443.49217  0.037330991  0.037920143            5 
  991000    1.1118037   -6.1133324    445.09414  0.037428031  0.037911194            4 
  992000    1.1000292   -6.1351442    444.28102  0.037321994  0.037902302            5 
  993000    1.0967857   -6.1237182    446.84217  0.037499343  0.037893504            5 
  994000    1.0835829   -6.1123156    445.53046  0.037351648   0.03788449            3 
  995000    1.0865807   -6.1639354    446.94611  0.037432672  0.037875617           11 
  996000    1.0948122    -6.175818    445.59124  0.037281731  0.037866548           12 
  997000     1.058207   -6.1429464    445.84761  0.037265765  0.037857237            3 
  998000    1.0831658    -6.127307    446.31939  0.037267818  0.037848121            4 
  999000    1.0764861   -6.1406872    446.99447  0.037286826  0.037839052            4 
 1000000    1.0798681    -6.134367    449.18996  0.037432497  0.037830073            2 
 1001000    1.1007377   -6.1493072    449.20908  0.037396694  0.037821195            3 
 1002000    1.1026613   -6.1429824    449.57055  0.037389433   0.03781246            5 
 1003000    1.0839547   -6.1286715    449.94022  0.037382869  0.037804097            6 
 1004000    1.0983534   -6.1172986    449.55823   0.03731393  0.037795483            2 
 1005000    1.0809806   -6.1509684    449.35543  0.037259986  0.037786744            3 
 1006000    1.0949171   -6.1476895    449.20732  0.037210679  0.037777875            3 
 1007000     1.086752   -6.1570569    450.27938  0.037262444  0.037769082            7 
 1008000    1.0854917   -6.1495835    450.71543  0.037261527  0.037760612            5 
 1009000    1.0997951   -6.0932045    452.70897  0.037389244  0.037752272            3 
 1010000    1.0973988   -6.1421287    453.37202  0.037406932  0.037743925            3 
 1011000    1.0913669   -6.1281601    452.39556  0.037289446  0.037735509            5 
 1012000    1.0822094   -6.1321661    454.00458  0.037385094  0.037726991            4 
 1013000    1.1037583    -6.136821    453.07326  0.037271575  0.037718824            7 
 1014000    1.1051363   -6.1290885    454.36601  0.037341059  0.037710591            5 
 1015000    1.0758771   -6.1661072    454.35998  0.037303775  0.037702262            3 
 1016000    1.0951612   -6.1762228    454.14378  0.037249326  0.037693873            4 
 1017000    1.0863337   -6.1526289    454.40073  0.037233753  0.037685384            8 
 1018000    1.0998927   -6.1287374    456.87262  0.037399527  0.037677051            3 
 1019000    1.0915655   -6.1451124    455.91128  0.037284206  0.037668969            1 
 1020000    1.0913136   -6.1340434    456.01467  0.037256101  0.037661073            5 
 1021000    1.0656447   -6.1521873    456.82346  0.037285624  0.037653114            3 
 1022000    1.1083667   -6.1429008    456.98992  0.037262713  0.037644991            2 
 1023000    1.0900927   -6.1331118    457.50842  0.037268526  0.037636798            5 
 1024000    1.0863405   -6.1481677    458.19965  0.037288383  0.037628658            8 
 1025000    1.0986103   -6.1711196    458.93445  0.037311744  0.037620597            4 
 1026000    1.0763068   -6.1830152    457.12388   0.03712832  0.037612223            5 
 1027000    1.0789423   -6.1563101    458.59456  0.037211503  0.037603604            5 
 1028000    1.0760689   -6.1608753    458.68597  0.037182715  0.037595294            3 
 1029000    1.0982314   -6.1289656    460.30755  0.037277903  0.037587176            5 
 1030000    1.0824634   -6.1437413    460.24687  0.037236802   0.03757914            4 
 1031000    1.0964817   -6.1477423     460.1111   0.03718971  0.037571031            4 
 1032000    1.0898822   -6.1435988    459.97864  0.037142978  0.037562842            5 
 1033000    1.0990362   -6.1330029    460.74671  0.037168982  0.037554381           11 
 1034000    1.0970691   -6.1577882     459.5623  0.037037581  0.037546121            3 
 1035000    1.0853874   -6.1483947    460.89558  0.037109145  0.037537491           13 
 1036000    1.0824711   -6.1428606    460.42814  0.037035725  0.037528773            2 
 1037000    1.0670976   -6.1309105     462.5657  0.037171785  0.037520495            4 
 1038000    1.0906149    -6.129662    461.44374  0.037045901  0.037512121            5 
 1039000    1.0792118   -6.1708194     462.7105  0.037111846  0.037503589            4 
 1040000     1.079565   -6.0948987     464.5184  0.037221026  0.037495108            2 
 1041000    1.0741862   -6.1629615    463.18401  0.037078451  0.037486666            7 
 1042000    1.0738425   -6.1547209    463.01672  0.037029489  0.037477905            3 
 1043000    1.0981184   -6.1460192    463.59299  0.037040028  0.037469214            2 
 1044000    1.1039801   -6.1415012    463.11774  0.036966614  0.037460423            8 
 1045000    1.0917624   -6.1614245    464.42823  0.037035744  0.037451698            9 
 1046000    1.1265178    -6.142242    465.58311  0.037092345  0.037443188            4 
 1047000    1.0848006   -6.1796996    463.65244   0.03690325  0.037434567            6 
 1048000    1.1054088   -6.1616888    465.08277  0.036981772  0.037426019            3 
 1049000    1.0941709   -6.1458846    466.75092  0.037079037  0.037417465            4 
 1050000     1.068488   -6.1595617    466.10469  0.036992436  0.037409029            3 
 1051000    1.0800889   -6.1799579    464.91747  0.036863104  0.037400324            5 
 1052000     1.104278   -6.1591282    467.04941  0.036996943  0.037391923           10 
 1053000    1.0638793   -6.1619161      466.928    0.0369522  0.037383454            6 
 1054000    1.0777226    -6.162197    468.60366  0.037049626  0.037375147            6 
 1055000    1.0864825    -6.152704    467.29532  0.036911163  0.037366926           10 
 1056000    1.0829257   -6.1679381    468.85151  0.036999014  0.037358732            4 
 1057000    1.0783006   -6.0963989    470.09948    0.0370624  0.037350647            4 
 1058000    1.1061137   -6.2028755    469.21955  0.036958061  0.037342576            4 
 1059000    1.0781248    -6.177084    469.34866  0.036933323  0.037334526            3 
 1060000    1.0807637   -6.1274954    470.78262  0.037011212  0.037326849            6 
 1061000     1.077767   -6.1595339    471.58004   0.03703896  0.037319222            5 
 1062000    1.0972892   -6.1204667    471.29736  0.036981902  0.037311433            5 
 1063000     1.089059   -6.1388366    471.64331  0.036974233   0.03730383            2 
 1064000    1.0808161   -6.1801395    473.16741  0.037058851  0.037296033            8 
 1065000    1.0698108   -6.1775678    473.65001  0.037061816   0.03728818            3 
 1066000     1.086368   -6.1546669    472.76301  0.036957709  0.037280447            6 
 1067000    1.0728461   -6.1486438    473.96837  0.037017211  0.037272776            3 
 1068000    1.1019853   -6.1563478    473.19338   0.03692208  0.037265135            5 
 1069000    1.0758423   -6.1581629    473.40762  0.036904243  0.037257272            8 
 1070000    1.0806334   -6.1505444    474.15841  0.036928225  0.037249389            8 
 1071000    1.0816562   -6.1461356    474.07121   0.03688696  0.037241491            4 
 1072000     1.072204   -6.1471708    474.24808    0.0368663  0.037233544            7 
 1073000    1.0697698   -6.1459177    475.30468  0.036914001  0.037225429            9 
 1074000    1.0841713   -6.1641123    475.88561  0.036924706  0.037217231            8 
 1075000    1.0438416   -6.1301919    476.84195  0.036964492  0.037209333            4 
 1076000    1.0724745   -6.1530385    475.32462  0.036812625  0.037201411           12 
 1077000    1.0895096   -6.1368189    476.63516  0.036879848  0.037193591            4 
 1078000    1.0658471   -6.1383888    476.77904  0.036856759  0.037185403            6 
 1079000    1.0828666   -6.1754132    477.41858  0.036871994  0.037177286            4 
 1080000    1.0759992    -6.136643    477.48123  0.036842688  0.037169153            4 
 1081000     1.092774   -6.1947463    476.35322  0.036721648  0.037161027            6 
 1082000    1.0465178   -6.2186621    477.14702  0.036748846  0.037152831            3 
 1083000    1.0736473   -6.1523836    479.45975  0.036892871  0.037144572            4 
 1084000    1.0962338   -6.1648985    479.09322  0.036830659  0.037136426            9 
 1085000    1.0928441   -6.1863197    477.86163  0.036702122  0.037128465            6 
 1086000    1.0817315   -6.1428385      479.985  0.036831261  0.037120402            4 
 1087000      1.08649   -6.1552874    480.37268  0.036827099  0.037112385            3 
 1088000    1.0941381   -6.1555754    479.53649  0.036729205  0.037104522            8 
 1089000    1.0725644    -6.158061    480.85782  0.036796588  0.037096479            3 
 1090000    1.0846575   -6.1771817    482.44998  0.036884555  0.037088734            4 
 1091000    1.0944971   -6.1182571    482.50385  0.036854862  0.037081228            3 
 1092000    1.0878307   -6.1673757    482.72754  0.036838182   0.03707372            4 
 1093000    1.0748237   -6.1998357    482.05544  0.036753236  0.037066041            6 
 1094000    1.0923133   -6.1602022    484.14584  0.036878872  0.037058254            5 
 1095000    1.0995415   -6.1595742     484.0727  0.036839627  0.037050622           13 
 1096000    1.0461491   -6.1646696    482.75763  0.036706024  0.037042632            3 
 1097000    1.0831203   -6.1743803    483.84741  0.036755349  0.037034621            5 
 1098000    1.0659629    -6.173873    484.25621    0.0367529  0.037026637            8 
 1099000    1.0741114   -6.1854287    484.55266  0.036741936  0.037018796            4 
 1100000    1.0729005   -6.1794776    484.11844  0.036675639  0.037011076            5 
 1101000    1.0888768   -6.1916003    484.86044  0.036698489  0.037003447            7 
 1102000    1.0684625   -6.1607481    485.60752  0.036721682  0.036995837            5 
 1103000    1.0849874   -6.1584913    485.80984  0.036703675  0.036988098            8 
 1104000    1.0524763   -6.1323395    486.53518   0.03672518  0.036980103            2 
 1105000    1.0744902   -6.1785432    486.11752  0.036660446  0.036972292            4 
 1106000    1.0944909   -6.1634055    487.07966  0.036699793  0.036964723            2 
 1107000    1.0733286   -6.2012246    486.82736  0.036647648    0.0369571            5 
 1108000    1.0741874   -6.1909916    488.62737  0.036749953  0.036949453            4 
 1109000    1.0805608   -6.1633675    487.71809  0.036648489  0.036942002            6 
 1110000    1.0665848    -6.153111    489.71899   0.03676569  0.036934361            3 
 1111000    1.0814659   -6.1395315    489.68355  0.036729939  0.036926728            3 
 1112000    1.0814697   -6.1546366    490.43097   0.03675292  0.036919255            5 
 1113000    1.0900942   -6.1757708    490.31269  0.036711043  0.036911842            6 
 1114000    1.0653633   -6.1537044    491.37185   0.03675732  0.036904382           10 
 1115000    1.0964188   -6.1624244    490.84815  0.036685213  0.036896653            4 
 1116000    1.0581477    -6.165957    490.35773  0.036615721  0.036888889            6 
 1117000    1.0629933   -6.1670982    492.21621  0.036721591  0.036881238           10 
 1118000    1.0891717   -6.1702509    490.47243  0.036558768  0.036873319            9 
 1119000    1.0745557    -6.160989    491.69874  0.036617422  0.036865503            5 
 1120000    1.0955355   -6.1757405    491.10697  0.036540697  0.036857605            5 
 1121000    1.0629832   -6.1759294    491.49414  0.036536882  0.036849602            5 
 1122000    1.0304412   -6.1955327    492.49581  0.036578714  0.036841625            2 
 1123000    1.0921077   -6.2134063    490.28039  0.036381745   0.03683362            4 
 1124000    1.0773044   -6.1577535     492.1853  0.036490606  0.036825735            6 
 1125000    1.0975777   -6.1479564     494.9677  0.036664274  0.036817827            5 
 1126000    1.0802552   -6.1802426    492.76389  0.036468612  0.036809868            4 
 1127000    1.0910835   -6.1745393    493.58807  0.036497195  0.036801765            7 
 1128000    1.0475594   -6.1778868    493.87076  0.036485724  0.036793754           11 
 1129000    1.0868259   -6.1817369    493.72364  0.036442548  0.036785566            5 
 1130000    1.0562404   -6.1988896    493.49615  0.036393522  0.036777459            4 
 1131000     1.072575   -6.2120394    493.50327  0.036361868  0.036769326            7 
 1132000    1.0590671   -6.1985813    495.27554  0.036460213   0.03676119            4 
 1133000    1.0708617   -6.1781897    496.23858  0.036498866  0.036753469            5 
 1134000    1.0941358   -6.1380457    497.26867  0.036542377  0.036745782            5 
 1135000    1.0578685   -6.1706467      496.783  0.036474523  0.036738163           11 
 1136000    1.0674778   -6.1617923    497.91601  0.036525529  0.036730493            4 
 1137000    1.0774958   -6.1979874     497.0521  0.036430086  0.036722792            4 
 1138000    1.0757187   -6.1468653    496.58419   0.03636381   0.03671512            8 
 1139000    1.0595147   -6.1507241    498.71531  0.036487804  0.036707316            8 
 1140000    1.0591199   -6.1793139    499.50458  0.036513493  0.036699889            4 
 1141000    1.0697622    -6.200168    499.31044  0.036467312  0.036692376            8 
 1142000    1.0816678   -6.1633056    501.10456  0.036566299  0.036684914            9 
 1143000    1.0633937   -6.1783356    499.69108  0.036431254  0.036677926            3 
 1144000    1.0909807   -6.1773242    502.54633  0.036607396  0.036670684            3 
 1145000     1.067725   -6.1833537    501.08693  0.036469209  0.036663544            7 
 1146000    1.0692222   -6.1871265    501.34414   0.03645609  0.036656429            4 
 1147000    1.0744097   -6.1377951    503.46021  0.036578045  0.036649386            4 
 1148000    1.0651654   -6.1684861    502.80359  0.036498519   0.03664232            3 
 1149000    1.0667375   -6.1593674    504.23314  0.036570434  0.036635244            5 
 1150000    1.0719298    -6.199381    504.14708  0.036532397  0.036628118            1 
 1151000    1.0591978   -6.1626986    504.52124  0.036527747  0.036620954            3 
 1152000    1.0640607   -6.1588073    505.88281  0.036594532  0.036613847            7 
 1153000    1.0741119    -6.216077     503.3036  0.036376381  0.036606671            5 
 1154000    1.0677239   -6.1627164    504.84104  0.036455881  0.036599449            3 
 1155000    1.0838641   -6.2008136    505.82939  0.036495627  0.036592395            5 
 1156000    1.0517334   -6.1671169    507.23399   0.03656531  0.036585491            4 
 1157000    1.0993968   -6.1755788    506.46163  0.036478078  0.036578613            5 
 1158000    1.0707736   -6.1984975    505.47865  0.036375838  0.036571675            4 
 1159000     1.063862   -6.1810641    507.50481  0.036490136  0.036564636           12 
 1160000    1.0532412   -6.1540197    506.76946  0.036405852  0.036557553            4 
 1161000    1.1035823   -6.2021821     506.2668  0.036338415  0.036550278            3 
 1162000    1.0567846   -6.1869865    507.94523  0.036427512  0.036542941            2 
 1163000    1.0469833    -6.157519    508.47572  0.036434202  0.036535658            5 
 1164000    1.0557685   -6.1775893    507.93191  0.036363968  0.036528284            7 
 1165000     1.083496   -6.1642102    507.55401  0.036305723  0.036520951            3 
 1166000    1.0703534   -6.1824045    509.14783  0.036388496  0.036513563            7 
 1167000    1.0708644   -6.1545598    510.53929  0.036456676  0.036506451            4 
 1168000    1.0675717    -6.172828    509.18361  0.036328739  0.036499223            3 
 1169000    1.0708022   -6.2001913    508.59825  0.036255935  0.036491833            3 
 1170000    1.0507855   -6.1767685    511.23346   0.03641264  0.036484506            4 
 1171000    1.0712308   -6.1832809    507.89729  0.036144128  0.036476982            7 
 1172000    1.0611268   -6.1928326    509.10167  0.036198924  0.036469353            5 
 1173000    1.0689678   -6.1847074    510.34398  0.036256322  0.036461691            7 
 1174000    1.0524599   -6.2128745    509.61404  0.036173625   0.03645386            7 
 1175000    1.0667934   -6.2342721    509.88816  0.036162281  0.036446088            6 
 1176000    1.0724924   -6.1917543    511.39771    0.0362385  0.036438542            4 
 1177000    1.0577036   -6.1948274    510.20059  0.036122953  0.036430905            8 
 1178000    1.0386764   -6.2367094    511.87302  0.036210598  0.036423297            6 
 1179000    1.0728803   -6.1906363    513.28328  0.036279565  0.036415612            6 
 1180000    1.0502179   -6.1904088    511.02512  0.036089345  0.036407998            3 
 1181000    1.0665972   -6.2266739    511.21697  0.036072324  0.036400254            5 
 1182000    1.0569343   -6.1723787     512.9826  0.036166286  0.036392536            4 
 1183000     1.057775   -6.1881038    511.55816  0.036035373  0.036384697           10 
 1184000    1.0471173   -6.2152045    511.81418  0.036022957  0.036376615            4 
 1185000    1.0362053   -6.2132922     513.6729   0.03612327  0.036368644            8 
 1186000    1.0364569   -6.1585126    513.63825  0.036090377  0.036360657            5 
 1187000    1.0737569   -6.1871461    514.18516  0.036098368  0.036352827            3 
 1188000    1.0813598   -6.1936292    513.97722  0.036053397  0.036344931            5 
 1189000    1.0822602   -6.1981278    514.86807  0.036085511   0.03633676            6 
 1190000    1.0524938    -6.205403    515.29324  0.036084961  0.036328715            5 
 1191000    1.0813552    -6.169745    514.20112  0.035978248  0.036320725           12 
 1192000     1.060311   -6.1727379    515.29226  0.036024347  0.036312837            5 
 1193000    1.0250433   -6.2105739    516.41357  0.036072476  0.036304962            6 
 1194000    1.0622533   -6.1932225    517.26081  0.036101397  0.036297235            4 
 1195000    1.0760537   -6.1844002    517.24115  0.036069815  0.036289672            3 
 1196000    1.0525973   -6.1815535    517.28085  0.036042423  0.036281965            4 
 1197000    1.0730359   -6.1895173    518.08831  0.036068526  0.036274501            7 
 1198000    1.0659114   -6.1987456    517.87642   0.03602368  0.036266879            4 
 1199000    1.0606664   -6.1858331    518.44615  0.036033232  0.036259149            6 
 1200000    1.0505126   -6.2011387     517.7663  0.035955993  0.036251462            3 
 1201000    1.0803716     -6.16426    517.93109  0.035937489  0.036243598            4 
 1202000    1.0510614   -6.2062167    518.31373  0.035934119  0.036235828            5 
 1203000     1.055978   -6.2331792    519.92698     0.036016  0.036228048            6 
 1204000    1.0724863     -6.20664    519.82896  0.035979302  0.036220295            6 
 1205000    1.0560741   -6.1810223    521.33682  0.036053722  0.036212724            7 
 1206000    1.0651081   -6.1865204     520.2781   0.03595067  0.036205176            5 
 1207000    1.0466601   -6.1728351    520.76499  0.035954501  0.036197579            7 
 1208000    1.0665532   -6.1999887    521.53672  0.035977975   0.03618995            6 
 1209000    1.0547586    -6.182876    522.37853   0.03600624  0.036182352            5 
 1210000    1.0635556   -6.2067779    521.82733  0.035938521  0.036174434            4 
 1211000    1.0775492   -6.2164883    522.04212  0.035923625  0.036166809            5 
 1212000    1.0615722   -6.2118883    521.14595  0.035832367  0.036158987            4 
 1213000    1.0385885   -6.1510593    523.79131  0.035984563  0.036151347            4 
 1214000    1.0572316   -6.2059406    521.23753  0.035779622  0.036143538            7 
 1215000    1.0428968   -6.1902924    523.27052   0.03588961  0.036135791            7 
 1216000    1.0451421   -6.1989788      523.079  0.035846971  0.036128046            4 
 1217000    1.0411458   -6.2132581    521.84399  0.035732949  0.036120164            5 
 1218000    1.0623731   -6.2315098    523.06697  0.035787286  0.036112296            3 
 1219000    1.0397843   -6.1845099    524.02809  0.035823632  0.036104384           11 
 1220000    1.0500573   -6.2311482    525.46793  0.035892618   0.03609661            5 
 1221000    1.0465931   -6.2178975    524.34166  0.035786354   0.03608896            8 
 1222000    1.0644962   -6.2026118    525.77559  0.035854855  0.036081252           10 
 1223000    1.0760923    -6.140934     526.9247  0.035903836  0.036073784            5 
 1224000    1.0384248   -6.1982939     527.3704  0.035904847  0.036066329            3 
 1225000      1.02837   -6.1982318    526.60263  0.035823308  0.036058975            5 
 1226000    1.0605117   -6.2062011    527.77506  0.035873781  0.036051325            5 
 1227000    1.0478727   -6.1992111    527.89144  0.035852448  0.036043821            7 
 1228000    1.0247733   -6.2204621    528.36033  0.035855071  0.036036032            5 
 1229000    1.0429313    -6.213206    525.67717  0.035643963  0.036028168            2 
 1230000    1.0567683   -6.2348876    527.15795  0.035715308  0.036020048            7 
 1231000     1.055601   -6.2138612    527.88484  0.035735502  0.036012032           10 
 1232000    1.0601902    -6.229783    526.27649  0.035597706  0.036003933            8 
 1233000    1.0619131    -6.233224    527.63269  0.035660496  0.035995664            6 
 1234000    1.0681889   -6.1439018    527.91158  0.035650431  0.035987418            4 
 1235000     1.044213   -6.2013185    527.12668  0.035568602  0.035979098            9 
 1236000    1.0480404   -6.2200934    527.05485  0.035534982  0.035970735            5 
 1237000    1.0681792    -6.248274    528.54956   0.03560695  0.035962382            5 
 1238000    1.0794706   -6.2030983    528.39494   0.03556778  0.035953971            6 
 1239000     1.037397    -6.199443    530.38191  0.035672714  0.035945736           10 
 1240000    1.0690048    -6.198092     530.1434  0.035627916  0.035937425            4 
 1241000    1.0398004   -6.2166735    530.72473  0.035638244   0.03592928            4 
 1242000    1.0509306   -6.1709715    533.31659  0.035783453  0.035921231            8 
 1243000    1.0587143    -6.205453    530.06487  0.035536664  0.035913149           10 
 1244000    1.0497595   -6.2185616    531.49183  0.035603687  0.035905258            5 
 1245000    1.0759368   -6.1852698    531.31769  0.035563433  0.035897126            3 
 1246000    1.0713267   -6.1846944    532.14948  0.035590521  0.035889376            4 
 1247000    1.0758266   -6.1903391    532.85338   0.03560902  0.035881516            6 
 1248000     1.056964   -6.2247503    531.94991  0.035520159   0.03587347            3 
 1249000    1.0508202     -6.17362    533.93279  0.035624019  0.035865438            4 
 1250000    1.0841031   -6.2144526    532.93531  0.035529021  0.035857451            5 
 1251000    1.0562962   -6.1773644    534.50646   0.03560528  0.035849331            4 
 1252000    1.0659438    -6.202342    534.42516   0.03557143  0.035841246            4 
 1253000    1.0582008   -6.1924956    534.16679  0.035525858  0.035833023            3 
 1254000    1.0635122   -6.2491351    533.76408  0.035470765  0.035824631            6 
 1255000      1.01969   -6.1668485    534.58238  0.035496838  0.035815976           10 
 1256000    1.0465362   -6.1694579    535.82591  0.035551082  0.035807544            7 
 1257000    1.0481044   -6.2305957    534.39289  0.035427797  0.035799115            2 
 1258000    1.0600855   -6.2042484    536.55986  0.035543181  0.035790753            4 
 1259000    1.0405576   -6.2463377    535.74349  0.035460914  0.035782433            6 
 1260000    1.0665098   -6.2312144    535.18232  0.035395656   0.03577407            5 
 1261000     1.040083   -6.2352294    534.98389  0.035354473  0.035765687            4 
 1262000    1.0652816   -6.2405894    536.12963  0.035402115  0.035757356            7 
 1263000    1.0545931   -6.2439666    536.09218  0.035371614  0.035749158            6 
 1264000    1.0750021   -6.2107679    537.67457  0.035447954   0.03574121            6 
 1265000    1.0461038    -6.244348    537.76358  0.035425795    0.0357332            8 
 1266000    1.0527538   -6.2552762     537.6015  0.035387144  0.035724932            8 
 1267000    1.0437433   -6.2138554    538.50738  0.035418796  0.035716666           17 
 1268000    1.0451337   -6.2349119    538.57954  0.035395606  0.035708471            4 
 1269000    1.0587346   -6.2095465    540.28008  0.035479386  0.035700106            6 
 1270000    1.0503613   -6.1994784     540.6505  0.035475755  0.035691983           10 
 1271000    1.0621696   -6.2038989    539.60081   0.03537902  0.035683959            6 
 1272000    1.0355318   -6.2039604    540.36479  0.035401257  0.035675689            2 
 1273000    1.0502259    -6.205894    539.56034  0.035320787  0.035667272            3 
 1274000    1.0372705   -6.2343717    538.13956  0.035200128   0.03565869            5 
 1275000    1.0450006    -6.220686    541.16496  0.035370259  0.035650274            4 
 1276000    1.0636509    -6.222263    541.04008  0.035334384   0.03564185            7 
 1277000    1.0602575   -6.2338629    539.31878  0.035194387   0.03563332            5 
 1278000    1.0411489   -6.2129916    541.67573  0.035320535  0.035624803            3 
 1279000    1.0376372   -6.2170256     541.7062  0.035294905  0.035616317            4 
 1280000    1.0578436   -6.2019322    541.04686  0.035224405  0.035607818            7 
 1281000    1.0571854   -6.1953426    541.48219  0.035225227  0.035599289            6 
 1282000    1.0637779   -6.2128235    542.80497  0.035283735  0.035590553            2 
 1283000    1.0370138   -6.2132755    542.19885  0.035216865  0.035581953            5 
 1284000       1.0664   -6.2446578    541.68737  0.035156242  0.035573156            5 
 1285000    1.0328035   -6.2326616    540.16176  0.035029946  0.035564315            6 
 1286000     1.053482   -6.2428281    541.57784  0.035094468  0.035555407            5 
 1287000    1.0242461   -6.1898941    542.27323  0.035112227  0.035546505            4 
 1288000    1.0472579   -6.2324752    543.71404  0.035178186  0.035537702           10 
 1289000    1.0485817   -6.2414232    543.21305  0.035118506  0.035529037            6 
 1290000    1.0380605   -6.2314024    543.14021  0.035086577  0.035520314            4 
 1291000    1.0635244   -6.2039189     542.3472  0.035008211  0.035511476            4 
 1292000    1.0489255   -6.2421964    545.07751  0.035157218  0.035502717            7 
 1293000     1.038407   -6.2392668    543.61303  0.035035643  0.035493949            2 
 1294000    1.0411943   -6.2485902    543.78189  0.035019442  0.035485101            4 
 1295000    1.0548289   -6.1984265    545.77668  0.035120764  0.035476527            4 
 1296000    1.0432905   -6.2193194    545.08971  0.035049493  0.035467918            9 
 1297000    1.0360103   -6.2285365     544.6442  0.034993845  0.035459164            5 
 1298000    1.0409658   -6.2357674    546.77782  0.035103866  0.035450596            7 
 1299000    1.0642431   -6.2406448    545.57015  0.034999368    0.0354422            7 
 1300000    1.0648915    -6.223559    547.26894  0.035081342  0.035433678            3 
 1301000    1.0527354    -6.218523      548.744   0.03514886  0.035425246            6 
 1302000    1.0452879   -6.2288246    547.51699   0.03504333  0.035416877            5 
 1303000    1.0512401   -6.2162629    549.76427   0.03516016  0.035408596            5 
 1304000    1.0494387   -6.2253141    546.85066  0.034947001  0.035400267           13 
 1305000     1.043811   -6.2294273    548.59116  0.035031364  0.035392014            9 
 1306000    1.0612157   -6.2470031    550.06733  0.035098732  0.035383708            7 
 1307000    1.0577347   -6.2291339    548.60676  0.034978753  0.035375411           10 
 1308000    1.0479935   -6.1741577    550.95797  0.035101808  0.035367085            9 
 1309000    1.0709003   -6.2604666    550.49979  0.035045823  0.035358824            6 
 1310000    1.0635996    -6.197471     552.0843  0.035119866   0.03535054            4 
 1311000    1.0370739   -6.2354727    550.23124  0.034975289  0.035342314            6 
 1312000    1.0364588   -6.2218817    550.57847  0.034970686  0.035334008            5 
 1313000    1.0328621   -6.2507409    550.48491  0.034938113  0.035325651            5 
 1314000    1.0362324   -6.2046068      551.493  0.034975457  0.035317326            4 
 1315000    1.0855574   -6.1860833    552.30783  0.035000496  0.035309024            3 
 1316000    1.0546174    -6.217904    552.15981  0.034964527  0.035300703            7 
 1317000    1.0381821   -6.1851734    553.96913  0.035052463  0.035292392            2 
 1318000    1.0477433    -6.243937    553.07684  0.034969451  0.035283887            7 
 1319000    1.0500355   -6.2138886    552.91464  0.034932691  0.035275537            8 
 1320000    1.0238414   -6.1729624      553.702  0.034955934    0.0352671            4 
 1321000    1.0542322   -6.2298951    554.80711  0.034999187  0.035259011            7 
 1322000    1.0284793   -6.2389048    554.20533  0.034934779  0.035250799            8 
 1323000    1.0155862   -6.2253185    553.79287  0.034882393   0.03524255            3 
 1324000    1.0380207   -6.2679009    554.29613  0.034887722  0.035234248            7 
 1325000    1.0320375   -6.2328923    556.59118  0.035005734  0.035225876           15 
 1326000    1.0526356   -6.1945741     556.2614   0.03495861  0.035217678            5 
 1327000    1.0206944   -6.2332529    555.50165  0.034884555  0.035209441            7 
 1328000    1.0465877   -6.2084981    557.28039  0.034969904  0.035201339            6 
 1329000    1.0373282    -6.217068    556.12615  0.034871216  0.035193327           11 
 1330000    1.0294645   -6.2222221    557.99801  0.034962281    0.0351853            6 
 1331000    1.0366236   -6.2434211    557.55726  0.034908419  0.035177315            6 
 1332000    1.0313862   -6.2268016    557.08976  0.034852963  0.035169342            7 
 1333000     1.024284   -6.2053574    560.02611  0.035010384  0.035161275            3 
 1334000    1.0164084   -6.2142669    559.20486  0.034932837  0.035153291            7 
 1335000    1.0357445    -6.232429    559.10017  0.034900135  0.035145316            4 
 1336000     1.045879   -6.2581866    558.54647  0.034839475  0.035137251           11 
 1337000    1.0588777   -6.2599293    559.30059  0.034860421  0.035129103            5 
 1338000     1.036576   -6.2554154    559.98751  0.034877149  0.035121144            8 
 1339000    1.0515663   -6.2763589    560.18022  0.034863096  0.035113261           20 
 1340000    1.0468854   -6.2285882    562.48089  0.034980155  0.035105147            6 
 1341000    1.0502587   -6.2179255    560.59286  0.034836742  0.035097073            6 
 1342000    1.0370769    -6.272051    560.72627  0.034819068  0.035088954            6 
 1343000    1.0357249   -6.2642619    560.32305  0.034768122  0.035080717            4 
 1344000    1.0322762   -6.2161774    560.97809  0.034782867  0.035072585            3 
 1345000    1.0456838   -6.2278659    561.09445  0.034764216  0.035064325            4 
 1346000    1.0345456   -6.2646565    559.50755  0.034640141  0.035055842            3 
 1347000    1.0333044   -6.2406486    560.70509  0.034688511  0.035047367            5 
 1348000    1.0176348   -6.2576138    561.59873  0.034718022  0.035038963            5 
 1349000    1.0105646   -6.2719578    562.31533  0.034736554  0.035030492            4 
 1350000    1.0299723   -6.2381179    561.13158  0.034637752  0.035022036           10 
 1351000     1.030788   -6.2197022    562.74326  0.034711526  0.035013572            4 
 1352000    1.0589831   -6.2222397    563.92665  0.034758793  0.035005367            4 
 1353000      1.04098   -6.2637141    562.70951  0.034658137  0.034997008            6 
 1354000    1.0397205    -6.226947    562.26207  0.034605002  0.034988711            4 
 1355000    1.0407358   -6.2553589     564.0642  0.034690295  0.034980383            7 
 1356000      1.04904   -6.2319551     563.0371  0.034601592  0.034972016            4 
 1357000    1.0343267   -6.2536031    563.15427  0.034583288  0.034963584            3 
 1358000    1.0176865   -6.2319981    563.40688  0.034573324  0.034955213           16 
 1359000    1.0431381   -6.2356042     565.4706   0.03467443  0.034946832            6 
 1360000    1.0274472   -6.2570431    564.66782  0.034599744  0.034938521            8 
 1361000    1.0120034    -6.238019    566.37163  0.034678645  0.034930256            7 
 1362000    1.0315975   -6.2529272    567.14231  0.034700337  0.034922248            5 
 1363000     1.035465   -6.2496595    566.33662  0.034625619   0.03491412            6 
 1364000    1.0211246    -6.247256    566.89374  0.034634271  0.034905905            4 
 1365000    1.0399502   -6.2737259    564.85135   0.03448421  0.034897583            6 
 1366000    1.0304191   -6.2248229    566.04482  0.034531773  0.034889188            3 
 1367000    1.0467352   -6.2493807    566.55132  0.034537388  0.034880777            4 
 1368000    1.0523176   -6.2619172    566.84594  0.034530089  0.034872303            6 
 1369000    1.0140502   -6.2260336    566.69462  0.034495655  0.034863741            5 
 1370000    1.0204696   -6.2685739    567.77742  0.034536339  0.034854958            4 
 1371000    1.0493689    -6.258964    567.11288  0.034470756  0.034846383            5 
 1372000    1.0374398   -6.2683198    566.93044  0.034434551  0.034837749           10 
 1373000    1.0184092   -6.2425612    566.97557   0.03441221  0.034829101            6 
 1374000    1.0253453   -6.2382143    568.50938   0.03448019  0.034820589            7 
 1375000     1.013338   -6.2319241    568.22537  0.034437901  0.034812062           13 
 1376000    1.0406395   -6.2541592     567.9414  0.034395676  0.034803604            5 
 1377000    1.0305232   -6.2286613    568.30607  0.034392766  0.034794954            7 
 1378000    1.0388468   -6.2405465    569.11694  0.034416844  0.034786412            6 
 1379000     1.007148   -6.2491162    571.39794  0.034529728  0.034777877            4 
 1380000    1.0595696   -6.2631375    569.38732  0.034383292   0.03476936            5 
 1381000    1.0586885   -6.2720302    568.07028  0.034278921  0.034760613            5 
 1382000    1.0255075   -6.2517038    568.52596  0.034281594  0.034751796           13 
 1383000    1.0355953    -6.262612    569.31428  0.034304307  0.034743091            3 
 1384000    1.0237947   -6.2356623     569.1514  0.034269713  0.034734389            3 
 1385000    1.0437876   -6.2194731    572.49849  0.034446359  0.034725845            3 
 1386000    1.0354784   -6.2881271    571.14939  0.034340392  0.034717359            7 
 1387000    1.0360988   -6.2873528    571.77638  0.034353303  0.034708614            4 
 1388000    1.0276527   -6.2685004    570.85618  0.034273306  0.034699817            4 
 1389000    1.0232765    -6.229381    572.40066  0.034341292  0.034691135            5 
 1390000    1.0424073   -6.2607757     572.8363  0.034342704  0.034682644            4 
 1391000     1.031709   -6.2370417    571.94585  0.034264669  0.034674053            7 
 1392000    1.0406445   -6.2293136    574.18239  0.034373946  0.034665469            5 
 1393000    1.0244653   -6.2763771     572.5991  0.034254553  0.034656886            9 
 1394000    1.0270278   -6.2698686    573.11301  0.034260701  0.034648206           13 
 1395000    1.0199732   -6.2592316    573.57842  0.034263944  0.034639466            5 
 1396000    1.0209926   -6.2518231    574.30096  0.034282531  0.034630769            8 
 1397000     1.038574   -6.2863931    574.02292  0.034241405  0.034622055            4 
 1398000    1.0357287   -6.2342663     574.7711   0.03426151  0.034613482            5 
 1399000    1.0294473   -6.2246073    576.47233  0.034338357  0.034604983            8 
 1400000    1.0166408    -6.257729    575.44324  0.034252574  0.034596451           12 
 1401000    1.0142056   -6.2561833     576.3548  0.034282346  0.034587805            5 
 1402000    1.0346556   -6.2673575    577.01353  0.034297048  0.034579367            8 
 1403000    1.0163341   -6.2977903    576.20457  0.034224553  0.034570823            7 
 1404000    1.0398778   -6.3046614    576.18855  0.034199226  0.034562273            9 
 1405000     1.018446   -6.2596028    576.02574  0.034165227  0.034553662            8 
 1406000     1.042964     -6.23872     577.8589  0.034249579  0.034545088            4 
 1407000     1.015323   -6.2313294    578.39877  0.034257212  0.034536386            7 
 1408000    1.0160644   -6.2499633    577.04881  0.034152984  0.034527618            8 
 1409000     1.038705   -6.2372809    577.45908  0.034153009  0.034518876            7 
 1410000    1.0319959   -6.2563273    577.58099  0.034135992  0.034510173            6 
 1411000    1.0320245   -6.2568806    578.75951  0.034181403   0.03450154            6 
 1412000    1.0126482   -6.2157945    577.92241  0.034107791  0.034492942            4 
 1413000    1.0176825   -6.2786957    577.13908  0.034037455  0.034484077            3 
 1414000    1.0196845   -6.2748975    576.62728   0.03398322   0.03447519            4 
 1415000    1.0240216   -6.2506371    578.05796   0.03404346  0.034466099            6 
 1416000    1.0305202   -6.2892281    578.45397  0.034042724  0.034456967            4 
 1417000     1.019801   -6.2604889    577.09774   0.03393894  0.034448043            4 
 1418000    1.0359224   -6.2569574    579.63365  0.034064037  0.034439306            6 
 1419000    1.0530847   -6.2928891    578.13283  0.033951893  0.034430495            6 
 1420000    1.0166469    -6.225972    580.33716  0.034057345  0.034421529            4 
 1421000     1.022564   -6.2690506    578.46285  0.033923461  0.034412656            3 
 1422000    1.0283989   -6.2919458    578.24857  0.033887047  0.034403527            5 
 1423000   0.99636172   -6.2475814    580.04932  0.033968688   0.03439445            4 
 1424000    1.0241373   -6.2978992    579.66556  0.033922376  0.034385469            6 
 1425000    1.0276736   -6.2801967    580.82894  0.033966604   0.03437642            7 
 1426000    1.0521936   -6.2465815    581.48103  0.033980892  0.034367514            5 
 1427000    1.0181932   -6.3026998    580.61187  0.033906323  0.034358508            6 
 1428000    1.0286738   -6.2246465    581.52253  0.033935722  0.034349607            3 
 1429000    1.0218942   -6.2704829    581.14752  0.033890105  0.034340728           18 
 1430000    1.0204327   -6.2582754    582.44805  0.033942194  0.034331707            8 
 1431000    1.0196723   -6.2445606    582.62228  0.033928621  0.034322771            7 
 1432000    1.0242834   -6.2677716    580.98062  0.033809394  0.034313779            5 
 1433000    1.0062892    -6.272764    581.93259   0.03384116  0.034304714            6 
 1434000    1.0179932   -6.2500576    582.18321  0.033832125  0.034295703            7 
 1435000    1.0346767   -6.2870059     581.5254  0.033770349  0.034286759            4 
 1436000     1.023074   -6.2561647    582.35818  0.033795159  0.034277764           21 
 1437000    1.0167758   -6.2600681     583.6248  0.033845094  0.034268882            6 
 1438000    1.0211323   -6.2666808    583.10176  0.033791247   0.03425995            4 
 1439000    1.0198054   -6.2397837    584.39544  0.033842682  0.034250904            6 
 1440000    1.0152458   -6.2512256    585.77733  0.033899151  0.034241832            5 
 1441000    1.0623935   -6.2630285    584.96023  0.033828373  0.034232886            7 
 1442000    1.0075899   -6.2784018    584.88502  0.033800567  0.034223909            9 
 1443000    1.0012423   -6.2933578    585.54818  0.033815441  0.034214808            9 
 1444000   0.99165827   -6.2556892    586.35735   0.03383872  0.034205739            3 
 1445000    1.0116017   -6.2533489    586.62567  0.033830777  0.034196792            4 
 1446000    1.0145562   -6.2546177    588.29037  0.033903318  0.034187898           15 
 1447000    1.0187562    -6.258811    587.40455  0.033828873  0.034179133            4 
 1448000    1.0079842   -6.2697116    586.39647  0.033747495  0.034170253            6 
 1449000    1.0481032   -6.2970592    586.94691  0.033755861  0.034161279            4 
 1450000    1.0020756   -6.2502238    588.25048  0.033807499  0.034152379           10 
 1451000    1.0191287   -6.2857608    585.95288  0.033652245  0.034143481            5 
 1452000    1.0313514   -6.2822557    586.17697  0.033641929  0.034134634            5 
 1453000    1.0339224   -6.2958178    587.34774  0.033685922  0.034125637           14 
 1454000    1.0169362   -6.2509001    590.04019  0.033817067  0.034116636            5 
 1455000    1.0354431   -6.2834789    587.86055  0.033668989  0.034107629            5 
 1456000    1.0336197   -6.2782257    588.67274   0.03369235  0.034098719            4 
 1457000    1.0349209   -6.2228398     589.5616  0.033720064  0.034089995            6 
 1458000   0.99265654   -6.2398599    589.55807  0.033696735  0.034081301            6 
 1459000    1.0234634    -6.260185    590.69695  0.033738688  0.034072654            8 
 1460000     1.015908   -6.2273283    591.31731  0.033750988  0.034063979            3 
 1461000    1.0373247   -6.2531266    590.76039  0.033696121  0.034055388            8 
 1462000    1.0193147   -6.2627961    591.37007  0.033707824  0.034046776            7 
 1463000    1.0268528    -6.251741    591.41727  0.033687473  0.034038092            5 
 1464000     1.021554   -6.2767638    591.65291  0.033677875  0.034029331            8 
 1465000   0.99981524   -6.2610746    591.77473  0.033661816  0.034020484            7 
 1466000    1.0308016   -6.2727623    590.38761  0.033560005  0.034011655            7 
 1467000    1.0137288    -6.307474    592.53437  0.033659076  0.034002832            8 
 1468000    1.0307597   -6.2538947    591.53633  0.033579492  0.033993945            4 
 1469000     1.039469   -6.2817352    592.94018  0.033636271  0.033985284            5 
 1470000   0.99096422   -6.3174443    593.42768  0.033641025  0.033976633            7 
 1471000    1.0321962   -6.2525687    592.93248  0.033590102  0.033967901            6 
 1472000    1.0489363   -6.2604526     594.4127  0.033651081  0.033959209            5 
 1473000    1.0152522   -6.2976724    593.67845  0.033586697  0.033950509            3 
 1474000    1.0026665   -6.2795437     595.1894  0.033649333  0.033941715            5 
 1475000    1.0090532   -6.2590434    591.13672  0.033397555  0.033932913           12 
 1476000    1.0195662   -6.3027519    594.39406  0.033558834  0.033924086            3 
 1477000    1.0202688   -6.2982394    595.14523  0.033578494  0.033915294           10 
 1478000   0.98303918    -6.280552    594.21606  0.033503386  0.033906533           11 
 1479000    1.0113005   -6.2820707    595.62064  0.033559874  0.033897846            3 
 1480000    1.0194255   -6.2903145    595.41318  0.033525517  0.033889169           12 
 1481000   0.99338366   -6.2864109    596.47814  0.033562803  0.033880488           10 
 1482000    1.0256866   -6.2629283     597.9791  0.033624556  0.033871853            8 
 1483000    1.0054224   -6.2872309    594.21556    0.0333904  0.033863247            9 
 1484000    1.0080702    -6.288307    596.77465  0.033511604  0.033854533            9 
 1485000    1.0287751   -6.2957956    596.77514  0.033489065  0.033845879            5 
 1486000    1.0067511   -6.3056175    597.17419  0.033488907  0.033837197            5 
 1487000    1.0185723   -6.2846421    599.87508  0.033617747  0.033828458            4 
 1488000    1.0251628    -6.240213    598.15417  0.033498777   0.03381985           12 
 1489000    1.0080717   -6.2767174    598.25997  0.033482201  0.033811082           13 
 1490000    1.0126468   -6.2953498     596.1936  0.033344161  0.033802188            4 
 1491000   0.98143276   -6.2784931    597.49323  0.033394435  0.033793449            5 
 1492000    1.0199455   -6.2702303    597.56036  0.033375802  0.033784695            8 
 1493000   0.99911973   -6.2661998    598.54479  0.033408394  0.033775895            6 
 1494000    1.0048627   -6.2874362    597.64189   0.03333567   0.03376712            8 
 1495000    1.0018445   -6.3095027     597.2464  0.033291327  0.033758373            3 
 1496000    1.0007053    -6.284624    599.28971  0.033382894  0.033749547            6 
 1497000    1.0062367    -6.291087    599.72554  0.033384855   0.03374078            5 
 1498000    1.0092329   -6.2716126    599.98043  0.033376748  0.033732198            5 
 1499000    1.0139493   -6.2766573    600.33022  0.033373928  0.033723537            7 
 1500000   0.99628258   -6.2739326    600.16405  0.033342447  0.033714719            9 
 1501000    1.0255541    -6.290643    600.22723  0.033323741  0.033705886           11 
 1502000    1.0372664   -6.2993817    599.26055  0.033247922  0.033697095            4 
 1503000    1.0307961   -6.2772109     600.6591  0.033303343  0.033688151           10 
 1504000    1.0356158   -6.2737244    600.27938   0.03326016  0.033679287           16 
 1505000      1.01522   -6.2840759    600.58926  0.033255219  0.033670316            5 
 1506000    1.0279465   -6.2701108    601.20832  0.033267393  0.033661409            6 
 1507000    0.9824379   -6.2793515    603.34661  0.033363559  0.033652484            4 
 1508000   0.99995266   -6.2705622    600.66219  0.033193092   0.03364357            4 
 1509000     1.014096   -6.3029793    601.13907   0.03319743  0.033634669            7 
 1510000    1.0342654   -6.3022264    603.44131  0.033302501  0.033625864            8 
 1511000    1.0022254   -6.2781214     603.4378  0.033280267  0.033617068            9 
 1512000    1.0235574   -6.2596739    604.38687  0.033310564  0.033608256            5 
 1513000   0.99066625   -6.2682822    602.71316  0.033196363  0.033599416            4 
 1514000    1.0447964   -6.2907581    602.19016   0.03314565  0.033590603            4 
 1515000    1.0003954   -6.3008362    604.46935  0.033249139  0.033581994            4 
 1516000    1.0199193   -6.3081608     604.6505  0.033237165  0.033573337           12 
 1517000    1.0237093   -6.2981648    605.30015  0.033250942  0.033564807            5 
 1518000     1.025445   -6.3047749     606.3082  0.033284376  0.033556229            6 
 1519000   0.99625551   -6.2812332    605.90673   0.03324044   0.03354759            3 
 1520000    1.0178626   -6.2791291    606.21658  0.033235558  0.033539157            3 
 1521000    1.0185596   -6.2607273    605.96179  0.033199747  0.033530522            5 
 1522000    1.0041863   -6.2773854    607.83174  0.033280319  0.033522061            3 
 1523000    1.0116712   -6.3340263    605.27487  0.033118563  0.033513284            8 
 1524000    1.0075822   -6.2923617    606.62647  0.033170739  0.033504611            7 
 1525000    1.0211274    -6.293695    607.05316  0.033172304  0.033495975            6 
 1526000    1.0180184   -6.2905361    606.59785  0.033125702  0.033487323            9 
 1527000   0.99890602   -6.3171496    606.79765  0.033114912  0.033478614            5 
 1528000    1.0055054   -6.3035866    607.36573  0.033124222  0.033469997            6 
 1529000    1.0225423   -6.2799857    607.68799  0.033120121  0.033461301            5 
 1530000    0.9983286    -6.295722    607.23901   0.03307402  0.033452592            8 
 1531000     1.009325    -6.276525    609.82968  0.033193429  0.033443855            7 
 1532000    1.0051177   -6.2904076    610.17924  0.033190777  0.033435361            6 
 1533000   0.97484146   -6.3080852    609.67811  0.033141884  0.033426863            4 
 1534000   0.98531397   -6.3233894     609.1076  0.033089287  0.033418181            4 
 1535000    1.0143029   -6.2686808    611.11829  0.033176888  0.033409664            8 
 1536000    1.0001369   -6.2989137    609.34662   0.03305917  0.033401171            4 
 1537000    1.0104479   -6.3023334    612.14076  0.033189154  0.033392578            3 
 1538000    1.0122137   -6.3247564    609.72726  0.033036804  0.033384019            5 
 1539000   0.99898463   -6.2809001    611.27127  0.033098943   0.03337547            8 
 1540000    1.0303864   -6.2926289    611.67895   0.03309951  0.033367074            6 
 1541000   0.98184247   -6.3007356    611.25773  0.033055252  0.033358629            8 
 1542000   0.98991456   -6.3033028      610.913  0.033015186  0.033350227            8 
 1543000    1.0016695   -6.2901553    613.82978  0.033151317  0.033341765            4 
 1544000    1.0050516   -6.3143564    612.93191  0.033081386  0.033333412            6 
 1545000   0.99369182   -6.3154119    615.19797  0.033182199  0.033325104            6 
 1546000    1.0074291   -6.2967982     614.5273  0.033124585   0.03331674            8 
 1547000   0.99124393   -6.2998722    614.02241  0.033075975  0.033308514            6 
 1548000    1.0204482   -6.3365454    613.24706  0.033012869  0.033300302            7 
 1549000   0.99752645   -6.2721393    614.97742  0.033084647  0.033291995           10 
 1550000   0.97898415    -6.261264    618.09938   0.03323115  0.033283925            4 
 1551000    1.0034833   -6.2772802    617.13884  0.033158115  0.033275982            5 
 1552000     1.002654   -6.3085497    615.88147  0.033069237  0.033267958           11 
 1553000    1.0087071   -6.2932428    617.33728  0.033126061   0.03325995            5 
 1554000   0.97393986   -6.2935186    617.46534  0.033111612   0.03325198            4 
 1555000   0.97712394   -6.3143498    616.23735  0.033024509  0.033243907            5 
 1556000    1.0282114   -6.2888889    617.43975  0.033067682  0.033235743            6 
 1557000     1.003446   -6.2918196    617.38459  0.033043491  0.033227636            8 
 1558000    1.0101199   -6.2884191    616.70227  0.032985787   0.03321949            7 
 1559000    0.9973637   -6.3119634     618.1032  0.033039512  0.033211237           15 
 1560000    1.0262874   -6.3030496    618.98118  0.033065234  0.033202986            7 
 1561000    1.0102759   -6.3059455    619.38217  0.033065458  0.033194862           14 
 1562000    1.0109744   -6.2933629    620.35349   0.03309611  0.033186686            7 
 1563000    1.0113749    -6.266468    619.79248  0.033045025  0.033178672            5 
 1564000    1.0005284   -6.3040893     620.6079  0.033067343  0.033170637            5 
 1565000   0.99941166   -6.2967383    618.49872  0.032933904  0.033162613           10 
 1566000    1.0206945   -6.3116827    619.77896  0.032981001  0.033154405           11 
 1567000    1.0132268   -6.2989407    620.77255  0.033012792  0.033146209            6 
 1568000    1.0132715    -6.314807    620.82204  0.032994369  0.033137879            8 
 1569000   0.99627231   -6.2778125    620.57782  0.032960369   0.03312963            5 
 1570000   0.99264381    -6.298532    620.69802  0.032945755  0.033121435           10 
 1571000   0.99747345      -6.2845    622.53075     0.033022  0.033113175            7 
 1572000   0.99931278   -6.2946502    620.38922  0.032887469  0.033104978            5 
 1573000   0.99231854   -6.3297251    620.41741  0.032868055  0.033096709            9 
 1574000    0.9977084    -6.288441    621.62545  0.032911131  0.033088544            9 
 1575000   0.98920728   -6.3006315    623.05193   0.03296571   0.03308039            6 
 1576000    1.0167065   -6.2866028    623.06872  0.032945681  0.033072181            4 
 1577000   0.98294938    -6.284784    620.67095  0.032798084  0.033063987            9 
 1578000   0.99775995   -6.3128436    621.87677  0.032840979   0.03305574            6 
 1579000    1.0124294   -6.3269221    621.90488  0.032821663  0.033047534           19 
 1580000   0.96837319   -6.3151715    622.20213  0.032816568  0.033039339            9 
 1581000    1.0103719   -6.3389629    622.62011  0.032817843  0.033031004            3 
 1582000    0.9944795   -6.3295659      622.064  0.032767805  0.033022663            7 
 1583000   0.99553087   -6.3113136     623.2703  0.032810608  0.033014459            4 
 1584000   0.99427097   -6.2942201    622.80131  0.032765221  0.033006228            3 
 1585000   0.98673532   -6.3181224    623.89766   0.03280219  0.032998036            5 
 1586000   0.99328101   -6.2979934    623.69486  0.032770852  0.032989933            4 
 1587000   0.98372431   -6.3176194    625.39015  0.032839222  0.032981742            9 
 1588000   0.99041282   -6.2807868    624.56196  0.032775082   0.03297352            4 
 1589000    0.9974424   -6.3157275    624.34739  0.032743203  0.032965231            8 
 1590000   0.98971261   -6.2881804    626.93089  0.032858013  0.032957039            7 
 1591000    1.0129816   -6.3293503    626.42583  0.032810907  0.032949004           15 
 1592000     1.008957   -6.2895698    626.33029  0.032785296     0.032941            5 
 1593000   0.99512509   -6.2911008    626.74144  0.032786223  0.032932932           13 
 1594000     1.001394   -6.2783078    628.58101  0.032861826  0.032924854            5 
 1595000   0.98647775   -6.2731968    627.16771  0.032767383  0.032916865            6 
 1596000    1.0012752    -6.271922    627.77765  0.032778699   0.03290885            6 
 1597000    1.0044222   -6.3423801    625.89247  0.032659804  0.032900738            9 
 1598000   0.99082242   -6.2981601    628.43184   0.03277179  0.032892589            5 
 1599000   0.98810508   -6.3180677    627.76549  0.032716567  0.032884541            7 
 1600000   0.99938508   -6.3327615    628.45801  0.032732188   0.03287642            6 
 1601000   0.99830551    -6.284925     628.6635  0.032722439  0.032868453            7 
 1602000    1.0174429   -6.3181826    628.44915  0.032690863   0.03286035            6 
 1603000    1.0077674   -6.3326405    628.30714  0.032663087  0.032852328            4 
 1604000    1.0139398   -6.3134013    630.48606  0.032755926  0.032844256            8 
 1605000   0.98810762   -6.3118761    628.81291  0.032648645   0.03283618           10 
 1606000   0.95197232   -6.2962366    630.26567  0.032703698  0.032828154            4 
 1607000    0.9845316   -6.3060094    629.95405  0.032667188  0.032820165            9 
 1608000    1.0037394   -6.3323054    629.00743  0.032597815  0.032812126            5 
 1609000   0.99343822   -6.3081355    630.75691  0.032668164  0.032804066            6 
 1610000   0.99548794   -6.3224505    630.67369  0.032643566    0.0327961            4 
 1611000    1.0150091   -6.2902907    631.71152  0.032676987    0.0327882            8 
 1612000    1.0264549   -6.2624755    631.45242  0.032643322  0.032780363            7 
 1613000   0.98464948    -6.281578    633.15467  0.032711029  0.032772616            6 
 1614000   0.99046261   -6.3349883    632.26155  0.032644649  0.032764616            8 
 1615000     0.994932   -6.3469956    634.05322  0.032716884  0.032756594            5 
 1616000    1.0030782   -6.3139343    632.14293  0.032598129  0.032748737            5 
 1617000    1.0024624   -6.3393642     631.9749  0.032569311  0.032740608            6 
 1618000    1.0100427   -6.3114852    634.96833  0.032703354  0.032732625            6 
 1619000   0.98127095   -6.3362589    632.70089  0.032566445  0.032724625            5 
 1620000   0.99868823   -6.3079158    633.47401  0.032586112  0.032716599            4 
 1621000   0.97557202   -6.3129869    633.67354  0.032576266  0.032708446            5 
 1622000   0.99273249   -6.3210476    634.13655   0.03257997  0.032700325            7 
 1623000   0.98523767   -6.2599315    634.45329   0.03257616  0.032692195            7 
 1624000    1.0021661   -6.3095363    632.10809   0.03243576  0.032684108            7 
 1625000   0.97571671   -6.3310748    633.43512  0.032483852  0.032675996            6 
 1626000   0.98663947   -6.3585833     633.2643   0.03245512  0.032667904            9 
 1627000    1.0033306   -6.3141804    634.07835  0.032476867  0.032659753            6 
 1628000    1.0013082   -6.3157145    635.87333  0.032548799  0.032651639            4 
 1629000   0.99912585   -6.3199999    634.39803  0.032453347  0.032643513            8 
 1630000   0.99516775   -6.3397186    633.67779  0.032396615  0.032635259           10 
 1631000   0.98391504   -6.3294805    636.41324  0.032516516  0.032627192            4 
 1632000    1.0129472   -6.3170415    636.46609   0.03249929  0.032619155            7 
 1633000    0.9980079   -6.2936782    636.26195  0.032468971  0.032611029            8 
 1634000    1.0163781   -6.3039282    636.98988  0.032486224  0.032602998            4 
 1635000    1.0120748   -6.3383586     635.9606  0.032413894  0.032595037            4 
 1636000   0.99190793   -6.3132583    637.06921  0.032450551  0.032587038           12 
 1637000     1.016648   -6.3006304    638.02497  0.032479381  0.032578998            8 
 1638000   0.97406768   -6.3398166    638.00841   0.03245871  0.032571006            8 
 1639000   0.99620002   -6.3424434    637.85769  0.032431243  0.032562975            5 
 1640000   0.98175855   -6.3203861    635.88363   0.03231116  0.032555098            4 
 1641000   0.98968728    -6.340087    637.25802  0.032361265   0.03254724            9 
 1642000   0.99377593   -6.3302775     639.1331  0.032436718  0.032539276            7 
 1643000   0.96598703   -6.3179399    640.14541   0.03246832  0.032531461            8 
 1644000    1.0165869   -6.3396857    641.06773  0.032495323  0.032523551            8 
 1645000   0.98052513   -6.3132007    639.61257  0.032401853  0.032515719            4 
 1646000   0.99552895   -6.3169998    640.42883  0.032423493  0.032507809           12 
 1647000   0.98932671   -6.3228236    640.12918  0.032388645  0.032499999            5 
 1648000   0.97407637   -6.3566651    641.69226  0.032448031  0.032492131            4 
 1649000     1.008697    -6.325779    642.57941  0.032473186  0.032484291            5 
 1650000   0.98710446    -6.304772    640.89632  0.032368501  0.032476576            4 
 1651000   0.98816704   -6.3059143    641.90099  0.032399606   0.03246877            3 
 1652000   0.98492187   -6.3747222     641.6517  0.032367418  0.032460846            4 
 1653000   0.98965556   -6.3127047    643.02708  0.032417175   0.03245287            6 
 1654000   0.97304158   -6.3226662    639.70371  0.032230135  0.032444887            7 
 1655000    1.0038497   -6.3397893    642.44006  0.032348442  0.032436918            5 
 1656000     0.972931   -6.3397011    641.63453  0.032288372  0.032428879            5 
 1657000   0.99473975   -6.3258446    641.44725  0.032259467  0.032420799            7 
 1658000   0.99998182   -6.3120277    643.78957  0.032357739  0.032412745           19 
 1659000    0.9717151   -6.3633243    641.23827   0.03221008  0.032404728            6 
 1660000   0.99011027   -6.3113424    640.88637   0.03217301   0.03239663            7 
 1661000     1.000351   -6.3698292    641.36967  0.032177888  0.032388479            6 
 1662000   0.97463247   -6.3364838    642.64344  0.032222395  0.032380261           10 
 1663000   0.99783848   -6.3059596    643.71228  0.032256578  0.032372236            6 
 1664000   0.98217984   -6.3349169    642.11683  0.032157293  0.032364145            5 
 1665000    1.0060161   -6.3060756    644.31818  0.032248157  0.032356027            6 
 1666000   0.98367236     -6.34431    644.11503  0.032218639  0.032348043            6 
 1667000   0.98763763   -6.2949726     645.7569  0.032281389  0.032340057            3 
 1668000    1.0035876    -6.322447    644.42926  0.032195706  0.032332073            7 
 1669000   0.98758151   -6.3121817    644.99426  0.032204627  0.032324049           10 
 1670000   0.98901154   -6.3242214    643.86602  0.032129043  0.032315916            8 
 1671000   0.99316665   -6.3486183     644.9216  0.032162458  0.032307782            5 
 1672000   0.96756919   -6.3804287    643.01764  0.032048327  0.032299665            6 
 1673000   0.98028351   -6.3348687    643.68598  0.032062462  0.032291454           13 
 1674000   0.97664922    -6.318936    644.83329  0.032100422  0.032283401            8 
 1675000   0.99640195   -6.3466582    645.80739  0.032129721  0.032275209            5 
 1676000   0.98865441   -6.3430956    645.81184  0.032110772  0.032267071            6 
 1677000   0.99260779   -6.3584762    646.37975  0.032119844  0.032258921            8 
 1678000   0.97829115   -6.3511498    646.20302  0.032091926   0.03225086            5 
 1679000   0.96478986   -6.3136915    645.62168  0.032043959  0.032242867            6 
 1680000   0.98165212   -6.2917364    647.06361  0.032096409  0.032234815            8 
 1681000   0.98683882   -6.3501056    646.28988  0.032038959  0.032226665            6 
 1682000   0.97572166   -6.3225801    647.86057  0.032097729  0.032218486           10 
 1683000   0.98172575   -6.3640802    646.73856  0.032023102   0.03221033           11 
 1684000   0.98209491   -6.3462067    648.55024  0.032093737  0.032202175            4 
 1685000    1.0052938   -6.3272227    650.14412  0.032153517   0.03219414            7 
 1686000   0.97110328   -6.3563427    648.16992  0.032036868  0.032186186            5 
 1687000   0.98422245   -6.3680577    649.76969  0.032096902  0.032178262           11 
 1688000    0.9685373   -6.3284955     650.0749  0.032092955  0.032170268            6 
 1689000   0.96949615   -6.3346792    650.20295  0.032080272  0.032162341            4 
 1690000   0.97222531   -6.3301986    652.19608   0.03215957  0.032154605            6 
 1691000   0.97807462   -6.3509869    651.57323  0.032109857  0.032146798            6 
 1692000   0.97262735   -6.3370475    651.62676  0.032093517  0.032139005            6 
 1693000   0.96719287   -6.3710168    651.02996  0.032045184  0.032131141            9 
 1694000   0.96627151   -6.3525737    651.40721  0.032044825  0.032123373           10 
 1695000   0.97629839   -6.3338417    652.11413  0.032060675  0.032115545            4 
 1696000   0.98077099   -6.3569548    650.41287  0.031958179  0.032107719           10 
 1697000   0.97900016   -6.3910139      651.769  0.032005942  0.032100102            5 
 1698000   0.99809208   -6.3311858    652.66538  0.032031085  0.032092444            4 
 1699000   0.96814351   -6.3521803    654.68858  0.032111466  0.032084797            4 
 1700000   0.98298626    -6.332441    653.93222  0.032055501   0.03207717            9 
 1701000   0.96893949   -6.3506938    656.05501  0.032140653    0.0320696            4 
 1702000   0.99474913   -6.3600024    653.76699  0.032009743  0.032062058            6 
 1703000   0.97152932   -6.3392998    655.71311  0.032086177  0.032054442            6 
 1704000   0.99828086    -6.356831    653.55596  0.031961852  0.032046831            6 
 1705000   0.97921999    -6.368588    653.89001  0.031959433  0.032039238           10 
 1706000   0.98029973    -6.329629    655.36904  0.032012946  0.032031648            8 
 1707000   0.98673841   -6.3042323    658.34892  0.032139666   0.03202418            5 
 1708000   0.99219458   -6.3315856    657.67521  0.032087979   0.03201682            4 
 1709000   0.99269958   -6.3449321    656.50814  0.032012295  0.032009403            4 
 1710000   0.96548916   -6.3611516     656.0484   0.03197117  0.032001878            8 
 1711000   0.99856563   -6.3528584    657.75771  0.032035735  0.031994363            4 
 1712000   0.98910725   -6.3700715    658.11264  0.032034299  0.031986874           12 
 1713000   0.97450349   -6.3437997    658.03948  0.032012039  0.031979327            9 
 1714000   0.98433208   -6.3516506    658.40649  0.032011206  0.031971867            8 
 1715000   0.95436254   -6.3544579     658.9686  0.032019854  0.031964488            9 
 1716000   0.97349132    -6.326481    659.33098  0.032018793  0.031957061            9 
 1717000   0.97761248   -6.3794029    660.02879  0.032034012  0.031949739           10 
 1718000   0.98901836   -6.3282164    659.09986  0.031970308  0.031942482           10 
 1719000   0.97366083   -6.3028174     660.7335  0.032030904  0.031935291            5 
 1720000   0.97616514   -6.3493208    661.38691  0.032043939  0.031928213            6 
 1721000    0.9968645   -6.3635548     658.8958  0.031904697  0.031921098           10 
 1722000   0.96277188   -6.3750549    662.26915  0.032049417  0.031914029            8 
 1723000   0.97862877   -6.3168173    662.92032   0.03206231  0.031906912            6 
 1724000   0.97007144   -6.3111804    662.85144  0.032040383  0.031899761            6 
 1725000   0.97925193   -6.3499407    661.55111  0.031958991  0.031892541           19 
 1726000   0.97970785   -6.3521712    662.08776  0.031966385  0.031885281            5 
 1727000   0.98226338   -6.3686185    661.79472  0.031933735  0.031877987            5 
 1728000   0.96436735   -6.3413411    660.98067  0.031875997  0.031870623            4 
 1729000   0.97565572   -6.3190666    664.27533  0.032016355  0.031863259            7 
 1730000   0.97106226   -6.3420252    663.13913  0.031943118  0.031856063            5 
 1731000    0.9679909   -6.3269924    663.62728  0.031948165  0.031848895            4 
 1732000   0.96411369   -6.3532524    662.27078  0.031864453   0.03184176           16 
 1733000   0.98414534   -6.3646355    664.24702  0.031941095  0.031834432            8 
 1734000   0.95540206   -6.3627272    662.39248  0.031833549  0.031827098            6 
 1735000   0.95816726   -6.3562918    665.10975  0.031945713  0.031819837            5 
 1736000   0.99197759   -6.3355146    665.42773  0.031942576  0.031812631            5 
 1737000    0.9558867   -6.3472903    664.70374  0.031889452  0.031805389            6 
 1738000   0.98229904   -6.3450474    664.59248  0.031865769  0.031798188            5 
 1739000   0.95210722   -6.3833454    665.07161  0.031870405  0.031791004           10 
 1740000   0.97123591   -6.3289314      667.855  0.031985393  0.031783802            6 
 1741000   0.97705533   -6.3205243    667.83323  0.031965979  0.031776673           11 
 1742000   0.97637157    -6.315992     666.9224  0.031904057  0.031769627            4 
 1743000   0.97272408   -6.3418192    668.13411  0.031943685  0.031762538            8 
 1744000   0.95882278   -6.3488866    666.75383  0.031859415  0.031755338            6 
 1745000    0.9467352   -6.3464324     667.6275  0.031882879  0.031748163            7 
 1746000   0.97492173   -6.3412985    667.39099  0.031853331  0.031741089            3 
 1747000   0.95331029   -6.3440803    667.92532  0.031860586  0.031734051            5 
 1748000   0.96344764   -6.3520208    667.08227  0.031802168  0.031727025            5 
 1749000   0.98661295   -6.3526511    667.13207  0.031786357  0.031719845            6 
 1750000   0.96738705   -6.3240455    668.27552  0.031822644  0.031712707            6 
 1751000   0.96395126   -6.3378772    668.43064  0.031811852  0.031705649            5 
 1752000   0.98659692   -6.3517841    669.41271  0.031840407  0.031698651            4 
 1753000   0.99307599   -6.3321463    670.67591  0.031882293  0.031691491           10 
 1754000   0.98692659   -6.3549899    669.41338  0.031804133  0.031684393            9 
 1755000   0.97318632   -6.3718704    668.96409  0.031764677  0.031677277           15 
 1756000   0.97821876   -6.3598453    670.33798  0.031811787  0.031669998            3 
 1757000   0.98179426   -6.3421454    669.92111   0.03177391  0.031662757            8 
 1758000   0.98184569   -6.3799901    669.63655  0.031742347  0.031655398            9 
 1759000   0.96646715    -6.361706    669.60896  0.031722994  0.031648067            4 
 1760000   0.97854637    -6.308376     668.7863  0.031666018  0.031640694           10 
 1761000   0.97930455   -6.3451912    670.24475  0.031717052  0.031633326            3 
 1762000   0.96614598   -6.4013103     668.2777  0.031606021  0.031625911            7 
 1763000   0.98295054   -6.3660588    669.60298  0.031650736  0.031618409            8 
 1764000   0.98102012    -6.357629    669.56247   0.03163088  0.031610839            4 
 1765000   0.93973219   -6.3417347    670.01336  0.031634248  0.031603387           12 
 1766000    0.9741204   -6.3535879    668.82726  0.031560365    0.0315958            7 
 1767000   0.97918494   -6.3746048    669.00537  0.031550904  0.031588206            9 
 1768000   0.96902575   -6.3651794      669.602   0.03156118  0.031580694            7 
 1769000    0.9778534    -6.364279    670.26022  0.031574346  0.031573086            3 
 1770000   0.98724295   -6.3253012    670.89088  0.031586199  0.031565636            5 
 1771000   0.97387784   -6.3586945    670.88274  0.031567982  0.031558129            7 
 1772000   0.96448762   -6.3633453    669.36863  0.031478961  0.031550579           13 
 1773000   0.96283062   -6.3648402    672.38023  0.031602756  0.031543088            5 
 1774000   0.97085062   -6.3688712    669.68181  0.031458183  0.031535578            5 
 1775000   0.95435269   -6.3443479    674.41964  0.031662894  0.031528032           11 
 1776000   0.95024674   -6.3349164    672.54334  0.031557026  0.031520544            5 
 1777000   0.95898016    -6.375152    672.33933    0.0315297  0.031513078            5 
 1778000   0.95753085   -6.3965641    671.97705  0.031494987  0.031505612            9 
 1779000   0.97434057    -6.355719    673.35472  0.031541817  0.031498163            9 
 1780000   0.97015243   -6.3803045    673.06548  0.031510556  0.031490856            6 
 1781000   0.96424855   -6.3443534    673.50689  0.031513517  0.031483431            4 
 1782000   0.97687779   -6.3849644    674.02211  0.031519927  0.031476031           11 
 1783000   0.96186771    -6.387334    672.78863  0.031444599  0.031468464            5 
 1784000   0.96040394   -6.4078806    672.31809  0.031404993  0.031460849           28 
 1785000   0.97998483   -6.3827362     672.0502  0.031374892  0.031453125            4 
 1786000   0.95326463   -6.3360219    674.44461  0.031469047  0.031445478            7 
 1787000   0.97098854    -6.371691    672.47308  0.031359498  0.031437801            6 
 1788000   0.94995204   -6.3944876     672.7583  0.031355252  0.031430069            7 
 1789000   0.96682628   -6.3613074    673.15296   0.03135611  0.031422412            6 
 1790000   0.96975226   -6.3784463    674.71213  0.031411179  0.031414799            5 
 1791000   0.94627539   -6.3506642    675.42819  0.031426958  0.031407143            7 
 1792000   0.95288043   -6.3446486    673.78538  0.031333025  0.031399432            8 
 1793000   0.97486789   -6.3806335    672.69289  0.031264775  0.031391679            7 
 1794000   0.96122498   -6.3889657    673.57444  0.031288296  0.031383858            9 
 1795000   0.96192339   -6.3519919    676.00144  0.031383539  0.031376095           10 
 1796000   0.97187841   -6.3802794    672.48374  0.031202846  0.031368416           15 
 1797000   0.97643034   -6.3613793    675.68279  0.031333834  0.031360676           16 
 1798000   0.94759559   -6.3497023    675.94107  0.031328377   0.03135298            4 
 1799000   0.95974594   -6.3558206    673.80049  0.031211807  0.031345335            5 
 1800000   0.96913641   -6.3888003    676.89567  0.031337763   0.03133761           10 
 1801000   0.98575991   -6.3266021    676.52902  0.031303397  0.031329972            2 
 1802000   0.94398376   -6.3985549    675.65481  0.031245598  0.031322364            8 
 1803000   0.98215552   -6.3846883    676.47075   0.03126598  0.031314644            9 
 1804000   0.98972261   -6.3857237    675.19388  0.031189665  0.031306923            6 
 1805000   0.97236368     -6.39539    677.04393  0.031257799  0.031299232            7 
 1806000   0.96366109   -6.3442932    677.30665  0.031252614  0.031291593           10 
 1807000   0.94304153   -6.4063891    676.83764  0.031213689  0.031283913            9 
 1808000   0.95932099   -6.3721744    680.29899  0.031355964  0.031276224            8 
 1809000   0.95529124   -6.3899187    677.35064  0.031202812  0.031268579            7 
 1810000   0.94979456   -6.3781085    677.61575  0.031197779  0.031260838           12 
 1811000   0.94997049   -6.3648372    678.54739  0.031223421  0.031253318            5 
 1812000   0.97279945   -6.3739318    678.73622  0.031214874  0.031245664           16 
 1813000   0.96593276   -6.3823665    678.97255  0.031208519  0.031237958            9 
 1814000   0.96637808   -6.3929927     678.1914   0.03115543  0.031230251            7 
 1815000   0.95589398   -6.4023391     677.5324  0.031108008  0.031222427           12 
 1816000   0.92347665   -6.3875243    680.31556  0.031218592  0.031214565           19 
 1817000   0.94751639   -6.3648254    677.57473  0.031075707  0.031206771           12 
 1818000   0.96008602   -6.3592012    680.63003  0.031198663  0.031199019            4 
 1819000     0.959282   -6.3659639    681.15876  0.031205734   0.03119131            4 
 1820000   0.96641038   -6.3587253    681.35036  0.031197361  0.031183601            7 
 1821000   0.95515929   -6.3948512    679.23584  0.031083463  0.031175886            9 
 1822000   0.94405802   -6.3937295    680.63918  0.031130588  0.031168135            5 
 1823000    0.9537228   -6.3838837    680.04112  0.031086173  0.031160461            9 
 1824000   0.96575085   -6.3864092    681.06901  0.031116092  0.031152715            3 
 1825000   0.94764044   -6.3939633    678.52371  0.030982818  0.031144968            5 
 1826000   0.96016158   -6.3950022    679.52307  0.031011458   0.03113719            4 
 1827000   0.96163373   -6.3834122    681.14881  0.031068637  0.031129408            7 
 1828000    0.9826899   -6.3714748    682.89344  0.031131174  0.031121764            5 
 1829000    0.9522176   -6.3991912    682.77216  0.031108628  0.031114009            5 
 1830000   0.95289067   -6.4050233    681.46303  0.031032014  0.031106227            8 
 1831000   0.96955904   -6.3738051    682.06422  0.031042427  0.031098456           14 
 1832000    0.9612716   -6.3884327    680.57716   0.03095784  0.031090622            7 
 1833000   0.97220931   -6.3844767    682.69093  0.031037049  0.031082749            8 
 1834000   0.95490685   -6.4020124    682.32637  0.031003561  0.031074943           17 
 1835000   0.95531225   -6.3783381    681.81361  0.030963379  0.031067229           13 
 1836000   0.95872416   -6.3714669    683.83056  0.031038061  0.031059409           15 
 1837000   0.96118422   -6.3625568    683.10208  0.030988118   0.03105156           13 
 1838000   0.95822652    -6.369175    684.60915  0.031039588  0.031043817            7 
 1839000   0.96451456   -6.3899289     685.2142  0.031050127  0.031036042            8 
 1840000   0.97057605   -6.3955082    683.41135  0.030951601  0.031028357           11 
 1841000   0.95788202   -6.3749197    684.10097  0.030966004  0.031020721            7 
 1842000   0.92162862   -6.3780774    686.30735  0.031049011  0.031013081           10 
 1843000   0.94933751    -6.432529    683.32777   0.03089744  0.031005418            7 
 1844000   0.93410812   -6.3731003    685.09682   0.03096063  0.030997726           10 
 1845000   0.95669708   -6.3924995    686.73598  0.031017885  0.030990059            9 
 1846000   0.95880852    -6.352431    685.32244  0.030937272  0.030982541            7 
 1847000   0.96251411   -6.3732224    686.52159  0.030974625  0.030975004            6 
 1848000    0.9505674   -6.4114069    687.39019  0.030997032  0.030967514           12 
 1849000   0.94443739   -6.4009064    686.72272  0.030950186  0.030959982            7 
 1850000   0.97479501   -6.3657346    688.18178  0.030999179  0.030952484            6 
 1851000    0.9484373   -6.3726883    686.92294  0.030925758  0.030944924           12 
 1852000   0.94589052   -6.3979419    686.71979  0.030899919  0.030937348           13 
 1853000   0.94880967   -6.3757924    688.98131  0.030984948  0.030929895           12 
 1854000   0.94347586   -6.3893587     690.3699   0.03103065  0.030922459            8 
 1855000   0.95649974   -6.3984353    687.94116  0.030904814  0.030914967            5 
 1856000   0.97209725   -6.3769785    690.55239  0.031005405  0.030907541           11 
 1857000   0.95129831   -6.4114286    688.64471  0.030903101   0.03090004           17 
 1858000   0.94975453   -6.3657294    691.98527  0.031036296  0.030892622           11 
 1859000   0.94416566   -6.3657286    691.54253  0.030999755  0.030885276            6 
 1860000   0.94857035   -6.3582292    689.85007  0.030907261  0.030877863            9 
 1861000   0.96632626    -6.379614    690.93346  0.030939166  0.030870484            8 
 1862000   0.95427987   -6.4149282    688.44125  0.030811012  0.030863009            6 
 1863000   0.96380728   -6.3897672    691.77105  0.030943418  0.030855567            5 
 1864000   0.95070057   -6.4034426    690.21989   0.03085747  0.030848177           11 
 1865000   0.97060699   -6.3761579    689.38361  0.030803557  0.030840836           17 
 1866000   0.94272671   -6.3932417    691.09069  0.030863286  0.030833437            4 
 1867000   0.94201015   -6.3895705    691.01873  0.030843543  0.030826068            8 
 1868000    0.9473278   -6.3851251    691.64781  0.030855095  0.030818593            6 
 1869000    0.9627036   -6.3953485    691.57993   0.03083556  0.030811133            5 
 1870000   0.95135405   -6.3787319    691.01338  0.030793823  0.030803686            4 
 1871000   0.95391293   -6.3875691    693.34215  0.030881086  0.030796209            6 
 1872000   0.93191588   -6.3569759    692.93726  0.030846566  0.030788808            4 
 1873000    0.9287235   -6.4086709    690.83838  0.030736714  0.030781349           22 
 1874000   0.94305262   -6.3953834    691.49091  0.030749329  0.030773797            5 
 1875000   0.95548621   -6.4123111    691.00071  0.030711143   0.03076623            4 
 1876000   0.96700358   -6.4098133    691.41943  0.030713372  0.030758658           10 
 1877000   0.95894401   -6.3866821     691.6181  0.030705829  0.030751021           18 
 1878000   0.96827964   -6.3892057    693.27171  0.030762856  0.030743378           11 
 1879000   0.94029352    -6.404081    692.82801  0.030726806  0.030735745            7 
 1880000   0.95456937   -6.3790207    694.04948  0.030764605  0.030728162            5 
 1881000   0.93844392   -6.3797006    692.28607  0.030670125  0.030720632            7 
 1882000   0.92601974   -6.3774967    692.93399  0.030682518  0.030713011            6 
 1883000   0.96646048   -6.3577573    693.69778  0.030700026  0.030705437            4 
 1884000   0.95677797   -6.4038675    692.95657  0.030650945  0.030697936            6 
 1885000   0.94631053   -6.4033314    693.47273  0.030657504  0.030690268            7 
 1886000   0.94229951   -6.4290196    692.79584   0.03061134   0.03068254           12 
 1887000   0.95013561    -6.397684    694.13511  0.030654262  0.030674845            5 
 1888000   0.95852691   -6.4098689    693.78618  0.030622624  0.030667237            7 
 1889000   0.95840346   -6.4237026    692.66509  0.030556957   0.03065954           10 
 1890000   0.94525035   -6.3852637    695.85639  0.030681498  0.030651833            5 
 1891000   0.96399122   -6.3970269    693.55851   0.03056401  0.030644086           16 
 1892000   0.95447674   -6.4066533    692.97064  0.030521963  0.030636343            4 
 1893000   0.94956541   -6.4140132    694.83611   0.03058796  0.030628597           10 
 1894000   0.94306118   -6.4058156    695.20718  0.030588137  0.030620869            4 
 1895000   0.95709614   -6.4155162    695.85168  0.030600338  0.030613147           14 
 1896000    0.9459285   -6.3994443    694.54288  0.030526674  0.030605432           12 
 1897000   0.93892221   -6.4128093    697.61951  0.030645735  0.030597686            7 
 1898000   0.95515332   -6.4019773    696.18411  0.030566566  0.030589947            3 
 1899000   0.94219469   -6.3855229    695.71645  0.030529948  0.030582257            8 
 1900000   0.93957343   -6.3983618    697.29989  0.030583328  0.030574569            8 
 1901000   0.95141446   -6.4166399    694.64657  0.030450928  0.030566856            8 
 1902000   0.95703315   -6.3920987    695.90834  0.030490201  0.030559108           19 
 1903000   0.95305414   -6.4179458     698.0046  0.030565975  0.030551378            9 
 1904000   0.96630033   -6.3799281    699.27187  0.030605386  0.030543688           10 
 1905000   0.93740193   -6.4126698    698.03352   0.03053515  0.030535924            4 
 1906000   0.93239513   -6.4143132    696.44706  0.030449767   0.03052814            8 
 1907000    0.9469428     -6.38581    696.11384  0.030419238  0.030520404            4 
 1908000    0.9446517   -6.4192496    696.78321   0.03043253  0.030512701            7 
 1909000   0.95860826   -6.3966324    698.00043  0.030469724  0.030504919           12 
 1910000   0.95256271   -6.3847544    697.61762  0.030437069  0.030497088            6 
 1911000   0.93439627   -6.4244928    697.16658  0.030401473  0.030489336           12 
 1912000    0.9561391    -6.390214    699.98232  0.030508295  0.030481649            4 
 1913000   0.96426993   -6.4217824    699.52497  0.030472424  0.030473966            6 
 1914000   0.95185578   -6.4217653    698.39795  0.030407434  0.030466231           15 
 1915000    0.9386682   -6.3759434    700.61508  0.030488036  0.030458509            4 
 1916000   0.94096535   -6.4124905    697.10771  0.030319577  0.030450788           11 
 1917000   0.94104621   -6.4119942    698.50545  0.030364521  0.030443078            5 
 1918000   0.93252812   -6.4285397    697.72594  0.030314822  0.030435231            8 
 1919000   0.97173922   -6.4184605    700.16399  0.030404898  0.030427407            4 
 1920000   0.94545791    -6.429952    700.04919  0.030384079  0.030419653            9 
 1921000    0.9432384   -6.3837281    699.58944  0.030348319  0.030411853           11 
 1922000    0.9486106   -6.4227311    699.86025   0.03034427  0.030404166            7 
 1923000   0.91618436   -6.4203838    698.97015  0.030289918  0.030396433            4 
 1924000   0.93848806   -6.4116558    699.14189  0.030281613  0.030388636           12 
 1925000   0.94159087   -6.3677434    701.04137  0.030348111  0.030380883           12 
 1926000   0.95518765   -6.3980403      701.524  0.030353236  0.030373164           17 
 1927000   0.93342458   -6.3965669    703.32147  0.030415217  0.030365486            6 
 1928000   0.94123917   -6.4318948    700.09017  0.030259776  0.030357722            4 
 1929000   0.93387062   -6.4122143    700.20111  0.030248882  0.030349897           10 
 1930000   0.96954213   -6.3899032    701.30948  0.030281066  0.030342084           18 
 1931000   0.96360782   -6.3972458    701.11813  0.030257126  0.030334362           12 
 1932000   0.94066897   -6.3744249    703.05951  0.030325203  0.030326669            7 
 1933000   0.93111942   -6.4019749    701.36867  0.030236621  0.030318927            7 
 1934000   0.93641887    -6.420877    700.16658  0.030169191  0.030311166           13 
 1935000   0.95745735    -6.415131    702.89744  0.030271208  0.030303344            7 
 1936000   0.94938045   -6.4118981    703.63737  0.030287421  0.030295481            2 
 1937000   0.94270866    -6.358669    702.68731  0.030230911  0.030287656            7 
 1938000   0.94990252   -6.4116333    703.97135  0.030270526  0.030279777            7 
 1939000   0.90666604   -6.4265379    702.31773  0.030183846  0.030271935            3 
 1940000   0.93182784   -6.4176872    702.41184   0.03017233   0.03026411           10 
 1941000   0.93703985   -6.3967483    700.53108  0.030076038  0.030256289            5 
 1942000    0.9345659   -6.4332871    702.37822  0.030139814   0.03024838           18 
 1943000    0.9447456   -6.4181723    703.16554  0.030158069  0.030240509            4 
 1944000   0.94629955    -6.410033    702.08302  0.030096152  0.030232598           12 
 1945000   0.94472735   -6.4343884    702.74786  0.030109163   0.03022469           11 
 1946000   0.91536643   -6.4038685    703.06128  0.030107112   0.03021676            8 
 1947000   0.92961145   -6.4069422    705.00261  0.030174739  0.030208892            7 
 1948000   0.92242445   -6.4064689    704.31077  0.030129653  0.030201054            9 
 1949000   0.94677495   -6.4096205    704.26513  0.030112243  0.030193197            4 
 1950000   0.92660049   -6.4067573     704.5037  0.030106996  0.030185341            7 
 1951000   0.94840127   -6.4109874    702.71403  0.030015122  0.030177456           12 
 1952000   0.95938007   -6.4286841    703.19954  0.030020472  0.030169557           21 
 1953000   0.94443335   -6.4234414    705.96272  0.030123004  0.030161745           12 
 1954000   0.96185266   -6.4056075    705.70627  0.030096651  0.030153913            9 
 1955000   0.92767869   -6.4205312    705.25598  0.030062062  0.030146076            8 
 1956000   0.95378601   -6.3920964    706.38278  0.030094699  0.030138249            4 
 1957000   0.92531298   -6.3999116    705.70082  0.030050282  0.030130546           14 
 1958000   0.94201297   -6.4328823    705.50571   0.03002663  0.030122656            3 
 1959000   0.93244849   -6.4156713     705.2161  0.029998983   0.03011486            7 
 1960000   0.92810018   -6.4123094    706.52066  0.030039144  0.030107061           12 
 1961000   0.94150519   -6.3948481    706.96719  0.030042801  0.030099191            6 
 1962000   0.96293293   -6.4271449    707.74837  0.030060668  0.030091357            5 
 1963000   0.93610939   -6.3923219    706.72108  0.030001744  0.030083555           12 
 1964000   0.93100494   -6.4374319    706.03033  0.029957159  0.030075736            7 
 1965000   0.93714207   -6.4389164    706.90828  0.029979147  0.030067833           13 
 1966000   0.94961909   -6.4177779    705.86453  0.029919656  0.030060021           16 
 1967000   0.92432747   -6.4159447    708.10797  0.029999491  0.030052232            5 
 1968000   0.95057957   -6.4175419    709.93853   0.03006176  0.030044422           14 
 1969000   0.95008251   -6.4212073    709.52635  0.030029048   0.03003678            7 
 1970000   0.94447639   -6.4159476    711.54761  0.030099307  0.030029101            4 
 1971000   0.94295648   -6.4122548    709.53201  0.029998816  0.030021304            7 
 1972000   0.93525893   -6.4282076    709.49579  0.029982074  0.030013663            7 
 1973000   0.92628846    -6.417252    708.59827  0.029928969  0.030005967            6 
 1974000   0.93035961   -6.4228508     710.8622   0.03000938  0.029998238           15 
 1975000   0.94888016   -6.4112463     710.8982  0.029995705  0.029990594            9 
 1976000   0.93045251   -6.4194606    709.28616  0.029912541  0.029983009            6 
 1977000     0.939213   -6.4120478    711.39029  0.029986102  0.029975455           10 
 1978000   0.92737256   -6.4446799    711.58076  0.029978967   0.02996793            5 
 1979000   0.94577498   -6.4638995    711.00625  0.029939627  0.029960376            7 
 1980000   0.93676354   -6.4384268    711.21137  0.029933138  0.029952774            4 
 1981000   0.95339236   -6.4574958    709.85929  0.029861151  0.029945103            7 
 1982000   0.91560981   -6.4046321    712.31196  0.029949208  0.029937494            7 
 1983000   0.95310135   -6.4310719    711.73409  0.029909821  0.029929875           18 
 1984000   0.91259357   -6.4327314    712.03774  0.029907499  0.029922289            8 
 1985000   0.92962779   -6.4308997    713.46023  0.029952151  0.029914706           13 
 1986000   0.92835639   -6.4230351    711.97376  0.029874696  0.029907076            6 
 1987000   0.95462936   -6.4164249    713.53601  0.029925181  0.029899485            8 
 1988000   0.94042553   -6.4089704    712.78757  0.029878755  0.029891899            2 
 1989000   0.96879408   -6.4133551    713.83123  0.029907459  0.029884243            8 
 1990000    0.9327525   -6.4061898    712.39555  0.029832309  0.029876582           11 
 1991000   0.94283732   -6.4259224    712.12715  0.029806092  0.029868911            7 
 1992000   0.94121084   -6.4495425    715.12722  0.029916634   0.02986124           12 
 1993000   0.95769068   -6.4186742    713.90719   0.02985061   0.02985358            8 
 1994000   0.95101697   -6.4519036    713.74026  0.029828664  0.029845929           10 
 1995000   0.94128814   -6.4090538    713.63029  0.029809118  0.029838288           21 
 1996000   0.94806493   -6.4221507     715.3974  0.029867961  0.029830655           12 
 1997000   0.91398261    -6.433981    714.27383  0.029806119  0.029822947           12 
 1998000   0.92899041   -6.4208115     713.6679  0.029765929  0.029815228            5 
 1999000    0.9509347   -6.3951723    713.88547  0.029760108  0.029807529           10 
 2000000   0.95279822   -6.4136867    714.00105  0.029750044  0.029799813            8 
 2001000    0.9289782   -6.4133082    715.23948  0.029786751    0.0297921            7 
 2002000    0.9219339    -6.414676    714.11845   0.02972521  0.029784333            4 
 2003000   0.93026052   -6.4473139    712.82216  0.029656438   0.02977653            4 
 2004000   0.93903839   -6.4265609    712.49386  0.029627988  0.029768721            7 
 2005000   0.92207335   -6.4401615    714.75243  0.029707083  0.029760893            7 
 2006000   0.93210848   -6.4281265    716.41031  0.029761146  0.029753158            5 
 2007000   0.92047722   -6.4339746    716.05091  0.029731395  0.029745409            6 
 2008000   0.92909416   -6.4391379    713.47032  0.029609492  0.029737647            7 
 2009000   0.94038861   -6.4067151    717.31536  0.029754246  0.029729887            8 
 2010000   0.90219833   -6.4567358    716.21832   0.02969396  0.029722182            9 
 2011000   0.91850021   -6.4383341    716.10488  0.029674494  0.029714435           13 
 2012000   0.92960042   -6.4558086    717.04249  0.029698579  0.029706678            4 
 2013000   0.92168248   -6.4369475    717.59448  0.029706676  0.029699029           10 
 2014000   0.91811355   -6.4173723    717.74895  0.029698318  0.029691453            8 
 2015000   0.93505751   -6.4310218    716.24552  0.029621403  0.029683859            8 
 2016000   0.92877453   -6.4168937    717.85934  0.029673418  0.029676303            9 
 2017000   0.92346025   -6.4268253    718.05025  0.029666594  0.029668769            6 
 2018000   0.92491278   -6.4242694    720.13091  0.029737814  0.029661147           13 
 2019000   0.95179355   -6.4374083    717.97047  0.029633914  0.029653559            6 
 2020000   0.92753735   -6.4725396    720.05485  0.029705233   0.02964598            8 
 2021000   0.94714869   -6.4467884    718.57142  0.029629368  0.029638365            5 
 2022000   0.94665176   -6.4283256    718.10086  0.029595321  0.029630671           21 
 2023000    0.9165967   -6.4611453    718.73931  0.029606991  0.029622996           20 
 2024000   0.94214217   -6.4151107    719.81813  0.029636781  0.029615383            6 
 2025000   0.93303066    -6.396673    719.87722  0.029624577  0.029607774            7 
 2026000   0.91460378   -6.4177003    720.80426  0.029648086   0.02960028            9 
 2027000   0.91314957    -6.428088    720.81964  0.029634092   0.02959279           10 
 2028000    0.9184125   -6.4225374    722.86971  0.029703719  0.029585297            7 
 2029000   0.92002972    -6.466735    720.76325  0.029602565  0.029577791            8 
 2030000   0.92510431   -6.4485762    719.74144  0.029546036  0.029570238            4 
 2031000    0.9405858   -6.4604569    720.47163  0.029561449  0.029562656            6 
 2032000   0.90983291    -6.455812    719.04026    0.0294882   0.02955505           11 
 2033000   0.94351898   -6.4299628    720.81263  0.029546345  0.029547556            8 
 2034000   0.92363722   -6.4360688    721.15996  0.029546049  0.029540076           14 
 2035000   0.91854341   -6.4745871    721.03872  0.029526565    0.0295326           13 
 2036000    0.9476847   -6.4654404    721.21827  0.029519412  0.029525039           15 
 2037000   0.94134378    -6.447127    721.65066  0.029522609  0.029517442            8 
 2038000   0.93745121   -6.4419252    722.16402  0.029529114  0.029509835           10 
 2039000   0.94080419   -6.4345097    722.02287  0.029508863   0.02950229            8 
 2040000   0.94595373   -6.4802987    721.76216  0.029483748   0.02949473            7 
 2041000   0.93135144   -6.4455123    723.09329  0.029523652  0.029487173            9 
 2042000   0.92116204   -6.4359915    723.33085  0.029518889  0.029479641            7 
 2043000   0.90639586   -6.4357742     723.1184  0.029495774  0.029472119            4 
 2044000   0.94898704   -6.4516645    722.23533  0.029445341  0.029464537            8 
 2045000   0.93593191   -6.4328678    722.61176  0.029446282   0.02945688            8 
 2046000   0.94294356   -6.4423133    722.71796  0.029436215  0.029449288            6 
 2047000   0.93071867   -6.4087084    724.01619  0.029474686  0.029441766            6 
 2048000   0.91594188   -6.4452896    722.98293  0.029418251  0.029434259            7 
 2049000   0.89959646   -6.4582752    724.48617  0.029465031   0.02942665           10 
 2050000   0.93847245   -6.4366037    724.44505  0.029448986  0.029419009           12 
 2051000    0.8997286   -6.4682431    724.55908   0.02943926  0.029411483           11 
 2052000   0.91968006    -6.444443    724.39033  0.029418061  0.029403874            9 
 2053000   0.92882614   -6.4696452    723.69625  0.029375558  0.029396306           13 
 2054000   0.93773943   -6.4644765    725.30686  0.029426601  0.029388658           10 
 2055000   0.93570425   -6.4218204    723.88412  0.029354587  0.029381034            9 
 2056000   0.92174627   -6.4708522    722.83854   0.02929793  0.029373318            8 
 2057000   0.91004491    -6.459545    725.98451  0.029411137  0.029365672            9 
 2058000   0.90690178   -6.4733497    725.19371  0.029364825  0.029358003           13 
 2059000   0.95130637   -6.4588233    724.45251  0.029320565  0.029350286           16 
 2060000   0.90138077   -6.4620995    724.62386  0.029313263  0.029342562            8 
 2061000   0.92668608   -6.4261741    723.34313  0.029247256  0.029334852            6 
 2062000   0.92448525   -6.4777572    723.49843  0.029239348  0.029327073           14 
 2063000   0.91764462   -6.4750146    726.18116  0.029333542  0.029319333            5 
 2064000   0.94066747   -6.4539956    724.85985  0.029265982  0.029311483            5 
 2065000   0.93635653   -6.4312271     725.7377  0.029287236   0.02930371           13 
 2066000   0.92955021   -6.4372823    725.43339  0.029260785  0.029295994            2 
 2067000   0.93144338   -6.4411001    724.73173  0.029218341  0.029288293            6 
 2068000   0.93140021   -6.4288602    725.21827  0.029223818  0.029280512            5 
 2069000   0.93197982   -6.4827824    726.00038  0.029241195  0.029272734            4 
 2070000   0.92628384    -6.450501    727.03033  0.029268532  0.029264962           13 
 2071000   0.93300311   -6.4650892    726.20871  0.029221339  0.029257224            7 
 2072000   0.91083556   -6.4676236    724.13757  0.029123937  0.029249458           11 
 2073000   0.92562458   -6.4754025     725.5317  0.029165931  0.029241605           14 
 2074000   0.93079304   -6.4655494    725.82525  0.029163663  0.029233764           13 
 2075000   0.92452229   -6.4408602    725.83674   0.02915007  0.029225927            6 
 2076000   0.91587841   -6.4427115    728.18494  0.029230288  0.029218073            7 
 2077000    0.9114586   -6.4433167     727.0388   0.02917023  0.029210309           16 
 2078000   0.93123969   -6.4655796    727.60148  0.029178757  0.029202512            6 
 2079000   0.94022286   -6.4531482    725.63348  0.029085838  0.029194678           16 
 2080000   0.90472833   -6.4729756    726.78078   0.02911782  0.029186856           14 
 2081000   0.94119827   -6.4567926    727.40574  0.029128854  0.029179094            6 
 2082000   0.92728885   -6.4798372    728.34992  0.029152654   0.02917135            6 
 2083000   0.93555067   -6.4738115    727.11137  0.029089109  0.029163578            5 
 2084000   0.90197637   -6.4341022    728.45166  0.029128745   0.02915585            6 
 2085000   0.91468347   -6.4402381    728.23064  0.029105941  0.029148116            9 
 2086000   0.91839002   -6.4717707     729.7764  0.029153739  0.029140341            5 
 2087000   0.90854672   -6.4527096    730.37287  0.029163587  0.029132665            7 
 2088000   0.92744349   -6.4668337    728.46465  0.029073461  0.029124965           12 
 2089000   0.90725594   -6.4815237     729.9962   0.02912064  0.029117358            8 
 2090000   0.92143204   -6.4467012    729.93275  0.029104177  0.029109748            4 
 2091000   0.91288856   -6.4674816      730.147  0.029098796  0.029102077           13 
 2092000   0.93402845   -6.4605845    730.09971  0.029083003  0.029094436           13 
 2093000   0.92473842    -6.492042    729.25057  0.029035299  0.029086794           16 
 2094000   0.89444399   -6.4542839    732.48048  0.029149971  0.029079165            8 
 2095000   0.90438568   -6.5004503    730.28839  0.029048862  0.029071542           11 
 2096000   0.92193511   -6.4648921    730.96548  0.029061923   0.02906387            6 
 2097000   0.90590198   -6.4601651     729.6095  0.028994178   0.02905626           11 
 2098000   0.93122427   -6.4360753    730.20841  0.029004147   0.02904861           16 
 2099000   0.92445964    -6.456831    730.95661  0.029020034  0.029040995           10 
 2100000   0.93925025   -6.4961989    730.35666  0.028982407  0.029033385           10 
 2101000   0.90806516   -6.4694897     733.3003  0.029085368  0.029025719           13 
 2102000    0.8947365   -6.4673963    733.13182  0.029064852  0.029018136            9 
 2103000   0.94156768   -6.5020013    731.92674  0.029003279  0.029010564           12 
 2104000   0.90710125    -6.467864    733.67805  0.029058858  0.029002992            8 
 2105000   0.92314281   -6.4729113    732.84635  0.029012128  0.028995416           17 
 2106000   0.90160708   -6.4709348    735.37418  0.029098377  0.028987952            7 
 2107000     0.897171   -6.4484808     734.2973  0.029041975  0.028980505            4 
 2108000   0.89120484   -6.4577845    734.18617  0.029023805  0.028973028            8 
 2109000   0.90721534   -6.4265861      733.672  0.028989727  0.028965543            7 
 2110000   0.89144113   -6.4696281    732.01062  0.028910372  0.028957951           14 
 2111000   0.89945312   -6.4322659    735.23112  0.029023809  0.028950403           13 
 2112000   0.90372841   -6.4401543    734.87166  0.028995883  0.028942923            7 
 2113000   0.91536379   -6.4813569    735.22803  0.028996215    0.0289354           12 
 2114000   0.92012924   -6.4809436    734.21511   0.02894257  0.028927972           30 
 2115000   0.91784181   -6.4426278    736.87633   0.02903374  0.028920496           17 
 2116000   0.92311062   -6.4656113    736.64594  0.029010946  0.028913055            7 
 2117000   0.89499804   -6.4619419    734.40155  0.028908894  0.028905572            9 
 2118000   0.90217056   -6.4800592    736.86747  0.028992267  0.028898092            7 
 2119000   0.93805714   -6.4328361    738.43787  0.029040344  0.028890658           14 
 2120000   0.91941245   -6.4771587    735.51775  0.028911861  0.028883177            4 
 2121000   0.89947209   -6.4709016     737.0538  0.028958581  0.028875673           18 
 2122000   0.88601813   -6.4697459    736.25088  0.028913403  0.028868204            4 
 2123000   0.93073804   -6.4566236    736.23649  0.028899219  0.028860769            7 
 2124000   0.90032113   -6.4690328    737.32019  0.028928131  0.028853342            8 
 2125000   0.91849115   -6.4800769    736.11761  0.028867357  0.028845879           11 
 2126000   0.91468137   -6.4428816    738.69685  0.028954878  0.028838374            6 
 2127000   0.91315908   -6.4708185     738.6317  0.028938713  0.028830948           12 
 2128000   0.88877599   -6.4610611     735.8397  0.028815778  0.028823518            7 
 2129000   0.91711223   -6.4719412    736.25574  0.028818528  0.028815954           10 
 2130000   0.89660321   -6.4799729    737.51547  0.028854283  0.028808411            6 
 2131000   0.92205415   -6.4753707    737.83796  0.028853354  0.028800862           13 
 2132000   0.89674119    -6.476741     737.9896  0.028845747  0.028793352            9 
 2133000   0.91166735   -6.4872346    736.52111  0.028774852  0.028785813            8 
 2134000   0.89924629   -6.5019193    737.82988  0.028812476  0.028778164            7 
 2135000   0.90129122   -6.4665068    736.12723  0.028732523  0.028770591            8 
 2136000   0.88394865   -6.4664151    738.69189  0.028819128  0.028763039            9 
 2137000   0.91683126   -6.4625429    736.85347  0.028733952  0.028755458           14 
 2138000    0.8907472   -6.4795217     735.9951  0.028687055  0.028747867            4 
 2139000   0.91815454   -6.4417999    736.79298  0.028704729  0.028740243            9 
 2140000   0.90819829   -6.4860925    737.39991   0.02871495  0.028732661            8 
 2141000    0.9323773   -6.4649141    736.39835  0.028662555  0.028725022           11 
 2142000   0.91189352   -6.4749424    735.98819  0.028633216  0.028717345            6 
 2143000   0.90342195   -6.4554095    739.64812  0.028762176  0.028709697            7 
 2144000   0.88867158   -6.4749313     738.8504  0.028717755  0.028702054           11 
 2145000   0.92837177   -6.4533655    740.03674  0.028750456  0.028694433            5 
 2146000   0.91930938   -6.4699962     739.3276  0.028709522  0.028686812           10 
 2147000   0.91156138   -6.4730074    738.22569   0.02865338  0.028679174           10 
 2148000   0.92284835   -6.4904442    738.68179  0.028657735  0.028671484            4 
 2149000    0.9224052   -6.4794962    740.96413  0.028732904  0.028663851            9 
 2150000   0.89868517    -6.466606    740.76129  0.028711678    0.0286564            8 
 2151000   0.90780331   -6.4521563     740.2057  0.028676805  0.028648995           11 
 2152000   0.92115554   -6.4669961    741.44452  0.028711451  0.028641574           10 
 2153000   0.91566403   -6.5240868    738.91831  0.028600337   0.02863406            9 
 2154000   0.89252375   -6.5059037    740.68776  0.028655515  0.028626462            7 
 2155000   0.91184324    -6.491308    742.90059  0.028727788   0.02861899            7 
 2156000   0.89074305    -6.451603    742.51554   0.02869958  0.028611474           11 
 2157000   0.90247201    -6.482363    740.41839  0.028605254  0.028603921           10 
 2158000   0.90950681   -6.4876875    742.16296  0.028659367  0.028596365            7 
 2159000   0.91065842   -6.4711494    740.81487  0.028594058  0.028588785           16 
 2160000    0.9123197   -6.4840694    740.93855  0.028585592  0.028581191           11 
 2161000   0.90227483   -6.4800135    739.84467  0.028530182  0.028573562           11 
 2162000   0.90087696   -6.4551112    742.70687  0.028627308  0.028565932            5 
 2163000   0.89922024   -6.4777706    740.58532  0.028532336  0.028558353            9 
 2164000   0.90151321   -6.4922853    740.40686  0.028512279  0.028550719           22 
 2165000   0.90713418   -6.5054452    739.96282  0.028482018  0.028543053            7 
 2166000   0.89518482   -6.4794587     739.2723  0.028442301  0.028535389            7 
 2167000   0.91535578   -6.4397073    740.13067  0.028462185  0.028527752            4 
 2168000   0.91893678   -6.4924558    740.87364  0.028477615  0.028520169           11 
 2169000   0.90643339   -6.4603972    742.77975  0.028537719  0.028512599            6 
 2170000   0.91353704   -6.4890736     743.0212   0.02853384  0.028504945           10 
 2171000   0.89274322   -6.4843736    740.53655  0.028425324  0.028497319           14 
 2172000   0.89380404   -6.4872507    744.61438  0.028568691  0.028489722            7 
 2173000   0.91177107   -6.4739615    743.49081  0.028512456   0.02848208            6 
 2174000   0.91388183    -6.476708    742.42877  0.028458631  0.028474435           21 
 2175000   0.89663033   -6.5007234    741.17665  0.028397573   0.02846675            5 
 2176000   0.90460636   -6.4684028    742.02519  0.028417019  0.028459063            7 
 2177000   0.89678508   -6.5026638     741.1111  0.028368975  0.028451366            6 
 2178000   0.91090641   -6.4562983    742.73711  0.028418163  0.028443691            8 
 2179000   0.89730492   -6.4787657    740.08487   0.02830369     0.028436            7 
 2180000   0.90385064   -6.4870705    742.39487  0.028379009   0.02842826            8 
 2181000   0.93473264    -6.517372    742.65896  0.028376087  0.028420551            7 
 2182000   0.92511404   -6.5345405    742.99395  0.028375876  0.028412849           13 
 2183000   0.91817123   -6.4586751    744.32551  0.028413708  0.028405264            7 
 2184000   0.91722198   -6.4850037    745.16272  0.028432643   0.02839768            8 
 2185000   0.88821474   -6.5084888    744.17609  0.028382002  0.028390074           11 
 2186000   0.91376984   -6.4770557    744.99604  0.028400276  0.028382433           12 
 2187000   0.91845974   -6.5028394    744.47886  0.028367583  0.028374811            8 
 2188000   0.90951768   -6.4838187    744.73358   0.02836432  0.028367152           13 
 2189000   0.91519438   -6.4990604    745.86286  0.028394353  0.028359448           14 
 2190000   0.92712075   -6.5009772    744.55793  0.028331732  0.028351771            6 
 2191000    0.8930713   -6.4843425    744.45265  0.028314797  0.028344141            9 
 2192000   0.90155303   -6.4901015    746.71151  0.028387755  0.028336579           14 
 2193000   0.89776819   -6.4874452    745.50989  0.028329149   0.02832893            7 
 2194000   0.89394131     -6.49755      747.244  0.028382103  0.028321337           12 
 2195000   0.90343866   -6.4965797    745.52437  0.028303886  0.028313712           15 
 2196000   0.89615431   -6.5015114    746.65278  0.028333818  0.028306026            8 
 2197000    0.8999551    -6.481608    746.75541  0.028324815  0.028298299            6 
 2198000   0.90239814   -6.4815215    744.91666  0.028242215  0.028290633           11 
 2199000   0.91407535   -6.5088193    746.17065  0.028276893  0.028282929           21 
 2200000   0.89438365   -6.4996917    743.79696  0.028174127  0.028275238           13 
 2201000   0.92844547   -6.4700111    748.02626  0.028321454  0.028267574            6 
 2202000   0.91090507   -6.4884451    746.16822  0.028238276  0.028259983           13 
 2203000   0.89264553   -6.5061447    744.18647  0.028150494  0.028252367            7 
 2204000   0.90184946   -6.4802895    747.38067  0.028258495  0.028244731           10 
 2205000   0.90082098   -6.4794308    746.14993  0.028199166  0.028237038            7 
 2206000   0.88426528   -6.4882304    746.25685  0.028190422  0.028229358           12 
 2207000   0.89229449   -6.4964687    746.43437  0.028184352  0.028221682            9 
 2208000   0.89893645   -6.4964717    748.12103  0.028235244  0.028214018           12 
 2209000   0.88192958   -6.4966331    746.11437  0.028146762  0.028206377           19 
 2210000   0.88647118   -6.5020368    746.75109  0.028158035  0.028198726            5 
 2211000   0.88646326   -6.4974396    746.11109  0.028121178  0.028191014            5 
 2212000   0.91220634   -6.5108339    749.23748  0.028226246   0.02818329           10 
 2213000    0.8866135   -6.4884157    747.48273  0.028147414  0.028175644           24 
 2214000   0.91288214   -6.4577897    748.82358  0.028185169  0.028168066            9 
 2215000   0.90099892   -6.5013185    746.12864  0.028071055  0.028160372            4 
 2216000   0.89807356    -6.467868    748.59368  0.028151086  0.028152685            8 
 2217000   0.89742772   -6.5155433    747.23796  0.028087429  0.028144975           18 
 2218000   0.91104176   -6.5064945    747.74355  0.028093761  0.028137272            9 
 2219000   0.90548898   -6.5080958    748.78385  0.028120169  0.028129621           22 
 2220000    0.8893694   -6.5161475    747.81966  0.028071309  0.028121892            8 
 2221000    0.8706319   -6.4934573    746.86906  0.028023002  0.028114127           10 
 2222000   0.90374855   -6.4997327     748.8926  0.028086281  0.028106412           20 
 2223000   0.90843306   -6.5151211    748.93701  0.028075311  0.028098702           12 
 2224000   0.93718441   -6.4835681    748.38129  0.028041865  0.028091047            9 
 2225000   0.88258224   -6.4597393    751.26578  0.028137295  0.028083441            7 
 2226000   0.90682668   -6.4883869    750.91698  0.028111597  0.028075854           13 
 2227000   0.91509014   -6.4874309     751.5937  0.028124297  0.028068278            8 
 2228000   0.88940434   -6.5068508    751.16351  0.028095583  0.028060719           10 
 2229000   0.89632786   -6.5097774    749.73739  0.028029662  0.028053113            9 
 2230000    0.9015388   -6.4793531    751.36379   0.02807787  0.028045459           13 
 2231000   0.91479815   -6.4949539    750.85206   0.02804617  0.028037882           22 
 2232000   0.89120479   -6.4985024    751.39333  0.028053813  0.028030253            5 
 2233000   0.88088265   -6.4864878    750.93226  0.028024043   0.02802265            6 
 2234000   0.89657011   -6.4996489    752.37502  0.028065317  0.028015023            4 
 2235000   0.90004531   -6.5040344    749.26044  0.027936631  0.028007392            9 
 2236000   0.89694394   -6.4915451    751.89324  0.028022259  0.027999777           21 
 2237000   0.89614153   -6.5228481    751.35095   0.02798953  0.027992161            9 
 2238000   0.87844161   -6.5428917    751.05797  0.027966115  0.027984516           15 
 2239000   0.88587292   -6.4910128    751.95246  0.027986916  0.027976912            7 
 2240000   0.88900027   -6.5056824    753.39989   0.02802827  0.027969358           13 
 2241000   0.90371091   -6.4599649    751.47696  0.027944257  0.027961885           11 
 2242000    0.9003444   -6.4972456    752.79945  0.027980949  0.027954342           12 
 2243000   0.90299473   -6.5407104    752.15122  0.027944391  0.027946744            7 
 2244000   0.88230061     -6.48586    754.39619  0.028015307  0.027939197           11 
 2245000   0.89185489   -6.5264628    753.65094  0.027975165  0.027931623            9 
 2246000   0.86938438   -6.4926772    752.72034  0.027928181  0.027924083           13 
 2247000    0.8803211   -6.5131674    751.85133  0.027883524  0.027916531            6 
 2248000   0.88430623   -6.4931579    755.24913  0.027997076  0.027909035            7 
 2249000   0.89169333   -6.5085495    753.99675  0.027938223  0.027901553            7 
 2250000   0.89785154   -6.5022984    754.80177  0.027955621  0.027893992           24 
 2251000   0.89262579   -6.5357396    755.31886  0.027962345  0.027886434            6 
 2252000   0.90214067   -6.5085249    753.66678  0.027888794  0.027878908            7 
 2253000   0.87911576   -6.4983933    755.92648  0.027959997  0.027871464            7 
 2254000   0.88160542   -6.5173583    754.35282  0.027889412  0.027864003            9 
 2255000    0.8938904   -6.4914584    756.75379  0.027965772   0.02785658           13 
 2256000   0.89103718   -6.5156035    754.59387  0.027873591  0.027849184           15 
 2257000    0.8941177   -6.5078493    756.80627  0.027942928  0.027841829           17 
 2258000   0.89723745   -6.5116925    756.79146  0.027930006   0.02783445            7 
 2259000   0.89509805   -6.5116205    756.28677  0.027899025  0.027827057            9 
 2260000   0.88330887   -6.5053073    757.23645  0.027921698  0.027819663           16 
 2261000   0.89338346   -6.4767966    755.83485   0.02785769  0.027812232           22 
 2262000   0.88668718   -6.5068873    757.18755  0.027895209  0.027804813            5 
 2263000   0.87656597   -6.5163532    755.44393  0.027818675  0.027797412           13 
 2264000   0.89356538   -6.5264167    755.47647  0.027807585  0.027789954           15 
 2265000    0.8839983   -6.5142403    756.01287  0.027815043  0.027782503           19 
 2266000   0.87402168   -6.4581897    757.74828  0.027866589  0.027775057           10 
 2267000   0.87441377   -6.5152452    756.78851  0.027819016  0.027767642           10 
 2268000   0.88477651    -6.524757    757.43696  0.027830576  0.027760205            8 
 2269000   0.89257931   -6.5174022    754.84026  0.027722942   0.02775272            6 
 2270000   0.88760698   -6.5145503    755.73572  0.027743602  0.027745234           20 
 2271000   0.87550115   -6.5176125    759.07865  0.027854053  0.027737733           20 
 2272000    0.8863089   -6.5059274    758.23283   0.02781077   0.02773032           19 
 2273000   0.88991541    -6.502255    756.24513  0.027725661  0.027722843            6 
 2274000    0.8989672   -6.5122759    757.81917  0.027771151  0.027715296            8 
 2275000   0.88518371   -6.5457423    757.41133  0.027744005  0.027707729            8 
 2276000   0.86986277   -6.4703773    756.03842  0.027681547  0.027700227           13 
 2277000   0.89604454   -6.5286981    756.62026  0.027690685  0.027692703            5 
 2278000    0.8851692   -6.4825885    756.79529  0.027684932  0.027685154           12 
 2279000   0.88136465   -6.5250854    759.27696  0.027763528    0.0276777            9 
 2280000   0.90047832   -6.5146251    756.74662  0.027658868  0.027670202           11 
 2281000   0.90130875   -6.5231645    757.46811  0.027673101  0.027662716            9 
 2282000   0.91249152    -6.492706      757.821  0.027673861   0.02765531           16 
 2283000    0.8844419   -6.5154556    758.42335  0.027683726  0.027647895           18 
 2284000    0.8947884   -6.5098398    759.63812  0.027715927  0.027640424           20 
 2285000   0.88409607   -6.5087502    759.33412   0.02769271  0.027633001           11 
 2286000   0.89992401   -6.5217031    760.16564  0.027710909  0.027625585           10 
 2287000    0.8911044   -6.5291314    759.94544  0.027690768  0.027618184           16 
 2288000   0.87818819   -6.5172001    760.23996  0.027689393   0.02761079            8 
 2289000    0.9018923   -6.5194253    762.58439  0.027762647   0.02760341            8 
 2290000   0.89651994   -6.5097896    761.17704   0.02769931  0.027596092            7 
 2291000   0.85938404   -6.5014558    760.85591  0.027675539  0.027588745            6 
 2292000   0.87587621   -6.5323991    761.20719  0.027676236  0.027581397            9 
 2293000    0.8857322   -6.5061688    761.66531  0.027680815  0.027574064           17 
 2294000   0.86463657   -6.5073434    762.91508  0.027714148  0.027566711            8 
 2295000   0.90055589    -6.517082    763.12915  0.027709846  0.027559307           24 
 2296000    0.8820232   -6.5282193    762.57576  0.027677691  0.027551963           14 
 2297000   0.88347682   -6.5421373    760.64586  0.027595627   0.02754454           11 
 2298000   0.89038244   -6.5138205    761.65729  0.027620296  0.027537105           15 
 2299000   0.88753065    -6.543271     762.0583  0.027622818  0.027529726            5 
 2300000   0.88290962   -6.5221182    762.25554  0.027617954  0.027522333            7 
 2301000   0.89340239   -6.5112952    765.04807  0.027707086  0.027514919            9 
 2302000   0.86605781    -6.503474    762.60047  0.027606446  0.027507577           13 
 2303000   0.88380628   -6.5390799    761.94659  0.027570798  0.027500183            8 
 2304000   0.87101327   -6.5287671    762.44056  0.027576698  0.027492778           13 
 2305000   0.90179348   -6.4973988    764.40875  0.027635891  0.027485395           12 
 2306000   0.88080785   -6.5449223    764.44434  0.027625193  0.027478006            8 
 2307000   0.89459499   -6.5388973    762.55221  0.027544871   0.02747062           14 
 2308000    0.8803176   -6.5319888    762.10436  0.027516766  0.027463283           15 
 2309000   0.89234448   -6.5058568    762.15578  0.027506705  0.027455949            7 
 2310000   0.89022085   -6.5203488    762.41825  0.027504266  0.027448562           12 
 2311000   0.89767213   -6.5235625    763.00959  0.027513688  0.027441218            9 
 2312000   0.87746042   -6.5187578     763.8674  0.027532706  0.027433802           11 
 2313000   0.88575246   -6.4892705     765.8333  0.027591631  0.027426495            8 
 2314000   0.87212702   -6.5063852    765.24288  0.027558444  0.027419202           16 
 2315000   0.89188571    -6.543579    763.92827  0.027499218  0.027411859           16 
 2316000   0.87991625    -6.522355    763.96637  0.027488715  0.027404514            7 
 2317000   0.88105525   -6.5355347      764.477  0.027495216  0.027397169           12 
 2318000   0.87379047   -6.5253533    765.12031  0.027506482  0.027389788           11 
 2319000   0.89868084   -6.5197369      765.962  0.027524867  0.027382446           12 
 2320000   0.87861122   -6.5414488     764.1541  0.027448064  0.027375054            7 
 2321000   0.87207081   -6.5105082    763.06965  0.027397302  0.027367684            8 
 2322000    0.8798499   -6.5218849    764.98982  0.027454415   0.02736025           10 
 2323000   0.88910599   -6.5402373    764.31298  0.027418316  0.027352786           17 
 2324000   0.86877123    -6.524014    764.20578  0.027402674  0.027345275           11 
 2325000   0.88345892   -6.5614577    763.48837  0.027365175  0.027337733            9 
 2326000   0.85934884   -6.5154955    763.85613  0.027366585   0.02733019           10 
 2327000   0.86934522   -6.5450719    765.39495  0.027409932  0.027322625            9 
 2328000   0.86821172   -6.5293166    764.01062  0.027348605  0.027315163            7 
 2329000   0.88255228   -6.5191766    766.17631  0.027414352  0.027307653           11 
 2330000   0.85583601   -6.5164935    765.68109  0.027384874  0.027300196           10 
 2331000   0.89492336   -6.5065731     765.7348  0.027375046  0.027292801           11 
 2332000   0.89474853   -6.5346142    766.32298  0.027384326  0.027285389           12 
 2333000   0.88751937   -6.5327443    763.64641  0.027276983  0.027277886           11 
 2334000   0.89232124   -6.5037625    765.88107  0.027345083  0.027270382           10 
 2335000   0.87951584   -6.5286572    764.37079  0.027279472  0.027262898           14 
 2336000   0.87743693    -6.518411    766.27622  0.027335767  0.027255417           17 
 2337000   0.87756894   -6.5308011    766.60839  0.027335915   0.02724798           11 
 2338000   0.87637467   -6.5035028    765.80503  0.027295588  0.027240525            4 
 2339000   0.88569246   -6.4952613    765.98959  0.027290494  0.027233058           14 
 2340000    0.8665795   -6.5235128    766.88726    0.0273108  0.027225682           12 
 2341000   0.87822191   -6.5634715    766.04497   0.02726915  0.027218215            7 
 2342000   0.87866398   -6.5544182    766.80605  0.027284588  0.027210698           19 
 2343000   0.85552134   -6.5260784    764.71361  0.027198521  0.027203125            5 
 2344000   0.87406306   -6.5205599    766.84041  0.027262529  0.027195613           15 
 2345000   0.86933013    -6.522448     767.8244  0.027285871  0.027188115            6 
 2346000   0.88046326   -6.5197359     765.9475   0.02720757  0.027180634           12 
 2347000   0.88148928   -6.5312066    766.26427  0.027207224  0.027173138            9 
 2348000   0.87457718   -6.5319795     765.5539  0.027170425  0.027165647           11 
 2349000   0.86945458   -6.5073423    766.14701  0.027179899  0.027158188           12 
 2350000   0.87622876   -6.5368088    765.77344  0.027155087   0.02715074           13 
 2351000   0.87519562   -6.5483987    767.01353  0.027187492  0.027143239            7 
 2352000    0.8374361   -6.5514275    766.23186  0.027148238  0.027135742           31 
 2353000   0.87840747    -6.523225    769.52833  0.027253447  0.027128285           10 
 2354000   0.86662418   -6.5450709    769.01529  0.027223708  0.027120861           10 
 2355000   0.90028612   -6.5473583    769.41433  0.027226268  0.027113386           11 
 2356000   0.87245106   -6.5549502    769.55812  0.027219798  0.027105912           12 
 2357000   0.87808684   -6.5760783    769.47651  0.027205364  0.027098389           25 
 2358000   0.86370565   -6.5309738    770.47571  0.027229139  0.027090875            9 
 2359000   0.87648693   -6.5488905    769.03071   0.02716655  0.027083396           11 
 2360000   0.87976676   -6.5388589    768.63382  0.027141025  0.027075887            9 
 2361000   0.88909293   -6.5289199    768.76664  0.027134217  0.027068449           17 
 2362000   0.88059766   -6.5471822    770.06006  0.027168362  0.027060959           12 
 2363000   0.86844909   -6.5512786    768.84203   0.02711391  0.027053501            9 
 2364000   0.90023115   -6.5806533    769.42286  0.027122915  0.027046062           17 
 2365000   0.87746607   -6.5390676    768.07662  0.027064011  0.027038642           17 
 2366000   0.86421429   -6.5619418     769.6507  0.027108013  0.027031209           37 
 2367000   0.88460369   -6.5283141    769.81005   0.02710217  0.027023795           18 
 2368000   0.86969166   -6.5543548    771.02165  0.027133363  0.027016355            9 
 2369000   0.86920157   -6.5330215    768.56513  0.027035498  0.027008946            5 
 2370000   0.87102984   -6.5289379    769.99854  0.027074492  0.027001502           13 
 2371000   0.88308227   -6.5556198    770.53101  0.027081787  0.026994085            5 
 2372000   0.88755582   -6.5369509    770.33418  0.027063455  0.026986667           14 
 2373000   0.87008918   -6.5362043    774.22198  0.027188579  0.026979284           10 
 2374000   0.88801531   -6.5441248     772.3595  0.027111749  0.026971957           22 
 2375000   0.88214611   -6.5311608    770.68102  0.027041439  0.026964565           21 
 2376000   0.87329442   -6.5599731    769.40569  0.026985329  0.026957109           13 
 2377000   0.87481897   -6.5416549    770.00425   0.02699496  0.026949655           15 
 2378000   0.89656836   -6.5675289     771.5966   0.02703941  0.026942193           13 
 2379000   0.87163474   -6.5452619    770.31464  0.026983139  0.026934761            6 
 2380000   0.88482482   -6.5573433      770.363  0.026973494  0.026927321           19 
 2381000   0.86271028   -6.5338777     773.7326  0.027080099  0.026919897           14 
 2382000   0.87072251   -6.5348069    771.43806  0.026988457   0.02691257            6 
 2383000   0.86623037   -6.5314116    772.68936   0.02702089  0.026905231            8 
 2384000   0.86231148   -6.5413784    772.95942  0.027018995  0.026897916            9 
 2385000   0.87346336   -6.5303451    773.53757  0.027027868  0.026890557            4 
 2386000   0.85779833   -6.5589392     773.4018  0.027011798  0.026883231           31 
 2387000   0.86555924   -6.5473359    775.24049  0.027064673  0.026875937            7 
 2388000   0.88662061   -6.5769504    773.22364  0.026982958   0.02686863            9 
 2389000    0.8651199   -6.5569839    772.60594  0.026950116  0.026861305           13 
 2390000   0.86637759   -6.5553703     772.3927  0.026931405  0.026853962           25 
 2391000   0.86616747   -6.5425038    775.96335  0.027044589  0.026846693           23 
 2392000   0.86043717   -6.5398634    773.90376   0.02696153  0.026839446           13 
 2393000   0.87042575   -6.5677386    774.68694  0.026977536  0.026832164            8 
 2394000   0.86163322   -6.5539888     773.7313  0.026933003  0.026824828            8 
 2395000    0.8615618   -6.5254558    774.51518  0.026949032  0.026817561           18 
 2396000   0.87859318   -6.5635638    774.14358   0.02692486  0.026810294            9 
 2397000   0.87130556   -6.5630177    774.22333    0.0269164  0.026802881           12 
 2398000   0.86494876   -6.5659377    771.57219  0.026813045  0.026795487           16 
 2399000   0.86622832   -6.5583165    774.02619  0.026887112  0.026788136            9 
 2400000   0.86626674   -6.5652212    775.38367  0.026923044  0.026780765            8 
 2401000   0.85162564   -6.5728268    773.16469  0.026834815   0.02677339           13 
 2402000   0.85471411   -6.5591582    774.60754    0.0268737  0.026766032           22 
 2403000   0.86619406   -6.5353428    776.82708  0.026939488  0.026758709            6 
 2404000   0.86226092    -6.564165     774.2403  0.026838613  0.026751328            9 
 2405000   0.87184813   -6.5345184    774.86469  0.026849088  0.026743938           20 
 2406000   0.85926213   -6.5627915    773.68071  0.026796921  0.026736558            9 
 2407000   0.86290482   -6.5684567    775.16336  0.026837119  0.026729178            7 
 2408000   0.86124871   -6.5997684    774.74967  0.026811658   0.02672176            9 
 2409000   0.85474467   -6.5720246    775.30138  0.026819613  0.026714342           12 
 2410000   0.86440321   -6.5586535    773.69085  0.026752796  0.026706935           10 
 2411000   0.88336159   -6.5752982    777.32866  0.026867436  0.026699614            6 
 2412000   0.83670742   -6.5616802    774.75645  0.026767429  0.026692255           33 
 2413000   0.86187044    -6.553166    775.60311  0.026785575  0.026684928            8 
 2414000   0.85948139   -6.5372268     778.4245  0.026871876   0.02667762            7 
 2415000   0.84732455   -6.5495593    776.12305  0.026781334  0.026670307           11 
 2416000   0.86910806    -6.558657    776.70237  0.026790231  0.026662996           22 
 2417000   0.89303487   -6.5495768    777.75369  0.026815394  0.026655723           10 
 2418000   0.86635088   -6.5746229    774.60492  0.026695786  0.026648422            8 
 2419000   0.85592652   -6.5454387    777.91031  0.026798619  0.026641137           16 
 2420000    0.8527186   -6.5265217     778.7373  0.026816023  0.026633897           12 
 2421000   0.89324866   -6.5531071    778.69317  0.026803427  0.026626593           32 
 2422000   0.86792311   -6.5598732     776.9864  0.026733636  0.026619285           48 
 2423000    0.8705504   -6.5558751    777.73425  0.026748323  0.026611968           16 
 2424000   0.87475813   -6.5532561     775.5895  0.026663556    0.0266047           22 
 2425000   0.87873554   -6.5617968    777.39672  0.026714664  0.026597445           21 
 2426000   0.88831603   -6.5530624    777.02811   0.02669099  0.026590133           10 
 2427000   0.83910442   -6.5450257    778.44287   0.02672857  0.026582829            9 
 2428000   0.88213359   -6.5494519    777.87504  0.026698072  0.026575611            7 
 2429000   0.86321531    -6.568663    776.99059  0.026656738  0.026568322           11 
 2430000   0.84742798   -6.5648573    778.41921   0.02669476  0.026561015            9 
 2431000   0.87014204   -6.6133149    777.38368  0.026648282  0.026553729           21 
 2432000   0.86558939        -6.54    779.09763  0.026696054  0.026546455            9 
 2433000   0.85914358   -6.5419409    779.82483  0.026709989  0.026539163            8 
 2434000   0.86920553   -6.5365642    780.08985  0.026708089  0.026531943            5 
 2435000   0.86133064    -6.557187    779.14971  0.026664946  0.026524706           15 
 2436000   0.86674421   -6.5604272    778.97042  0.026647866  0.026517446            7 
 2437000   0.84987585   -6.5388978    781.23106  0.026714234  0.026510195            6 
 2438000   0.86455318    -6.550359    779.85571  0.026656266  0.026502955           12 
 2439000   0.86169786   -6.5935162    778.86841  0.026611604  0.026495655           12 
 2440000   0.85477709   -6.5445527    778.96984  0.026604161  0.026488375           27 
 2441000   0.86179339    -6.570096    779.67002  0.026617166  0.026481074           10 
 2442000    0.8633813   -6.5412366    778.90587   0.02658019  0.026473758           12 
 2443000    0.8618178   -6.5689761    780.02766  0.026607575  0.026466455            7 
 2444000   0.85838647   -6.5674964    778.79411  0.026554627  0.026459166            7 
 2445000   0.85149666   -6.5872314    778.11364  0.026520574  0.026451792           31 
 2446000   0.87378097    -6.572825    778.72956  0.026530716  0.026444422           10 
 2447000   0.84590324   -6.5836619    779.64531   0.02655106  0.026437103           10 
 2448000   0.85089197    -6.547451    782.27402  0.026629698  0.026429815           12 
 2449000   0.83743665   -6.5897501    781.89316  0.026605865  0.026422517            5 
 2450000   0.84344275   -6.5783285    779.09464  0.026499818  0.026415209            9 
 2451000   0.85469926   -6.5650984    779.89913  0.026516358  0.026407859            9 
 2452000    0.8393048   -6.5681907    780.53561  0.026527175  0.026400482           12 
 2453000   0.86389754   -6.5683631    781.45091  0.026547456  0.026393161           12 
 2454000   0.85191743   -6.5618937    779.67587  0.026476361   0.02638586           15 
 2455000   0.84785473   -6.5777961    780.76796  0.026502646  0.026378532           11 
 2456000   0.85400486   -6.5712427    780.36824  0.026478293  0.026371183           20 
 2457000   0.85382752   -6.6195293    779.59058   0.02644114  0.026363827           16 
 2458000   0.83914579   -6.5807822    780.79077  0.026471073  0.026356438            9 
 2459000   0.84330688   -6.5619624    780.07849  0.026436169  0.026349073           10 
 2460000    0.8535418   -6.5503549    780.67947  0.026445781  0.026341808           17 
 2461000   0.85765603   -6.5933005    781.97829  0.026479016  0.026334541           16 
 2462000   0.86015328   -6.5448953    781.37923  0.026447984  0.026327343           14 
 2463000   0.85331138   -6.6012917     783.5539  0.026510824  0.026320123           15 
 2464000   0.86739555   -6.5682248    782.66279  0.026469927  0.026312875            6 
 2465000    0.8579633   -6.5696404     782.6788  0.026459729  0.026305632            6 
 2466000   0.88752079   -6.5714621    781.64748  0.026414148  0.026298357           11 
 2467000   0.85421062   -6.5710495    785.92851  0.026548051   0.02629111           16 
 2468000   0.86221685   -6.5651391    783.87561  0.026467977  0.026283836           14 
 2469000   0.85990019   -6.5815957    781.88232   0.02638998  0.026276589           16 
 2470000   0.88225683   -6.5699422    783.35699  0.026429048  0.026269336           15 
 2471000   0.83922344   -6.5666953    782.84353  0.026401036  0.026262085            9 
 2472000     0.858206   -6.5711792    783.62872  0.026416826  0.026254802            9 
 2473000   0.87460302    -6.587883    782.07939  0.026353935  0.026247548            8 
 2474000   0.84810837   -6.5772898    782.32367  0.026351511  0.026240286           14 
 2475000   0.87790859   -6.5730628    784.08162  0.026400055   0.02623309           10 
 2476000   0.85124206   -6.5642501     784.6441  0.026408323  0.026225951           22 
 2477000   0.84620009   -6.5823375    784.04097  0.026377371  0.026218783           17 
 2478000   0.87405194   -6.5359908    785.86173  0.026427957  0.026211711            8 
 2479000   0.85574684   -6.5695408    784.08106  0.026357438  0.026204604           12 
 2480000   0.85446736   -6.5805357    784.73281   0.02636871  0.026197442            8 
 2481000   0.87509506   -6.5455626    785.68575   0.02639009    0.0261903            9 
 2482000   0.85282414   -6.5947784    784.54925  0.026341299  0.026183123           11 
 2483000   0.84629694   -6.5865291    786.99598  0.026412806   0.02617601            5 
 2484000   0.86688791   -6.5613784    786.69903  0.026392211  0.026168913            8 
 2485000   0.84896576   -6.5992487     786.2051  0.026365027  0.026161829            7 
 2486000   0.85476597   -6.5720574    787.28079   0.02639048  0.026154748           23 
 2487000    0.8670937   -6.5536846    786.09448  0.026340118  0.026147702           11 
 2488000   0.85322958   -6.5689399      785.997  0.026326266  0.026140661           25 
 2489000   0.83842105   -6.5600518     786.1204  0.026319821  0.026133536           20 
 2490000   0.84890326   -6.6112655    787.84222  0.026366875  0.026126473           14 
 2491000   0.83866696   -6.5579118    786.49805  0.026311322  0.026119423           14 
 2492000   0.84270943   -6.5474374    787.87692  0.026346874  0.026112372           17 
 2493000   0.84495674   -6.6032514    787.53842  0.026324991  0.026105298           32 
 2494000   0.86518349    -6.585812    787.80087  0.026323205  0.026098271           14 
 2495000   0.84494265   -6.5876015    786.59396  0.026272343  0.026091245           26 
 2496000   0.84809282   -6.5908478    787.68731  0.026298321  0.026084202           11 
 2497000   0.83783981   -6.5620515    788.61408  0.026318718  0.026077119           11 
 2498000   0.83627202   -6.5907869    788.39576  0.026300899  0.026070056           21 
 2499000   0.84425265   -6.5803248    788.30117   0.02628722  0.026062947           16 
 2500000   0.86454739   -6.5752899    788.20946  0.026273649  0.026055877           26 
 2501000   0.84940019   -6.5902257    786.87908  0.026218815  0.026048828           14 
 2502000    0.8590504   -6.5742732    789.38874  0.026291925  0.026041818           18 
 2503000   0.82477021    -6.571916    785.82534  0.026162783  0.026034789           17 
 2504000   0.86062152   -6.5949975    788.16656   0.02623025  0.026027749           10 
 2505000   0.84786797   -6.5843929    788.97463  0.026246661  0.026020681           12 
 2506000    0.8557256   -6.5826014     789.8373  0.026264874   0.02601369           22 
 2507000   0.83994911   -6.5959224    789.77827  0.026252435  0.026006657           17 
 2508000    0.8451491   -6.5654217     791.0934  0.026285666  0.025999631           14 
 2509000   0.86744053   -6.5566269    788.56678  0.026191271  0.025992588           21 
 2510000   0.86019341   -6.5621921    789.54522  0.026213321   0.02598561            8 
 2511000   0.84749373   -6.6027862    788.70926  0.026175138  0.025978578           28 
 2512000   0.84974475    -6.576907    790.31131  0.026217865  0.025971518           17 
 2513000   0.85381961   -6.6014488    790.86176  0.026225685  0.025964453           18 
 2514000   0.86318681   -6.6124457    789.66364  0.026175538  0.025957354           10 
 2515000   0.85111606   -6.5579313     790.0598  0.026178257   0.02595026            8 
 2516000   0.88056564   -6.5829557    791.79731  0.026225401  0.025943202           18 
 2517000   0.86092046   -6.5775548    790.63618  0.026176539  0.025936163           21 
 2518000   0.85402791    -6.605298      789.854  0.026140257  0.025929117            9 
 2519000   0.85017334   -6.5888913    792.15203  0.026205903  0.025922074            8 
 2520000    0.8517821   -6.5878455    790.99223   0.02615715  0.025915034           31 
 2521000   0.83344874   -6.6025258    790.53121  0.026131536  0.025907913           21 
 2522000   0.84835691   -6.6039014     790.1389  0.026108211  0.025900793           22 
 2523000   0.85340418   -6.5788685    791.35419  0.026138003  0.025893667           23 
 2524000   0.84727034   -6.5923269    789.56464  0.026068563  0.025886545           12 
 2525000   0.84745174   -6.5704465    791.87815  0.026134592  0.025879447           15 
 2526000   0.84375581    -6.602085    791.64746  0.026116636  0.025872368           13 
 2527000   0.85597562   -6.6077022    789.47053  0.026034512  0.025865253           13 
 2528000   0.84745753   -6.6078196    789.88541  0.026037889  0.025858158           14 
 2529000   0.85910475   -6.5856825    789.30406  0.026008437  0.025851053           20 
 2530000   0.85452351   -6.5949447    791.57355   0.02607291  0.025843968           17 
 2531000   0.83218162    -6.586302    792.59615  0.026096278   0.02583689            5 
 2532000    0.8298656    -6.575479    790.71144  0.026023942  0.025829829           12 
 2533000   0.83694142   -6.6040852    792.49112  0.026072217  0.025822734           11 
 2534000   0.83978309   -6.5776103    790.68567  0.026002554   0.02581563           15 
 2535000   0.85056024   -6.5846024     791.2315   0.02601024  0.025808619           16 
 2536000   0.84289067   -6.5896172     792.0726  0.026027622  0.025801617            8 
 2537000   0.84521397   -6.5800069     793.4213  0.026061664  0.025794609           18 
 2538000   0.83287638   -6.5545969    793.10317   0.02604095  0.025787619           16 
 2539000   0.85546617   -6.6057597    791.98393  0.025993958  0.025780596           14 
 2540000   0.84438201   -6.5886906    793.03234  0.026018122  0.025773588            7 
 2541000   0.83569142   -6.6052359    793.41424  0.026020407  0.025766575           19 
 2542000   0.83910214   -6.5998122    794.18687  0.026035499   0.02575956           10 
 2543000   0.85335131   -6.5969066    793.05056  0.025988025  0.025752539           17 
 2544000   0.83426555   -6.6127869    792.74127  0.025967678  0.025745467            8 
 2545000    0.8579712    -6.564578    793.39562  0.025978901  0.025738442           11 
 2546000   0.84877486   -6.5834303    797.27663  0.026095726  0.025731472           12 
 2547000   0.84680404   -6.5876884    794.76049  0.026003157   0.02572455            7 
 2548000   0.84945462   -6.5711016    792.61411  0.025922753  0.025717574            7 
 2549000   0.82944637   -6.5925783    793.36904  0.025937264  0.025710569           25 
 2550000   0.84323626   -6.6018502    791.98693  0.025881926  0.025703545           25 
 2551000   0.82940508   -6.5957027    792.68896  0.025894713   0.02569647           33 
 2552000   0.84186648   -6.6026615    793.89583  0.025923976  0.025689405           15 
 2553000   0.82769701   -6.5915818    793.27607  0.025893591  0.025682392           18 
 2554000   0.83811568   -6.6125163    793.00204  0.025874512  0.025675387           15 
 2555000   0.84008003   -6.5889157    795.53213  0.025946906  0.025668333           15 
 2556000    0.8577282   -6.6003093    793.09828  0.025857403   0.02566132           16 
 2557000   0.85672211   -6.5989027     793.5199  0.025861032  0.025654304           15 
 2558000   0.85019471   -6.5882539    793.73225   0.02585784  0.025647318           27 
 2559000   0.85468219   -6.5770671    796.11727  0.025925403  0.025640373            7 
 2560000   0.84833611   -6.5942419    795.63981  0.025899733  0.025633415            9 
 2561000   0.84117456   -6.5905365     794.0585  0.025838165  0.025626467           10 
 2562000   0.84447541   -6.6218334    797.17842  0.025929561  0.025619517           12 
 2563000   0.83672094   -6.5940978    795.13059  0.025852861  0.025612547            6 
 2564000   0.83018215   -6.5706775    796.89674   0.02590018  0.025605639           16 
 2565000   0.83050153   -6.6128757    796.08989  0.025863869  0.025598664            7 
 2566000   0.83509467   -6.5901227    796.21376  0.025857812  0.025591687           15 
 2567000   0.83471941   -6.5949442    797.42289  0.025886992  0.025584721           16 
 2568000   0.83436317   -6.5910875    796.63517  0.025851349  0.025577743           12 
 2569000   0.82861657    -6.616886    795.40822  0.025801486  0.025570792           12 
 2570000   0.84973007   -6.6314139     798.4749  0.025890885  0.025563849           13 
 2571000    0.8326917   -6.6284345    797.68285  0.025855142  0.025556925           18 
 2572000   0.84900193   -6.5988828    798.69242    0.0258778  0.025550022           11 
 2573000   0.83280048   -6.6066412    795.89994  0.025777301  0.025543159           10 
 2574000   0.81753753   -6.6010048    798.49351  0.025851253  0.025536254           11 
 2575000   0.83579321     -6.60595    795.93989  0.025758573  0.025529348           12 
 2576000   0.83635384   -6.6178345    796.48599  0.025766239  0.025522441            8 
 2577000   0.80976643   -6.6134432    797.67692  0.025794752   0.02551555           23 
 2578000   0.82335908   -6.6027798    798.73008   0.02581879  0.025508667           38 
 2579000   0.85109087   -6.6317066    797.92769  0.025782851  0.025501774           20 
 2580000   0.85166014   -6.6023187     797.6531  0.025763989  0.025494852           21 
 2581000   0.83570257   -6.6030766    798.29077  0.025774595  0.025487988            5 
 2582000   0.84392082   -6.6137564    796.73446  0.025714383  0.025481118           18 
 2583000   0.83547798   -6.6276351    796.57497  0.025699283  0.025474194           12 
 2584000   0.86168559   -6.6038608    797.08009  0.025705627  0.025467273           13 
 2585000   0.84586496   -6.6035379    799.44879  0.025772043  0.025460386           11 
 2586000   0.85202719   -6.6041127    798.58197  0.025734145   0.02545351            6 
 2587000   0.84951783   -6.6163586     798.3279  0.025716013  0.025446617           16 
 2588000     0.819233   -6.5939045    799.35597   0.02573918  0.025439685           23 
 2589000   0.83500515   -6.6237057    800.22206  0.025757115  0.025432774           10 
 2590000   0.85072169   -6.6094162    798.94536  0.025706093  0.025425883            7 
 2591000   0.85010723   -6.6176191    800.23808  0.025737749  0.025418981           21 
 2592000   0.83076178   -6.6246905    799.84479  0.025715175    0.0254121           20 
 2593000   0.83105112   -6.6104962    798.86112  0.025673644  0.025405247           14 
 2594000   0.84056818    -6.647075    799.94809  0.025698667  0.025398376           19 
 2595000   0.83585482   -6.6081437    799.72035   0.02568145  0.025391482            9 
 2596000    0.8367145   -6.6165975    798.37317  0.025628312  0.025384596           13 
 2597000   0.84712685    -6.614953    802.31248  0.025744849  0.025377753           21 
 2598000   0.84543842   -6.6145442    799.73218  0.025652174  0.025370891           20 
 2599000   0.82665427   -6.6225374    800.75953  0.025675245  0.025364011           17 
 2600000   0.84182727   -6.5964768    802.10362  0.025708449  0.025357141            9 
 2601000   0.84897501   -6.5995162    800.10065  0.025634392  0.025350312           13 
 2602000   0.81113555   -6.6028133    800.66198  0.025642518  0.025343473           11 
 2603000    0.8316045   -6.6101216    800.76647  0.025636012  0.025336616            9 
 2604000   0.82606254   -6.6331732    801.70898  0.025656329  0.025329719           12 
 2605000   0.83011251   -6.6248094    800.21826  0.025598793  0.025322833           19 
 2606000   0.83400678    -6.609556    800.98127  0.025613369   0.02531597            9 
 2607000   0.80865046    -6.647893    798.99949  0.025540196  0.025309112           15 
 2608000   0.82655092   -6.6436316    801.67549  0.025615909  0.025302269           10 
 2609000   0.81922495   -6.6032762    799.81063  0.025546526  0.025295416           18 
 2610000   0.83476073   -6.5915279    803.02916  0.025639501   0.02528857            7 
 2611000   0.83152989   -6.5924945    803.76947  0.025653309  0.025281726           12 
 2612000   0.83996523   -6.5957699    802.25675  0.025595226  0.025274926           13 
 2613000   0.83204778   -6.6052864    803.90303  0.025637933   0.02526816           17 
 2614000   0.83909076   -6.5882169    803.31092  0.025609249  0.025261373            9 
 2615000   0.83541218   -6.6303447    802.26417  0.025566099  0.025254572           13 
 2616000   0.82242988   -6.6152066    802.94368  0.025577971  0.025247783            8 
 2617000   0.82784241   -6.6132538      802.298  0.025547637  0.025241033           18 
 2618000   0.85154788   -6.6537337    803.31883  0.025570373  0.025234254           16 
 2619000   0.84750596   -6.6105566    804.72023    0.0256052  0.025227453           13 
 2620000   0.83806272    -6.629493    803.56258  0.025558606  0.025220629            7 
 2621000   0.83607493   -6.6107294    803.35333  0.025542202  0.025213822           11 
 2622000    0.8462132   -6.6297875    803.45144  0.025535579  0.025207049           18 
 2623000   0.84177714   -6.6162221    802.40788  0.025492689  0.025200242           18 
 2624000   0.81656813   -6.6022146    803.94884  0.025531912   0.02519346           12 
 2625000   0.82857801   -6.6260426    802.48807  0.025475812  0.025186668           26 
 2626000   0.82159649   -6.6469142    802.75838  0.025474688  0.025179875           22 
 2627000   0.82537701   -6.6083484    804.07806  0.025506854  0.025173091           16 
 2628000   0.84136245   -6.6213588    804.30389  0.025504309  0.025166302            9 
 2629000   0.83531718   -6.6537029     804.8209  0.025510996  0.025159495           12 
 2630000   0.82612178   -6.5766724     805.5146  0.025523276  0.025152757           10 
 2631000   0.84061663   -6.6211237    805.90714  0.025526008  0.025146086           14 
 2632000   0.83459669   -6.6153392    805.32323  0.025497823  0.025139377           15 
 2633000   0.82849074   -6.6106956    803.57879  0.025432928  0.025132617           57 
 2634000   0.82484629   -6.6168614    803.31769  0.025415012   0.02512587           55 
 2635000   0.82429028   -6.6459009    802.96998   0.02539437  0.025119113           62 
 2636000   0.84074897   -6.6245414    805.30226  0.025458468  0.025112375           21 
 2637000   0.81370008   -6.6225436    806.18684  0.025476768  0.025105658           22 
 2638000   0.83970001   -6.6029581    805.87006  0.025457103  0.025098952           57 
 2639000   0.82572321   -6.6118409    805.55319  0.025437451  0.025092292           56 
 2640000   0.83383708   -6.6029546    807.98496  0.025504576  0.025085633           47 
 2641000   0.84669066   -6.6547598    804.04218  0.025370509  0.025078947           16 
 2642000   0.84180139   -6.6178495    806.31222  0.025432507  0.025072231           21 
 2643000   0.80835068   -6.6146278    806.24149  0.025420655  0.025065501           15 
 2644000   0.82277242   -6.6468217    805.73812  0.025395175  0.025058741           21 
 2645000   0.84032636   -6.6481848     805.7763  0.025386777  0.025051977           23 
 2646000   0.81942353   -6.6262733    806.75108  0.025407882  0.025045294           11 
 2647000   0.83479829   -6.6013449    804.40449  0.025324408  0.025038602            7 
 2648000   0.82620512   -6.6532582    806.34966  0.025376059  0.025031893           13 
 2649000   0.84112772    -6.659508    805.30553  0.025333633   0.02502517           17 
 2650000   0.84715124   -6.6280514    805.54926  0.025331738  0.025018445           13 
 2651000   0.83519084   -6.6213466    805.43001  0.025318434  0.025011743           26 
 2652000   0.83158245   -6.6105731    806.33162  0.025337218  0.025005038           18 
 2653000   0.81802371   -6.6113744    807.17766  0.025354242  0.024998338           16 
 2654000   0.83339558    -6.643124    806.59234  0.025326311  0.024991565           14 
 2655000   0.84543342    -6.654317      806.968  0.025328562  0.024984803           16 
 2656000   0.82706876   -6.6573557    806.16166  0.025293727  0.024978022            9 
 2657000   0.80649099   -6.6345818    808.06515  0.025343907  0.024971285           14 
 2658000   0.82157591   -6.6131538    807.29678  0.025310283  0.024964497           55 
 2659000   0.82940391   -6.6484514    806.89782  0.025288261  0.024957713           46 
 2660000   0.84892878      -6.6246    806.73599  0.025273684  0.024950939           42 
 2661000   0.82909021   -6.6239776    808.97906  0.025334431  0.024944197           13 
 2662000   0.82989738    -6.617085    806.89739  0.025259748  0.024937429           28 
 2663000   0.81637578   -6.6172574    810.84064  0.025373659  0.024930722           18 
 2664000   0.80794126   -6.6410344    808.43418  0.025288857  0.024923968           21 
 2665000   0.81906756   -6.6366347    808.35162  0.025276786  0.024917211           17 
 2666000   0.81959848   -6.6208546    808.92849  0.025285337  0.024910458           33 
 2667000   0.82674164   -6.6256451    808.50371  0.025262583  0.024903743           20 
 2668000   0.81808425   -6.6592697     808.6318  0.025257115  0.024897012           12 
 2669000   0.82297362   -6.6144533    807.23083   0.02520391  0.024890251           10 
 2670000   0.81960987   -6.6363784    807.58168  0.025205421  0.024883487            9 
 2671000   0.81988775   -6.6438945    807.47191  0.025192559  0.024876645           14 
 2672000   0.83227602   -6.6435148    806.72941  0.025159974  0.024869829           11 
 2673000   0.81714572   -6.6438823     807.2303  0.025166177     0.024863           21 
 2674000   0.82361465   -6.6390037    808.58132  0.025198869  0.024856169           20 
 2675000   0.80524289   -6.6646205    807.40919  0.025152934  0.024849332           23 
 2676000   0.81659882   -6.6574272    806.18583  0.025105438  0.024842481           21 
 2677000   0.83249199   -6.6284299    806.55337  0.025107501   0.02483564           17 
 2678000   0.81578666   -6.6501705    808.82286  0.025168747  0.024828853           13 
 2679000   0.82557955   -6.6585408    808.92334  0.025162478  0.024822029            8 
 2680000   0.80487478   -6.6530051    808.39037  0.025136516  0.024815212           23 
 2681000   0.81472828   -6.6584436    808.02008  0.025115631  0.024808391           14 
 2682000   0.82020466   -6.6311285    808.58803  0.025123914  0.024801615           15 
 2683000   0.82615287   -6.6501535    808.40948  0.025109004  0.024794805           13 
 2684000   0.81925209   -6.6203863    809.39843  0.025130354  0.024788003           19 
 2685000    0.8193133   -6.6498434    809.08517  0.025111272  0.024781259            9 
 2686000   0.83281369   -6.6586593     808.6226  0.025087571  0.024774513           25 
 2687000   0.82806748   -6.6286174    810.28774  0.025129877  0.024767748            5 
 2688000   0.82027009   -6.6487594    808.36595  0.025060948  0.024760995            9 
 2689000   0.81828615   -6.6267048    807.50866  0.025025061  0.024754227           26 
 2690000    0.8171012   -6.6427242    808.14859  0.025035582  0.024747438           28 
 2691000   0.81829522   -6.6568867     809.2881  0.025061566  0.024740667           12 
 2692000   0.84271404   -6.6473813     811.5064  0.025120926  0.024733882           13 
 2693000   0.81383399   -6.6718449    808.96451  0.025032941  0.024727089           18 
 2694000   0.80460266   -6.6458941    808.52578  0.025010077  0.024720283           16 
 2695000   0.81006771    -6.646532    809.25828  0.025023447  0.024713499           14 
 2696000   0.83313011   -6.6661587    808.88216   0.02500254  0.024706709            9 
 2697000   0.80386808   -6.6476379    810.60569  0.025046524  0.024699912           31 
 2698000    0.8162597   -6.6607857    809.05151  0.024989236  0.024693087           21 
 2699000   0.82071362   -6.6537096    809.47641  0.024993096  0.024686245           29 
 2700000   0.81155866   -6.6585314    809.23824  0.024976489  0.024679405           17 
 2701000   0.81796909   -6.6211722    807.46764  0.024912614  0.024672558            9 
 2702000   0.81799153   -6.6471083    809.58561  0.024968715  0.024665679           24 
 2703000   0.83894364   -6.6503889    810.29953  0.024981487  0.024658821           34 
 2704000   0.82165406   -6.6604584    811.32951  0.025003991  0.024651983           12 
 2705000   0.82446085   -6.6517371    808.35813  0.024903208  0.024645135           12 
 2706000   0.79890345   -6.6256117    809.10994  0.024917157  0.024638265           18 
 2707000   0.83009928   -6.6376324    809.35863  0.024915609  0.024631451           25 
 2708000   0.81711171   -6.6404839    809.74542  0.024918311  0.024624636           18 
 2709000   0.82697573   -6.6614976    810.54772  0.024933792  0.024617753           38 
 2710000   0.82421501   -6.6563781    810.95448    0.0249371  0.024610915            7 
 2711000   0.81152295   -6.6251705    809.21557  0.024874449  0.024604096           12 
 2712000   0.80443943   -6.6347863    812.03019  0.024951764    0.0245973            9 
 2713000   0.82084751   -6.6470362    809.99992  0.024880204  0.024590493           29 
 2714000   0.81613961   -6.6561597    812.97218    0.0249623  0.024583718           10 
 2715000   0.82060747   -6.6317315     812.1462  0.024927753  0.024576959           18 
 2716000   0.82390653   -6.6850797    810.50411  0.024868192   0.02457016           11 
 2717000   0.82038834    -6.637533    813.32189  0.024945464   0.02456338           16 
 2718000   0.82307808   -6.6371295    810.63194  0.024853812  0.024556562           30 
 2719000   0.82133458    -6.632119    812.26471  0.024894714   0.02454978           10 
 2720000   0.80206865   -6.6517115    813.55495   0.02492509  0.024542942            7 
 2721000   0.81309913   -6.6633834    811.00226  0.024837751  0.024536094           43 
 2722000   0.80339764   -6.6478459    811.18821   0.02483432  0.024529246           18 
 2723000   0.80986126   -6.6584006    811.83682  0.024845049  0.024522395           49 
 2724000   0.83175916   -6.6495577    811.41328  0.024822971  0.024515606           17 
 2725000   0.80591907   -6.6442321    813.88871  0.024889563  0.024508806           28 
 2726000      0.80864   -6.6803728    810.28658  0.024770316  0.024501993           13 
 2727000   0.81227365   -6.6505413    810.63962  0.024772021  0.024495132           14 
 2728000   0.82208833   -6.6519134    812.09185  0.024807302  0.024488301            5 
 2729000   0.80777117    -6.655859    810.94159  0.024763087  0.024481428            6 
 2730000   0.82108935   -6.6635261    812.00504  0.024786479  0.024474575           13 
 2731000    0.8136902   -6.6441099    812.14812  0.024781769  0.024467726           16 
 2732000   0.81627772    -6.619293    813.10829  0.024801986  0.024460892           14 
 2733000   0.81178518   -6.6488375    812.03363  0.024760142  0.024454061            8 
 2734000   0.79537921   -6.6391541    812.27389  0.024758409  0.024447277            5 
 2735000   0.82202191   -6.6536008    812.60038  0.024759305  0.024440473           13 
 2736000   0.82562715   -6.6824596     811.7186  0.024723398  0.024433642           16 
 2737000   0.82974076   -6.6778707    811.99382  0.024722744  0.024426771           28 
 2738000   0.80973475   -6.6439443    812.70296  0.024735298  0.024419993           25 
 2739000   0.79584849   -6.6532205    814.24875  0.024773298  0.024413201           23 
 2740000   0.82426757   -6.6530061    812.66184  0.024715993   0.02440639           21 
 2741000   0.81965056    -6.653158    812.47447  0.024701279  0.024399578           18 
 2742000    0.8178223   -6.6847151    812.46272  0.024691913  0.024392765           13 
 2743000    0.8038428   -6.6575129    812.32499  0.024678727  0.024385984           35 
 2744000   0.79980771   -6.6469731    813.68959  0.024711175  0.024379165           30 
 2745000   0.81508329   -6.6545889    812.70039  0.024672143  0.024372408           17 
 2746000   0.80743711   -6.6379663    812.46628  0.024656054  0.024365612           23 
 2747000   0.81853106   -6.6650149    813.98313  0.024693093  0.024358796           31 
 2748000   0.81391414   -6.6244242    812.77613  0.024647505  0.024352007           24 
 2749000   0.81806286   -6.6776047    814.34564  0.024686117   0.02434527           23 
 2750000   0.81976094   -6.6423033    813.52349  0.024652227  0.024338501           26 
 2751000   0.79856507    -6.674842     813.8651  0.024653614  0.024331747           16 
 2752000   0.80791198   -6.7038403    814.03212  0.024649713     0.024325            9 
 2753000   0.81809641   -6.6902754    812.97397  0.024608729    0.0243182           26 
 2754000    0.8339914   -6.6500415    815.55549  0.024677908  0.024311404           15 
 2755000   0.82624719   -6.6546275    813.97845  0.024621248  0.024304611           11 
 2756000   0.81733293   -6.6484913    814.81721  0.024637676  0.024297824           41 
 2757000   0.81282186   -6.6808153    814.27754  0.024612427  0.024291047           22 
 2758000   0.81589246   -6.6827222    815.74277  0.024647775  0.024284285            7 
 2759000   0.82359092   -6.6360446    814.35773  0.024597008  0.024277529           28 
 2760000   0.79197706   -6.6698938    813.11967  0.024550715  0.024270727            9 
 2761000   0.81054314   -6.6509088     815.2448  0.024605964  0.024263963           22 
 2762000   0.79339638   -6.6648934    814.24185  0.024566795   0.02425722           29 
 2763000   0.79257361   -6.6364464     816.0667  0.024612942  0.024250479           20 
 2764000   0.82013019   -6.6710348    814.93726  0.024569985  0.024243752           13 
 2765000   0.80543833   -6.6804489    815.59685  0.024580978  0.024236978           17 
 2766000   0.80062528   -6.6672056     815.2868   0.02456275   0.02423021           30 
 2767000   0.79180469   -6.6495207    815.61576   0.02456378  0.024223437            8 
 2768000   0.81236063   -6.6543521    816.35766  0.024577242  0.024216692           10 
 2769000   0.80881448   -6.6909295    814.70951  0.024518765  0.024209906           27 
 2770000   0.81255552   -6.6902541    815.18203  0.024524129  0.024203106           18 
 2771000   0.79342145   -6.6747601     815.5094  0.024525123   0.02419629           18 
 2772000   0.79483833   -6.6787151     818.1981  0.024597105  0.024189478           36 
 2773000   0.80699187   -6.6882139    814.98298  0.024491615  0.024182682           35 
 2774000   0.80386477   -6.6683944    815.20888  0.024489572  0.024175884           42 
 2775000   0.79627179    -6.686426    814.47048  0.024458573  0.024169054           20 
 2776000   0.81143722   -6.6516695    815.72214  0.024487336  0.024162262           29 
 2777000   0.81417015   -6.6936781    814.27193     0.024435  0.024155445           14 
 2778000   0.79795699   -6.7044641    814.29057  0.024426763  0.024148552           27 
 2779000   0.83026602   -6.6782762    814.23343   0.02441626   0.02414168           42 
 2780000   0.82301098   -6.6836745     815.0151  0.024430908  0.024134851           15 
 2781000   0.79650874    -6.660316    814.89899  0.024418644  0.024127991           33 
 2782000   0.80148301   -6.6527621    814.53081  0.024398838  0.024121143           22 
 2783000   0.79245723   -6.6991928    814.96045  0.024402936  0.024114307           56 
 2784000   0.80675656   -6.6995392    814.24016   0.02437261  0.024107441           36 
 2785000   0.80968919   -6.6931775    814.97665  0.024385896  0.024100596           24 
 2786000   0.79720822   -6.6822378    814.84184  0.024373111  0.024093745           75 
 2787000   0.80391485   -6.6784019    815.94691  0.024397408  0.024086938           16 
 2788000   0.81522045   -6.6573411    814.99024  0.024360062  0.024080127           23 
 2789000   0.81697781   -6.6616758    816.11381  0.024384899   0.02407335           36 
 2790000   0.79177344   -6.6187367    817.37739    0.0244139  0.024066598           28 
 2791000   0.80638261   -6.6385701    816.98559  0.024393455  0.024059883           27 
 2792000   0.80258205   -6.6695101    817.15637  0.024389815   0.02405313           40 
 2793000   0.80252393   -6.6771036    816.38476  0.024358061  0.024046359           13 
 2794000   0.81211628   -6.6586463    816.00321  0.024337962  0.024039547           17 
 2795000   0.81428566   -6.6863245    816.13974  0.024333326  0.024032759           21 
 2796000   0.80692799   -6.6655552    816.82293  0.024344985  0.024025941           33 
 2797000   0.79206113   -6.6733273    816.37923  0.024323061   0.02401913           20 
 2798000   0.82431827   -6.6356529    816.33438  0.024313033  0.024012329           14 
 2799000   0.80902218   -6.6441407    818.46471  0.024367771  0.024005543           13 
 2800000   0.79189821   -6.6599271    817.29225  0.024324174  0.023998724           16 
 2801000   0.81006923   -6.6947243    814.77387  0.024240565  0.023991936           19 
 2802000   0.80764722    -6.666932    817.54314  0.024314274  0.023985123           16 
 2803000   0.79856904   -6.6725193    816.79711   0.02428342  0.023978293           12 
 2804000   0.78530639   -6.6983728    817.90326  0.024307634  0.023971438           13 
 2805000   0.79951474    -6.679994    816.67211  0.024262392  0.023964625           12 
 2806000   0.77926219   -6.6784772    816.37076  0.024244796  0.023957824           18 
 2807000   0.79410632   -6.6933514    817.88863   0.02428122  0.023951005           29 
 2808000   0.81262707   -6.6822976    818.70547  0.024296815  0.023944189           19 
 2809000   0.80515303   -6.6781047    816.64254  0.024226965  0.023937362           12 
 2810000    0.8050965   -6.6722539    818.07636  0.024260865   0.02393054           39 
 2811000   0.80796437    -6.688616    817.04019  0.024221516  0.023923704           21 
 2812000   0.78456437   -6.6866903    818.36253   0.02425209  0.023916883           14 
 2813000   0.78491274   -6.6992998    817.96662   0.02423174  0.023910085           10 
 2814000   0.79774929   -6.6687896    816.01492  0.024165332  0.023903281            6 
 2815000   0.80193261   -6.7014765    819.13029  0.024248973  0.023896511           11 
 2816000   0.78137305   -6.7035586    817.61497  0.024195519  0.023889761           34 
 2817000   0.80593264   -6.6909032    820.12267  0.024261113  0.023882987           28 
 2818000   0.81110685   -6.6544706    818.25515  0.024197278  0.023876231           24 
 2819000   0.81666113   -6.6790725     819.6223  0.024229109   0.02386948           11 
 2820000   0.80450412   -6.7084296    819.39344  0.024213754  0.023862712           11 
 2821000   0.79996498   -6.7142594    818.70697  0.024184892  0.023855922           18 
 2822000   0.79315862   -6.7067951    818.34851  0.024165737  0.023849149           15 
 2823000   0.78571774   -6.7015229    818.56955  0.024163702  0.023842381           25 
 2824000   0.81669436   -6.6952486    818.05805  0.024140051  0.023835649            4 
 2825000   0.80827896   -6.6734298     819.9203   0.02418644  0.023828941           20 
 2826000   0.80932581   -6.6861836    819.92598  0.024178048   0.02382219           20 
 2827000   0.79150773   -6.6840551    818.70578  0.024133527  0.023815443            9 
 2828000   0.79057995   -6.6584296     819.0194  0.024134235    0.0238087           38 
 2829000   0.80564251   -6.6834389    819.77042  0.024147827  0.023801964           28 
 2830000   0.79593668   -6.6967894     817.4719  0.024071611  0.023795211           37 
 2831000   0.77876521   -6.6780637    819.74115  0.024129905  0.023788452           14 
 2832000   0.80411289   -6.6709818     820.0411  0.024130211  0.023781715           82 
 2833000   0.79839113   -6.6811057    819.85762  0.024116297   0.02377498           39 
 2834000   0.78788337   -6.6601161    820.71024  0.024132858  0.023768256           39 
 2835000   0.78338243   -6.6581289    822.07316  0.024164408  0.023761552           57 
 2836000   0.81036408   -6.6690802    821.84877  0.024149294  0.023754869           26 
 2837000     0.820145   -6.7025765    820.59682  0.024104007  0.023748151           27 
 2838000   0.79420299   -6.6699654    820.81994  0.024102066  0.023741468           23 
 2839000   0.79361853   -6.6874446    819.83903  0.024064783  0.023734766           30 
 2840000   0.79975507   -6.7226138    820.27751  0.024069176  0.023728058           12 
 2841000   0.81117599   -6.6535547    820.53833  0.024068354  0.023721351            8 
 2842000   0.80828414   -6.6794396    820.38885  0.024055502   0.02371468           31 
 2843000   0.80845818   -6.6489206    821.92285  0.024092005  0.023708012           19 
 2844000   0.78126001   -6.6778972    821.80754  0.024080155  0.023701333           15 
 2845000   0.79219093   -6.6663506    821.99506  0.024077184  0.023694609           13 
 2846000   0.78198935   -6.6698062    822.50733  0.024083724  0.023687944           30 
 2847000   0.81351671   -6.6813952    821.63457  0.024049718  0.023681297           16 
 2848000   0.79078351   -6.6561501    821.48473  0.024036889   0.02367462            9 
 2849000   0.79793642    -6.702292    821.07822  0.024016562  0.023667931           14 
 2850000   0.80378056   -6.7188864    821.60496  0.024023537  0.023661184           19 
 2851000   0.77266358    -6.677031    819.82415  0.023963058  0.023654436           32 
 2852000   0.78876387   -6.6720336    820.35356  0.023970125  0.023647714           10 
 2853000   0.78965647   -6.6599705    820.88871  0.023977355  0.023641001           11 
 2854000   0.78448476   -6.7132934    822.71378  0.024022243  0.023634311           12 
 2855000   0.78898318   -6.6646013    823.06712  0.024024142  0.023627631           18 
 2856000   0.80069038   -6.6764071    820.69074  0.023946392  0.023620923           17 
 2857000   0.80645247   -6.7103164    820.58779  0.023935007  0.023614199           13 
 2858000    0.8043756   -6.6926563    821.88149  0.023964354  0.023607506           19 
 2859000   0.78384124   -6.7095145    820.97511  0.023929553  0.023600773           40 
 2860000   0.80867479   -6.6792128    822.23362  0.023957856  0.023594055           37 
 2861000   0.79195911   -6.7092519      821.076  0.023915764  0.023587354           26 
 2862000   0.79502046    -6.685236    820.13442  0.023879991  0.023580619           33 
 2863000   0.78062211   -6.6869692    821.74656  0.023918575  0.023573914           21 
 2864000   0.78516403   -6.6905478    822.11904  0.023921061  0.023567234           21 
 2865000    0.7914705   -6.7180586    823.91504  0.023964952   0.02356054           17 
 2866000    0.7967201   -6.7092987    821.94057  0.023899179  0.023553855           59 
 2867000   0.79196524    -6.690579    821.25944  0.023871045  0.023547162           10 
 2868000   0.80049808   -6.6930294    821.28631  0.023863503  0.023540504           50 
 2869000   0.79595586    -6.721711     821.9654   0.02387491  0.023533831           51 
 2870000   0.79172169   -6.6963147    823.28004  0.023904763  0.023527163           10 
 2871000   0.78354782   -6.6864474    822.60531  0.023876852  0.023520469            9 
 2872000   0.79243906   -6.6711421     821.1037  0.023824968  0.023513781           10 
 2873000   0.80662166   -6.7021423    824.37814  0.023911653  0.023507097           10 
 2874000   0.78946208    -6.699447    823.16242  0.023868082   0.02350042           21 
 2875000   0.80088556   -6.6914886    822.43462  0.023838685  0.023493719           41 
 2876000   0.77999549   -6.7159604    822.96412  0.023845738  0.023487036           16 
 2877000   0.78127811   -6.7133364    824.63615  0.023885881  0.023480401           14 
 2878000   0.79902271   -6.7194027    823.74988  0.023851919  0.023473757           22 
 2879000   0.78480827   -6.6908466    825.29105  0.023888244  0.023467101           16 
 2880000   0.79501213   -6.6830578    823.14527  0.023817861  0.023460414           30 
 2881000    0.7879943    -6.702035     823.8629  0.023830351  0.023453737           16 
 2882000   0.78541123   -6.7139287    822.73932  0.023789594   0.02344709           37 
 2883000   0.79137067    -6.700485    823.30644  0.023797735  0.023440399           13 
 2884000   0.79795971   -6.7082885    821.12006  0.023726308  0.023433731           36 
 2885000   0.79355127   -6.7027225    823.32355  0.023781732  0.023427058           13 
 2886000   0.79732817   -6.7201625    824.34628  0.023803023  0.023420403           22 
 2887000   0.79177455   -6.6890504     827.2847  0.023879595  0.023413728           14 
 2888000   0.78308184   -6.7204973    824.75103  0.023798218  0.023407113           14 
 2889000   0.78765455   -6.7365495    824.29829  0.023776921  0.023400439           26 
 2890000   0.79313995   -6.6869332    825.35498  0.023799163  0.023393799           26 
 2891000   0.80149777   -6.7152458    823.98246  0.023751368  0.023387168           29 
 2892000   0.78915972   -6.6955888    823.83055  0.023738778  0.023380533           23 
 2893000   0.80137157   -6.7012922    824.10219  0.023738397  0.023373882           19 
 2894000    0.7982714   -6.6868498    825.12294  0.023759587  0.023367272            8 
 2895000     0.784597   -6.6887417    825.83712  0.023771938  0.023360664           23 
 2896000   0.79367577   -6.7184076    824.04673   0.02371221  0.023354044           16 
 2897000   0.76427744   -6.7242412    824.47727   0.02371641  0.023347452           16 
 2898000   0.78079603   -6.6835715    825.20053  0.023729024  0.023340812           30 
 2899000   0.78293995   -6.6950489    823.36998  0.023668218  0.023334202           35 
 2900000   0.79283869   -6.7092451    824.57054  0.023694556  0.023327599           12 
 2901000   0.77675031   -6.7006637    824.83249  0.023693913   0.02332099           11 
 2902000    0.7786444   -6.6822788    826.41585  0.023731216  0.023314409           24 
 2903000   0.78713307   -6.7114122     825.1549  0.023686844  0.023307783           20 
 2904000   0.79507229   -6.7046669    824.07998  0.023647842  0.023301151           16 
 2905000   0.78046248   -6.7299008    822.88698  0.023605478  0.023294523           47 
 2906000   0.78615797    -6.698595    824.98145  0.023657417  0.023287873           42 
 2907000   0.78868517   -6.6834045    825.95949  0.023677316  0.023281263           22 
 2908000   0.77312912   -6.7186933    825.52339  0.023656677  0.023274625           26 
 2909000   0.77296765   -6.6991874    826.63699  0.023680446  0.023267994           21 
 2910000   0.78923443   -6.7011883    823.53886  0.023583587  0.023261358           23 
 2911000   0.78396026   -6.7109575    826.54697  0.023661599  0.023254745           14 
 2912000   0.77782533   -6.6935024    825.85634  0.023633709  0.023248146           10 
 2913000   0.78870777    -6.694365    826.16622  0.023634461  0.023241521           44 
 2914000   0.77047089   -6.7217723    827.22893  0.023656741  0.023234901           26 
 2915000   0.77368221   -6.7435224    825.69151  0.023604674  0.023228269           12 
 2916000    0.7930655   -6.7316098    826.34122  0.023615147  0.023221639           22 
 2917000   0.78018359   -6.6877044     826.5656  0.023613461  0.023215052           13 
 2918000   0.75652045   -6.7057405    826.04255  0.023590431  0.023208487           32 
 2919000   0.78658269   -6.7115235    828.46309  0.023651453  0.023201908           27 
 2920000   0.78232738   -6.6976038    826.72282  0.023593688  0.023195356           19 
 2921000   0.77984151   -6.7324966    826.95181  0.023592143  0.023188828           28 
 2922000   0.77987264   -6.7426191    827.01703  0.023585929   0.02318229           13 
 2923000   0.79653608   -6.6984542    829.00471  0.023634528  0.023175761           37 
 2924000   0.78710069   -6.7035871     828.9169  0.023623943  0.023169247           32 
 2925000   0.77500534   -6.6941584    827.81233  0.023584397  0.023162742           15 
 2926000   0.77864564   -6.7295209    826.40865  0.023536359  0.023156239           28 
 2927000   0.78412526   -6.7296707    827.64008  0.023563378  0.023149698           14 
 2928000   0.78566517   -6.7043446    828.07145  0.023567607  0.023143155           16 
 2929000   0.78799866   -6.6930805    826.88841  0.023525902  0.023136627           14 
 2930000   0.78389363   -6.7149519    827.05535  0.023522621  0.023130098            8 
 2931000   0.78137219   -6.7079182    826.94389  0.023511426  0.023123559           26 
 2932000   0.77395927   -6.7082061    827.91768  0.023531084  0.023117033           23 
 2933000   0.80494385    -6.707145    828.90793  0.023551197  0.023110485           18 
 2934000   0.78319817   -6.7496647    827.17252   0.02349388  0.023103927           14 
 2935000    0.7942269   -6.7212165    826.56945  0.023468752  0.023097329           15 
 2936000   0.77106155   -6.7502855    825.65437  0.023434786  0.023090711           26 
 2937000   0.79861877   -6.7129417    826.61679  0.023454114  0.023084127           73 
 2938000   0.79587167   -6.7264529    827.76825  0.023478791   0.02307755           16 
 2939000   0.76405594   -6.7481199    828.69603  0.023497109  0.023070981           25 
 2940000    0.7926766   -6.7140652    828.73896  0.023490333  0.023064409           67 
 2941000   0.79972343   -6.7228428    828.67179  0.023480443  0.023057833           53 
 2942000   0.78389477   -6.7204607    829.09092  0.023484334  0.023051282           17 
 2943000   0.78777351   -6.7354036    828.77259   0.02346734  0.023044719           17 
 2944000   0.77777019   -6.7338393    827.50851  0.023423588  0.023038158           33 
 2945000   0.77456619    -6.718385    828.99657  0.023457741  0.023031604           14 
 2946000   0.78313919   -6.7246605    825.85636  0.023360951  0.023025049           22 
 2947000   0.77552122   -6.7273728    828.53286  0.023428709   0.02301846           21 
 2948000   0.78621512   -6.7329966    826.95778  0.023376238  0.023011888           29 
 2949000   0.78060114   -6.7395655    826.39582  0.023352431  0.023005315           34 
 2950000   0.77236785    -6.724815    829.50477  0.023432338  0.022998705           45 
 2951000   0.76482893   -6.7412346    827.12287  0.023357135  0.022992077           43 
 2952000   0.77740899   -6.7466446    828.47969  0.023387525  0.022985454           40 
 2953000   0.77935002   -6.7044224    828.59075  0.023382739  0.022978852           14 
 2954000     0.774929   -6.7269576    830.65149  0.023432958  0.022972281           14 
 2955000   0.75413184   -6.7054543    830.73519  0.023427388  0.022965705           21 
 2956000    0.7955224   -6.7466051    827.97185  0.023341561  0.022959116           52 
 2957000   0.78729786   -6.7163029    828.59669  0.023351276  0.022952554           22 
 2958000   0.78525858   -6.7400188    829.08893   0.02335725  0.022945979           33 
 2959000   0.76804103   -6.7175958    829.39015  0.023357839   0.02293944           38 
 2960000   0.77935755   -6.7045681    830.19527  0.023372615  0.022932931           56 
 2961000   0.78678618   -6.7131145    829.81246  0.023353947  0.022926391           56 
 2962000   0.78889556   -6.7335923    829.55796  0.023338903   0.02291986           74 
 2963000   0.77734223   -6.7537898    829.31124  0.023324087  0.022913306           37 
 2964000   0.78443815   -6.7399402    828.53542  0.023294406  0.022906731           13 
 2965000   0.78828331   -6.7160881    830.14437   0.02333177  0.022900201           10 
 2966000   0.77515883   -6.7303026    830.92069  0.023345715   0.02289368           18 
 2967000   0.77350656   -6.6989021    830.54911   0.02332741  0.022887195           26 
 2968000   0.78071709   -6.7083593    827.13043  0.023223563  0.022880689           17 
 2969000   0.78153335   -6.7079554     829.1837  0.023273372  0.022874167           12 
 2970000   0.75737492   -6.7278594    827.47276   0.02321753  0.022867619           38 
 2971000   0.77398171   -6.7011551    832.13588   0.02334051  0.022861105            9 
 2972000   0.76656002   -6.7282692    831.44319  0.023313234  0.022854589           17 
 2973000   0.78164822   -6.7478753    829.74194  0.023257707  0.022848063           32 
 2974000    0.7875355   -6.7648384    829.03506  0.023230079  0.022841531           31 
 2975000   0.76060384    -6.727622       828.98  0.023220728  0.022834961           13 
 2976000   0.77210984    -6.720018    830.46079   0.02325439  0.022828442           21 
 2977000   0.79388516   -6.7362444    831.11145  0.023264793  0.022821948           27 
 2978000   0.78333746   -6.7478814    831.33365  0.023263198  0.022815445           24 
 2979000   0.76559122   -6.7603381    830.89796  0.023243201  0.022808932           34 
 2980000   0.77970708   -6.7476976    830.69018  0.023229591   0.02280244           47 
 2981000   0.78258092   -6.7217935    829.58766  0.023190978  0.022795926           18 
 2982000   0.76920507   -6.7356322    832.51932  0.023265127   0.02278944           23 
 2983000   0.76983054   -6.7315972    833.58017  0.023286964  0.022782963           10 
 2984000   0.78822559   -6.7028092    831.75669  0.023228237  0.022776509           13 
 2985000   0.76044998   -6.7583243    831.42024  0.023211062  0.022770041           21 
 2986000   0.77377584    -6.729186    830.87281  0.023188011  0.022763524           27 
 2987000   0.76498805   -6.7551873    830.78999  0.023177937  0.022757007           20 
 2988000   0.77997333   -6.7256334    830.94575  0.023174525  0.022750531           26 
 2989000   0.78282745   -6.7361888    830.49956  0.023154332  0.022744037           29 
 2990000   0.76604299   -6.7233697    831.31815  0.023169402   0.02273756           18 
 2991000   0.77878638   -6.7400001    832.43032  0.023192642  0.022731082           13 
 2992000   0.76785426   -6.7421151    832.60698  0.023189811  0.022724592           11 
 2993000   0.76163146   -6.7370232    832.00327  0.023165254  0.022718104           30 
 2994000   0.76556406   -6.7447118    832.41278  0.023168915  0.022711621           23 
 2995000     0.768875   -6.7383862    831.94101  0.023148053  0.022705124           11 
 2996000   0.78721801   -6.7301799    831.02369  0.023114811  0.022698612           35 
 2997000   0.76895175   -6.7551551     833.1127  0.023165185   0.02269207           15 
 2998000   0.77588669   -6.7154769    831.33524  0.023108051  0.022685545           20 
 2999000      0.77068   -6.7310652    830.91527  0.023088676  0.022679014           11 
 3000000    0.7824539   -6.7486863    830.11622  0.023058784  0.022672514           22 
 3001000   0.78762011   -6.7435455    831.29221  0.023083756  0.022666008           32 
 3002000   0.77233034   -6.7385643    832.02472    0.0230964  0.022659488           25 
 3003000   0.76189798   -6.7478192    831.01061  0.023060567  0.022652976           34 
 3004000   0.78352447   -6.7623235    830.17408  0.023029685   0.02264645           28 
 3005000   0.76784079   -6.7326309    832.29125  0.023080734  0.022639934           63 
 3006000   0.78319834   -6.7624882    832.24294  0.023071716  0.022633439           44 
 3007000   0.76441109    -6.717115    831.83667  0.023052784  0.022626967           16 
 3008000   0.79490265    -6.723172    832.45696  0.023062305  0.022620498           21 
 3009000   0.77245563   -6.7507775    832.55503  0.023057357  0.022614012           11 
 3010000   0.77857386   -6.7616354    832.98067   0.02306148  0.022607506           25 
 3011000   0.76518525   -6.7900194    831.88378  0.023023463  0.022600964           49 
 3012000   0.77124906   -6.7468579    830.60091  0.022980326  0.022594434           32 
 3013000   0.77719426   -6.7242765    832.47407  0.023024507  0.022587956           19 
 3014000   0.76707918   -6.7342114    833.28586  0.023039313   0.02258148           24 
 3015000   0.76424482   -6.7460512     833.3675  0.023033928  0.022574988           17 
 3016000   0.77720307   -6.7584342    832.31646   0.02299725  0.022568488           18 
 3017000   0.77472189   -6.7313405    832.87679  0.023005104  0.022562005           25 
 3018000   0.77200534   -6.7466747    832.92475  0.022998806  0.022555496           33 
 3019000   0.77048778   -6.7257077    831.43777  0.022950143  0.022548979           27 
 3020000   0.79728339   -6.7438144    830.95879  0.022929326  0.022542467           44 
 3021000   0.77155327   -6.7143185    833.65765  0.022996184  0.022535984           13 
 3022000   0.77849284    -6.754189    832.75104  0.022963574  0.022529503           34 
 3023000   0.76922864   -6.7430869    831.80367  0.022929862  0.022522976           27 
 3024000   0.76371972   -6.7498038    832.22082  0.022933775  0.022516495           25 
 3025000   0.76897768   -6.7408833    835.07885  0.023004927  0.022510009           32 
 3026000   0.76896274   -6.7369435    831.77822  0.022906428  0.022503501           36 
 3027000    0.7779595   -6.7465405    832.49997  0.022918731  0.022496989           63 
 3028000   0.78066556   -6.7605977    833.87368  0.022948967  0.022490498           72 
 3029000   0.78261158    -6.740402    834.88015  0.022969081  0.022484051           24 
 3030000   0.76910023   -6.7343338    834.86842  0.022961178  0.022477604           33 
 3031000   0.76694117    -6.749052    832.54263  0.022889658  0.022471111           48 
 3032000   0.77603694   -6.7572692     833.2749  0.022902235  0.022464609          101 
 3033000   0.75684331   -6.7778071    832.06019  0.022861309  0.022458088          101 
 3034000   0.77194217   -6.7412933    833.17446  0.022884379  0.022451601          124 
 3035000   0.78572022   -6.7725393    834.59623  0.022915877  0.022445098          131 
 3036000   0.76933968   -6.7531077    831.96452  0.022836093  0.022438636           66 
 3037000   0.76807751    -6.736509    831.79979  0.022824053  0.022432166           78 
 3038000   0.75609936   -6.7823175    832.60683  0.022838678   0.02242566           73 
 3039000   0.76569915   -6.7519184    832.17202  0.022819239  0.022419147           41 
 3040000   0.75848402   -6.7650037    832.65061  0.022824852  0.022412644           44 
 3041000   0.75397713   -6.7573945    833.63035  0.022844195  0.022406157           16 
 3042000   0.77049377   -6.7593871    834.41008  0.022858045  0.022399676           13 
 3043000   0.76571595   -6.7243161    834.09626  0.022841939  0.022393199           21 
 3044000   0.75969751   -6.7645252    834.75292  0.022852412  0.022386718           18 
 3045000   0.76768443   -6.7246955    833.74745   0.02281739  0.022380254           22 
 3046000   0.77284452   -6.7645514    833.33427  0.022798596   0.02237379           48 
 3047000   0.77628109   -6.7670172    833.55221  0.022797074  0.022367318           41 
 3048000   0.73928133   -6.7460145     834.9228  0.022827067  0.022360836           24 
 3049000   0.76467722   -6.7305063    835.45901  0.022834236  0.022354359           43 
 3050000   0.75994069   -6.7570275    833.23367  0.022765947  0.022347896           29 
 3051000   0.75845106   -6.7542245    834.24357  0.022786069  0.022341423           25 
 3052000    0.7485328   -6.7593874    835.13668  0.022802989  0.022334911           15 
 3053000   0.77282792   -6.7874541    831.86546   0.02270623  0.022328407           22 
 3054000   0.76014218   -6.7933129    832.90299  0.022727106  0.022321887           18 
 3055000   0.75619318   -6.7641105    833.58246  0.022738201  0.022315369           16 
 3056000   0.77201316   -6.7716612    834.99474  0.022769272  0.022308887           14 
 3057000   0.76137353   -6.7610583    834.24709  0.022741443  0.022302414           37 
 3058000   0.76575162   -6.7565995    833.64349  0.022717557  0.022295927           22 
 3059000   0.75342309   -6.7599984    834.82057  0.022742197  0.022289446           26 
 3060000    0.7686389   -6.7686013    833.34969  0.022694708  0.022282949           26 
 3061000   0.76446392   -6.7665001    833.31473  0.022686342  0.022276452           27 
 3062000   0.76891507   -6.7512584    833.41854  0.022681759  0.022269988           17 
 3063000   0.77154543   -6.7561727     835.1072  0.022720296  0.022263514           18 
 3064000   0.75793073   -6.7502754    833.65045  0.022673261  0.022257055           14 
 3065000   0.77388027   -6.7713918    835.75614  0.022723114  0.022250575           19 
 3066000    0.7611295   -6.7797535    832.70469  0.022632765  0.022244087           23 
 3067000   0.76203046   -6.7231273    834.58059  0.022676355  0.022237593           31 
 3068000    0.7494143   -6.7559616    834.33543  0.022662305  0.022231137           13 
 3069000   0.76260377   -6.7545981    835.05597  0.022674486  0.022224669           32 
 3070000   0.75007149   -6.7764413    834.16617  0.022642947  0.022218166           18 
 3071000   0.75781417   -6.7630385    834.24193   0.02263763  0.022211666           11 
 3072000   0.76121928   -6.7721167    834.67685  0.022642059  0.022205191           21 
 3073000   0.76605314   -6.7678256    833.34816  0.022598659  0.022198688           28 
 3074000   0.76007376   -6.7600399     834.6234  0.022625878  0.022192174           36 
 3075000    0.7699426    -6.781624    834.16085  0.022605985  0.022185681           76 
 3076000   0.76539023   -6.7724325     836.6382  0.022665751  0.022179191           30 
 3077000   0.75170666   -6.7628519    835.21585  0.022619864  0.022172711           25 
 3078000   0.76119699   -6.7710567    832.82521  0.022547791  0.022166201           22 
 3079000   0.77316794   -6.7762795    833.02998   0.02254601    0.0221597           33 
 3080000   0.78106976   -6.7613018    834.86671  0.022588385  0.022153218           28 
 3081000   0.74802355   -6.7689345    834.62142  0.022574419  0.022146743           32 
 3082000    0.7598461   -6.7679596    835.38912  0.022587852   0.02214027           57 
 3083000    0.7867854   -6.7648264    836.06414  0.022598771  0.022133808           58 
 3084000   0.74418843   -6.7860799    835.15885  0.022566981  0.022127353           46 
 3085000   0.74978498   -6.7891709    834.37021  0.022538363  0.022120873           57 
 3086000   0.76367393   -6.7492753    836.36414  0.022584903  0.022114404           60 
 3087000   0.74930233   -6.7414642    835.27501  0.022548186  0.022107966           35 
 3088000   0.75298025   -6.7711998    835.24211  0.022539997  0.022101524           28 
 3089000   0.75156855   -6.7759021    834.74668  0.022519334  0.022095084           41 
 3090000   0.76710506   -6.7662819    835.04419   0.02252007  0.022088641           53 
 3091000   0.77292179   -6.7612838    837.55855  0.022580571  0.022082236           41 
 3092000    0.7600269     -6.76482    837.49916  0.022571668  0.022075846           17 
 3093000   0.75281322     -6.74512    837.58143  0.022566587  0.022069469           32 
 3094000   0.76426539   -6.7546833    838.79216  0.022591903  0.022063112           65 
 3095000   0.77264366   -6.7265446    838.89311  0.022587321  0.022056799           71 
 3096000   0.75366872   -6.7592656    836.37021  0.022512118  0.022050456           49 
 3097000    0.7643823   -6.7424052    836.05923  0.022496481  0.022044101           27 
 3098000   0.76348439   -6.7977008     837.6851  0.022532954  0.022037739           23 
 3099000   0.76503122    -6.795631     838.1434  0.022538007  0.022031353           17 
 3100000   0.74726064   -6.7447719    837.54853  0.022514746  0.022024998           19 
 3101000   0.74444348   -6.7379183    838.56764  0.022534872  0.022018654           17 
 3102000   0.76313153    -6.751793    838.80933    0.0225341  0.022012314           32 
 3103000   0.74862382   -6.7659845    837.81664  0.022500178  0.022005956           37 
 3104000   0.74763444   -6.7621083    838.36542  0.022507663  0.021999596           23 
 3105000   0.74582773   -6.7562352    838.29751  0.022498591  0.021993226           43 
 3106000   0.75960611   -6.7921788    835.87505  0.022426354  0.021986858           56 
 3107000   0.74682673   -6.7526385    836.97192  0.022448555  0.021980486           51 
 3108000   0.74484821   -6.7597689    838.64488  0.022486188  0.021974133           72 
 3109000   0.76509322   -6.8007655    836.67266  0.022426093  0.021967769           71 
 3110000   0.74680925   -6.7744167    838.68853  0.022472897  0.021961401           45 
 3111000   0.75398272   -6.7659132    838.01071  0.022447517  0.021955043           41 
 3112000   0.75473203   -6.7854951    839.23554  0.022473103  0.021948667          206 
 3113000   0.74973469   -6.7939879    838.04577  0.022434034  0.021942296           55 
 3114000   0.75150452   -6.8021132    836.31444  0.022380498  0.021935899           58 
 3115000    0.7508513   -6.8140834    837.76654   0.02241216  0.021929494           27 
 3116000   0.74604416   -6.7942316    837.13941  0.022388196    0.0219231           36 
 3117000   0.72515706   -6.8131639    836.49607  0.022363813  0.021916671           69 
 3118000   0.75840131   -6.7763224    835.97224  0.022342641  0.021910237           29 
 3119000    0.7409087   -6.7751596    837.73902  0.022382682  0.021903844           15 
 3120000   0.74314156   -6.7886067    835.61516  0.022318781   0.02189745           45 
 3121000    0.7671422   -6.7679736    836.52076   0.02233581  0.021891068           34 
 3122000   0.75309483   -6.7537154    837.67817   0.02235955  0.021884722           58 
 3123000   0.75146769   -6.8022019    837.51821  0.022348122  0.021878396           89 
 3124000   0.75281439   -6.7875347    839.66097  0.022398127  0.021872036           57 
 3125000   0.73396552   -6.7784234    837.45017  0.022332004  0.021865674           73 
 3126000   0.75188138   -6.7735795    838.10991  0.022342448  0.021859309           78 
 3127000   0.76020127   -6.7765615    837.00614  0.022305888  0.021852932           85 
 3128000   0.75390214   -6.8044682    837.83833  0.022320927  0.021846545           83 
 3129000   0.74675345   -6.7855481    840.13923  0.022375073  0.021840174          139 
 3130000   0.74897915   -6.7708774    837.66524  0.022302056  0.021833792          158 
 3131000   0.73214104   -6.7857974     836.4519   0.02226264   0.02182743          160 
 3132000   0.72524953   -6.7997062    837.31327   0.02227845  0.021821054          150 
 3133000   0.75017458   -6.8085103    838.87481  0.022312874  0.021814674          168 
 3134000   0.75847139   -6.7927982     840.0667  0.022337447   0.02180832          160 
 3135000    0.7605971   -6.7826078    838.74151  0.022295096  0.021801977          174 
 3136000   0.75327123    -6.796169    839.65763  0.022312331  0.021795615          149 
 3137000   0.76751126   -6.8046721    840.09875  0.022316936  0.021789269          171 
 3138000   0.74774603   -6.7996733     839.2291   0.02228673   0.02178291          161 
 3139000   0.74636104   -6.8083485    839.67767  0.022291538  0.021776546          224 
 3140000   0.74163223   -6.8120399    838.15972  0.022244154  0.021770166          225 
 3141000   0.75501219   -6.8004736    838.41817  0.022243929  0.021763793          248 
 3142000   0.74549372   -6.8103427    839.41512  0.022263291  0.021757419          247 
 3143000   0.73739785   -6.7806013    838.42738  0.022230019  0.021751061          225 
 3144000   0.74350036    -6.805324    837.22075  0.022190966  0.021744696          191 
 3145000   0.73780375   -6.8147004     839.9507  0.022256245  0.021738355          198 
 3146000   0.72357357   -6.8044273    839.40147  0.022234623  0.021732003          215 
 3147000   0.73941897   -6.8056336    837.61271   0.02218019  0.021725641          174 
 3148000   0.74800285   -6.8014149    839.25328  0.022216573  0.021719264          221 
 3149000   0.74789746   -6.7854281    840.16064   0.02223353  0.021712899          177 
 3150000   0.75567339   -6.8136002     839.3156  0.022204116  0.021706545          184 
 3151000   0.75421927   -6.7918987    839.93156   0.02221336  0.021700188          187 
 3152000    0.7552033   -6.7889073    839.82927  0.022203608  0.021693871          150 
 3153000   0.73281609   -6.8358748    838.42325  0.022159405  0.021687525          243 
 3154000    0.7331523   -6.8411887    840.26566  0.022201059  0.021681174          385 
 3155000   0.73252064   -6.8320949    839.78197  0.022181246  0.021674797          405 
 3156000    0.7374764   -6.8081842    839.43155  0.022164965  0.021668426          500 
 3157000   0.73758771   -6.8465232    839.48931  0.022159469  0.021662055          532 
 3158000   0.73402773    -6.828687    837.36843  0.022096486  0.021655666          408 
 3159000   0.74208286   -6.8330321    838.23238  0.022112282   0.02164928          521 
 3160000    0.7530077   -6.8337194    839.81939  0.022147136  0.021642859          629 
 3161000   0.73940343   -6.8666081     837.4052  0.022076484  0.021636431          802 
 3162000   0.73482479   -6.8395101    835.85223  0.022028575  0.021629973          718 
 3163000   0.74011016   -6.8697015    834.20448  0.021978198  0.021623506          772 
 3164000   0.74180364   -6.8500125    839.08789  0.022099871  0.021617047          854 
 3165000   0.73580202   -6.8553313    837.81592  0.022059398  0.021610616          779 
 3166000   0.75056796   -6.8653646    837.01688  0.022031398  0.021604171          969 
 3167000   0.73523201   -6.8849279    837.05782  0.022025519  0.021597732          927 
 3168000   0.74088451   -6.8883126    837.97585  0.022042715  0.021591281          904 
 3169000   0.73762319   -6.8855796    837.09293  0.022012542  0.021584811         1000 
 3170000   0.75293655   -6.8695139    837.72953  0.022022333  0.021578309         1055 
 3171000    0.7339941   -6.9038998    835.62458   0.02196007  0.021571817         1146 
 3172000   0.72552196   -6.9079213    835.29338  0.021944446  0.021565278         1299 
 3173000   0.76395914   -6.8856501    836.72915  0.021975238  0.021558753         1315 
 3174000   0.74551265   -6.9385086    835.71865  0.021941784  0.021552199         1419 
 3175000   0.74345661   -6.9557465    834.10485  0.021892516  0.021545621         1447 
 3176000   0.73671027   -6.9299099    835.59664  0.021924765  0.021539038         1477 
 3177000   0.75779311    -6.933098     834.0257  0.021876658  0.021532462         1585 
 3178000    0.7471282   -6.9265104    836.57637  0.021936657  0.021525887         1610 
 3179000   0.75115071   -6.9423246    833.25587  0.021842714  0.021519271         1699 
 3180000    0.7487881   -6.9876516    834.14578  0.021859166   0.02151264         1733 
 3181000   0.73774836    -6.982218    831.70723  0.021788411  0.021505982         1871 
 3182000   0.74195493   -6.9823392    831.93018  0.021787403  0.021499298         1958 
 3183000   0.76497137   -7.0025115    832.18711  0.021787284  0.021492593         2049 
 3184000   0.74233234   -6.9905358    832.03541  0.021776471  0.021485877         2091 
 3185000   0.74185287   -7.0298487    832.50208  0.021781844  0.021479145         2186 
 3186000   0.74786929   -7.0463476    831.09605  0.021738231  0.021472383         2355 
 3187000   0.73026527    -7.048709    828.94831  0.021675251  0.021465577         2590 
 3188000   0.74771636   -7.0706243    830.49254  0.021708818  0.021458744         2594 
 3189000   0.73907696   -7.1136648    829.95714   0.02168802  0.021451877         2774 
 3190000   0.73687897   -7.0877277    827.67381  0.021621573  0.021444988         2821 
 3191000    0.7300227   -7.0814433    828.47232   0.02163565  0.021438066         2887 
 3192000   0.75161349   -7.1126293    828.26372  0.021623426  0.021431131         2945 
 3193000    0.7394919   -7.1327941    826.31511  0.021565798   0.02142418         2993 
 3194000   0.73502441   -7.1509658     825.4631  0.021536816  0.021417199         3155 
 3195000   0.72874095   -7.1543396    825.78434  0.021538454  0.021410163         3188 
 3196000   0.73746941   -7.1633307      826.791  0.021557963  0.021403112         3242 
 3197000   0.74612664   -7.1766378     825.9377  0.021528978  0.021396051         3258 
 3198000   0.72693406    -7.177854    825.73138   0.02151687  0.021388976         3371 
 3199000   0.73054877   -7.2213991    823.40409  0.021449518  0.021381884         3404 
 3200000   0.73465869   -7.2051631    822.97052  0.021431524  0.021374763         3426 
 3201000   0.74917364   -7.2490016    824.22281   0.02145743  0.021367595         3507 
 3202000   0.74361113    -7.245685    822.53106    0.0214067  0.021360398         3532 
 3203000   0.74564826   -7.2777534    820.91124  0.021357874  0.021353178         3661 
 3204000   0.74529139   -7.2695542    820.05248  0.021328872  0.021345939         3628 
 3205000   0.74030342   -7.2775009    820.74333   0.02134018  0.021338682         3730 
 3206000   0.73789452   -7.2668585    821.22566  0.021346061  0.021331415         3691 
 3207000   0.73367497   -7.2904209    821.61413  0.021349499  0.021324146         3697 
 3208000   0.74893328   -7.2749145    819.54256  0.021289032   0.02131687         3761 
 3209000   0.73677071   -7.3073029    820.89854   0.02131761  0.021309571         3825 
 3210000   0.73179453    -7.312426    820.67452  0.021305154  0.021302262         3768 
 3211000   0.73752546   -7.3317136    819.78209  0.021275358  0.021294931         3819 
 3212000   0.74610993    -7.350104    818.25831  0.021229201  0.021287583         3843 
 3213000    0.7321602   -7.3737744    818.89457  0.021239096   0.02128022         3847 
 3214000   0.73710024   -7.3596266    817.10342  0.021186046  0.021272838         3876 
 3215000   0.72238451   -7.3501035    816.08698   0.02115311   0.02126542         3890 
 3216000   0.72362825   -7.3680634    818.01684  0.021196539  0.021257984         3885 
 3217000    0.7391224   -7.3971389    815.84168  0.021133605  0.021250547         3877 
 3218000   0.73891508   -7.4135749    816.78222  0.021151394  0.021243089         3916 
 3219000   0.72769733   -7.3893386    815.75537   0.02111824   0.02123562         3916 
 3220000   0.74360955   -7.3950408     816.2601  0.021124744  0.021228149         3884 
 3221000   0.73100283   -7.3924491    815.05287  0.021086952  0.021220674         3906 
 3222000   0.72581952   -7.3950531    816.87743  0.021127597  0.021213185         3920 
 3223000   0.73260656   -7.4266611    814.55269  0.021060934  0.021205711         3918 
 3224000   0.72930269   -7.4073316    815.67311  0.021083362  0.021198229         3868 
 3225000   0.72990702   -7.4236929    816.30643  0.021093189  0.021190745         3931 
 3226000   0.72391377   -7.4081388      815.012  0.021053213  0.021183257         3918 
 3227000   0.74272257    -7.413943    815.11691  0.021049399  0.021175768         3940 
 3228000   0.74543424   -7.4124465    816.84129  0.021087394   0.02116827         3920 
 3229000   0.71473185   -7.4096211    815.84736  0.021055212  0.021160773         3923 
 3230000   0.72313877   -7.4114296    815.98825  0.021052328  0.021153277         3934 
 3231000   0.73752091   -7.4114101    816.20452  0.021051391  0.021145777         3932 
 3232000    0.7196721   -7.4181967    814.14225  0.020991704   0.02113828         3932 
 3233000   0.74482858   -7.4160233    814.36369  0.020990919  0.021130787         3943 
 3234000   0.74117437   -7.4046786    814.77792  0.020995102  0.021123286         3914 
 3235000   0.73697035   -7.4160757    813.96023  0.020967549  0.021115809         3930 
 3236000    0.7461773   -7.4118097    815.10243  0.020990483  0.021108319         3942 
 3237000   0.72982765   -7.4595947    815.40319  0.020991741  0.021100832         3943 
 3238000   0.73701838   -7.4070262     814.1569  0.020953184  0.021093343         3953 
 3239000   0.71595526   -7.4322336    813.80222  0.020937589  0.021085849         3935 
 3240000   0.72480956   -7.4073253    815.61482  0.020977747  0.021078361         3924 
 3241000   0.72430633   -7.4157199    815.11704  0.020958476  0.021070883         3933 
 3242000   0.74021297   -7.4327477    814.95398   0.02094782    0.0210634         3936 
 3243000    0.7415663   -7.4268852    814.92961  0.020940734  0.021055914         3928 
 3244000   0.73427709   -7.4279583    813.70852  0.020902911  0.021048444         3944 
 3245000   0.72042406   -7.4191682    813.95904  0.020902903  0.021040954         3948 
 3246000   0.73514503   -7.4156361    813.82268  0.020892963  0.021033485         3923 
 3247000   0.73370382   -7.4344394    817.04919  0.020969336  0.021026002         3943 
 3248000   0.73520581   -7.4334855    815.05019  0.020911591  0.021018514         3950 
 3249000    0.7395012   -7.4237701    814.07019  0.020880019  0.021011026         3950 
 3250000    0.7371179   -7.4261985    815.50718  0.020910441   0.02100354         3949 
 3251000   0.74192783    -7.406289    813.29321  0.020847258  0.020996048         3952 
 3252000   0.72630232    -7.411224    814.35012  0.020867931  0.020988555         3944 
 3253000   0.73200418   -7.4179552    816.23547  0.020909813   0.02098107         3946 
 3254000   0.71765078   -7.4391601    814.38868  0.020856092   0.02097359         3939 
 3255000   0.73396269   -7.4319711    814.48257  0.020852088   0.02096612         3945 
 3256000   0.74726128   -7.4280588    815.10486  0.020861611   0.02095863         3940 
 3257000   0.73653396   -7.4024579    813.84992  0.020823097  0.020951154         3940 
 3258000   0.72525389   -7.4162099    814.53595  0.020834253  0.020943681         3945 
 3259000    0.7331144   -7.4152829    815.74132  0.020858682  0.020936216         3945 
 3260000   0.72952469   -7.4335288    813.55921  0.020796503  0.020928747         3926 
 3261000    0.7425504   -7.4076319    814.02212  0.020801955  0.020921276         3939 
 3262000   0.73259369   -7.4232411    813.30835  0.020777344  0.020913817         3955 
 3263000   0.72777574   -7.4275114    815.30403  0.020821944  0.020906341         3929 
 3264000   0.72222008   -7.4266614    813.45932  0.020768467  0.020898878         3944 
 3265000   0.72758993   -7.4125397    814.19676  0.020780928  0.020891415         3946 
 3266000   0.71675674   -7.4471748    813.66919  0.020761104  0.020883949         3945 
 3267000   0.72530325   -7.4126946    815.49692   0.02080137  0.020876488         3946 
 3268000   0.72257901   -7.4282331    814.74906  0.020775935  0.020869032         3950 
 3269000   0.75002557   -7.4319609    813.13244  0.020728368  0.020861571         3934 
 3270000    0.7391623   -7.4320139    814.31477   0.02075216  0.020854111         3958 
 3271000   0.73740936   -7.4161854    813.87374   0.02073458  0.020846649         3909 
 3272000   0.72311506   -7.4449239    814.26875  0.020738304  0.020839195         3931 
 3273000   0.73927599   -7.4200163    814.99755  0.020750523  0.020831744         3942 
 3274000   0.72701106   -7.4243199     813.8687  0.020715453  0.020824292         3943 
 3275000   0.71542538   -7.4154418     816.4902  0.020775832  0.020816844         3949 
 3276000   0.72097437   -7.4442488    814.71655  0.020724373  0.020809394         3949 
 3277000   0.74000575   -7.4613556    814.09089  0.020702138  0.020801951         3941 
 3278000   0.72066195   -7.4374984    813.42144  0.020678804  0.020794516         3951 
 3279000   0.73256758    -7.424876    814.89594  0.020709971  0.020787066         3955 
 3280000   0.73042105   -7.4206016     814.3985  0.020691019  0.020779629         3956 
 3281000   0.70672973   -7.4217588    814.17407  0.020679012  0.020772192         3932 
 3282000   0.71692297   -7.4334682    813.19466  0.020647843  0.020764749         3949 
 3283000   0.73776688   -7.4371719    813.71837  0.020654847  0.020757318         3938 
 3284000   0.72570677   -7.4525124    813.21738  0.020635845  0.020749888         3941 
 3285000   0.71238389    -7.421935    813.80388  0.020644441  0.020742457         3945 
 3286000   0.73376982   -7.4261149    815.52809  0.020681885  0.020735024         3942 
 3287000   0.72493977   -7.4172725    815.13894  0.020665727  0.020727593         3936 
 3288000   0.71072095   -7.4335589    814.68067  0.020647827  0.020720158         3949 
 3289000   0.71764563   -7.4165744    814.08735  0.020626517  0.020712729         3952 
 3290000   0.74244499   -7.4212166     813.3757  0.020602221  0.020705299         3955 
 3291000   0.72091455   -7.4437259     813.2319   0.02059232  0.020697869         3954 
 3292000   0.71916211   -7.4420832    813.43955  0.020591321  0.020690446         3944 
 3293000   0.70419478   -7.4254167     814.7702  0.020618742  0.020683027         3933 
 3294000   0.71645325   -7.4688035    814.00951  0.020593238    0.0206756         3939 
 3295000   0.71812259   -7.4301172    814.85726  0.020608428  0.020668179         3945 
 3296000   0.72218754   -7.4396452    815.70872  0.020623703  0.020660752         3949 
 3297000   0.73940663   -7.4293436    814.13864  0.020577764  0.020653331         3933 
 3298000   0.73494295   -7.4389805    813.97944  0.020567501  0.020645928         3947 
 3299000   0.74556883   -7.4128397    814.54649  0.020575591  0.020638516         3939 
 3300000   0.71373905   -7.4633686    814.69729  0.020573164  0.020631102         3943 
 3301000   0.72149333   -7.4439125    814.89353  0.020571885  0.020623693         3941 
 3302000   0.71705019   -7.4334467    813.31238  0.020525751  0.020616284         3940 
 3303000   0.72494013    -7.458203    813.85858  0.020533318  0.020608872         3943 
 3304000   0.73288897   -7.4363089    814.75109  0.020549614  0.020601468         3927 
 3305000   0.72171354   -7.4384531     814.4908  0.020536833  0.020594063         3957 
 3306000   0.72586127    -7.417421    815.19799  0.020548447  0.020586663         3935 
 3307000   0.73910763   -7.4233456    813.42117  0.020497459  0.020579272         3936 
 3308000   0.74538942   -7.4448603    815.94982  0.020554963  0.020571885         3945 
 3309000   0.72716396   -7.4607694    813.02269  0.020475035  0.020564485         3943 
 3310000   0.72333954   -7.4608852    813.03046  0.020469045  0.020557085         3948 
 3311000   0.71116522   -7.4254094    813.65998  0.020478707   0.02054969         3955 
 3312000   0.72557294   -7.4363879    813.69251  0.020473342   0.02054229         3944 
 3313000   0.72310163   -7.4691579     814.1171  0.020477842  0.020534895         3939 
 3314000   0.70478426   -7.4615057     812.3316  0.020426765  0.020527499         3967 
 3315000   0.72462786    -7.439247    815.15199  0.020491503  0.020520106         3950 
 3316000   0.72248447   -7.4457634    812.05782  0.020407565  0.020512711         3943 
 3317000   0.72435537   -7.4409228    815.13906  0.020478823  0.020505322         3936 
 3318000   0.72849342   -7.4370356     813.4227  0.020429543  0.020497939         3928 
 3319000   0.73145687   -7.4437287    814.24902  0.020444135  0.020490559         3935 
 3320000   0.72699256   -7.4268107    813.37805  0.020416116  0.020483178         3942 
 3321000   0.71046828   -7.4424333    813.71101  0.020418323  0.020475803         3955 
 3322000   0.69651442   -7.4281746    813.23188  0.020400158  0.020468434         3952 
 3323000    0.7127509   -7.4363994    814.02606  0.020413935  0.020461063         3939 
 3324000   0.72907132   -7.4413067    816.13671  0.020460708  0.020453698         3937 
 3325000   0.72462238   -7.4514999    811.93373  0.020349216  0.020446322         3920 
 3326000   0.71743058   -7.4601235    813.62296  0.020385422  0.020438948         3950 
 3327000    0.7146116   -7.4508868    814.51854  0.020401727  0.020431572         3947 
 3328000    0.7290457    -7.453678    814.63045  0.020398399  0.020424201         3949 
 3329000   0.72032139   -7.4397222    814.88379  0.020398613  0.020416831         3942 
 3330000   0.72007659   -7.4676133     814.2143  0.020375733  0.020409462         3956 
 3331000   0.69579541   -7.4451308    814.25341  0.020370595  0.020402095         3939 
 3332000   0.71986079   -7.4553272    814.93949   0.02038164  0.020394738         3953 
 3333000   0.72678725   -7.4558353    813.17485  0.020331404  0.020387379         3948 
 3334000   0.72887659   -7.4337067    812.76447  0.020315049  0.020380017         3936 
 3335000   0.70131854   -7.4510974    814.09269  0.020342146  0.020372658         3955 
 3336000    0.7097771   -7.4764951    814.03757  0.020334671  0.020365305         3961 
 3337000   0.70909565   -7.4468987    814.66708  0.020344298  0.020357947         3942 
 3338000   0.70237442   -7.4549704    813.27348  0.020303412  0.020350597         3953 
 3339000   0.73114566   -7.4646178    814.98573  0.020340065  0.020343251         3957 
 3340000   0.69959863   -7.4561935    812.95263  0.020283249  0.020335898         3947 
 3341000   0.72099447   -7.4015428    813.50112  0.020290859   0.02032856         3944 
 3342000    0.7231404   -7.4548412    812.76294  0.020266381  0.020321218         3945 
 3343000   0.70857123   -7.4619802    813.52771  0.020279383  0.020313879         3933 
 3344000   0.70774285   -7.4510313    813.22292  0.020265723   0.02030653         3929 
 3345000   0.72217175   -7.4714566     814.4265  0.020289649    0.0202992         3938 
 3346000   0.70978238    -7.432985     815.3572  0.020306764  0.020291861         3950 
 3347000   0.71643324   -7.4459579    812.47136  0.020228846  0.020284529         3954 
 3348000   0.71763747   -7.4537354    813.20112  0.020240968  0.020277197         3960 
 3349000   0.73379823   -7.4392391    814.46888   0.02026647   0.02026987         3942 
 3350000   0.72146511   -7.4463606     812.8125  0.020219216  0.020262552         3950 
 3351000   0.72239602   -7.4444473    815.26919  0.020274276  0.020255223         3948 
 3352000   0.71443552   -7.4477432    816.22927  0.020292096  0.020247905         3933 
 3353000   0.71830816   -7.4431265    815.96996  0.020279599  0.020240591         3949 
 3354000   0.71581256   -7.4533441    813.30434  0.020207323  0.020233267         3958 
 3355000   0.71875119   -7.4560206    813.06061  0.020195246  0.020225953         3924 
 3356000   0.70626115   -7.4750346      814.822  0.020232966  0.020218637         3948 
 3357000   0.71409722   -7.4282975    814.03002  0.020207279   0.02021132         3933 
 3358000   0.72774596   -7.4671365    814.24257  0.020206536  0.020203997         3953 
 3359000   0.71496759   -7.4367539    812.19637  0.020149756  0.020196683         3959 
 3360000    0.7101549   -7.4525576    813.06018  0.020165183  0.020189367         3961 
 3361000   0.70868428    -7.436348    813.86714  0.020179191  0.020182056         3947 
 3362000   0.70718846   -7.4579231    813.71732  0.020169476  0.020174749         3954 
 3363000    0.7159815   -7.4517208      812.816  0.020141144  0.020167443         3942 
 3364000   0.70657338   -7.4588633    815.32294  0.020197259  0.020160134         3935 
 3365000    0.7109957   -7.4570641    813.67706  0.020150497  0.020152827         3948 
 3366000   0.70868705   -7.4431247    811.65449  0.020094437  0.020145533         3939 
 3367000    0.7091787   -7.4493763    812.99003  0.020121523  0.020138237         3953 
 3368000   0.71912359   -7.4527121    813.21695  0.020121164   0.02013095         3949 
 3369000   0.71264189   -7.4311691    814.29276  0.020141802  0.020123658         3942 
 3370000   0.69544426   -7.4542179    812.60183  0.020094012  0.020116362         3938 
 3371000   0.70576677   -7.4641135    812.72258  0.020091036  0.020109067         3942 
 3372000   0.70986862   -7.4583571    814.48694  0.020128681  0.020101781         3947 
 3373000   0.70987494   -7.4528658    812.96692  0.020085159  0.020094494         3938 
 3374000   0.71242052    -7.450651    813.13122  0.020083265  0.020087203         3957 
 3375000   0.70828818    -7.455066    811.72116  0.020042498  0.020079917         3954 
 3376000   0.70214407     -7.44421    812.43664  0.020054222  0.020072642         3945 
 3377000   0.70185745   -7.4494561    813.42315  0.020072627  0.020065361         3950 
 3378000   0.70531536    -7.481497    813.24237  0.020062225  0.020058083         3946 
 3379000   0.71794832   -7.4584667    811.33779  0.020009317  0.020050805         3941 
 3380000    0.7339372   -7.4599129    812.50718  0.020032228  0.020043526         3930 
 3381000   0.72180337   -7.4719744    812.78616  0.020033179  0.020036246         3936 
 3382000   0.69916495   -7.4408479    813.66962  0.020049025  0.020028972         3944 
 3383000   0.70222095   -7.4497475    814.16223  0.020055233  0.020021689         3937 
 3384000    0.7121774   -7.4668695    813.76557  0.020039538  0.020014414         3922 
 3385000   0.72600905   -7.4763587    813.31999  0.020022649   0.02000715         3941 
 3386000    0.7121282   -7.4822407    812.82935   0.02000466  0.019999877         3949 
 3387000   0.70873411   -7.4594195    812.52467  0.019991258  0.019992618         3947 
 3388000   0.70233838   -7.4740222    814.73659  0.020039763   0.01998536         3950 
 3389000   0.71770928   -7.4468766     812.0861  0.019968676  0.019978115         3947 
 3390000   0.70802835   -7.4371093    814.15046  0.020013531   0.01997085         3957 
 3391000   0.70532889   -7.4894215    812.03151  0.019955557   0.01996359         3937 
 3392000   0.70505335   -7.4905157    813.47496  0.019985136  0.019956336         3950 
 3393000   0.70006241   -7.4555021    813.09274  0.019969858  0.019949079         3944 
 3394000   0.72232987   -7.4792455    813.55599  0.019975348  0.019941825         3943 
 3395000   0.70605114   -7.4561773    812.87003  0.019952627  0.019934579         3938 
 3396000   0.71489084    -7.483595    812.78349  0.019944628  0.019927331         3952 
 3397000   0.71429716   -7.4690531    813.12288  0.019947083   0.01992008         3945 
 3398000   0.71171323   -7.4647027    812.74724     0.019932   0.01991283         3928 
 3399000   0.69280556   -7.4551403    813.17373  0.019936592  0.019905593         3946 
 3400000   0.70499298   -7.4680091    814.16746  0.019955085  0.019898351         3938 
 3401000   0.69894248   -7.4336033    811.43371  0.019882233  0.019891107         3945 
 3402000   0.70639078   -7.4489088    813.04512  0.019915861  0.019883873         3951 
 3403000   0.71210683   -7.4675096    813.41536  0.019919075  0.019876627         3952 
 3404000   0.72346666   -7.4645759     811.1455  0.019857655  0.019869392         3956 
 3405000   0.70675268    -7.483577    814.65897  0.019937811  0.019862163         3924 
 3406000   0.72774808    -7.456056    812.85361  0.019887787  0.019854925         3942 
 3407000   0.69088161   -7.4610621    812.86395  0.019882202   0.01984769         3943 
 3408000   0.70540634    -7.470961    813.75027  0.019898041  0.019840458         3948 
 3409000   0.72498484   -7.4764818    812.37962  0.019858698   0.01983323         3949 
 3410000   0.71068436   -7.4854066    812.36816  0.019852594  0.019826007         3949 
 3411000   0.72271376   -7.4438295    813.67553  0.019878714  0.019818785         3936 
 3412000   0.70354041   -7.4704113    813.50698  0.019868771  0.019811575         3948 
 3413000   0.69736394   -7.4601256    813.54256  0.019863819  0.019804357         3956 
 3414000   0.71406742   -7.4607677    813.13418  0.019848032   0.01979715         3945 
 3415000   0.70749442   -7.4715371    812.81959  0.019834543  0.019789936         3946 
 3416000   0.70651339   -7.4659361    813.29296  0.019840285  0.019782716         3952 
 3417000   0.71559146   -7.4584872     814.0934     0.019854  0.019775502         3949 
 3418000   0.70772403   -7.4668057    811.73077  0.019790588    0.0197683         3957 
 3419000   0.70619805    -7.460705    813.11812  0.019818615  0.019761097         3949 
 3420000   0.70321984    -7.466983    812.28085  0.019792418  0.019753894         3937 
 3421000   0.72431651   -7.4635436    813.07347  0.019805941  0.019746693         3957 
 3422000   0.70565582   -7.4510098    812.20431  0.019778987  0.019739488         3947 
 3423000   0.69663989   -7.4723915    813.12446   0.01979561   0.01973229         3941 
 3424000   0.70683173    -7.460365     813.3284  0.019794792  0.019725093         3942 
 3425000   0.71676904    -7.476537    812.34833  0.019765166  0.019717905         3955 
 3426000   0.70414663   -7.4598831    812.90911  0.019773037  0.019710705         3952 
 3427000   0.70423326   -7.4512304    813.08709  0.019771596  0.019703518         3950 
 3428000    0.7053007   -7.4868465    811.80211   0.01973459  0.019696331         3945 
 3429000    0.7219065   -7.4733068    814.48684  0.019794081   0.01968914         3920 
 3430000   0.69261436    -7.479112    812.39958  0.019737599  0.019681957         3964 
 3431000   0.70611834   -7.4734558    813.41057  0.019756402  0.019674768         3942 
 3432000   0.70514288   -7.4838298     812.7348  0.019734237  0.019667582         3955 
 3433000   0.69314782   -7.4681376     810.8892  0.019683688  0.019660398         3946 
 3434000    0.7096346     -7.48191    811.74468  0.019698716  0.019653219         3958 
 3435000   0.70767075   -7.4699634    813.36579  0.019732309  0.019646042         3953 
 3436000   0.69885127   -7.4936604    810.71003  0.019662156  0.019638857         3954 
 3437000   0.70622575   -7.4763018    811.82917   0.01968357  0.019631691         3961 
 3438000   0.71237661   -7.4869948    812.76159  0.019700446  0.019624517         3964 
 3439000   0.72163169   -7.4776768    811.25311  0.019658164  0.019617352         3961 
 3440000    0.7015523   -7.4961887    812.87699  0.019691787  0.019610186         3964 
 3441000   0.70276625   -7.4584556    813.07962  0.019690972  0.019603022         3961 
 3442000   0.70428072   -7.4812549    813.88385  0.019704722  0.019595863         3937 
 3443000   0.70827235   -7.4791869    813.13204  0.019680803  0.019588708         3955 
 3444000   0.69230561   -7.4687381    813.45873  0.019682993  0.019581551         3954 
 3445000   0.69414992   -7.4855238    812.43459  0.019652506  0.019574398         3943 
 3446000   0.69159843   -7.4734483    813.90526  0.019682368  0.019567248         3956 
 3447000   0.70515485   -7.4687097    811.55506   0.01961984  0.019560102         3940 
 3448000   0.71616672   -7.4735171    812.46428  0.019636124  0.019552955         3935 
 3449000   0.71758187   -7.4936986    812.33766  0.019627372  0.019545805         3936 
 3450000   0.68476303   -7.4600904    810.84514  0.019585631   0.01953866         3937 
 3451000   0.67303027    -7.490668    810.64448   0.01957511   0.01953152         3942 
 3452000   0.68719812    -7.463301    813.16854  0.019630372  0.019524387         3951 
 3453000   0.69751944   -7.5014565    812.11668  0.019599302   0.01951725         3951 
 3454000   0.70719123   -7.4769317    812.61234  0.019605586  0.019510112         3944 
 3455000   0.68966225   -7.4758953     812.2866  0.019592055   0.01950298         3948 
 3456000   0.70935528   -7.4884499    813.66494  0.019619621   0.01949585         3956 
 3457000   0.70297992   -7.4811471    813.59686  0.019612305  0.019488718         3959 
 3458000   0.69984958   -7.4745006    811.35058  0.019552501  0.019481596         3943 
 3459000   0.71325571   -7.4862567    811.80073  0.019557693  0.019474471         3944 
 3460000   0.69206824   -7.4730769     812.7995  0.019576096  0.019467348         3948 
 3461000   0.69638672   -7.4783003    812.90788  0.019573049  0.019460227         3956 
 3462000   0.68924328   -7.4865764    813.40611  0.019579388  0.019453108         3944 
 3463000   0.70014318   -7.4595597    813.23841  0.019569699  0.019445996         3965 
 3464000   0.69832341   -7.4921559     811.7349   0.01952788  0.019438886         3959 
 3465000   0.70663767   -7.4901341    811.93348   0.01952702  0.019431774         3963 
 3466000    0.6746266   -7.4838594    811.34473   0.01950723  0.019424668         3948 
 3467000   0.70059357   -7.4726748    812.64293  0.019532808  0.019417555         3948 
 3468000   0.69597751    -7.465977    813.32236  0.019543502  0.019410454         3942 
 3469000   0.70777026   -7.4869711    813.05143  0.019531359  0.019403356         3960 
 3470000   0.71658015   -7.4883525    811.68338  0.019492877   0.01939625         3953 
 3471000   0.68775864    -7.471947     813.5848  0.019532911  0.019389156         3949 
 3472000   0.71276879   -7.5006467    811.73008  0.019482769  0.019382048         3958 
 3473000   0.70400615   -7.4863918    813.71439  0.019524772  0.019374954         3950 
 3474000   0.69305744   -7.4632398    811.37042  0.019462925  0.019367861         3960 
 3475000   0.70530648   -7.4875851    812.84768   0.01949275  0.019360771         3961 
 3476000   0.70022939   -7.4938535    812.23034  0.019472342   0.01935368         3957 
 3477000   0.68035898   -7.4883704    813.81072  0.019504619  0.019346596         3946 
 3478000   0.68764225   -7.4932268     811.3445   0.01943992  0.019339517         3961 
 3479000   0.69076229   -7.4868256    811.54253  0.019439076  0.019332426         3967 
 3480000   0.69138504   -7.4830181    811.76157  0.019438735  0.019325344         3954 
 3481000   0.70141974   -7.4904402     813.4607  0.019473827  0.019318263         3950 
 3482000   0.68774383   -7.4691723    812.49395  0.019445097   0.01931119         3950 
 3483000   0.69293437   -7.4934956    812.85364   0.01944812  0.019304116         3947 
 3484000   0.68051336   -7.4800533    811.43672  0.019408647  0.019297049         3952 
 3485000   0.69575349   -7.4911112    811.66236  0.019408473  0.019289979         3953 
 3486000   0.69585491   -7.4775553    812.75118  0.019428934  0.019282909         3938 
 3487000   0.69741165   -7.4848186    812.39629  0.019414881  0.019275846         3953 
 3488000   0.71860354   -7.4628195    812.90091  0.019421371  0.019268789         3948 
 3489000   0.70585999   -7.4995267    811.90629  0.019392049  0.019261737         3960 
 3490000   0.69469727   -7.4921511    811.66336  0.019380691  0.019254676         3964 
 3491000   0.70714142   -7.4693382    813.20517  0.019411944  0.019247624         3963 
 3492000   0.68789258   -7.4861777    812.18702  0.019382088  0.019240573         3961 
 3493000   0.68073596   -7.4852257     812.4366  0.019382494   0.01923352         3952 
 3494000   0.68791432   -7.5118417    811.67363  0.019358749  0.019226474         3958 
 3495000   0.68825877   -7.4888378    812.54786  0.019374055  0.019219424         3966 
 3496000   0.70786645   -7.4949266    810.65591  0.019323415  0.019212385         3964 
 3497000   0.67412794   -7.4855838    811.65156  0.019341616  0.019205347         3966 
 3498000   0.68777177   -7.4769312    811.44365  0.019331133   0.01919831         3940 
 3499000   0.70337265   -7.4881835    810.90729  0.019312834   0.01919127         3963 
 3500000   0.69342045   -7.4820588    811.83225  0.019329339  0.019184234         3948 
 3501000   0.68771814   -7.4769638    812.14043  0.019331154  0.019177202         3961 
 3502000   0.67173621   -7.4901099     810.4831  0.019286196  0.019170178         3934 
 3503000   0.69383485   -7.4918334    812.57407  0.019330433  0.019163147         3944 
 3504000   0.69235175   -7.5021585    812.00165  0.019311303  0.019156118         3964 
 3505000   0.68929271   -7.4999641    810.12019   0.01926106  0.019149092         3954 
 3506000   0.67623997   -7.5026189    812.53356  0.019312929  0.019142073         3941 
 3507000   0.69565471   -7.4758323    811.18676   0.01927542  0.019135049         3957 
 3508000    0.6911935   -7.4846897    811.43902  0.019275917   0.01912803         3958 
 3509000   0.69433169   -7.4839273    813.11636  0.019310258  0.019121021         3964 
 3510000   0.69426768    -7.495245    809.91515  0.019228755  0.019114011         3959 
 3511000   0.70225423   -7.4794355    811.55248   0.01926214  0.019107002         3962 
 3512000   0.69537135   -7.4937476    811.08481  0.019245558  0.019099998         3953 
 3513000   0.68824604    -7.496436    811.96147  0.019260876  0.019092997         3949 
 3514000   0.68494453   -7.4991264    812.83066  0.019276007  0.019085991         3958 
 3515000   0.69098447   -7.4952414    811.76048  0.019245151   0.01907899         3956 
 3516000   0.68137906   -7.4999562    813.03697  0.019269932  0.019071997         3948 
 3517000   0.69338304   -7.4946772      811.087  0.019218249  0.019065007         3955 
 3518000   0.68600485   -7.5032812     811.9762   0.01923385  0.019058016         3957 
 3519000   0.67141099   -7.5079692    810.62452  0.019196375  0.019051023         3958 
 3520000   0.67865043      -7.4999    813.18796  0.019251609  0.019044035         3947 
 3521000   0.70248531   -7.4915704    811.08382  0.019196342  0.019037057         3931 
 3522000   0.67114415   -7.4959965    812.64503  0.019227831  0.019030075         3948 
 3523000   0.67840051   -7.4854995    812.10756  0.019209659  0.019023087         3946 
 3524000   0.68494979   -7.4949928    812.15377  0.019205301  0.019016112         3960 
 3525000   0.69819806   -7.5049836    812.37538  0.019205092  0.019009137         3927 
 3526000   0.68550777   -7.4753945     812.5694  0.019204231  0.019002161         3940 
 3527000   0.68320915   -7.5063912    812.09529  0.019187584  0.018995198         3954 
 3528000   0.68871076    -7.533287    811.85255  0.019176411  0.018988232         3950 
 3529000   0.68349012   -7.4792497    812.07858  0.019176315  0.018981265         3965 
 3530000   0.69108388   -7.4754242    812.86301  0.019189401  0.018974305         3954 
 3531000   0.68228334   -7.5075022    810.93858  0.019138549  0.018967349         3944 
 3532000   0.68180798   -7.4732846    809.93236  0.019109389  0.018960383         3949 
 3533000   0.68112073   -7.5150118    811.68448  0.019145308  0.018953435         3951 
 3534000   0.69462088   -7.4917805    809.93515  0.019098641  0.018946478         3950 
 3535000   0.68806106   -7.5058436    812.12011  0.019144746  0.018939528         3950 
 3536000   0.68564661   -7.4723653    811.70856  0.019129632  0.018932577         3937 
 3537000   0.68330647   -7.4845372    811.56618  0.019120869  0.018925628         3954 
 3538000   0.68033543   -7.4826783    813.94069  0.019171394   0.01891868         3951 
 3539000   0.67687724   -7.4932405    810.74985  0.019090841  0.018911731         3940 
 3540000   0.67271386   -7.4905154    810.47912  0.019079075  0.018904791         3952 
 3541000   0.68050706   -7.4869473    811.10593  0.019088438   0.01889785         3956 
 3542000   0.67695009   -7.4850805    810.60329  0.019071224  0.018890908         3951 
 3543000   0.69016527    -7.490418    812.11374  0.019101368  0.018883971         3944 
 3544000   0.69815996   -7.4955887    810.41926  0.019056134  0.018877033         3948 
 3545000   0.69462106   -7.4765834    812.88381  0.019108693  0.018870106         3956 
 3546000   0.67166492   -7.5076529    811.10166  0.019061423  0.018863177         3964 
 3547000   0.67886866   -7.5018061    810.33986  0.019038151  0.018856249         3946 
 3548000   0.69845773   -7.4989736    812.79322  0.019090408  0.018849317         3939 
 3549000   0.68242839    -7.511239    812.78886  0.019084927  0.018842392         3945 
 3550000   0.67427676   -7.4789876    812.25448  0.019067007  0.018835477         3956 
 3551000    0.6694483   -7.4971973    811.62279  0.019046813  0.018828554         3960 
 3552000   0.68717515   -7.5138022    810.80817  0.019022339  0.018821635         3960 
 3553000   0.67609134   -7.4997369    811.31361   0.01902884  0.018814712         3962 
 3554000   0.68285352   -7.4989021    812.70298  0.019056063  0.018807798         3961 
 3555000   0.67451383   -7.4856144    812.13483  0.019037385  0.018800894         3945 
 3556000   0.68855363   -7.4930878    809.50466  0.018970394  0.018793982         3961 
 3557000   0.70484621   -7.5049426    811.62256  0.019014679  0.018787079         3955 
 3558000   0.67748303   -7.5171669     811.2922  0.019001597  0.018780184         3960 
 3559000   0.67899839   -7.5190016    811.66866  0.019005073  0.018773287         3946 
 3560000   0.67187782   -7.4760176    811.55366  0.018997043  0.018766393         3966 
 3561000   0.69015329   -7.5190897    812.35741  0.019010517  0.018759492         3948 
 3562000   0.68687347   -7.5342437    810.89512  0.018970969  0.018752598         3968 
 3563000   0.69593152   -7.5136061    811.38771  0.018977166  0.018745707         3962 
 3564000   0.67750431    -7.487826    811.34612  0.018970869  0.018738819         3947 
 3565000   0.69149536   -7.5136752    810.68882  0.018950183  0.018731925         3952 
 3566000   0.69398544   -7.5101626    810.81629  0.018947848  0.018725047         3954 
 3567000   0.68959473   -7.5071735    811.07651  0.018948615  0.018718171         3966 
 3568000    0.6920783   -7.5279644    811.17102  0.018945511   0.01871129         3947 
 3569000   0.69649842   -7.5073208    811.62552  0.018950815  0.018704412         3962 
 3570000   0.67441161   -7.4916921    812.22965  0.018959609  0.018697537         3961 
 3571000   0.69178194    -7.525508     810.6713  0.018917934  0.018690666         3949 
 3572000   0.65830779   -7.5179949    812.31655  0.018951021  0.018683804         3956 
 3573000   0.69415896   -7.4862976    811.12052  0.018917822  0.018676941         3950 
 3574000   0.69513879   -7.5035531    811.97513  0.018932455  0.018670089         3950 
 3575000   0.68026752   -7.4959944     810.7047  0.018897545  0.018663232         3968 
 3576000    0.6840163   -7.5083439      810.142  0.018879148  0.018656374         3958 
 3577000   0.69261717   -7.5171177     811.0036  0.018893943  0.018649518         3962 
 3578000   0.67516363   -7.5040302    812.02968   0.01891256  0.018642665         3957 
 3579000   0.68498946   -7.5184161    813.25601   0.01893583   0.01863581         3955 
 3580000    0.6609688   -7.5039018    810.74018  0.018871978  0.018628963         3947 
 3581000   0.66915315    -7.500001    811.37172  0.018881405  0.018622117         3958 
 3582000   0.67449551   -7.5012716    810.62176  0.018858686  0.018615271         3955 
 3583000   0.68493335   -7.5207821    812.63721  0.018900298  0.018608429         3951 
 3584000    0.6635087   -7.5116828     810.5618  0.018846768  0.018601591         3956 
 3585000   0.66923358   -7.4979711    811.36795   0.01886025  0.018594754         3953 
 3586000   0.65747064   -7.4993305    810.74372  0.018840484  0.018587915         3957 
 3587000   0.68171259   -7.5083193    811.39218  0.018850297  0.018581074         3954 
 3588000   0.67212142   -7.4963985    812.58816  0.018872821  0.018574246         3936 
 3589000   0.65724675   -7.5275538    810.74147  0.018824684  0.018567415         3957 
 3590000   0.67916946   -7.5106978    810.92251  0.018823642  0.018560582         3953 
 3591000    0.6760333   -7.5078442    811.57314  0.018833499  0.018553759         3956 
 3592000   0.66607672    -7.519079    810.60787  0.018805862  0.018546937         3962 
 3593000   0.68813066   -7.5106584    811.90453  0.018830702  0.018540117         3951 
 3594000   0.67643487   -7.5064825    810.26973  0.018787556  0.018533293         3951 
 3595000   0.67934842   -7.5257472    811.68446  0.018815124  0.018526479         3950 
 3596000   0.67524998   -7.4961174    811.08905  0.018796094  0.018519671         3956 
 3597000   0.68717188    -7.505682    809.68886   0.01875843  0.018512866         3956 
 3598000   0.68189016   -7.4967642    810.39023  0.018769461  0.018506059         3950 
 3599000   0.67406613   -7.5293114    810.35131  0.018763344  0.018499255         3958 
 3600000   0.68114082   -7.5186185    810.01857   0.01875043  0.018492453         3952 
 3601000   0.67043255   -7.4848985    809.24042  0.018727215  0.018485648         3967 
 3602000   0.68299591   -7.4908283    810.59292  0.018753307  0.018478852         3951 
 3603000   0.67754778   -7.5015009    811.57485  0.018770813  0.018472063         3938 
 3604000   0.67022024   -7.5027334    810.23102  0.018734532  0.018465266         3950 
 3605000   0.66828733   -7.5159686    811.30833  0.018754238  0.018458471         3957 
 3606000   0.66055141   -7.5090199    810.01162   0.01871907  0.018451677         3965 
 3607000   0.67020965   -7.4977143     811.4174  0.018746359   0.01844488         3955 
 3608000   0.66118119   -7.5039928    811.85374  0.018751241  0.018438098         3953 
 3609000   0.67847668   -7.5143854    810.94204  0.018724994  0.018431315         3940 
 3610000   0.66352006   -7.5244227    810.25936  0.018704048  0.018424542         3954 
 3611000   0.67211173   -7.5117761    810.08667  0.018694883   0.01841776         3949 
 3612000   0.68642059   -7.5151661     809.1587  0.018668298  0.018410993         3962 
 3613000   0.67308962   -7.5162352    809.70621  0.018675759  0.018404219         3956 
 3614000   0.67929656   -7.5084979    809.57588  0.018667586  0.018397453         3958 
 3615000   0.68554999   -7.5021598    810.82576  0.018691235  0.018390684         3951 
 3616000   0.67369989   -7.4997233    811.55046  0.018702767  0.018383915         3948 
 3617000   0.67600716   -7.5131259    811.38437  0.018693769  0.018377153         3952 
 3618000   0.66960426   -7.5168989    809.45202  0.018644095   0.01837039         3961 
 3619000   0.67128767    -7.534993    809.38688  0.018637443  0.018363629         3957 
 3620000   0.69342208   -7.5084787    811.51037  0.018681178   0.01835687         3959 
 3621000    0.6788373   -7.5192753    810.28467  0.018647811  0.018350124         3951 
 3622000   0.69044147   -7.5264325    810.14587  0.018639469  0.018343368         3960 
 3623000   0.67798183   -7.5038638    809.81269  0.018626661   0.01833661         3953 
 3624000   0.66694771    -7.517367    811.19888  0.018653396  0.018329861         3950 
 3625000   0.69105236   -7.5174145    811.13814  0.018646854  0.018323117         3961 
 3626000   0.66823276    -7.508934    811.45902  0.018649086   0.01831637         3955 
 3627000   0.66116805   -7.5399183    810.46644  0.018621139  0.018309632         3940 
 3628000    0.6654813   -7.5185925    812.04222  0.018652201  0.018302897         3958 
 3629000   0.66129038   -7.5096843    811.76883  0.018640783  0.018296158         3940 
 3630000   0.65869699   -7.5490841    810.32047  0.018602398  0.018289421         3962 
 3631000   0.66986703   -7.5202038    810.35954  0.018598172   0.01828269         3952 
 3632000    0.6636955   -7.5273404    810.61051  0.018598809  0.018275966         3946 
 3633000   0.68186392   -7.5037823    811.12871  0.018605576   0.01826924         3960 
 3634000   0.66031789    -7.514176    811.83241  0.018616594  0.018262524         3956 
 3635000    0.6635845   -7.5108105    810.10824  0.018571945  0.018255807         3964 
 3636000    0.6567887    -7.500291    810.26391  0.018570405  0.018249086         3951 
 3637000   0.69084186   -7.5221833    810.21741  0.018564234  0.018242377         3954 
 3638000   0.66070117    -7.503222    810.45592  0.018564594  0.018235664         3948 
 3639000   0.66864137   -7.5169762    809.81904  0.018544908  0.018228954         3956 
 3640000   0.67711921   -7.5080198    809.53851  0.018533391  0.018222241         3959 
 3641000   0.66520685   -7.5070289    811.08462  0.018563687  0.018215529         3955 
 3642000   0.67195047   -7.5386258      809.522  0.018522835  0.018208828         3947 
 3643000   0.67508913   -7.5158625    810.25291   0.01853447  0.018202129         3956 
 3644000   0.67031488   -7.5025287    810.45359  0.018533973  0.018195434         3952 
 3645000   0.66248078   -7.5091973    810.56087  0.018531341  0.018188739         3953 
 3646000   0.67444382   -7.5078136    810.47763  0.018524356  0.018182044         3957 
 3647000   0.65428019   -7.5189344    811.84076  0.018550424  0.018175354         3958 
 3648000   0.66837427   -7.5201926    811.09558  0.018528316  0.018168664         3950 
 3649000   0.66165502   -7.5401236    809.71727  0.018491762  0.018161982         3950 
 3650000   0.67252534   -7.5139685     811.0384  0.018516858  0.018155297         3948 
 3651000   0.66138326   -7.5490293    810.67032  0.018503385  0.018148612         3967 
 3652000   0.66034124   -7.5311579    809.97041  0.018482348   0.01814193         3942 
 3653000    0.6658753   -7.5301447    810.25161  0.018483703  0.018135251         3957 
 3654000   0.66208225   -7.5291011    810.52779  0.018484943  0.018128582         3945 
 3655000   0.66426607   -7.5402397    811.45006  0.018500913  0.018121909         3956 
 3656000   0.66435862   -7.5221497    811.16367  0.018489325  0.018115249         3956 
 3657000    0.6677629   -7.5132478    809.97818  0.018457255  0.018108586         3966 
 3658000   0.66690206   -7.5344045    809.43292  0.018439788  0.018101924         3958 
 3659000   0.67952735   -7.5135987    811.07723  0.018472197  0.018095266         3953 
 3660000    0.6657211   -7.5384606    811.44678  0.018475564  0.018088611         3952 
 3661000   0.65789707   -7.5245195    809.77349   0.01843243  0.018081961         3957 
 3662000   0.65584705   -7.5214832    809.83509  0.018428798  0.018075315         3966 
 3663000   0.65643185   -7.5371792    810.31695  0.018434729  0.018068666         3949 
 3664000   0.68254192   -7.5372374    810.65095  0.018437294  0.018062025         3948 
 3665000    0.6687182   -7.5231352    809.03752  0.018395578  0.018055383         3951 
 3666000   0.68347216   -7.5255156    809.39009  0.018398575  0.018048739         3959 
 3667000   0.66193235   -7.5085191    810.92703  0.018428484  0.018042095         3954 
 3668000   0.65804379   -7.4966833    809.20726  0.018384389  0.018035456         3939 
 3669000    0.6664528    -7.546268    811.00121  0.018420124   0.01802882         3954 
 3670000   0.66598817   -7.5091492    810.46672  0.018402968  0.018022194         3951 
 3671000   0.67721896   -7.5131538    811.34695  0.018417937  0.018015561         3951 
 3672000   0.66383079   -7.5011679    810.57653  0.018395437  0.018008936         3964 
 3673000   0.66512802   -7.5184964    809.88761  0.018374798  0.018002314         3951 
 3674000    0.6592739   -7.4998615     811.3276  0.018402459  0.017995692         3943 
 3675000   0.66234609   -7.5139373    809.90382  0.018365166  0.017989078         3951 
 3676000   0.67589166   -7.5213879    810.18385  0.018366518  0.017982457         3963 
 3677000   0.67519888   -7.5362239    810.79109  0.018375285  0.017975843         3962 
 3678000   0.67589198   -7.5245082    809.58206  0.018342896  0.017969233         3953 
 3679000   0.66379037   -7.5287196    811.88898  0.018390164  0.017962618         3961 
 3680000   0.67444359   -7.5161635     810.2215  0.018347407  0.017956008         3956 
 3681000   0.65745138   -7.4981931     810.8217  0.018356011  0.017949398         3951 
 3682000   0.64836005   -7.5120889    809.11399  0.018312375  0.017942796         3953 
 3683000   0.67347814    -7.535424    809.49159  0.018315947  0.017936203         3959 
 3684000    0.6673982    -7.523299    810.39679  0.018331451  0.017929596         3958 
 3685000   0.65847035    -7.523448    810.27958  0.018323826  0.017923006         3953 
 3686000   0.66980019   -7.5133878    809.75029  0.018306888  0.017916411         3959 
 3687000   0.66579009   -7.5290917    808.02867  0.018263011  0.017909822         3943 
 3688000   0.64686898   -7.5158259    810.89091  0.018322734  0.017903231         3957 
 3689000   0.66816556   -7.5214848    808.40377  0.018261583  0.017896641         3951 
 3690000   0.68114034    -7.537464    809.37161  0.018278492  0.017890057         3962 
 3691000   0.65956134    -7.525266    810.18999  0.018292016  0.017883472         3944 
 3692000   0.67132048   -7.5227761    810.86835  0.018302373  0.017876887         3935 
 3693000   0.66276937   -7.5236086    812.60825  0.018336679  0.017870317         3954 
 3694000   0.66239823    -7.522887    809.66051  0.018265216  0.017863736         3962 
 3695000   0.64515966   -7.5346578    811.07948  0.018292275  0.017857161         3948 
 3696000    0.6545712    -7.536503    810.21525   0.01826784  0.017850596         3955 
 3697000   0.65392439   -7.5183878    809.71964  0.018251728  0.017844025         3962 
 3698000   0.65737961   -7.5289931    811.42484  0.018285218  0.017837462         3953 
 3699000   0.65908308   -7.5376142    811.10528  0.018273076  0.017830904         3949 
 3700000   0.66540154    -7.527651    810.36419  0.018251446  0.017824336         3964 
 3701000   0.65759892   -7.5419389    810.60215  0.018251872   0.01781778         3958 
 3702000   0.67230034   -7.5458061    809.41343  0.018220184  0.017811221         3966 
 3703000   0.65557236   -7.5256154    809.84832   0.01822505   0.01780467         3959 
 3704000   0.67370071   -7.5307619     810.4451  0.018233556  0.017798114         3946 
 3705000     0.657628   -7.5101374    810.07386  0.018220285  0.017791572         3949 
 3706000   0.66915583   -7.5427431    809.09109   0.01819327  0.017785026         3952 
 3707000    0.6538663   -7.5411402    810.16384  0.018212477  0.017778481         3958 
 3708000   0.66218072   -7.5547541    809.46595  0.018191881  0.017771936         3966 
 3709000      0.67166   -7.5102072    810.60915  0.018212662  0.017765395         3948 
 3710000   0.65580137   -7.5523077    808.81157  0.018167376  0.017758855         3964 
 3711000   0.67211771   -7.5406423    809.84842  0.018185763  0.017752316         3956 
 3712000   0.65986842    -7.562507    810.72488  0.018200541   0.01774578         3960 
 3713000   0.65883698   -7.5514455     808.8541  0.018153652   0.01773925         3962 
 3714000   0.65660789   -7.5223708    808.83755  0.018148392  0.017732715         3948 
 3715000   0.64925051   -7.5412441    809.40804  0.018156304   0.01772619         3955 
 3716000   0.65520144    -7.550677    810.36601  0.018172901  0.017719663         3960 
 3717000   0.65400089   -7.5336224    809.99755  0.018159751  0.017713149         3944 
 3718000   0.64618792   -7.5378263    809.98101  0.018154496  0.017706624         3948 
 3719000    0.6528433   -7.5343391    809.39104  0.018136395  0.017700112         3962 
 3720000   0.66745781   -7.5556708     809.8912  0.018142724  0.017693596         3961 
 3721000    0.6541362   -7.5223473    809.76583  0.018135041  0.017687085         3965 
 3722000   0.63920984   -7.5375792    809.50078  0.018124234  0.017680576         3960 
 3723000    0.6597059   -7.5291556    808.35104  0.018093631  0.017674069         3958 
 3724000   0.65653326   -7.5427368    809.35596  0.018111259  0.017667569         3961 
 3725000   0.65205378   -7.5743044    809.92605  0.018119151  0.017661066         3952 
 3726000    0.6486423   -7.5359186    810.45316  0.018126077  0.017654565         3960 
 3727000   0.65532119   -7.5338873    809.32443  0.018095976  0.017648069         3961 
 3728000   0.63839149   -7.5093281    809.32766  0.018091194  0.017641571         3947 
 3729000   0.66703495   -7.5449241    809.90817  0.018099316  0.017635077         3956 
 3730000   0.65963221   -7.5410847    807.99483  0.018051717  0.017628584         3961 
 3731000   0.64600697    -7.519943    810.37711  0.018100087  0.017622093         3947 
 3732000   0.64529083   -7.5414451    811.16575  0.018112847  0.017615603         3953 
 3733000   0.65752366   -7.5541073    808.56627  0.018049966  0.017609121         3969 
 3734000   0.65008618   -7.5423557    810.20692  0.018081747  0.017602641         3944 
 3735000   0.64241016   -7.5471474    809.68638  0.018065292  0.017596168         3958 
 3736000   0.66096551   -7.5355363    808.73923   0.01803933  0.017589698         3959 
 3737000    0.6604949   -7.5563634    808.52735  0.018029778  0.017583224         3953 
 3738000   0.66211805   -7.5524659    808.00821  0.018013381   0.01757675         3965 
 3739000   0.65273624   -7.5347223    808.96409  0.018029867  0.017570279         3957 
 3740000   0.65282299   -7.5331663     808.7952  0.018021283  0.017563808         3967 
 3741000   0.64118928   -7.5399759    809.54073  0.018033073  0.017557349         3957 
 3742000   0.65507241   -7.5450315    809.15459  0.018019655  0.017550887         3960 
 3743000   0.64768173   -7.5582708    810.52837  0.018045426  0.017544425         3959 
 3744000   0.64993701   -7.5102438    810.80749  0.018046819  0.017537973         3962 
 3745000   0.65024795   -7.5568002    809.01398  0.018002091  0.017531527         3960 
 3746000   0.64477313   -7.5544924    810.92328   0.01803976  0.017525082         3958 
 3747000   0.65177501    -7.536532    808.78978  0.017987496  0.017518636         3945 
 3748000   0.64238019   -7.5454726    809.32268  0.017994545  0.017512196         3959 
 3749000   0.65709741   -7.5441125    808.90069  0.017980366  0.017505758         3969 
 3750000   0.65517662   -7.5471533    810.02939  0.018000653  0.017499314         3969 
 3751000   0.64937169   -7.5501931     810.1385  0.017998278  0.017492879         3965 
 3752000   0.64348873   -7.5529018    810.56626  0.018002982  0.017486446         3956 
 3753000   0.65400753   -7.5250307    809.45291  0.017973464  0.017480014         3963 
 3754000   0.65333937   -7.5503738    810.03232  0.017981538   0.01747359         3959 
 3755000   0.64989123   -7.5509717    810.50423  0.017987222  0.017467163         3963 
 3756000   0.63461536   -7.5391761    810.16314  0.017974866  0.017460741         3956 
 3757000    0.6449468   -7.5504764    808.69235  0.017937458  0.017454318         3968 
 3758000   0.64233782   -7.5560908    808.80074  0.017935088  0.017447895         3968 
 3759000     0.663425   -7.5555176    810.40296  0.017965837  0.017441478         3960 
 3760000   0.65869893   -7.5482856    808.63299  0.017921831  0.017435063         3950 
 3761000   0.64173027   -7.5545782    807.44821  0.017890814  0.017428651         3956 
 3762000   0.65495824   -7.5538507    808.13805  0.017901339  0.017422236         3958 
 3763000   0.65905353   -7.5356236    807.90684  0.017891462   0.01741583         3951 
 3764000   0.66982105   -7.5331858     808.6331  0.017902787  0.017409419         3954 
 3765000   0.65656979   -7.5414338    809.99999  0.017928287  0.017403018         3955 
 3766000   0.64920922   -7.5562053    809.34065  0.017908936  0.017396616         3948 
 3767000   0.64563919   -7.5583602    807.98372  0.017874164   0.01739022         3958 
 3768000   0.66105914    -7.537466    808.61234  0.017883323  0.017383821         3953 
 3769000   0.65462149   -7.5472522    809.35244  0.017894942  0.017377425         3962 
 3770000   0.64382859   -7.5387661    810.01315    0.0179048  0.017371033         3964 
 3771000   0.64885784   -7.5294401    809.49608  0.017888625  0.017364638         3958 
 3772000   0.65759451   -7.5572813    808.90024  0.017870719   0.01735825         3950 
 3773000   0.64811015   -7.5434482    807.76628  0.017840937   0.01735187         3946 
 3774000   0.65234242   -7.5495356    808.45531  0.017851424  0.017345494         3963 
 3775000   0.64018751   -7.5454176    807.08733  0.017816497   0.01733911         3956 
 3776000   0.64142436   -7.5396248    809.47253  0.017864418  0.017332734         3955 
 3777000   0.64170007   -7.5668638    810.77021   0.01788832  0.017326366         3969 
 3778000   0.65111628   -7.5250662    808.22263  0.017827392      0.01732         3955 
 3779000   0.64075588   -7.5468866    809.26851  0.017845738  0.017313627         3960 
 3780000   0.63943205   -7.5395428    809.28437  0.017841366  0.017307265         3964 
 3781000   0.65551535   -7.5504736    807.77746  0.017803435  0.017300901         3951 
 3782000   0.64847131   -7.5363953    810.66562  0.017862366  0.017294536         3953 
 3783000   0.65239741    -7.552621    809.01458  0.017821275  0.017288174         3956 
 3784000   0.64644006   -7.5473392    807.67486  0.017787061  0.017281819         3967 
 3785000   0.64941039   -7.5664715    807.79185  0.017784937  0.017275463         3956 
 3786000   0.65046771   -7.5710367    808.86341  0.017803826  0.017269107         3961 
 3787000   0.64539078   -7.5366217    808.90516  0.017800043  0.017262756         3951 
 3788000   0.64754559   -7.5465491    810.24021  0.017824714   0.01725641         3962 
 3789000   0.64232392   -7.5573852    809.34449   0.01780031  0.017250065         3961 
 3790000   0.64054464   -7.5252166    809.92353  0.017808345  0.017243727         3961 
 3791000   0.62852101    -7.547845    809.10196  0.017785588  0.017237383         3959 
 3792000   0.63811216   -7.5621585    808.35918  0.017764574  0.017231046         3964 
 3793000   0.63309669   -7.5449446     807.6816  0.017745004  0.017224706         3959 
 3794000   0.63821551   -7.5485201    808.31508  0.017754241  0.017218368         3959 
 3795000   0.64097466   -7.5673471    810.04562  0.017787563   0.01721204         3959 
 3796000   0.64118672   -7.5523406    809.28921  0.017766272  0.017205711         3956 
 3797000   0.63301332    -7.545639    809.56632  0.017767674  0.017199386         3961 
 3798000   0.65440396   -7.5383943    809.34399  0.017758118  0.017193064         3968 
 3799000   0.62210557   -7.5489081     807.6702  0.017716728  0.017186744         3955 
 3800000   0.64528261   -7.5523007    808.10482  0.017721597  0.017180429         3952 
 3801000   0.64093111   -7.5323701    807.74521   0.01770905   0.01717412         3966 
 3802000    0.6645847   -7.5311402    808.90883  0.017729897   0.01716781         3963 
 3803000    0.6462004   -7.5440442    808.30162   0.01771193    0.0171615         3967 
 3804000   0.65185092   -7.5720235      809.001  0.017722595  0.017155197         3963 
 3805000   0.64466483   -7.5519182    808.08311  0.017697834  0.017148894         3959 
 3806000   0.62723617   -7.5672066    807.73826  0.017685634  0.017142597         3958 
 3807000   0.62443516   -7.5389989    809.31852  0.017715579  0.017136297         3962 
 3808000   0.63871766   -7.5872812    810.14809  0.017729081  0.017129994         3966 
 3809000   0.65616266   -7.5414974    809.32936  0.017706514  0.017123699         3953 
 3810000   0.64629205   -7.5780923    807.95309  0.017671765  0.017117403         3960 
 3811000   0.64633486   -7.5589407    808.08168   0.01766994  0.017111112         3971 
 3812000   0.64536929   -7.5481481    808.15369  0.017666878  0.017104819         3961 
 3813000   0.64508668   -7.5469989    809.07718  0.017682428  0.017098533         3954 
 3814000   0.63183469   -7.5459738    810.38853  0.017706444  0.017092247         3958 
 3815000   0.64369994   -7.5542209    808.47653  0.017660038   0.01708596         3960 
 3816000   0.65479638   -7.5580505    808.28923   0.01765132   0.01707968         3967 
 3817000   0.63023112   -7.5786362    808.00326  0.017640452  0.017073398         3971 
 3818000   0.62668692   -7.5457958    808.64353  0.017649806  0.017067123         3961 
 3819000    0.6582806   -7.5657046    808.49274  0.017641894   0.01706085         3958 
 3820000   0.64408799   -7.5819945    808.89795  0.017646116  0.017054576         3964 
 3821000   0.62809832   -7.5467957    808.31512  0.017628787   0.01704831         3963 
 3822000   0.64032322    -7.550931    807.65072  0.017609688  0.017042045         3955 
 3823000   0.64027836   -7.5528933    809.61213  0.017647836  0.017035785         3960 
 3824000   0.62885789   -7.5773871    809.17362  0.017633665   0.01702952         3963 
 3825000   0.63452293    -7.555172    808.00706   0.01760364  0.017023262         3968 
 3826000   0.63665176   -7.5389442    809.60457  0.017633834  0.017017002         3962 
 3827000   0.65194685   -7.5576065    809.20573  0.017620541  0.017010745         3947 
 3828000   0.64171392   -7.5629903    807.53292  0.017579522  0.017004493         3959 
 3829000   0.64723919   -7.5522994    808.10492   0.01758738  0.016998242         3962 
 3830000   0.62667528   -7.5650333    807.89637   0.01757825  0.016991991         3965 
 3831000   0.62820398    -7.539319    807.38963  0.017562639  0.016985748         3963 
 3832000   0.62096721   -7.5499916    808.34139  0.017578753  0.016979502         3955 
 3833000   0.64037807   -7.5726273    808.20158  0.017571127  0.016973258         3968 
 3834000   0.63172093   -7.5836497    808.05162  0.017563285  0.016967019         3962 
 3835000   0.62351093    -7.543275    807.92556  0.017555966  0.016960779         3959 
 3836000    0.6413947   -7.5716838    809.72059  0.017590385  0.016954543         3959 
 3837000   0.63610258   -7.5600125    808.25116  0.017553887  0.016948308         3966 
 3838000   0.64034173   -7.5535103    807.78953   0.01753929  0.016942077         3963 
 3839000   0.64197487   -7.5626716    809.00242  0.017561049   0.01693586         3959 
 3840000   0.64334784   -7.5463523    807.59584  0.017525951  0.016929639         3968 
 3841000   0.63650027   -7.5574589    808.98123  0.017551445  0.016923422         3951 
 3842000   0.65654668   -7.5554604    809.23229  0.017552323  0.016917205         3958 
 3843000   0.63992762   -7.5539067    809.19684  0.017546987  0.016910992         3976 
 3844000   0.64673164   -7.5587745    806.50321  0.017484027  0.016904778         3961 
 3845000   0.63889964   -7.5526691    809.56718  0.017545886  0.016898568         3964 
 3846000   0.64787993   -7.5773256    807.85638  0.017504255  0.016892357         3954 
 3847000   0.62836763    -7.545739    807.97805   0.01750234  0.016886152         3963 
 3848000   0.63598566   -7.5597521    807.69543  0.017491672  0.016879953         3956 
 3849000   0.64114718   -7.5655962    808.64706  0.017507731  0.016873752         3959 
 3850000   0.63782467   -7.5502398    807.92524  0.017487559  0.016867555         3944 
 3851000   0.63555128   -7.5897235    808.02414  0.017485158  0.016861351         3969 
 3852000   0.63099879   -7.5710945    809.33744  0.017509031  0.016855163         3966 
 3853000   0.65281977    -7.561387    809.02729  0.017497779  0.016848969         3961 
 3854000   0.64943231   -7.5716967    807.09818  0.017451526  0.016842782         3958 
 3855000   0.62793551   -7.5819445    807.24435  0.017450159  0.016836599         3959 
 3856000   0.62224832   -7.5652003    808.46344   0.01747198  0.016830413         3956 
 3857000   0.65418572   -7.5611615    807.62053  0.017449238  0.016824239         3948 
 3858000   0.63747627   -7.5626299    807.55759  0.017443355  0.016818064         3955 
 3859000   0.63107044   -7.5832394    807.63787  0.017440569  0.016811885         3962 
 3860000    0.6410118   -7.5625087    807.69729  0.017437333   0.01680571         3963 
 3861000   0.62514242   -7.5700038    808.28154  0.017445427  0.016799538         3965 
 3862000   0.62180282   -7.5609765     808.3321  0.017442001  0.016793369         3968 
 3863000   0.63295138   -7.5712658    808.08286  0.017432109  0.016787198         3963 
 3864000   0.63995614    -7.550392    807.59678  0.017417115  0.016781034         3958 
 3865000   0.65736363   -7.5684921    809.60313  0.017455867   0.01677487         3971 
 3866000   0.64417637   -7.5728251    807.64509  0.017409146  0.016768718         3955 
 3867000   0.63109725   -7.5629172     808.3987  0.017420884  0.016762561         3966 
 3868000   0.63170673   -7.5649368     807.2662  0.017391981   0.01675641         3967 
 3869000   0.63879829   -7.5978979     809.6339  0.017438483  0.016750258         3961 
 3870000   0.63958068   -7.5632392    807.62413  0.017390701  0.016744107         3965 
 3871000   0.63680851   -7.5813384    808.40967  0.017403119  0.016737962         3962 
 3872000    0.6278314   -7.5695181    807.66692  0.017382639  0.016731819         3960 
 3873000   0.63882574   -7.5601437    809.63172  0.017420426   0.01672568         3950 
 3874000   0.61674172   -7.5655691    808.40112  0.017389458  0.016719552         3958 
 3875000   0.64185614   -7.5462662    808.16952   0.01737999  0.016713423         3953 
 3876000   0.62901619   -7.5683443    808.77152  0.017388449  0.016707295         3968 
 3877000   0.64945895   -7.5741405    808.16617  0.017370952  0.016701161         3961 
 3878000   0.63604618   -7.5671075    809.25935  0.017389964  0.016695034         3964 
 3879000    0.6291996     -7.54736    808.64608  0.017372306  0.016688916         3965 
 3880000   0.63219411   -7.5591472     806.8718  0.017329721  0.016682793         3958 
 3881000   0.63238122   -7.5840036    806.75269  0.017322698  0.016676675         3968 
 3882000   0.63216962   -7.5647183    807.77444  0.017340169  0.016670556         3956 
 3883000   0.62525817   -7.5832432    807.81888  0.017336657  0.016664443         3952 
 3884000   0.63638094   -7.5721326    808.73591  0.017351869  0.016658335         3964 
 3885000    0.6310897   -7.5608186    807.79269  0.017327171  0.016652224         3947 
 3886000   0.63480523   -7.5565622    807.57983  0.017318147  0.016646118         3961 
 3887000   0.62057313   -7.5676967    806.48966  0.017290319  0.016640009         3968 
 3888000   0.63636646   -7.5612664    807.57291   0.01730909  0.016633904         3963 
 3889000   0.64092962     -7.58597     808.9315  0.017333751  0.016627805         3970 
 3890000   0.62247792   -7.5741601    808.74425  0.017325284  0.016621707         3954 
 3891000    0.6274632    -7.581102    806.52536  0.017273309  0.016615616         3968 
 3892000   0.63919962   -7.5552808    807.66129  0.017293193  0.016609522         3965 
 3893000   0.63425675   -7.5687277    807.49539    0.0172852   0.01660343         3966 
 3894000   0.63999122   -7.5597132    807.78543  0.017286968  0.016597334         3955 
 3895000   0.60803166   -7.5901324    808.32941  0.017294168  0.016591249         3960 
 3896000   0.63076894   -7.5897419    808.31849  0.017289496  0.016585162         3954 
 3897000   0.62043654   -7.5929207    808.84507  0.017296319  0.016579083         3960 
 3898000    0.6363842   -7.5679257    808.06378  0.017275179  0.016573009         3962 
 3899000   0.63101617   -7.5888613    807.34209  0.017255324  0.016566934         3958 
 3900000   0.63436505   -7.5826893    808.43656  0.017274286   0.01656086         3965 
 3901000   0.62097568   -7.5772084    807.46209  0.017249041  0.016554787         3960 
 3902000   0.62391752   -7.5868036    809.68535  0.017292101  0.016548725         3958 
 3903000   0.63107979   -7.5875057    809.13005  0.017275814  0.016542662         3961 
 3904000   0.62188749   -7.5736331      807.925  0.017245667  0.016536594         3962 
 3905000   0.63725245   -7.5724403    807.50574  0.017232304  0.016530534         3971 
 3906000   0.63114718   -7.6033549    807.35245  0.017224621  0.016524475         3963 
 3907000   0.62619373   -7.5790426    807.67613  0.017227117  0.016518422         3960 
 3908000    0.6251753   -7.5829591    807.55611  0.017220149   0.01651237         3967 
 3909000   0.62714405   -7.5744198    808.55972  0.017237139  0.016506318         3960 
 3910000   0.62177552   -7.5792839    807.75432  0.017215565   0.01650027         3972 
 3911000   0.62653256   -7.5794522    806.65407   0.01718772  0.016494225         3963 
 3912000   0.61575735   -7.5569634    807.87963  0.017209433  0.016488181         3954 
 3913000   0.63514899   -7.5668804    807.47196  0.017196353  0.016482144         3970 
 3914000   0.62340723   -7.5672743    807.80112  0.017198968  0.016476102         3961 
 3915000   0.62256912   -7.5817715    807.43565  0.017186796  0.016470069         3954 
 3916000   0.62190853   -7.5704589    808.19012  0.017198462  0.016464044         3955 
 3917000   0.62203186   -7.5757476    807.45998  0.017178537  0.016458011         3958 
 3918000   0.62470767   -7.5844112    806.89792  0.017162198  0.016451983         3968 
 3919000   0.61724388   -7.5861672    805.74463  0.017133296  0.016445957         3970 
 3920000   0.62975777   -7.5742422    806.46416  0.017144221  0.016439938         3970 
 3921000   0.62463568   -7.5825363     807.7445   0.01716706  0.016433918         3964 
 3922000   0.62771132   -7.5779372    807.04831   0.01714789  0.016427899         3954 
 3923000   0.62090349   -7.5733317    806.68074  0.017135711  0.016421888         3964 
 3924000   0.62447192   -7.5750649    807.33918  0.017145327  0.016415876         3955 
 3925000   0.62637532   -7.5893503    808.08253  0.017156742  0.016409867         3955 
 3926000   0.61773341   -7.5614325    806.89024  0.017127064  0.016403862         3959 
 3927000   0.61913617   -7.5862702    807.91753  0.017144502  0.016397856         3960 
 3928000   0.63409047    -7.586224    805.69303  0.017092944  0.016391858         3962 
 3929000   0.62194333   -7.5726433    806.78453  0.017111745  0.016385861         3960 
 3930000   0.61581582    -7.570488     806.8458  0.017108689  0.016379865         3959 
 3931000   0.63247529   -7.6100218    807.17854  0.017111391  0.016373869         3969 
 3932000   0.62037405   -7.5775312    807.58499  0.017115653  0.016367872         3961 
 3933000    0.6358861   -7.5840356    806.87679  0.017096296  0.016361879         3958 
 3934000   0.62834574   -7.5863909    808.78013  0.017132268  0.016355892         3957 
 3935000   0.62622748   -7.5876527    808.05787  0.017112619  0.016349906         3962 
 3936000   0.61671353   -7.5868718    808.00541  0.017107161  0.016343926         3968 
 3937000   0.61635287   -7.5905244    807.68569  0.017096048  0.016337945         3966 
 3938000    0.6126335   -7.5919185    807.94476  0.017097189  0.016331971         3956 
 3939000   0.61906962   -7.5678637    806.56825  0.017063727  0.016325995         3961 
 3940000   0.63925926   -7.5741938    806.99896  0.017068506   0.01632002         3966 
 3941000   0.59817689   -7.6119013    806.68963  0.017057634  0.016314049         3962 
 3942000   0.62498612   -7.6018272    808.01251  0.017081272  0.016308079         3957 
 3943000    0.6250142    -7.579603     808.0963  0.017078711   0.01630211         3966 
 3944000   0.62775674   -7.5713584    806.29555  0.017036333  0.016296143         3964 
 3945000   0.62893121    -7.578295    809.02682  0.017089709  0.016290184         3956 
 3946000   0.61366625   -7.5880178     807.6675  0.017056671  0.016284224         3955 
 3947000   0.63891069   -7.5804102    807.09347   0.01704023   0.01627827         3964 
 3948000   0.60777356   -7.5874722     808.1015  0.017057191  0.016272317         3955 
 3949000   0.60845436    -7.601175    807.45203  0.017039167  0.016266362         3967 
 3950000   0.61348501   -7.5985576    807.87334  0.017043741  0.016260416         3964 
 3951000   0.61826149   -7.5782202     807.1039  0.017023199  0.016254471         3949 
 3952000   0.62551274   -7.5709247    808.82057   0.01705509  0.016248529         3962 
 3953000   0.62097188   -7.5847301    806.80673  0.017008321   0.01624259         3956 
 3954000   0.60991906   -7.6070389    807.42329  0.017017014  0.016236648         3964 
 3955000   0.62199973   -7.5918261    808.19992  0.017029075  0.016230713         3962 
 3956000   0.60932843   -7.5897651    807.39564  0.017007829  0.016224781         3955 
 3957000   0.62184157   -7.5935732    808.47153  0.017026188  0.016218852         3963 
 3958000   0.61676316   -7.6081816    807.67362  0.017005087  0.016212921         3962 
 3959000   0.62362569   -7.5928737    807.49389  0.016997009  0.016206994         3955 
 3960000   0.62093372     -7.57891    807.39102  0.016990552  0.016201069         3960 
 3961000   0.60824045   -7.5873122    806.28386  0.016962969  0.016195146         3956 
 3962000   0.62648578   -7.5896715    808.53309  0.017005996  0.016189226         3951 
 3963000   0.62644927   -7.5969267    807.65116   0.01698316   0.01618331         3961 
 3964000   0.61163415   -7.6053459    807.02215  0.016965652  0.016177394         3960 
 3965000   0.59553755   -7.5949701    807.60553  0.016973635  0.016171478         3962 
 3966000   0.63220295   -7.6048425    807.60833  0.016969414  0.016165568         3956 
 3967000   0.60748675   -7.5859143    808.42364  0.016982263  0.016159659         3959 
 3968000    0.6220385   -7.5900568    807.05657  0.016949273  0.016153753         3956 
 3969000   0.60599504   -7.5844822      806.635  0.016936151  0.016147852         3969 
 3970000   0.61571391   -7.5942686    806.95799  0.016938665  0.016141956         3961 
 3971000   0.61382055   -7.6077034     806.0428  0.016915194  0.016136059         3959 
 3972000   0.62778779   -7.5860208    806.62228  0.016923093  0.016130162         3952 
 3973000   0.62597453   -7.5775141    805.99019  0.016905575  0.016124266         3973 
 3974000   0.60606079   -7.6124806    807.25732  0.016927892  0.016118375         3944 
 3975000    0.6080525   -7.6077006    807.53669   0.01692949  0.016112484         3953 
 3976000   0.61799201   -7.6158711    807.23915  0.016918996    0.0161066         3968 
 3977000   0.63102328   -7.5896145    807.95565  0.016929755  0.016100719         3962 
 3978000   0.62729807   -7.5885294     807.5083  0.016916128  0.016094835         3964 
 3979000   0.62225063   -7.5824148    807.30391  0.016907596  0.016088954         3967 
 3980000   0.62518826   -7.5723685    807.42344  0.016905851  0.016083085         3960 
 3981000   0.61500522   -7.5869761    806.93086  0.016891293  0.016077211         3969 
 3982000   0.61585972   -7.5776584     807.4686  0.016898305   0.01607134         3965 
 3983000   0.61403822   -7.5797295    807.65068  0.016897872   0.01606547         3964 
 3984000   0.61569639   -7.5811402    807.57968  0.016892145  0.016059608         3968 
 3985000   0.60083289   -7.6192176    807.51282  0.016886508  0.016053743         3962 
 3986000   0.61548023   -7.5928946    806.88725  0.016869193  0.016047875         3954 
 3987000   0.61275779   -7.5939234    805.52759  0.016836544  0.016042014         3967 
 3988000    0.6041115   -7.5832367    806.14321  0.016845186  0.016036155         3964 
 3989000   0.60526019   -7.6140908    808.42662  0.016888665  0.016030304         3951 
 3990000   0.62212739   -7.5930182    807.88447  0.016873109  0.016024452         3970 
 3991000   0.59650181   -7.6013196    808.16621  0.016874764  0.016018606         3951 
 3992000   0.61908133   -7.5900564    807.42604  0.016855086  0.016012758         3970 
 3993000   0.61366538   -7.6002214    806.36073  0.016828632  0.016006912         3971 
 3994000   0.60758897   -7.5916349     808.1083  0.016860881  0.016001073         3958 
 3995000   0.62959766   -7.6025762    807.13728  0.016836406  0.015995238         3968 
 3996000    0.6055826   -7.5999562    806.77644  0.016824667  0.015989401         3966 
 3997000   0.61348313   -7.6059468    805.98458  0.016803948  0.015983568         3958 
 3998000   0.60822012   -7.5974157    806.32579  0.016806857  0.015977735         3968 
 3999000   0.60382892   -7.5956159    807.90628   0.01683559  0.015971897         3962 
 4000000   0.61634879   -7.6167945    808.51279  0.016844016  0.015966068         3964 
 4001000   0.60194974   -7.5996363    806.56597  0.016799258  0.015960246         3960 
 4002000   0.59777498   -7.5939963    806.25641  0.016788614  0.015954425         3965 
 4003000   0.59635015   -7.5799731    807.36661  0.016807532  0.015948607         3959 
 4004000   0.61780422   -7.6070562    806.78144  0.016791156  0.015942794         3967 
 4005000   0.61878018   -7.6049462    806.88659  0.016789151  0.015936978         3967 
 4006000   0.60780026   -7.6003798    806.32903  0.016773361  0.015931166         3949 
 4007000   0.61820683   -7.5974918    805.99569  0.016762243  0.015925359         3963 
 4008000   0.61355025   -7.5823011    805.87565  0.016755565  0.015919551         3965 
 4009000   0.60784924   -7.5761937    805.01544  0.016733505  0.015913752         3960 
 4010000   0.62046722   -7.5956411    806.28401  0.016755694  0.015907947         3962 
 4011000    0.6234152    -7.605965    806.48587  0.016755711  0.015902148         3962 
 4012000   0.61457294   -7.5886137    804.34231   0.01670701  0.015896354         3962 
 4013000   0.60892169   -7.6125914    806.52755  0.016748225   0.01589056         3962 
 4014000   0.59709041   -7.6010721    807.13454  0.016756655  0.015884769         3952 
 4015000   0.60689372   -7.6098369    805.60375  0.016720709  0.015878979         3967 
 4016000   0.60705705   -7.6176699     805.2857  0.016709946  0.015873191         3966 
 4017000   0.60622713   -7.5969691     806.8862  0.016738988  0.015867405         3964 
 4018000   0.60822783   -7.6132128    806.78817  0.016732789   0.01586162         3959 
 4019000   0.59922772   -7.5828142    806.73244   0.01672747  0.015855837         3967 
 4020000   0.59844025   -7.6086372    806.69815  0.016722599  0.015850061         3965 
 4021000   0.61181417    -7.604842    808.70044  0.016759936  0.015844288         3967 
 4022000   0.60492923   -7.5932024    807.59201  0.016732803  0.015838519         3943 
 4023000   0.60081853   -7.5908657    807.71534  0.016731199  0.015832747         3960 
 4024000   0.60002825   -7.6124419     807.0829  0.016713943  0.015826979         3957 
 4025000   0.60121678   -7.6233614    806.27822  0.016693131  0.015821212         3950 
 4026000    0.5986956   -7.6106951    805.45135  0.016671869  0.015815442         3955 
 4027000   0.61069808   -7.6255408    806.57927   0.01669107   0.01580968         3969 
 4028000   0.61603017     -7.60386    806.88086  0.016693166  0.015803922         3962 
 4029000   0.60530446   -7.5982801    806.60011  0.016683216  0.015798165         3958 
 4030000   0.60633224   -7.5998243    806.33797  0.016673655  0.015792411         3970 
 4031000    0.6037746   -7.6144305    806.25993  0.016667906  0.015786661         3965 
 4032000   0.60637746   -7.6036982     805.8787  0.016655892  0.015780908         3961 
 4033000   0.60455383    -7.612723    807.02295  0.016675406  0.015775167         3948 
 4034000   0.60385946   -7.6159874    807.40731  0.016679212  0.015769423         3959 
 4035000   0.61335901   -7.5983117    807.00538  0.016666778  0.015763675         3967 
 4036000   0.61344683   -7.6299174     805.1901  0.016625167  0.015757931         3962 
 4037000   0.60023671   -7.6036914    805.82999  0.016634258  0.015752196         3961 
 4038000   0.62475164   -7.5861519    806.55424  0.016645085  0.015746466         3960 
 4039000   0.59650534   -7.5992603    805.36877  0.016616505  0.015740733         3977 
 4040000   0.58546567   -7.6057978    805.95671   0.01662452     0.015735         3957 
 4041000   0.60492583   -7.6128945    805.68678  0.016614839  0.015729273         3954 
 4042000   0.60263606   -7.6193547    806.70276  0.016631675   0.01572355         3958 
 4043000   0.60357913   -7.5970623    806.77518  0.016629054  0.015717831         3965 
 4044000   0.61083534   -7.6032417    806.98787  0.016629325  0.015712113         3969 
 4045000   0.60388068   -7.5996365    805.98758  0.016604606  0.015706399         3976 
 4046000   0.60763567   -7.6037175     805.7743  0.016596109  0.015700681         3969 
 4047000   0.60162489   -7.6109198    806.45484  0.016606022  0.015694968         3960 
 4048000   0.61376211   -7.6059428    807.59858  0.016625465  0.015689258         3968 
 4049000   0.59686209   -7.6076214    806.55472  0.016599875  0.015683552         3962 
 4050000   0.60261464   -7.6114786    806.76162  0.016600033  0.015677848         3957 
 4051000   0.60111722   -7.6142561    806.33939   0.01658725  0.015672153         3950 
 4052000   0.59211122   -7.6277851    806.12591  0.016578766  0.015666451         3967 
 4053000   0.60308866   -7.6076839    806.70144  0.016586509   0.01566075         3961 
 4054000   0.59652762   -7.6053936    806.75638  0.016583547  0.015655056         3963 
 4055000   0.59648464   -7.6006525    806.91545  0.016582726  0.015649365         3955 
 4056000   0.60705071    -7.595315    806.77323  0.016575716  0.015643677         3962 
 4057000    0.6011474    -7.604871    805.82763  0.016552207  0.015637989         3957 
 4058000   0.60796989   -7.6196883    805.62348  0.016543935  0.015632302         3971 
 4059000   0.59869414   -7.6320234    805.11508  0.016529422  0.015626613         3970 
 4060000   0.60043505   -7.6242882    806.36716   0.01655105  0.015620933         3962 
 4061000   0.60835929   -7.6118224    806.84881  0.016556858   0.01561526         3966 
 4062000   0.60312079   -7.6110812    806.34301  0.016542405   0.01560958         3951 
 4063000   0.61414479   -7.6118193    805.17455  0.016514368  0.015603907         3973 
 4064000   0.59089927   -7.6147365     807.3794  0.016555516  0.015598241         3960 
 4065000   0.60751645   -7.6131514     807.0302  0.016544285   0.01559257         3964 
 4066000   0.61310568   -7.6194198    805.59503  0.016510802  0.015586902         3962 
 4067000   0.61894747   -7.5990893    806.01956  0.016515441  0.015581241         3970 
 4068000   0.60067124   -7.6299555    806.09381  0.016512902  0.015575583         3965 
 4069000   0.61003694   -7.6219662    807.44909    0.0165366  0.015569925         3955 
 4070000   0.61131827   -7.6186707    805.20448  0.016486578  0.015564273         3969 
 4071000   0.59892176   -7.6316365    806.53657  0.016509796  0.015558616         3969 
 4072000   0.59274499   -7.6074682    807.14493  0.016518192  0.015552968         3956 
 4073000   0.60760471   -7.6231255    807.40962  0.016519552  0.015547321         3966 
 4074000   0.59750387   -7.6062618    807.14835  0.016510153  0.015541672         3960 
 4075000   0.61701502   -7.5933016    805.86662   0.01647989   0.01553603         3962 
 4076000   0.59447744    -7.605988    805.18305  0.016461871  0.015530391         3960 
 4077000   0.60819147   -7.6056311     806.7509   0.01648988  0.015524751         3968 
 4078000   0.58801173   -7.6073065    806.63621  0.016483493   0.01551911         3967 
 4079000   0.59130753   -7.5946901    804.83186  0.016442589  0.015513475         3964 
 4080000   0.60592321   -7.6215244    806.21155  0.016466739  0.015507843         3955 
 4081000    0.5890052    -7.635305      805.288  0.016443845  0.015502215         3960 
 4082000   0.60306253   -7.6146524    805.16383  0.016437282  0.015496584         3969 
 4083000   0.59597897   -7.6383962    805.78091  0.016445851  0.015490958         3960 
 4084000   0.59835343   -7.6187743    805.67021  0.016439565  0.015485333         3964 
 4085000   0.61068988   -7.6123049    806.02847  0.016442849  0.015479715         3961 
 4086000   0.60930615   -7.6185992    806.96191  0.016457862  0.015474101         3965 
 4087000    0.6023124   -7.6273619    805.52737  0.016424585  0.015468486         3969 
 4088000    0.6125646   -7.6060425    805.98224   0.01642984  0.015462873         3955 
 4089000   0.60129299   -7.6239007    805.87729  0.016423683  0.015457266         3968 
 4090000   0.60005246   -7.6306569    807.10433  0.016444669  0.015451656         3970 
 4091000   0.60451212   -7.6241592    805.49278  0.016407822  0.015446045         3962 
 4092000   0.58671346   -7.6195833    805.89967  0.016412098  0.015440441         3962 
 4093000   0.60681331   -7.5869107    805.12681  0.016392353  0.015434834         3957 
 4094000   0.59531796   -7.6178923    805.79669  0.016401984  0.015429236         3965 
 4095000   0.59839042   -7.6225073     805.4655  0.016391239  0.015423636         3975 
 4096000    0.5891648   -7.6201739    805.69248  0.016391856  0.015418042         3958 
 4097000   0.59589847   -7.6383304    805.10315  0.016375867   0.01541245         3952 
 4098000   0.59765515   -7.6207022    806.67319  0.016403798  0.015406863         3965 
 4099000   0.59002879   -7.6303858     806.7565   0.01640149  0.015401273         3968 
 4100000   0.59719367   -7.5847984    807.19682  0.016406439  0.015395695         3961 
 4101000   0.58674199   -7.6264939    805.42908  0.016366518  0.015390112         3962 
 4102000     0.591697   -7.6211719    805.57142   0.01636542  0.015384534         3969 
 4103000   0.60644138   -7.6123632    805.45478  0.016359062  0.015378957         3961 
 4104000   0.59459949   -7.6173122    805.86254  0.016363356  0.015373384         3969 
 4105000   0.59873143   -7.5933293    804.51671  0.016332049  0.015367815         3963 
 4106000   0.59829293   -7.6251566    805.16333  0.016341194  0.015362245         3974 
 4107000   0.58549992   -7.6187195    804.75133  0.016328856   0.01535668         3965 
 4108000   0.59528047   -7.6108701    804.69521  0.016323742  0.015351112         3965 
 4109000   0.58395666   -7.6249801    805.88293  0.016343858   0.01534555         3966 
 4110000     0.581537   -7.6304333    805.31316  0.016328328  0.015339986         3960 
 4111000   0.59622564   -7.6216093      806.638  0.016351212  0.015334424         3971 
 4112000   0.58687581   -7.6143408    806.07823  0.016335891  0.015328868         3963 
 4113000   0.60571765   -7.6248943    805.90036  0.016328316  0.015323311         3968 
 4114000   0.60323164    -7.621775     805.2059   0.01631028  0.015317755         3975 
 4115000   0.60597259   -7.5996876    805.93186  0.016321018  0.015312205         3969 
 4116000   0.58321123   -7.6090927    805.28914   0.01630404  0.015306659         3971 
 4117000   0.60033133   -7.6053583    805.54387  0.016305236  0.015301115         3963 
 4118000   0.58663793   -7.6238191    805.67089  0.016303847  0.015295573         3960 
 4119000   0.59016454   -7.5996103    805.34674  0.016293331  0.015290039         3960 
 4120000   0.60135818   -7.6378707    805.36229   0.01628969  0.015284501         3972 
 4121000   0.59308857   -7.6107101    806.44129  0.016307557  0.015278967         3960 
 4122000   0.59378267   -7.6207548    806.23604  0.016299451  0.015273438         3970 
 4123000   0.59571999   -7.6161252     806.4945  0.016300722   0.01526791         3960 
 4124000   0.60363299   -7.6359743    806.24453  0.016291718  0.015262388         3959 
 4125000   0.59148582   -7.6317114    804.90022   0.01626061  0.015256865         3959 
 4126000   0.58728781   -7.6208088    804.91442  0.016256956  0.015251344         3967 
 4127000   0.58562647   -7.6384613    804.88045  0.016252331  0.015245824         3954 
 4128000   0.58442593   -7.6103756     804.9476   0.01624975  0.015240305         3964 
 4129000   0.60563142   -7.6118647    807.01268  0.016287493  0.015234792         3964 
 4130000   0.59283446   -7.6109037    805.59079  0.016254859  0.015229281         3958 
 4131000   0.59056499   -7.6357681    803.71965  0.016213178  0.015223772         3972 
 4132000   0.58628088   -7.6097174    805.79434  0.016251096  0.015218263         3961 
 4133000    0.5836548   -7.6304803    806.90193  0.016269496   0.01521276         3962 
 4134000   0.59125361   -7.6223968    806.08474  0.016249088  0.015207256         3964 
 4135000    0.5956165   -7.6257976    803.77901   0.01619869  0.015201753         3966 
 4136000    0.5872313   -7.6358248    805.38518  0.016227135  0.015196256         3970 
 4137000   0.58146945   -7.6279377    806.54069  0.016246489  0.015190759         3950 
 4138000   0.58460789   -7.6424541    805.60965  0.016223813  0.015185265         3957 
 4139000   0.59519569   -7.6057254    805.81855  0.016224099  0.015179777         3962 
 4140000   0.60278401    -7.626665    805.63733  0.016216532  0.015174287         3962 
 4141000   0.57675674   -7.6491697    805.10647  0.016201933  0.015168799         3974 
 4142000   0.58462492   -7.6179703    805.68742   0.01620971  0.015163312         3966 
 4143000   0.58697857   -7.6106045    806.19795  0.016216066  0.015157831         3970 
 4144000   0.59044803    -7.630105    805.89434  0.016206048  0.015152351         3956 
 4145000   0.58320778   -7.6138973    804.62494  0.016176617  0.015146872         3972 
 4146000   0.59337767    -7.656377    806.30571  0.016206499  0.015141399         3969 
 4147000   0.57433655   -7.6213984    805.67517   0.01618992  0.015135923         3955 
 4148000   0.59009484   -7.6469268    805.93561  0.016191249  0.015130447         3972 
 4149000   0.58560083   -7.6184008    805.29681  0.016174516  0.015124975         3969 
 4150000   0.58887873   -7.6205789    805.69581  0.016178631  0.015119507         3954 
 4151000   0.58881124   -7.6343642     805.7857  0.016176538  0.015114046         3961 
 4152000   0.58228581   -7.6121986    804.91385  0.016155143  0.015108581         3979 
 4153000   0.59165155   -7.6181481    806.49773  0.016183035  0.015103126         3956 
 4154000   0.60466651    -7.628381    806.11883  0.016171538  0.015097669         3968 
 4155000   0.58690164   -7.6220178     805.4385  0.016154001  0.015092217         3971 
 4156000   0.57784373   -7.6204593    805.56204  0.016152592  0.015086762         3968 
 4157000   0.58219136   -7.6277996    805.96331   0.01615675  0.015081314         3967 
 4158000   0.59436524   -7.6292603    804.55038  0.016124547  0.015075873         3958 
 4159000   0.57483994   -7.6563192    805.46398  0.016138975  0.015070429         3955 
 4160000   0.57548183   -7.6213802    804.22062  0.016110189  0.015064985         3971 
 4161000    0.5810148   -7.6321923    806.63632  0.016154697  0.015059543         3964 
 4162000   0.57856041    -7.641671    805.06638  0.016119381  0.015054098         3972 
 4163000   0.59810949   -7.6368764    805.32568    0.0161207  0.015048662         3969 
 4164000   0.58401347   -7.6076972    804.48007  0.016099905  0.015043231         3970 
 4165000   0.59550391   -7.6258504    805.06226  0.016107688    0.0150378         3969 
 4166000   0.59154164   -7.6512721    805.03848  0.016103346  0.015032369         3963 
 4167000   0.58636836   -7.6534762    807.12842  0.016141277  0.015026945         3968 
 4168000   0.58764808   -7.6463583    805.41768  0.016103201  0.015021517         3967 
 4169000   0.58652895   -7.6137595    806.40033   0.01611898    0.0150161         3962 
 4170000   0.58319276   -7.6307941    805.36992  0.016094523  0.015010681         3966 
 4171000    0.5815026   -7.6311603    805.22669  0.016087803  0.015005263         3963 
 4172000   0.58685388   -7.6439564    805.07159  0.016080848  0.014999849         3964 
 4173000   0.59394905   -7.6298187    803.99646  0.016055525  0.014994432         3966 
 4174000    0.5970259   -7.6447902    805.14077  0.016074524  0.014989018         3974 
 4175000   0.59107441   -7.6281442    805.15497  0.016070958  0.014983604         3972 
 4176000   0.58662991   -7.6254318    803.95652  0.016043194  0.014978193         3969 
 4177000   0.58239155   -7.6106109    803.96737  0.016039569  0.014972793         3967 
 4178000   0.59200796   -7.6537686    805.46906  0.016065683  0.014967391         3965 
 4179000   0.58121592   -7.6194589    806.00654  0.016072556   0.01496199         3968 
 4180000   0.56560029   -7.6372561    805.76726  0.016063941  0.014956593         3972 
 4181000   0.58905431   -7.6280387    805.98536  0.016064446  0.014951199         3967 
 4182000   0.58096411   -7.6061476      805.825  0.016057409   0.01494581         3967 
 4183000   0.58937496    -7.643463    805.71331  0.016051345  0.014940419         3962 
 4184000   0.58308779   -7.6170988    804.45687  0.016022484  0.014935032         3965 
 4185000   0.58719401    -7.628336    805.23518  0.016034153  0.014929647         3972 
 4186000   0.58821761   -7.6523417    806.29983  0.016051518  0.014924263         3973 
 4187000   0.58444691   -7.6421582    806.06344  0.016042979  0.014918883         3963 
 4188000   0.59138188   -7.6299258    804.24602  0.016002985  0.014913505         3950 
 4189000   0.57994064   -7.6178311    804.09192  0.015996099  0.014908127         3976 
 4190000   0.57702652   -7.6450599    805.10795  0.016012489  0.014902755         3975 
 4191000   0.58211221   -7.6430857    806.09256  0.016028246  0.014897382         3968 
 4192000   0.59402785   -7.6315711    805.69584  0.016016536   0.01489201         3971 
 4193000   0.58111018   -7.6507904    805.27798  0.016004412  0.014886643         3960 
 4194000    0.5879758   -7.6433026    805.50741  0.016005154  0.014881279         3972 
 4195000   0.58315476   -7.6292963    805.69229  0.016005012  0.014875918         3969 
 4196000   0.57623199   -7.6264246    806.18096  0.016010902  0.014870561         3965 
 4197000   0.58322501   -7.6383239    805.04627  0.015984558  0.014865202         3973 
 4198000   0.57574646   -7.6390818    805.41434  0.015988057  0.014859848         3958 
 4199000    0.5871395   -7.6281659    804.58232  0.015967737  0.014854497         3965 
 4200000   0.58557734   -7.6476372    803.45125  0.015941493  0.014849146         3979 
 4201000   0.57217043   -7.6389256    805.70646  0.015982434  0.014843796         3962 
 4202000   0.58087333   -7.6378532    804.37016  0.015952129  0.014838451         3957 
 4203000   0.57598163   -7.6527147    804.39883  0.015948902  0.014833107         3970 
 4204000   0.58027008   -7.6396298    806.50238  0.015986806  0.014827768         3968 
 4205000   0.56823448   -7.6419848    804.48105  0.015942946   0.01482243         3969 
 4206000   0.55962831    -7.641045    806.10286  0.015971288  0.014817092         3954 
 4207000   0.58002159   -7.6349553    806.35937  0.015972573  0.014811757         3967 
 4208000    0.5780431   -7.6366216     804.8006  0.015937908  0.014806426         3967 
 4209000   0.56544486   -7.6389966    804.94275  0.015936936  0.014801094         3963 
 4210000   0.57755996   -7.6240759    806.10507  0.015956157  0.014795766         3968 
 4211000   0.58158405    -7.633674    804.59457  0.015922476  0.014790439         3968 
 4212000    0.5923925   -7.6437749    805.12676  0.015929225  0.014785115         3960 
 4213000   0.57137379   -7.6139148    803.30578  0.015889425  0.014779796         3969 
 4214000   0.57726887   -7.6249295    804.91055  0.015917389  0.014774481         3963 
 4215000   0.57060928    -7.656615    805.87419  0.015932665  0.014769161         3964 
 4216000   0.57750193   -7.6467992    804.68256  0.015905332  0.014763847         3966 
 4217000   0.57637839   -7.6425197    805.74483  0.015922552  0.014758538         3964 
 4218000   0.58738796   -7.6397668    805.96258  0.015923079  0.014753228         3968 
 4219000   0.56311474   -7.6267731    804.69942  0.015894355  0.014747922         3963 
 4220000   0.56101078   -7.6384482    805.87225  0.015913749  0.014742617         3965 
 4221000   0.56805291   -7.6399066    804.37513  0.015880422  0.014737317         3963 
 4222000   0.58410644    -7.645316    805.47709  0.015898411  0.014732018         3969 
 4223000   0.58276127    -7.657503    804.70803   0.01587947  0.014726719         3964 
 4224000   0.56995473   -7.6539676    804.50172  0.015871641  0.014721425         3969 
 4225000   0.56647315   -7.6356264    803.85843  0.015855196   0.01471613         3962 
 4226000   0.57869219   -7.6456533    804.46141  0.015863334  0.014710838         3971 
 4227000   0.58258222   -7.6462074    805.45813  0.015879231  0.014705549         3961 
 4228000   0.57975902   -7.6464996    805.82961  0.015882797  0.014700267         3957 
 4229000   0.56766352   -7.6499211    804.21521   0.01584723  0.014694982         3969 
 4230000   0.57663669   -7.6359956    804.28623  0.015844882  0.014689699         3952 
 4231000   0.58420003   -7.6385323    805.19823    0.0158591  0.014684424         3977 
 4232000   0.57880658   -7.6598191    805.19375  0.015855264  0.014679149         3965 
 4233000   0.57602868    -7.637186    803.05502  0.015809415  0.014673878         3968 
 4234000   0.57612281   -7.6587379    804.86811  0.015841366  0.014668606         3962 
 4235000   0.58686708   -7.6461496    805.84589  0.015856865  0.014663338         3975 
 4236000   0.57655295   -7.6603352     804.8302   0.01583314  0.014658073         3973 
 4237000   0.57621329   -7.6431481    804.86106  0.015830011  0.014652806         3961 
 4238000   0.56478595   -7.6748316    804.13597  0.015812018   0.01464754         3970 
 4239000   0.57872196   -7.6629989    804.19365  0.015809421  0.014642281         3966 
 4240000   0.56288782   -7.6297165    805.06801  0.015822878  0.014637024         3968 
 4241000   0.58608691   -7.6641814    804.93207  0.015816475  0.014631766         3967 
 4242000   0.56999862   -7.6473413    805.47738  0.015823459  0.014626509         3964 
 4243000   0.56638646   -7.6585782     804.8185   0.01580679  0.014621258         3967 
 4244000    0.5799766   -7.6516612    805.14782  0.015809531  0.014616007         3967 
 4245000   0.57889663    -7.640679    804.78484  0.015798682  0.014610762         3966 
 4246000    0.5653252   -7.6460166    804.95017  0.015798206  0.014605519         3962 
 4247000   0.57465868   -7.6609419    805.73137  0.015809814  0.014600272         3970 
 4248000   0.56314638   -7.6537831    804.46614  0.015781272  0.014595034         3971 
 4249000   0.57444176   -7.6422498    803.68037  0.015762147  0.014589799         3970 
 4250000   0.57337403   -7.6468914    803.56101  0.015756098  0.014584564         3963 
 4251000   0.57392532   -7.6262138    803.56861  0.015752541  0.014579333         3973 
 4252000   0.56953317    -7.650356    804.23473  0.015761891  0.014574102         3972 
 4253000   0.55703557   -7.6551641     804.6494   0.01576631  0.014568871         3967 
 4254000   0.57100712   -7.6553895    804.67029  0.015763013  0.014563644         3959 
 4255000   0.58258348    -7.639068    804.21439   0.01575038  0.014558419         3965 
 4256000   0.58001622   -7.6468743    804.03685  0.015743203  0.014553197         3960 
 4257000   0.57663642   -7.6475714    803.32855  0.015725639  0.014547976         3962 
 4258000   0.58125928    -7.656998    804.86068  0.015751931  0.014542758         3972 
 4259000    0.5734936   -7.6197409     802.9609  0.015711061  0.014537546         3967 
 4260000   0.56592113   -7.6444748    802.35803   0.01569558   0.01453233         3970 
 4261000   0.57455358   -7.6777248    804.38227  0.015731485  0.014527117         3969 
 4262000   0.58015275   -7.6600532    805.61278  0.015751853  0.014521908         3963 
 4263000   0.56422915   -7.6687427    805.08491  0.015737839  0.014516701         3965 
 4264000   0.56729042   -7.6593056    803.42171  0.015701644  0.014511498         3967 
 4265000    0.5815977   -7.6512853    803.29535  0.015695493  0.014506294         3970 
 4266000   0.57961472   -7.6687873    804.08934  0.015707324  0.014501094         3962 
 4267000    0.5713654   -7.6689913    803.88757  0.015699703  0.014495899         3960 
 4268000   0.55541593   -7.6373886    804.33825  0.015704824  0.014490704         3962 
 4269000    0.5682766   -7.6716966     804.8267   0.01571068   0.01448551         3967 
 4270000   0.56382338   -7.6343683    804.29834  0.015696689  0.014480316         3964 
 4271000   0.58122894   -7.6171594    802.66543  0.015661153  0.014475128         3972 
 4272000    0.5618067   -7.6520416    804.45984  0.015692491  0.014469943         3970 
 4273000   0.59017087   -7.6788011    805.33038  0.015705796  0.014464759         3965 
 4274000   0.57953525   -7.6497008    805.13993  0.015698408  0.014459579         3961 
 4275000   0.57732202   -7.6606134     803.8132  0.015668873  0.014454399         3973 
 4276000    0.5642611   -7.6436264    804.11353  0.015671062   0.01444922         3974 
 4277000   0.55724577   -7.6443647    802.87055   0.01564318  0.014444044         3956 
 4278000   0.57406275   -7.6456983    805.07778  0.015682519  0.014438875         3970 
 4279000   0.55969906   -7.6456099    804.20219  0.015661802  0.014433706         3963 
 4280000   0.57118039   -7.6461616     805.0512  0.015674673  0.014428539         3964 
 4281000   0.56944011   -7.6601482    803.25062  0.015635962  0.014423376         3967 
 4282000   0.56584528    -7.663701    805.03169  0.015666972  0.014418214         3963 
 4283000    0.5674147   -7.6709561     804.4033  0.015651088  0.014413053         3964 
 4284000   0.56177564   -7.6593642    805.02564   0.01565954  0.014407894         3958 
 4285000     0.583978   -7.6660061    803.76785  0.015631425  0.014402737         3971 
 4286000    0.5539416   -7.6629543    804.11435  0.015634514  0.014397583         3968 
 4287000   0.56787311   -7.6753249    805.32002  0.015654304  0.014392431         3974 
 4288000   0.56546128   -7.6688628    804.28355   0.01563051  0.014387281         3966 
 4289000   0.55338271   -7.6673037    804.46143  0.015630322  0.014382134         3972 
 4290000   0.56046878    -7.657507    804.65629  0.015630464  0.014376988         3971 
 4291000    0.5728954   -7.6606979    803.57517  0.015605826  0.014371848         3962 
 4292000   0.56293305   -7.6700826    804.08828  0.015612152  0.014366708         3966 
 4293000   0.56396972    -7.660446    804.64883  0.015619396  0.014361567         3968 
 4294000   0.56319153   -7.6472652    805.69809  0.015636122  0.014356432         3966 
 4295000     0.569266   -7.6741814    804.63296  0.015611815  0.014351297         3967 
 4296000   0.56347092    -7.645528    805.02181  0.015615724  0.014346166         3958 
 4297000    0.5655359   -7.6585661    804.12432  0.015594685  0.014341034         3961 
 4298000   0.57004309   -7.6744728    803.14019  0.015571975  0.014335907         3965 
 4299000   0.57129385   -7.6678263    804.80458  0.015600616  0.014330779         3968 
 4300000   0.56223217   -7.6494111    803.81039  0.015577721  0.014325655         3977 
 4301000   0.56700368   -7.6631053    804.81002  0.015593467  0.014320535         3965 
 4302000   0.55569813   -7.6734821    804.31142  0.015580184  0.014315416         3967 
 4303000   0.56630918   -7.6645282    804.21118  0.015574622  0.014310301         3964 
 4304000   0.55870475   -7.6635039     803.6757  0.015560635   0.01430519         3955 
 4305000   0.55898427   -7.6640872    805.26887   0.01558786   0.01430008         3965 
 4306000   0.55905199   -7.6641435    804.84351  0.015576008   0.01429497         3959 
 4307000   0.55587616   -7.6624684     803.5058   0.01554651  0.014289866         3957 
 4308000   0.55387636   -7.6766166    802.79459  0.015529143  0.014284761         3964 
 4309000   0.55164479   -7.6429935    802.97984  0.015529122  0.014279659         3970 
 4310000   0.55934789   -7.6741107    804.40887  0.015553149   0.01427456         3964 
 4311000   0.56051525   -7.6829424    802.93291   0.01552101  0.014269462         3966 
 4312000   0.57238501   -7.6606151    804.45657  0.015546857  0.014264367         3959 
 4313000   0.56752008   -7.6498424    804.50435  0.015544176  0.014259273         3960 
 4314000    0.5707512   -7.6738376    803.95883  0.015530035  0.014254185         3968 
 4315000   0.56089996   -7.6570176     804.0269   0.01552775  0.014249093         3963 
 4316000   0.55927901   -7.6580088    803.34518   0.01551099  0.014244006         3965 
 4317000   0.56699883   -7.6627818    803.64342  0.015513154  0.014238919         3954 
 4318000   0.56887391   -7.6705291    803.28825  0.015502707  0.014233835         3968 
 4319000   0.55174731   -7.6653052    803.53405   0.01550386  0.014228754         3962 
 4320000   0.55387527   -7.6812253    803.45042  0.015498658  0.014223675         3966 
 4321000   0.57663529   -7.6820065    803.98057  0.015505295  0.014218598         3970 
 4322000   0.55166636   -7.6725988    803.10089  0.015484747  0.014213522         3966 
 4323000   0.55917477   -7.6621505    803.99306  0.015498363  0.014208448         3967 
 4324000   0.56323091   -7.6746243    802.24827  0.015461152  0.014203379         3967 
 4325000   0.54587406   -7.6663002    803.18087  0.015475547  0.014198305         3964 
 4326000   0.55024851   -7.6554483    804.93855  0.015505828  0.014193239         3957 
 4327000   0.55286059   -7.6792768    804.56918  0.015495131   0.01418818         3961 
 4328000   0.55792634   -7.6803051    805.24269  0.015504519  0.014183116         3964 
 4329000   0.55442982   -7.6847994    803.02649  0.015458275  0.014178054         3974 
 4330000   0.56273572   -7.6505746    803.08582  0.015455847  0.014172999         3966 
 4331000   0.56939337   -7.6673666    803.30993  0.015456591  0.014167943         3965 
 4332000    0.5653436   -7.6761015    804.31252  0.015472309  0.014162895         3962 
 4333000   0.56210107   -7.6668962    804.28807  0.015468268  0.014157845         3958 
 4334000   0.55419186   -7.6642818    804.03798   0.01545989  0.014152797         3969 
 4335000   0.54891945   -7.6532707    803.82918   0.01545231   0.01414775         3953 
 4336000   0.55506253   -7.6608397    805.07831  0.015472753  0.014142708         3966 
 4337000   0.55841731   -7.6396335    803.78547  0.015444345  0.014137666         3962 
 4338000   0.55939155   -7.6939562    805.45879  0.015472929  0.014132627         3964 
 4339000   0.55974143   -7.6766935    803.41201  0.015430053  0.014127588         3960 
 4340000   0.55208847   -7.6495962    803.30038  0.015424355  0.014122552         3947 
 4341000   0.56833134   -7.6916823    803.51165  0.015424857  0.014117518         3969 
 4342000   0.56209434   -7.6609615    804.02537  0.015431164   0.01411249         3965 
 4343000    0.5562018   -7.6683127    804.28005  0.015432498  0.014107463         3959 
 4344000   0.54750331   -7.6699392    802.30768  0.015391108  0.014102432         3969 
 4345000    0.5685504   -7.6895537     803.8027  0.015416239  0.014097408         3964 
 4346000   0.56056628   -7.6634438     802.3316  0.015384484  0.014092387         3963 
 4347000   0.54984811   -7.6705703    803.79878  0.015409071  0.014087366         3961 
 4348000     0.562824   -7.6797179    803.63573  0.015402402  0.014082346         3957 
 4349000   0.54713038   -7.6604505    803.58039    0.0153978  0.014077333         3961 
 4350000   0.55237411   -7.6923343    802.35747  0.015370833  0.014072318         3970 
 4351000   0.55010228   -7.6953044    805.26298  0.015422948  0.014067305         3971 
 4352000   0.54377148   -7.6611152    802.29937  0.015362656  0.014062294         3966 
 4353000   0.56027682   -7.6615779    802.58399  0.015364576   0.01405729         3963 
 4354000   0.55044927   -7.6765885    804.03355  0.015388791  0.014052281         3968 
 4355000   0.56429703   -7.6687488    803.77566  0.015380323  0.014047278         3962 
 4356000   0.55388886   -7.6715115    804.54093  0.015391432  0.014042281         3969 
 4357000   0.55712179   -7.6766404    804.18248  0.015381043  0.014037284         3968 
 4358000   0.54801405   -7.6762903    803.66232  0.015367568  0.014032287         3967 
 4359000   0.55770945   -7.6735635    803.58117  0.015362491   0.01402729         3960 
 4360000   0.55074621   -7.6794861     803.5995  0.015359318  0.014022297         3959 
 4361000   0.54657826   -7.6934488    803.19241  0.015348017  0.014017309         3965 
 4362000   0.55571484   -7.6544416    802.24264  0.015326353  0.014012321         3963 
 4363000   0.55844885   -7.6679949    802.76952  0.015332904  0.014007338         3961 
 4364000   0.55436034   -7.6802415    802.68353  0.015327749  0.014002355         3961 
 4365000   0.56308879   -7.6797162    803.73338   0.01534428  0.013997372         3970 
 4366000   0.55733196    -7.678611    803.73262  0.015340751  0.013992393         3972 
 4367000    0.5501045   -7.6925486    802.74365  0.015318366  0.013987418         3963 
 4368000   0.55891534   -7.6651953    804.39596  0.015346382  0.013982446         3957 
 4369000   0.55938828   -7.6625503    803.49315   0.01532565  0.013977478         3956 
 4370000   0.55694101   -7.6678388     802.2452  0.015298345   0.01397251         3957 
 4371000   0.55118522   -7.6825536    802.16357  0.015293289  0.013967542         3962 
 4372000   0.54690782   -7.6984793    803.89958   0.01532288  0.013962577         3973 
 4373000   0.56708166   -7.6666347    803.53053  0.015312343  0.013957615         3965 
 4374000   0.55605038   -7.6620204    803.62142  0.015310574  0.013952655         3967 
 4375000    0.5554396   -7.6834285    802.57586  0.015287159  0.013947703         3962 
 4376000   0.54811905   -7.6778277     802.9767  0.015291299  0.013942745         3970 
 4377000    0.5551244   -7.6649861    802.21775  0.015273356   0.01393779         3972 
 4378000   0.54169438   -7.6839538    803.87019  0.015301321  0.013932836         3967 
 4379000   0.54456213   -7.6686176    802.91607  0.015279669  0.013927885         3966 
 4380000   0.54477738   -7.6773108    804.54533  0.015307179   0.01392294         3967 
 4381000    0.5390169   -7.6702198     803.6043  0.015285785  0.013917997         3960 
 4382000   0.55385509   -7.6823231    804.04969  0.015290767  0.013913054         3965 
 4383000   0.56378529   -7.6751235    803.70991  0.015280818  0.013908115         3961 
 4384000   0.55152433   -7.6816539    803.16814  0.015267034  0.013903176         3968 
 4385000   0.54604887   -7.6819125    803.01801    0.0152607  0.013898239         3952 
 4386000   0.56533335   -7.6854287    802.14777  0.015240686  0.013893306         3973 
 4387000   0.54590228   -7.6741296    803.23415  0.015257848  0.013888374         3962 
 4388000   0.54606544   -7.6887585    803.39588  0.015257442   0.01388344         3970 
 4389000   0.54831138   -7.6857444    803.27908  0.015251748  0.013878518         3968 
 4390000   0.55730047    -7.691589     802.9738  0.015242479  0.013873592         3961 
 4391000   0.55871275   -7.6743836      802.651  0.015232882  0.013868666         3969 
 4392000   0.55769148   -7.6733957    803.61622  0.015247727  0.013863743         3965 
 4393000   0.55022451   -7.6932165    803.28553  0.015237983  0.013858824         3958 
 4394000   0.55260274   -7.6681717    804.12875  0.015250507  0.013853907         3965 
 4395000   0.55337513   -7.6886338    802.09453  0.015208467  0.013848997         3965 
 4396000   0.53917026   -7.6780771    802.12365  0.015205559  0.013844081         3959 
 4397000   0.55504387   -7.7090921    802.22454  0.015204013  0.013839169         3953 
 4398000   0.55331339    -7.681047     801.5909   0.01518855  0.013834258         3963 
 4399000   0.55060212   -7.6942417    803.50634  0.015221382  0.013829352         3961 
 4400000   0.55466042   -7.6705324    802.90266   0.01520649  0.013824448         3963 
 4401000   0.54925844   -7.6921531    803.63766  0.015216952  0.013819545         3956 
 4402000   0.54418439   -7.6784506    803.15692  0.015204394  0.013814645         3954 
 4403000   0.54973057   -7.7027552    802.47663  0.015188065  0.013809745         3965 
 4404000   0.53565863   -7.6908614    803.97849  0.015213035   0.01380485         3967 
 4405000   0.54564384   -7.6751363    803.53318  0.015201157  0.013799961         3953 
 4406000   0.54219201   -7.6913969    803.48847  0.015196862  0.013795068         3963 
 4407000   0.55044233   -7.6830115     802.4606  0.015173977  0.013790174         3966 
 4408000   0.54171275   -7.6842058    802.97461  0.015180252  0.013785289         3965 
 4409000   0.54524645   -7.6817498    802.12204  0.015160695  0.013780406         3969 
 4410000   0.54603555   -7.6867845    802.97328  0.015173342  0.013775526         3963 
 4411000    0.5449756   -7.6814055    802.77324  0.015166123  0.013770648         3961 
 4412000   0.54968292   -7.6847515     802.2301  0.015152427  0.013765769         3970 
 4413000   0.53465559   -7.6820677     802.5642  0.015155302  0.013760893         3963 
 4414000    0.5383428    -7.704394    803.37355  0.015167149  0.013756018         3963 
 4415000   0.52507954    -7.691187    802.89828  0.015154743  0.013751145         3962 
 4416000   0.53728027   -7.6958876    802.24304  0.015138946  0.013746275         3972 
 4417000   0.56191018   -7.6680458     802.8312  0.015146615  0.013741409         3974 
 4418000   0.54879526   -7.6903241    802.01256  0.015127746  0.013736542         3962 
 4419000   0.54465473   -7.6767461    803.62161  0.015154666  0.013731681         3966 
 4420000   0.56081639   -7.6718649    802.25095  0.015125395  0.013726817         3963 
 4421000   0.52996847   -7.6831836    803.31835  0.015142094   0.01372196         3967 
 4422000    0.5383927   -7.6877593    802.33909  0.015120215  0.013717103         3965 
 4423000    0.5508692   -7.6707616    802.87848  0.015126959  0.013712249         3964 
 4424000   0.54445711   -7.6745871    802.31624  0.015112949  0.013707396         3959 
 4425000   0.53545042   -7.6965721    802.64579   0.01511574  0.013702543         3966 
 4426000   0.55281566   -7.6851895    802.94389  0.015117937  0.013697697         3961 
 4427000   0.55189301   -7.6805983    802.26071  0.015101662  0.013692854         3954 
 4428000    0.5393162   -7.6790439    802.73824  0.015107239   0.01368801         3966 
 4429000   0.53316635   -7.6817187    802.65172    0.0151022   0.01368317         3968 
 4430000   0.54484809    -7.685396    802.49373  0.015095819  0.013678331         3971 
 4431000   0.55054357   -7.6802775    802.60706  0.015094543  0.013673493         3969 
 4432000   0.54154259   -7.6820412     803.0882  0.015100184  0.013668658         3960 
 4433000   0.53600696    -7.683177    803.08163  0.015096655  0.013663822         3962 
 4434000   0.54795782    -7.688918    803.65419  0.015104011  0.013658989         3963 
 4435000   0.54991256    -7.679912    802.31726  0.015075484  0.013654162         3964 
 4436000    0.5339126   -7.6839143    803.14323  0.015087602  0.013649334         3973 
 4437000   0.52969537   -7.6945371    801.84784  0.015059872   0.01364451         3975 
 4438000   0.54941451   -7.7020698    802.67977    0.0150721  0.013639685         3964 
 4439000   0.53914529   -7.6953409    803.78593  0.015089471  0.013634866         3960 
 4440000   0.52261107   -7.6838958    801.56213  0.015044334  0.013630049         3973 
 4441000   0.54464053   -7.6760293    803.43812  0.015076149  0.013625234         3965 
 4442000    0.5467519   -7.7060272    802.80424  0.015060863  0.013620421         3963 
 4443000   0.53397678   -7.6772785    803.66371  0.015073593  0.013615614         3962 
 4444000   0.54605452   -7.6879025    802.27266  0.015044117  0.013610803         3967 
 4445000   0.54945072   -7.6819747    802.73794  0.015049455  0.013605996         3972 
 4446000   0.55088463   -7.7003337    803.39079  0.015058307   0.01360119         3966 
 4447000   0.53765223    -7.689409    802.44591  0.015037214  0.013596384         3971 
 4448000   0.53855555   -7.7096529     801.8515  0.015022697  0.013591581         3965 
 4449000   0.53656371   -7.6921655    803.50681  0.015050326  0.013586779         3962 
 4450000   0.53005327   -7.6904881    803.67514  0.015050096   0.01358198         3957 
 4451000   0.54193031   -7.6933738    802.63415  0.015027225  0.013577188         3963 
 4452000   0.54262114   -7.7002996    803.10334  0.015032632  0.013572396         3961 
 4453000   0.52921822   -7.6880273    802.40908  0.015016264  0.013567605         3970 
 4454000   0.52729202   -7.6842542    803.06884  0.015025237   0.01356282         3951 
 4455000   0.53760609   -7.6874722    802.92679  0.015019207  0.013558032         3964 
 4456000   0.53163527   -7.7118349    802.91578   0.01501563  0.013553248         3960 
 4457000   0.52879291   -7.6949092     802.4586  0.015003713  0.013548467         3970 
 4458000    0.5303959   -7.7108074    802.82102  0.015007122  0.013543685         3965 
 4459000   0.55420145   -7.7003478    801.53986  0.014979813  0.013538908         3953 
 4460000   0.54314479   -7.6988909    802.41732   0.01499285  0.013534132         3963 
 4461000   0.53463157   -7.6901645    802.02523  0.014982164  0.013529357         3972 
 4462000   0.53210738   -7.6883555    800.73814  0.014954769  0.013524585         3970 
 4463000   0.54317937   -7.6923074    801.49904  0.014965626  0.013519817         3971 
 4464000   0.53213107   -7.6867078    801.03107  0.014953537  0.013515047         3963 
 4465000   0.53958311   -7.7048539    803.64121  0.014998903  0.013510281         3973 
 4466000   0.54197174    -7.708709    802.96595  0.014982944  0.013505516         3962 
 4467000   0.53906212   -7.7018078    802.88077  0.014978001  0.013500756         3964 
 4468000   0.53461782   -7.6876018    802.22424  0.014962404  0.013495995         3963 
 4469000   0.54426656   -7.7070231    802.15475   0.01495776  0.013491237         3956 
 4470000   0.52513379   -7.7123481    801.42846  0.014940874   0.01348648         3970 
 4471000   0.54253856   -7.6805587    802.40338  0.014955703  0.013481725         3961 
 4472000    0.5370476   -7.6960966    801.31894  0.014932151  0.013476975         3965 
 4473000   0.54522177   -7.7036968    801.54549  0.014933033  0.013472225         3962 
 4474000   0.52636476   -7.6963476    802.35346  0.014944745  0.013467476         3959 
 4475000   0.53269359   -7.6961541    803.09636  0.014955239  0.013462732         3967 
 4476000   0.54493993   -7.7119398    803.17961  0.014953448  0.013457987         3966 
 4477000    0.5316156   -7.7016163     802.6023  0.014939362  0.013453248         3978 
 4478000   0.55263773   -7.6878521    802.09378  0.014926563  0.013448509         3970 
 4479000   0.54233236   -7.6875612    802.12425  0.014923797  0.013443775         3967 
 4480000   0.53474747   -7.7029471     801.9029  0.014916349  0.013439044         3968 
 4481000    0.5424751   -7.6799238    802.49857  0.014924097  0.013434311         3969 
 4482000   0.53757332   -7.6889207    802.22045  0.014915597  0.013429581         3965 
 4483000   0.53799508   -7.6996654    802.79208  0.014922895  0.013424855         3958 
 4484000   0.53471208   -7.7004967    803.21227  0.014927376  0.013420133         3971 
 4485000   0.52813191   -7.6996464    803.16956  0.014923255  0.013415411         3963 
 4486000   0.53226017   -7.6986189    802.93833  0.014915633  0.013410684         3967 
 4487000   0.54248969   -7.7193381    801.93798   0.01489373  0.013405966         3961 
 4488000   0.53175049   -7.6840539    802.04605  0.014892418  0.013401251         3966 
 4489000   0.52840007   -7.6897583    800.86702  0.014867213  0.013396538         3964 
 4490000    0.5397215   -7.7066718    801.92699  0.014883575  0.013391824         3960 
 4491000   0.52087034   -7.7014426    802.57276  0.014892243  0.013387114         3972 
 4492000   0.54142005   -7.6929899    802.32176  0.014884271  0.013382405         3968 
 4493000   0.54110125   -7.6959858    802.33605  0.014881223  0.013377702         3963 
 4494000   0.53988293   -7.7007483    802.22414  0.014875837  0.013372998         3968 
 4495000   0.52405219   -7.7166598    801.49555   0.01485902  0.013368296         3967 
 4496000    0.5381132   -7.6901817    802.09361    0.0148668  0.013363595         3974 
 4497000   0.54368326    -7.695359    801.53742  0.014853188  0.013358898         3964 
 4498000   0.52537199   -7.6835111    803.10316  0.014878894    0.0133542         3966 
 4499000   0.53689892   -7.7146259    802.53429  0.014865049  0.013349504         3965 
 4500000   0.53392621   -7.7166749      803.212  0.014874296  0.013344811         3966 
 4501000   0.52711952   -7.7046565    801.36467  0.014836789   0.01334012         3969 
 4502000   0.52977356    -7.701111    802.82638   0.01486055  0.013335431         3957 
 4503000   0.51910017   -7.7269241    801.16176  0.014826445  0.013330744         3967 
 4504000    0.5302528   -7.6931359     801.7136  0.014833363  0.013326059         3974 
 4505000    0.5398902    -7.700863    802.24865  0.014839968  0.013321377         3969 
 4506000   0.53278982   -7.6979329     802.2542  0.014836777  0.013316697         3972 
 4507000   0.53213999   -7.6974837    801.99097  0.014828618  0.013312021         3967 
 4508000   0.53087357   -7.6989925    801.57189  0.014817582  0.013307344         3959 
 4509000   0.54917656    -7.703391    801.68254   0.01481634  0.013302672         3968 
 4510000   0.53672595   -7.6885243    804.13526  0.014858375  0.013298004         3970 
 4511000   0.54024492   -7.7088744    801.94556   0.01481463  0.013293336         3961 
 4512000   0.53138119   -7.7116498    802.20591  0.014816155  0.013288666         3971 
 4513000   0.52776758   -7.7130408    801.90802  0.014807372  0.013284001         3971 
 4514000   0.52121426   -7.7039532    802.09375   0.01480752  0.013279336         3969 
 4515000   0.52774633   -7.7162478    803.42287  0.014828772  0.013274675         3967 
 4516000   0.52016376   -7.7100276    803.00407   0.01481776  0.013270012         3975 
 4517000   0.52148958   -7.6883983    801.85155  0.014793217  0.013265352         3965 
 4518000   0.53626315    -7.702455    803.34176   0.01481743  0.013260696         3965 
 4519000   0.53097546   -7.6993388    801.34608  0.014777349  0.013256043         3969 
 4520000   0.52201548   -7.6980105    802.12865  0.014788508  0.013251389         3960 
 4521000   0.52858467   -7.7210023    802.13546  0.014785362  0.013246739         3967 
 4522000    0.5292513   -7.7167194    800.11021   0.01474477  0.013242091         3964 
 4523000   0.52572064   -7.7054353      802.254  0.014781008  0.013237444         3971 
 4524000    0.5287975   -7.6981269    801.65925  0.014766786  0.013232798         3971 
 4525000   0.54348713   -7.7073103    803.62304  0.014799688  0.013228157         3963 
 4526000    0.5300895   -7.7012055    801.55364  0.014758316  0.013223518         3972 
 4527000   0.54137369   -7.7091369    802.24727  0.014767824  0.013218881         3972 
 4528000   0.53160271   -7.6965355    801.57277  0.014752149  0.013214247         3965 
 4529000   0.53052268   -7.6925976    801.81235    0.0147533  0.013209616         3962 
 4530000   0.53325841   -7.7036766    802.08259  0.014755014  0.013204986         3970 
 4531000   0.52294178   -7.7152414    801.71847  0.014745061  0.013200352         3967 
 4532000   0.52468823   -7.7173093    803.02803  0.014765887  0.013195726         3970 
 4533000   0.53344336   -7.7156525    802.50002  0.014752923  0.013191101         3963 
 4534000   0.51154585   -7.7070047    801.79303  0.014736675  0.013186479         3967 
 4535000   0.52301433   -7.7142003    801.12016  0.014721061  0.013181857         3970 
 4536000   0.52185325   -7.7113573    800.14184  0.014699843  0.013177235         3961 
 4537000   0.52467486   -7.7055909    801.31045  0.014718067  0.013172621         3964 
 4538000   0.52570882   -7.7140806    802.43592  0.014735491  0.013168007         3972 
 4539000   0.52523752   -7.7128647    801.59807  0.014716862  0.013163397         3965 
 4540000   0.51904372   -7.7017105    802.07151  0.014722311  0.013158785         3968 
 4541000   0.52877983   -7.7131857    802.17492  0.014720967  0.013154178         3972 
 4542000   0.52635491   -7.7153922    801.26975  0.014701118   0.01314957         3967 
 4543000   0.52330109   -7.7015718    803.00633  0.014729737  0.013144967         3966 
 4544000   0.52416501   -7.6921264    800.91251  0.014688096  0.013140366         3968 
 4545000   0.52992751     -7.71016    801.20454  0.014690219  0.013135769         3965 
 4546000   0.51999496   -7.7313048     801.1965   0.01468684  0.013131171         3964 
 4547000   0.51304991   -7.7160375    801.84733  0.014695538  0.013126574         3974 
 4548000    0.5151044   -7.7036891    801.08211  0.014678285  0.013121977         3968 
 4549000   0.52383156   -7.7341572    801.94682    0.0146909  0.013117386         3971 
 4550000   0.54328202   -7.7067101    801.80841  0.014685136  0.013112793         3958 
 4551000   0.52673615   -7.7280255    802.20969  0.014689257  0.013108206         3962 
 4552000   0.52385297    -7.709306    803.00042  0.014700506   0.01310362         3964 
 4553000   0.53218033   -7.7089442     803.3016  0.014702789  0.013099039         3964 
 4554000   0.51866809   -7.7168633      801.733  0.014670857  0.013094459         3967 
 4555000   0.52030967   -7.7082719    801.50087  0.014663389  0.013089881         3959 
 4556000   0.52048258   -7.6987238    802.35573  0.014675807  0.013085305         3960 
 4557000   0.52354925   -7.7084402    801.37047  0.014654569  0.013080731         3956 
 4558000    0.5156167   -7.7055425    801.03842  0.014645283  0.013076158         3957 
 4559000   0.51977923   -7.7054468    800.77321  0.014637223  0.013071586         3964 
 4560000   0.52947568   -7.7223147    801.93187  0.014655188  0.013067018         3971 
 4561000   0.52728812    -7.728216    802.45438  0.014661521  0.013062451         3970 
 4562000    0.5230013   -7.7320468     801.6448  0.014643519  0.013057885         3966 
 4563000    0.5195651   -7.7059598    800.46335  0.014618733   0.01305332         3954 
 4564000   0.51953334   -7.7109914    801.78204  0.014639608  0.013048758         3967 
 4565000   0.52499106   -7.7267336    801.69892  0.014634884  0.013044199         3962 
 4566000   0.52825024   -7.7200997    802.05403  0.014638159  0.013039645         3967 
 4567000    0.5393507   -7.7094771     801.5678  0.014626082  0.013035092         3966 
 4568000   0.52140475   -7.7260898    801.21018  0.014616356  0.013030537         3975 
 4569000   0.52631441    -7.717824    801.03742  0.014610006  0.013025983         3957 
 4570000   0.52723259   -7.7357398    801.88558  0.014622275  0.013021433         3969 
 4571000   0.51030973   -7.7326098    800.73358  0.014598074  0.013016885         3970 
 4572000   0.52366788   -7.7231212    800.84447  0.014596903  0.013012338         3965 
 4573000   0.51386958   -7.7234417    802.35563  0.014621248  0.013007795         3969 
 4574000   0.52163436   -7.7132915    801.17339  0.014596513  0.013003254         3966 
 4575000   0.52509067   -7.7099071    801.82876   0.01460526  0.012998715         3955 
 4576000   0.51427284   -7.7186419    800.85124  0.014584266  0.012994179         3967 
 4577000   0.51197549    -7.728793    801.72478  0.014596985  0.012989644         3959 
 4578000    0.5314978   -7.7027805    800.94356  0.014579575  0.012985112         3967 
 4579000   0.51666468   -7.7165006    800.91328   0.01457584  0.012980583         3967 
 4580000   0.51962707   -7.7140087    801.70999  0.014587154  0.012976054         3953 
 4581000   0.52127531   -7.7370035    801.42815  0.014578843  0.012971526         3970 
 4582000   0.51243275   -7.7158052    801.18504   0.01457124  0.012967001         3969 
 4583000   0.51691776   -7.7178433    802.69336  0.014595486  0.012962475         3961 
 4584000   0.52028204   -7.7165744    801.96164     0.014579  0.012957956         3961 
 4585000   0.51485642   -7.7220582    801.26154  0.014563096  0.012953436         3964 
 4586000   0.52556294   -7.7247744      800.972  0.014554659  0.012948915         3965 
 4587000   0.51919205    -7.723538    800.53954  0.014543629  0.012944404         3964 
 4588000    0.5224819   -7.7256799    801.36417  0.014555438   0.01293989         3967 
 4589000    0.5258331   -7.7331001    801.44307  0.014553699  0.012935378         3966 
 4590000   0.51804134   -7.7225228    801.34848   0.01454881  0.012930867         3964 
 4591000   0.52200849   -7.7176857    802.55617  0.014567563   0.01292636         3968 
 4592000   0.50780394   -7.7394321    801.54077  0.014545963  0.012921855         3969 
 4593000   0.52149669   -7.7345566    800.71331  0.014527783  0.012917353         3963 
 4594000   0.51807574   -7.7309195    801.36976  0.014536529  0.012912855         3963 
 4595000   0.51935363   -7.7264759    801.59442   0.01453744  0.012908357         3968 
 4596000   0.52123376   -7.7341632    801.03421  0.014524119  0.012903862         3968 
 4597000   0.50849194   -7.7244192    801.06135  0.014521451  0.012899366         3971 
 4598000   0.52311781   -7.7327438    802.32569  0.014541208  0.012894877         3965 
 4599000    0.5183057   -7.7158798    800.81534  0.014510679  0.012890387         3966 
 4600000   0.52335936   -7.7085897    801.68247  0.014523233  0.012885899         3972 
 4601000   0.51408398   -7.7184311    801.47797  0.014516373   0.01288141         3970 
 4602000   0.51626948   -7.7203604    802.06661  0.014523878  0.012876923         3971 
 4603000   0.51154243   -7.6989386    799.93138  0.014482066  0.012872438         3969 
 4604000   0.52029734   -7.7282103    800.99706  0.014498209  0.012867953         3959 
 4605000   0.50783676   -7.7331025    801.87953   0.01451103  0.012863473         3970 
 4606000   0.51995044   -7.7221353    801.03885   0.01449267  0.012858996         3964 
 4607000   0.52010766   -7.7292128    801.11779  0.014490952   0.01285452         3962 
 4608000   0.51005557   -7.7141109    800.31902  0.014473362  0.012850047         3971 
 4609000   0.51668645   -7.7155492    800.75789  0.014478157  0.012845576         3969 
 4610000   0.51213461    -7.739581    801.14146   0.01448195  0.012841106         3964 
 4611000   0.50680874   -7.7325815     801.2075  0.014480003  0.012836637         3971 
 4612000   0.50191567   -7.7364886    802.04908  0.014492069  0.012832174         3974 
 4613000   0.50701509   -7.7209879    801.51884  0.014479349  0.012827712         3971 
 4614000   0.51228158   -7.7357856    800.31147  0.014454405  0.012823251         3970 
 4615000   0.52114283   -7.7220618    801.37335  0.014470447   0.01281879         3968 
 4616000   0.51220273   -7.7284318    801.00612  0.014460682  0.012814332         3965 
 4617000   0.52014733   -7.7278729     800.8391  0.014454536  0.012809874         3970 
 4618000   0.50889301    -7.732212     801.9086  0.014470705  0.012805422         3966 
 4619000   0.51210448   -7.7329446    801.38949  0.014458207  0.012800968         3961 
 4620000   0.51068205    -7.721764    801.68261  0.014460365   0.01279652         3964 
 4621000   0.50248715   -7.7208549    800.54156  0.014436658  0.012792071         3975 
 4622000   0.50766296   -7.7311482    800.55504  0.014433778  0.012787624         3966 
 4623000   0.52035278   -7.7121381    800.80302  0.014435125  0.012783181         3976 
 4624000   0.49930425   -7.7311983    801.49518  0.014444478  0.012778736         3969 
 4625000   0.51014577   -7.7340386    801.01804  0.014432757  0.012774296         3971 
 4626000   0.51176008   -7.7449132    801.47566  0.014437881  0.012769859         3967 
 4627000   0.51449085   -7.7323371    801.86702  0.014441809  0.012765424         3960 
 4628000   0.51591871   -7.7292581    801.28547  0.014428217  0.012760991         3973 
 4629000   0.51697633   -7.7243757     800.3364  0.014408015  0.012756554         3957 
 4630000   0.50738623   -7.7211354    801.10764  0.014418784  0.012752122         3968 
 4631000   0.50913471   -7.7321645    801.11968  0.014415887  0.012747695         3968 
 4632000   0.53010055   -7.7438276    801.25152  0.014415147   0.01274327         3959 
 4633000   0.51247031   -7.7395953    801.63278  0.014418893  0.012738846         3970 
 4634000   0.50369886   -7.7258267    803.00102  0.014440387  0.012734429         3960 
 4635000   0.50779745   -7.7347145    800.36902   0.01438995  0.012730005         3968 
 4636000   0.50031176   -7.7394618    802.30033  0.014421562  0.012725587         3968 
 4637000   0.50840033   -7.7343332    800.99882  0.014395062  0.012721172         3967 
 4638000   0.50709599   -7.7416895    801.74633  0.014405389  0.012716758         3968 
 4639000   0.49427355   -7.7435598    800.47055  0.014379366  0.012712344         3964 
 4640000   0.49922819   -7.7215788    799.88426  0.014365737  0.012707932         3963 
 4641000   0.51241993   -7.7294523    802.54909  0.014410492  0.012703526         3966 
 4642000   0.50644169   -7.7300519    800.52265  0.014371008  0.012699119         3973 
 4643000   0.50701244   -7.7213182     800.7607  0.014372186  0.012694715         3966 
 4644000   0.49495547   -7.7251473    800.72748  0.014368495  0.012690313         3959 
 4645000   0.49409335   -7.7279374    800.61088   0.01436331  0.012685909         3968 
 4646000   0.49857457   -7.7209411    801.35432  0.014373553  0.012681509         3963 
 4647000    0.4995836    -7.752446    801.60697  0.014374991  0.012677113         3965 
 4648000   0.50360207   -7.7239238    800.49905  0.014352034  0.012672716         3972 
 4649000   0.51857966   -7.7311466    800.59071   0.01435059  0.012668324         3971 
 4650000    0.5048378   -7.7277982    801.15243   0.01435757   0.01266393         3960 
 4651000   0.50413498   -7.7195206    801.01148  0.014351958  0.012659541         3969 
 4652000   0.50298984   -7.7269383    800.41287   0.01433815  0.012655155         3956 
 4653000   0.50927666   -7.7129284    800.79684  0.014341945   0.01265077         3964 
 4654000   0.50948854   -7.7166297    801.03444  0.014343118  0.012646389         3968 
 4655000   0.50681712   -7.7389275    800.92426  0.014338064  0.012642006         3971 
 4656000    0.5127656   -7.7381511    800.49402  0.014327284   0.01263763         3964 
 4657000   0.50380562   -7.7313564    799.31524  0.014303114  0.012633251         3974 
 4658000   0.50875872     -7.74351    801.14354  0.014332753  0.012628877         3965 
 4659000    0.5031174    -7.728512    801.31486  0.014332741  0.012624503         3973 
 4660000   0.50819636    -7.736533    800.17553  0.014309291   0.01262013         3976 
 4661000   0.50761477   -7.7414773    800.93527  0.014319804   0.01261576         3971 
 4662000   0.50727993   -7.7483034    800.89454  0.014316004  0.012611392         3970 
 4663000   0.50058701   -7.7273483    800.88098  0.014312692  0.012607027         3968 
 4664000   0.49931903   -7.7256346    799.95294  0.014293041  0.012602665         3965 
 4665000   0.50739495   -7.7386221    800.41969  0.014298315  0.012598304         3972 
 4666000   0.50387414   -7.7443418    800.01278  0.014287984  0.012593943         3967 
 4667000   0.50575761   -7.7189214    801.64738  0.014314109  0.012589584         3969 
 4668000   0.50802438   -7.7236743    800.65515   0.01429333  0.012585227         3967 
 4669000   0.49461996   -7.7276386     801.1772  0.014299586  0.012580873         3961 
 4670000   0.50924769   -7.7252674     800.7354   0.01428864  0.012576519         3967 
 4671000   0.50433965    -7.745024    800.85043  0.014287634  0.012572168         3965 
 4672000    0.5072741   -7.7423809    800.84097  0.014284407   0.01256782         3964 
 4673000   0.50986967    -7.711701     801.7276  0.014297161  0.012563474         3962 
 4674000   0.50837587   -7.7285769    800.43752  0.014271101  0.012559131         3970 
 4675000   0.50318008    -7.745436    801.72624   0.01429102  0.012554787         3969 
 4676000   0.50127752   -7.7059295    800.52969   0.01426664  0.012550447         3970 
 4677000    0.5029407   -7.7326083     801.3752  0.014278654  0.012546107         3977 
 4678000   0.50991445   -7.7303115    799.99061  0.014250937   0.01254177         3965 
 4679000   0.50328087   -7.7354846    800.37051  0.014254658  0.012537434         3959 
 4680000   0.49681034    -7.746843    801.04033  0.014263539  0.012533101         3963 
 4681000   0.49422283   -7.7445822     800.2614  0.014246625  0.012528771         3960 
 4682000    0.5038301    -7.744093     800.4597  0.014247111  0.012524442         3971 
 4683000   0.50986242    -7.740119    799.13281  0.014220457  0.012520117         3969 
 4684000   0.50116527   -7.7391713    800.64482  0.014244321  0.012515792         3973 
 4685000   0.50104448   -7.7506079     801.5711  0.014257757  0.012511468         3964 
 4686000   0.50603878   -7.7327748    800.02393    0.0142272  0.012507144         3972 
 4687000   0.50534087   -7.7396805    801.49046  0.014250239  0.012502824         3956 
 4688000   0.49955938   -7.7329316    800.77788  0.014234533  0.012498505         3972 
 4689000    0.5131097    -7.743284    800.89888  0.014233648  0.012494188         3966 
 4690000   0.50787513   -7.7318388     799.4479  0.014204831  0.012489872         3967 
 4691000   0.49834044   -7.7371684    800.00205  0.014211647  0.012485558         3969 
 4692000   0.49456639    -7.750469     799.7134  0.014203492  0.012481248         3961 
 4693000    0.4990208   -7.7247786     800.5445  0.014215223  0.012476938         3960 
 4694000   0.50341456   -7.7583511    802.75296  0.014251402   0.01247263         3971 
 4695000   0.49322965   -7.7340688    800.68783  0.014211712  0.012468327         3969 
 4696000   0.49899907   -7.7311501    800.89652  0.014212389  0.012464022         3958 
 4697000    0.5016242   -7.7455226    800.77675  0.014207238  0.012459721         3962 
 4698000   0.49392354    -7.742966    800.11381  0.014192454  0.012455421         3966 
 4699000   0.50050507   -7.7559349    799.79445   0.01418377  0.012451123         3968 
 4700000   0.49650739   -7.7436839    800.01698  0.014184698  0.012446827         3972 
 4701000   0.49024046   -7.7321219     800.3649  0.014187848  0.012442531         3971 
 4702000   0.50870636   -7.7450025    800.63678  0.014189649  0.012438239         3970 
 4703000   0.51336422   -7.7620093    801.25155  0.014197525  0.012433949         3967 
 4704000    0.4954877   -7.7453569    800.04483   0.01417313  0.012429664         3968 
 4705000   0.49723432   -7.7334872    799.16785  0.014154585   0.01242538         3956 
 4706000   0.49526288   -7.7433799    800.08245  0.014167773  0.012421097         3975 
 4707000   0.50177776   -7.7377449    799.30303  0.014150964  0.012416816         3972 
 4708000    0.5132468   -7.7314763    798.84989  0.014139937  0.012412535         3970 
 4709000   0.50242225   -7.7507299    800.29404  0.014162491  0.012408257         3962 
 4710000   0.49368813   -7.7410896     799.7302  0.014149508  0.012403981         3966 
 4711000   0.49497811   -7.7548593    800.55324  0.014161063  0.012399708         3964 
 4712000   0.50288495   -7.7527955    800.37708  0.014154943  0.012395438         3966 
 4713000   0.49748108   -7.7522356    800.90428  0.014161261  0.012391167         3971 
 4714000   0.49157076   -7.7509986    800.17624  0.014145387  0.012386899         3971 
 4715000   0.49723773   -7.7404206     799.8641   0.01413687  0.012382633         3972 
 4716000   0.50996525   -7.7408904    799.38738  0.014125448  0.012378363         3958 
 4717000   0.50767095   -7.7493192    801.12413  0.014153136  0.012374103         3976 
 4718000   0.48973134   -7.7505069     801.6186   0.01415887  0.012369842         3972 
 4719000   0.49202141   -7.7645576    799.91232  0.014125738   0.01236558         3966 
 4720000   0.49832321   -7.7539429    802.32514  0.014165345  0.012361323         3970 
 4721000   0.49483963    -7.742972    800.85131  0.014136329  0.012357067         3964 
 4722000   0.49875389    -7.739965    800.68822  0.014130457  0.012352815         3966 
 4723000   0.49999775   -7.7494732    799.73734  0.014110688  0.012348562         3962 
 4724000   0.49338961   -7.7431414     798.7347  0.014090014  0.012344314         3965 
 4725000   0.49453291   -7.7417127    801.07841  0.014128367  0.012340067         3958 
 4726000   0.49799741   -7.7479824    800.18042  0.014109543  0.012335821         3968 
 4727000   0.49368958   -7.7372889    800.88124  0.014118913  0.012331579         3959 
 4728000   0.48850353   -7.7376249     799.6727  0.014094626  0.012327335         3966 
 4729000   0.49792952   -7.7492671    799.91355   0.01409589  0.012323096         3969 
 4730000    0.4937542   -7.7390448    801.32539  0.014117783  0.012318858         3972 
 4731000   0.49531603   -7.7536788    800.27632  0.014096321  0.012314624         3967 
 4732000   0.49808406   -7.7632591    799.58007   0.01408108  0.012310389         3968 
 4733000   0.48593996   -7.7507262     801.1551  0.014105837  0.012306154         3956 
 4734000   0.49787815    -7.757702    800.61127  0.014093284  0.012301923         3966 
 4735000   0.49697908   -7.7504555    799.44216  0.014069732  0.012297694         3970 
 4736000   0.49146173   -7.7512178    800.09675  0.014078279  0.012293466         3975 
 4737000   0.49935203   -7.7487353    799.57886  0.014066196  0.012289239         3968 
 4738000   0.49324366   -7.7379711    800.06063  0.014071701  0.012285016         3962 
 4739000   0.49732547   -7.7532664      800.363  0.014074049  0.012280795         3962 
 4740000   0.49023963    -7.746082    799.80013  0.014061184  0.012276574         3969 
 4741000   0.49009637   -7.7565178    801.83221  0.014093936  0.012272356         3968 
 4742000   0.48525637   -7.7462628    801.09237  0.014077962  0.012268139         3971 
 4743000   0.49720527   -7.7494794    801.42046  0.014080759  0.012263928         3965 
 4744000   0.49590087   -7.7519604    800.34536  0.014058905  0.012259716         3965 
 4745000   0.48892599   -7.7577419    800.47258  0.014058177  0.012255506         3970 
 4746000   0.48118928   -7.7392397    800.89251  0.014062588  0.012251298         3969 
 4747000   0.48173295   -7.7487421    800.47818  0.014052352  0.012247088         3964 
 4748000   0.48120848   -7.7592652     799.5131  0.014032454  0.012242883         3972 
 4749000   0.49056037   -7.7621656    800.49007  0.014046643  0.012238679         3974 
 4750000   0.49219286   -7.7516283    799.57359  0.014027607  0.012234479         3974 
 4751000   0.49537298   -7.7422065     798.8842  0.014012562  0.012230276         3973 
 4752000   0.48934865   -7.7626268    800.15961   0.01403198  0.012226077         3970 
 4753000   0.47962482   -7.7537683     800.5873  0.014036526  0.012221882         3965 
 4754000   0.49224545   -7.7493847    798.62078  0.013999102  0.012217689         3969 
 4755000   0.50463417   -7.7589531    800.82024  0.014034705  0.012213496         3970 
 4756000   0.48597412   -7.7485492    799.09508  0.014001526  0.012209304         3974 
 4757000    0.4902973    -7.756734    798.97319  0.013996447  0.012205117         3966 
 4758000   0.48548162   -7.7464158    798.92093   0.01399259  0.012200931         3966 
 4759000   0.49173687    -7.759896    799.52859  0.014000291  0.012196746         3969 
 4760000   0.49058106   -7.7552199    800.32713  0.014011329  0.012192567         3966 
 4761000   0.49834113   -7.7583816    800.00659  0.014002776  0.012188385         3969 
 4762000   0.49172627   -7.7451037    801.01894  0.014017551  0.012184207         3972 
 4763000   0.50213003   -7.7589947    799.41838  0.013986605  0.012180032         3965 
 4764000   0.48392875   -7.7524528    800.85904  0.014008869  0.012175856         3977 
 4765000   0.49325677   -7.7606522    798.94766  0.013972502  0.012171684         3966 
 4766000    0.4852122   -7.7495844    801.04145   0.01400618   0.01216751         3969 
 4767000   0.49136489   -7.7458931    800.28286  0.013989981  0.012163342         3971 
 4768000   0.48227417   -7.7726006    801.32631  0.014005284  0.012159173         3972 
 4769000   0.48062258   -7.7515661    799.70028  0.013973934  0.012155009         3964 
 4770000   0.47798965    -7.768714    800.04261  0.013976985  0.012150842         3971 
 4771000   0.48697251   -7.7590846    799.19053  0.013959172  0.012146679         3967 
 4772000   0.49783213   -7.7558595    800.18568  0.013973625  0.012142519         3964 
 4773000   0.48779542   -7.7722805    800.75124  0.013980572   0.01213836         3974 
 4774000   0.49608586    -7.766154    799.70457  0.013959373  0.012134206         3960 
 4775000    0.4827553   -7.7401011    799.09077  0.013945738   0.01213005         3967 
 4776000   0.48839478   -7.7603276    799.87786  0.013956551  0.012125897         3970 
 4777000   0.48441468   -7.7537813    798.96425  0.013937692  0.012121745         3965 
 4778000   0.49483916   -7.7696351    799.76835  0.013948799  0.012117598         3966 
 4779000   0.48074666   -7.7749393    800.30857    0.0139553   0.01211345         3974 
 4780000    0.4924027   -7.7390202     798.2537  0.013916557  0.012109301         3970 
 4781000    0.4843256   -7.7419231     799.4542  0.013934571  0.012105154         3968 
 4782000   0.48171457   -7.7508387    800.09987  0.013942909  0.012101011         3967 
 4783000   0.49406718   -7.7761151    799.52393  0.013929959  0.012096871         3968 
 4784000   0.48538439   -7.7592184    799.65238  0.013929285  0.012092734         3961 
 4785000   0.48949622   -7.7588095     799.9426  0.013931428  0.012088596         3964 
 4786000   0.49290823   -7.7590131    799.08246  0.013913541  0.012084459         3968 
 4787000   0.48728617   -7.7570754    799.51517  0.013918167  0.012080326         3966 
 4788000   0.48573016   -7.7554739    799.34797   0.01391235  0.012076193         3970 
 4789000   0.49327094   -7.7560214    799.68509  0.013915311  0.012072063         3967 
 4790000   0.48807684   -7.7654462    800.99644   0.01393522  0.012067933         3972 
 4791000   0.49079717   -7.7640429    799.80996  0.013911674  0.012063803         3970 
 4792000   0.47434669   -7.7698663     799.6135  0.013905354  0.012059678         3969 
 4793000    0.4817851   -7.7583594    800.61625  0.013919887  0.012055554         3971 
 4794000   0.48463837   -7.7686604    800.59946  0.013916692  0.012051433         3969 
 4795000   0.48367552    -7.771526    798.81599  0.013882794   0.01204731         3969 
 4796000   0.48586233   -7.7716057    799.72407  0.013895678  0.012043191         3978 
 4797000   0.48393416   -7.7550235    799.48945  0.013888706  0.012039074         3970 
 4798000   0.48266004   -7.7590484    798.34553  0.013865943  0.012034959         3971 
 4799000   0.49339484    -7.774951    800.02961  0.013892297  0.012030847         3971 
 4800000   0.49457178   -7.7644554    798.79756  0.013868013  0.012026737         3971 
 4801000   0.48452217    -7.757384    799.96196  0.013885336  0.012022629         3966 
 4802000   0.49189973   -7.7573647     799.8368  0.013880272  0.012018524         3964 
 4803000   0.47892641   -7.7623981    799.08075  0.013864264  0.012014422         3969 
 4804000   0.48529384   -7.7741958    799.01851  0.013860299   0.01201032         3969 
 4805000    0.4885987   -7.7712597    798.10121  0.013841506  0.012006219         3964 
 4806000   0.47711595   -7.7905258    799.36854    0.0138606  0.012002118         3970 
 4807000   0.48903676   -7.7567958    800.32027  0.013874216  0.011998019         3971 
 4808000   0.48362495   -7.7554177    798.99777  0.013848408  0.011993924         3967 
 4809000   0.48350687   -7.7563115     799.4332  0.013853074  0.011989831         3970 
 4810000    0.4849627   -7.7631537    798.94677  0.013841767  0.011985739         3967 
 4811000   0.48057291   -7.7570435    799.09171    0.0138414  0.011981646         3967 
 4812000   0.48880573   -7.7488553    798.74276  0.013832481  0.011977558         3967 
 4813000    0.4916281   -7.7573204    800.19434   0.01385474   0.01197347         3969 
 4814000   0.49194007   -7.7582564     799.4705  0.013839331  0.011969386         3966 
 4815000   0.47414723   -7.7529836    798.58291  0.013821096  0.011965305         3970 
 4816000    0.4794395   -7.7845907    801.00132  0.013860073  0.011961225         3964 
 4817000   0.48780885    -7.759214    798.04364  0.013806028  0.011957145         3973 
 4818000    0.4905722   -7.7459232    799.63336  0.013830659  0.011953068         3965 
 4819000   0.48423975   -7.7623278    798.26882  0.013804192  0.011948994         3967 
 4820000   0.47175064   -7.7591689    800.42049  0.013838528  0.011944922         3971 
 4821000   0.49353289   -7.7579461    799.03854   0.01381177  0.011940849         3963 
 4822000   0.47409831   -7.7541644    798.44463  0.013798642   0.01193678         3957 
 4823000    0.4808971   -7.7760017    800.52453  0.013831718  0.011932711         3963 
 4824000   0.47925029   -7.7684571    798.85717  0.013800048  0.011928644         3967 
 4825000   0.48629183   -7.7536981    799.43118  0.013807102  0.011924581         3963 
 4826000   0.47802544   -7.7506242    799.77011  0.013810093   0.01192052         3966 
 4827000   0.47704684    -7.770599    799.73662  0.013806654  0.011916459         3968 
 4828000   0.46855631   -7.7632608    799.09236  0.013792674  0.011912398         3964 
 4829000   0.47872677   -7.7563017    799.06879  0.013789411  0.011908336         3963 
 4830000   0.48386663   -7.7725461    799.14869  0.013787935  0.011904282         3971 
 4831000   0.47970807   -7.7762519    799.65211  0.013793764  0.011900228         3968 
 4832000   0.48043665   -7.7664869    798.34567  0.013768379  0.011896174         3961 
 4833000   0.47963988   -7.7765193    800.44459  0.013801721  0.011892126         3970 
 4834000   0.48520601   -7.7655758    799.48436  0.013782312  0.011888075         3963 
 4835000   0.46117096   -7.7633535    799.34072  0.013776986  0.011884028         3970 
 4836000    0.4737423   -7.7663885    799.12443   0.01377041  0.011879982         3971 
 4837000   0.47417428   -7.7809144    797.95832  0.013747473  0.011875937         3968 
 4838000   0.47385389    -7.772489     800.0168  0.013780088  0.011871893         3964 
 4839000   0.47005425   -7.7634291    799.01863  0.013760051  0.011867852         3968 
 4840000   0.46804832   -7.7830402    797.98409  0.013739395  0.011863813         3972 
 4841000   0.48677862   -7.7775792    798.81716  0.013750898  0.011859775         3973 
 4842000   0.47068594    -7.762228    799.24024  0.013755339  0.011855739         3959 
 4843000   0.48474434   -7.7574388     798.6205  0.013741835  0.011851704         3970 
 4844000       0.4745    -7.759688    798.67708  0.013739972  0.011847671         3974 
 4845000   0.48147302   -7.7563393    798.84357  0.013739999  0.011843643         3971 
 4846000    0.4765628   -7.7710348    799.41712  0.013747027  0.011839615         3968 
 4847000    0.4713643   -7.7772916    800.76327  0.013767335  0.011835587         3965 
 4848000   0.47655569    -7.776296    798.63311  0.013727879  0.011831563         3966 
 4849000   0.48101346   -7.7730345    799.31272  0.013736728  0.011827542         3963 
 4850000   0.48101964   -7.7835103    798.75792  0.013724363   0.01182352         3970 
 4851000   0.48309836    -7.765597    798.89087  0.013723818  0.011819502         3967 
 4852000    0.4796267   -7.7586265    800.18591  0.013743232  0.011815487         3974 
 4853000   0.49097009   -7.7662696     798.6302  0.013713686  0.011811472         3973 
 4854000   0.47835527   -7.7778377     799.3447  0.013723127  0.011807459         3972 
 4855000   0.47873787   -7.7677564    799.14675  0.013716903  0.011803449         3970 
 4856000   0.47060844   -7.7601732    799.45122  0.013719303  0.011799439         3976 
 4857000   0.47604695    -7.763554    798.65289  0.013702781  0.011795431         3964 
 4858000   0.46751567   -7.8014869    798.16028   0.01369151  0.011791421         3971 
 4859000   0.45863033   -7.7824636    798.87724  0.013700989  0.011787415         3966 
 4860000   0.47739293   -7.7958984    798.18734   0.01368634  0.011783412         3963 
 4861000   0.46714089   -7.7663365    798.41418  0.013687413   0.01177941         3961 
 4862000   0.46903169   -7.7641711    799.42903  0.013701992   0.01177541         3964 
 4863000   0.47343643   -7.7645187    798.15428   0.01367733  0.011771412         3967 
 4864000    0.4707469   -7.7650895     799.2684  0.013693606  0.011767415         3958 
 4865000   0.48659178    -7.773212    799.50696  0.013694878  0.011763423         3971 
 4866000   0.47562056   -7.7844585    798.14252  0.013668696  0.011759431         3976 
 4867000   0.48200186   -7.7842126    799.15684  0.013683255  0.011755437         3964 
 4868000    0.4698448   -7.7694267    797.63288  0.013654356  0.011751449         3969 
 4869000   0.48096662   -7.7723287      798.638  0.013668755  0.011747461         3971 
 4870000   0.48168673   -7.7665687    797.40345  0.013644823  0.011743474         3974 
 4871000   0.48011445   -7.7940489    799.25035  0.013673619  0.011739491         3961 
 4872000   0.47970588   -7.7653179    798.33749  0.013655198  0.011735508         3973 
 4873000   0.48236709   -7.7740582    798.10503   0.01364842  0.011731526         3966 
 4874000   0.45955722   -7.7742951    799.12662  0.013663087  0.011727548         3965 
 4875000   0.46816617   -7.7859471    800.01971  0.013675551  0.011723573         3971 
 4876000   0.48020046    -7.788339    799.16283  0.013658101  0.011719597         3967 
 4877000   0.46980145   -7.7840522    798.99946  0.013652509  0.011715623         3969 
 4878000   0.46869463   -7.7762438    799.03914  0.013650388  0.011711651         3973 
 4879000   0.47081738   -7.7811669    799.49699  0.013655411  0.011707681         3973 
 4880000   0.47428299   -7.7573762    798.10152  0.013628783  0.011703712         3970 
 4881000   0.47888484    -7.776393    798.32789  0.013629855  0.011699744         3970 
 4882000   0.47435234   -7.7740332    798.24406  0.013625633  0.011695779         3971 
 4883000   0.47384835    -7.787104    798.10543  0.013620476  0.011691815         3972 
 4884000   0.47272153   -7.7953494    800.22046  0.013653775  0.011687856         3970 
 4885000   0.47981306   -7.7877979    799.70206  0.013642137  0.011683896         3975 
 4886000   0.46532441   -7.7770051    798.97985  0.013627027   0.01167994         3971 
 4887000   0.45959054   -7.7849379    800.07712  0.013642949  0.011675984         3970 
 4888000   0.46843982   -7.7819276    799.23223  0.013625754   0.01167203         3969 
 4889000   0.46151825   -7.7815728    798.83326  0.013616167  0.011668076         3972 
 4890000   0.46488109   -7.7785415    797.95883   0.01359848  0.011664125         3969 
 4891000   0.48104467   -7.7908864    799.48238  0.013621658  0.011660176         3967 
 4892000   0.46341468   -7.7689778    798.82344  0.013607649  0.011656228         3963 
 4893000   0.46992261   -7.7917213    800.18112  0.013627991  0.011652285         3972 
 4894000   0.48135849   -7.7726757     798.8594  0.013602701   0.01164834         3978 
 4895000   0.47335746   -7.7707021    799.04863  0.013603143  0.011644403         3974 
 4896000   0.46463973   -7.7785267    798.56166  0.013592076  0.011640463         3971 
 4897000   0.46765635   -7.7964864    799.21477  0.013600415  0.011636523         3970 
 4898000   0.46852976    -7.789305    798.03437  0.013577555  0.011632585         3969 
 4899000    0.4726025   -7.8037586    798.95195  0.013590392  0.011628649         3967 
 4900000   0.46482565   -7.7703509    798.25244  0.013575722  0.011624716         3969 
 4901000   0.47299723   -7.7866885    800.54212  0.013611884  0.011620787         3973 
 4902000   0.46874743   -7.7735987    799.48676  0.013591166  0.011616858         3958 
 4903000   0.46275919   -7.7705014     798.1236  0.013565225  0.011612929         3973 
 4904000   0.45982911   -7.7646307    796.88565  0.013541423  0.011609001         3974 
 4905000   0.46506634   -7.7725761    798.57658   0.01356739  0.011605077         3977 
 4906000   0.46882147   -7.7767677    797.25694  0.013542209  0.011601155         3972 
 4907000   0.46656387   -7.7903807     799.0649  0.013570153  0.011597235         3971 
 4908000   0.46011735   -7.7834941    797.52305  0.013541209  0.011593318         3967 
 4909000   0.45737646   -7.7796166    798.32593   0.01355208  0.011589401         3975 
 4910000   0.45767208   -7.7781712    798.63351   0.01355454  0.011585483         3975 
 4911000   0.45697327   -7.7828437    799.13341  0.013560263  0.011581567         3958 
 4912000    0.4617959   -7.7891835    798.97077  0.013554743  0.011577654         3970 
 4913000   0.46808533   -7.7717089    797.66996   0.01352992  0.011573744         3974 
 4914000   0.45824869   -7.7743356    797.79996  0.013529371  0.011569833         3959 
 4915000   0.46170319   -7.7890203    799.55076  0.013556303  0.011565924         3964 
 4916000   0.45975072   -7.7755456    797.81808  0.013524174  0.011562016         3973 
 4917000   0.47110138   -7.7820234    797.68171  0.013519113  0.011558112         3971 
 4918000     0.467902   -7.7729976    798.59191  0.013531786  0.011554211         3967 
 4919000   0.46552532   -7.7985252    797.96221  0.013518368  0.011550312         3966 
 4920000   0.45350535   -7.7859935    798.11863  0.013518269  0.011546413         3969 
 4921000    0.4585124   -7.7841188     797.9142   0.01351206  0.011542516         3975 
 4922000   0.46629794   -7.7786033    798.59311   0.01352081   0.01153862         3966 
 4923000    0.4618937   -7.7758485    798.15402  0.013510631  0.011534725         3966 
 4924000   0.46014641   -7.7813171    798.62206  0.013515808  0.011530834         3977 
 4925000   0.46976354    -7.785383    798.76857  0.013515543  0.011526942         3972 
 4926000   0.47444308     -7.77611    798.50883  0.013508405  0.011523053         3966 
 4927000   0.46148133   -7.7925562    798.46668   0.01350495  0.011519166         3972 
 4928000   0.45606052   -7.7878534    799.09811  0.013512887  0.011515279         3967 
 4929000   0.46578866   -7.7876473    798.43844  0.013498993  0.011511395         3972 
 4930000   0.46358183   -7.7854701     797.9554   0.01348809  0.011507513         3968 
 4931000   0.46140289   -7.8128755    798.83768  0.013500265  0.011503634         3975 
 4932000   0.45386324   -7.7925603    797.77476  0.013479568  0.011499755         3969 
 4933000   0.48154626   -7.7923981    798.17507  0.013483598  0.011495878         3970 
 4934000    0.4714657   -7.7833925    797.63782  0.013471791  0.011492005         3974 
 4935000   0.46576669    -7.796941    798.75243  0.013487883  0.011488132         3967 
 4936000   0.46924124   -7.7930889     798.0303  0.013472959  0.011484258         3970 
 4937000    0.4625577   -7.8074261    797.96124  0.013469064  0.011480388         3972 
 4938000   0.46540586   -7.7865851    797.91147  0.013465497  0.011476519         3955 
 4939000   0.46945171   -7.8043765    799.14584  0.013483597  0.011472653         3966 
 4940000   0.46174093   -7.7936874    798.54991  0.013470815  0.011468788         3965 
 4941000   0.47168446   -7.7823672    798.20243  0.013462228  0.011464924         3960 
 4942000   0.46407509   -7.7894694    797.43423   0.01344655  0.011461062         3976 
 4943000   0.46108491   -7.7944733    798.53628  0.013462409  0.011457203         3976 
 4944000   0.45632762   -7.7983761    799.44637  0.013475026  0.011453343         3966 
 4945000    0.4526653   -7.8200855    797.87779  0.013445868  0.011449486         3976 
 4946000   0.45113546   -7.7788245    797.71355  0.013440382  0.011445629         3970 
 4947000   0.45730315   -7.7974607    800.15592  0.013478807  0.011441775         3968 
 4948000   0.45968695   -7.7925275    798.64564  0.013450647  0.011437922         3965 
 4949000    0.4639117   -7.7856913    798.12145  0.013439103  0.011434072         3970 
 4950000   0.45968207   -7.8002539    797.69718  0.013429245  0.011430223         3968 
 4951000   0.46655483   -7.7931176    797.72449  0.013426993  0.011426377         3974 
 4952000   0.45864217   -7.8149575    798.79103  0.013442229  0.011422532         3972 
 4953000   0.44932863   -7.8005006    798.96377  0.013442422  0.011418689         3969 
 4954000   0.44823782   -7.8151372    797.90147  0.013421839  0.011414847         3963 
 4955000   0.46028993   -7.7923996    798.29116  0.013425684  0.011411005         3971 
 4956000   0.45892346   -7.7846942    796.39755  0.013391134  0.011407167         3967 
 4957000   0.46387655   -7.7956749    797.64314  0.013409373  0.011403331         3969 
 4958000   0.45370679   -7.7892505     798.5691  0.013422232  0.011399496         3975 
 4959000   0.47221014   -7.8049916    798.85135  0.013424268  0.011395662         3974 
 4960000   0.46713985   -7.8035971    799.45878  0.013431767  0.011391833         3971 
 4961000   0.45462308   -7.7780227    797.91873   0.01340319  0.011388003         3967 
 4962000    0.4673459   -7.7976639    798.51269  0.013410464  0.011384176         3968 
 4963000   0.45912659   -7.7831544    797.25807  0.013386696   0.01138035         3971 
 4964000   0.44820138    -7.802715    798.17276  0.013399355  0.011376524         3970 
 4965000   0.45921702    -7.803633    798.39891  0.013400452  0.011372701         3968 
 4966000   0.45100226   -7.7977663    798.32591  0.013396528  0.011368879         3968 
 4967000   0.45447733   -7.7971871    797.30673  0.013376732   0.01136506         3967 
 4968000   0.46237006   -7.7898819    797.74481  0.013381388  0.011361244         3974 
 4969000   0.44860276   -7.8002231    797.25968  0.013370559  0.011357428         3976 
 4970000   0.45460145    -7.782988    797.53381  0.013372465  0.011353615         3965 
 4971000   0.45525221   -7.8047027    798.07482  0.013378844    0.0113498         3973 
 4972000   0.45866469   -7.7835762    797.79925  0.013371535  0.011345988         3973 
 4973000   0.44468837   -7.8138436    798.20015  0.013375564  0.011342177         3973 
 4974000   0.45290856   -7.7912948    797.68458  0.013364237  0.011338368         3969 
 4975000   0.46130273   -7.7934505    796.69141  0.013344915   0.01133456         3976 
 4976000   0.47241202   -7.8107755    798.17013  0.013366997  0.011330755         3970 
 4977000   0.44887288   -7.7982798    797.03633  0.013345327  0.011326949         3977 
 4978000   0.46152945   -7.7940221    798.65676  0.013369773  0.011323148         3964 
 4979000   0.46018414   -7.7906516    796.32002  0.013327978  0.011319347         3969 
 4980000   0.45819074   -7.7942443    798.37512  0.013359691   0.01131555         3966 
 4981000   0.45724038   -7.8117268    798.18981  0.013353908  0.011311754         3972 
 4982000   0.45786777   -7.7918094    796.94333  0.013330378  0.011307958         3969 
 4983000   0.45118266   -7.7937805    797.64557  0.013339447  0.011304165         3967 
 4984000   0.46093593   -7.8097712    797.59771   0.01333597  0.011300374         3975 
 4985000   0.44708511   -7.8036182    798.05242  0.013340896  0.011296584         3971 
 4986000   0.44955901   -7.7995092    798.61195  0.013347572  0.011292796         3964 
 4987000   0.45753887   -7.7959052    798.94203  0.013350412  0.011289008         3970 
 4988000   0.45128982   -7.7819976    798.17869  0.013334982  0.011285225         3966 
 4989000   0.45637296    -7.809144    798.71021  0.013341188  0.011281443         3969 
 4990000   0.45654242   -7.7867224    796.38666   0.01329971  0.011277663         3973 
 4991000   0.45564177   -7.8066351    798.01565  0.013324244  0.011273886         3970 
 4992000   0.46349331    -7.806955    798.32438  0.013326729  0.011270107         3967 
 4993000    0.4527166   -7.8007852    796.81016  0.013298788  0.011266333         3967 
 4994000   0.44558983   -7.8060391    798.02291  0.013316362  0.011262557         3970 
 4995000   0.44539546   -7.7925831    799.22997  0.013333833  0.011258784         3973 
 4996000     0.453527   -7.7947827    796.94482  0.013293048  0.011255011         3974 
 4997000   0.45439205   -7.8027566    797.27825  0.013295948  0.011251243         3969 
 4998000   0.44716129   -7.8059464      798.415  0.013312242  0.011247475         3969 
 4999000   0.44409753   -7.8052095    796.75071  0.013281835   0.01124371         3976 
 5000000   0.44497141   -7.8093035     797.8294  0.013297157  0.011239942         3974 
 5001000   0.45665385   -7.8085703    799.54765   0.01332313   0.01123618         3966 
 5002000    0.4587245   -7.7967025    797.74989  0.013290515  0.011232419         3968 
 5003000      0.46063   -7.8031222    798.56764   0.01330148   0.01122866         3971 
 5004000   0.45197702    -7.802435    797.25665  0.013276989  0.011224903         3966 
 5005000   0.44904347   -7.8150753      797.586   0.01327982  0.011221145         3971 
 5006000    0.4446957    -7.796906    797.11388  0.013269308   0.01121739         3973 
 5007000   0.44707016   -7.8049626    797.22047  0.013268432  0.011213638         3974 
 5008000   0.45593268   -7.7957594    798.06646   0.01327986  0.011209888         3969 
 5009000   0.45277176   -7.7906036    796.85185  0.013257002   0.01120614         3969 
 5010000   0.45378087   -7.8007284    797.91899  0.013272106   0.01120239         3966 
 5011000   0.45172613   -7.8081739    798.44137  0.013278144  0.011198644         3973 
 5012000   0.44904883   -7.8171711    797.57448  0.013261081    0.0111949         3966 
Loop time of 10621.9 on 48 procs for 5000000 steps with 4000 atoms

Performance: 81341.595 tau/day, 470.727 timesteps/s
99.4% CPU use with 48 MPI tasks x no OpenMP threads

MPI task timing breakdown:
Section |  min time  |  avg time  |  max time  |%varavg| %total
---------------------------------------------------------------
Pair    | 639.68     | 739.34     | 771.14     |  86.5 |  6.96
Neigh   | 66.037     | 67.835     | 69.908     |   9.7 |  0.64
Comm    | 563.22     | 602.69     | 696.53     | 108.4 |  5.67
Output  | 14.814     | 14.818     | 14.909     |   0.3 |  0.14
Modify  | 9039.2     | 9085.6     | 9127.5     |  24.2 | 85.54
Other   |            | 111.6      |            |       |  1.05

Nlocal:        83.3333 ave          92 max          74 min
Histogram: 1 2 6 4 4 11 11 6 2 1
Nghost:        1763.17 ave        1793 max        1743 min
Histogram: 3 6 10 9 4 4 5 3 2 2
Neighs:        10382.3 ave       11469 max        9556 min
Histogram: 2 6 4 8 12 7 4 3 1 1
FullNghs:      20764.5 ave       23238 max       18819 min
Histogram: 3 5 2 9 9 10 5 4 0 1

Total # of neighbors = 996697
Ave neighs/atom = 249.17425
Neighbor list builds = 269911
Dangerous builds = 2

#clear
#
#next RN
#
#jump SELF
Total wall time: 2:57:04
