
units lj                  # Use reduced LJ style units
atom_style atomic         # Uncharged point particles
atom_modify map hash      # Needed for indexing of clusters etc
                          # Used to be able to find where atoms are in relation to each other.

lattice fcc 1.0 spacing 1 1 1
Lattice spacing in x,y,z = 1.5874011 1.5874011 1.5874011
region box block 0 10 0 10 0 10 units lattice
create_box 2 box
Created orthogonal box = (0.0000000 0.0000000 0.0000000) to (15.874011 15.874011 15.874011)
  3 by 4 by 4 MPI processor grid
create_atoms 1 box
Created 4000 atoms
  using lattice units in orthogonal box = (0.0000000 0.0000000 0.0000000) to (15.874011 15.874011 15.874011)
  create_atoms CPU = 0.003 seconds
set type 1 type/fraction 2 0.31 78393
Setting atom values ...
  1268 settings made for type/fraction
mass 1 1.0
mass 2 1.0
pair_style lj/cut  3.5
pair_modify tail  yes
pair_coeff 1  1  1.0  1.0   # Intearaction between 1 and 1 set with epsilon = 1 and sigma = 1
pair_coeff 1  2  1.5  0.8
pair_coeff 2  2  0.5  0.88

write_data data.0
System init for write_data ...
Neighbor list info ...
  update every 1 steps, delay 10 steps, check yes
  max neighbors/atom: 2000, page size: 100000
  master list distance cutoff = 3.8
  ghost atom cutoff = 3.8
  binsize = 1.9, bins = 9 9 9
  1 neighbor lists, perpetual/occasional/extra = 1 0 0
  (1) pair lj/cut, perpetual
      attributes: half, newton on
      pair build: half/bin/atomonly/newton
      stencil: half/bin/3d
      bin: standard
WARNING: Not all mixed pair coeffs generated from mixing. Use write_data with 'pair ij' option to store all pair coeffs. (../write_data.cpp:312)


#############################
#   M E L T   S Y S T E M   #
#############################

velocity all create 2.4 6583654 mom yes dist gaussian # Assign velocities
                                                    # Temperature 2.4, random number seed, zero linear momentum
                                                                                # Gaussian distribution

timestep 0.002   # simulation timestep
thermo 1000       # output thermodynamic data every 1000 steps bf 100

# Define a fix  in this case with index 1 applied to all
# particles in the simulation. This fix is for simulations
# in the anisotropic NPT ensemble. Note that we use the MTK
# correction.
fix 1 all npt temp 2.4 2.4 0.1 iso 5.68 5.68 0.5 mtk yes tchain 5 pchain 5 # Use NPT ensemble
                                                                         # Set temperature and pressure and damping
                                                                         # Numbers of thermostats in chain and in barostat
run 10000          # run for 10000 steps
Per MPI rank memory allocation (min/avg/max) = 3.642 | 3.644 | 3.648 Mbytes
Step Temp E_pair E_mol TotEng Press Volume 
       0          2.4   -6.3727134            0   -2.7736134   -4.0086663         4000 
    1000     2.383743   -4.9714526            0    -1.396732    6.0920561    4101.4018 
    2000    2.3843423   -4.9326189            0   -1.3569996    5.4230515    4172.5826 
    3000    2.3935156   -4.9847193            0   -1.3953434    5.7322856    4124.3439 
    4000    2.4085135   -4.9927679            0   -1.3809008    5.2193421    4175.0868 
    5000    2.3676815   -4.9872247            0   -1.4365903    5.8127306    4110.6655 
    6000    2.4324156   -4.9972924            0    -1.349581    6.2283586    4076.1843 
    7000    2.3454983   -5.0130707            0   -1.4957028    5.8011287    4102.0157 
    8000    2.4885038   -5.0243121            0   -1.2924896    5.7776983    4099.2819 
    9000    2.3915756   -4.9278197            0   -1.3413531    5.5499604    4172.5692 
   10000    2.3908437   -4.9878251            0   -1.4024561     5.866388    4117.5504 
Loop time of 2.46422 on 48 procs for 10000 steps with 4000 atoms

Performance: 701234.887 tau/day, 4058.072 timesteps/s
99.6% CPU use with 48 MPI tasks x no OpenMP threads

MPI task timing breakdown:
Section |  min time  |  avg time  |  max time  |%varavg| %total
---------------------------------------------------------------
Pair    | 1.0481     | 1.1117     | 1.2568     |   3.0 | 45.12
Neigh   | 0.20399    | 0.21133    | 0.23906    |   1.2 |  8.58
Comm    | 0.70111    | 0.83175    | 0.91776    |   4.5 | 33.75
Output  | 0.00024741 | 0.00025341 | 0.00042078 |   0.0 |  0.01
Modify  | 0.25138    | 0.29425    | 0.34943    |   4.9 | 11.94
Other   |            | 0.0149     |            |       |  0.60

Nlocal:        83.3333 ave          95 max          74 min
Histogram: 3 3 6 6 13 8 3 3 1 2
Nghost:        1609.21 ave        1644 max        1562 min
Histogram: 1 0 2 9 6 7 8 9 5 1
Neighs:        9253.38 ave       10869 max        7673 min
Histogram: 1 2 3 9 12 6 11 1 1 2

Total # of neighbors = 444162
Ave neighs/atom = 111.04050
Neighbor list builds = 906
Dangerous builds = 200

# Equilibrate just above the melting temperature to avoid step fn in T

fix 1 all npt temp 1.25 1.25 0.1 iso 5.68 5.68 0.5 mtk yes tchain 5 pchain 5
run 2000
Per MPI rank memory allocation (min/avg/max) = 3.643 | 3.645 | 3.649 Mbytes
Step Temp E_pair E_mol TotEng Press Volume 
   10000    2.3908437   -4.9878251            0   -1.4024561     5.866388    4117.5504 
   11000     1.227267   -6.8637748            0   -5.0233346    5.6149393    3320.2187 
   12000    1.2438692   -6.9189321            0   -5.0535948    5.6514769    3303.6298 
Loop time of 0.614442 on 48 procs for 2000 steps with 4000 atoms

Performance: 562461.476 tau/day, 3254.985 timesteps/s
99.5% CPU use with 48 MPI tasks x no OpenMP threads

MPI task timing breakdown:
Section |  min time  |  avg time  |  max time  |%varavg| %total
---------------------------------------------------------------
Pair    | 0.25041    | 0.27189    | 0.30371    |   2.2 | 44.25
Neigh   | 0.037002   | 0.039408   | 0.042824   |   0.6 |  6.41
Comm    | 0.17321    | 0.21002    | 0.26216    |   3.5 | 34.18
Output  | 5.0915e-05 | 5.2425e-05 | 6.7935e-05 |   0.0 |  0.01
Modify  | 0.044071   | 0.088293   | 0.094308   |   3.2 | 14.37
Other   |            | 0.004773   |            |       |  0.78

Nlocal:        83.3333 ave          94 max          76 min
Histogram: 1 3 9 15 4 9 4 2 0 1
Nghost:        1868.23 ave        1884 max        1845 min
Histogram: 2 2 3 3 6 5 11 5 9 2
Neighs:        11566.2 ave       13340 max       10200 min
Histogram: 3 4 7 6 9 7 7 3 1 1

Total # of neighbors = 555177
Ave neighs/atom = 138.79425
Neighbor list builds = 142
Dangerous builds = 10

#############################
# L I N E A R  Q U E N C H  #
#############################

# Define solid atoms. This closely follows ten Wolde  Ruiz-Montero and Frenkel  Faraday Discuss  1996  104  93-110
# Compute components of the per-atom q6 vector
compute q6 all orientorder/atom degrees 1 6 components 6 nnn NULL cutoff 1.3 # compute the Q6 parameter.
                                                                             # Use all neighbours within 1.3 unit cell.

# get number of connections
compute coord_number all coord/atom orientorder q6 0.5

# An atom is solid if it has 8 or more connections (of a possible 14)
variable is_solid atom c_coord_number>=8
group solid dynamic all var is_solid    # Must be dynamic to update
dynamic group solid defined

# do clustering
compute cluster solid cluster/atom 1.3 # Create a cluster where all atoms within are solid and max 1.3 units from another member

# define chunks one chunk per cluster
compute clus_chunks solid chunk/atom c_cluster nchunk every compress yes  # Says which atoms are in which chunk

# count the size of each chunk
compute size_chunks solid property/chunk clus_chunks count


# Find the maximum entry in the vector of chunk sizes
variable max_n equal max(c_size_chunks)


# Thermo style which includes this variable
# thermo_style custom step temp pe vol v_max_n

thermo ${N}  # Print the thermo information every 100 steps
thermo 1000  

# Reset the npt fix at a lower temperature (below freezing)
fix 1  all npt temp  ${temp} ${temp}  0.1  iso  5.68  5.68  0.5  mtk yes tchain  5  pchain  5
fix 1  all npt temp  0.45 ${temp}  0.1  iso  5.68  5.68  0.5  mtk yes tchain  5  pchain  5
fix 1  all npt temp  0.45 0.45  0.1  iso  5.68  5.68  0.5  mtk yes tchain  5  pchain  5

dump dmp2 all dcd ${N} traj.dcd
dump dmp2 all dcd 1000 traj.dcd


compute msd all msd com yes
variable twopoint equal c_msd[4]/6/(step*dt+1.0e-6)
fix 9 all vector 10 c_msd[4]
variable fit equal slope(f_9)/6/(10*dt)
thermo_style custom step temp pe c_msd[4] v_twopoint v_fit v_max_n

fix 1 all npt temp 1.25 ${temp} 0.1 iso 5.68 5.68 0.5 mtk yes tchain 5 pchain 5
fix 1 all npt temp 1.25 0.45 0.1 iso 5.68 5.68 0.5 mtk yes tchain 5 pchain 5
run 5000000 # 5000000  # Run for this many steps
Neighbor list info ...
  update every 1 steps, delay 10 steps, check yes
  max neighbors/atom: 2000, page size: 100000
  master list distance cutoff = 3.8
  ghost atom cutoff = 3.8
  binsize = 1.9, bins = 8 8 8
  4 neighbor lists, perpetual/occasional/extra = 1 3 0
  (1) pair lj/cut, perpetual
      attributes: half, newton on
      pair build: half/bin/atomonly/newton
      stencil: half/bin/3d
      bin: standard
  (2) compute orientorder/atom, occasional
      attributes: full, newton on
      pair build: full/bin/atomonly
      stencil: full/bin/3d
      bin: standard
  (3) compute coord/atom, occasional
      attributes: full, newton on
      pair build: full/bin/atomonly
      stencil: full/bin/3d
      bin: standard
  (4) compute cluster/atom, occasional
      attributes: full, newton on
      pair build: full/bin/atomonly
      stencil: full/bin/3d
      bin: standard
Per MPI rank memory allocation (min/avg/max) = 9.811 | 9.817 | 9.821 Mbytes
Step Temp PotEng c_msd[4] v_twopoint v_fit v_max_n 
   12000    1.2438692   -6.9189321            0            0 8.3333333e+20            1 
   13000    1.2364789   -6.9556773   0.51337358 0.0032908562   0.04294804            2 
   14000    1.2478523   -6.8707777    1.0094438 0.0060085941  0.040728662            1 
   15000    1.2448404   -6.8815035    1.4331704 0.0079620578   0.03928275            2 
   16000    1.2497282   -6.8760505    1.9255768  0.010029045  0.038850007            1 
   17000    1.2266435   -6.9015153    2.3747683  0.011641021  0.038757427            3 
   18000    1.2289708   -6.9272686    2.8615607  0.013247966  0.038763282            1 
   19000    1.2284339   -6.9183667    3.3745624  0.014800712  0.039229813            1 
   20000     1.227736   -6.8949316    3.8105697  0.015877373  0.039453559            1 
   21000    1.2430595   -6.9174727    4.3035537  0.017077594  0.039664016            2 
   22000    1.2335213    -6.968683    4.6542997  0.017629923  0.039405004            2 
   23000    1.2586215    -6.940795    5.1107783  0.018517312  0.039007971            1 
   24000    1.2466649   -6.9478618    5.6247561  0.019530403  0.038866149            1 
   25000    1.2511678   -6.8920517    6.1532737  0.020510912  0.038970058            2 
   26000    1.2555418   -6.8778604    6.7214349   0.02154306  0.039079111            1 
   27000    1.2295134   -6.9399842    7.1403126  0.022038002  0.039303081            1 
   28000    1.2469273   -6.9398966    7.6407057  0.022740195  0.039339006            1 
   29000    1.2528308   -6.9269224    8.1570116  0.023439688   0.03946098            1 
   30000    1.2406951   -6.9274055    8.6237926  0.023954979  0.039539973            1 
   31000    1.2549549   -6.9001188    9.1743262  0.024662167  0.039631769            1 
   32000    1.2570134   -6.8907767    9.6499393   0.02513005  0.039739596            2 
   33000    1.2390641   -6.8729303    10.137959  0.025600907  0.039837277            1 
   34000    1.2466239   -6.9452099    10.654028  0.026112813  0.039946647       -1e+20 
   35000    1.2491481   -6.9035799    11.153389  0.026555688  0.040088154            2 
   36000    1.2230717   -6.8881937    11.678343  0.027033202  0.040203348            2 
   37000     1.266291    -6.908512    12.220853  0.027524443  0.040314509            2 
   38000    1.2693087   -6.9162662    12.783684  0.028034394  0.040454383            2 
   39000    1.2305489   -6.8643134    13.133725  0.028063515   0.04054815            2 
   40000    1.2190057   -6.8770602    13.655349  0.028448644  0.040590404            2 
   41000    1.2349157   -6.9131983     14.22689  0.028916443  0.040662492            2 
   42000    1.2441229   -6.9324533    14.757264  0.029280285  0.040769202            1 
   43000    1.2483462   -6.9164708    15.253357  0.029560769  0.040860649            2 
   44000    1.2286134   -6.9235674     15.83794  0.029996097  0.040964522            1 
   45000    1.2170658   -6.9503166     16.32044  0.030223037  0.041075501            3 
   46000    1.2199073    -6.919333    16.736682  0.030320075  0.041137028            1 
   47000    1.2292393   -6.9049193    17.303684  0.030680291   0.04121099            1 
   48000    1.2142826   -6.8950979    17.864039  0.031013956   0.04128399            1 
   49000    1.2520623   -6.9036496    18.277636  0.031084414  0.041343728            1 
   50000    1.2466081   -6.9233967    18.748016  0.031246693  0.041366283       -1e+20 
   51000    1.2514981   -6.9164421      19.2322  0.031425163  0.041378534            1 
   52000    1.2321517   -6.9295881     19.65497  0.031498349  0.041380435            1 
   53000    1.2396334   -6.9299732    20.040258  0.031509839  0.041356537            1 
   54000    1.2302636   -6.8932179    20.468035  0.031586474  0.041308993            1 
   55000    1.2409505   -6.9081996    20.908549   0.03167962  0.041241396            1 
   56000       1.2591   -6.8989019    21.348059  0.031767945  0.041170118            2 
   57000    1.2396559   -6.9000203     21.79575  0.031865131  0.041096015            1 
   58000     1.243514   -6.9422059    22.251348  0.031970328  0.041028913            3 
   59000    1.2244318   -6.8984769    22.965938  0.032437765  0.040982658            1 
   60000    1.2598329   -6.9147087    23.460305  0.032583757  0.040970219            1 
   61000    1.2410579    -6.939178    23.857492  0.032592202  0.040959607            2 
   62000    1.2601507   -6.9201719    24.449549  0.032862297  0.040942138       -1e+20 
   63000    1.2221695   -6.9585287    24.760524  0.032752015  0.040939365            2 
   64000    1.2222006   -6.9475123    25.052966  0.032621049   0.04090554            1 
   65000    1.2290613   -6.9514672    25.539025  0.032742339  0.040844043            1 
   66000    1.2195908   -6.9105359    26.010298  0.032841285  0.040788513            1 
   67000    1.2462889   -6.9076137    26.449534   0.03289743  0.040729219            1 
   68000     1.254478   -6.9327776    26.865948  0.032923955  0.040666958            2 
   69000    1.2376774    -6.949597    27.184125  0.032831068  0.040587039            2 
   70000    1.2464767   -6.9127099    27.526071  0.032769132  0.040505511            2 
   71000    1.2456556     -6.90282     27.97002  0.032828662  0.040410682       -1e+20 
   72000    1.2200737   -6.9315193    28.351355  0.032814068  0.040312651            1 
   73000    1.2466641    -6.926967    28.940062    0.0330366  0.040217728            2 
   74000    1.2645117   -6.9111181    29.339227  0.033039669  0.040142275            1 
   75000    1.2190055   -6.9955579    29.733034  0.033036704  0.040068512            1 
   76000    1.2100779   -6.9330901    30.457937  0.033396861  0.040011061            3 
   77000    1.2456271   -6.9441034    30.907538  0.033449716  0.039962209            3 
   78000      1.23481   -6.8766813     31.61932  0.033781325  0.039921661            2 
   79000    1.2549962   -6.9477672    31.888035  0.033637167  0.039891441            1 
   80000     1.249966   -6.8986249    32.323585  0.033670401  0.039852283            2 
   81000     1.224697   -6.9230203    32.686478  0.033628063  0.039812827            3 
   82000    1.2430808   -6.9459309    33.067416  0.033605097  0.039762405            7 
   83000     1.259688   -6.9189147    33.463244  0.033597634  0.039708419            1 
   84000    1.2072996   -6.9584514     33.89132  0.033622341  0.039649334            1 
   85000    1.2395247   -6.9195541    34.103184  0.033434494  0.039577708            2 
   86000    1.2561397   -6.9248316    34.648958  0.033574571  0.039516076            2 
   87000    1.2727076   -6.9134147      35.0412  0.033564368   0.03945176            2 
   88000    1.2315486   -6.9320923    35.479624  0.033598128  0.039390078            2 
   89000    1.2530013   -6.9497168    36.065874  0.033769544  0.039334018            1 
   90000    1.2672316   -6.9863787    36.492907  0.033789728  0.039285413            1 
   91000    1.2208539   -6.9439097    37.208028  0.034073286   0.03925613            2 
   92000    1.2493303   -6.9296878    37.573731  0.034034176    0.0392299            2 
   93000    1.2141284   -6.9495597    38.097121  0.034137205    0.0392019            1 
   94000    1.2497448   -6.9382917    38.473626  0.034107824  0.039168298            1 
   95000    1.2120759   -6.9670855     38.53783  0.033805114    0.0391258            2 
   96000     1.244798   -6.9285499    39.030122  0.033880314  0.039074124            2 
   97000    1.2640992   -6.9116137    39.583151  0.034006144  0.039022089            2 
   98000    1.2275877    -6.921002    39.878614  0.033910386  0.038972417            4 
   99000    1.2519376    -6.966967    40.285728  0.033910545  0.038924123            2 
  100000    1.2388648   -6.9221564    40.785734  0.033988111  0.038880583            1 
  101000    1.2299255    -6.945109    41.438463  0.034190151  0.038843303            2 
  102000    1.2579341   -6.9431951    41.660825  0.034036621  0.038804727            3 
  103000    1.2492576   -6.9551557     42.23209  0.034168357   0.03876432            2 
  104000    1.2430514   -6.9482374    42.803822  0.034297934  0.038729925            1 
  105000    1.2334572   -6.9184196    43.318565  0.034379813  0.038700938            2 
  106000    1.2225523   -6.8983978    43.826993  0.034455183   0.03867251            2 
  107000    1.2418404   -6.9520943    43.923091  0.034208015  0.038638681            1 
  108000    1.2311973   -6.8927731    44.345872  0.034217493   0.03859625            2 
  109000    1.2348062   -6.9877226    44.751566  0.034213735  0.038554714            2 
  110000     1.220128   -6.9297695    45.075822   0.03414835  0.038511831            1 
  111000    1.2382723   -6.9072884    45.684688  0.034297813  0.038473066            2 
  112000    1.2197137    -6.942864    45.807732  0.034083134  0.038431935            2 
  113000    1.2527362   -6.9576363    46.362185  0.034190402  0.038385779            1 
  114000    1.2503633   -6.8887377    46.911158  0.034291782  0.038346976            1 
  115000    1.2027274   -6.9729103    47.116859  0.034142652  0.038310051            1 
  116000    1.2482164   -6.9152697    47.546236  0.034156779  0.038270142            2 
  117000    1.2287758   -6.9463974    48.087372  0.034250265   0.03823091            1 
  118000    1.2300255   -6.9033849    48.638564  0.034349268  0.038197235            1 
  119000    1.2329049   -6.9081111    49.184728  0.034443087  0.038165678            1 
  120000    1.2249749   -6.9195439    49.668054  0.034491704  0.038140697            2 
  121000     1.221949   -6.9280605     49.78182     0.034285  0.038114138            1 
  122000    1.2436852   -6.9545463    50.284285  0.034347189  0.038083361            3 
  123000    1.2217122   -6.9352003    50.662811  0.034324397   0.03804941            2 
  124000    1.2462435      -6.9463    51.276321  0.034459893  0.038021239            1 
  125000    1.2363969   -6.9276786     51.89736   0.03459824  0.037999465            2 
  126000     1.249844    -6.921964    52.199457   0.03452345  0.037975884            2 
  127000    1.2288652   -6.9266897    52.537133  0.034473184  0.037951055            2 
  128000    1.2086187   -6.9107253    53.106113  0.034574292  0.037926412            1 
  129000    1.2296905   -6.9382984     53.35104  0.034464496  0.037899205            1 
  130000    1.2318552   -6.8771959    54.022308  0.034629684  0.037878088            2 
  131000    1.2441213   -6.9577641    54.484117  0.034659107  0.037859413            1 
  132000    1.2247693   -6.9629084    54.897738  0.034657663  0.037849114            1 
  133000    1.2121811   -6.9884509    55.415717  0.034721627  0.037837292            1 
  134000    1.2372326   -6.9555594     56.06156  0.034864154  0.037829129            1 
  135000    1.2189667    -6.944535    56.765931  0.035040698  0.037822461            2 
  136000    1.2082188   -6.9851963    57.038203  0.034949879  0.037821174            1 
  137000    1.2119632   -6.9486562     57.24429  0.034820128   0.03781769            1 
  138000    1.2322125   -6.9344981    58.122857  0.035098343  0.037813399            1 
  139000     1.232772   -6.9267711    58.449903  0.035041908  0.037809579            1 
  140000    1.2425268   -6.9363915    58.841205  0.035024527  0.037804176            2 
  141000    1.2793533   -6.8912808    59.392973   0.03510223  0.037800851            1 
  142000    1.2402893   -6.9272726    59.787967  0.035086835  0.037800828            4 
  143000    1.2219506   -6.9696916    59.969597  0.034947317  0.037795885            2 
  144000    1.2370482   -6.9030997    60.593093  0.035065447  0.037787828            2 
  145000    1.2068841   -6.9574462    60.758465  0.034918658  0.037776729            2 
  146000    1.2322618   -6.9138565    61.603767  0.035161967  0.037765653            1 
  147000    1.2309654   -6.9068307    62.046082  0.035173516  0.037757821            2 
  148000    1.2206739   -6.9731744    62.104087  0.034968517  0.037750552            7 
  149000    1.2372043   -6.9624433    62.621173  0.035023027  0.037741808            1 
  150000    1.2236067   -6.9688877    63.250541  0.035139189  0.037733722            1 
  151000    1.2134363   -6.9658077    63.413152   0.03499622  0.037728875            1 
  152000    1.2487167   -6.9371518    64.339604  0.035273905  0.037721374            1 
  153000     1.231654   -6.9684807    64.519722  0.035141461  0.037715713            1 
  154000    1.2184587   -6.9610873    64.819694  0.035075592  0.037711213            2 
  155000    1.2197731   -6.9312439    65.920774  0.035441276   0.03771094            3 
  156000     1.233432   -6.9690246      65.9492  0.035229273  0.037711709            1 
  157000    1.2202357   -6.9658811    66.552592  0.035325155  0.037712593            1 
  158000    1.2160765   -6.9676608    66.794156  0.035228985  0.037709361            1 
  159000    1.2043804   -6.9170452    67.665452  0.035464073  0.037708393            1 
  160000    1.2786824   -6.9635765    67.774167  0.035299045  0.037709241            1 
  161000    1.2154339   -6.9315988    68.258801  0.035330642  0.037707947            1 
  162000    1.2320503   -6.9747255    68.740554  0.035360367  0.037705537            2 
  163000    1.2220175   -6.9275899    69.471122  0.035516933  0.037703967            1 
  164000    1.2641723   -6.9136916    69.734493  0.035434193  0.037703726            1 
  165000    1.1966183    -6.928316    70.329955  0.035520179  0.037702437            1 
  166000     1.230603   -6.9455694    70.605213  0.035444384  0.037700143            2 
  167000    1.2307513   -6.9258964     71.11649  0.035487271  0.037697563            1 
  168000    1.2322477   -6.9857485    71.146278  0.035290812  0.037692832            1 
  169000    1.2106982   -6.9435639    71.799517  0.035404101  0.037688868            1 
  170000    1.2365233   -6.9250395    72.687477  0.035631116  0.037687156       -1e+20 
  171000    1.2290602   -6.9443993    72.726987  0.035442001  0.037684233            2 
  172000    1.2548927   -6.9418201     73.11367   0.03542329  0.037681477            2 
  173000    1.2167287   -6.9700447    73.519441  0.035413989  0.037677678            3 
  174000    1.2311362   -6.9588448    74.156091  0.035515369  0.037675495            2 
  175000    1.2147599   -6.9403092    74.419785  0.035437993  0.037671795            2 
  176000     1.227279   -6.9733871    74.693404  0.035366195  0.037664295            1 
  177000    1.2161727   -7.0065291    75.127161  0.035370603  0.037655206            1 
  178000    1.2416506   -6.9818796    75.507988  0.035350182  0.037645844            1 
  179000    1.2392273   -6.9770812      75.8032   0.03529013  0.037636386            2 
  180000    1.2268426   -6.9223634    76.114036   0.03523798  0.037625559            4 
  181000    1.2369186   -6.9702209    76.159026  0.035064008  0.037611227            4 
  182000    1.2300235    -6.951821     76.63525    0.0350894  0.037594667            2 
  183000    1.2619386   -6.9793914    77.064559  0.035093151   0.03757629            2 
  184000    1.2343088    -6.956124    77.491005  0.035095564  0.037558117            2 
  185000    1.2372411   -6.9630584    77.864738  0.035074206   0.03754032            1 
  186000    1.2496369   -6.9767047    78.163175  0.035019344  0.037520762            2 
  187000    1.2135094   -6.9409293    78.803924  0.035117613  0.037500871            1 
  188000    1.2342235   -6.9752764    78.747529   0.03490582  0.037478209            2 
  189000    1.2350163   -6.9965794    79.385141  0.035002267  0.037456556            2 
  190000    1.2286605   -6.9805563    79.775176  0.034989112    0.0374337            1 
  191000    1.2227132   -6.9778438    80.221457  0.035000636  0.037411109            3 
  192000    1.2191952   -6.9600646    80.679239  0.035017031  0.037391382            1 
  193000     1.216892   -6.9662545    81.062415  0.035001043  0.037371404            1 
  194000    1.2025885   -6.9778808     81.11572  0.034843522  0.037346855            2 
  195000     1.228296    -6.975445    81.803487  0.034958755  0.037325657            2 
  196000    1.2350098   -6.9484337    82.233969  0.034963422  0.037306057            1 
  197000    1.2163305   -6.9782282    82.561879  0.034924653  0.037287153            2 
  198000    1.2471747   -6.9455247    83.071556  0.034962776  0.037268769            1 
  199000    1.2476629   -6.9756495    83.650906  0.035029692  0.037252027            1 
  200000    1.1785057   -6.9722501    84.107293  0.035044705  0.037236559            1 
  201000    1.2304134   -6.9697874    84.554649  0.035055824  0.037223829            1 
  202000    1.2126019   -6.9246794    85.174422  0.035137963  0.037210371            1 
  203000      1.21701   -6.9687548    85.493147  0.035095709  0.037197512            2 
  204000    1.2201093   -6.9705798    86.128909  0.035183378  0.037182945            1 
  205000    1.2115616   -6.9662766    86.218942   0.03504835  0.037167893            1 
  206000     1.197912   -7.0011138    86.523394  0.035001373  0.037152517            1 
  207000    1.2039906    -6.959616    87.132777  0.035077607  0.037135878            2 
  208000     1.209851   -7.0132165    87.520135  0.035064157  0.037120885            2 
  209000    1.2002788   -6.9630258    87.987975  0.035082925  0.037104635            1 
  210000    1.2295591   -6.9553728    88.324367  0.035049352   0.03709002            1 
  211000    1.1980508   -6.9730591    89.223195  0.035238228  0.037077175            2 
  212000    1.2223962   -6.9857706    89.590392  0.035216349  0.037065921            1 
  213000    1.2062851   -6.9378724    90.035873  0.035225302  0.037055731            1 
  214000    1.2037736   -6.9758227    90.295436  0.035161774  0.037045901            3 
  215000    1.1990244   -6.9597281    90.923565  0.035241692  0.037037024            1 
  216000    1.2162768   -6.9586516    91.759035  0.035400862  0.037031253            1 
  217000    1.2132934   -6.9471109    92.163585  0.035393082  0.037027474            1 
  218000    1.2221444   -6.9677226    92.510989  0.035363528  0.037021913            1 
  219000       1.2255   -6.9978843     92.51463  0.035203436   0.03701489            2 
  220000    1.2173584    -6.997561    93.141851  0.035281004  0.037008212            1 
  221000    1.1909113   -6.9313259    93.921516  0.035415353  0.037001172            2 
  222000    1.2093324   -6.9803369    94.135277  0.035336065  0.036993849            2 
  223000    1.2201439   -6.9681191    94.431624   0.03528835  0.036983614            3 
  224000    1.2088543   -6.9615079     94.59902  0.035193088  0.036972416            1 
  225000    1.1919494   -7.0225531    95.168224   0.03524749  0.036962152            2 
  226000    1.2028382   -6.9947159    95.535527  0.035226964  0.036953736            3 
  227000    1.1953658   -6.9548717     96.14547  0.035295694  0.036945746            2 
  228000    1.2497321   -7.0211326    96.345722   0.03521408  0.036936921            2 
  229000    1.2359211   -6.9836285    96.972082  0.035288239  0.036929445            2 
  230000    1.2381255   -6.9951112    97.053392  0.035164272  0.036920279            1 
  231000    1.2027325    -6.981774     97.37119  0.035126692  0.036908473            2 
  232000    1.2261371   -7.0070182     97.88506  0.035159863  0.036897434            2 
  233000    1.2052707   -6.9977778    98.125467  0.035094945  0.036885088            3 
  234000    1.2061006   -6.9928639    98.943002  0.035236112  0.036875421            3 
  235000    1.2012981   -7.0062898    99.168703  0.035166207  0.036865618            1 
  236000    1.2083553   -7.0240472    99.399886   0.03509883  0.036855089            2 
  237000    1.2317541   -6.9941062    100.19481  0.035230242  0.036844764            1 
  238000    1.1981041   -6.9766678     100.9298  0.035339566  0.036835664            2 
  239000    1.2099972   -6.9648662     101.4277  0.035365306  0.036828456            1 
  240000    1.2040077   -6.9706173    101.42039  0.035215412  0.036820217            1 
  241000    1.1937501   -6.9417718    102.47015  0.035432278  0.036812941            1 
  242000     1.238456   -6.9743469    102.63553  0.035342815  0.036806645            1 
  243000    1.2141472   -6.9884547    103.07103  0.035346719  0.036799576            1 
  244000     1.218704   -6.9697452     103.5599  0.035368818   0.03679558            1 
  245000    1.2025635   -7.0015874    104.25359  0.035460403  0.036791086            4 
  246000    1.1883407   -6.9601972    104.33738  0.035344641  0.036787887            1 
  247000    1.2234752   -6.9692316    104.93241  0.035402297  0.036784038            2 
  248000    1.1947683   -6.9600873    105.56146  0.035470922   0.03678141            1 
  249000    1.2079258   -6.9568192    106.07318  0.035499725  0.036778098            1 
  250000    1.2300552   -6.9690013    106.34162  0.035447207   0.03677425            1 
  251000    1.2100603   -6.9858346    106.81058   0.03546168  0.036771412            2 
  252000     1.199417   -7.0052363    106.70139  0.035284851  0.036767095            1 
  253000    1.1976092   -7.0159404    107.18934  0.035306106  0.036762281            1 
  254000    1.2269576   -7.0052344    107.19932  0.035170382  0.036754173            1 
  255000    1.2109535   -6.9618845    108.15298   0.03534411  0.036746187            1 
  256000      1.24186   -7.0046059    108.36141  0.035273896  0.036739313            1 
  257000    1.2152846   -6.9901712     108.7466  0.035261545  0.036729934            1 
  258000    1.2402487   -6.9832809    109.09666  0.035237938  0.036718986            1 
  259000    1.2282537   -6.9938802    109.40399   0.03520077  0.036709087            3 
  260000    1.1857102    -6.992146    109.76376  0.035180693  0.036698545            2 
  261000    1.2312985   -7.0224758    110.22718  0.035193865  0.036687607            2 
  262000    1.2159759   -6.9950973     110.4018  0.035115076  0.036678592            1 
  263000    1.2260297   -6.9788391    111.34497  0.035280408  0.036671043            1 
  264000    1.1941639   -6.9839699    111.55172  0.035212032  0.036662359            1 
  265000    1.2197162   -7.0255861    111.59421  0.035092518  0.036653093            3 
  266000    1.2320765    -6.980276    112.43424  0.035223758  0.036644087            2 
  267000    1.1979855   -6.9906913    112.71296  0.035178826  0.036636756            1 
  268000    1.2357435   -7.0079346    113.53506  0.035303189  0.036629188            1 
  269000    1.2099985   -6.9924031    113.36484  0.035119219  0.036620918            2 
  270000     1.229494   -6.9590634    114.35031  0.035293305  0.036611717            2 
  271000    1.1839104   -7.0252465    114.45566  0.035195466  0.036602521            1 
  272000    1.2070321    -6.951108    114.88551  0.035197766  0.036593353            1 
  273000    1.1956714   -6.9742659    115.18238  0.035159457  0.036583948            2 
  274000    1.1978601   -6.9727689    115.81885  0.035224712  0.036575377            3 
  275000    1.2190208    -7.008564     115.9722  0.035143091  0.036566624            1 
  276000    1.1972614   -7.0202297    116.26378  0.035103799  0.036558274            1 
  277000     1.213311   -6.9859428    117.50604  0.035350794  0.036552391            2 
  278000    1.1932996   -6.9771053    117.77933  0.035305555  0.036546847            1 
  279000    1.1895187   -7.0061111    118.29694  0.035333614  0.036543135            2 
  280000    1.2009288   -7.0228545    118.71575  0.035332069  0.036539082            2 
  281000    1.1850605   -6.9925204    119.76753  0.035518247  0.036535291            1 
  282000    1.2254055   -7.0007224    119.69654  0.035371317  0.036531159            1 
  283000    1.2292365   -7.0163967     120.3366  0.035434806  0.036526632            3 
  284000     1.227531   -6.9698062    120.84468   0.03545912   0.03652214            2 
  285000    1.2006068   -6.9943104    120.98771  0.035376522  0.036517351            2 
  286000    1.2175232    -7.036378    120.73976  0.035180583  0.036510755            2 
  287000    1.2186003   -7.0237265    121.30068  0.035220872  0.036503137            1 
  288000    1.2233737   -7.0147257    121.70241  0.035214817  0.036495786            2 
  289000    1.2124957   -6.9693562    122.24971  0.035250782  0.036488716            2 
  290000    1.2206858   -6.9960875    122.51092  0.035204287  0.036480664            1 
  291000    1.2083078   -7.0408122    122.46002  0.035068735  0.036471359            5 
  292000    1.1961918   -6.9990921    123.07661  0.035124604  0.036463179            3 
  293000    1.1921498   -7.0088609    123.84936  0.035224506  0.036455385            1 
  294000    1.2131193   -6.9729188    124.30716  0.035234455  0.036447892            1 
  295000    1.2221878   -7.0258629    124.25687  0.035100809  0.036440353            2 
  296000    1.2023117   -6.9591615    125.53124  0.035341003  0.036432465            2 
  297000    1.2297525   -7.0104791    125.60836  0.035243648  0.036424424            1 
  298000    1.1994305   -6.9952598      125.818  0.035184005  0.036416342            2 
  299000    1.2045344   -7.0190102    125.93287  0.035098347  0.036407437            2 
  300000    1.2244717   -7.0064715    126.61482  0.035170783  0.036398745            2 
  301000    1.2233344   -6.9995782    126.64835   0.03506322  0.036389597            2 
  302000    1.1958944   -7.0060569    127.04027  0.035055261  0.036380706            3 
  303000    1.1963995   -7.0128023    127.57218  0.035085858  0.036371955            1 
  304000     1.207344   -6.9782054    128.22546  0.035149524   0.03636414            1 
  305000    1.2030928   -7.0429187     128.2794  0.035049018  0.036357105            3 
  306000    1.1982689   -7.0111373    129.02982   0.03513884  0.036348874            1 
  307000    1.1827644   -6.9888034    129.31162  0.035100873   0.03634116            2 
  308000    1.2008305   -7.0411121    129.71712  0.035096622  0.036333821            2 
  309000      1.19905    -7.009651    130.37342  0.035160039  0.036325154            2 
  310000    1.2120654   -7.0484051    130.45058  0.035067359  0.036317595            1 
  311000    1.2010498   -6.9780673    131.42076  0.035214566  0.036311256            2 
  312000    1.2038609    -7.034868    131.61229  0.035152856  0.036305917            1 
  313000    1.2277004   -7.0335902    132.15333  0.035184593  0.036300082            1 
  314000    1.1848468   -6.9876394    132.58253  0.035186447  0.036294827            3 
  315000    1.1997174    -7.023173    132.87012  0.035150827   0.03628842            1 
  316000    1.2023708   -7.0382371    133.24775  0.035139174  0.036282287            4 
  317000    1.2258525   -6.9849407    133.97995  0.035220807  0.036276957            2 
  318000    1.2039247   -7.0181138    134.35554  0.035208474  0.036272453            4 
  319000    1.1999008   -7.0415112     135.1202  0.035297858  0.036268678            2 
  320000    1.2022659   -7.0163283    136.20221  0.035469324  0.036265889            1 
  321000    1.2180868    -6.998546    136.53052   0.03544406  0.036263231            2 
  322000    1.1971958   -7.0419064    136.66492  0.035368768   0.03626039            1 
  323000    1.2039979   -6.9787986    137.20376  0.035398287  0.036256876            3 
  324000    1.1914791   -6.9751587    137.39725  0.035338799  0.036252115            3 
  325000    1.1919868   -7.0516894    137.55127  0.035269557  0.036247441            5 
  326000     1.213158   -6.9873097    138.18165  0.035322508  0.036242679            2 
  327000    1.2085773   -7.0220905    138.06198  0.035183992  0.036237832            2 
  328000    1.2137343   -7.0675389    138.23854  0.035121581  0.036232774            3 
  329000    1.2149458   -7.0342254    138.79956   0.03515693  0.036228227            2 
  330000    1.2243737   -6.9945551    139.76201  0.035293437  0.036223593            1 
  331000    1.1759955   -6.9812291    140.70769  0.035424896   0.03621978            1 
  332000    1.1909986   -7.0126149    140.18141  0.035186096  0.036215743            1 
  333000    1.1854723   -6.9704509    141.45959  0.035400297  0.036213075            2 
  334000    1.1828421   -7.0059084    141.00919  0.035181934  0.036209679            1 
  335000    1.1989919   -7.0220875    141.70735  0.035250583  0.036204445            2 
  336000    1.1814655    -7.005665    141.93755  0.035202766  0.036197448            1 
  337000    1.1975865   -7.0360281    142.21311  0.035166446  0.036190159            2 
  338000    1.1995234   -7.0136903    142.31465  0.035087439  0.036182806            2 
  339000    1.1981979   -7.0122729    142.67798  0.035073249   0.03617539            1 
  340000    1.1985706   -6.9884515    143.53678  0.035180584  0.036168774            2 
  341000    1.2027273   -6.9915819    143.55885  0.035082809  0.036163299            1 
  342000    1.1990701   -7.0251573    144.36907  0.035177648  0.036157404            1 
  343000      1.21619   -7.0140976      144.439  0.035092081  0.036151236            1 
  344000    1.1956169   -7.0258231    144.92684  0.035108247  0.036144169       -1e+20 
  345000    1.2239613    -7.061346    145.38361  0.035116814  0.036137546            1 
  346000    1.1888129   -6.9868911    146.43416  0.035268342  0.036131434            2 
  347000    1.2118661   -7.0575837    146.65331  0.035219335  0.036126925            2 
  348000    1.1863966   -7.0099846    146.97807  0.035195898  0.036122106            5 
  349000    1.2059863   -7.0476558    147.76036  0.035281844  0.036118045            1 
  350000    1.1820719   -7.0105409    148.49189  0.035355212  0.036115506            1 
  351000    1.2345845   -7.0614384    148.52923  0.035263351  0.036112747            2 
  352000    1.2135595   -7.0235013    149.29042  0.035343376  0.036110218            1 
  353000    1.2122513   -6.9714049     149.8948  0.035385931  0.036108213            2 
  354000    1.1949628   -7.0108049    149.91505  0.035290738  0.036105977            2 
  355000    1.1847728   -7.0382155    150.02015  0.035215998  0.036103171            3 
  356000    1.1812365   -7.0255659    150.81436  0.035302987  0.036100122            1 
  357000    1.2050984   -7.0692592    150.73172  0.035184809  0.036096566            1 
  358000    1.1919191   -7.0007579    151.78187  0.035330976  0.036094124            1 
  359000    1.2001725   -6.9989338    152.42348  0.035381494  0.036091356            2 
  360000    1.1816387   -6.9935651    152.72762  0.035353615  0.036089381            1 
  361000    1.2131561   -7.0510913    152.63946  0.035235332  0.036087347            2 
  362000    1.1898907   -6.9934159    153.59209  0.035357296  0.036084877            1 
  363000    1.1833037   -7.0537262    153.39093  0.035213713  0.036082519            1 
  364000    1.2112408   -6.9942784    154.49025  0.035368647  0.036079854            1 
  365000     1.199193   -7.0282011    154.99314  0.035386561  0.036079311            2 
  366000    1.2242359   -7.0793873    154.95339  0.035280827  0.036077559            1 
  367000    1.2102742   -7.0279963    155.44761  0.035296914   0.03607493            2 
  368000    1.2159618   -6.9869767    155.75845  0.035271389  0.036071923            2 
  369000    1.1840864   -7.0313586    156.42142  0.035325523  0.036069413            2 
  370000    1.1960178   -7.0467199    156.97617  0.035354993  0.036066792            1 
  371000    1.1917804   -7.0110272    156.84409  0.035230029  0.036063124            1 
  372000    1.2002694   -7.0108809    156.82938  0.035132031  0.036058415            1 
  373000    1.1815067   -7.0350514    157.57798  0.035205089  0.036053321            1 
  374000     1.185196   -7.0370098     157.6248  0.035121389  0.036049226            1 
  375000    1.1753468   -7.0558904    158.25144  0.035166987  0.036044953            6 
  376000    1.2070138   -7.0315722    158.43881  0.035114984  0.036040979            1 
  377000    1.1747187   -7.0099666     159.3055  0.035213418  0.036037051            1 
  378000     1.204434   -7.0878489    159.41687  0.035144812  0.036032564            5 
  379000    1.2024069   -7.0394172    160.46082  0.035281623   0.03602925            1 
  380000    1.2065537   -7.0342144    161.52524  0.035422202  0.036027757            2 
  381000     1.192353   -7.0304329     161.2003  0.035258159  0.036025873            1 
  382000    1.1559415   -7.0142356      161.836  0.035304537  0.036023846            1 
  383000    1.1959147   -7.0575917    162.17061  0.035285163  0.036021818            1 
  384000    1.2069246   -7.0154913    162.86806  0.035344631  0.036021656            3 
  385000    1.1942218   -7.0714167    163.13848  0.035311359  0.036020213            1 
  386000    1.2072045   -6.9780692    164.02905  0.035412143  0.036018269            2 
  387000    1.1804888   -7.0036167    164.23497  0.035364982  0.036016764            2 
  388000    1.2184546   -7.0455938    164.39137  0.035307425  0.036014895            2 
  389000    1.1982148   -7.0254688     164.9643  0.035339397  0.036012827            1 
  390000    1.1979128   -7.0101896    165.87075  0.035442468  0.036010625            2 
  391000    1.1893508   -7.0512937    165.65651  0.035306162  0.036008711            2 
  392000    1.1943889   -7.0671996    165.65376  0.035215511   0.03600573            4 
  393000     1.196791   -7.0303278    166.09737  0.035219969  0.036002682            2 
  394000     1.182763   -7.0208271    166.80946  0.035281189  0.035999073       -1e+20 
  395000    1.1753735   -7.0748263    167.10961  0.035255191  0.035995375            1 
  396000      1.17817   -7.0076353    166.88216    0.0351183  0.035992022            3 
  397000    1.1842759   -7.0252803    167.72031  0.035205775  0.035988545            7 
  398000    1.1721658   -7.0483468    168.08146  0.035192936  0.035983876            2 
  399000    1.2008853   -7.0445151    168.62051  0.035217316  0.035979982            1 
  400000    1.2107499   -7.0802506    168.76008   0.03515835  0.035976821            1 
  401000    1.1955106   -7.0449115    169.62781     0.035251  0.035972915            1 
  402000    1.1835906   -6.9644845    170.14462  0.035270443  0.035969746            2 
  403000    1.2029024   -7.0549078    170.20202  0.035194794  0.035965934            3 
  404000    1.1682616   -7.0517638    170.37851  0.035144082  0.035961074            2 
  405000    1.1893263   -7.0433607    170.80157  0.035144356  0.035956501            2 
  406000    1.1927449   -7.0470402    170.82213  0.035062013  0.035951614            2 
  407000    1.1908587    -7.061642      171.892  0.035194923  0.035947401            1 
  408000    1.1736515   -7.0586417     171.7854  0.035086887  0.035943524            1 
  409000    1.1607258   -7.0332392    172.81238  0.035210347  0.035939902            1 
  410000    1.1878195   -6.9974682    173.53694  0.035271737  0.035936025            1 
  411000    1.2064416   -7.0542719    174.04273  0.035288468  0.035931931            1 
  412000     1.183456   -7.0599439    173.98846   0.03519184    0.0359277            1 
  413000    1.1766592   -7.0547108    174.65532  0.035241187  0.035923863            3 
  414000    1.1750982   -7.0515836    174.61364  0.035147672  0.035919126            1 
  415000    1.1965558   -7.1074684    174.42389  0.035024878  0.035914964            1 
  416000    1.1725252   -6.9992776    175.10997  0.035078118  0.035910156            3 
  417000    1.2061489   -7.0310415    176.27971   0.03522776  0.035905483            2 
  418000    1.1687772   -7.0253734    175.84718  0.035057253  0.035900867            2 
  419000    1.1986448   -7.0322917     176.2136   0.03504646  0.035896757            3 
  420000    1.1757029   -7.0463745    176.46656  0.035013206  0.035891286            1 
  421000    1.1881598   -7.0892476     176.7061  0.034977454  0.035885842            2 
  422000    1.1871204   -7.0835458    176.88749  0.034930389  0.035879501            1 
  423000      1.20482   -7.0423303    177.58072  0.034984381  0.035873824            1 
  424000    1.1853856   -7.0829471    177.99483  0.034983261  0.035867918            2 
  425000    1.1756986   -7.0455166    178.41169  0.034982683  0.035861922            3 
  426000    1.2081593    -7.041479    178.89399  0.034994913  0.035855536            2 
  427000    1.1542909   -7.0389895    179.33505  0.034999034  0.035848562            1 
  428000    1.2103664   -7.0346961    179.68608  0.034985608  0.035841896            3 
  429000    1.1693105    -7.034999    179.67866  0.034902615  0.035835022            1 
  430000    1.2044925    -7.022639    179.85965  0.034856521  0.035827681            1 
  431000    1.1762734   -7.0619928    180.38982  0.034878156  0.035819988            3 
  432000    1.1998903   -7.0697272    180.40111  0.034799597  0.035812987            2 
  433000    1.1829431   -7.0245406    182.00969  0.035028808  0.035805979            1 
  434000    1.1875391   -7.0387089    182.17339   0.03497953  0.035799748            1 
  435000    1.1557591   -7.0253835    182.11468  0.034887871  0.035793305            3 
  436000    1.1663426   -7.0181419    182.16297  0.034817081  0.035786035            1 
  437000    1.1793632   -7.0176672    182.85064  0.034868544  0.035778231            1 
  438000    1.1784966   -7.0577361    183.43914  0.034900902   0.03577077            3 
  439000    1.1719836   -7.0479001    183.35421  0.034805279  0.035762342            1 
  440000    1.1965485   -7.0888845    183.29875  0.034715673  0.035753555            3 
  441000    1.1866413   -7.0176748    184.17244  0.034802048   0.03574449            1 
  442000    1.1534884   -7.0806716     183.3604  0.034570212  0.035735697            2 
  443000    1.1851981   -7.0535258    184.36561  0.034681267  0.035726489            1 
  444000    1.1787378   -7.0078481    184.94997  0.034712832  0.035717725            2 
  445000    1.1729636   -7.0491363    185.19194  0.034680139  0.035708527            2 
  446000    1.2192834    -7.105012     185.1234  0.034589574  0.035699001            1 
  447000    1.1710044   -7.0620182    185.80214  0.034638729  0.035690037            3 
  448000    1.1943537   -7.0684551    186.33781  0.034661051  0.035680815            2 
  449000    1.1783332   -7.0563939    187.09546  0.034724472  0.035672047            2 
  450000    1.1910892   -7.0387141    187.02724  0.034634674  0.035662927            4 
  451000    1.1503626   -7.0792098    188.16269  0.034767682  0.035653678            1 
  452000    1.1754027    -7.056565    187.34786  0.034540534  0.035645249            1 
  453000    1.1720554   -7.0652685     187.9833   0.03458118  0.035636774            1 
  454000    1.1694802   -7.0582024     188.6756  0.034632085  0.035629298            1 
  455000    1.1721516    -7.076513    189.61439   0.03472791  0.035621376            2 
  456000    1.1905859   -7.0627013    189.92619  0.034708733  0.035614147            1 
  457000    1.1941873   -7.0835804    190.52381  0.034741759  0.035606605            1 
  458000    1.2096652   -7.0707086    190.65467  0.034689714  0.035598709            1 
  459000    1.1580159    -7.061751    190.70876  0.034623958  0.035590288            2 
  460000    1.1516153   -7.0614022    191.11246  0.034621822   0.03558176            2 
  461000    1.1746867   -7.0757682    191.55327  0.034626404  0.035572507            1 
  462000    1.1798281   -7.0124309    192.29289  0.034684865  0.035563958            1 
  463000    1.2163797    -7.021315    192.83221  0.034707022  0.035555853            2 
  464000    1.1645575   -7.1252027    192.28398  0.034533761  0.035547144            2 
  465000    1.1803455   -7.0611436     193.5487  0.034686147  0.035539104            1 
  466000    1.1643359   -7.0085392    193.92071  0.034678239  0.035530627            1 
  467000    1.1819499   -7.0723771     193.4284  0.034516131  0.035522131            2 
  468000    1.1718085   -7.0740348     194.5842  0.034648184   0.03551358            1 
  469000    1.1867278   -7.0671183    194.74351  0.034602614  0.035506008            1 
  470000    1.1721382   -7.0606338    195.56812  0.034675198  0.035498238            2 
  471000    1.1607179   -7.1125014    195.64154  0.034614569  0.035490653            2 
  472000    1.1764489   -7.0760989    196.26734  0.034651719  0.035483124            2 
  473000    1.1629546   -7.0989997    196.52442  0.034623753  0.035476258            5 
  474000    1.1864489   -7.0453551    197.53458  0.034728302  0.035469269            1 
  475000     1.180387   -7.0996613    197.18688   0.03459419  0.035462931            1 
  476000    1.1804515   -7.0668589    197.86319  0.034639913   0.03545642            2 
  477000    1.1759744   -7.0569876    198.28822  0.034641547  0.035449561            1 
  478000    1.1915771   -7.0571229    198.54694  0.034614181  0.035443316            1 
  479000    1.1870728   -7.0253851    200.06122  0.034805361   0.03543683            1 
  480000    1.1621889   -7.0336521    199.46657  0.034629613   0.03543033            3 
  481000    1.1562636   -7.0801816    200.12226  0.034671216  0.035423583            1 
  482000     1.171316   -7.0815843    200.10813  0.034596841  0.035416974            1 
  483000    1.1649215   -7.0749524    200.71067   0.03462917  0.035410027            1 
  484000    1.1537573   -7.0697256    200.34729  0.034495058  0.035402178            1 
  485000    1.1975716   -7.0219327    201.17086   0.03456544  0.035394531            1 
  486000    1.1758354   -7.0201814    201.57075  0.034562885  0.035386984            1 
  487000    1.1643549   -7.0745025    201.83607  0.034537315  0.035379572            1 
  488000    1.1824443    -7.088135    201.74206  0.034450489  0.035371683            1 
  489000    1.1880215   -7.0342943    202.94125  0.034584399   0.03536439            2 
  490000    1.1840824   -7.0637206    203.07047  0.034535794  0.035356539            1 
  491000    1.1604813   -7.0253825    204.16911   0.03465192  0.035349132            1 
  492000    1.1972536   -7.0589222    203.88824  0.034533915  0.035341577            1 
  493000    1.1663413   -7.0641916    204.77958  0.034614533  0.035333991            1 
  494000    1.1655398   -7.1001761    204.64933  0.034522491  0.035326538            4 
  495000    1.1736112   -7.0818577    204.99323  0.034510645  0.035318689            2 
  496000    1.1376786   -7.0775206     205.4805  0.034522934  0.035311432            2 
  497000    1.1632156   -7.0989285      205.877  0.034519954  0.035304272            2 
  498000    1.1680077    -7.053762    207.03863  0.034645018  0.035297471            1 
  499000    1.1900199   -7.0870003    206.69565  0.034518311   0.03529069            3 
  500000    1.1548866   -7.0754259    207.96981  0.034661635  0.035284175            1 
  501000    1.1778863   -7.0328555    207.95603  0.034590158   0.03527715            1 
  502000    1.1737603   -7.0788596    207.38632  0.034426679  0.035269996            2 
  503000    1.1704472    -7.055262    207.87267  0.034438811   0.03526284            1 
  504000    1.1770116   -7.0743942    209.46593  0.034633916  0.035256494            2 
  505000    1.1763267   -7.1172817    208.93909  0.034478397  0.035250219            1 
  506000    1.2090327   -7.0931854     209.0021  0.034420636  0.035243753            2 
  507000    1.1792183   -7.0595784      210.784  0.034645628  0.035237024            2 
  508000    1.1745312   -7.0536921     211.3061  0.034663074  0.035231527            1 
  509000    1.1800562   -7.0302269    211.43589  0.034616223  0.035226339            1 
  510000    1.1618442   -7.0495621    211.96708  0.034635143  0.035220437            2 
  511000    1.1613459   -7.0858119    212.35047  0.034629887  0.035215585            2 
  512000    1.1895764   -7.0871913    212.93136  0.034656797  0.035210936            3 
  513000    1.1802175   -7.0875077    213.36961  0.034660431   0.03520571            1 
  514000    1.1942208   -7.0800275    213.41469  0.034600306  0.035200426            1 
  515000    1.1855089   -7.0482725    213.87217  0.034607147   0.03519507            1 
  516000     1.161829   -7.0724895      214.894  0.034705103  0.035190518            1 
  517000    1.1608238   -7.0793985    215.14903  0.034679083  0.035185828            1 
  518000    1.1648306   -7.0372284    215.44879  0.034660358  0.035181637            1 
  519000    1.1567904   -7.0797087    215.81889  0.034653002  0.035177038            1 
  520000    1.1492967   -7.0566749    216.76349  0.034737739  0.035172655            1 
  521000    1.1917496   -7.0570995    217.09133  0.034723502  0.035168092            2 
  522000    1.1653656   -7.0730652    216.90885   0.03462785  0.035163509            2 
  523000    1.1829517   -7.0778353    217.30164  0.034624225  0.035158891            2 
  524000    1.1478161    -7.085799    217.65936  0.034615038   0.03515407            1 
  525000    1.1709369   -7.0580388    217.60528   0.03454052  0.035149573            1 
  526000    1.1544957   -7.1205612    218.00231  0.034537755  0.035144765            2 
  527000    1.1612036   -7.0358575    219.62117  0.034728205  0.035140188            1 
  528000    1.1382608   -7.0554858    219.67923  0.034671596  0.035135683            2 
  529000    1.1701583   -7.1080587    218.44996  0.034412407  0.035131066            5 
  530000    1.1475498   -7.1098191    219.53743  0.034518464  0.035126713            1 
  531000    1.1644609    -7.063019     220.5452  0.034611614  0.035122563            1 
  532000    1.1566957   -7.1149091    221.11251  0.034635418  0.035117649            1 
  533000    1.1860577   -7.0776775    221.52093  0.034634292  0.035113362            3 
  534000     1.146588   -7.0784318    222.15864  0.034668951  0.035109527            1 
  535000    1.1748284   -7.1084323    222.74122  0.034694894  0.035105768            1 
  536000    1.1434307   -7.0377871     223.6646  0.034773725  0.035102144            1 
  537000    1.1543743   -7.0793422    223.14229  0.034627915  0.035098569            2 
  538000    1.1546791   -7.1019988    223.06004  0.034550812  0.035094796            2 
  539000    1.1941003   -7.1587316    223.82778  0.034605408  0.035090959            3 
  540000    1.1677116   -7.0752576    224.36922  0.034624879  0.035087009            3 
  541000    1.1516955   -7.1021157    224.68187  0.034609038  0.035083188            2 
  542000    1.2029893   -7.0621034     225.0802  0.034606427  0.035079465            1 
  543000    1.1405287   -7.0595937    225.46994  0.034602507  0.035075825            2 
  544000    1.1505931   -7.0952054    225.99453  0.034619261  0.035071747            2 
  545000    1.1762515   -7.0517741    226.57586  0.034644627  0.035067951            1 
  546000     1.152278    -7.087578    226.53066  0.034574277  0.035064056            2 
  547000    1.1663441   -7.1001367    227.09385   0.03459687  0.035059871            2 
  548000    1.1633077   -7.0805702    227.27096  0.034560669  0.035055341            3 
  549000    1.1376915   -7.1199056    227.34028  0.034508239  0.035050687            3 
  550000    1.1587906   -7.0494171    228.14391   0.03456726  0.035046652            1 
  551000      1.16279   -7.0733922    228.77159  0.034599454  0.035042209            2 
  552000    1.1704785   -7.0952238     228.6387  0.034516712   0.03503774            2 
  553000    1.1719044   -7.1140806    228.83055  0.034483205  0.035033361            1 
  554000    1.1667929   -7.1054154    229.66321  0.034546211   0.03502919            3 
  555000    1.1595246   -7.1299651    230.38314  0.034592063    0.0350251            1 
  556000    1.1430261   -7.1016544    231.08935  0.034635695  0.035021133            2 
  557000    1.1242483   -7.1294682    231.43812  0.034625691  0.035017062            2 
  558000    1.1446474   -7.1016971    231.55189  0.034580628  0.035013192            1 
  559000    1.1722374   -7.0565084    232.11844  0.034603226  0.035009087            1 
  560000    1.1519887   -7.0930391    232.32238  0.034571783  0.035005284            2 
  561000    1.1622763   -7.1006408    232.44945  0.034529033  0.035001875            2 
  562000    1.1566271   -7.0741992    233.49536  0.034622681  0.034997746            3 
  563000    1.1434458   -7.1034868    233.02335  0.034491318  0.034994161            2 
  564000    1.1316425   -7.1151516    233.65165  0.034522998  0.034990622            2 
  565000    1.1646592   -7.0955072    234.08116  0.034525245  0.034986373            2 
  566000    1.1423475    -7.106656    233.08805  0.034318029  0.034981893            1 
  567000    1.1770027    -7.091675    234.41072  0.034451899  0.034977081            1 
  568000    1.1494546   -7.0947222    234.39413  0.034388809  0.034972317            1 
  569000    1.1431997   -7.0915896    235.64696  0.034511857  0.034967585            2 
  570000    1.1833243   -7.1190888     234.9766  0.034353304  0.034962695            1 
  571000    1.1412077   -7.1144272    235.57602  0.034380622  0.034957286            2 
  572000    1.1460016    -7.158915    236.07545  0.034393276  0.034951508            1 
  573000    1.1810815   -7.0910243    236.95237  0.034460787  0.034946259            1 
  574000    1.1777566   -7.1032016    237.11121  0.034423811  0.034941326            1 
  575000    1.1796971   -7.1412274    236.32878  0.034250547  0.034935471            1 
  576000     1.158306   -7.0797503     238.0628  0.034441957  0.034929942            1 
  577000    1.1572263   -7.0856752    237.59507  0.034314712  0.034923897            2 
  578000    1.1676097   -7.1311935    237.63526   0.03426114  0.034917861            2 
  579000    1.1705273   -7.1114858    238.30963  0.034299025  0.034912539            2 
  580000    1.1613141   -7.0830647    238.49496  0.034266517  0.034906862            1 
  581000    1.1557644    -7.099524    239.09135  0.034293079  0.034901149            1 
  582000    1.1542242   -7.0426482    239.82283  0.034338893  0.034895467            1 
  583000    1.1815796   -7.1065996    239.97268  0.034301413  0.034889497            1 
  584000    1.1645995   -7.0747013     240.4352  0.034308675   0.03488377            2 
  585000    1.1503731   -7.0918499    240.40072  0.034245117  0.034877742            2 
  586000    1.1478337   -7.0846749    241.06985  0.034281833   0.03487218            1 
  587000    1.1705799   -7.0903327    241.99871  0.034355296   0.03486663            3 
  588000    1.1705717   -7.1046802    242.85718  0.034418535  0.034861601            1 
  589000    1.1624442   -7.1385582    242.33903   0.03428679  0.034856422            1 
  590000     1.127294   -7.0882582    243.08331    0.0343338  0.034851095            1 
  591000    1.1531163   -7.0939683    243.71346   0.03436456  0.034845779            2 
  592000    1.1465383   -7.1126625    244.12667  0.034364678  0.034840465            2 
  593000    1.1458878    -7.129833    243.31851  0.034193158    0.0348344            1 
  594000     1.146317   -7.1032109    244.15276  0.034252632  0.034828315            3 
  595000    1.1496437   -7.1361918    244.81032  0.034287159  0.034823204            1 
  596000    1.1539213   -7.1625032    244.27173  0.034154324  0.034817758            1 
  597000    1.1652852   -7.1171906    245.06434  0.034207752  0.034812074            1 
  598000    1.1635925   -7.1211132    245.28443  0.034181219  0.034806774            2 
  599000    1.1818897    -7.112086    246.47101  0.034289233  0.034801033            3 
  600000    1.1272571   -7.1426809     245.8627  0.034147597   0.03479542            1 
  601000    1.1443015   -7.1232998    246.26082  0.034145982  0.034789558            2 
  602000    1.1487613   -7.0811772    247.30239  0.034233443  0.034783766            1 
  603000    1.1521599   -7.1112096     247.2469  0.034169002  0.034778009            1 
  604000    1.1583452   -7.1405952    247.18179  0.034103448  0.034771918            3 
  605000    1.1444371   -7.0857785    248.39737  0.034214513  0.034765928            2 
  606000     1.167016   -7.0746127    248.96729  0.034236425  0.034759994            3 
  607000    1.1549561   -7.1124262    248.31465  0.034090424  0.034753904            3 
  608000    1.1553687   -7.0987929    248.75412  0.034094589  0.034747625            2 
  609000    1.1228873   -7.1205646    249.56886   0.03415009  0.034741504       -1e+20 
  610000    1.1203752   -7.1089172    249.46383  0.034079758  0.034735678            2 
  611000    1.1323702   -7.1081275    250.47639  0.034162083    0.0347292            3 
  612000    1.1291706   -7.1409254    250.53889  0.034114773   0.03472331            3 
  613000    1.1256954   -7.0956616    251.13747  0.034140493  0.034717622            1 
  614000    1.1322656   -7.0796096    252.49905  0.034269687  0.034711433            1 
  615000    1.1382946   -7.0502937     252.4166  0.034202791  0.034705443            1 
  616000    1.1668788   -7.1019052    252.77818  0.034196182  0.034699775            2 
  617000    1.1698509   -7.1354569    252.02009   0.03403837  0.034693494            2 
  618000    1.1720663   -7.0887412     253.0499  0.034122154  0.034686987            1 
  619000      1.14328   -7.1241541    253.42011  0.034116871  0.034680915            2 
  620000    1.1631505   -7.0827287    254.10193  0.034153485  0.034674944            2 
  621000    1.1389022   -7.0813911    254.24181  0.034117259  0.034669172            2 
  622000    1.1493623   -7.1047789    254.33947  0.034075491  0.034663055            2 
  623000    1.1774039   -7.1188176    255.00889  0.034110339   0.03465715            3 
  624000    1.1465927   -7.1222593    254.89634  0.034040644  0.034650921            2 
  625000    1.1649424   -7.1172193    255.14152  0.034018869  0.034644814            1 
  626000    1.1581828   -7.1303676    255.46061  0.034007004  0.034638832            2 
  627000    1.1749481   -7.0993245    256.67221  0.034113797  0.034632739            1 
  628000    1.1589735   -7.1293964     256.9139  0.034091548  0.034626396            2 
  629000    1.1688875   -7.0758013    258.09901  0.034194357  0.034621028            1 
  630000    1.1211378   -7.1445933    258.11103   0.03414167  0.034615582            1 
  631000    1.1362422    -7.115507    258.84278  0.034184202  0.034609644            1 
  632000    1.1623034   -7.1032215     259.1393  0.034169212  0.034604532            1 
  633000     1.148791   -7.1032246    258.99738  0.034096548   0.03459947            2 
  634000    1.1479762   -7.1102253    259.81297   0.03414997  0.034594549            5 
  635000    1.1342559   -7.1372527    259.99305  0.034119823  0.034589059            3 
  636000      1.16689   -7.1781134    260.39588  0.034118957    0.0345837            1 
  637000     1.143605   -7.0844823    261.28993  0.034182356  0.034578869            1 
  638000    1.1417279   -7.1285268    261.14172  0.034109421  0.034574025            2 
  639000    1.1560016   -7.1248867    262.24027  0.034199305  0.034569014            1 
  640000    1.1372655   -7.1299988    263.10715  0.034258743  0.034564355            1 
  641000    1.1288751   -7.1119087    263.54893  0.034262731  0.034560095            2 
  642000    1.1457488   -7.1277287    263.32421  0.034180193  0.034555965            1 
  643000    1.1741008   -7.1423278     263.3167  0.034126062   0.03455157            3 
  644000     1.145621   -7.1592494    264.07364   0.03417102  0.034546688            2 
  645000    1.1545554   -7.1026113     263.7285  0.034073449  0.034542138            2 
  646000    1.1572766   -7.1158585    263.61254  0.034005746  0.034537052            3 
  647000    1.1453308   -7.1050107      265.065  0.034140262  0.034532039            1 
  648000    1.1609804   -7.1843184    263.94171  0.033943121  0.034526657            3 
  649000    1.1464267   -7.1122565    264.97303  0.034023244  0.034520613            1 
  650000    1.1450217   -7.0969755    265.33399  0.034017178  0.034514367            3 
  651000    1.1360835   -7.1330945    265.14725   0.03394102  0.034508282            1 
  652000    1.1528307   -7.1549866    265.46977  0.033930185     0.034502            1 
  653000    1.1435285   -7.1414971    266.61099  0.034023863  0.034496122            2 
  654000    1.1510858   -7.1098341    266.82889  0.033999604  0.034489971            1 
  655000    1.1218536   -7.1569436    267.25563  0.034001988  0.034484161            3 
  656000    1.1347405   -7.1159186    267.28685  0.033954122  0.034478599            1 
  657000    1.1467284   -7.1580225    267.91407  0.033981998  0.034472508            1 
  658000    1.1496608   -7.1354182    268.38418   0.03398989  0.034466962            6 
  659000    1.1620039   -7.1006258    267.80854  0.033865521  0.034461003            1 
  660000    1.1483461   -7.1333484    268.44086  0.033894048  0.034455361            3 
  661000    1.1362766   -7.1416238    269.29061    0.0339499  0.034449649            1 
  662000    1.1413113   -7.0901313    270.25134  0.034019554  0.034443777            1 
  663000    1.1378569    -7.102786    270.32765  0.033977834  0.034438279            1 
  664000     1.173033   -7.1228246    269.54116  0.033827957  0.034432681            1 
  665000    1.1544886   -7.1272722    271.27675   0.03399458  0.034426536            1 
  666000     1.148096   -7.1150567     270.6902  0.033870145  0.034420686            2 
  667000    1.1336525   -7.1005706    271.62983  0.033936761  0.034414938            1 
  668000    1.1467577   -7.0573279    272.79866  0.034031769  0.034409601            1 
  669000    1.1518606   -7.1219042    272.12664  0.033897189  0.034404329            1 
  670000    1.1468255   -7.1476647    272.20996   0.03385696  0.034398323            1 
  671000    1.1605453   -7.1648688    272.04158  0.033785592  0.034392144            1 
  672000    1.1254955   -7.1144879    272.59553  0.033804009  0.034385737            2 
  673000    1.1142911   -7.1559887    273.29886  0.033840869  0.034379309            2 
  674000    1.1442672   -7.1878126    273.35859  0.033798046   0.03437295            4 
  675000    1.1411625   -7.0994543     273.4272  0.033756445  0.034366546            2 
  676000    1.1553646   -7.1055802    273.74169  0.033745278  0.034359946            1 
  677000    1.1313471   -7.1407821     274.2909  0.033763035  0.034354036            1 
  678000    1.1634265    -7.100899    275.45083  0.033855805  0.034347689            1 
  679000    1.1649136   -7.1585656    275.37142  0.033796197  0.034342215            1 
  680000    1.1455871   -7.1865083    275.32446  0.033740742   0.03433643            1 
  681000    1.1489428   -7.0868455    276.99559  0.033895691  0.034330817            1 
  682000    1.1604084   -7.1458212    276.86298  0.033829787  0.034325339            2 
  683000    1.1454619   -7.1324777    277.65998  0.033877499  0.034319791            3 
  684000    1.1132129   -7.1345413    278.83024  0.033970546  0.034314206            2 
  685000    1.1473534   -7.1444932    277.83936  0.033800409   0.03430865            2 
  686000    1.1392613   -7.1459722    277.94532  0.033764009  0.034302764            1 
  687000    1.1324442   -7.1233551     278.6462  0.033799878  0.034297037            1 
  688000    1.1495055   -7.1246578    278.91015  0.033782721  0.034291593            3 
  689000    1.1314118    -7.127962    279.15179  0.033762917  0.034286213            3 
  690000    1.1573529   -7.1279562    279.48426  0.033754137  0.034280723            2 
  691000    1.1615039   -7.0711888    281.03403  0.033892189  0.034275096            2 
  692000    1.1617874   -7.1152383    280.78916  0.033813723  0.034269606            1 
  693000    1.1483299   -7.1227514    281.56269  0.033857947  0.034264183            2 
  694000    1.1263306   -7.1445258     281.6072  0.033814506  0.034258797            2 
  695000    1.1284634    -7.121414    281.19375  0.033716277  0.034253264            3 
  696000    1.1329266   -7.1460587    281.67111  0.033724989  0.034247314            2 
  697000    1.1494764   -7.1479286    282.40201  0.033763989  0.034241508            3 
  698000    1.1493205    -7.141043    282.11575  0.033681441   0.03423565            2 
  699000    1.1653812   -7.1530664    282.10799   0.03363233   0.03422945            2 
  700000    1.1456135   -7.1400241    283.19469  0.033713653  0.034223406            1 
  701000    1.1304969   -7.1655059    282.73487  0.033610897  0.034217443            1 
  702000    1.1492247   -7.1363682    283.28713  0.033628577  0.034210919            2 
  703000    1.1112869   -7.1268071    283.92233  0.033656037  0.034204415            2 
  704000    1.1497045   -7.1861379    284.10845  0.033630261  0.034198229            3 
  705000    1.1554625   -7.1461535    285.26033  0.033718716  0.034191901            1 
  706000    1.1434435   -7.1340731    284.75191  0.033610943  0.034185778            1 
  707000    1.1279565   -7.1161671    285.59369  0.033662623  0.034179903            1 
  708000    1.1417173   -7.0983358    287.37907   0.03382522    0.0341737            3 
  709000    1.1395098   -7.1398194    286.22884  0.033642317  0.034167878            1 
  710000    1.1321433   -7.1657735     285.8132  0.033546151  0.034161669            1 
  711000     1.158159   -7.1347064     286.6809  0.033600669  0.034154935            1 
  712000    1.1627679   -7.1490723    287.30327  0.033626319  0.034148335            1 
  713000    1.1528879   -7.1689762    287.07123  0.033552038  0.034141759            1 
  714000    1.1342976   -7.1483619    287.60445   0.03356728  0.034135348            2 
  715000    1.1267845   -7.1255186    288.07544  0.033575226  0.034128976            2 
  716000     1.151013   -7.1581097     288.1383   0.03353565  0.034122566            2 
  717000    1.1395143    -7.163117    288.79132  0.033564774  0.034116277            2 
  718000    1.1219526   -7.1895417    289.12048   0.03355623  0.034109857            1 
  719000    1.1749315   -7.1748138    288.51827  0.033439762  0.034103267            2 
  720000    1.1517011   -7.1242239    291.17726  0.033701072  0.034097099            1 
  721000    1.1296644   -7.1335126    290.63055   0.03359114  0.034090857            3 
  722000    1.1237817    -7.147902    290.53448  0.033533528  0.034084451            1 
  723000    1.1243612   -7.1652287    290.86101  0.033524782  0.034078046            2 
  724000     1.146771   -7.1321658    291.36458  0.033536439  0.034071422            2 
  725000    1.1426251   -7.1696666     291.5003  0.033505782  0.034064807            1 
  726000    1.1414795   -7.1604065    291.20117  0.033425295   0.03405781            1 
  727000    1.1411142   -7.1721311    291.93234  0.033463129  0.034050859            1 
  728000    1.1351158   -7.1346863    292.15885  0.033443092  0.034044092            2 
  729000    1.1390752   -7.1854814    292.49764  0.033435944  0.034037365            1 
  730000    1.1388723   -7.1793785    292.33402  0.033371463  0.034029993            1 
  731000    1.1411348   -7.1260177    293.63692  0.033474341  0.034023009            2 
  732000    1.1593106   -7.1337371    293.43056  0.033405118  0.034016074            6 
  733000    1.1200354   -7.1096479    295.55601  0.033601183  0.034009357            2 
  734000    1.1643345   -7.1682922    293.59781  0.033333085  0.034002384            2 
  735000    1.1272754   -7.1695559    295.57932  0.033512394  0.033995245            2 
  736000    1.1290118   -7.0898364    295.46756  0.033454207  0.033988493            2 
  737000    1.1182914   -7.0950291    296.05193   0.03347489  0.033981483            1 
  738000    1.1243655   -7.1558224    296.33549   0.03346155  0.033974428            1 
  739000    1.1430719   -7.1493794    296.80854  0.033469615  0.033967495            3 
  740000    1.1623992   -7.1724557    295.66743  0.033295881  0.033960565            2 
  741000    1.1395252   -7.1477268    297.86713  0.033498328  0.033953789            1 
  742000    1.1170257    -7.195547    296.61707  0.033312789  0.033947179            1 
  743000    1.1367122   -7.1785326    297.43513  0.033359705  0.033940313            3 
  744000    1.1097975   -7.1573919    298.97101  0.033486896  0.033933793            2 
  745000    1.1199898   -7.1661864    298.11684  0.033346403  0.033927197            2 
  746000     1.143536   -7.1519452    299.12011  0.033413775   0.03392093       -1e+20 
  747000    1.1292671   -7.1756976    298.88405   0.03334271   0.03391415            2 
  748000    1.1441823      -7.1492    299.47354  0.033363807  0.033907766            1 
  749000    1.1289346   -7.1820275    300.37446    0.0334195  0.033900826            2 
  750000    1.1190939   -7.1631614    300.37265  0.033374738  0.033894228            2 
  751000    1.1331615   -7.1506176    299.93332  0.033281549   0.03388772            1 
  752000    1.1166401   -7.1490878     300.7928  0.033332535  0.033881069            1 
  753000     1.142599   -7.1631316    301.35087   0.03335003  0.033874456            3 
  754000    1.1455537   -7.1688202    301.32745  0.033303211  0.033868062            1 
  755000    1.1345702   -7.1802797    301.39728  0.033266808  0.033861241            1 
  756000    1.1489685   -7.1364185    302.48848  0.033343086  0.033854708            3 
  757000    1.1195328   -7.1678394    302.36278  0.033285202  0.033848144            1 
  758000    1.1162585   -7.1100415    302.97512   0.03330861  0.033841452            1 
  759000    1.1606711   -7.1030252    303.53011   0.03332566  0.033834286            1 
  760000    1.1474479   -7.1171042    302.84277  0.033206444  0.033826967            1 
  761000     1.135106   -7.1598556     302.9898  0.033178909  0.033818778            1 
  762000    1.1440649   -7.1611278    302.17224  0.033045958  0.033811008            2 
  763000    1.1151454   -7.1528946    302.84963   0.03307663  0.033803083            2 
  764000    1.1448202   -7.1616824    304.44116  0.033206933  0.033795177            1 
  765000    1.1160226   -7.1660039    304.07984  0.033124165  0.033786596            2 
  766000    1.1219732   -7.1502845    304.45974  0.033122252  0.033778448            2 
  767000    1.1188895    -7.144871    303.74646  0.033001571   0.03377043            3 
  768000    1.1192319   -7.1093324    304.55181  0.033045986  0.033762036            1 
  769000    1.1612175     -7.16748    305.32799  0.033087125   0.03375389            2 
  770000    1.1358899   -7.1570858    304.67128  0.032973083  0.033745365            2 
  771000    1.1397637   -7.1363785    305.78764  0.033050977  0.033736717            2 
  772000    1.1081148   -7.1468042    305.04935  0.032928471  0.033728134            1 
  773000    1.1312081   -7.1286975     306.4547  0.033037376  0.033719485            2 
  774000    1.1206803   -7.2115053    305.33592  0.032874238  0.033710917            1 
  775000    1.1288852   -7.1455386    306.15866  0.032920286  0.033702215            1 
  776000    1.1388325   -7.1709122    306.25567  0.032888281  0.033693846            1 
  777000    1.1424511   -7.1455783    307.83632  0.033015478  0.033685565            1 
  778000    1.1333363    -7.191557    307.05417  0.032889264  0.033677058            2 
  779000    1.1378129   -7.2107965    306.92283  0.032832994  0.033668287            2 
  780000    1.1049475   -7.1291256     309.3217   0.03304719  0.033659705            2 
  781000    1.1239956     -7.16846    308.43908  0.032910699  0.033651678            2 
  782000    1.1140027    -7.206591    309.36755  0.032967557  0.033643017            2 
  783000    1.1224352   -7.1765453      309.401  0.032929013  0.033634453            1 
  784000    1.1254881    -7.186757    308.58478  0.032800252  0.033625737            2 
  785000    1.1458305   -7.2037151    308.78157   0.03277936  0.033616745            2 
  786000    1.1277783   -7.1427514    310.31231  0.032899948   0.03360823            2 
  787000    1.1074557    -7.146422    310.31138  0.032858046  0.033599503            1 
  788000    1.1200821   -7.1873817    310.33052  0.032818372  0.033590616            6 
  789000    1.1356707   -7.2037501    310.26479  0.032769834  0.033581484            2 
  790000    1.1249009   -7.1857562    310.72263  0.032776648  0.033572304            3 
  791000    1.1280785   -7.1624977    311.37674  0.032804124  0.033563304            1 
  792000    1.1430226   -7.2056869    311.52446  0.032778247  0.033554332            2 
  793000    1.1165286   -7.1960204    311.30264  0.032713602   0.03354544            1 
  794000    1.1188442   -7.1415458     311.2409  0.032665921  0.033536329            2 
  795000    1.1120908   -7.1513556    313.11511   0.03282129   0.03352737            2 
  796000    1.1101421   -7.1924228    312.69585  0.032736166  0.033518528            3 
  797000    1.1216414   -7.1963618    313.80655  0.032811225  0.033509545            1 
  798000    1.1172776   -7.1627952    313.64464  0.032753199  0.033500916            2 
  799000     1.118009   -7.1440953    315.23751  0.032878338  0.033492477            1 
  800000    1.0953166   -7.1338997    314.88765  0.032800797  0.033484199            1 
  801000     1.104476   -7.1614606    315.40057   0.03281321  0.033475769            2 
  802000    1.1034265   -7.1693728    315.10146  0.032741215  0.033467358            1 
  803000    1.0980973   -7.1908405     316.1051  0.032804597  0.033458953            1 
  804000    1.1375313   -7.1773778    316.52102  0.032806905  0.033450684            4 
  805000    1.1282601   -7.1894367    316.03669  0.032716014  0.033442466            2 
  806000    1.1234714   -7.2043858    316.37839  0.032710752  0.033434223            2 
  807000    1.1344605   -7.1636852    318.20039  0.032858363  0.033426184            2 
  808000    1.1401436   -7.1499385    317.54699  0.032750308  0.033418195            2 
  809000    1.1278406   -7.2076363    318.17527  0.032774544  0.033410054            1 
  810000    1.1067062    -7.183682    317.48429  0.032662993  0.033401733            2 
  811000    1.1205548   -7.1843421    318.31678   0.03270826  0.033393269            1 
  812000    1.1039209   -7.1996766    318.20077  0.032656072  0.033384716            2 
  813000    1.1036373   -7.1785197    318.29195  0.032625251   0.03337624            2 
  814000    1.1052042   -7.1785092    319.69838  0.032729154  0.033367668            1 
  815000    1.0995293   -7.1945257     320.3805  0.032758743  0.033359289            1 
  816000    1.1133582    -7.140606    320.95749  0.032777522  0.033351262            1 
  817000    1.1186766   -7.1443324     320.7818  0.032719482  0.033343614            2 
  818000    1.1181509   -7.1904745      321.594  0.032762224  0.033335422            1 
  819000    1.1112382   -7.2086153     320.5202  0.032612963  0.033327345            1 
  820000    1.1382187   -7.1685399    320.76028  0.032597589  0.033319154            1 
  821000    1.0923958   -7.1550105    322.52709  0.032737219  0.033311549            3 
  822000    1.1460098   -7.1478884    322.78299  0.032723337  0.033303889            3 
  823000    1.1422809   -7.1863605    322.74925  0.032680159  0.033296263            2 
  824000    1.1231246   -7.1846408    323.14557  0.032680579  0.033288249            1 
  825000    1.1390707   -7.1516383    324.42399    0.0327701   0.03328035            2 
  826000    1.1158803    -7.186865    324.30785   0.03271871  0.033272659            1 
  827000    1.1149362   -7.1938465    324.30685  0.032679046  0.033264619            2 
  828000    1.1139345   -7.1701141    325.14616   0.03272405  0.033256534            1 
  829000    1.0983328      -7.1867    324.39825  0.032609394   0.03324884            1 
  830000    1.1211183   -7.1608901    325.66139  0.032696927  0.033241131            2 
  831000    1.1142087   -7.2025495     325.9532  0.032686844  0.033233542            2 
  832000    1.1209564   -7.1980188    326.23707  0.032675988  0.033226186            1 
  833000    1.1222529   -7.1988327    326.61658  0.032674728  0.033218729            1 
  834000    1.1154197   -7.2020657    325.94196  0.032568141  0.033211355            2 
  835000    1.1102179   -7.1572201    327.84063  0.032718625  0.033203743            2 
  836000    1.1083949   -7.2028926    327.59933  0.032655436  0.033196581            1 
  837000    1.1250671   -7.1768907    328.22958   0.03267917  0.033189499            1 
  838000    1.1441535   -7.2065828    328.41997  0.032659106  0.033182179            1 
  839000    1.1107853   -7.1446841    328.96546  0.032674361  0.033174862            1 
  840000    1.1266043   -7.2029428    328.10085  0.032549688  0.033167439            2 
  841000    1.1178994   -7.2167119    329.18842  0.032618749  0.033159724            1 
  842000      1.08418   -7.1658139    328.69353   0.03253103   0.03315207            1 
  843000    1.1162713   -7.1979239    329.68612  0.032590561  0.033144368            4 
  844000    1.1128536   -7.2139804    329.01817  0.032485996  0.033136689            2 
  845000    1.1126209   -7.2051436    330.47654  0.032591374  0.033129247            4 
  846000    1.0967607   -7.1856485    330.60007  0.032565018  0.033121908            1 
  847000    1.1249847   -7.1554292    331.67522  0.032632351  0.033114426            1 
  848000    1.1214457   -7.1839078    332.09751  0.032635369  0.033107102            2 
  849000    1.1136177   -7.2238736    331.57378  0.032545522   0.03309983            1 
  850000    1.1078246   -7.2379146     332.2291  0.032571481  0.033092495            2 
  851000    1.1079171   -7.2597541    330.92003  0.032405017  0.033085124            2 
  852000     1.103161   -7.1520822     333.9902  0.032667273  0.033077965            1 
  853000    1.1077728   -7.1814437    333.92492  0.032622599   0.03307102            1 
  854000    1.1108773   -7.2110422    333.73802  0.032566161  0.033064104            2 
  855000    1.1109601   -7.2024185    332.88968  0.032445388  0.033057102            2 
  856000    1.1175755   -7.1736872    335.18368   0.03263081  0.033049925            3 
  857000    1.1158618   -7.2059659    335.24515  0.032598712  0.033042572            7 
  858000    1.1246542   -7.2449116    334.69094   0.03250689  0.033035212            2 
  859000    1.0963675   -7.1817412    335.39501  0.032537351  0.033028283            1 
  860000     1.109694   -7.2204325     335.3673  0.032496832  0.033021262            2 
  861000    1.1390608   -7.1925755    335.89888  0.032510539    0.0330139            1 
  862000    1.0995146   -7.1207075    336.87086  0.032566788  0.033007131            2 
  863000    1.1001666   -7.2163998    337.34309  0.032574652  0.033000319            1 
  864000    1.1012685   -7.2338139    335.77818  0.032386013  0.032993127            2 
  865000    1.1291933   -7.2065157    337.79827  0.032543186  0.032985826            2 
  866000    1.1082384   -7.1875379    337.35374  0.032462831   0.03297838            1 
  867000    1.0971286   -7.1789187     338.1816   0.03250496   0.03297072            1 
  868000    1.1091586   -7.2188323    337.74447  0.032425544  0.032963241            4 
  869000    1.1020702   -7.2150012    337.84048  0.032397438  0.032955492            3 
  870000    1.1277072   -7.2312396    338.22343  0.032396881   0.03294786            1 
  871000    1.1172984   -7.2318331    337.68588  0.032308255  0.032939858            2 
  872000    1.1348916   -7.2159268    337.54032  0.032257293  0.032931587            2 
  873000    1.1249653   -7.2035199    339.27431  0.032385864  0.032923136            3 
  874000    1.1100151   -7.2082746    338.54265  0.032279048  0.032914603            1 
  875000    1.1046711   -7.1837188    339.83751  0.032365477  0.032906041            1 
  876000    1.0963927   -7.2242402    338.67827  0.032218252   0.03289765            1 
  877000    1.0966913   -7.2355203    339.03825  0.032215721  0.032889059            1 
  878000    1.1091466   -7.1995007    339.65275  0.032237353  0.032880521            1 
  879000    1.0820843   -7.2217533    339.90085  0.032224199  0.032871855            1 
  880000    1.1127295    -7.201332    339.32249  0.032132812  0.032862995            1 
  881000       1.1209    -7.220291    340.54275  0.032211762  0.032853972            1 
  882000    1.1267867   -7.1827697    339.98501  0.032122544  0.032845077            2 
  883000    1.1050984    -7.209835    339.51237   0.03204156   0.03283596            5 
  884000    1.1154616   -7.2116651    341.33215  0.032176862  0.032827011            2 
  885000    1.1186494   -7.1954841    341.41231  0.032148051  0.032818061            2 
  886000    1.1240991   -7.1736645    341.54842  0.032124569  0.032808985            1 
  887000    1.1047091   -7.1947847    342.38745  0.032167178  0.032799959            1 
  888000     1.116407   -7.1710464     341.5682  0.032054073  0.032790896            2 
  889000    1.0901108   -7.2056545    342.55642  0.032110651  0.032781682            2 
  890000    1.1271481     -7.22724    341.66201  0.031990825  0.032772655            1 
  891000    1.1387244   -7.1984683    344.01964  0.032175424   0.03276371            1 
  892000     1.124487    -7.205143     343.4624  0.032087295  0.032754572            2 
  893000    1.1140829   -7.2066394    343.30576  0.032036745   0.03274565            1 
  894000    1.1171714   -7.2446669    343.56582  0.032025151  0.032736773            3 
  895000    1.1132752   -7.2024808    343.42158  0.031975939   0.03272777            1 
  896000    1.1223298   -7.1860568    344.95607  0.032082968  0.032718782            2 
  897000    1.1284501   -7.1651896    344.80416  0.032033088  0.032710072            2 
  898000    1.1015227    -7.268028    344.28116  0.031948883  0.032701551            1 
  899000      1.10537   -7.2427831    346.38707  0.032108553  0.032692805            3 
  900000    1.1167316   -7.1833562    346.35898  0.032070276  0.032684633            2 
  901000    1.1274709   -7.2578494    346.09153  0.032009946  0.032676168            1 
  902000    1.0946732   -7.2297383    347.33206  0.032089067  0.032668028            2 
  903000    1.1046225   -7.1858638    348.50616  0.032161882   0.03265956            1 
  904000    1.1301969   -7.2129082    346.68691  0.031958601  0.032651428            2 
  905000    1.1324319   -7.2396468    349.00203  0.032136467  0.032643233            2 
  906000    1.1160914   -7.2162056    348.15739  0.032023307  0.032635241            1 
  907000    1.1212729   -7.2200078    349.16749  0.032080805  0.032627153            1 
  908000     1.121084   -7.1846559    350.18462  0.032138824  0.032619107            2 
  909000    1.0922157   -7.2300671    349.43231  0.032034499  0.032611151            2 
  910000      1.09642   -7.2640404    349.09186  0.031968119  0.032603306            2 
  911000    1.0919951   -7.1929801    351.00037  0.032107608  0.032595121            1 
  912000    1.1237245   -7.1704166    351.16781  0.032087702  0.032587224            1 
  913000    1.1169402   -7.2355914    350.85787  0.032024267  0.032579408            3 
  914000    1.1077336   -7.2042923    352.39503  0.032129379  0.032571342            2 
  915000    1.1014937   -7.2087938     353.0866   0.03215725   0.03256362            2 
  916000     1.110173   -7.1766844    352.96934  0.032111476  0.032555817            1 
  917000    1.0826713   -7.2006797    353.00721  0.032079899  0.032547929            1 
  918000    1.1124387   -7.2153055     353.0449  0.032048375  0.032539892            6 
  919000    1.1193087   -7.2248657      352.226  0.031939245  0.032531603            1 
  920000    1.0851053   -7.2182933    353.29327  0.032001202  0.032523163            2 
  921000    1.0926023   -7.2044564     351.5344  0.031807311  0.032514853            1 
  922000    1.1206292   -7.2371089     352.4882  0.031859021  0.032506435            1 
  923000    1.1268395   -7.2256282     353.4233  0.031908929   0.03249819            1 
  924000    1.1267822   -7.2625957    353.53227  0.031884223  0.032490264            2 
  925000    1.0820616   -7.2066574    355.52122  0.032028939  0.032482201            1 
  926000    1.0977587    -7.186861    355.38109   0.03198174  0.032474174            2 
  927000    1.1086158   -7.1998738    355.12104  0.031923862  0.032466092            2 
  928000    1.1085375   -7.1865935    355.17609  0.031894404  0.032458386            1 
  929000     1.144618   -7.2553026    354.52127  0.031801334  0.032450034            1 
  930000    1.1078527   -7.2353976    354.85382  0.031796937   0.03244162            1 
  931000    1.1189724   -7.2404866    354.85552  0.031762936  0.032433229            1 
  932000    1.1122713    -7.222542    356.88389  0.031910219  0.032424826            1 
  933000    1.1023304   -7.3092444    356.16124  0.031811472  0.032416201            3 
  934000    1.0760646   -7.2532532    355.45879  0.031714738  0.032407438            4 
  935000     1.097476   -7.2544744    357.61713  0.031873184  0.032398741            1 
  936000    1.0940062   -7.2289853    356.90301  0.031775553  0.032389762            1 
  937000    1.0905021   -7.2788008    355.15823  0.031586467  0.032380942            1 
  938000    1.0869173    -7.234855    356.77794   0.03169669  0.032371942            2 
  939000    1.1091833   -7.2244636    357.55002  0.031731453  0.032363224            1 
  940000    1.1048309   -7.2153688     358.5502  0.031786366  0.032354477            1 
  941000     1.112665   -7.2133186    358.49872  0.031748027  0.032345846            1 
  942000    1.0776466    -7.206168    359.25979  0.031781651  0.032337297            3 
  943000    1.1022289   -7.1820702    359.36949  0.031757643  0.032329026            1 
  944000    1.1009433   -7.2575546    358.92027  0.031684346  0.032320672            1 
  945000    1.0739656   -7.2421961    360.52307  0.031792158  0.032312116            1 
  946000    1.0780506   -7.2609274    359.70332  0.031686339  0.032303753            2 
  947000    1.0987437   -7.2329704    360.03287  0.031681878  0.032295043            2 
  948000    1.0820865   -7.2788539    359.41512  0.031594156   0.03228657            1 
  949000    1.0890717   -7.2175854    361.66375   0.03175832  0.032278021            1 
  950000    1.0980699   -7.2306777     361.2499  0.031688587  0.032269694            2 
  951000    1.0983098   -7.2398612    361.55497  0.031681999  0.032261035            1 
  952000    1.1005452   -7.1952168    362.34411  0.031717796  0.032252648            1 
  953000    1.1019821   -7.1933513     362.7466   0.03171971  0.032244521            3 
  954000    1.1216474   -7.2374623    362.22527  0.031640922  0.032236072            2 
  955000    1.1211013   -7.2259187     362.8418  0.031661588  0.032227894            1 
  956000    1.1163358   -7.2421105    363.52431  0.031687963  0.032219592            1 
  957000    1.1129483   -7.1942919    363.74819  0.031674346  0.032211369            1 
  958000    1.0942465    -7.215089    364.19888  0.031680487  0.032203113            2 
  959000    1.0793896   -7.2308599     364.2306  0.031650209  0.032194625            2 
  960000    1.1124226   -7.2257435    364.23099  0.031617274  0.032186213            1 
  961000     1.090364    -7.250611    364.45141  0.031603487  0.032178085            1 
  962000    1.0880624   -7.2352301    364.96909  0.031615479  0.032169972            3 
  963000    1.1068584   -7.2698075    364.59569  0.031550337  0.032161703            2 
  964000    1.0919507   -7.2715742    365.74302   0.03161679  0.032153429            2 
  965000    1.0543138   -7.2068397    366.83372  0.031678215  0.032145349            1 
  966000    1.0798206   -7.2434399    367.38216  0.031692733  0.032137426            1 
  967000    1.0977814   -7.2467202    368.04332  0.031716936  0.032129489            1 
  968000    1.1012832   -7.2042661    368.46689  0.031720634   0.03212155            1 
  969000    1.1168208    -7.239557    367.44697  0.031600186  0.032113727            1 
  970000     1.099636   -7.2968366    368.16481   0.03162928  0.032105586            1 
  971000    1.1097583    -7.213991    369.03753  0.031671604  0.032097838            3 
  972000    1.0983711   -7.1846495     369.7104  0.031696708   0.03209038            1 
  973000    1.0782442   -7.2407913    369.35171  0.031633411  0.032082882            1 
  974000    1.0926207   -7.2282031     369.2539  0.031592565  0.032075186            1 
  975000    1.0894966   -7.2062022    369.94094  0.031618884  0.032067509            2 
  976000    1.0872747   -7.2404564    370.28986  0.031616279  0.032059726            1 
  977000    1.0933052   -7.2370635    370.94984  0.031640212  0.032051836            2 
  978000    1.0967235   -7.2384973    369.85369  0.031514459  0.032044254            2 
  979000    1.1261138   -7.2317458    370.41612  0.031530143  0.032036305            2 
  980000    1.0747649   -7.2342904    371.83908   0.03161897  0.032028284            1 
  981000    1.0909996   -7.2288972    371.54283  0.031561572   0.03202032            1 
  982000    1.0978599   -7.2221408    371.63207  0.031537005  0.032012441            1 
  983000    1.1080453   -7.2856904     370.8786  0.031441048  0.032004352            2 
  984000    1.0913079   -7.2467595    372.66109  0.031560052  0.031996458            2 
  985000    1.1159875   -7.2383222    372.11705  0.031481984   0.03198854            1 
  986000     1.112021   -7.2519562    372.76234  0.031504592  0.031980642            3 
  987000    1.0677948   -7.2397097     374.7438   0.03163997  0.031972715            2 
  988000    1.0865133   -7.2502107    374.55469  0.031591995   0.03196505            1 
  989000    1.0613686   -7.2558289    374.01629  0.031514686  0.031957349            3 
  990000    1.1028053   -7.2477053    374.61614  0.031533345  0.031949988            5 
  991000     1.073835   -7.2853742     374.7126  0.031509637  0.031942315            1 
  992000    1.0729553   -7.2635635    375.79433  0.031568744   0.03193465            1 
  993000    1.0867301   -7.2086433    376.77131  0.031618941  0.031927178            2 
  994000    1.0804473    -7.263485    376.87491  0.031595817  0.031919959            1 
  995000    1.0816005   -7.2726691    375.73703  0.031468763  0.031912477            3 
  996000    1.0984658   -7.2076578    377.33826   0.03157114  0.031904824            1 
  997000    1.0844735   -7.2826599     375.9133  0.031420369  0.031897405            1 
  998000    1.1183105   -7.2698922    376.68607  0.031453413  0.031889611            2 
  999000    1.0992273   -7.2677709     377.3538  0.031477627  0.031881984            1 
 1000000    1.0820136   -7.2669203    377.27653  0.031439711  0.031874271            2 
 1001000    1.0716464   -7.2956101    377.06045  0.031390313  0.031866482            1 
 1002000    1.0933529   -7.2437584    377.69845  0.031412047  0.031858584            4 
 1003000    1.0715801    -7.226746    378.44174  0.031442484  0.031850994            2 
 1004000    1.0956704   -7.2831787     379.0377  0.031460633  0.031843482            2 
 1005000    1.0992528    -7.242376    380.55329  0.031554999  0.031835941            1 
 1006000    1.0763907   -7.2548362    379.82283  0.031463124  0.031828772            2 
 1007000    1.0969471   -7.2622434    380.02205  0.031448366  0.031821527            2 
 1008000    1.1110592   -7.2385646    379.62381  0.031384243  0.031814283            2 
 1009000     1.075842   -7.2116224    379.16715  0.031315424  0.031807045            1 
 1010000    1.0737556   -7.2513581    380.33201  0.031380529  0.031799851            5 
 1011000    1.1116713   -7.2584687    381.39917  0.031437452  0.031792654            2 
 1012000    1.0979898   -7.2596782    381.39776  0.031406272  0.031785495            2 
 1013000    1.0735801   -7.2167048    381.89506  0.031416178  0.031778341            2 
 1014000    1.0868337   -7.2610558    381.54529  0.031356451   0.03177132            2 
 1015000    1.0951775   -7.2255373    382.94878  0.031440787  0.031764149            2 
 1016000    1.0999805   -7.2756073    382.79019  0.031396833  0.031756983            4 
 1017000    1.0689365   -7.2545994     383.2215  0.031401303  0.031749681            2 
 1018000     1.081184   -7.2453175    383.87124  0.031423645  0.031742465            2 
 1019000    1.0958004   -7.2787531    384.19576  0.031419346  0.031735263            2 
 1020000    1.0872969   -7.2727294    382.91371    0.0312838    0.0317279            2 
 1021000    1.0880994   -7.2632468    383.72354  0.031319257  0.031720479            2 
 1022000    1.0980973   -7.2743512    383.29352  0.031253549  0.031713044            2 
 1023000    1.1067339   -7.2335012    385.62551  0.031412961  0.031705637            1 
 1024000    1.0881209   -7.2572994    384.97943  0.031329706  0.031698231            2 
 1025000     1.095368    -7.269563    384.73045  0.031278899  0.031690871            2 
 1026000    1.0891109   -7.2600242    386.45885  0.031388796  0.031683641            2 
 1027000     1.061241   -7.2725944    385.24106  0.031259418  0.031676302            2 
 1028000    1.0623633   -7.2818889    386.58612  0.031338044  0.031668884            1 
 1029000    1.0859353   -7.2848506    386.12813    0.0312705  0.031661554            7 
 1030000    1.0726436   -7.2690722    387.31829  0.031336431  0.031654464            1 
 1031000    1.0805044   -7.2635187    386.11231  0.031208561  0.031647092            3 
 1032000     1.094181    -7.278018     387.0306  0.031252471  0.031639832            1 
 1033000    1.0776256   -7.2597421    388.27449  0.031322563  0.031632677            2 
 1034000    1.0701627   -7.2310835    389.00305  0.031350987   0.03162549            1 
 1035000    1.0839269   -7.2651208     388.8716  0.031310112  0.031618354            2 
 1036000    1.0883312   -7.2618748    389.48175   0.03132897  0.031611228            3 
 1037000     1.084867   -7.2975671    388.49745   0.03121966  0.031603759            2 
 1038000    1.1224113   -7.2515732    389.21175  0.031246929  0.031596637            2 
 1039000     1.087053   -7.2496783    389.71502   0.03125722  0.031589428            2 
 1040000    1.0741704   -7.2558976     391.3091  0.031354896  0.031582319            1 
 1041000    1.0639877   -7.2608535    391.38217  0.031330625  0.031575256            3 
 1042000    1.1004457   -7.2528467    391.21019  0.031286804  0.031568168            1 
 1043000    1.0807237   -7.2728033    390.30738  0.031184674  0.031561107            2 
 1044000    1.0812521   -7.2568378    391.56851  0.031255468  0.031554099            2 
 1045000    1.0724914   -7.2244321    392.46059  0.031296698  0.031547312            4 
 1046000    1.0927367   -7.2688846    391.63638  0.031201114   0.03154047            2 
 1047000    1.0951648    -7.255608    393.25835   0.03130041  0.031533807            1 
 1048000    1.0728812   -7.2704067    392.54304  0.031213664  0.031526911            1 
 1049000    1.0823698   -7.2597902      393.819  0.031285272  0.031520155            3 
 1050000    1.0976441   -7.2490565    394.32099  0.031295317  0.031513533            1 
 1051000     1.114801   -7.2848235    393.61135  0.031209273   0.03150686            2 
 1052000     1.102531    -7.233283    395.92592  0.031362953    0.0315004            1 
 1053000    1.0890009   -7.2933978    394.99386  0.031259406  0.031493857            2 
 1054000    1.1097829   -7.2251398    395.39047  0.031261106  0.031487317            2 
 1055000    1.0618101   -7.2858537    395.34612  0.031227971  0.031480787            1 
 1056000     1.097917   -7.2721279    396.10195  0.031258045  0.031474235            2 
 1057000    1.0990208   -7.2335271    396.46429   0.03125704  0.031467759            2 
 1058000    1.0725698   -7.2360044     396.8159  0.031255191  0.031461229            1 
 1059000    1.0573335   -7.2860392    395.99093  0.031160759  0.031454533            1 
 1060000    1.0684462   -7.2907476    396.68377  0.031185831  0.031447801            3 
 1061000    1.0848696    -7.292231    396.87974   0.03117183  0.031441202            2 
 1062000    1.0835936   -7.2982049    396.06284  0.031078377  0.031434559            1 
 1063000     1.069119   -7.2901332    396.75833  0.031103664   0.03142766            2 
 1064000    1.1042202   -7.2464894     398.3695  0.031200619    0.0314209            4 
 1065000    1.0837738   -7.2385869    399.52548  0.031261775  0.031414252            3 
 1066000    1.0787983    -7.256744    399.20834  0.031207657  0.031407596            2 
 1067000    1.0707473   -7.2640118    398.76382  0.031143691  0.031400931            1 
 1068000    1.0818742   -7.2947306    399.21555  0.031149777  0.031394162            2 
 1069000     1.085705    -7.261136    399.22164  0.031121113  0.031387383            2 
 1070000    1.0828633   -7.2320867    400.23629  0.031171051  0.031380713            2 
 1071000     1.078262   -7.2690711    400.17853  0.031137452  0.031374148            1 
 1072000    1.0807057   -7.2488328    400.96395  0.031169462  0.031367458            1 
 1073000    1.0873272   -7.2630155    399.78995  0.031049235  0.031360799            1 
 1074000    1.0790781   -7.2431777    400.94888  0.031110248  0.031354217            1 
 1075000     1.068495   -7.2646779     401.7461  0.031143108  0.031347735            1 
 1076000    1.0984861   -7.2731216    401.87185  0.031123904  0.031341156            3 
 1077000    1.0945244   -7.2837107    400.76408  0.031009291  0.031334312            2 
 1078000    1.0645067   -7.2701242    401.76715  0.031058067  0.031327413            2 
 1079000    1.0679776   -7.2742835    402.30816  0.031071065   0.03132031            2 
 1080000    1.0833246   -7.2783419    401.88087  0.031009327  0.031313052            2 
 1081000     1.071757    -7.273518    401.41627  0.030944825  0.031305855            6 
 1082000     1.081873   -7.2662594    401.11901  0.030893331  0.031298708       -1e+20 
 1083000    1.1053354   -7.2807109    403.44387  0.031043695  0.031291622            1 
 1084000    1.0727708   -7.2608342    403.42544   0.03101364  0.031284604            1 
 1085000    1.0979454   -7.2731206    403.01454  0.030953498  0.031277513            1 
 1086000    1.0573398   -7.2922773    404.63414  0.031049274  0.031270553            2 
 1087000    1.0746829   -7.2828867    404.52109  0.031012043  0.031263813            2 
 1088000    1.0852927   -7.3017703    405.36073   0.03104785  0.031256973            1 
 1089000    1.0774289    -7.321896    404.01163  0.030916103  0.031250181            1 
 1090000    1.0878766   -7.2696122    404.47524  0.030923183  0.031243202            2 
 1091000    1.0871225   -7.2885014    407.33984  0.031113645  0.031236403            3 
 1092000    1.0664504   -7.2575745    406.66573  0.031033709  0.031229662            2 
 1093000    1.0787495   -7.3329036    405.24793  0.030897219   0.03122283            2 
 1094000    1.0696373   -7.2862943    406.90983  0.030995569  0.031216131            2 
 1095000    1.0901134   -7.2775587    407.66162  0.031024477  0.031209553            1 
 1096000    1.0767976   -7.2498272    408.17089  0.031034891  0.031202886            2 
 1097000    1.0772827   -7.2353808    408.59446  0.031038777  0.031196557            3 
 1098000    1.1029796   -7.2769224    409.11843  0.031050276  0.031190037            1 
 1099000    1.0795492   -7.2791418    408.82537    0.0309998  0.031183645            1 
 1100000    1.0696896   -7.2782133    409.86951   0.03105072  0.031177182            1 
 1101000    1.0859514   -7.2615324    410.55603   0.03107448  0.031171059            1 
 1102000    1.0698576   -7.3276126    409.76642  0.030986571   0.03116476            1 
 1103000    1.0731345   -7.3190656    410.36746  0.031003888  0.031158265            1 
 1104000    1.0653372   -7.2921844    409.29943  0.030895187  0.031151321            2 
 1105000    1.0858869   -7.3119934    408.96874  0.030842288  0.031144541            5 
 1106000    1.0669942   -7.3001298    410.45552  0.030926426  0.031137898            4 
 1107000    1.0604085   -7.2669004    410.58531  0.030908259  0.031131329            3 
 1108000    1.0748662   -7.2849783    409.92186  0.030830465  0.031124482            1 
 1109000    1.0616301   -7.2886328    409.89367  0.030800546  0.031117478            2 
 1110000    1.0583854   -7.2717595    409.63226  0.030753173   0.03111063            2 
 1111000    1.0697492   -7.3221918    409.17207  0.030690975  0.031103593            3 
 1112000    1.0715035   -7.2886176    410.95763  0.030797185  0.031096529            2 
 1113000    1.0831852   -7.2973074    412.71518  0.030901107  0.031089556            2 
 1114000      1.06083   -7.2869431    412.04345  0.030823119  0.031082781            1 
 1115000    1.0570233   -7.3079696    411.42249  0.030749065  0.031075938            2 
 1116000    1.0685978   -7.3033253    411.89273  0.030756626  0.031068902            4 
 1117000     1.087801   -7.2729472    413.24991  0.030830343  0.031061968            1 
 1118000    1.0814458   -7.3015129    412.67952  0.030760251  0.031055204            2 
 1119000    1.0773633   -7.3234558    412.86479  0.030746559  0.031048409            1 
 1120000    1.0930823   -7.3014519    414.75748  0.030859932  0.031041613            1 
 1121000    1.0636585   -7.3071396    414.29094  0.030797721  0.031035089            2 
 1122000    1.0924826   -7.2961267    415.22384  0.030839561  0.031028641            1 
 1123000    1.0879785   -7.2675941     416.7663  0.030926558  0.031022452            1 
 1124000    1.0604494   -7.2473713    416.42093  0.030873438  0.031016064            3 
 1125000    1.0646945   -7.2760386    415.06849  0.030745814  0.031009526            1 
 1126000    1.1075332   -7.3050743    417.06154  0.030866011  0.031002977            2 
 1127000    1.0679721    -7.298931    417.84382  0.030896467   0.03099661            3 
 1128000    1.0727579   -7.2846763    417.36153  0.030833447  0.030990258            2 
 1129000     1.097426   -7.2438314    419.07189  0.030932381  0.030983854            2 
 1130000    1.0686118   -7.3021739    417.05714  0.030756426  0.030977499            3 
 1131000    1.0842798   -7.2892566     418.5631  0.030840193  0.030971276            3 
 1132000    1.0750331   -7.3090371    418.67016  0.030820831  0.030964853            2 
 1133000    1.0693347   -7.3044794    417.81255  0.030730549  0.030958604            2 
 1134000     1.050906   -7.2905397     418.9272  0.030785361  0.030952296            1 
 1135000    1.0543849   -7.2806702    420.20234   0.03085186  0.030945986            3 
 1136000    1.0739406   -7.3100701    419.95083  0.030806252  0.030939582            1 
 1137000    1.0513571   -7.3173928    418.86115  0.030699293  0.030933195            1 
 1138000       1.0905   -7.2636337    420.23429  0.030772868  0.030926726            1 
 1139000    1.0825879   -7.2680055    420.48377  0.030764104  0.030920369            2 
 1140000    1.0651601   -7.2779004     420.7363  0.030755578  0.030914045            1 
 1141000    1.0778898    -7.326882    420.35974   0.03070112  0.030907508            1 
 1142000    1.0399543   -7.3184721    420.24441  0.030665821  0.030900949            4 
 1143000    1.0523791    -7.297442    420.94882  0.030690349  0.030894536            2 
 1144000     1.079632   -7.3221391    421.13817  0.030677314  0.030887964            2 
 1145000    1.0753863   -7.2730172    422.53207   0.03075197  0.030881585            1 
 1146000    1.0608963   -7.2774951    421.69975  0.030664612  0.030875083            2 
 1147000    1.0904397   -7.2762118    423.48394  0.030767505  0.030868573            1 
 1148000    1.0984212    -7.303694    421.05796  0.030564602  0.030861976            1 
 1149000    1.0684133   -7.3479593    420.92497  0.030528355  0.030855114            2 
 1150000    1.0551786   -7.3010411    423.24275  0.030669765  0.030848299            2 
 1151000     1.057755   -7.3204742    421.31501  0.030503548  0.030841734            1 
 1152000    1.0815123   -7.3398078    423.55273  0.030638942  0.030835168            2 
 1153000    1.0613886   -7.3029111    424.49498   0.03068047  0.030828647            4 
 1154000    1.0656522   -7.3118253    425.00981   0.03069106  0.030822543            2 
 1155000    1.0554556    -7.305769     426.2812  0.030756219  0.030816233            2 
 1156000    1.0622898   -7.3151127    425.98955  0.030708589  0.030810022            2 
 1157000    1.0751281   -7.2858387    426.03106  0.030685037  0.030803844            1 
 1158000    1.0807196   -7.3284414    424.98951  0.030583586  0.030797422            1 
 1159000    1.0767167   -7.3469655    425.22421  0.030574073  0.030790981            1 
 1160000    1.0571924   -7.3279247    425.99598  0.030603159  0.030784595            2 
 1161000    1.0675689    -7.319723    426.17517  0.030589662  0.030778351            2 
 1162000    1.0911755   -7.2953257    428.53736  0.030732743  0.030771876            2 
 1163000    1.0614215   -7.2978279    427.13477  0.030605816  0.030765552            2 
 1164000    1.0726488   -7.2981616    426.94666  0.030566056   0.03075929            3 
 1165000    1.0649197   -7.3476028    426.63555  0.030517565  0.030752723            1 
 1166000    1.0622971   -7.2905652    427.20589  0.030532153  0.030746184            1 
 1167000     1.058841   -7.2872284    427.24422  0.030508727  0.030739613            1 
 1168000    1.0790325   -7.2996216    429.11696  0.030616221  0.030733341            2 
 1169000    1.0562671   -7.2822327     428.6636  0.030557713  0.030727157            1 
 1170000    1.0588218   -7.2695907    430.89912   0.03069082  0.030721137            1 
 1171000    1.0949468   -7.3170051    430.96092  0.030669009  0.030714992            2 
 1172000    1.0765018   -7.2898955    431.98925  0.030715959  0.030708883            1 
 1173000    1.0509846   -7.3655163    430.16071  0.030559869  0.030702722            2 
 1174000    1.0560504   -7.3645105    429.37617  0.030478149  0.030696344            4 
 1175000    1.0790763    -7.310628    431.02985  0.030569493  0.030690127            1 
 1176000    1.0762231   -7.2758185    431.30205  0.030562787  0.030684103            1 
 1177000    1.0515746   -7.3186528    431.23396  0.030531999  0.030677807            1 
 1178000    1.0586329   -7.2813752    431.02013  0.030490955  0.030671405            2 
 1179000    1.0458384   -7.3408881    430.54382  0.030431427  0.030664766            1 
 1180000    1.0862916   -7.3047616    431.38954  0.030465363  0.030658212            2 
 1181000    1.0660849   -7.3174328    431.51191  0.030448201  0.030651585            1 
 1182000    1.0703153   -7.3352407    432.78293  0.030512051  0.030644933            3 
 1183000    1.0516885   -7.3226612    430.90666   0.03035409  0.030638309            3 
 1184000    1.0696974    -7.338824    431.16042  0.030346313  0.030631371            2 
 1185000    1.0472215   -7.3006847    433.17918  0.030462671  0.030624546            1 
 1186000    1.0480096   -7.3022889    433.69137  0.030472974  0.030617636            2 
 1187000    1.0681325   -7.3185114    431.68434  0.030306398  0.030611027            1 
 1188000    1.0321595   -7.2798329    434.18016  0.030455959  0.030604345            1 
 1189000     1.070907   -7.3362854    432.28963  0.030297843  0.030597446            1 
 1190000    1.0800517   -7.2918105    433.07254  0.030327208  0.030590515            3 
 1191000    1.0762114    -7.304499    433.30085  0.030317719  0.030583784            2 
 1192000     1.058382   -7.3068419    433.75515  0.030324046  0.030576956            3 
 1193000    1.0661384    -7.331883    434.15887  0.030326828   0.03057023            1 
 1194000    1.0326321   -7.3543395    434.18075  0.030302955  0.030563345            1 
 1195000    1.0719399   -7.3616672     434.1839  0.030277817  0.030556521            3 
 1196000    1.0430986   -7.3192281    435.63023  0.030353277  0.030549766            2 
 1197000    1.0519496   -7.3419367    434.31563  0.030236398  0.030543085            2 
 1198000    1.0639815    -7.309382     435.3303  0.030281741  0.030536307            1 
 1199000    1.0548166   -7.3201873    434.60728  0.030206233  0.030529506            2 
 1200000    1.0505692   -7.3621194    434.57504  0.030178822  0.030522427            3 
 1201000      1.07403    -7.330636    435.65812  0.030228845   0.03051554            2 
 1202000    1.0466562   -7.3447891    434.87082  0.030149114    0.0305086            1 
 1203000    1.0583896   -7.3336569    435.90079    0.0301954  0.030501568            2 
 1204000    1.0642778   -7.3080673    437.85401   0.03030551  0.030494761            2 
 1205000    1.0689644    -7.296677    437.68454  0.030268641  0.030488089            1 
 1206000    1.0757012   -7.3040294    439.09247  0.030340828   0.03048121            2 
 1207000    1.0576297   -7.3339106    437.32448  0.030193626  0.030474326            3 
 1208000     1.058455   -7.3169659    437.67771  0.030192998  0.030467311            1 
 1209000    1.0797982   -7.3429329    436.96965   0.03011922  0.030460305            1 
 1210000    1.0477168   -7.3485637    437.77335   0.03014968  0.030453358            2 
 1211000    1.0578073   -7.3083385    439.87834  0.030269635  0.030446461            1 
 1212000    1.0594101   -7.3204973    440.01531  0.030254078  0.030439777            1 
 1213000     1.059608   -7.3292985    439.93329  0.030223502  0.030432985            2 
 1214000    1.0631621   -7.3259533    440.89158  0.030264386   0.03042633            2 
 1215000    1.0455236   -7.3660969    438.58283  0.030081127  0.030419489            2 
 1216000    1.0281691   -7.3634396    440.16832  0.030165044  0.030412467            3 
 1217000    1.0435572   -7.3500938    439.26148  0.030078162  0.030405364            3 
 1218000    1.0507078   -7.3249874    439.90676  0.030097616  0.030398519            3 
 1219000    1.0612383   -7.3446041    439.96144  0.030076664  0.030391524            1 
 1220000    1.0392553   -7.3404347    441.47819  0.030155614  0.030384533            2 
 1221000    1.0646492   -7.2964621    442.60009  0.030207486   0.03037779            2 
 1222000    1.0602881   -7.3613241    441.06624  0.030078167  0.030370855            2 
 1223000    1.0711462   -7.3586308    441.29793   0.03006936  0.030363888            3 
 1224000    1.0625239   -7.3091477    442.67063  0.030138251  0.030356928            3 
 1225000    1.0592604   -7.3552604    440.24049  0.029948333  0.030349971            2 
 1226000    1.0640412   -7.3236199    442.29083   0.03006327  0.030343037            1 
 1227000    1.0450299   -7.3124287    443.20018  0.030100528  0.030336132            3 
 1228000    1.0821779   -7.3392525    442.14746  0.030004578  0.030329162            2 
 1229000    1.0542403   -7.3364553    443.29054  0.030057671  0.030322018            2 
 1230000    1.0516258   -7.2868927    443.42351  0.030042243  0.030314961            2 
 1231000     1.069916   -7.3505861    443.77384  0.030041555  0.030308184            2 
 1232000    1.0509647   -7.3370581    443.98368  0.030031364  0.030301247            2 
 1233000    1.0735965   -7.3600192    443.27476  0.029959094  0.030294204            1 
 1234000    1.0496426   -7.3181619     444.4938  0.030017139  0.030287155            1 
 1235000    1.0435075   -7.3852647    443.45985  0.029923067  0.030280117            4 
 1236000    1.0721481   -7.2742049    445.02761  0.030004558  0.030273221            2 
 1237000    1.0402267   -7.3041512     445.3036  0.029998895  0.030266272            2 
 1238000    1.0602389   -7.3461073    444.97441  0.029952504  0.030259356            1 
 1239000    1.0462357    -7.379391    445.90336   0.02999081  0.030252245            1 
 1240000    1.0531653   -7.3531345    445.27442  0.029924356  0.030245115            1 
 1241000     1.033633   -7.3520065    445.17491  0.029893561  0.030237813            1 
 1242000     1.054482   -7.3202636    446.83992  0.029981208  0.030230652            1 
 1243000    1.0719713   -7.3552639    446.02754  0.029902624  0.030223577            1 
 1244000    1.0457854   -7.3385729    446.52362  0.029911818   0.03021654            1 
 1245000    1.0535403   -7.3421541    446.68769  0.029898774  0.030209509            3 
 1246000    1.0546726   -7.3301922     446.7422  0.029878424    0.0302024            2 
 1247000    1.0567098   -7.3656733    447.14168   0.02988116  0.030195248            1 
 1248000    1.0363485   -7.3776283    445.77992  0.029766288  0.030187971            2 
 1249000    1.0563738    -7.333499    448.64345   0.02993351  0.030180819            3 
 1250000    1.0498241   -7.3424552    448.67407  0.029911604  0.030173808            2 
 1251000    1.0419652   -7.2915217    449.96253  0.029973523  0.030166982            1 
 1252000    1.0428059   -7.3506063    449.80781  0.029939285  0.030160112            2 
 1253000    1.0524939   -7.3154107    449.51186  0.029895707  0.030153157            3 
 1254000    1.0627058   -7.3237703    449.44225  0.029867242  0.030146273            4 
 1255000    1.0482425    -7.343995     449.5237  0.029848851  0.030139321            1 
 1256000    1.0702272   -7.3209891    451.24277  0.029939144  0.030132315            4 
 1257000    1.0427924   -7.3342605    450.85351   0.02988952  0.030125359            2 
 1258000    1.0569211   -7.3509474    450.30729  0.029829577  0.030118433            2 
 1259000    1.0370607    -7.347924    450.10561  0.029792534  0.030111326            3 
 1260000    1.0365849   -7.3234611    450.49384  0.029794566  0.030104226            1 
 1261000    1.0460697   -7.3605841     450.8691  0.029795737  0.030097212            2 
 1262000    1.0531553   -7.3018302    451.56026  0.029817767  0.030090034            3 
 1263000    1.0542432    -7.364442    450.47802  0.029722752  0.030082803            1 
 1264000    1.0469827   -7.3310984    450.77877  0.029719064  0.030075574            1 
 1265000    1.0301588   -7.3456559    450.26655  0.029661828  0.030068405            2 
 1266000    1.0603128   -7.3614265    452.41864  0.029780058  0.030061085            2 
 1267000    1.0465941   -7.3359539    452.41549  0.029756346  0.030053729            1 
 1268000    1.0399913   -7.3423871    454.09597  0.029843321  0.030046524            2 
 1269000    1.0331098   -7.3634043    452.95453  0.029744847  0.030039374            3 
 1270000    1.0414541   -7.3564439    453.76678  0.029774723  0.030032308            2 
 1271000    1.0602795   -7.3766124    451.89139  0.029628336  0.030025227            2 
 1272000    1.0211888   -7.3470749     454.2195  0.029757567  0.030017997            2 
 1273000    1.0400971   -7.3153577    455.27771  0.029803464  0.030010864            1 
 1274000    1.0446611   -7.3223718    454.40067  0.029722702  0.030003804            2 
 1275000    1.0560581   -7.3744097    453.47021  0.029638576  0.029996746            2 
 1276000     1.044051   -7.3684923    453.85819  0.029640686  0.029989629            3 
 1277000    1.0523877   -7.3561459    454.78399   0.02967789  0.029982356            2 
 1278000    1.0499064   -7.3223039    455.01706  0.029669865  0.029975142            1 
 1279000    1.0509306   -7.3487505    456.44924  0.029739982  0.029967957            4 
 1280000    1.0518635   -7.3143976    456.34127  0.029709718  0.029960952            1 
 1281000    1.0588349    -7.361732    456.20812  0.029677864  0.029953944            3 
 1282000    1.0534278   -7.3662949     455.3523  0.029599084  0.029946777            2 
 1283000    1.0685208   -7.3586319     457.3041  0.029702787  0.029939483            2 
 1284000    1.0297211   -7.3330448    457.72363  0.029706881  0.029932245            1 
 1285000    1.0456737   -7.3418158    456.97994  0.029635534  0.029925018            1 
 1286000    1.0288684   -7.3557367    456.16619  0.029559758  0.029917626            2 
 1287000    1.0581006   -7.3608958    457.12434  0.029598831  0.029910318            1 
 1288000    1.0670183   -7.3626962    457.17765    0.0295793  0.029902946            1 
 1289000    1.0548754   -7.3725378    456.42518  0.029507705  0.029895407            1 
 1290000     1.058313   -7.3577104    458.17545  0.029597897  0.029887949            3 
 1291000    1.0536851   -7.3946073     458.2599  0.029580422  0.029880566            1 
 1292000    1.0549565   -7.3733328    458.34575  0.029563064  0.029873198            1 
 1293000    1.0568877   -7.3777601    457.64126  0.029494796  0.029865777            1 
 1294000    1.0321961   -7.3814239    459.34899  0.029581981  0.029858464            2 
 1295000    1.0550408   -7.3750426    457.78587   0.02945855  0.029851016            3 
 1296000     1.045019   -7.3504262    458.50098  0.029481802  0.029843675            1 
 1297000    1.0502738   -7.3577217    458.81375  0.029479166  0.029836303            2 
 1298000    1.0437353   -7.3699883    458.55525  0.029439859  0.029828759            1 
 1299000    1.0361362   -7.3472168    459.71902  0.029491854  0.029821307            4 
 1300000    1.0453549   -7.3274796    459.35719  0.029445973  0.029813957            2 
 1301000    1.0522878   -7.3413762    460.96507   0.02952633  0.029806609            3 
 1302000    1.0309315   -7.2860038    460.91391  0.029500378  0.029799217            2 
 1303000    1.0366467    -7.352406    460.99214  0.029482741  0.029791908            1 
 1304000     1.030025   -7.3646234    460.98368  0.029459591  0.029784665            2 
 1305000        1.068   -7.3710435    460.63279   0.02941461  0.029777174            1 
 1306000     1.037362   -7.3668785    459.77079  0.029337085  0.029769648            1 
 1307000    1.0484576   -7.3076264    462.72941  0.029503278  0.029762158            2 
 1308000    1.0563092   -7.3342696    462.24323  0.029449747  0.029754719            3 
 1309000     1.025033   -7.3274616    462.38235  0.029436106  0.029747304            3 
 1310000    1.0292949    -7.352603    462.62009  0.029428759  0.029739821            1 
 1311000    1.0175575   -7.3944203    461.54922  0.029338242  0.029732473            2 
 1312000    1.0393442    -7.335968    464.76238  0.029519968  0.029725192            2 
 1313000    1.0264732   -7.3203062    464.83701  0.029502222  0.029718097            2 
 1314000    1.0317144      -7.3149    464.24274  0.029442081  0.029711078            1 
 1315000    1.0538086   -7.3234644    463.51181  0.029373372  0.029703861            2 
 1316000    1.0342168   -7.3578191    463.66709  0.029360885  0.029696513            2 
 1317000    1.0385432   -7.3986666    462.82859  0.029285534  0.029689161            1 
 1318000    1.0494839   -7.3343184    465.10203  0.029407058  0.029681664            3 
 1319000     1.018479   -7.3918027    463.42009  0.029278499  0.029674269            2 
 1320000    1.0413757   -7.4051314    462.01001  0.029167298  0.029666758            1 
 1321000    1.0186988   -7.3577501    463.80673  0.029258562  0.029659379            2 
 1322000    1.0157157    -7.383644    465.37419  0.029335236  0.029651934            1 
 1323000    1.0405818   -7.3733065    465.25232  0.029305387  0.029644467            1 
 1324000    1.0462649   -7.3648806    465.45867   0.02929624  0.029637054            1 
 1325000    1.0369577   -7.3952504    464.44903  0.029210631  0.029629471            3 
 1326000    1.0417385   -7.3464579    466.62496  0.029325349  0.029621922            2 
 1327000    1.0131725   -7.3613778    466.52223  0.029296799   0.02961453            2 
 1328000     1.047298   -7.3540112    466.40785  0.029267561  0.029607079            1 
 1329000    1.0387353   -7.3690257    465.52493  0.029190176  0.029599666            1 
 1330000    1.0393047    -7.370101    465.88894  0.029191037  0.029592176            2 
 1331000    1.0324805   -7.3519364    467.77975  0.029287487  0.029584615            1 
 1332000    1.0299339   -7.3674936    467.30034  0.029235507  0.029577061            2 
 1333000    1.0362851    -7.353434    466.96482  0.029192599   0.02956943            3 
 1334000    1.0422318   -7.3988467    466.93716  0.029168988  0.029561796            3 
 1335000    1.0292762   -7.3643091    466.92049  0.029146098  0.029554211            1 
 1336000    1.0443512   -7.3909722    467.67321  0.029171233  0.029546543            4 
 1337000    1.0415532   -7.3927746    467.10471  0.029113981  0.029538841            3 
 1338000    1.0388722   -7.3557968    468.90701  0.029204472  0.029531173            2 
 1339000    1.0514965   -7.4257124    466.73905  0.029047738  0.029523449            4 
 1340000    1.0299462   -7.3748349    468.85917  0.029157908  0.029515974            1 
 1341000    1.0485034    -7.349808    469.79183  0.029194123   0.02950858            2 
 1342000    1.0366832   -7.3702265    470.06635  0.029189416  0.029501192            3 
 1343000    1.0181561   -7.4079157    470.15441  0.029173145  0.029493891            1 
 1344000    1.0475076   -7.3633752    470.85005  0.029194571  0.029486657            3 
 1345000    1.0251681   -7.3334973    471.99852  0.029244022  0.029479408            2 
 1346000    1.0569384    -7.338494    473.45399  0.029312406  0.029472364            2 
 1347000    1.0231318   -7.3831916    472.18185  0.029211943  0.029465336            3 
 1348000    1.0289943   -7.3611019    472.23171  0.029193355  0.029458438            3 
 1349000    1.0286964   -7.3364324    472.75547  0.029204069  0.029451525            2 
 1350000     1.051066   -7.3688696    473.88234  0.029251996  0.029444287            3 
 1351000    1.0516503   -7.3598713    473.38035   0.02919938  0.029437212            2 
 1352000    1.0455195   -7.3350969    473.91332  0.029210634  0.029430013            2 
 1353000    1.0148873   -7.3808297    473.24844  0.029148093  0.029422784            3 
 1354000    1.0436888   -7.3638524    474.53218  0.029205575  0.029415596            1 
 1355000    1.0303412   -7.3738523    475.22004  0.029226325  0.029408548            2 
 1356000    1.0457119   -7.4073312    475.96928  0.029250816  0.029401495            2 
 1357000    1.0301359    -7.378905    475.17747  0.029180635  0.029394469            3 
 1358000    1.0395431   -7.3873619     475.7868  0.029196539  0.029387525            2 
 1359000    1.0394157   -7.4011688    475.55929  0.029161104  0.029380662            3 
 1360000    1.0295827   -7.3983615     475.3864  0.029129069  0.029373638            2 
 1361000    1.0136635   -7.3866837    476.26841  0.029161671  0.029366719            1 
 1362000     1.026955   -7.3525355    477.89033  0.029239497  0.029359778            2 
 1363000    1.0419758    -7.375414    477.72408  0.029207879  0.029352959            2 
 1364000    1.0391321   -7.3853703    477.45029  0.029169739  0.029346079            1 
 1365000    1.0123534   -7.3789202    476.41935  0.029085431  0.029339106            2 
 1366000    1.0512212   -7.4053538    478.00675  0.029160978  0.029332217            2 
 1367000    1.0101735   -7.3802293    479.21175  0.029213104  0.029325597            1 
 1368000    1.0304323   -7.3866501    479.25612  0.029194452  0.029319039            3 
 1369000    1.0371785   -7.3194155    480.99644  0.029279063  0.029312413            1 
 1370000    1.0418063   -7.3865514    479.01764  0.029137326  0.029305845            1 
 1371000    1.0231592   -7.3567806    479.79516  0.029163333  0.029299295            2 
 1372000     1.037328   -7.3857802    480.15207  0.029163756  0.029292764            1 
 1373000    1.0226872   -7.3834582    480.77222  0.029180154   0.02928613            2 
 1374000    1.0216433   -7.3990456    479.65064  0.029090893  0.029279353            3 
 1375000    1.0388014   -7.3384652     481.3915  0.029175243  0.029272652            1 
 1376000    1.0131063   -7.3806324    480.42753   0.02909566  0.029266057            4 
 1377000    1.0315247   -7.4167009    477.94628   0.02892437  0.029259342            2 
 1378000    1.0128045   -7.3500327    482.89654  0.029202742  0.029252756            1 
 1379000    1.0279187   -7.3679189    482.67827  0.029168375  0.029246267            2 
 1380000    1.0430401   -7.3627853    481.67617  0.029086725  0.029239772            2 
 1381000    1.0302878   -7.3490609    482.86123  0.029137173  0.029233134            3 
 1382000    1.0387225   -7.3276574    483.76937   0.02917085  0.029226624            2 
 1383000    1.0117429   -7.3721059     482.9511  0.029100452  0.029219959            1 
 1384000    1.0236796   -7.3697893     482.7034  0.029064511  0.029213318            2 
 1385000     1.041408    -7.382046    482.58576  0.029036447  0.029206737            5 
 1386000    1.0287553   -7.3803197    483.40053  0.029064486  0.029200001            1 
 1387000    1.0377247   -7.4015298    483.22976  0.029033271  0.029193377            5 
 1388000    1.0360397   -7.3907095    482.92203  0.028993878  0.029186717            5 
 1389000     1.024836     -7.38306    484.59838  0.029073577  0.029180038            2 
 1390000    1.0203177   -7.4060106    483.29676  0.028974626  0.029173225            4 
 1391000    1.0278705    -7.394256     484.1315  0.029003804  0.029166514            2 
 1392000    1.0279835    -7.383217    483.41655  0.028940167  0.029159783            2 
 1393000    1.0262505   -7.4041142    485.16436  0.029023951  0.029153088            1 
 1394000    1.0312001   -7.3860313    484.05277   0.02893668  0.029146313            3 
 1395000    1.0243894   -7.3552868    486.46633  0.029060115  0.029139644            3 
 1396000    1.0296327   -7.3744556    486.01804  0.029012538  0.029133182            2 
 1397000    1.0321949    -7.404529    486.50746  0.029020965  0.029126524            1 
 1398000    1.0462425   -7.3868347    485.52952  0.028941912  0.029119831            4 
 1399000    1.0193727   -7.4318479    485.45719  0.028916916  0.029113073            1 
 1400000    1.0067905   -7.3859105    486.20821  0.028940965  0.029106321            2 
 1401000    1.0283093   -7.3584095    487.87789  0.029019622  0.029099675            2 
 1402000   0.99697744    -7.374596    487.22766  0.028960274  0.029092879            2 
 1403000    1.0224823   -7.3968551    488.04107  0.028987947  0.029086124            2 
 1404000    1.0218273   -7.4454764    485.76584  0.028832255  0.029079269            2 
 1405000      1.03795   -7.4248207    486.71446  0.028867999  0.029072364            5 
 1406000    1.0134953   -7.4003087    485.85287  0.028796401  0.029065259            2 
 1407000    1.0199765   -7.3998202    487.26023  0.028859289  0.029058312            1 
 1408000    1.0082442   -7.3976642    487.19092   0.02883469  0.029051341            1 
 1409000    1.0050284   -7.3977525    488.79483  0.028909086  0.029044294            1 
 1410000    1.0375589   -7.3680039    488.78712  0.028888128  0.029037367            1 
 1411000    1.0275775   -7.4332242    487.00918  0.028762649  0.029030336            1 
 1412000    1.0053696   -7.3867245    488.57955  0.028834959  0.029023453            1 
 1413000    1.0146919   -7.4025122    488.77458  0.028826054  0.029016583            2 
 1414000    1.0343627   -7.3766598    489.10977  0.028825422  0.029009723            4 
 1415000    1.0309236   -7.3882401    489.44279  0.028824664  0.029002862            3 
 1416000    0.9971415   -7.4029377    489.64408  0.028816154  0.028995897            4 
 1417000    1.0266237   -7.4120356    489.94817  0.028813701  0.028989127            1 
 1418000     1.027415   -7.4364886     488.7564  0.028723342  0.028982125            1 
 1419000    1.0216735   -7.3872789    489.79239  0.028763941  0.028975271            2 
 1420000    1.0389602   -7.3850848    490.20846  0.028768102  0.028968446            3 
 1421000    1.0102936   -7.3705452    491.54923  0.028826485  0.028961586            5 
 1422000    1.0234961   -7.3990653     490.8109  0.028762945    0.0289547            1 
 1423000    1.0411008   -7.3971742     492.3728    0.0288342  0.028947973            3 
 1424000    1.0383586   -7.3709588    493.13969   0.02885883  0.028941436            1 
 1425000    1.0272843   -7.4174191    491.91663  0.028767055  0.028934916            1 
 1426000    1.0206747   -7.4223195    492.27471  0.028767807  0.028928318            1 
 1427000    1.0233373   -7.4138837    491.94311  0.028728282  0.028921436            2 
 1428000     1.030907   -7.4040406    492.36842  0.028732984   0.02891469            2 
 1429000    1.0199825     -7.38647    494.04198  0.028810472  0.028908056            1 
 1430000    1.0211668   -7.4082285    493.37666  0.028751553  0.028901327            1 
 1431000    1.0231804   -7.3650775    494.31258  0.028785965  0.028894622            1 
 1432000    1.0180124   -7.3700249    493.97229   0.02874606  0.028887939            3 
 1433000    1.0158968   -7.3980103    492.98552  0.028668616  0.028881249            1 
 1434000    1.0030172   -7.3793199    496.26292  0.028839082  0.028874574            3 
 1435000    1.0327007   -7.4172606    495.59963  0.028780466  0.028867919            2 
 1436000    1.0158626    -7.394678    493.44469   0.02863537  0.028861155            2 
 1437000    1.0198108   -7.3636623    495.81005  0.028752613  0.028854477            1 
 1438000    1.0123509   -7.4076808    494.55714  0.028660011  0.028847659            1 
 1439000    1.0085499   -7.4412093    495.03465  0.028667747  0.028840947            1 
 1440000    1.0277315   -7.4258374    496.02404  0.028705095  0.028834158            1 
 1441000    1.0169958   -7.4490639    494.34313  0.028587967  0.028827268            2 
 1442000     1.033847   -7.4120913    495.50776  0.028635446   0.02882042            1 
 1443000    1.0385563   -7.4185512    496.35557  0.028664563  0.028813562            3 
 1444000    1.0141953   -7.4238581    496.00948  0.028624739  0.028806721            3 
 1445000    1.0409792   -7.4451524    495.38428  0.028568874  0.028799811            1 
 1446000    1.0127944   -7.4185137    496.57991  0.028618021  0.028792926            2 
 1447000    1.0136305   -7.4072261    496.78532  0.028610073  0.028785988            3 
 1448000    1.0330225   -7.4099507    497.52286  0.028632761  0.028779205            1 
 1449000    1.0194583   -7.4140878     498.9489  0.028695014  0.028772549            3 
 1450000    1.0020245   -7.4034731    498.03646  0.028622785  0.028765933            3 
 1451000    1.0076837     -7.42984    499.90828   0.02871056  0.028759188            1 
 1452000   0.99666271   -7.4329216    497.81938  0.028570901  0.028752491            1 
 1453000    0.9949257   -7.3983631    499.58285  0.028652377  0.028745591            2 
 1454000    1.0296875   -7.4000605    498.63212  0.028578182  0.028738766            3 
 1455000    1.0042331   -7.4219551    497.67724  0.028503851  0.028731874            3 
 1456000    1.0254061   -7.4130914    498.43156  0.028527447  0.028725016            1 
 1457000    1.0336742   -7.4303366    498.74159    0.0285256  0.028718256            2 
 1458000    1.0005647   -7.4100861     498.4849  0.028491364  0.028711529            1 
 1459000    1.0373575   -7.4273661    499.07559  0.028505574  0.028704752            3 
 1460000    1.0275748   -7.4392684    498.96447  0.028479707  0.028697873            2 
 1461000    1.0163402   -7.4024467    500.33497  0.028538385  0.028691139            3 
 1462000    1.0148184   -7.4441513    499.61747  0.028477968   0.02868424            3 
 1463000    1.0007354   -7.4291592    499.67036  0.028461515  0.028677272            1 
 1464000    1.0262014   -7.4277192    499.75507  0.028446896  0.028670336            1 
 1465000    1.0256522   -7.4019543    501.01274  0.028499018  0.028663396            4 
 1466000    1.0186209   -7.4111018    501.04762  0.028481561  0.028656559            2 
 1467000    1.0245962   -7.3772918    502.71527  0.028556877  0.028649794            2 
 1468000    1.0170369   -7.3862583    501.77363  0.028483971  0.028643111            2 
 1469000    1.0290485   -7.4040097    501.49143  0.028448572  0.028636338            1 
 1470000    1.0090557   -7.4103699    502.10228  0.028463848  0.028629423            3 
 1471000    1.0181999   -7.4167713    501.66475  0.028419711  0.028622433            2 
 1472000    1.0006152   -7.3848351    502.28204  0.028435351  0.028615511            3 
 1473000     1.021105   -7.4367693    502.56558  0.028432087  0.028608676            2 
 1474000    1.0309651   -7.4058393    503.92985  0.028489928   0.02860193            1 
 1475000   0.99848079   -7.4172371    502.07845  0.028366014  0.028595116            5 
 1476000    1.0064995   -7.4308155    504.64998  0.028491982   0.02858826            2 
 1477000     1.014892   -7.4458005     504.1694  0.028445577  0.028581408            2 
 1478000    1.0213711   -7.4563155    503.73244  0.028401693  0.028574598            1 
 1479000     1.020733   -7.4522196    502.32576  0.028303232  0.028567723            2 
 1480000    1.0230482   -7.3657925    507.57165  0.028579485  0.028561042            2 
 1481000     1.011014   -7.4329869    505.27521  0.028430971  0.028554396            3 
 1482000    1.0063837   -7.3813929    505.03574  0.028398321  0.028547662            3 
 1483000    1.0183621   -7.4195828    504.56689  0.028352826  0.028540957            1 
 1484000    1.0010063   -7.3887759    503.93634  0.028298312  0.028534265            1 
 1485000    1.0098127   -7.4555177    505.85519  0.028386936  0.028527436            2 
 1486000    1.0051609   -7.4442923    504.03842   0.02826595  0.028520485            1 
 1487000     1.009027   -7.4260059    504.09969  0.028250375  0.028513564            1 
 1488000    1.0148764   -7.4348512    506.50567  0.028366133  0.028506828            3 
 1489000    1.0025304   -7.4271209    506.36638  0.028339287  0.028499882            3 
 1490000    1.0159619    -7.432838    506.17761   0.02830971  0.028492952            2 
 1491000    1.0297022   -7.4170965    505.08623  0.028229724  0.028486041            2 
 1492000    1.0384433   -7.4168348    507.82217  0.028363615  0.028479032            2 
 1493000    1.0234499   -7.4052013    507.76627  0.028341498  0.028472044            1 
 1494000    1.0082055   -7.4262946    506.55046  0.028254711  0.028465206            1 
 1495000    1.0161691   -7.4392518    506.09621  0.028210491  0.028458126            3 
 1496000    1.0065163   -7.4408853    506.71523  0.028226116  0.028451157            2 
 1497000    1.0235908   -7.4285159    506.19029  0.028178039   0.02844409            2 
 1498000    1.0324597    -7.409955    507.70684  0.028243594  0.028437035            3 
 1499000    1.0129499   -7.4054038    508.32851  0.028259312  0.028430039            1 
 1500000    1.0161307   -7.4437314    507.76727  0.028209293  0.028423154            1 
 1501000    1.0024509   -7.4333154    508.08545  0.028208164  0.028416088            3 
 1502000    1.0177007    -7.445223    508.30454  0.028201539    0.0284091            2 
 1503000    1.0088805   -7.4268225    509.36717  0.028241693  0.028402212            2 
 1504000    1.0349586    -7.432652    509.22401  0.028214983   0.02839538            2 
 1505000    1.0199646   -7.4367485    510.03378  0.028241073  0.028388596            2 
 1506000    1.0086007   -7.4417639    508.26846  0.028124638   0.02838167            2 
 1507000    1.0280975   -7.4693989    509.30346  0.028163208  0.028374704            1 
 1508000    1.0159496   -7.4261311    510.83632   0.02822924  0.028367746            2 
 1509000    1.0196637   -7.4772168    509.91297  0.028159541  0.028360912            3 
 1510000    0.9835326   -7.4804539    509.58343  0.028122706  0.028354101            1 
 1511000    1.0204386   -7.3775816    511.27457  0.028197362  0.028347181            1 
 1512000    1.0072761   -7.4122093    512.63711  0.028253809  0.028340304            2 
 1513000    1.0069146   -7.4325255     511.1239   0.02815179  0.028333385            2 
 1514000   0.99530028   -7.4292877    511.73091  0.028166606  0.028326496            1 
 1515000     0.994336   -7.4027329    512.37906  0.028183667  0.028319612            1 
 1516000    1.0454717    -7.425333    512.13819  0.028151836  0.028312773            2 
 1517000    1.0004235   -7.4776796    512.56398  0.028156668  0.028305897            3 
 1518000    1.0262797   -7.4231239    512.46107   0.02813247  0.028299128            1 
 1519000   0.99635885   -7.4696603    512.74813  0.028129698  0.028292282            1 
 1520000    1.0126547   -7.4745254    512.02102  0.028071328   0.02828553            2 
 1521000    1.0014288   -7.3993934    514.93356  0.028212446  0.028278745            3 
 1522000   0.99441519     -7.40539    514.49841  0.028170084  0.028271971            2 
 1523000    1.0158102   -7.4383197    513.84425  0.028115794   0.02826526            1 
 1524000      1.03122   -7.3965395    515.76148  0.028202181  0.028258493            2 
 1525000    1.0074114   -7.4254825    514.52063  0.028115882    0.0282518            2 
 1526000    1.0089208   -7.4316396    513.72969  0.028054264  0.028244987            3 
 1527000   0.98703884   -7.4121137    513.29547  0.028012196  0.028238127            4 
 1528000    1.0027217   -7.4353498    515.65808  0.028122714  0.028231232            2 
 1529000    1.0160801   -7.4324454    515.01307  0.028069166  0.028224224            1 
 1530000    1.0359493   -7.4495214    514.88872  0.028044048  0.028217217            2 
 1531000    1.0199032   -7.4163375    514.40936  0.027999639  0.028210368            2 
 1532000   0.99007792   -7.4225443    514.76594  0.028000758  0.028203523            2 
 1533000    1.0170294   -7.4134768    515.78604  0.028037945  0.028196533            1 
 1534000    1.0310207   -7.4449809    515.87004  0.028024231  0.028189616            1 
 1535000     1.022651   -7.4510295    516.04171  0.028015294    0.0281827            1 
 1536000     1.021623   -7.4430069    516.08773  0.027999551  0.028175757            1 
 1537000    1.0037844    -7.415172    517.20577  0.028041952  0.028168895            1 
 1538000    1.0063198   -7.4521339    516.00972  0.027958914   0.02816218            4 
 1539000    1.0052028   -7.4479709    517.19016  0.028004665   0.02815542            1 
 1540000    1.0096375   -7.4558383    518.11123  0.028036322  0.028148653            1 
 1541000    1.0063672   -7.4660029    516.63183  0.027938126  0.028141849            2 
 1542000    1.0129905   -7.4668324    517.28386  0.027955245  0.028135014            1 
 1543000     1.002778   -7.4394208     519.1094   0.02803572  0.028128067            1 
 1544000    1.0154227   -7.4280783    519.61526  0.028044865  0.028121286            2 
 1545000   0.97949121   -7.4612775    516.68394  0.027868605  0.028114549            3 
 1546000    1.0132786   -7.4590677    519.17343  0.027984769  0.028107769            3 
 1547000    1.0078121   -7.4609723     518.3302  0.027921256  0.028100985            1 
 1548000    1.0217036   -7.4337206    519.23948  0.027952168   0.02809429            3 
 1549000   0.98608445   -7.3993579    520.36784  0.027994827  0.028087614            2 
 1550000    1.0054526    -7.452612    518.93615  0.027899793  0.028080804            1 
 1551000    1.0072999   -7.4664876    519.65759  0.027920567   0.02807385            2 
 1552000    1.0006041   -7.4408349    520.71198  0.027959192     0.028067            1 
 1553000   0.99835163   -7.4275657    521.42323  0.027979353  0.028060268            3 
 1554000   0.98855739   -7.4325997    521.73719  0.027978185  0.028053576            2 
 1555000   0.98635373   -7.4537256    520.62893    0.0279008  0.028046677            2 
 1556000   0.98555585   -7.4631261    521.32128  0.027919949  0.028039792            2 
 1557000    1.0098517   -7.4218514    522.09842   0.02794361  0.028033144            1 
 1558000    1.0019279     -7.40577    522.01176   0.02792104  0.028026528            3 
 1559000   0.99928227   -7.4933294    520.39596  0.027816761  0.028019769            1 
 1560000    1.0115489   -7.4878912    520.11316  0.027783822  0.028013039            3 
 1561000   0.99292028   -7.4316448    523.63063  0.027953803  0.028006256            3 
 1562000    1.0038475   -7.4469345     522.4342  0.027872076  0.027999435            3 
 1563000    0.9964024   -7.4810598    522.60794  0.027863507  0.027992685            1 
 1564000    1.0072287   -7.4371718    523.69995  0.027903876  0.027986016            1 
 1565000   0.99141121    -7.448035    523.89439    0.0278964  0.027979423            2 
 1566000    1.0168769   -7.4709716    523.74942  0.027870872  0.027972895            2 
 1567000     1.010982   -7.4457268    523.27926  0.027828082  0.027966324            2 
 1568000    1.0064179   -7.4794501    522.02043  0.027743433  0.027959671            3 
 1569000    1.0163488   -7.4719736    524.21764  0.027842449  0.027952919            2 
 1570000    1.0057769   -7.4736375    522.62654  0.027740262  0.027946123            1 
 1571000    1.0161788    -7.430067    525.44181   0.02787194  0.027939416            5 
 1572000   0.98091833    -7.474317    525.47972  0.027856219  0.027932696            2 
 1573000    1.0015878   -7.4411879    523.99031  0.027759605  0.027925897            5 
 1574000    1.0006432   -7.4642943    524.02055   0.02774357  0.027919108            2 
 1575000    1.0294799   -7.4698858    525.30886  0.027794119  0.027912373            1 
 1576000   0.99997342    -7.467523    525.13777  0.027767437  0.027905627            2 
 1577000   0.99718874   -7.4255951    527.28609  0.027863353  0.027898882            2 
 1578000    1.0126389   -7.4427583    525.96045  0.027775689  0.027892287            3 
 1579000   0.99656751   -7.4888672    525.65304  0.027741875  0.027885517            4 
 1580000    1.0113655   -7.4614127    526.18065  0.027752144  0.027878698            3 
 1581000    1.0052966   -7.4352329     526.2676  0.027739174  0.027872074            1 
 1582000    0.9927269   -7.5083336    524.92108   0.02765071  0.027865404            3 
 1583000    1.0018613   -7.4388419    527.09174  0.027747512  0.027858675            2 
 1584000   0.98579853   -7.4580569    526.07453   0.02767648  0.027851938            3 
 1585000    0.9904052   -7.4603608    527.68663  0.027743776  0.027845197            2 
 1586000   0.99826629   -7.4516049    526.08153  0.027641947  0.027838549            3 
 1587000   0.98310342   -7.4632415    527.71617  0.027710364    0.0278317            4 
 1588000    1.0086567   -7.4885117    527.55409  0.027684409  0.027824887            2 
 1589000   0.98492341   -7.4438847    526.97924  0.027636839  0.027818092            1 
 1590000    1.0025421   -7.4771726    528.41931  0.027694933  0.027811486            4 
 1591000   0.99425246   -7.4555384     528.3578  0.027674304  0.027804739            4 
 1592000    1.0028467   -7.4824857    527.80262  0.027627859  0.027797957            2 
 1593000    1.0038423   -7.4596072    529.30104  0.027688901  0.027791333            2 
 1594000   0.97605022   -7.4155339    528.57051  0.027633339  0.027784677            1 
 1595000   0.99491599   -7.4621459    528.90392  0.027633434  0.027778023            3 
 1596000   0.99788943   -7.4312441     528.3956  0.027589578  0.027771374            1 
 1597000   0.98387565   -7.4667799    528.92415  0.027599883  0.027764528            1 
 1598000   0.99081291   -7.4048809     530.7035  0.027675401  0.027757737            3 
 1599000   0.98564944   -7.4843801    529.58164  0.027599627  0.027751064            2 
 1600000   0.99650038   -7.4543892    530.49471  0.027629933  0.027744308            3 
 1601000    1.0034618   -7.4423851    530.48892  0.027612373  0.027737594            2 
 1602000   0.99816724   -7.4649625    532.08618  0.027678224  0.027730951            1 
 1603000    1.0150425   -7.4780341    530.29564  0.027567875  0.027724282            1 
 1604000    0.9810274    -7.470972    531.43968  0.027610125  0.027717471            1 
 1605000   0.99946101   -7.4767282    530.65947  0.027552413  0.027710604            2 
 1606000    1.0071599   -7.4784909    531.35476  0.027571335  0.027703681            2 
 1607000    1.0024282   -7.4869151    531.81762   0.02757818  0.027696779            1 
 1608000   0.98901943   -7.4710532    530.90881  0.027513931  0.027689955            2 
 1609000    1.0066968   -7.4444845    533.77866  0.027645466  0.027683107            1 
 1610000   0.98503234   -7.4886577    530.65343  0.027466534  0.027676215            2 
 1611000   0.99251075   -7.4739665    531.41851   0.02748906  0.027669219            2 
 1612000    1.0114333    -7.486949    530.58059  0.027428691  0.027662242            2 
 1613000   0.99438631   -7.4815268    530.59521  0.027412441  0.027655249            4 
 1614000   0.98533612   -7.4662358    531.43879  0.027439012  0.027648282            2 
 1615000    1.0046772   -7.4770469    531.48352   0.02742433  0.027641319            2 
 1616000    1.0138613   -7.4901825    532.23595  0.027446161  0.027634272            2 
 1617000   0.96388296   -7.4819737    531.41196  0.027386722  0.027627212            3 
 1618000   0.99933468   -7.4772422    531.91524  0.027395717  0.027620193            2 
 1619000    1.0028906   -7.4752896    531.99823  0.027383067  0.027613086            4 
 1620000   0.97692866   -7.4541537    532.88966   0.02741202  0.027606064            3 
 1621000   0.99437891   -7.4837848    532.91702  0.027396516  0.027598977            2 
 1622000   0.98015324    -7.475546    533.84212  0.027427154  0.027591927            2 
 1623000   0.99560913   -7.4828137     533.6783  0.027401843  0.027584917            3 
 1624000     0.991367   -7.4989276    533.70799  0.027386494  0.027577976            2 
 1625000   0.99388855    -7.486481    533.97249  0.027383205  0.027570971            1 
 1626000   0.98450663    -7.432469    535.18004  0.027428252  0.027563989            2 
 1627000   0.97989017    -7.429863    536.68467  0.027488459  0.027557265            1 
 1628000   0.98644088   -7.4587357    536.84354  0.027479706  0.027550479            1 
 1629000   0.97238287   -7.4881845    535.41588  0.027389804   0.02754353            3 
 1630000   0.99332386   -7.4708743    534.79717  0.027341368  0.027536652            3 
 1631000   0.97090917   -7.5242268    534.87323  0.027328491  0.027529764            2 
 1632000   0.97571125   -7.4432976    536.71921  0.027406005  0.027522826            2 
 1633000   0.99755176   -7.4904005     534.4774  0.027274822  0.027515861            1 
 1634000   0.99052061   -7.5106773    535.77139  0.027324122  0.027508883            2 
 1635000   0.98766268   -7.4776744    534.89722  0.027262855  0.027501973            1 
 1636000    1.0049858   -7.4605015     537.3921  0.027373273  0.027495078            2 
 1637000   0.99863863   -7.4644879    536.16747   0.02729421  0.027488163            1 
 1638000   0.98476394   -7.4497785    537.47803  0.027344222  0.027481232            2 
 1639000   0.97666926   -7.4852442    536.80531  0.027293335  0.027474325            3 
 1640000   0.99112138   -7.4476104    537.51334   0.02731267  0.027467433            2 
 1641000   0.98218924   -7.5143166    535.56142  0.027196903  0.027460466            2 
 1642000   0.98703386   -7.5086313    536.84846  0.027245659  0.027453492            2 
 1643000   0.98104825   -7.4577029     538.2968  0.027302536  0.027446713            3 
 1644000    1.0011321   -7.4867082    537.42151  0.027241561  0.027439859            2 
 1645000    1.0041041   -7.4728385    537.73593  0.027240928  0.027432997            2 
 1646000   0.98189374   -7.4871358    537.63385  0.027219211  0.027426157            1 
 1647000    1.0027065   -7.4879686    538.30216  0.027236498  0.027419219            1 
 1648000   0.98033855   -7.4594406    539.89549  0.027300541  0.027412265            2 
 1649000   0.99498425   -7.4813918    540.24088  0.027301439  0.027405331            2 
 1650000   0.99510184   -7.4417665     539.6957  0.027257358  0.027398444            2 
 1651000   0.98104917   -7.4453562    538.16687  0.027163682  0.027391513            4 
 1652000   0.98863216     -7.48744    539.21528  0.027200125   0.02738463            2 
 1653000   0.99505055   -7.4675261    539.35034  0.027190479  0.027377662            3 
 1654000   0.97124895   -7.4830679    538.71151  0.027141854  0.027370819            3 
 1655000   0.99441456   -7.4974766     540.2497  0.027202905    0.0273639            2 
 1656000   0.96657337   -7.4627309    541.93409   0.02727124    0.0273571            1 
 1657000   0.97159088   -7.4657827    542.00262  0.027258229  0.027350229            1 
 1658000    1.0018648   -7.5104303    540.21953  0.027152168  0.027343411            1 
 1659000    0.9786184    -7.463272    542.97341  0.027274131  0.027336548            2 
 1660000     0.983743   -7.4893134    540.81521  0.027149358  0.027329748            2 
 1661000   0.98682361   -7.4992783    541.97108  0.027191004  0.027322871            2 
 1662000    1.0074118   -7.4985964    542.57234   0.02720479  0.027315953            1 
 1663000   0.97619294   -7.5047556    541.36072  0.027127717  0.027309074            4 
 1664000   0.97403117   -7.4942801    540.93903  0.027090296  0.027302158            1 
 1665000   0.98492986   -7.5072934    541.18296  0.027086234  0.027295202            1 
 1666000    0.9860687   -7.5277419    541.32744  0.027077203  0.027288233            2 
 1667000    1.0013919   -7.4774803    542.35098  0.027112127  0.027281355            2 
 1668000    0.9838765   -7.5034817    543.18809  0.027137694  0.027274529            3 
 1669000   0.97844097   -7.4633225    543.40976  0.027132502  0.027267719            3 
 1670000   0.97513473   -7.4766005    541.99156  0.027045487  0.027260873            3 
 1671000   0.98413728   -7.4597314    543.27189  0.027093152  0.027254026            3 
 1672000   0.98201584   -7.5006012    543.41549  0.027084105  0.027247032            2 
 1673000   0.96832128   -7.4419908    544.98403  0.027146046  0.027240059            2 
 1674000   0.98324704   -7.5170143    542.90622  0.027026395  0.027233075            2 
 1675000   0.97352466   -7.4557438    543.90408  0.027059904  0.027226182            4 
 1676000   0.96315327    -7.470372    544.89528  0.027093043  0.027219344            3 
 1677000    1.0032577   -7.4918037    546.26871  0.027145135  0.027212461            4 
 1678000    0.9881726   -7.5336649    542.99643   0.02696645  0.027205576            1 
 1679000   0.98236112   -7.4897645     544.5273   0.02702637  0.027198708            1 
 1680000   0.96637365   -7.5282072    545.01139  0.027034295  0.027191768            2 
 1681000   0.97148813   -7.5078133    544.67477  0.027001525  0.027184764            1 
 1682000   0.97914308   -7.4961331    543.93888  0.026949013  0.027177798            2 
 1683000   0.98330075   -7.4998006    544.47635  0.026959614  0.027170757            2 
 1684000   0.98724017   -7.4929831    544.63147   0.02695128  0.027163692            1 
 1685000   0.97613758   -7.5253358     543.5651  0.026882547  0.027156595            2 
 1686000   0.98836625   -7.5034693    544.28706  0.026902287  0.027149547            1 
 1687000    0.9848117   -7.4849053    546.35527  0.026988504  0.027142504            1 
 1688000   0.99910366   -7.5100313    546.50165  0.026979742  0.027135461            1 
 1689000   0.98855667   -7.5214838    544.21411  0.026850903  0.027128406            2 
 1690000    1.0011572   -7.5100118    546.12754  0.026929366  0.027121358            1 
 1691000   0.97763856   -7.4963635     546.1912  0.026916578   0.02711437            2 
 1692000   0.97518966   -7.4973902    546.65357  0.026923442  0.027107383            2 
 1693000    0.9732334   -7.5059689     546.7254  0.026911075  0.027100498            1 
 1694000    0.9959998   -7.5509184    547.15605  0.026916374  0.027093468            1 
 1695000   0.98778387   -7.5213296    546.74494  0.026880282  0.027086565            2 
 1696000   0.97185303   -7.5238599     547.6951  0.026911119  0.027079683            3 
 1697000   0.96885798   -7.5213117    548.37607  0.026928701  0.027072791            1 
 1698000   0.96915785    -7.505478    546.85731  0.026838306  0.027065991            2 
 1699000   0.98500773   -7.5176074    548.00977  0.026879035  0.027059054            2 
 1700000   0.96475305   -7.5151191    548.29022  0.026876972  0.027052092            2 
 1701000   0.97260497   -7.5065433    546.71832  0.026784162  0.027045108            3 
 1702000   0.99853965   -7.5747821     547.5526  0.026809274  0.027038197            3 
 1703000   0.96967764    -7.507777    550.10953   0.02691865  0.027031239            4 
 1704000   0.97150364   -7.4850725    548.34547  0.026816582  0.027024361            2 
 1705000   0.97886151   -7.4698411    551.44519  0.026952355  0.027017482            2 
 1706000   0.97144226   -7.5131741    550.79551  0.026904822  0.027010645            2 
 1707000   0.97666034   -7.5154166     551.0721  0.026902563  0.027003813            3 
 1708000     0.969124   -7.5057954    551.86615  0.026925554  0.026997014            1 
 1709000   0.97948918   -7.5045653    551.76416  0.026904825  0.026990214            1 
 1710000   0.98405607   -7.5301329    552.48263  0.026924105  0.026983423            2 
 1711000   0.97975146   -7.5095218    552.07527  0.026888528  0.026976711            2 
 1712000   0.98388319   -7.5182387    552.79881  0.026908042  0.026970004            2 
 1713000    0.9797194   -7.5190879    550.69956   0.02679021  0.026963304            2 
 1714000   0.97034177   -7.5486243    551.14754   0.02679636  0.026956537            2 
 1715000   0.97567082   -7.5232812    551.24728  0.026785582  0.026949726            1 
 1716000   0.99280678    -7.520759    552.25432  0.026818877  0.026942968            3 
 1717000   0.95836586   -7.4941103    553.87915  0.026882117  0.026936243            3 
 1718000    0.9589808   -7.5040501    554.76885  0.026909626  0.026929561            1 
 1719000    1.0133815   -7.5103593    553.19403  0.026817628  0.026922924            1 
 1720000   0.98424805   -7.4848682    554.65269  0.026872708  0.026916374            2 
 1721000   0.96758836   -7.5409647    552.46758  0.026751287  0.026909666            4 
 1722000   0.97845862   -7.5279428    554.29301  0.026824091   0.02690296            2 
 1723000   0.98363547    -7.521248    555.03846  0.026844576  0.026896271            4 
 1724000   0.97494498   -7.5005768    554.28072  0.026792378  0.026889715            4 
 1725000   0.96456324   -7.5287785    555.27125  0.026824698  0.026883111            1 
 1726000   0.98070607   -7.5459561    553.43783  0.026720637  0.026876423            6 
 1727000   0.98160758    -7.510897    556.06133  0.026831757  0.026869781            1 
 1728000   0.98590574   -7.5313076    556.61103  0.026842739  0.026863205            3 
 1729000   0.96283866   -7.5225755    557.15232  0.026853303  0.026856705            4 
 1730000   0.95889665   -7.5126744    556.36299  0.026799759  0.026850188            2 
 1731000    0.9857429   -7.5616743    556.74327  0.026802584  0.026843631            2 
 1732000   0.96829808   -7.4824602    557.46437  0.026821804  0.026837169            2 
 1733000   0.96798877   -7.5010368    557.25438  0.026796229   0.02683073            2 
 1734000   0.96404682   -7.5155751    557.12048  0.026774341  0.026824273            1 
 1735000   0.97804908   -7.5208535    557.42403  0.026773489  0.026817793            2 
 1736000   0.97716465   -7.5091647    558.59382   0.02681422  0.026811365            3 
 1737000   0.97422625     -7.53382    556.90087  0.026717562  0.026804915            3 
 1738000   0.97632037   -7.5124578     558.7517  0.026790933  0.026798416            2 
 1739000   0.98034663   -7.5108766    558.20274  0.026749221  0.026791895            1 
 1740000   0.99171611   -7.5041691    559.29163  0.026785997  0.026785398            1 
 1741000   0.97192942   -7.5087265     558.3232  0.026724258  0.026778959            1 
 1742000    0.9964372   -7.5149535     559.0607  0.026744197  0.026772557            3 
 1743000   0.98050555   -7.5297373    559.57348  0.026753369  0.026766066            1 
 1744000    0.9593478   -7.5452004    559.34481  0.026727103  0.026759569           11 
 1745000    1.0120864   -7.5071071    559.44687   0.02671666  0.026753157            2 
 1746000   0.97426298   -7.5303435    557.60249   0.02661333  0.026746647            2 
 1747000   0.97330014   -7.5121153    559.32033  0.026680038  0.026740037            3 
 1748000   0.96505661    -7.512949    559.48556  0.026672653  0.026733469            2 
 1749000   0.95303353   -7.5236612    558.89068  0.026629059  0.026726892            2 
 1750000   0.95496571   -7.4954779    560.22912  0.026677577  0.026720354       -1e+20 
 1751000   0.95213894    -7.500371    560.85346  0.026692055  0.026713845            2 
 1752000   0.96236971   -7.5009896    559.86612  0.026629857  0.026707276            2 
 1753000   0.96994654   -7.5296528    560.62795  0.026650882  0.026700847            2 
 1754000   0.96823885   -7.4894009    562.52963  0.026726037  0.026694324            2 
 1755000   0.95834485   -7.5407963    560.52827  0.026615777   0.02668779            3 
 1756000   0.97375537    -7.570567    562.51891  0.026695089  0.026681235            1 
 1757000   0.98373646   -7.5622555    561.64325  0.026638363  0.026674572            2 
 1758000   0.97095409   -7.5099199    562.37867  0.026658071  0.026667991            1 
 1759000   0.97287049   -7.5138414    559.94048  0.026527406  0.026661328            3 
 1760000   0.98548552   -7.5464456    560.16693  0.026523055  0.026654688            1 
 1761000   0.95751476   -7.4734089    561.06084  0.026550295  0.026647972            2 
 1762000   0.96719665   -7.5460752    561.48206  0.026555149   0.02664133            1 
 1763000   0.96081425   -7.5554991    561.03378  0.026518897  0.026634618            1 
 1764000    0.9472352   -7.5235996    559.92751  0.026451602  0.026627878            1 
 1765000   0.96686153   -7.5280258    561.14311  0.026494009  0.026621111            2 
 1766000   0.98171236   -7.5395462    561.17431  0.026480479  0.026614313            2 
 1767000   0.93954908   -7.4852512    563.21731  0.026561843  0.026607549            1 
 1768000   0.97291783    -7.509109    561.60412  0.026470782  0.026600829            1 
 1769000   0.95585716   -7.5080844    561.82955  0.026466438  0.026594039            2 
 1770000   0.97379551   -7.5380532    561.24165  0.026423807   0.02658715            2 
 1771000   0.98434629   -7.5145834    564.07421   0.02654217  0.026580405            4 
 1772000   0.97058231    -7.544619    562.40043  0.026448478  0.026573561            1 
 1773000    0.9570393   -7.5336807    561.45249  0.026389006  0.026566698            2 
 1774000   0.97738403    -7.538109    563.30863  0.026461322  0.026559836            2 
 1775000   0.95935298   -7.5425037    560.63662  0.026320968  0.026552926            1 
 1776000   0.95940161   -7.5421082    563.16828  0.026424938  0.026546007            1 
 1777000    0.9713422    -7.487873    563.82101  0.026440678   0.02653914            2 
 1778000   0.97667562   -7.5137011    564.25581  0.026446185  0.026532404            3 
 1779000   0.95737683    -7.551869    562.31097  0.026340218  0.026525647            2 
 1780000   0.97700178   -7.5377956    563.59822  0.026385685  0.026518714            4 
 1781000   0.96856413   -7.5513744    563.57579   0.02636982  0.026511879            3 
 1782000   0.96068949   -7.5360699    564.27708  0.026387817  0.026505074            4 
 1783000   0.94790086   -7.5145611    564.78502  0.026396758  0.026498319            3 
 1784000   0.96307749    -7.530635    564.24837  0.026356893  0.026491534            1 
 1785000   0.97306612   -7.5594678    563.77672  0.026320108  0.026484648            1 
 1786000   0.96405095   -7.5736745    563.80617  0.026306745   0.02647773            3 
 1787000   0.98690489   -7.5558736    562.74683  0.026242624  0.026470746            1 
 1788000   0.98388339   -7.5319958    564.66309  0.026317258  0.026463759            2 
 1789000   0.96403173   -7.5583846    563.73656  0.026259389  0.026456797            2 
 1790000   0.96097636   -7.5444027    564.56002  0.026283055  0.026449824            1 
 1791000   0.96269058   -7.5279405    565.58139  0.026315903  0.026442804            2 
 1792000   0.94599129   -7.5460387    563.28288   0.02619433  0.026435714            3 
 1793000   0.97025243   -7.5453991    563.61992  0.026195386  0.026428683            2 
 1794000   0.95999916   -7.5224863    565.06089  0.026247719  0.026421651            2 
 1795000   0.93435092   -7.5157605    564.94949  0.026227924  0.026414716            2 
 1796000   0.97435612   -7.5714047    564.29132  0.026182782  0.026407676            2 
 1797000   0.94499464   -7.5290657    564.54437  0.026179947  0.026400639            2 
 1798000   0.95563852   -7.5211903    566.02604  0.026234058  0.026393571            1 
 1799000   0.94754187   -7.5429738    563.72307  0.026112797  0.026386545            2 
 1800000   0.93896823   -7.4817749    566.46677  0.026225314  0.026379527            2 
 1801000   0.95015411   -7.5343898    565.50791  0.026166385  0.026372553            1 
 1802000   0.94486055   -7.5834385    565.81147  0.026165902  0.026365447            1 
 1803000   0.96645806   -7.5460676    564.67155  0.026098704  0.026358284            2 
 1804000    0.9692366   -7.5262689    565.61648  0.026127886  0.026351278            2 
 1805000   0.95915917   -7.5112125    565.64555  0.026114753  0.026344298            3 
 1806000   0.96061382   -7.5334475     567.6535  0.026192945   0.02633722            1 
 1807000   0.98420194   -7.5689227    566.21996  0.026112339  0.026330071            1 
 1808000   0.96643502   -7.5560344    564.87017  0.026035683  0.026322894            2 
 1809000   0.93500372    -7.581792     567.9158   0.02616159   0.02631576            2 
 1810000   0.95168111   -7.5546366    565.33371  0.026028256  0.026308503            2 
 1811000   0.96358389   -7.6098784    565.95526  0.026042484  0.026301277            3 
 1812000   0.95331022   -7.5267105    567.94506  0.026119622    0.0262941            1 
 1813000   0.96715673    -7.551089    567.30201  0.026075658    0.0262869            3 
 1814000   0.97225771    -7.533368    568.26472  0.026105509  0.026279659            3 
 1815000   0.94157409   -7.5709655    566.66306  0.026017588   0.02627236            2 
 1816000   0.96521558   -7.5438811    568.20918   0.02607421   0.02626506            3 
 1817000   0.98391758   -7.5468474    567.17509  0.026012433  0.026257848            2 
 1818000   0.94458164   -7.5694086    566.81811  0.025981762   0.02625066            4 
 1819000    0.9531814   -7.5577459    567.52748  0.025999976  0.026243437            2 
 1820000   0.94943212    -7.554849    568.18866  0.026015964  0.026236109            1 
 1821000   0.97573238   -7.5531548    568.01083   0.02599354  0.026228878            1 
 1822000   0.98164252   -7.5771182    567.59136  0.025960088  0.026221682            1 
 1823000   0.95339663   -7.5169967    569.15095   0.02601714  0.026214499            1 
 1824000   0.95431688   -7.5370318    569.43207   0.02601572  0.026207302            1 
 1825000   0.96235716   -7.5181088     568.5189  0.025959767  0.026200075            1 
 1826000    0.9477212   -7.5307437    568.87349  0.025961733  0.026192979            1 
 1827000    0.9327983    -7.562893    569.36033  0.025969728  0.026185731            2 
 1828000   0.97821406   -7.5619105     568.3491  0.025909423  0.026178469            3 
 1829000   0.97442487    -7.553077    567.95815  0.025877445  0.026171246            2 
 1830000   0.94501038   -7.5111661    570.69025  0.025987716  0.026163978            2 
 1831000   0.96583858    -7.549954    568.98255  0.025895801  0.026156743            3 
 1832000   0.96490777   -7.5565178    569.31722   0.02589689  0.026149413            2 
 1833000    0.9668317   -7.5567758    570.81576  0.025950889  0.026142075            1 
 1834000   0.94053558     -7.52252    570.00826  0.025900048  0.026134815            3 
 1835000   0.95436465   -7.5660842    569.69204  0.025871573  0.026127538            1 
 1836000   0.97304446   -7.5752648    569.00214  0.025826168  0.026120235            1 
 1837000   0.94390783   -7.5822577    569.21004  0.025821541  0.026112899            2 
 1838000   0.95071866   -7.5488179    571.04308    0.0258906  0.026105591            2 
 1839000   0.95681792   -7.5663816     568.4433  0.025758714  0.026098257            2 
 1840000   0.94186504   -7.5782479    570.54161  0.025839747  0.026090919            1 
 1841000   0.95920243   -7.5474676    569.98581  0.025800553  0.026083621            3 
 1842000   0.95597826   -7.5309217    572.16161   0.02588498  0.026076429            2 
 1843000   0.95888694    -7.539924    571.68293  0.025849292  0.026069234            2 
 1844000   0.96804953   -7.5172563    571.99938  0.025849574  0.026062086            3 
 1845000   0.97069232   -7.5276536    573.21859  0.025890632  0.026054965            1 
 1846000   0.94884967   -7.5535244    571.87086  0.025815766  0.026047776            2 
 1847000   0.95018446   -7.5447369    571.34901  0.025778245  0.026040578            1 
 1848000   0.96144934   -7.5525602     571.1772  0.025756548  0.026033332            1 
 1849000   0.96712128   -7.5974374    570.01746  0.025690349  0.026026022            2 
 1850000   0.97277075   -7.5852052    572.74847  0.025799481  0.026018694            1 
 1851000   0.96147463   -7.5501112    573.91453  0.025838039  0.026011464            2 
 1852000   0.95553844   -7.5387126    573.28547  0.025795782  0.026004268            2 
 1853000   0.93133968   -7.5561655    570.74273  0.025667509  0.025996973            2 
 1854000   0.95220161   -7.5538963    572.49336  0.025732352  0.025989767            1 
 1855000   0.93430321   -7.5511315    571.53354  0.025675361  0.025982534            2 
 1856000   0.95384344   -7.5609464     572.6401  0.025711211  0.025975281            4 
 1857000   0.95680263   -7.5859183    572.63732  0.025697241  0.025967944            3 
 1858000   0.95146643   -7.6218824    571.43158  0.025629332  0.025960654            2 
 1859000   0.95310794   -7.5888967    572.73897  0.025674151  0.025953269            2 
 1860000   0.96123118     -7.55831    574.62307  0.025744761  0.025946002            2 
 1861000   0.95738612   -7.5948853    574.13748  0.025709183  0.025938709            1 
 1862000   0.96378217   -7.5638844    573.38695  0.025661786  0.025931459            2 
 1863000   0.95267861   -7.5945591    574.28238  0.025688065  0.025924185            3 
 1864000   0.93363065   -7.5530766    573.09841  0.025621352  0.025916893            1 
 1865000   0.93692517   -7.5700497    575.06858  0.025695647  0.025909638            3 
 1866000   0.94365769   -7.5779876    576.51125  0.025746305  0.025902441            2 
 1867000   0.96220879   -7.5775438    574.23917    0.0256311  0.025895172            1 
 1868000   0.95213715   -7.5352499    574.33016  0.025621438  0.025887987            4 
 1869000   0.96026313   -7.5176817    574.95147  0.025635432  0.025880746            2 
 1870000   0.94981386   -7.5870658    573.10623  0.025539493  0.025873485            3 
 1871000   0.95788607   -7.5454208    576.26111   0.02566636  0.025866172            1 
 1872000    0.9663256   -7.6129723    574.63828  0.025580408  0.025858833            4 
 1873000   0.94371643   -7.5360775    576.48081  0.025648728  0.025851599            3 
 1874000   0.95308644   -7.5652825    576.23944  0.025624308  0.025844373            2 
 1875000   0.96980982   -7.5494142    576.69773   0.02563101  0.025837073            1 
 1876000   0.95588043   -7.5735508    574.71395  0.025529227  0.025829767            2 
 1877000   0.96075863   -7.5879764    576.38022  0.025589603  0.025822446            3 
 1878000   0.94142454   -7.5703438    576.21194   0.02556851  0.025815084            4 
 1879000   0.94918487    -7.597659    574.98786  0.025500615  0.025807763            1 
 1880000   0.92215927   -7.5710768    574.87724  0.025482147  0.025800335            2 
 1881000   0.94536995    -7.581099    575.74775  0.025507166  0.025792946            1 
 1882000   0.96292967   -7.5635112    577.26426  0.025560762   0.02578557            2 
 1883000   0.95199765   -7.5623745    576.73006  0.025523547  0.025778241            1 
 1884000   0.95519331   -7.5818772    577.55925  0.025546676  0.025770964            2 
 1885000   0.96281942    -7.581815     575.0974  0.025424288  0.025763584            3 
 1886000   0.95732289   -7.5877282    576.90662  0.025490749  0.025756303            2 
 1887000    0.9619111   -7.5660754    576.17516  0.025444937  0.025748943            1 
 1888000   0.95047915   -7.5722377    577.74309  0.025500666  0.025741597            2 
 1889000   0.95640033   -7.5480076    578.06927  0.025501556  0.025734293            1 
 1890000   0.94047508   -7.5735739    576.66835  0.025426294  0.025727018            2 
 1891000   0.92886697   -7.5931345    577.85484  0.025465135  0.025719679            2 
 1892000   0.92865534   -7.5648045    578.48964  0.025479635  0.025712248            3 
 1893000   0.94682686   -7.5478846    577.28683  0.025413225  0.025704811            3 
 1894000   0.92643203   -7.5640414    578.25067  0.025442215  0.025697513            1 
 1895000   0.95474019   -7.5763289    580.60346  0.025532254  0.025690141            1 
 1896000    0.9392835   -7.5720884    578.83144  0.025440903  0.025682815            2 
 1897000   0.94685199   -7.5697138    578.83341  0.025427579  0.025675521            2 
 1898000   0.94175352   -7.5894129    578.59001  0.025403495  0.025668228            4 
 1899000   0.93640604       -7.563    578.28442  0.025376708  0.025660813            3 
 1900000   0.96382729    -7.573925    578.37889  0.025367495  0.025653496            2 
 1901000   0.95192187   -7.6016828    578.14668  0.025343971  0.025646183            1 
 1902000   0.93381578   -7.5647288    579.50662  0.025390231  0.025638843            1 
 1903000   0.96944602   -7.6016956    577.39593   0.02528446   0.02563147            1 
 1904000   0.94989265    -7.584772    579.25566  0.025352576  0.025624133            1 
 1905000   0.94644617   -7.5726955    580.86171  0.025409524  0.025616822            3 
 1906000   0.93595825   -7.5770586    580.90649   0.02539815  0.025609534            1 
 1907000   0.95025859    -7.560026    580.57208  0.025370218  0.025602245            2 
 1908000   0.93511462   -7.5801421    579.28897  0.025300881  0.025594891            2 
 1909000   0.93707693   -7.5546062     580.9792  0.025361411  0.025587582            1 
 1910000   0.95140273   -7.5895999    578.51367  0.025240562  0.025580232            1 
 1911000   0.93370839   -7.5727673    580.06389  0.025294954  0.025572805            1 
 1912000   0.97028021    -7.578889    578.11845  0.025196934  0.025565313            2 
 1913000   0.95558172   -7.5756642    581.50716   0.02533138  0.025557936            1 
 1914000   0.92819656   -7.5881189     581.7079  0.025326885  0.025550615            2 
 1915000   0.93885245   -7.5980858    579.53448  0.025219081  0.025543247            3 
 1916000   0.93873078   -7.5790533    581.69327  0.025299812  0.025535908            2 
 1917000   0.95987763   -7.5350821    582.50931  0.025322088  0.025528618            2 
 1918000   0.97648272   -7.5983858    580.80748  0.025234945  0.025521343            2 
 1919000   0.96124957   -7.5745608    581.32963  0.025244469  0.025514017            1 
 1920000   0.93914601    -7.595875    581.91707  0.025256817  0.025506645            2 
 1921000   0.95326354   -7.6004534    579.93428  0.025157656  0.025499185            1 
 1922000   0.96248929   -7.5702946    580.88165  0.025185642  0.025491734            4 
 1923000   0.95110347   -7.6163213    580.26653  0.025145889  0.025484216            4 
 1924000   0.92116117   -7.5818004     581.4713  0.025185001  0.025476739            1 
 1925000   0.96273379   -7.5689334    582.23251  0.025204871   0.02546935            4 
 1926000   0.95070032   -7.5459293    582.18134   0.02518957  0.025462037            1 
 1927000   0.95649809   -7.6194971    580.92825  0.025122308  0.025454646            1 
 1928000   0.92546085   -7.5512223    582.82863  0.025191417   0.02544722            2 
 1929000   0.95174866   -7.5652682    583.27882  0.025197806  0.025439863            1 
 1930000    0.9397631    -7.576425    581.76113   0.02511922  0.025432464            2 
 1931000    0.9498008   -7.5915356    582.16494  0.025123638  0.025424987            1 
 1932000   0.94920412   -7.5833359    581.63793  0.025087902  0.025417548            1 
 1933000    0.9418454   -7.6075592    581.83912  0.025083597  0.025409995            2 
 1934000   0.96652795   -7.6359475    581.96666  0.025076123  0.025402492            5 
 1935000    0.9279727   -7.5529512    583.17275  0.025115105  0.025395049            2 
 1936000   0.95814283   -7.6442183    582.93653  0.025091965  0.025387509            1 
 1937000   0.94727209   -7.6038612     583.2987  0.025094592  0.025380027            2 
 1938000   0.94064988   -7.5833835    584.15412  0.025118426  0.025372527            2 
 1939000   0.95546828    -7.584585    583.46936  0.025076043  0.025365028            3 
 1940000   0.95429052   -7.6070234    583.16203  0.025049916  0.025357536            2 
 1941000   0.93311358   -7.5718211    583.56914  0.025054488  0.025349986            2 
 1942000   0.93078443   -7.6066191    582.51377    0.0249963  0.025342486            3 
 1943000   0.93640315   -7.5848197    583.28244  0.025016402  0.025335018            1 
 1944000   0.93414169   -7.5745841    584.57203  0.025058815   0.02532745            3 
 1945000   0.94255053   -7.5998083    583.19415  0.024986896  0.025319852            2 
 1946000   0.93238921   -7.6202595    583.34483  0.024980508  0.025312214            1 
 1947000   0.95669828   -7.6006915      584.372  0.025011642  0.025304649            3 
 1948000   0.95703834   -7.5637723      583.495  0.024961285  0.025297107            4 
 1949000   0.93917263   -7.6060458    583.66402  0.024955705  0.025289622            1 
 1950000   0.95725229   -7.5579316    583.76668  0.024947294  0.025282104            1 
 1951000   0.96990144   -7.6118302    586.37372  0.025045862  0.025274611            2 
 1952000   0.92234097   -7.5994254    585.76659  0.025007112  0.025267122            3 
 1953000   0.94085727   -7.5951704    584.42708  0.024937151  0.025259572            1 
 1954000   0.92356044   -7.6039077    585.01772  0.024949579   0.02525205            2 
 1955000   0.93209997   -7.6041954    585.38952  0.024952665  0.025244566            3 
 1956000   0.92341156   -7.5843596    587.38594  0.025024963  0.025237082            2 
 1957000   0.93732323   -7.5993114     585.6585  0.024938618  0.025229578            1 
 1958000    0.9335062   -7.6177512    585.59453  0.024923158  0.025222077            1 
 1959000    0.9488492   -7.6064683    586.21556  0.024936854  0.025214586            2 
 1960000   0.91399565    -7.595153    586.72862  0.024945945  0.025207181            3 
 1961000   0.92917151   -7.5906903    586.28428  0.024914341  0.025199722       -1e+20 
 1962000   0.92883601   -7.5941399    586.87819  0.024926869  0.025192401            1 
 1963000   0.94004285   -7.5635868    588.24063  0.024972009   0.02518502            1 
 1964000   0.94837699   -7.6000527    586.86002  0.024900713  0.025177643            2 
 1965000   0.93089572    -7.612755    587.52456  0.024916224  0.025170205            3 
 1966000   0.93417894   -7.5980602    588.13076  0.024929246  0.025162768            1 
 1967000   0.92847758    -7.624217    586.25524  0.024837114  0.025155287            1 
 1968000   0.94498842   -7.6457078    587.30593  0.024868984  0.025147829            1 
 1969000   0.93209237   -7.5818083     585.3853  0.024775067  0.025140301            2 
 1970000   0.94153716   -7.5821126    587.32746  0.024844647   0.02513288            2 
 1971000   0.95082453   -7.6175724    586.74979  0.024807619  0.025125452            4 
 1972000    0.9400974    -7.610941    586.94606  0.024803333  0.025117959            1 
 1973000   0.93191039   -7.6328545    588.56588  0.024859177  0.025110436            3 
 1974000   0.95260557   -7.6280431    588.00871  0.024823063  0.025102919            1 
 1975000   0.93620561   -7.6235167    586.96158  0.024766311  0.025095447            3 
 1976000   0.92074716   -7.5995379    588.30803  0.024810561  0.025088052            3 
 1977000    0.9551968    -7.642826    588.66032  0.024812861  0.025080673            5 
 1978000    0.9530609   -7.6263441     588.5503  0.024795682  0.025073227            3 
 1979000   0.92152045   -7.6249209    589.42891  0.024820149   0.02506576            2 
 1980000   0.93907792   -7.6293875    588.88304   0.02478464  0.025058294            2 
 1981000   0.93729375   -7.6252069     588.2613  0.024745974  0.025050849            7 
 1982000   0.95565605   -7.5938422    590.76838  0.024838899  0.025043435            1 
 1983000   0.93861737   -7.6031777    589.92713  0.024791021  0.025035975            2 
 1984000    0.9235454   -7.6161974    589.66923  0.024767693   0.02502859            3 
 1985000   0.92867992   -7.6025478    589.10743   0.02473163   0.02502113            1 
 1986000   0.93593245    -7.615245     589.7478  0.024746047  0.025013762            2 
 1987000   0.93726109   -7.5639911    589.93103  0.024741278  0.025006282            2 
 1988000   0.93404372   -7.6121186    590.69153  0.024760711  0.024998896            2 
 1989000   0.96178619    -7.600961    591.26327  0.024772217  0.024991508            1 
 1990000   0.93328153   -7.5702998     591.9366  0.024787965  0.024984105            2 
 1991000   0.92799347   -7.6286994    590.43096  0.024712496  0.024976756            3 
 1992000   0.94173823    -7.583864    590.61478   0.02470778  0.024969303            1 
 1993000   0.93425524   -7.6073779    591.45456  0.024730497  0.024961951            1 
 1994000   0.93579409   -7.6200173    590.52278  0.024679153  0.024954565            6 
 1995000   0.93071436   -7.6315884    590.10275  0.024649237  0.024947202            2 
 1996000   0.94478399   -7.6328598    591.57194  0.024698227  0.024939792            4 
 1997000   0.91496765   -7.6265812    592.49352  0.024724316  0.024932369            3 
 1998000   0.93968539   -7.5869544     591.8942  0.024686945  0.024924989            1 
 1999000   0.94895186   -7.6371823    592.24757  0.024689327  0.024917534            2 
 2000000   0.94888487   -7.6076267    591.01882  0.024625784   0.02491011            3 
 2001000   0.92250751   -7.6031556    591.47694  0.024632556  0.024902612            5 
 2002000   0.94061374   -7.6456545    590.35795  0.024573674  0.024895215            3 
 2003000   0.92748555    -7.646633      591.122  0.024593194  0.024887757            2 
 2004000    0.9246065   -7.6182433    589.99963  0.024534249  0.024880323            1 
 2005000    0.9276734    -7.635627    593.04968  0.024648781  0.024872972            1 
 2006000   0.94643305   -7.6191753    592.27177  0.024604178  0.024865648            2 
 2007000   0.94139896   -7.6272113    593.90748  0.024659836   0.02485836            2 
 2008000   0.92213485   -7.6487424    593.04943  0.024611945   0.02485108            2 
 2009000   0.92120828   -7.6305046    593.57285  0.024621406  0.024843779            1 
 2010000   0.94125857   -7.6200676    593.75935  0.024616888   0.02483652            3 
 2011000   0.92632741   -7.6462405     592.7206  0.024561603  0.024829229            2 
 2012000   0.94831426   -7.6262475    594.19698  0.024610544  0.024821852            4 
 2013000   0.91755689   -7.6327857    591.94875  0.024505247  0.024814482            2 
 2014000   0.92815868   -7.6267055    592.76354  0.024526793  0.024807203            7 
 2015000   0.93566702   -7.6582345    593.20801  0.024533003   0.02479978            1 
 2016000   0.92453218   -7.6415695    592.56333  0.024494185  0.024792344            2 
 2017000   0.92846521   -7.6688106    592.87608  0.024494963  0.024784884            2 
 2018000   0.93154393   -7.6025086    594.89394  0.024566152   0.02477752            3 
 2019000   0.91874601   -7.6144937    595.32395  0.024571733  0.024770129            3 
 2020000   0.91522646    -7.656908    593.14452  0.024469658  0.024762791            1 
 2021000   0.93205651   -7.6193099    596.38447  0.024591146  0.024755535            3 
 2022000   0.93905761   -7.6235117     594.6892  0.024509117  0.024748245            2 
 2023000   0.91355597   -7.5803389     596.7128  0.024580359  0.024740962            2 
 2024000   0.92162207   -7.6505932    595.49395  0.024518032  0.024733688            1 
 2025000   0.93391127   -7.6016868    595.77655  0.024517553  0.024726479            2 
 2026000   0.91489906   -7.6159313    595.09926  0.024477594  0.024719251            5 
 2027000   0.93631735   -7.6370298    595.89052  0.024498048  0.024712065            3 
 2028000   0.94470318   -7.6625377    596.26417  0.024501322  0.024704822            4 
 2029000   0.91654253   -7.6418889    597.30071  0.024531818  0.024697571            2 
 2030000   0.91044273   -7.6288028    596.32484  0.024479673  0.024690296            2 
 2031000    0.9274704   -7.6520935    595.32597  0.024426636  0.024682975            2 
 2032000   0.92078614    -7.602654    598.41534  0.024541312  0.024675679            3 
 2033000   0.93018962   -7.6521321    597.77934   0.02450317  0.024668451            1 
 2034000   0.94390383   -7.6730249    594.58415  0.024360216  0.024661108            2 
 2035000   0.92637938   -7.6314462    596.90243  0.024443179  0.024653797            5 
 2036000   0.90511755   -7.6258002    596.08529  0.024397728  0.024646484            2 
 2037000   0.94609591   -7.6030442    597.25295   0.02443352  0.024639196            1 
 2038000   0.93805514   -7.6293174    596.89968  0.024407085  0.024631896            2 
 2039000   0.92370503   -7.6035628    597.44913  0.024417571  0.024624585            2 
 2040000   0.91730451   -7.6352847    596.22444  0.024355574  0.024617217            3 
 2041000   0.92868447   -7.6137306    597.19046  0.024383083  0.024609831            2 
 2042000   0.90348559   -7.6148459    596.99972  0.024363358  0.024602449            1 
 2043000    0.9275911   -7.6460039    597.34099  0.024365353  0.024595101            2 
 2044000   0.91300083   -7.6093585    598.29636  0.024392383  0.024587734            2 
 2045000   0.91519262   -7.6153349    598.13845   0.02437402  0.024580439            1 
 2046000   0.91726692    -7.628251    598.01207  0.024356959  0.024573146            3 
 2047000   0.92120249    -7.625785    596.77551   0.02429472  0.024565787            6 
 2048000   0.93759465   -7.6488218    596.47976  0.024270823  0.024558476            1 
 2049000   0.91243373   -7.5796771    601.32396  0.024455993  0.024551203            2 
 2050000   0.93452731   -7.6599543    598.67949  0.024336564  0.024543932            1 
 2051000   0.91281154   -7.6396223    598.83177  0.024330886  0.024536691            4 
 2052000   0.93664044   -7.6989732    597.89269  0.024280892  0.024529425            2 
 2053000   0.90161922   -7.6570843    598.46111  0.024292138   0.02452204            2 
 2054000   0.92587458   -7.6643361    598.94979  0.024300138  0.024514741            2 
 2055000   0.92046681   -7.6419679    598.12957  0.024255052  0.024507432            5 
 2056000   0.90902535   -7.6509022    598.51301  0.024258796  0.024500192            1 
 2057000   0.89954001    -7.651551    599.43492  0.024284351  0.024492946            1 
 2058000   0.89519505   -7.6218493    600.48529  0.024315083  0.024485733            2 
 2059000   0.90776477    -7.657954    599.23157  0.024252533  0.024478462            1 
 2060000   0.94501297   -7.6213228    599.16997  0.024238267  0.024471286            1 
 2061000   0.93037087   -7.6113442    602.59135  0.024364845  0.024464209            1 
 2062000   0.92690288   -7.6661406    600.30515  0.024260635   0.02445707            2 
 2063000   0.91230141    -7.613893    601.98611  0.024316776  0.024449909            1 
 2064000   0.92293377   -7.6213794    600.85891  0.024259484  0.024442742            3 
 2065000   0.90321425   -7.6194797    602.00343  0.024293924  0.024435587            2 
 2066000   0.93042609   -7.6428904    600.86274  0.024236154   0.02442841            4 
 2067000     0.931635   -7.6379673    602.95572   0.02430881  0.024421231            3 
 2068000   0.93182914   -7.6567905    600.46908  0.024196852  0.024414029            2 
 2069000   0.94109813   -7.6456469    601.09417  0.024210334  0.024406748            2 
 2070000   0.91968712   -7.5930876    604.02023  0.024316435  0.024399552            4 
 2071000   0.92889498   -7.6554887    601.50994  0.024203683  0.024392423            3 
 2072000   0.92040777   -7.6561408    600.89866  0.024167417   0.02438523            2 
 2073000   0.94026251   -7.6282715    601.86829  0.024194737  0.024378064            2 
 2074000    0.9211975   -7.6947227    600.77834  0.024139278  0.024370795            1 
 2075000   0.92053111   -7.6630622    602.25735  0.024187042  0.024363589            3 
 2076000   0.93115899   -7.6407749    602.30777  0.024177415  0.024356491            1 
 2077000   0.92058141    -7.615335     603.9612  0.024232114  0.024349487            1 
 2078000   0.94064961   -7.6104965    604.40192  0.024238126  0.024342393            5 
 2079000   0.93777587   -7.6662925    602.68872  0.024157797  0.024335252            2 
 2080000   0.91208414    -7.660579     601.7783  0.024109708  0.024328122            5 
 2081000   0.91976633   -7.6325014    602.10467  0.024111191  0.024320917            3 
 2082000   0.91651038   -7.6596546    601.78679  0.024086887  0.024313728            1 
 2083000   0.92813553   -7.6920856    602.13296  0.024089173  0.024306436            1 
 2084000   0.91842758   -7.6666223    603.72837   0.02414141  0.024299271            2 
 2085000   0.90344033   -7.6391989     603.5605  0.024123121  0.024292106            3 
 2086000   0.91444548   -7.6600397    603.99634  0.024128969  0.024284922            2 
 2087000   0.91644241   -7.6637281    603.19201   0.02408529  0.024277795            2 
 2088000   0.90016213   -7.6246478    603.69977   0.02409402  0.024270651            5 
 2089000   0.91710263    -7.649763    604.65353  0.024120533  0.024263524            1 
 2090000   0.91615968   -7.6620744    604.55325  0.024104994  0.024256363            1 
 2091000   0.93369971   -7.6459594     603.8135  0.024063985  0.024249191            2 
 2092000   0.92865432   -7.6265479    603.49673  0.024039863  0.024242033            2 
 2093000   0.91032549   -7.6267273    605.66929  0.024114878  0.024234895            1 
 2094000   0.91472117    -7.641771    605.22741  0.024085777  0.024227786            2 
 2095000   0.91477777   -7.6902776    603.61554  0.024010164  0.024220584            2 
 2096000   0.90535306   -7.7042162    603.53517  0.023995514  0.024213421            2 
 2097000   0.92268348   -7.6282529    605.04326  0.024044002  0.024206266            4 
 2098000   0.90978857   -7.6962267    603.85643    0.0239854  0.024199137            3 
 2099000   0.91461811   -7.6390391    604.61898  0.024004247  0.024191955            1 
 2100000   0.90913223   -7.6867872    604.23367  0.023977527  0.024184808            2 
 2101000   0.89729563   -7.6643872    604.67192  0.023983497  0.024177655            3 
 2102000   0.92157546   -7.6837555    606.04608  0.024026565  0.024170515            2 
 2103000   0.90441603   -7.6475865    607.83753  0.024086128  0.024163398            1 
 2104000   0.92363596   -7.6704904    605.88282   0.02399726  0.024156355            4 
 2105000    0.9301865   -7.6250021    606.97482   0.02402909  0.024149304            5 
 2106000   0.91716503   -7.6487847    607.37279  0.024033428  0.024142233            3 
 2107000   0.93509461   -7.6629534    605.59549  0.023951728  0.024135127            2 
 2108000   0.91822583   -7.6760457    607.50867  0.024015997  0.024128113            2 
 2109000   0.92271316   -7.6717504    606.27538  0.023955879  0.024120969            2 
 2110000   0.92586112   -7.7077906    606.21781  0.023942252  0.024113783            2 
 2111000   0.88084886   -7.6769531    607.63738  0.023986948  0.024106646            1 
 2112000   0.89032814   -7.6668249    608.13321  0.023995155  0.024099556            4 
 2113000   0.92235367   -7.6484047    607.68386  0.023966078  0.024092486            2 
 2114000   0.90289813   -7.6583909    607.97201    0.0239661  0.024085462            2 
 2115000   0.91111285   -7.6689832    607.65288  0.023942194  0.024078512            2 
 2116000   0.92240785   -7.6674139    609.09457  0.023987656  0.024071545            3 
 2117000   0.90791066   -7.6501032    609.25961  0.023982822  0.024064539            2 
 2118000   0.89534694    -7.678946     608.2508  0.023931807  0.024057461            2 
 2119000   0.91868443   -7.6559104    607.22197  0.023880052  0.024050411            2 
 2120000   0.91386308   -7.6436303      611.421  0.024033844  0.024043459            1 
 2121000   0.93724507   -7.6647051    608.58844  0.023911223  0.024036501            1 
 2122000   0.92521177   -7.6733546    609.09437  0.023919823  0.024029474            1 
 2123000   0.91673784   -7.6411063    609.88773  0.023939697  0.024022447            2 
 2124000   0.91393878   -7.6614795    610.41809  0.023949234  0.024015497            1 
 2125000    0.9104175   -7.6404457    609.09332  0.023886012  0.024008628            2 
 2126000   0.91687547    -7.627654    610.40516  0.023926198  0.024001731            3 
 2127000   0.91429159   -7.6969777    608.52684  0.023841359  0.023994795            4 
 2128000   0.90301352    -7.643959    611.37152  0.023941554  0.023987773            1 
 2129000   0.92722399   -7.6671396    609.21158  0.023845764  0.023980786            4 
 2130000   0.93120145   -7.6772756    608.16761  0.023793725  0.023973783            2 
 2131000   0.91635534   -7.6617262    610.15589  0.023860312  0.023966727            1 
 2132000   0.91546429   -7.6489617    610.21781   0.02385154  0.023959703            2 
 2133000   0.90158865   -7.6561072    610.64153  0.023856912   0.02395273            3 
 2134000   0.90191845   -7.6904328    609.79227  0.023812569  0.023945682            3 
 2135000   0.91211004   -7.6849353    610.88652  0.023844126  0.023938681            3 
 2136000   0.90647523   -7.6682712     609.8706  0.023793329  0.023931623            2 
 2137000   0.91914478   -7.6855984     610.9216  0.023823179  0.023924622            4 
 2138000   0.92931145   -7.6800732    610.93909  0.023812718  0.023917677            1 
 2139000   0.92543857   -7.6864092    610.58585  0.023787823  0.023910634            2 
 2140000   0.89078398   -7.6715109    611.81827  0.023824699  0.023903643            2 
 2141000   0.90686133   -7.6925113    609.72096  0.023731938   0.02389667            4 
 2142000   0.89889722   -7.6615968    612.93036  0.023845719  0.023889759            1 
 2143000   0.90946754   -7.6585078    612.99085  0.023836944  0.023882798            2 
 2144000   0.90346908   -7.6563292    611.80318  0.023779663  0.023875799            1 
 2145000   0.89550893   -7.6956289    611.82644  0.023769481  0.023868853            1 
 2146000   0.90945393   -7.6535815    612.50455  0.023784737  0.023861941            2 
 2147000   0.90155054   -7.7007032    611.66378  0.023741025  0.023855024            2 
 2148000   0.90296445   -7.6537155    612.01576  0.023743628  0.023848107            2 
 2149000   0.89229488   -7.6669553    611.95809  0.023730343  0.023841163            4 
 2150000   0.91001976   -7.6489471     613.1685  0.023766221  0.023834214            1 
 2151000   0.90558637   -7.6771981    611.82859  0.023703262  0.023827289            1 
 2152000   0.89926201   -7.6377079    613.79666  0.023768458  0.023820289            2 
 2153000   0.92075111   -7.6815437    612.28818  0.023699032  0.023813338            1 
 2154000   0.92589733     -7.70168    612.21699  0.023685275  0.023806397            1 
 2155000   0.92451986   -7.6665908    614.54924  0.023764472  0.023799431            2 
 2156000   0.90295863   -7.7356976    611.08062  0.023619381  0.023792434            3 
 2157000   0.88401438   -7.6964958    613.17146  0.023689208  0.023785381       -1e+20 
 2158000   0.90397603   -7.6769061    611.47057  0.023612549   0.02377827            2 
 2159000   0.92026371   -7.7122178      613.386  0.023675544  0.023771175            2 
 2160000   0.91515134   -7.6755248     612.8756  0.023644892  0.023764174            1 
 2161000   0.91811712   -7.7070688    611.78177  0.023591769  0.023757098            3 
 2162000   0.90909063   -7.6687839    612.98681  0.023627305  0.023750078            2 
 2163000    0.9220403   -7.6984771    612.63484  0.023602822  0.023743032            2 
 2164000   0.90926328   -7.6931144    613.32912  0.023618651  0.023735921            2 
 2165000   0.89213341   -7.7226859    613.15459  0.023601023  0.023728848            1 
 2166000   0.89461473   -7.6781254    614.11261  0.023626985  0.023721786            2 
 2167000   0.90388492   -7.6832454    613.30628  0.023585075   0.02371474            2 
 2168000   0.89501085   -7.6738565    613.65821  0.023587723  0.023707704            2 
 2169000   0.90828331   -7.7154959    612.63416  0.023537504  0.023700624            2 
 2170000   0.88824729   -7.7048755    612.12342  0.023507044  0.023693543            5 
 2171000   0.89821346   -7.6848183    614.26921  0.023578582  0.023686442            1 
 2172000   0.90654732    -7.675729    615.48692  0.023614446  0.023679445            2 
 2173000   0.93279762    -7.701026    615.48403  0.023603468  0.023672473            2 
 2174000    0.8883725   -7.6828927    615.13458  0.023579216   0.02366551            5 
 2175000   0.91447701   -7.6539767    614.38366  0.023539604  0.023658535            4 
 2176000   0.89514842   -7.6489545    615.94958  0.023588755   0.02365159            2 
 2177000   0.88410296   -7.6953845    615.12026  0.023546174  0.023644638            2 
 2178000   0.89493353   -7.6967341    614.85407  0.023525179  0.023637589            2 
 2179000   0.92595425   -7.6885811    615.55616  0.023541233  0.023630608            2 
 2180000   0.90623503   -7.6923718    614.49851  0.023490004  0.023623608            3 
 2181000    0.9108596   -7.6808911    616.54346  0.023557369  0.023616623            1 
 2182000   0.90240892   -7.6675859    615.51878  0.023507439  0.023609665            1 
 2183000   0.90473851    -7.685419    614.93454  0.023474368  0.023602716            2 
 2184000    0.9014836   -7.6632544    616.56784   0.02352594  0.023595678            4 
 2185000    0.9118287   -7.6660711    614.30912  0.023429028  0.023588645            2 
 2186000   0.88978908   -7.7297238    614.20215  0.023414233  0.023581524            3 
 2187000   0.90111139    -7.694369    617.25771  0.023519955  0.023574437            2 
 2188000   0.87947957   -7.7154593    615.10176  0.023427093  0.023567354            2 
 2189000   0.89643051   -7.7045451    616.08465  0.023453809  0.023560283            1 
 2190000   0.89414201   -7.7156381     614.9898  0.023401438  0.023553175            5 
 2191000   0.91150365   -7.7171071    615.68903  0.023417352  0.023546113            3 
 2192000   0.90527569   -7.6845252    617.20051  0.023464131  0.023539121            2 
 2193000   0.90305738   -7.6869555    616.44452  0.023424705  0.023532124            1 
 2194000   0.90481531   -7.7046197    617.09447  0.023438714  0.023525112            2 
 2195000   0.88900219   -7.6790015     615.9521  0.023384666  0.023518144            1 
 2196000   0.89448846   -7.6849472    616.41531  0.023391595  0.023511168            1 
 2197000   0.90090746   -7.6967824    616.79503  0.023395351   0.02350415            2 
 2198000   0.90462563   -7.6812601    617.42977  0.023408772  0.023497149            5 
 2199000    0.8760316    -7.661214    618.28021  0.023430355  0.023490231            2 
 2200000   0.89167921   -7.6985513    618.42592  0.023425224  0.023483321            4 
 2201000   0.89330175    -7.712603    617.58344  0.023382684  0.023476443            3 
 2202000   0.89031717    -7.730505    617.31005  0.023361719  0.023469499            2 
 2203000   0.91208736   -7.7396995    617.55436  0.023360356  0.023462487            2 
 2204000   0.89639316   -7.7497208    616.31722   0.02330298  0.023455509            2 
 2205000   0.91465754   -7.7008432    620.71885  0.023458762  0.023448565            4 
 2206000   0.88797995    -7.681331    617.78681  0.023337368  0.023441666            4 
 2207000   0.90805637     -7.70062    619.43128  0.023388887  0.023434739            3 
 2208000   0.89972468   -7.6801814    618.80521  0.023354665  0.023427842            2 
 2209000   0.90197545   -7.6787137    619.26981  0.023361619   0.02342088            3 
 2210000   0.89972452   -7.6929235     619.8851  0.023374249  0.023413891            2 
 2211000   0.88724034   -7.6917871     617.5897  0.023277163  0.023406882            2 
 2212000    0.8920688   -7.7044082    617.93502   0.02327965  0.023399849            2 
 2213000   0.90718378   -7.7063764    620.09203  0.023350355  0.023392825            3 
 2214000   0.89229567    -7.736748    619.29963  0.023309983  0.023385846            1 
 2215000   0.88723116   -7.7290508    618.36918  0.023264454  0.023378817            2 
 2216000   0.89899503   -7.7050942    619.84407  0.023309419   0.02337183            2 
 2217000    0.9035664   -7.6926498    620.57306  0.023326307    0.0233649            3 
 2218000   0.89956921   -7.7490209    620.79944  0.023324295  0.023357979            4 
 2219000   0.88125811   -7.7171821     619.8047  0.023276427  0.023351073            3 
 2220000   0.89610403    -7.689802    619.68352  0.023261393   0.02334412            1 
 2221000   0.89687574   -7.6961115    620.26034  0.023272563    0.0233372            2 
 2222000   0.88688158   -7.7093974    619.78584  0.023244293  0.023330239            2 
 2223000   0.91681008   -7.6904045    621.50145   0.02329815  0.023323359            1 
 2224000   0.90465993   -7.7183477     621.3062  0.023280358  0.023316491            2 
 2225000   0.88953826   -7.7361301    620.64843   0.02324526  0.023309589            1 
 2226000   0.88135233   -7.7021766    622.10287  0.023289266  0.023302713            5 
 2227000   0.90061186   -7.6756236    622.40315  0.023290045  0.023295872            3 
 2228000   0.89503948   -7.6847476     621.9747  0.023263566  0.023289051            2 
 2229000   0.88696941   -7.7022417    622.83618  0.023285336  0.023282213            2 
 2230000   0.89229303   -7.6599369     623.1557  0.023286835  0.023275394            2 
 2231000   0.89341879   -7.7188686    622.30424  0.023244593  0.023268582            1 
 2232000   0.87033767   -7.7153436    621.02996  0.023186603  0.023261739            3 
 2233000   0.89062749   -7.7234393    622.45832  0.023229524  0.023254865            3 
 2234000   0.89548272   -7.6834703    623.34461  0.023252186  0.023248058            2 
 2235000   0.91503988   -7.7026427    622.16855  0.023197932  0.023241304            2 
 2236000   0.89596394   -7.7038383    624.13985  0.023261026  0.023234535            3 
 2237000   0.88934933   -7.7157104    623.51746  0.023227442  0.023227743            2 
 2238000   0.89551858   -7.7359988    621.99547  0.023160391  0.023220929            2 
 2239000   0.93008975   -7.6809742    624.65558  0.023249054  0.023214198            2 
 2240000   0.89990441   -7.7178831    623.27709  0.023187392  0.023207452            1 
 2241000   0.89989335   -7.7235249    623.88097  0.023199501   0.02320074            1 
 2242000   0.88180612   -7.7246461    623.82712  0.023187151  0.023193996            2 
 2243000   0.87950398   -7.7578605    623.46116  0.023163217  0.023187244            2 
 2244000   0.88430105   -7.7305066    624.86631  0.023205077  0.023180488            2 
 2245000    0.8874713   -7.7518978    623.92425  0.023159772  0.023173734            2 
 2246000   0.92094794   -7.6904199    625.87295  0.023221763  0.023166999            3 
 2247000   0.91912826   -7.7213425    625.74813  0.023206799  0.023160279            4 
 2248000   0.87912103   -7.7157402    625.26271  0.023178481  0.023153563            3 
 2249000   0.88727451   -7.7182785    625.21462  0.023166393  0.023146853            2 
 2250000   0.88607456   -7.7207603    624.68691  0.023136552  0.023140153            5 
 2251000   0.88870304   -7.7363953    625.70351  0.023163909  0.023133447            2 
 2252000   0.89347908   -7.7139626    626.01817  0.023165267  0.023126783            2 
 2253000   0.91185498   -7.7332379    625.53196  0.023137001  0.023120081            3 
 2254000   0.88222359   -7.7020206    625.69008  0.023132582  0.023113411            1 
 2255000   0.88978833   -7.7096317    626.45644  0.023150644  0.023106714            2 
 2256000   0.88258603   -7.7351375    626.46237  0.023140602  0.023100029            4 
 2257000   0.88633105   -7.7405101    625.28159  0.023086752   0.02309333            1 
 2258000   0.88569535   -7.6882574     625.1937  0.023073284  0.023086676            1 
 2259000   0.88941915   -7.7004991    627.50661  0.023148392   0.02308005            1 
 2260000   0.87969415   -7.6937945     627.0087   0.02311979  0.023073429            1 
 2261000   0.89331395   -7.6959186    626.63596  0.023095826  0.023066802            3 
 2262000   0.86559057   -7.7294334     627.5199  0.023118181  0.023060175            1 
 2263000   0.89747549   -7.7143662    626.27774  0.023062223   0.02305351            3 
 2264000   0.87735448   -7.6939929    627.58309  0.023100084  0.023046846            2 
 2265000   0.90334445   -7.7135245    628.30796  0.023116555  0.023040217            1 
 2266000   0.88302925   -7.6882656    626.58958  0.023043159   0.02303355            4 
 2267000   0.89273397   -7.7365109    626.34891  0.023024148  0.023026887            4 
 2268000   0.88787134   -7.7147685    625.69916  0.022990122  0.023020211            1 
 2269000    0.9052114   -7.7338579    626.88325  0.023023478  0.023013513            1 
 2270000   0.88483981     -7.72457    626.06816  0.022983413  0.023006776            3 
 2271000   0.87863599   -7.7182353    626.96986   0.02300638  0.023000135            2 
 2272000   0.88105902   -7.7476061    626.90164  0.022993751  0.022993445            1 
 2273000    0.8805017   -7.7448463    627.86878  0.023019093  0.022986785            2 
 2274000   0.90247817   -7.7268294     627.7542  0.023004771  0.022980155            1 
 2275000   0.88833427   -7.7396202     626.0277  0.022931418  0.022973446            1 
 2276000   0.88752467   -7.7355796    628.83054  0.023023965  0.022966728            2 
 2277000   0.88923144   -7.7078205    628.73839  0.023010481  0.022960007            2 
 2278000   0.87925424   -7.7413848    626.77494  0.022928554  0.022953279            2 
 2279000   0.88066803   -7.7221944    627.14268  0.022931939  0.022946479            3 
 2280000   0.89119807   -7.7176298    628.17426  0.022959586  0.022939726            2 
 2281000   0.88886141   -7.7100051    626.74262  0.022897217  0.022933013            2 
 2282000   0.88805099   -7.7281647    629.33177  0.022981733  0.022926284            1 
 2283000   0.88456258   -7.7574476    628.83711  0.022953611  0.022919523            1 
 2284000   0.87549229   -7.7470374    627.49635  0.022894642  0.022912778            1 
 2285000   0.90007053   -7.7535838     629.4012  0.022954092  0.022906022            2 
 2286000   0.88608758   -7.7129883    627.13979  0.022861614  0.022899282            2 
 2287000   0.89931143   -7.7381327    625.09837  0.022777233  0.022892501            1 
 2288000    0.9066049   -7.7289073    627.39396  0.022850887  0.022885699            1 
 2289000   0.87447344   -7.7265985    628.21959  0.022870962  0.022878929            2 
 2290000   0.88042749    -7.734607    628.02135  0.022853761  0.022872135            2 
 2291000    0.9029874   -7.7635617    627.35037  0.022819379  0.022865332            2 
 2292000   0.88014697   -7.7329742    626.83917  0.022790837  0.022858519            2 
 2293000   0.91158402   -7.7485625    627.46234  0.022803545  0.022851679            6 
 2294000   0.88637614   -7.7027794    626.85087  0.022771392   0.02284489            4 
 2295000   0.87892675   -7.7333985    626.09753  0.022734115  0.022837987            2 
 2296000   0.87859357   -7.7254385    628.49313  0.022811162  0.022831069            2 
 2297000   0.87140802   -7.7850118    627.09434  0.022750484  0.022824162            1 
 2298000   0.87261938   -7.7494693    626.49796  0.022718957  0.022817235            3 
 2299000   0.88062213    -7.731815    628.63081  0.022786386  0.022810351            2 
 2300000   0.89113288   -7.7019875     629.6876  0.022814768  0.022803438            2 
 2301000   0.88992369    -7.714935    628.64932   0.02276725  0.022796557            2 
 2302000   0.89486326   -7.7529955     627.1907  0.022704558  0.022789626            2 
 2303000   0.87344829   -7.7373782    627.66095  0.022711715  0.022782639            2 
 2304000   0.89853076   -7.7681329    627.04413  0.022679548  0.022775685            1 
 2305000   0.88376419   -7.7298126    627.10232  0.022671812   0.02276876            4 
 2306000   0.91387908   -7.7242012    629.11701  0.022734787  0.022761907            2 
 2307000   0.88066662   -7.7222652    628.29038  0.022695072  0.022755021            1 
 2308000   0.89054873   -7.7215363    627.75959  0.022666074  0.022748111            2 
 2309000   0.87712676   -7.7584405    626.47468  0.022609884  0.022741137            2 
 2310000   0.87028163   -7.7638631    626.80787  0.022612116  0.022734136            2 
 2311000   0.89356439   -7.7491538    627.40374  0.022623819  0.022727131            6 
 2312000    0.8984678   -7.7236379    627.61165  0.022621527  0.022720085            2 
 2313000    0.8851887   -7.7364203    628.21742  0.022633572  0.022713064            3 
 2314000   0.86891228   -7.7377293    628.41989  0.022631082  0.022706133            3 
 2315000   0.88853144   -7.6944872    629.79617  0.022670849  0.022699178            1 
 2316000   0.89047688   -7.7622795     626.8833   0.02255625  0.022692218            2 
 2317000   0.86339289   -7.7536716    627.47521  0.022567804  0.022685238            2 
 2318000   0.88710831    -7.745929    628.51979  0.022595621   0.02267827            1 
 2319000   0.89171113   -7.7324627    627.43775  0.022546994  0.022671302            2 
 2320000   0.89283748   -7.7397861    628.67016  0.022581543  0.022664389            1 
 2321000    0.8798918   -7.6965667    628.85029  0.022578281    0.0226574            1 
 2322000   0.87025537   -7.7239563    628.56769  0.022558415  0.022650454            2 
 2323000   0.86264796   -7.7616405     627.2633  0.022501912  0.022643451            2 
 2324000   0.88519575    -7.709831     629.9311  0.022587891  0.022636474            2 
 2325000   0.86948046   -7.7351444    629.69235  0.022569618  0.022629551            2 
 2326000   0.86566878   -7.7178585    629.28592  0.022545354  0.022622585            5 
 2327000   0.89043149   -7.7475525    628.34921  0.022502121   0.02261565            1 
 2328000   0.88643461   -7.7651313    628.21127  0.022487517  0.022608672            2 
 2329000   0.86499495   -7.7594899    629.58273  0.022526933  0.022601742            3 
 2330000   0.90506408   -7.7765741    628.95825   0.02249493  0.022594773            2 
 2331000   0.86166851    -7.776275    628.01731  0.022451641  0.022587784            4 
 2332000   0.88088731   -7.7683413    628.74862  0.022468147  0.022580824            2 
 2333000   0.87064274   -7.7279179    631.59048  0.022560026  0.022573861            1 
 2334000   0.87535552   -7.7257991    630.29329  0.022504045  0.022566963            2 
 2335000   0.87147414   -7.7309559    629.95481  0.022482327  0.022560011            2 
 2336000   0.89625097   -7.7247839    631.22462  0.022518002  0.022553054            3 
 2337000   0.87450394   -7.6993108    631.24874  0.022509226  0.022546103            2 
 2338000   0.88626458   -7.7962248    628.49253  0.022401359  0.022539089            3 
 2339000   0.87917869   -7.7589003    630.61491  0.022467398  0.022532026            2 
 2340000   0.88552861   -7.7318917    629.99792  0.022435823   0.02252498            2 
 2341000   0.86533065   -7.7221718    630.17026  0.022432374  0.022518077            3 
 2342000   0.88849969   -7.8023522    629.75911  0.022408167  0.022511083            3 
 2343000   0.87605257   -7.7819134     629.3965  0.022385706  0.022504047            1 
 2344000   0.88162918   -7.7260527    631.25373  0.022442183  0.022497077            2 
 2345000   0.89407024   -7.7642382    631.03647  0.022424892  0.022490036            2 
 2346000   0.85834585   -7.7795757    629.66501  0.022366617  0.022483005            2 
 2347000   0.87464756    -7.740378    631.75644  0.022431346  0.022475976            2 
 2348000   0.87983409   -7.7436226    631.42041  0.022409867  0.022469013            3 
 2349000   0.87807402   -7.7627361    630.20973  0.022357377  0.022462048            5 
 2350000    0.8827011   -7.7652374    631.26989  0.022385457  0.022455029            1 
 2351000   0.88376419   -7.7625803    631.31928  0.022377686  0.022448039            4 
 2352000   0.87090452   -7.7360398    629.71527   0.02231134   0.02244104            2 
 2353000   0.85910367   -7.7806287    629.83757   0.02230619  0.022434006            1 
 2354000    0.8935343   -7.7650366    629.37589   0.02228037  0.022426913            2 
 2355000   0.89616987   -7.7350202    629.57539  0.022277969  0.022419864            3 
 2356000   0.86890422   -7.7534114     630.6583  0.022306816   0.02241284            2 
 2357000   0.87406257   -7.7325421    631.46458  0.022325859    0.0224058            4 
 2358000   0.89045066   -7.7518248    631.78619  0.022327756  0.022398764            2 
 2359000   0.89851263   -7.7749219    628.88047  0.022215645  0.022391712            1 
 2360000   0.87969488   -7.7445033    631.81113  0.022309715  0.022384642            2 
 2361000   0.87413195   -7.7531147    631.66429  0.022295083  0.022377612            2 
 2362000   0.87017631   -7.7694231    631.14924  0.022267472  0.022370608            2 
 2363000   0.88325407   -7.7706489    630.27284  0.022227142  0.022363587            1 
 2364000   0.88190253   -7.7635683    631.77677  0.022270755   0.02235652            3 
 2365000   0.86892593   -7.7813556    629.40946  0.022177923  0.022349535            1 
 2366000   0.89111817   -7.7645517    630.83735  0.022218842  0.022342461            2 
 2367000   0.87528227   -7.7791784    631.43974  0.022230663  0.022335406            1 
 2368000   0.85331273   -7.8022727    632.62608  0.022263024   0.02232831            2 
 2369000   0.87357417   -7.7485247    631.96549  0.022230389  0.022321265            2 
 2370000    0.8741721   -7.7404764    632.36437  0.022235034  0.022314232            1 
 2371000    0.8771532    -7.782258    632.00834  0.022213143  0.022307191            1 
 2372000   0.86199021   -7.7611882    632.06603  0.022205805  0.022300138            2 
 2373000   0.88444158   -7.7805283    633.16407  0.022235007  0.022293167            1 
 2374000   0.87739443    -7.776394    632.62594  0.022206752   0.02228614            1 
 2375000   0.86409028   -7.7882374    632.55955  0.022195072  0.022279116            3 
 2376000   0.87721416   -7.7911446    632.52164  0.022184401  0.022272108            1 
 2377000   0.87387942   -7.7733659    633.21851  0.022199499  0.022265135            2 
 2378000   0.87425186   -7.7519324    632.06621  0.022149783   0.02225823            2 
 2379000   0.87420849   -7.7536109    633.56786  0.022193073  0.022251361            1 
 2380000   0.89088037   -7.7888448    631.02905  0.022094855  0.022244403            3 
 2381000   0.86675261   -7.7655115    634.18111  0.022195895  0.022237508            2 
 2382000   0.86743539   -7.7692949     632.8937  0.022141537  0.022230602            1 
 2383000   0.86786856   -7.7880615    634.18044  0.022177243  0.022223675            1 
 2384000   0.86482392   -7.7447698    634.48119  0.022178453  0.022216791            3 
 2385000   0.85267772   -7.7726459    634.20053  0.022159348  0.022209877            2 
 2386000   0.88681896   -7.7633584    633.46307  0.022124304  0.022202961            3 
 2387000   0.87198435   -7.7935805     633.0466  0.022100496     0.022196            3 
 2388000   0.87340844   -7.8124547    633.36194  0.022102245  0.022188974            3 
 2389000   0.85518839   -7.7842474    632.55606  0.022064883  0.022181983            2 
 2390000   0.85975141   -7.7490532    634.39645  0.022119821  0.022175016            2 
 2391000   0.85366795   -7.7907853    633.11248  0.022065819  0.022168026            5 
 2392000   0.88375487    -7.777058    634.82613  0.022116295  0.022161021            2 
 2393000   0.88164507   -7.7864627    633.37542  0.022056534  0.022154032            1 
 2394000   0.84167601   -7.7539963    634.04598  0.022070662  0.022147073            4 
 2395000   0.86619969   -7.7715822    634.69875   0.02208416  0.022140159            2 
 2396000   0.85393175   -7.7714341    633.13637  0.022020603  0.022133242            4 
 2397000   0.86453998   -7.7640872    635.68893  0.022100158  0.022126379            3 
 2398000   0.87198952   -7.7685711    635.79761  0.022094718   0.02211951            1 
 2399000   0.86224428   -7.7970791    634.42166  0.022037712  0.022112624            2 
 2400000   0.84886208   -7.7598181    634.50073  0.022031275  0.022105721            3 
 2401000   0.87431911    -7.789784    633.07189  0.021972508  0.022098803            1 
 2402000   0.87219868   -7.8156659    634.93577  0.022028024  0.022091883            2 
 2403000   0.87195101   -7.7857123    635.88464  0.022051763  0.022084866            2 
 2404000   0.84967036   -7.8237894    632.63604  0.021929979  0.022077806            3 
 2405000    0.8436254   -7.8154106    634.88723  0.021998865  0.022070753            2 
 2406000   0.86220928   -7.7914761    634.81752  0.021987307   0.02206374            4 
 2407000   0.86760673   -7.7674127    635.00603  0.021984698  0.022056764            5 
 2408000   0.87953978   -7.7766589    634.01065  0.021941122  0.022049835            1 
 2409000   0.86816993   -7.8051031    634.84934  0.021961026   0.02204285            1 
 2410000   0.84393592   -7.7888003    633.74538  0.021913741  0.022035892            3 
 2411000   0.87847861   -7.7592946    636.74671  0.022008389  0.022028978            1 
 2412000   0.86137135   -7.7847541    636.38743  0.021986851  0.022022074            4 
 2413000   0.85722599   -7.7681833    634.88743  0.021925937  0.022015161            1 
 2414000   0.88346139   -7.8106739    636.70915  0.021979741  0.022008218            2 
 2415000   0.86654312   -7.7774309     634.3285  0.021888492  0.022001252            1 
 2416000   0.89645108   -7.7880534    635.33413  0.021914119  0.021994314            1 
 2417000   0.87699808   -7.7456786     636.2505  0.021936647  0.021987413            2 
 2418000   0.87188515    -7.817284    634.39801  0.021863731  0.021980478            2 
 2419000    0.8661549   -7.8019992    634.67426  0.021864209  0.021973525            2 
 2420000   0.83674945    -7.771925     636.3792  0.021913884  0.021966598            4 
 2421000   0.85965133   -7.7669423    637.25774  0.021935073   0.02195964            2 
 2422000   0.87860399   -7.7450356    637.85218  0.021946469  0.021952799            2 
 2423000   0.87744179   -7.7728955    635.85649  0.021868774   0.02194591            3 
 2424000   0.85673433    -7.779422    638.05832  0.021935448  0.021938977            4 
 2425000   0.84963769   -7.7863934     635.1932  0.021827945  0.021931999            3 
 2426000   0.87954483   -7.7769317    636.67312  0.021869783   0.02192505            2 
 2427000   0.85627386   -7.7917357    637.39018  0.021885393  0.021918073            1 
 2428000   0.83752451   -7.8197975    635.79506  0.021821632  0.021911092            3 
 2429000   0.88174592   -7.7951901    636.01471  0.021820184  0.021904083            2 
 2430000    0.8588118   -7.8130374    636.27105  0.021819995  0.021897082            2 
 2431000   0.86092512   -7.8281414    635.72641  0.021792349  0.021890084            3 
 2432000   0.84732595   -7.8052952    637.14977   0.02183216  0.021883163            3 
 2433000   0.87038111   -7.7694032    638.16188  0.021857853  0.021876251            1 
 2434000   0.86412657   -7.8089508    636.57453  0.021794526  0.021869327            2 
 2435000   0.86663819   -7.8192208    638.44905  0.021849728  0.021862362            2 
 2436000   0.86829968   -7.7972391     639.7846  0.021886446  0.021855484            1 
 2437000   0.86297127   -7.8099578    637.31376  0.021792975  0.021848599            2 
 2438000   0.84883165   -7.7784785     637.0047  0.021773472  0.021841697            2 
 2439000   0.83917268   -7.8045709    639.11835  0.021836762  0.021834804            2 
 2440000   0.86722543   -7.7514049    640.11876  0.021861979  0.021827952            1 
 2441000   0.85320823   -7.8017564    636.40172  0.021726127  0.021821093            2 
 2442000   0.84530584    -7.833093    636.45042  0.021718892  0.021814178            3 
 2443000   0.86701988   -7.8054225    637.03207  0.021729843  0.021807275            2 
 2444000   0.85172252   -7.7886629     638.4702  0.021769988  0.021800345            1 
 2445000   0.86443433   -7.7911533    638.33453   0.02175646  0.021793457            2 
 2446000   0.87599741   -7.8138375    637.46685  0.021718004   0.02178659            3 
 2447000   0.85957916   -7.8090282    639.18869  0.021767766  0.021779753            1 
 2448000   0.86975451   -7.7557734    639.36862  0.021764999  0.021772964            3 
 2449000   0.85557621   -7.8075991    639.24525  0.021751914  0.021766173            3 
 2450000     0.881357   -7.7516271    640.15437  0.021773958  0.021759372            2 
 2451000   0.85868114   -7.7973236    640.47686  0.021776039  0.021752607            1 
 2452000   0.85503313   -7.7762467    639.48238   0.02173336  0.021745804            1 
 2453000   0.85641855   -7.7869919    639.26752  0.021717201  0.021739061            2 
 2454000   0.83576933   -7.7963393    639.91381  0.021730298  0.021732282            2 
 2455000   0.87512075   -7.8012178    638.35098  0.021668397  0.021725496            4 
 2456000   0.86440134   -7.8074662    639.84765  0.021710357  0.021718655            2 
 2457000   0.85124936   -7.7814783    641.18043  0.021746725  0.021711871            1 
 2458000   0.84757571   -7.7580699    640.74876  0.021723242  0.021705066            1 
 2459000   0.84725403   -7.7613272      640.978  0.021722177  0.021698332            3 
 2460000   0.86441188   -7.7789065    640.79613  0.021707186  0.021691623            4 
 2461000   0.85520108   -7.8185959    638.35645  0.021615754  0.021684824            3 
 2462000    0.8639932   -7.7643032    641.92658  0.021727815  0.021678041            1 
 2463000   0.84270476   -7.7833392    641.19115  0.021694111  0.021671322            4 
 2464000   0.83629084   -7.8063272    640.06749  0.021647304  0.021664565            3 
 2465000   0.85501084   -7.8112541    641.30224  0.021680265  0.021657769            3 
 2466000   0.85652018   -7.7939626    641.10444  0.021664789  0.021650971            4 
 2467000   0.87286023   -7.7850648    640.34455  0.021630339  0.021644165            1 
 2468000   0.86256145   -7.8367454    638.08054  0.021545129  0.021637313            2 
 2469000   0.84400936   -7.8077425    639.05352  0.021569243  0.021630504            1 
 2470000   0.86858054   -7.7862963    642.30652   0.02167026  0.021623676            2 
 2471000   0.83798436   -7.7930943    641.12336  0.021621589   0.02161684            3 
 2472000   0.85419473   -7.8265349    638.70169  0.021531206  0.021610019            2 
 2473000   0.84883041   -7.8418029    639.59403  0.021552569  0.021603156            1 
 2474000   0.86816208   -7.8154985     638.8456  0.021518647  0.021596308            1 
 2475000   0.84713993   -7.7977445     640.9522  0.021580882  0.021589453            4 
 2476000   0.85131457   -7.7878448     640.9126  0.021570833  0.021582683            2 
 2477000   0.85834399   -7.8101067    639.78917   0.02152433  0.021575858            2 
 2478000   0.87253287   -7.7849111    639.83642  0.021517232  0.021569043            1 
 2479000   0.85512848   -7.8040817    640.56582  0.021533072  0.021562207            4 
 2480000   0.85344056   -7.7996275    641.00824  0.021539255  0.021555426            2 
 2481000   0.87010234    -7.800615    640.88953  0.021526586  0.021548567            2 
 2482000   0.85457239   -7.8023671    640.70841  0.021511832  0.021541708            2 
 2483000   0.86162363   -7.8219048    640.12335  0.021483533   0.02153486            1 
 2484000   0.82503167   -7.8166019    640.58514  0.021490377  0.021528008            5 
 2485000   0.85191892   -7.8212554    639.90675  0.021458979  0.021521159            2 
 2486000   0.84095879     -7.81855    640.83075  0.021481321  0.021514249            1 
 2487000   0.84633605   -7.7836999    640.25529  0.021453401  0.021507412            3 
 2488000   0.83166041   -7.8034485    643.23956  0.021544734  0.021500602            1 
 2489000   0.83714935   -7.8406573    640.67024  0.021450055  0.021493751            1 
 2490000    0.8419059   -7.7806983    641.20883  0.021459466  0.021486929            5 
 2491000   0.84706866   -7.8134293     641.8386  0.021471919  0.021480079            4 
 2492000    0.8277274   -7.7781764    642.36719  0.021480979  0.021473222            2 
 2493000    0.8466037   -7.8235988    639.43349  0.021374298   0.02146634            3 
 2494000   0.81735152   -7.8407173    640.62538  0.021405553   0.02145943            1 
 2495000   0.85208535   -7.8252938    639.86085  0.021371438  0.021452547            2 
 2496000   0.86507652   -7.7818512    642.56497  0.021453157  0.021445721            2 
 2497000   0.84148343   -7.8402823      640.618  0.021379589  0.021438848            3 
 2498000   0.83487166   -7.8314464    641.80243  0.021410543  0.021431991            5 
 2499000   0.86304622   -7.8358876    641.41841  0.021389169  0.021425156            1 
 2500000   0.85290538   -7.8201878    641.18763  0.021372921  0.021418298            3 
 2501000   0.87337835   -7.8001334    642.63288  0.021412531  0.021411495            1 
 2502000    0.8577539   -7.7936672    641.41273  0.021363334  0.021404668            4 
 2503000   0.85798663    -7.828001    642.85992  0.021402981  0.021397837            2 
 2504000   0.85026985   -7.8532916    642.38195  0.021378526  0.021390987            2 
 2505000   0.82858151   -7.7717589    643.71013  0.021414176  0.021384193            6 
 2506000   0.86429984   -7.7829608    642.68766   0.02137163  0.021377403            1 
 2507000   0.83423411   -7.8107652    643.24227  0.021381541  0.021370633            3 
 2508000   0.85614582   -7.7977537    642.27358  0.021340829  0.021363829            3 
 2509000    0.8492288   -7.8256351    642.69372  0.021346277  0.021357003            1 
 2510000   0.85378592   -7.8302635    642.14601  0.021319589   0.02135021            5 
 2511000   0.83832239   -7.7694784    640.95869  0.021271694  0.021343413            2 
 2512000   0.83932928   -7.7653163      644.747    0.0213889  0.021336635            2 
 2513000   0.85017738   -7.7625301    645.79259  0.021415061  0.021329893            3 
 2514000    0.8604869   -7.8210937    643.31218  0.021324323  0.021323157            2 
 2515000   0.84595936   -7.7762044    645.06444  0.021373905  0.021316423            3 
 2516000   0.85104236   -7.8231337    643.77039  0.021322549  0.021309703            3 
 2517000   0.84822142   -7.8352495    643.36594  0.021300687  0.021302988            5 
 2518000   0.84604323   -7.7732647    644.36965  0.021325445  0.021296289            2 
 2519000   0.85100738   -7.8356079    644.21644  0.021311911  0.021289508            2 
 2520000   0.84074356   -7.8328058    643.38001  0.021275794  0.021282677            4 
 2521000   0.85602913   -7.8429456    641.86706  0.021217343  0.021275871            1 
 2522000   0.86590275   -7.8407415     642.9691  0.021245344  0.021269078            1 
 2523000   0.84170697    -7.865848    642.86558  0.021233504  0.021262258            1 
 2524000   0.83564935   -7.8081403    642.76702  0.021221838  0.021255438            1 
 2525000    0.8338046   -7.8052414     643.3728  0.021233426  0.021248647            2 
 2526000   0.84579645   -7.8111325    643.95576  0.021244252  0.021241887            1 
 2527000   0.85033734    -7.864213    643.88528  0.021233521  0.021235069            3 
 2528000   0.86097728   -7.8495264    644.09557  0.021232053  0.021228256            1 
 2529000   0.85748374   -7.8527156     643.7436   0.02121206  0.021221499            2 
 2530000   0.86459085   -7.8420202    643.44831   0.02119395  0.021214707            5 
 2531000    0.8336488   -7.8207448    646.09456  0.021272704  0.021207981            1 
 2532000    0.8597585   -7.8045512    646.03765  0.021262429  0.021201259            2 
 2533000   0.84773333   -7.8165886    644.82057  0.021213994  0.021194562            2 
 2534000   0.86321786   -7.8055054    644.94072  0.021209574  0.021187826            4 
 2535000   0.84768658   -7.8106489    645.70883  0.021226457  0.021181086            2 
 2536000   0.82619275    -7.816026    645.59689  0.021214409  0.021174322            2 
 2537000   0.86340701   -7.8495612    644.17003  0.021159178   0.02116756            3 
 2538000   0.85046259   -7.8237628    644.94888  0.021176414  0.021160801            3 
 2539000   0.83353563   -7.8129592    643.60911  0.021124101  0.021154053            1 
 2540000   0.84254009   -7.8257599    645.10396  0.021164828  0.021147308            1 
 2541000   0.83338504   -7.8144833    645.33279  0.021164003  0.021140542            1 
 2542000   0.83751534   -7.8146409    644.30505  0.021121986  0.021133773            1 
 2543000   0.84760971   -7.7908979    646.06973  0.021171508  0.021127025            2 
 2544000   0.84007967    -7.819113    645.47078  0.021143566  0.021120263            4 
 2545000   0.84248376   -7.8143046    645.60493  0.021139651  0.021113499            3 
 2546000   0.83875562   -7.8240125    644.90699  0.021108503  0.021106754            1 
 2547000   0.83660126   -7.8179513    644.35715  0.021082226  0.021099972            1 
 2548000   0.85187274   -7.8315462    644.54113  0.021079969  0.021093201            1 
 2549000   0.84167111   -7.8018598    646.42531  0.021133298  0.021086453            2 
 2550000   0.83565573   -7.8178614    645.49636  0.021094652  0.021079714            1 
 2551000   0.85751915   -7.8336462    645.57321  0.021088893  0.021072987            2 
 2552000   0.83382229   -7.8266083    645.94355  0.021092723  0.021066175            3 
 2553000    0.8479807   -7.7936966    645.56106  0.021071976   0.02105943            2 
 2554000   0.84642104    -7.850356    644.88161  0.021041556  0.021052699            2 
 2555000   0.84206119   -7.8580556     646.9799  0.021101758  0.021045933            2 
 2556000   0.84196776   -7.8201376    646.39176  0.021074327  0.021039185            3 
 2557000   0.83620381   -7.8375038    646.45192  0.021068046  0.021032463            2 
 2558000   0.84716139   -7.8041375     645.9227  0.021042569  0.021025734            2 
 2559000   0.84610912   -7.8545145    646.90071  0.021066195  0.021018977            6 
 2560000   0.82440851   -7.8442474    645.92037  0.021026054  0.021012213            2 
 2561000   0.84853701    -7.856031    645.95031  0.021018818  0.021005409            3 
 2562000   0.83185242   -7.8427645    646.67221  0.021034095  0.020998651            2 
 2563000   0.84217289   -7.8623657    645.04173  0.020972874   0.02099187            3 
 2564000    0.8462584   -7.8518541    644.61776  0.020950915  0.020985079            5 
 2565000   0.84191969   -7.8536955    644.91176  0.020952299  0.020978303            3 
 2566000   0.84594652   -7.8142275    647.16186  0.021017208  0.020971537            1 
 2567000   0.82256346   -7.8274343    645.99943  0.020971284  0.020964768            2 
 2568000   0.85744078    -7.844424    645.86275  0.020958682  0.020957996            3 
 2569000   0.85896514   -7.8718659    646.50723   0.02097143  0.020951247            1 
 2570000   0.84599012   -7.8230146    647.75288   0.02100366  0.020944503            2 
 2571000   0.86660332   -7.8199196    646.90253  0.020967929  0.020937766            2 
 2572000   0.84245708   -7.8326996     646.5053  0.020946906  0.020931013            2 
 2573000   0.85707365   -7.8403026    647.72464  0.020978256  0.020924287            2 
 2574000    0.8515374   -7.8138067    647.62654   0.02096693  0.020917566            2 
 2575000   0.84329921   -7.8327744    646.22288  0.020913362   0.02091084            1 
 2576000   0.84008493   -7.8308014    646.74144  0.020922019  0.020904129            2 
 2577000   0.84380969   -7.8503539    648.39215  0.020967279  0.020897385            2 
 2578000   0.84164283   -7.8542921    645.34091  0.020860515  0.020890627            2 
 2579000   0.83055966   -7.8170062    646.64515   0.02089457  0.020883858            7 
 2580000   0.85693348   -7.8410895     646.3065  0.020875533  0.020877075            2 
 2581000   0.82133911    -7.859891    646.77618   0.02088261  0.020870276            3 
 2582000   0.84115816   -7.8824656    646.56913  0.020867839  0.020863484            1 
 2583000   0.82505035   -7.8374608    645.75567  0.020833516  0.020856655            3 
 2584000   0.84056628   -7.8628464    647.29793  0.020875191  0.020849848            3 
 2585000   0.83325837   -7.8560206    646.80415  0.020851198  0.020843061            2 
 2586000   0.82081909   -7.8533396    646.34989  0.020828496  0.020836278            2 
 2587000   0.84926103   -7.8378401    647.32822  0.020851959  0.020829521            1 
 2588000   0.82473787   -7.8671706    646.10116  0.020804391  0.020822718            1 
 2589000   0.82549102   -7.8818006    647.86691   0.02085319  0.020815928            5 
 2590000   0.83649738   -7.8885458    646.09474  0.020788119  0.020809149            4 
 2591000   0.84266481   -7.8446585    646.10624  0.020780466  0.020802356            1 
 2592000   0.83508275   -7.8589838    647.09948  0.020804381  0.020795596            3 
 2593000   0.85533475   -7.8587863    646.68683  0.020783096  0.020788801            1 
 2594000    0.8243513    -7.874403    647.97922  0.020816603  0.020782037            2 
 2595000    0.8423062   -7.8669676    646.93069   0.02077491  0.020775249            3 
 2596000   0.84257148    -7.828487    648.63063  0.020821476  0.020768492            2 
 2597000   0.84075315   -7.8829553    647.68575  0.020783139  0.020761709            3 
 2598000     0.835433   -7.8672277    647.25483  0.020761317  0.020754942            2 
 2599000   0.83102152   -7.8516867    646.80629  0.020738947  0.020748148            3 
 2600000   0.82869636   -7.8773842     647.9663  0.020768151  0.020741354            2 
 2601000   0.83962929   -7.8613684    647.20281  0.020735704   0.02073458            1 
 2602000   0.82023435   -7.8357717    648.65014  0.020774089  0.020727814            4 
 2603000   0.83711355   -7.8399949    647.86163  0.020740864  0.020721091            1 
 2604000   0.82604662   -7.8590749    647.24921    0.0207133  0.020714337            2 
 2605000   0.83161879   -7.8353921    647.02356  0.020698131  0.020707592            3 
 2606000   0.84064503   -7.9034464    647.00947  0.020689738  0.020700852            3 
 2607000   0.83014957   -7.8491119    648.10905  0.020716949  0.020694088            1 
 2608000   0.82556153   -7.8713108     647.9794  0.020704863  0.020687369            1 
 2609000   0.84887579   -7.8356331    646.86595  0.020661363  0.020680648            3 
 2610000   0.84339692   -7.8586272    648.29446  0.020699057   0.02067393            2 
 2611000    0.8336366   -7.8549411    647.56997  0.020668006  0.020667204            2 
 2612000   0.81961126   -7.8461307    648.81534  0.020699826  0.020660485            1 
 2613000   0.83924595   -7.8561781    648.31989  0.020676103  0.020653732            2 
 2614000   0.84419601   -7.8714895     649.1598  0.020694969  0.020646997            2 
 2615000   0.82796037   -7.8376732    648.11733  0.020653834  0.020640277            4 
 2616000   0.83254581   -7.8466894    648.24882  0.020650128  0.020633528            1 
 2617000   0.85097103   -7.8794897    647.27696   0.02061129  0.020626798            4 
 2618000   0.81511663   -7.8688549    648.40655  0.020639373  0.020620025            2 
 2619000    0.8243797   -7.8700444    649.36166  0.020661883  0.020613259            2 
 2620000   0.82772216   -7.8721244    648.41551  0.020623903  0.020606501            1 
 2621000     0.835566   -7.8744681     648.3687  0.020614546  0.020599748            4 
 2622000   0.83647631   -7.8794983     648.2553   0.02060308  0.020592977            2 
 2623000   0.84062408   -7.8553114    649.56529  0.020636844  0.020586227            1 
 2624000   0.83944415   -7.8770353    648.16395  0.020584475  0.020579477            5 
 2625000   0.82581596   -7.8897613     648.8386  0.020598051  0.020572738            1 
 2626000   0.83791884   -7.8465879    648.42498  0.020577081  0.020566032            1 
 2627000   0.82456479   -7.8551183    649.12454   0.02059144  0.020559308            1 
 2628000   0.83221162   -7.8274644    649.25299  0.020587677    0.0205526            1 
 2629000   0.83046372   -7.8886347    647.44396  0.020522504  0.020545858            3 
 2630000   0.83498744   -7.8496995    648.79751  0.020557589  0.020539129            3 
 2631000    0.8184094   -7.8512677    647.67209  0.020514129  0.020532371            1 
 2632000   0.82547732   -7.8521582    648.22055    0.0205237  0.020525548            1 
 2633000   0.79596099   -7.8910211    646.22674  0.020452802  0.020518725            3 
 2634000   0.82980431   -7.8720786    647.84002  0.020496077  0.020511911            3 
 2635000   0.84549276   -7.8800916    648.80019  0.020518665  0.020505113            3 
 2636000   0.81609518   -7.9155519    647.21211  0.020460676  0.020498338            4 
 2637000   0.81507001   -7.8632079    649.80372  0.020534816  0.020491601            2 
 2638000   0.84940133   -7.8537848    650.14421  0.020537788  0.020484892            2 
 2639000   0.83725908   -7.8588492    650.52507  0.020542032  0.020478189            1 
 2640000    0.8410768   -7.8636461    648.67516  0.020475857  0.020471454            3 
 2641000   0.83324875   -7.8815995    648.10817  0.020450214  0.020464698            2 
 2642000   0.83863755   -7.8477535    648.44371  0.020453057  0.020457966            3 
 2643000   0.82801658   -7.8694719    648.44204  0.020445266  0.020451222            3 
 2644000   0.83374133   -7.8705126    649.02819  0.020456007   0.02044448            5 
 2645000   0.82980849   -7.8761276    649.28754  0.020456444  0.020437765            1 
 2646000    0.8296484   -7.8701641    648.78962  0.020433031   0.02043105            2 
 2647000   0.81701923   -7.8605614    650.66383  0.020484317  0.020424303            1 
 2648000   0.82224972   -7.8574826    650.68476  0.020477239  0.020417579            2 
 2649000   0.82689608   -7.8649361    650.44314  0.020461908  0.020410872            2 
 2650000   0.81482383   -7.8820261     649.3183  0.020418815  0.020404164            2 
 2651000   0.84844373   -7.8925421    649.69326  0.020422899  0.020397426            3 
 2652000   0.81270935   -7.8886607    649.23295  0.020400734  0.020390688            2 
 2653000   0.82766574   -7.8669995    650.88967  0.020445083  0.020383943            2 
 2654000   0.81814695     -7.90078    649.76233  0.020401982  0.020377212            2 
 2655000   0.80618705   -7.8776819    648.96131  0.020369156  0.020370432            1 
 2656000   0.84407786   -7.9043901    649.42905  0.020376163  0.020363659            2 
 2657000     0.827714   -7.9158716    648.99357  0.020354835   0.02035687            2 
 2658000   0.82337172   -7.9046159    648.17147  0.020321403  0.020350094            2 
 2659000   0.82185438   -7.8943834    648.69761   0.02033025  0.020343346            2 
 2660000   0.81449917   -7.8751919    648.81294   0.02032622  0.020336604            4 
 2661000   0.83233682   -7.8893902    648.98407  0.020323941  0.020329875            3 
 2662000   0.82295741   -7.8819577    649.62093  0.020336243   0.02032317            2 
 2663000   0.80968214   -7.8924657    650.71255  0.020362766  0.020316469            1 
 2664000   0.81033342   -7.8805244    650.96622  0.020363058  0.020309809            1 
 2665000   0.82826077   -7.8732859    650.24823  0.020332965  0.020303127            2 
 2666000   0.81050686   -7.8672922    649.70315  0.020308301  0.020296385            1 
 2667000   0.82526289   -7.9132344    650.50863  0.020325854  0.020289642            1 
 2668000   0.81336369   -7.8909561    651.71745  0.020355992  0.020282891            4 
 2669000   0.83758417   -7.8878333    651.23561  0.020333321  0.020276184            1 
 2670000     0.820419   -7.9153853     651.9185  0.020347019  0.020269474            2 
 2671000   0.82423544   -7.8732717    652.83351  0.020367949   0.02026279            5 
 2672000        0.814   -7.8612585    651.31867  0.020313082  0.020256106            4 
 2673000   0.82706309   -7.8775237    651.19108  0.020301505    0.0202494            2 
 2674000   0.84677711   -7.8420012     650.6859   0.02027817  0.020242732            2 
 2675000   0.81290175   -7.8809026    652.38205  0.020323428  0.020236085            1 
 2676000   0.82080121   -7.9107139    650.24514  0.020249288  0.020229389            2 
 2677000    0.8262445   -7.8850076    651.63753  0.020285068  0.020222711            1 
 2678000   0.83333252   -7.8979633    652.05398  0.020290452  0.020216007            2 
 2679000   0.81163803   -7.8958482    648.76235  0.020180489  0.020209289            4 
 2680000   0.80431325   -7.8965145    651.59322  0.020260983  0.020202642            2 
 2681000   0.81372859   -7.8839194    650.34562  0.020214647  0.020195969            2 
 2682000   0.82960577   -7.8781938    651.03505  0.020228531  0.020189323            4 
 2683000   0.81574335   -7.8899176    653.06255  0.020283965  0.020182679            1 
 2684000   0.81838076   -7.9112127    652.21224  0.020250007  0.020175995            1 
 2685000   0.82983268   -7.9120042    650.09642  0.020176797  0.020169342            1 
 2686000   0.82987618   -7.9177276    650.34635   0.02017704  0.020162652            1 
 2687000   0.81239921   -7.9113028    651.10475  0.020193051  0.020155982            1 
 2688000   0.81337574   -7.9055067      651.921  0.020210845  0.020149305            2 
 2689000   0.82611755   -7.9021758     651.9162   0.02020318  0.020142654            3 
 2690000   0.83554692   -7.8784835    652.61736   0.02021739  0.020136069            1 
 2691000   0.83895719   -7.8979943    651.69421   0.02018129  0.020129462            2 
 2692000   0.81869084   -7.9183051    652.24015  0.020190693   0.02012284            1 
 2693000   0.81828814   -7.9134571    652.42548  0.020188931  0.020116225            1 
 2694000   0.84174054   -7.9223394    651.19848  0.020143482  0.020109595            1 
 2695000   0.84455964    -7.907998     652.3909  0.020172879  0.020102966            3 
 2696000   0.80965124   -7.9111976    651.79275  0.020146907  0.020096343            4 
 2697000   0.82084627   -7.9031937    654.43776  0.020221164  0.020089732            2 
 2698000   0.81658239   -7.8984177     652.7036  0.020160106  0.020083138            2 
 2699000   0.82926145   -7.8573078     655.1021  0.020226692  0.020076573            4 
 2700000   0.81650072   -7.8642033    654.79505  0.020209724  0.020070031            2 
 2701000   0.83294852   -7.8726996    653.27225  0.020155259  0.020063469            2 
 2702000   0.81915597   -7.9017149    654.07929   0.02017269  0.020056909            1 
 2703000   0.81444204   -7.8922009    654.92888  0.020191419  0.020050328            3 
 2704000   0.82421713   -7.8834986     654.5449  0.020172119  0.020043771            1 
 2705000   0.83456823   -7.9072851    653.56992  0.020134625  0.020037197            2 
 2706000   0.82987143    -7.880555    654.28794  0.020149296  0.020030592            2 
 2707000   0.82355867   -7.8559565    655.32174  0.020173678  0.020024049            4 
 2708000   0.81616764   -7.9281617    653.55175   0.02011176  0.020017489            3 
 2709000   0.82449779   -7.9200242    652.36866  0.020067942  0.020010912            5 
 2710000   0.80211815   -7.9129366    653.65602  0.020100124  0.020004342            1 
 2711000   0.83050805   -7.8979842    653.79983   0.02009713  0.019997764            4 
 2712000   0.82674271   -7.9393095    653.62561  0.020084366  0.019991179            1 
 2713000   0.82615618   -7.8968808    654.06114  0.020090341  0.019984566            1 
 2714000   0.83062628   -7.8905847    653.99044  0.020080768  0.019977989            2 
 2715000    0.8286688   -7.8999205    654.08209  0.020076184  0.019971427            3 
 2716000   0.81417079   -7.9128398    653.08977  0.020038346  0.019964859            1 
 2717000   0.80899726   -7.8904635    654.02198  0.020059563  0.019958291            3 
 2718000   0.81660141   -7.8793844    654.11572  0.020055056  0.019951729            2 
 2719000   0.82003274   -7.9032811       653.58  0.020031262   0.01994518            3 
 2720000    0.8162635   -7.9054279    652.78351  0.019999495  0.019938629            3 
 2721000   0.80580929   -7.8953353     652.1258  0.019972002  0.019932102            3 
 2722000   0.81025767   -7.8945179    655.84881  0.020078644   0.01992554            1 
 2723000   0.81525219   -7.9275332    653.96001  0.020013466  0.019918991            1 
 2724000   0.81206295   -7.8987749    654.97923  0.020037299  0.019912433            1 
 2725000   0.80122484   -7.9104958    655.26893  0.020038805  0.019905862            1 
 2726000   0.83616739   -7.9112129    654.67199  0.020013206  0.019899299            3 
 2727000   0.82620586   -7.8986368    653.89208  0.019982034  0.019892747            2 
 2728000    0.8171931   -7.9399792     653.2432  0.019954888  0.019886165            2 
 2729000   0.80665786   -7.9063934    655.37032   0.02001253  0.019879555            1 
 2730000   0.80525276   -7.9138633    653.48038  0.019947508  0.019873002            3 
 2731000   0.81337528   -7.9215128    655.99556  0.020016952  0.019866482            2 
 2732000   0.81280772   -7.9216298     653.1769  0.019923649  0.019859933            1 
 2733000   0.82688608   -7.9086265    652.84389  0.019906205  0.019853406            1 
 2734000   0.81428575   -7.8818785    655.19946  0.019970722  0.019846873            2 
 2735000   0.79236285   -7.9342542    653.03275  0.019897403  0.019840336            2 
 2736000   0.80547195    -7.901539    653.79971   0.01991349  0.019833791            3 
 2737000   0.79953763   -7.9208852    652.94143  0.019880083  0.019827238            6 
 2738000   0.81027579   -7.9172377    654.32075  0.019914802  0.019820682            2 
 2739000   0.79245105   -7.9233558    655.77248    0.0199517  0.019814132            1 
 2740000   0.80834547   -7.9179748    654.09495  0.019893399  0.019807628            1 
 2741000   0.82070604   -7.8956733    656.89829   0.01997137  0.019801098            1 
 2742000   0.82645144   -7.8832186    655.83881  0.019931887  0.019794577            3 
 2743000   0.79728109   -7.9042769     655.1262  0.019902971  0.019788058            2 
 2744000   0.79836255    -7.929099    655.11777  0.019895462  0.019781508            4 
 2745000   0.80200769   -7.9185371    654.11741  0.019857845  0.019774953            2 
 2746000   0.81328901   -7.8825646    654.50979  0.019862521  0.019768372            4 
 2747000   0.82580958   -7.8977042    654.59475  0.019857868  0.019761851            1 
 2748000   0.79929886   -7.9218486    654.58883  0.019850462  0.019755317            2 
 2749000   0.80258535     -7.90514    655.22123  0.019862411  0.019748759            2 
 2750000   0.80826369   -7.9305599    654.34912  0.019828761  0.019742206            3 
 2751000   0.78952668    -7.903701    656.09691  0.019874497  0.019735659            3 
 2752000   0.81558709   -7.9235649    655.37176  0.019845317  0.019729108            3 
 2753000   0.79254818    -7.923104     655.5983  0.019844966  0.019722498            3 
 2754000   0.80656307   -7.9252612    654.86453  0.019815557  0.019715901            1 
 2755000   0.82390888   -7.9439387    654.58476  0.019799902  0.019709324            1 
 2756000   0.81372447   -7.9197647    654.49906  0.019790126   0.01970272            5 
 2757000   0.81296535   -7.9311946    655.63892  0.019817402  0.019696137            2 
 2758000   0.80396464   -7.9448372    654.66325  0.019780736  0.019689535            1 
 2759000   0.80328086   -7.9420852    654.14999  0.019758064   0.01968292            2 
 2760000   0.79920632   -7.9360497    655.39389  0.019788463  0.019676349            3 
 2761000   0.80156098   -7.9560344    656.30135  0.019808685   0.01966977            3 
 2762000   0.81064665   -7.9265226    655.35697   0.01977302  0.019663226            1 
 2763000   0.81206449   -7.8864573    656.63933   0.01980454  0.019656694            2 
 2764000    0.8005979    -7.931126    655.03139  0.019748896  0.019650158            3 
 2765000   0.81180317   -7.9213405    655.60239  0.019758963  0.019643627            5 
 2766000    0.8125849   -7.8777451    656.51804  0.019779406  0.019637123            1 
 2767000   0.80019877   -7.8812897     656.4946  0.019771552  0.019630623            2 
 2768000   0.80603895   -7.9227573    655.35708  0.019730162  0.019624143            1 
 2769000   0.79077982   -7.9059732    656.29173  0.019751166  0.019617648            2 
 2770000   0.80559421   -7.8853053    657.70309  0.019786495   0.01961112            2 
 2771000   0.80182567   -7.9140599    656.00986  0.019728433  0.019604627            1 
 2772000   0.79935509   -7.9011132    655.28292  0.019699462   0.01959813            1 
 2773000   0.79693875   -7.9260405     656.3431  0.019724219  0.019591664            2 
 2774000   0.80844227   -7.9145575    657.34321  0.019747152  0.019585174            1 
 2775000   0.79988787   -7.9204059      656.767  0.019722733   0.01957869            5 
 2776000   0.81568887   -7.9159723    656.32241  0.019702282  0.019572215            1 
 2777000   0.80903584   -7.9087584    656.48358  0.019700023  0.019565726            3 
 2778000    0.8207539   -7.9357619    655.50907  0.019663699  0.019559205            1 
 2779000   0.80848366     -7.93983    654.71354  0.019632768  0.019552681            1 
 2780000   0.81349062   -7.9576312    655.62246  0.019652951  0.019546137            1 
 2781000   0.80685459   -7.9232333     656.0125  0.019657572  0.019539618            2 
 2782000   0.81040078   -7.9276273    656.34782  0.019660551  0.019533085            3 
 2783000   0.79639196   -7.9233624    657.00616  0.019673199  0.019526513            4 
 2784000    0.8105029    -7.919123    656.14792  0.019640443  0.019519999            3 
 2785000   0.79237972   -7.9164335    655.26909  0.019607094  0.019513491            1 
 2786000   0.79434547   -7.9168816    658.36146  0.019692554  0.019507024            4 
 2787000   0.81827506   -7.9277844    658.81318  0.019698995  0.019500579            2 
 2788000   0.78834995   -7.9087839    656.94478  0.019636083  0.019494137            2 
 2789000   0.80149265   -7.9107258    658.69154  0.019681234  0.019487689            1 
 2790000   0.83250571   -7.8951588    657.67868  0.019643927  0.019481268            2 
 2791000   0.80467012   -7.9076738    656.86719   0.01961266  0.019474854            2 
 2792000   0.81213718   -7.9209685    656.64584  0.019599028   0.01946843            2 
 2793000   0.81650008   -7.9537431     656.7102  0.019593931   0.01946197            2 
 2794000   0.81742187   -7.9847622    656.10426  0.019568846  0.019455503            2 
 2795000   0.80082159   -7.9223161    657.36539  0.019599445  0.019449063            1 
 2796000   0.80205937   -7.9074064    656.43157  0.019564603  0.019442618            2 
 2797000   0.79811126   -7.9453386     657.3356  0.019584543  0.019436165            2 
 2798000   0.79433272   -7.9227847    656.27179   0.01954586  0.019429705            2 
 2799000   0.80585232   -7.9313363    656.79765  0.019554533  0.019423248            2 
 2800000   0.81009666   -7.9263112     657.4853  0.019568015  0.019416785            2 
 2801000   0.80046068   -7.9205521    658.17043  0.019581412  0.019410321            6 
 2802000   0.81638711   -7.8994873    658.57438  0.019586438  0.019403866            1 
 2803000   0.80131021    -7.953195    657.77113  0.019555569  0.019397424            3 
 2804000   0.80575635   -7.9682184    657.59447  0.019543345  0.019390972            2 
 2805000   0.82176831   -7.9474969    658.09412  0.019551222  0.019384525            3 
 2806000   0.78830624    -7.921718     659.5273  0.019586817  0.019378098            2 
 2807000    0.8128277   -7.9350425    658.33343  0.019544396  0.019371664            1 
 2808000    0.7989782   -7.9752886    656.94854  0.019496336  0.019365251            8 
 2809000   0.79811104   -7.9497465    658.68103  0.019540792  0.019358837            4 
 2810000   0.77827789   -7.9548396    658.24457  0.019520895   0.01935243            3 
 2811000   0.82014988   -7.9548285    659.63758  0.019555247  0.019346041            3 
 2812000   0.79921598   -7.9167331    659.82245  0.019553771  0.019339714            3 
 2813000   0.82378465   -7.9254542    661.31575  0.019591058  0.019333419            2 
 2814000   0.80542372    -7.952833    660.28824  0.019553667   0.01932709            3 
 2815000   0.79427886   -7.9401712    659.34376  0.019518762  0.019320757            2 
 2816000    0.8088576   -7.9836519    658.80107   0.01949577  0.019314407            4 
 2817000   0.82901575   -7.9441926     659.8705  0.019520486   0.01930808            3 
 2818000   0.80169705   -7.9387642     659.1636  0.019492654  0.019301759           10 
 2819000   0.80812841   -7.9658963      658.646  0.019470439  0.019295412            2 
 2820000   0.80214664   -7.9625804    659.03064  0.019474901  0.019289078            1 
 2821000   0.80152492   -7.9274663    660.21904  0.019503103  0.019282744            2 
 2822000   0.80786417   -7.9737667     659.7534  0.019482442  0.019276425            1 
 2823000   0.78276717   -7.9400581    661.22468  0.019518971  0.019270073            1 
 2824000   0.79187119   -7.9503671    658.96384  0.019445345  0.019263758            3 
 2825000   0.79615259   -7.9327343    660.45667  0.019482498  0.019257464            3 
 2826000   0.81037036   -7.9275236    660.78423  0.019485263  0.019251189            3 
 2827000   0.79016478   -7.9305022    661.07784  0.019487025  0.019244949            2 
 2828000    0.7978796   -7.9428077    661.18482  0.019483287  0.019238679            1 
 2829000   0.80201493   -7.9395422    660.85793  0.019466771  0.019232367            5 
 2830000   0.79231336   -7.9469464      659.914  0.019432097  0.019226055            2 
 2831000   0.77966993   -7.9508255    660.30145  0.019436638  0.019219729            2 
 2832000   0.80983979   -7.9499314    660.76784  0.019443498  0.019213435            2 
 2833000   0.81685515   -7.9539924    659.96898  0.019413136  0.019207139            2 
 2834000   0.79736568   -7.9376883    661.26213  0.019444311  0.019200842            4 
 2835000   0.79998441   -7.9431843    661.98958  0.019458835  0.019194551            1 
 2836000   0.79986721   -7.9514305    659.69273  0.019384483  0.019188266            1 
 2837000   0.80960947   -7.9244528    660.71757  0.019407754  0.019182019            3 
 2838000   0.81000573   -7.9114065    661.86398  0.019434578  0.019175768            4 
 2839000   0.79095425   -7.9119067    660.29755  0.019381753  0.019169535            4 
 2840000   0.79459966   -7.9485259    660.58162  0.019383263  0.019163243            3 
 2841000   0.79719414   -7.9444593    658.28839  0.019309175  0.019156919            4 
 2842000   0.78418363     -7.97146    660.02309  0.019353246  0.019150574            2 
 2843000   0.79073002   -7.9705007     659.8766  0.019342144  0.019144231            2 
 2844000   0.80184671    -7.970787    659.89411  0.019335857  0.019137901            2 
 2845000   0.78179632   -7.9361234    662.63213   0.01940926   0.01913162            2 
 2846000   0.79082038   -7.9371233     659.8853   0.01932201  0.019125338            3 
 2847000   0.79632599   -7.9373863    660.88225  0.019344405  0.019119025            3 
 2848000   0.81482181   -7.9551094     660.9683  0.019340131  0.019112717            1 
 2849000   0.79746306   -7.9853068    658.18475  0.019251923  0.019106377            2 
 2850000    0.7943307   -7.9433628    661.51874  0.019342653  0.019100041            1 
 2851000   0.80055923   -7.9413733    661.11759  0.019324143  0.019093721            3 
 2852000   0.80198044   -7.9455579    660.74298  0.019306422  0.019087398            3 
 2853000   0.78579004   -7.9525456    660.11571  0.019281333  0.019081097            1 
 2854000    0.8106868   -7.9467619    660.65857  0.019290428  0.019074782            4 
 2855000   0.81810003   -7.9721435    660.04236  0.019265685  0.019068493            2 
 2856000    0.7994507   -7.9579604    660.31071  0.019266769  0.019062198            2 
 2857000   0.79713472   -7.9933195    660.01024  0.019251261  0.019055879            4 
 2858000    0.8040566   -7.9734271    660.60955     0.019262  0.019049568            2 
 2859000   0.79802283   -7.9972296     660.3224  0.019246893  0.019043255            2 
 2860000   0.80483947   -7.9424374    660.74745  0.019252548  0.019036939            1 
 2861000   0.79971644   -7.9510758    661.40495   0.01926497  0.019030657            2 
 2862000   0.80023181   -7.9672284    659.77778   0.01921086  0.019024375            3 
 2863000   0.81599185   -7.9499898    661.56899  0.019256287  0.019018088            1 
 2864000   0.79844238   -7.9558999    661.04372  0.019234279  0.019011791            2 
 2865000   0.81401726   -7.9133525    662.11415  0.019258701  0.019005524            4 
 2866000   0.79895607   -7.9111746    662.89888  0.019274799  0.018999283            2 
 2867000   0.79965134   -7.9507018    660.55716   0.01920001  0.018993009            2 
 2868000   0.79573056   -7.9439143     661.4858  0.019220299  0.018986731            2 
 2869000   0.78261582   -7.9617031    660.71184  0.019191119  0.018980444            3 
 2870000   0.80201432   -7.9660199    661.08344  0.019195222  0.018974175            4 
 2871000   0.79968429    -7.952985    662.21132  0.019221274  0.018967901            4 
 2872000   0.81057416   -7.9602776    661.16643  0.019184263  0.018961656            2 
 2873000   0.79413601   -7.9778181    660.73369  0.019165033  0.018955373            3 
 2874000   0.77662034   -7.9478618    661.57756  0.019182833  0.018949092            5 
 2875000   0.81274129   -7.9645969     660.0274  0.019131229  0.018942791            1 
 2876000   0.79253998    -7.949013    662.39079  0.019193057  0.018936535            2 
 2877000   0.78946885   -7.9945013    660.84756  0.019141686  0.018930272            2 
 2878000   0.77916685    -7.979746    660.80731  0.019133869  0.018923992            2 
 2879000   0.80862933   -7.9789905    661.74576  0.019154387  0.018917705            2 
 2880000   0.78569488   -7.9636267     662.0205  0.019155686  0.018911401            1 
 2881000   0.78145663    -7.957545    663.00857  0.019177617  0.018905151            1 
 2882000   0.78273211   -7.9585126    661.57369  0.019129473  0.018898905            2 
 2883000   0.79419759    -8.009425    660.53632  0.019092852  0.018892646            2 
 2884000   0.80973804   -7.9624554    661.41885  0.019111733  0.018886364            3 
 2885000   0.80042045    -7.956889    661.80562   0.01911628  0.018880101            3 
 2886000    0.8049318   -7.9951893     661.0034  0.019086492  0.018873826            3 
 2887000    0.7752445   -7.9703616      662.815  0.019132173  0.018867558            2 
 2888000    0.7949713   -7.9630723    661.94688  0.019100499  0.018861303            3 
 2889000    0.7856944   -7.9698999    662.39253  0.019106742  0.018855022            4 
 2890000   0.78972423   -7.9613889    662.60535  0.019106267  0.018848741            5 
 2891000    0.7986196   -7.9495143    661.59305  0.019070479  0.018842455            2 
 2892000   0.81162859   -7.9979064    660.30221  0.019026689  0.018836165            4 
 2893000   0.77323548   -7.9806524    662.14516  0.019073199  0.018829875            1 
 2894000   0.77755779   -7.9738093    661.89885  0.019059515  0.018823615            2 
 2895000   0.78364515   -8.0041666     661.4478  0.019039948  0.018817326            3 
 2896000   0.79278158   -8.0145789    661.19207  0.019026015  0.018811021            6 
 2897000   0.78770719    -8.015931    660.47286  0.018998759  0.018804745            5 
 2898000   0.79863649    -8.008327    661.14062  0.019011405  0.018798467            1 
 2899000   0.80579247   -8.0114607    661.80224  0.019023866  0.018792208            2 
 2900000   0.80288256   -7.9952528    662.04977  0.019024419  0.018785937            2 
 2901000    0.7957094   -7.9666212    663.26841  0.019052867  0.018779689            1 
 2902000   0.78359176   -7.9792586    662.74729  0.019031337  0.018773444            1 
 2903000   0.77726564   -8.0049284    661.95436   0.01900202  0.018767187            3 
 2904000    0.7958105   -7.9862971     663.1275  0.019029141  0.018760925            1 
 2905000   0.79049618   -7.9986003    661.35868   0.01897185  0.018754617            1 
 2906000    0.7948788   -8.0146362    662.20679  0.018989642  0.018748307            2 
 2907000   0.78908819   -8.0132968    661.72469  0.018969289  0.018742024            2 
 2908000   0.78864897    -7.986684    661.14479  0.018946148  0.018735758            1 
 2909000   0.78192681   -7.9475411    662.60719  0.018981528  0.018729506            2 
 2910000   0.79652237   -8.0074072    661.15073  0.018933297  0.018723245            1 
 2911000   0.80575763   -7.9795017    660.94525  0.018920911  0.018716978            5 
 2912000   0.78954718   -8.0133175    660.71396  0.018907794  0.018710708            3 
 2913000   0.81451396   -7.9913484    662.33536  0.018947687  0.018704424            3 
 2914000   0.78969206   -8.0019781    661.98353  0.018931124  0.018698169            1 
 2915000   0.77124686   -7.9805016     662.2581  0.018932478  0.018691896            2 
 2916000   0.77708972   -7.9711043    661.57283  0.018906402  0.018685603            5 
 2917000   0.77775151   -7.9933721    661.65863  0.018902372  0.018679285            3 
 2918000   0.78261393    -7.989579    662.07322  0.018907734  0.018673003            4 
 2919000    0.7963311   -7.9886313    660.58363  0.018858731  0.018666709            2 
 2920000   0.76848499   -7.9975616    661.39708  0.018875488  0.018660438            2 
 2921000   0.79217278   -7.9884195    660.34198  0.018838924  0.018654146            4 
 2922000   0.78041159   -8.0357072    660.51283   0.01883735  0.018647843            2 
 2923000    0.7798109   -7.9938555    661.68821  0.018864415  0.018641568            2 
 2924000   0.77374726   -7.9920064    661.67348  0.018857543  0.018635275            2 
 2925000   0.78262708   -7.9610788    662.56869  0.018876601  0.018628957            3 
 2926000   0.77545365   -7.9673844    662.80769  0.018876956  0.018622682            4 
 2927000   0.76844638   -7.9809572    660.68804  0.018810159  0.018616434            2 
 2928000   0.77574209   -7.9945116    662.16978  0.018845907  0.018610174            1 
 2929000   0.77738097   -7.9940726    661.25524  0.018813453  0.018603896            6 
 2930000   0.78700624    -7.968394    663.29451  0.018865032  0.018597665            2 
 2931000   0.77142121   -8.0063047    661.93662  0.018819988  0.018591422            3 
 2932000   0.79206475   -8.0062777    662.58754   0.01883207   0.01858515            2 
 2933000   0.79718911   -8.0102066    661.59965  0.018797581  0.018578882            3 
 2934000    0.7917697   -8.0037311    662.61495  0.018820011  0.018572625            4 
 2935000   0.80441088   -7.9781956    662.91717   0.01882218  0.018566372            3 
 2936000   0.79107851   -7.9812788    661.83352  0.018785011  0.018560066            3 
 2937000   0.77341269   -8.0084371    660.93434  0.018753102  0.018553773            2 
 2938000   0.79287123   -7.9979315     662.1568  0.018781393  0.018547494            3 
 2939000   0.77609838   -8.0060417    661.13471  0.018746022  0.018541227            1 
 2940000   0.80497238   -8.0113044    660.37144  0.018718011  0.018534939            2 
 2941000   0.77891047   -8.0312373    661.09362   0.01873211  0.018528637            1 
 2942000   0.78109012   -8.0176948    660.47391  0.018708189  0.018522334            1 
 2943000   0.77750444   -7.9772605    662.50634  0.018759382  0.018516076            1 
 2944000   0.76654806    -8.013591    662.57719  0.018755016  0.018509807            6 
 2945000    0.7856555   -7.9873015    662.31695  0.018741283  0.018503536            3 
 2946000    0.7858728   -7.9844262    662.72931  0.018746586  0.018497291            2 
 2947000   0.78466287   -8.0065209     661.5051  0.018705608  0.018491046            2 
 2948000   0.77073599   -8.0006872      662.681  0.018732502  0.018484802            2 
 2949000   0.78201314   -7.9820505    663.84924  0.018759163  0.018478575            3 
 2950000   0.78016392   -7.9797017    663.31492   0.01873771  0.018472333            1 
 2951000   0.78920284   -7.9895286    664.59593  0.018767534  0.018466094            3 
 2952000   0.77940864   -8.0058314    662.66445  0.018706652  0.018459849            7 
 2953000   0.78745744   -8.0280566    662.40056   0.01869287  0.018453608            2 
 2954000   0.78655011   -8.0055308    662.73479  0.018695971  0.018447374            3 
 2955000   0.77993686   -8.0057346    661.71491  0.018660883  0.018441121            2 
 2956000   0.77548455   -7.9803499    664.03732  0.018720042  0.018434866            2 
 2957000   0.76471763   -8.0158132    662.94715  0.018682988  0.018428641            2 
 2958000   0.77744505   -7.9939619    663.04981  0.018679564  0.018422415            4 
 2959000   0.78151325   -7.9988325    662.66321  0.018662364  0.018416154            5 
 2960000   0.77231392   -7.9799384    664.22029  0.018699895  0.018409909            2 
 2961000   0.76415724   -8.0047827    662.59964  0.018647969  0.018403708            3 
 2962000   0.79712504   -8.0040381     663.7185  0.018673152  0.018397492            1 
 2963000   0.78705224   -7.9878055    663.12021  0.018650023  0.018391288            5 
 2964000   0.78130137   -8.0179985    663.69822  0.018659981  0.018385074            1 
 2965000     0.785005   -8.0216258    662.98909  0.018633758  0.018378853            1 
 2966000   0.78423344    -7.994763     663.5083  0.018642063   0.01837263            1 
 2967000   0.77407012   -8.0108792    662.17743    0.0185984  0.018366428            4 
 2968000   0.77900518   -8.0325989    663.97281  0.018642543  0.018360228            3 
 2969000   0.77434007   -8.0080985    663.27748  0.018616748  0.018353978            2 
 2970000   0.77213643   -8.0245249    662.72771  0.018595054  0.018347747            2 
 2971000   0.78757804   -8.0151114    662.63815  0.018586283  0.018341541            2 
 2972000   0.76519401   -8.0277403    662.22034  0.018568314  0.018335324            2 
 2973000   0.76513447   -8.0325499     662.2957  0.018564181  0.018329098            1 
 2974000   0.78795627   -8.0101581    662.71372  0.018569651  0.018322876            1 
 2975000   0.75710186     -7.99823    662.38317   0.01855415  0.018316683            4 
 2976000   0.78511544   -8.0165325    663.18151  0.018570271  0.018310494            2 
 2977000    0.7760329   -8.0137155    663.03306  0.018559877  0.018304288            1 
 2978000    0.7564599   -8.0237944    663.71983  0.018572863  0.018298102            1 
 2979000   0.78310261   -8.0185907     664.0683  0.018576376  0.018291897            2 
 2980000   0.76226443   -8.0056784    664.70869  0.018588051  0.018285701            2 
 2981000   0.77581039   -7.9966063    662.18185  0.018511178  0.018279516            4 
 2982000   0.77445934   -8.0231508    662.22613  0.018506208  0.018273311            2 
 2983000   0.77713194   -7.9885286    665.83528  0.018600829  0.018267136            2 
 2984000   0.76883414   -8.0207589    664.90468  0.018568607  0.018260986            2 
 2985000   0.76841106   -7.9958701    663.17558  0.018514114  0.018254831            1 
 2986000   0.78898125   -7.9769214    664.16197  0.018535442  0.018248688            3 
 2987000   0.78218925   -8.0050483    664.26741  0.018532179  0.018242531            1 
 2988000   0.76937104   -8.0266583    663.36126  0.018500705  0.018236347            3 
 2989000     0.757724   -8.0014329    663.97654  0.018511669  0.018230163            4 
 2990000   0.77770393   -7.9977833    663.06417  0.018480049  0.018223999            4 
 2991000   0.76485692   -8.0164593    664.14441  0.018503968  0.018217845            2 
 2992000   0.78281147   -7.9895875    664.13196  0.018497437  0.018211707            5 
 2993000   0.76664956   -7.9929311     664.5223  0.018502124   0.01820557            3 
 2994000   0.78295346    -8.027454    663.71991  0.018473611  0.018199403            1 
 2995000   0.76549527   -7.9970798    664.39873  0.018486331  0.018193253            4 
 2996000   0.77131975   -8.0013633    664.34854  0.018478765    0.0181871            2 
 2997000   0.76122984   -7.9994458    663.97433  0.018462194  0.018180932            5 
 2998000   0.76979884   -8.0167866    664.59037  0.018473159  0.018174759            5 
 2999000   0.78164893   -8.0073123    664.51959  0.018465033  0.018168612            2 
 3000000   0.77444959   -8.0177176    663.61953  0.018433876  0.018162475            2 
 3001000   0.77510238    -8.018941      662.471   0.01839584  0.018156344            2 
 3002000   0.79308138   -8.0354935    663.67767  0.018423209  0.018150186            2 
 3003000   0.77482075    -8.048775    662.56986  0.018386332  0.018144023            4 
 3004000   0.78177022   -8.0501396    663.90617  0.018417282  0.018137868            2 
 3005000   0.77469708   -8.0308088    664.01075  0.018414053  0.018131696            1 
 3006000   0.76817016   -8.0090341    664.66462  0.018426054  0.018125539            2 
 3007000    0.7825007   -7.9913938    665.89482  0.018454019  0.018119405            2 
 3008000   0.76138153    -8.027816    663.16663  0.018372303  0.018113269            6 
 3009000   0.77017482    -8.030451    663.40947  0.018372922   0.01810715            3 
 3010000   0.77740464   -8.0562417    664.60629  0.018399953  0.018100994            2 
 3011000   0.76094837   -8.0324174    665.73521  0.018425086  0.018094859            1 
 3012000   0.78429444   -8.0594266    664.73462  0.018391285  0.018088724            2 
 3013000   0.76917664   -8.0433012     663.5002   0.01835104  0.018082587            2 
 3014000   0.77502234   -8.0421673     664.7432  0.018379319  0.018076458            1 
 3015000   0.78492884   -8.0259204    664.41427  0.018364131  0.018070352            1 
 3016000   0.78186312   -8.0308265    664.18785  0.018351786  0.018064263            2 
 3017000   0.75049623   -8.0265835    665.62152  0.018385303  0.018058178            4 
 3018000   0.77287621   -8.0200606    666.03485  0.018390624  0.018052068            1 
 3019000   0.75419074   -8.0794751    665.54743  0.018371078  0.018045931            2 
 3020000   0.76647741    -8.042829     664.8269  0.018345113  0.018039819            3 
 3021000   0.76683039   -8.0334418    665.79522  0.018365751  0.018033728            1 
 3022000   0.77008891   -8.0102869    664.15471  0.018314436  0.018027658            1 
 3023000   0.76743044   -8.0296672    665.86516  0.018355529  0.018021596            1 
 3024000   0.79738826   -8.0197884    665.64436  0.018343374   0.01801553            1 
 3025000   0.78669093   -8.0374423    664.70747    0.0183115  0.018009468            1 
 3026000   0.76018243    -8.057359    664.13636  0.018289721   0.01800338            2 
 3027000   0.78474879   -8.0056132     666.7108  0.018354553  0.017997318            3 
 3028000   0.76912987   -8.0075918    664.88036  0.018298117  0.017991269            3 
 3029000   0.76154648   -8.0219588    666.59013  0.018339114  0.017985207            4 
 3030000   0.77355677   -8.0009155    666.65712  0.018334904  0.017979174            2 
 3031000   0.75481791   -8.0018505    666.66231  0.018328998  0.017973167            1 
 3032000   0.77857596   -8.0026849    668.09775  0.018362405  0.017967148            2 
 3033000   0.76466682   -8.0082152    667.37648  0.018336534  0.017961168            1 
 3034000   0.77169599   -8.0161363     666.2618  0.018299874  0.017955182            3 
 3035000   0.75224562   -8.0376152    666.53997  0.018301482  0.017949153            4 
 3036000   0.76956525   -8.0336672    666.39396  0.018291446  0.017943117            1 
 3037000   0.75694897   -8.0445083    665.58464  0.018263216  0.017937079            1 
 3038000   0.76486406     -8.02527    665.11236   0.01824425  0.017931046            1 
 3039000   0.76418033   -8.0254484    666.75154  0.018283195  0.017925017            1 
 3040000   0.77214647   -8.0300919    665.76679  0.018250186  0.017918984            1 
 3041000   0.76850525   -8.0513923    665.16419  0.018227672  0.017912938            5 
 3042000    0.7732813   -8.0267093    666.02743  0.018245327  0.017906907            2 
 3043000   0.76304972   -8.0461975     666.8639  0.018262239  0.017900871            6 
 3044000   0.76214316   -8.0294155    665.53882  0.018219963  0.017894837            2 
 3045000   0.77686597    -8.040834    666.67528  0.018245081  0.017888828            4 
 3046000     0.760852   -8.0161233    665.36231  0.018203171  0.017882846            3 
 3047000   0.77364275   -8.0257235     666.2378  0.018221141  0.017876847            3 
 3048000   0.76281514   -7.9996016    667.01807  0.018236496  0.017870866            1 
 3049000   0.76818805   -8.0375741    665.38691  0.018185933  0.017864893            3 
 3050000   0.76921147    -8.021781    667.28945  0.018231952  0.017858916            1 
 3051000   0.75616899   -8.0318758    667.44754  0.018230294  0.017852952            2 
 3052000    0.7759363   -7.9964354    667.34262  0.018221456  0.017846995            2 
 3053000   0.76592527   -8.0353912    667.47288  0.018219043  0.017841053            2 
 3054000   0.76277426   -8.0343494    666.56976  0.018188435  0.017835095            2 
 3055000   0.74222399   -8.0649346    668.79145  0.018243084  0.017829121            4 
 3056000   0.77166315   -8.0249243    668.31095  0.018224011  0.017823153            2 
 3057000   0.77191551   -8.0076895    668.61216  0.018226261  0.017817214            1 
 3058000   0.77082468   -8.0132624    667.98508  0.018203212  0.017811263            2 
 3059000   0.77345007   -8.0009736    668.01256   0.01819801  0.017805299            1 
 3060000   0.76864115   -8.0429577    666.85338  0.018160495  0.017799331            2 
 3061000   0.77249573   -8.0472405    666.94512   0.01815706  0.017793337            3 
 3062000    0.7519848   -8.0096946    666.39337  0.018136114   0.01778733            2 
 3063000   0.74771682   -8.0242765     666.3394  0.018128725  0.017781327            1 
 3064000   0.75973611   -8.0634763    667.37971  0.018151102  0.017775348            2 
 3065000   0.76426848   -8.0083517    666.76841  0.018128559  0.017769367            1 
 3066000   0.76034515   -8.0307067     666.6971  0.018120708  0.017763398            2 
 3067000    0.7459685   -8.0287841    666.15556  0.018100086  0.017757409            3 
 3068000   0.75698923   -8.0534264    667.24528  0.018123785  0.017751397            3 
 3069000   0.76703183   -8.0602212    667.28933  0.018119076  0.017745391            1 
 3070000   0.76495933   -8.0238996    666.41235  0.018089369  0.017739403            1 
 3071000    0.7516061   -8.0345041    667.20842   0.01810508  0.017733415            2 
 3072000   0.73760134   -8.0756311    667.25712  0.018100508  0.017727425            1 
 3073000   0.76157064   -8.0471262    664.75205  0.018026685   0.01772143            3 
 3074000   0.76109977   -8.0238857    667.53545  0.018096277   0.01771545            5 
 3075000   0.76200517   -8.0582235    665.26577  0.018028883  0.017709476            1 
 3076000   0.77025941   -8.0426612    667.94928  0.018095722  0.017703491            1 
 3077000   0.76441265   -8.0709467    666.54647  0.018051849   0.01769752            2 
 3078000   0.76653297   -8.0555343    666.53728  0.018045735  0.017691552            3 
 3079000    0.7479482     -8.06444    665.54199  0.018012937  0.017685568            2 
 3080000    0.7747241   -8.0459963    666.46353  0.018032022  0.017679591            1 
 3081000    0.7450127   -8.0418074    667.11074  0.018043675  0.017673623            2 
 3082000   0.75132568   -8.0520854    667.17949  0.018039679  0.017667679            1 
 3083000   0.74787868   -8.0468833    667.23634  0.018035364  0.017661721            3 
 3084000   0.74890688    -8.028797    669.26348  0.018084292  0.017655765            2 
 3085000   0.75793203   -8.0582392    667.09906  0.018019964  0.017649795            3 
 3086000   0.76671598     -8.06159    666.79288  0.018005857  0.017643825            3 
 3087000   0.75602408   -8.0568603    665.90761  0.017976126  0.017637812            2 
 3088000   0.75897748   -8.0711634     666.4734  0.017985573  0.017631793            3 
 3089000   0.75385024   -8.0987802    667.06548  0.017995724  0.017625779            2 
 3090000   0.75222371   -8.0700425     667.6869  0.018006659  0.017619772            2 
 3091000   0.75951602   -8.0542037    666.46788  0.017967968  0.017613757            1 
 3092000   0.75477227   -8.0965736    666.27171   0.01795687   0.01760776            2 
 3093000   0.74277971   -8.0927785    666.21764  0.017949608  0.017601776            3 
 3094000   0.74422813   -8.0912453    666.64914  0.017955428  0.017595788            1 
 3095000   0.75209844   -8.0963587    666.68074  0.017950478  0.017589818            3 
 3096000   0.73636441    -8.069903    666.91606  0.017951014  0.017583844            2 
 3097000   0.76432414   -8.0329642     667.1366  0.017951152  0.017577875            1 
 3098000   0.75302365   -8.0410813    668.30377  0.017976753  0.017571943            2 
 3099000   0.74772385   -8.0699373    667.51631  0.017949777  0.017566018            2 
 3100000   0.77011798   -8.0638427    666.94481  0.017928624  0.017560066            1 
 3101000   0.75655424   -8.0212122    667.67721  0.017942524  0.017554124            5 
 3102000     0.763969   -8.0494996    667.72419  0.017938002  0.017548185            2 
 3103000   0.75021921   -8.0559753    668.49669  0.017952967  0.017542244            3 
 3104000   0.76328444   -8.0496013    668.86648  0.017957111  0.017536329            1 
 3105000    0.7549227   -8.0618805    667.16746  0.017905729  0.017530393            4 
 3106000    0.7679251   -8.0912236    668.40055  0.017933048  0.017524472            5 
 3107000   0.76287559   -8.0872482    665.91834    0.0178607  0.017518544            1 
 3108000   0.76082059   -8.0262638    668.21997  0.017916666  0.017512626            3 
 3109000   0.76441712   -8.0581616    667.22179  0.017884148  0.017506726            1 
 3110000   0.74016718   -8.0274466    668.86574  0.017922447  0.017500806            2 
 3111000   0.75402595   -8.0960308    666.95401  0.017865478  0.017494884            1 
 3112000   0.76531482   -8.0766222    667.34136  0.017870109  0.017488971            4 
 3113000   0.75168457   -8.0662996    668.02166   0.01788258  0.017483053            2 
 3114000   0.74315397   -8.0655819    668.21866  0.017882109  0.017477134            4 
 3115000   0.75557121   -8.0558309    668.08763  0.017872863  0.017471205            3 
 3116000   0.76377531    -8.072645     668.0733  0.017866744  0.017465269            1 
 3117000   0.75636772   -8.0919056    666.96735  0.017831444  0.017459346            2 
 3118000   0.75582626   -8.0727517    667.88361  0.017850214  0.017453433            3 
 3119000   0.76926056   -8.0949472     666.7212  0.017813434  0.017447496            4 
 3120000   0.73957689   -8.0967251    665.80492  0.017783251  0.017441568            2 
 3121000   0.76199595    -8.094221    667.30623  0.017817639  0.017435615            2 
 3122000   0.74784573   -8.0618132    667.34163  0.017812877  0.017429681            2 
 3123000   0.75874856   -8.0962472    665.77326  0.017765323   0.01742374            5 
 3124000   0.75628174   -8.0932649    668.04909  0.017820345  0.017417781            2 
 3125000   0.75799275   -8.1035931    667.77162  0.017807243  0.017411823            3 
 3126000    0.7466984   -8.0839748    667.09661  0.017783552  0.017405866            1 
 3127000   0.76224793   -8.0676789    667.70216  0.017794003   0.01739992            2 
 3128000   0.75500694   -8.0839357    667.08557  0.017771887   0.01739398            3 
 3129000    0.7515194   -8.0796048    666.12471  0.017740618   0.01738804            1 
 3130000   0.74124176   -8.0678806    667.59957  0.017774216  0.017382097            2 
 3131000    0.7580891   -8.0844557    667.27449  0.017759887  0.017376148            3 
 3132000   0.75441481   -8.0668658     666.5188   0.01773411  0.017370196            2 
 3133000   0.74681647   -8.0980586    666.36999  0.017724492  0.017364253            2 
 3134000   0.74764943   -8.1091333    666.27073  0.017716197   0.01735831            1 
 3135000   0.75729163   -8.0946553    667.42732   0.01774129  0.017352365            1 
 3136000   0.76268552   -8.0447147    666.53115  0.017711818  0.017346428            2 
 3137000   0.76243061   -8.0717968    668.75038  0.017765125  0.017340503            1 
 3138000   0.75223507   -8.0608609    668.12967   0.01774298  0.017334564            1 
 3139000   0.77008955    -8.048169    667.24845  0.017713934  0.017328641            3 
 3140000   0.72415835   -8.1085351    667.68052  0.017719759  0.017322717            2 
 3141000   0.74861003    -8.094051    667.25225  0.017702755  0.017316751            5 
 3142000    0.7518035    -8.096262    665.86885   0.01766043   0.01731082            4 
 3143000   0.74916632   -8.0943829    667.60441  0.017700827  0.017304889            3 
 3144000   0.74980898   -8.0796039    668.33161  0.017714472  0.017298977            3 
 3145000   0.75486875    -8.099204    667.98602  0.017699683  0.017293064            1 
 3146000   0.74354741   -8.0776446    665.75807  0.017635041  0.017287119            1 
 3147000   0.74899095   -8.1100975    666.84685  0.017658268  0.017281187            3 
 3148000   0.75537107    -8.105338     666.6325  0.017646985  0.017275248            2 
 3149000    0.7572354   -8.0865613    667.32289  0.017659651  0.017269321            1 
 3150000   0.75140063   -8.0599296    668.32886  0.017680658  0.017263405            1 
 3151000   0.74755401   -8.1098436    666.38564  0.017623655  0.017257477            3 
 3152000   0.74368689    -8.116619     666.4193  0.017618954  0.017251567            3 
 3153000   0.76003749   -8.1021626     667.8161  0.017650283  0.017245643            3 
 3154000   0.73448022   -8.0944536    665.38645  0.017580492  0.017239732            1 
 3155000    0.7575711    -8.078033    667.04421  0.017618706  0.017233818            3 
 3156000   0.74139126   -8.1041245    667.71061  0.017630719  0.017227892            2 
 3157000   0.75371414   -8.0955607    666.46737  0.017592318  0.017221986            2 
 3158000   0.73998724   -8.1027859    666.25692  0.017581194  0.017216065            3 
 3159000   0.75205671   -8.0893465    666.81888  0.017590453   0.01721015            2 
 3160000   0.75193486   -8.0805998     668.4808  0.017628713  0.017204239            2 
 3161000   0.74362407   -8.0824862    667.86486  0.017606898  0.017198333            1 
 3162000   0.75221268    -8.056478    668.00772  0.017605095  0.017192451            1 
 3163000   0.74752967   -8.0810066    666.86278  0.017569364   0.01718656            1 
 3164000   0.74441481   -8.0795384    668.77688  0.017614225  0.017180681            2 
 3165000   0.75287466   -8.0804056    668.85141  0.017610622  0.017174814            3 
 3166000   0.75222304   -8.0881984    669.54452  0.017623303  0.017168953            2 
 3167000   0.75848624   -8.0662769    669.15432  0.017607471  0.017163091            2 
 3168000   0.73199492   -8.0773077    667.44217  0.017556875  0.017157232            2 
 3169000   0.76170876   -8.0836969    666.58703  0.017528848  0.017151377            5 
 3170000   0.73389252   -8.0791476    668.60163  0.017576278  0.017145517            3 
 3171000   0.74135341   -8.0636231    667.48666  0.017541434  0.017139691            4 
 3172000   0.73438662   -8.0866096    668.04691  0.017550623  0.017133851            3 
 3173000   0.73484796   -8.1067462    667.66599  0.017535087  0.017128015            2 
 3174000   0.75601622   -8.0979058    668.49695   0.01755138  0.017122181            3 
 3175000   0.74563748   -8.0689205    669.06004  0.017560631  0.017116334            4 
 3176000   0.75051905   -8.0890452    668.82079  0.017548824  0.017110515            1 
 3177000   0.75092281   -8.0643341    668.22642   0.01752771  0.017104687            1 
 3178000   0.74599869   -8.1005611    667.79051  0.017510764  0.017098866            2 
 3179000   0.75132103   -8.0946279    668.85541  0.017533171  0.017093043            1 
 3180000   0.74534542   -8.1320761     667.7447  0.017498551  0.017087197            2 
 3181000   0.72640268   -8.1194036    669.24058  0.017532238  0.017081366            1 
 3182000   0.73877712   -8.0986559    668.30459  0.017502215  0.017075509            1 
 3183000   0.72481034   -8.0785384    668.37879  0.017498659  0.017069674            1 
 3184000   0.74102695   -8.0912595    668.41714  0.017494167  0.017063839            4 
 3185000    0.7506938   -8.1063161    668.51886  0.017491336  0.017057996            3 
 3186000   0.73858342   -8.1210116    666.85808  0.017442406  0.017052169            1 
 3187000   0.74553086   -8.0960898    668.86868  0.017489506  0.017046333            1 
 3188000   0.74991801    -8.074042    669.15808  0.017491585  0.017040515            3 
 3189000   0.74661281   -8.1167443    668.07841  0.017457887  0.017034716            2 
 3190000   0.74588637   -8.0816548    669.16878  0.017480898  0.017028913            3 
 3191000   0.74743074   -8.1035655    669.10117  0.017473654  0.017023088            1 
 3192000   0.74061121   -8.0973637    668.12412  0.017442672  0.017017278            2 
 3193000   0.74156439   -8.1180033    667.95768  0.017432866  0.017011454            5 
 3194000   0.73955453   -8.1076371    668.73156  0.017447599  0.017005628            3 
 3195000   0.73842922   -8.0996397    668.71746   0.01744177  0.016999819            2 
 3196000   0.74166462   -8.1049127    670.23943  0.017475997  0.016994013            1 
 3197000   0.74238503   -8.1183691    668.43784   0.01742357  0.016988207            5 
 3198000   0.74388729   -8.1007243    669.12421  0.017436007  0.016982402            1 
 3199000   0.74362017   -8.1130257      669.705  0.017445686  0.016976597            2 
 3200000   0.74433621   -8.1472395    668.72046  0.017414595   0.01697079            2 
 3201000   0.74605456   -8.1255822    668.21556  0.017396011  0.016964983            2 
 3202000   0.74407045    -8.140179    668.16028  0.017389139  0.016959175            4 
 3203000   0.74558924   -8.0995223     667.1987  0.017358692   0.01695335            2 
 3204000   0.73408917   -8.1275907     668.2324   0.01738016  0.016947527            4 
 3205000   0.72729604   -8.1343858    667.72431  0.017361526  0.016941724            2 
 3206000   0.73556516   -8.1046737    668.62599  0.017379548  0.016935923            3 
 3207000   0.75179816   -8.1109217    668.79982  0.017378646  0.016930124            2 
 3208000   0.73267655   -8.0910571    669.37908  0.017388276  0.016924341            1 
 3209000   0.73131912   -8.1121755    668.19143  0.017352016  0.016918582            5 
 3210000    0.7516222   -8.1142661    668.47137  0.017353878  0.016912816            1 
 3211000   0.74111082    -8.131919    669.34725  0.017371204  0.016907051            2 
 3212000   0.74023983   -8.1172723    668.98661   0.01735644  0.016901288            1 
 3213000   0.74538307   -8.1327553    669.52733  0.017365062   0.01689552            1 
 3214000   0.73559841   -8.0937562    671.43307  0.017409072  0.016889767            1 
 3215000   0.75570182    -8.108355    668.51001   0.01732789  0.016884003            3 
 3216000   0.73902205   -8.1003738    669.72614  0.017354015  0.016878249            3 
 3217000   0.72659717   -8.0876446     669.5153  0.017343159    0.0168725            2 
 3218000   0.73526367    -8.102961    668.64931  0.017315344  0.016866768            1 
 3219000    0.7366221   -8.0936815    669.42437  0.017330029  0.016861025            3 
 3220000   0.74046308   -8.0847937    669.57509  0.017328548  0.016855284            1 
 3221000   0.74106001   -8.1104706    668.89158  0.017305484  0.016849556            5 
 3222000   0.71342366   -8.0973083    667.59657  0.017266619  0.016843794            2 
 3223000   0.74250238   -8.1074654    668.92764  0.017295678  0.016838035            1 
 3224000   0.73523397    -8.086161    669.79332  0.017312689   0.01683229            3 
 3225000    0.7373059   -8.1142845    669.21144  0.017292285  0.016826567            1 
 3226000   0.74598462   -8.0926885    667.82251  0.017251046  0.016820842            2 
 3227000   0.71870688   -8.1310394     670.3189  0.017310167  0.016815079            2 
 3228000   0.73977304   -8.1169254    670.16769  0.017300901  0.016809317            3 
 3229000   0.73602187   -8.1189002    668.18372  0.017244341  0.016803571            4 
 3230000   0.74485172   -8.1124245    668.76518  0.017254004  0.016797839            4 
 3231000   0.72664328   -8.1017474    669.00728  0.017254908    0.0167921            2 
 3232000   0.73165801   -8.1227251     667.4385   0.01720912  0.016786363            3 
 3233000    0.7359292   -8.1228711    668.09965  0.017220839  0.016780625            3 
 3234000   0.73971092   -8.1014655    669.18669  0.017243524  0.016774883            3 
 3235000   0.73494703   -8.1268833    668.56839  0.017222267  0.016769149            3 
 3236000   0.73386155   -8.1049382    669.62712  0.017244209  0.016763424            2 
 3237000    0.7310236   -8.1254128    668.84138  0.017218654  0.016757688            3 
 3238000   0.72034718   -8.1141781     669.1794  0.017222035  0.016751948            1 
 3239000   0.74672855   -8.1127166    668.51188  0.017199544  0.016746222            2 
 3240000   0.71862702   -8.1349446    669.73078  0.017225586  0.016740503            1 
 3241000   0.73392947   -8.1191501    671.38022  0.017262682  0.016734808            3 
 3242000   0.73713706   -8.0996659    670.08711  0.017224119  0.016729095            1 
 3243000   0.73539889   -8.1105395     668.8112  0.017186021  0.016723368            3 
 3244000   0.73707223      -8.1391    670.18992   0.01721614  0.016717642            2 
 3245000   0.73422568   -8.1247936     668.0513  0.017155914   0.01671191            3 
 3246000   0.74434575   -8.1389905    669.01898  0.017175472  0.016706183            3 
 3247000   0.72731949    -8.133626    669.37285  0.017179264  0.016700481            2 
 3248000   0.72945226   -8.1259355    670.21482  0.017195577  0.016694761            1 
 3249000   0.74947889   -8.1198811    670.62702  0.017200857  0.016689043            2 
 3250000   0.72212983   -8.1184476    668.97977  0.017153327  0.016683333            5 
 3251000   0.75569045    -8.093175    669.63832  0.017164932  0.016677628            2 
 3252000   0.73725227   -8.1216551    669.07449  0.017145205   0.01667192            2 
 3253000   0.71710625   -8.1049558    670.91175     0.017187  0.016666214            2 
 3254000   0.73286249   -8.0984328    670.50676  0.017171347  0.016660541            2 
 3255000   0.73024816   -8.1200906    667.64092  0.017092702  0.016654863            2 
 3256000   0.73009607   -8.1301445    670.72061  0.017166273  0.016649173            3 
 3257000   0.72983432   -8.1374002    669.78076  0.017136955  0.016643495            3 
 3258000   0.73888605   -8.0926561    669.44308  0.017123058    0.0166378            1 
 3259000   0.72491115   -8.1113485      670.416  0.017142682  0.016632145            2 
 3260000   0.74719114   -8.1252903    670.20485  0.017132026  0.016626475            2 
 3261000   0.74593265   -8.1136111    670.27706  0.017128618  0.016620818            2 
 3262000   0.72056857   -8.1123948    670.82992   0.01713749   0.01661517            3 
 3263000   0.72470866   -8.0902608    672.34804  0.017171009  0.016609532            2 
 3264000   0.72065281   -8.1152805    669.76338   0.01709976  0.016603891            2 
 3265000   0.72973247   -8.1041301    670.23012  0.017106435  0.016598238            3 
 3266000   0.73492746   -8.0998704    670.24631   0.01710161  0.016592597            1 
 3267000   0.72955044   -8.1041146    669.79377  0.017084833  0.016586947            1 
 3268000   0.75419645   -8.1427142    670.13148  0.017088216  0.016581291            2 
 3269000    0.7465796     -8.14749    671.06952  0.017106901  0.016575625            5 
 3270000   0.73266622   -8.1284915    669.10579  0.017051626  0.016569961            3 
 3271000   0.70821153   -8.1479889    669.48463  0.017056064  0.016564299            2 
 3272000   0.73791877   -8.1553893    669.80053  0.017058897  0.016558633            1 
 3273000   0.73103601   -8.1339163     670.2405  0.017064887   0.01655296            2 
 3274000   0.72770862   -8.1509018    668.98677  0.017027763  0.016547272            3 
 3275000   0.70308265    -8.132015    670.68691  0.017065825  0.016541589            1 
 3276000    0.7196884     -8.13582    669.03846  0.017018683  0.016535908            2 
 3277000   0.73781141   -8.1271794    669.96228  0.017036982  0.016530227            1 
 3278000   0.73279054   -8.1499214     669.9994  0.017032728  0.016524548            3 
 3279000   0.71271273   -8.1328866    668.40463  0.016987004  0.016518877            4 
 3280000   0.73264105   -8.1065357    668.89862  0.016994375  0.016513202            3 
 3281000   0.71998507   -8.1402673    670.03714  0.017018113  0.016507545            4 
 3282000   0.72236071   -8.1425411    669.56055  0.017000827   0.01650189            4 
 3283000   0.72399354   -8.1576396    669.47926  0.016993585  0.016496221            2 
 3284000   0.73072612   -8.1554867    667.50775  0.016938382  0.016490525            5 
 3285000   0.71976377   -8.1768894     669.5286   0.01698449   0.01648484            4 
 3286000   0.72855857     -8.17281    668.09958  0.016943081  0.016479168            3 
 3287000    0.7387515   -8.1697258    669.67132  0.016977774  0.016473507            2 
 3288000    0.7180423   -8.1361846    670.15096  0.016984767  0.016467846            2 
 3289000   0.72859232   -8.1400086    670.23689   0.01698178  0.016462195            2 
 3290000   0.73133577   -8.1374507    669.25732  0.016951806  0.016456564            2 
 3291000   0.73132065   -8.1434556    670.86722  0.016987421  0.016450929            2 
 3292000   0.72513776   -8.1176729    671.62525  0.017001449  0.016445298            3 
 3293000   0.71168533   -8.1404154    669.90765   0.01695282  0.016439673            3 
 3294000   0.70727063   -8.1249529    670.17113  0.016954339  0.016434056            3 
 3295000   0.71601265   -8.1437538    670.01563  0.016945261  0.016428436            1 
 3296000   0.74386575   -8.1074622    671.73962  0.016983708  0.016422809            4 
 3297000   0.71488197   -8.1200346    671.92057   0.01698313  0.016417201            3 
 3298000   0.73602186   -8.1638121    669.40989  0.016914541  0.016411581            3 
 3299000   0.72979578   -8.1339776     669.8522  0.016920587  0.016405958            6 
 3300000   0.71342109   -8.1273374    671.15906  0.016948461  0.016400344            2 
 3301000   0.73013212   -8.1568629    670.06873  0.016915801  0.016394737            2 
 3302000   0.69942409   -8.1382645    670.84593  0.016930293  0.016389129            2 
 3303000   0.72003279   -8.1504798    670.96903  0.016928273  0.016383508            3 
 3304000    0.7152893   -8.1370288    671.39865  0.016933985  0.016377871            1 
 3305000   0.73099534    -8.156824    670.12035   0.01689663  0.016372222            4 
 3306000   0.71396677   -8.1440875    671.06182   0.01691525  0.016366574            3 
 3307000   0.70102581    -8.163416    669.22488  0.016863846  0.016360931            3 
 3308000   0.70707747   -8.1783193    670.02889  0.016879003  0.016355294            2 
 3309000   0.73139424   -8.1519184    668.46853  0.016834606  0.016349661            1 
 3310000   0.71528957   -8.1625371    670.46196  0.016879707  0.016344018            1 
 3311000   0.72468563   -8.1736424    669.95439  0.016861834  0.016338373            2 
 3312000   0.72151652   -8.1732785    670.19816  0.016862876  0.016332745            2 
 3313000     0.724247    -8.139458     669.9249  0.016850913  0.016327117            6 
 3314000   0.73222367   -8.1500595    670.64793  0.016864009  0.016321494            4 
 3315000   0.72489769   -8.1609476    669.63162  0.016833374  0.016315891            3 
 3316000   0.71247863   -8.1499496    669.99285  0.016837376  0.016310297            2 
 3317000    0.7215054    -8.132229    669.54014  0.016820926  0.016304705            4 
 3318000   0.71773063   -8.1390358    670.61571   0.01684287    0.0162991            2 
 3319000   0.71907755   -8.1550364    669.84385  0.016818416  0.016293486            3 
 3320000   0.72535618   -8.1645875    670.51321  0.016830151   0.01628787            2 
 3321000   0.72636967   -8.1518178    669.24845  0.016793347  0.016282256            2 
 3322000   0.70383218   -8.1251565     670.8806  0.016829235  0.016276645            1 
 3323000   0.70037507   -8.1526039    670.28675  0.016809277  0.016271038            1 
 3324000    0.7180372   -8.1215689    670.81396  0.016817438  0.016265422            4 
 3325000   0.72040099    -8.172907    669.84814  0.016788174  0.016259794            1 
 3326000   0.71098043   -8.1367521    669.03995  0.016762877  0.016254164            2 
 3327000   0.73556881   -8.1657611    670.20213  0.016786948  0.016248532            2 
 3328000   0.73354922   -8.1404547    669.73451  0.016770195  0.016242911            3 
 3329000   0.72969086   -8.1580263    670.22188  0.016777357  0.016237299            2 
 3330000   0.72654447   -8.1575918    669.09548  0.016744131  0.016231689            3 
 3331000   0.70987625   -8.1764645    669.13253  0.016740031  0.016226078            2 
 3332000    0.7232537    -8.155724    669.01244  0.016732004   0.01622047            3 
 3333000   0.71930665   -8.1529487    669.02183  0.016727219  0.016214863            4 
 3334000   0.72492491   -8.1427174    669.37986   0.01673115  0.016209248            2 
 3335000   0.72064726   -8.1705258    669.14877  0.016720359  0.016203656            2 
 3336000   0.70907093   -8.1367708      671.904  0.016784173   0.01619807            3 
 3337000   0.71397417    -8.158476    671.17351  0.016760901   0.01619249            1 
 3338000   0.72791852   -8.1360021    670.65093  0.016742833  0.016186925            2 
 3339000   0.71408045   -8.1764051    670.26943  0.016728298   0.01618133            2 
 3340000   0.70637381   -8.1640058    669.09317  0.016693941  0.016175732            1 
 3341000    0.7188745   -8.1795888    668.80406  0.016681733   0.01617014            1 
 3342000   0.70984992    -8.166853    670.22549  0.016712185   0.01616455            1 
 3343000   0.72964777   -8.1887418    668.77018  0.016670909  0.016158952            2 
 3344000   0.72201986   -8.1828088     668.8933  0.016668992  0.016153363            3 
 3345000   0.71598562   -8.1644963    669.30572  0.016674283  0.016147772            1 
 3346000   0.72625914   -8.1884064    670.06284  0.016688156  0.016142184            1 
 3347000   0.71470891   -8.1980172    669.59346  0.016671483   0.01613659            5 
 3348000    0.7239125   -8.1622576    668.77999  0.016646256  0.016130989            1 
 3349000   0.71479393   -8.1682512     669.8165  0.016667077  0.016125416            2 
 3350000   0.70981555   -8.1974743    668.59214  0.016631645  0.016119833            1 
 3351000   0.71853921    -8.184326    670.27589  0.016668554  0.016114262            3 
 3352000   0.70529915   -8.1775424     668.6072  0.016622096  0.016108684            1 
 3353000   0.72355362   -8.1701972    667.74997  0.016595834  0.016103107            2 
 3354000   0.72863811   -8.2187215    668.89436  0.016619319   0.01609752            2 
 3355000   0.71249321   -8.1950047    668.89388  0.016614354  0.016091923            1 
 3356000   0.71592914   -8.1928514    670.89159  0.016659008  0.016086341            3 
 3357000   0.72284701   -8.1992113    669.32272  0.016615101  0.016080748            3 
 3358000   0.71765672   -8.1585382    669.75031  0.016620764  0.016075163            2 
 3359000   0.70474792   -8.1993618    668.82979  0.016592979  0.016069599            1 
 3360000   0.71537784    -8.170507    670.70069  0.016634442  0.016064029            2 
 3361000   0.70993109   -8.1882598    670.73236  0.016630278  0.016058467            2 
 3362000   0.70211235   -8.1940525    670.43765  0.016618026  0.016052904            3 
 3363000    0.7141804   -8.1680916    670.39213  0.016611957  0.016047352            2 
 3364000   0.71669087   -8.1937418    670.06146  0.016598827  0.016041799            3 
 3365000   0.70467702   -8.1792703    670.58999  0.016606983  0.016036246            2 
 3366000   0.70937717   -8.1753533    669.91465   0.01658533  0.016030701            2 
 3367000   0.71653305   -8.1873419    670.65609  0.016598755   0.01602516            3 
 3368000   0.72349403   -8.1896285    669.74133  0.016571193  0.016019618            1 
 3369000     0.712042   -8.2012242    670.44203  0.016583606  0.016014096            1 
 3370000    0.6977339   -8.1934944    672.68778  0.016634218  0.016008566            2 
 3371000   0.70733944   -8.1892954    670.50442  0.016575309  0.016003027            3 
 3372000   0.71100663   -8.1947504    669.30997  0.016540875  0.015997489            2 
 3373000   0.70973201   -8.1886687    670.13663  0.016556395  0.015991951            2 
 3374000   0.70656413   -8.1746979    671.24256  0.016578803  0.015986442            1 
 3375000   0.73119755   -8.1851969    670.51671  0.016555968   0.01598093            2 
 3376000   0.71901236   -8.2044109     669.5105  0.016526227  0.015975419            2 
 3377000   0.71224198   -8.1730529    669.94598  0.016532079  0.015969916            5 
 3378000   0.70646556   -8.2166417    669.83196  0.016524372  0.015964412            4 
 3379000   0.72294325   -8.1905604    670.20107  0.016528585  0.015958898            1 
 3380000   0.69010826   -8.1871814    671.02546   0.01654402  0.015953388            4 
 3381000   0.70668457   -8.1897463    671.37418  0.016547722  0.015947887            2 
 3382000   0.71095568   -8.1959444     670.9461  0.016532281  0.015942397            3 
 3383000   0.70357102    -8.178328    670.62608  0.016519511  0.015936916            3 
 3384000   0.70306277   -8.1741343    669.87598  0.016496158  0.015931426            1 
 3385000   0.71419896   -8.2069846    669.54622  0.016483166   0.01592593            3 
 3386000   0.72502953   -8.1729889    670.58124  0.016503771  0.015920438            1 
 3387000    0.7132823   -8.1945269    670.71931  0.016502296  0.015914936            3 
 3388000   0.70028966   -8.2091519    671.10489  0.016506909  0.015909446            3 
 3389000   0.70787833   -8.1720123    669.75102  0.016468747   0.01590395            3 
 3390000   0.69991837   -8.2001327    671.15808  0.016498478  0.015898458            3 
 3391000   0.70076596   -8.1899026    671.08837  0.016491899   0.01589299            2 
 3392000   0.72494271   -8.1846876    671.63635    0.0165005  0.015887511            2 
 3393000   0.70686497   -8.1919206    671.02087   0.01648052  0.015882038            1 
 3394000   0.70855056   -8.1847172    671.06641  0.016476783  0.015876578            2 
 3395000   0.69345895   -8.2080664      669.477  0.016432916  0.015871112            2 
 3396000   0.71420824   -8.1875084    672.46189  0.016501322  0.015865646            1 
 3397000   0.69204691   -8.1959968     671.3459  0.016469088  0.015860181            1 
 3398000   0.70934044   -8.1610284    671.03602  0.016456642  0.015854742            1 
 3399000   0.71060888   -8.1924849    671.85471  0.016471872  0.015849306            1 
 3400000   0.70435499   -8.1851777    671.79729   0.01646562  0.015843868            4 
 3401000   0.71422854   -8.1972729    670.86997  0.016438057   0.01583842            1 
 3402000   0.69969709   -8.2137235    671.62257   0.01645166  0.015832964            2 
 3403000   0.70472238   -8.1734317    672.49532  0.016468198  0.015827517            3 
 3404000   0.70394138    -8.171216    670.87033  0.016423578  0.015822063            1 
 3405000   0.72092272   -8.1689156    671.09163  0.016424171  0.015816626            2 
 3406000   0.71372546   -8.2240307    668.99937  0.016368158  0.015811177            5 
 3407000   0.70922321   -8.1988267    669.67398  0.016379855  0.015805724            1 
 3408000   0.71123706    -8.224542    669.71867  0.016376141  0.015800261            2 
 3409000   0.69984216   -8.1969336    669.60343   0.01636852  0.015794786            3 
 3410000   0.69141396   -8.1913629     671.5003  0.016410076   0.01578933            1 
 3411000   0.71096817    -8.195472     669.9753  0.016368008  0.015783868            2 
 3412000   0.69134703   -8.2149548    670.75117   0.01638216  0.015778397            2 
 3413000   0.71411709   -8.2011166    670.28956   0.01636609  0.015772923            2 
 3414000   0.70985617   -8.2109469    671.47159  0.016390148  0.015767451            3 
 3415000   0.71956583   -8.2024816    670.89458  0.016371268  0.015761987            2 
 3416000   0.69834495   -8.2200827    670.01884  0.016345112  0.015756525            5 
 3417000   0.69026754   -8.2223986    670.82219  0.016359921  0.015751059            4 
 3418000   0.69883646    -8.209607    671.95319  0.016382709   0.01574561            2 
 3419000   0.70910869   -8.2153456    671.10483   0.01635724  0.015740163            1 
 3420000    0.7065656   -8.2361397    670.22436  0.016331003  0.015734701            4 
 3421000   0.68974432   -8.2092979    670.59536  0.016335267  0.015729248            1 
 3422000   0.69124727   -8.2105511    669.71156   0.01630897  0.015723793            2 
 3423000   0.69444138   -8.1920446    670.61195  0.016326126   0.01571834            1 
 3424000   0.70352312   -8.1870696    671.01377  0.016331137  0.015712908            2 
 3425000   0.70251247   -8.1868899    671.06449  0.016327603  0.015707475            1 
 3426000   0.71210018   -8.2215967    670.67673  0.016313405  0.015702024            2 
 3427000   0.69142285   -8.1985431    671.29891  0.016323775  0.015696572            4 
 3428000   0.70491101   -8.2176586    671.26795   0.01631826  0.015691129            2 
 3429000   0.70322915   -8.2149629    670.77581  0.016301541  0.015685698            2 
 3430000   0.69354521   -8.2204851    670.80509    0.0162975  0.015680275            3 
 3431000   0.69223638   -8.2194289    670.42583  0.016283538  0.015674839            8 
 3432000   0.71293047   -8.2326112    670.71046  0.016285705  0.015669407            2 
 3433000   0.70300409   -8.2244189    670.46185  0.016274926  0.015663972            4 
 3434000   0.69976414   -8.2165955    670.70878  0.016276179  0.015658542            3 
 3435000   0.69843515   -8.2329414    670.71418  0.016271571  0.015653108            1 
 3436000   0.68871809   -8.2143436     669.6099  0.016240054  0.015647655           12 
 3437000   0.69044436   -8.2084734    670.73265  0.016262551  0.015642219            1 
 3438000   0.70039073   -8.2154971    669.85731  0.016236603  0.015636779            4 
 3439000   0.68912324   -8.2192454    670.88415  0.016256764  0.015631339            2 
 3440000   0.69842997    -8.232536    669.16785  0.016210462  0.015625901            1 
 3441000   0.69005548   -8.2152504    669.21111  0.016206798  0.015620463            3 
 3442000    0.7184706   -8.2167363    668.79117  0.016191923  0.015615018            4 
 3443000   0.70350096   -8.2071379    670.32359   0.01622431  0.015609579            1 
 3444000   0.70434808   -8.2164326    668.65949  0.016179333  0.015604129            3 
 3445000   0.69969764   -8.2061124    669.43154  0.016193313  0.015598683            5 
 3446000   0.70278514   -8.2102371    671.66927  0.016242728  0.015593238            2 
 3447000   0.68936133   -8.2395601    669.65172   0.01618924  0.015587796            3 
 3448000   0.68620529   -8.2238448     670.8837   0.01621432  0.015582371            2 
 3449000   0.68665812   -8.2355618    669.28811  0.016171067  0.015576954            1 
 3450000   0.71010158   -8.2140563     670.6266   0.01619871  0.015571525            3 
 3451000   0.69525677   -8.2155874     670.0683  0.016180535  0.015566101            2 
 3452000   0.70334379   -8.2102947    670.08548  0.016176262  0.015560689            3 
 3453000    0.7058684   -8.2324401    671.61823  0.016208568  0.015555275            2 
 3454000   0.70482394   -8.2391595    670.47623  0.016176323  0.015549843            1 
 3455000   0.68671323   -8.2270369    669.63597  0.016151374  0.015544416            2 
 3456000   0.70772651   -8.2119681      670.508  0.016167728  0.015538999            1 
 3457000   0.70794016   -8.2285964    670.03757  0.016151711  0.015533578            3 
 3458000   0.70107038   -8.2304876    670.92515   0.01616843  0.015528169            6 
 3459000   0.68639272   -8.2360871    669.34286  0.016125635  0.015522758            3 
 3460000   0.70334229   -8.2424056    670.18506  0.016141259   0.01551734            1 
 3461000   0.69784408    -8.229396    670.65824  0.016147988  0.015511921            3 
 3462000    0.6935571   -8.2559506    670.59019  0.016141686  0.015506491            2 
 3463000   0.69133716   -8.2360263    669.49694  0.016110717  0.015501062            3 
 3464000   0.70131155   -8.2343677    669.02808  0.016094786  0.015495627            2 
 3465000   0.69722462   -8.2555247    669.93894  0.016112048  0.015490204            1 
 3466000   0.68000902   -8.2666547    669.26048  0.016091087  0.015484774            3 
 3467000   0.68208207   -8.2588833    668.27484  0.016062755  0.015479345            2 
 3468000   0.71160802    -8.258018    669.70755   0.01609255  0.015473922            2 
 3469000   0.68377373   -8.2620881    668.88221  0.016068084  0.015468495            1 
 3470000   0.68128101    -8.246092    669.32749  0.016074147  0.015463081            3 
 3471000   0.69902708   -8.2278984    670.90922  0.016107491  0.015457672            1 
 3472000   0.69811997   -8.2439372    668.37991  0.016042145  0.015452247            2 
 3473000   0.71410296   -8.2246113    668.76875  0.016046855  0.015446828            4 
 3474000   0.69414474   -8.2171262    668.33435  0.016031816  0.015441418            2 
 3475000   0.69597777   -8.2625962    669.85789  0.016063738  0.015436016            2 
 3476000   0.68982104   -8.2124497    670.37966  0.016071626   0.01543062            3 
 3477000   0.68799477   -8.2427602    669.78349  0.016052715  0.015425214            2 
 3478000   0.69914483   -8.2211126    670.00326  0.016053365  0.015419806            1 
 3479000   0.70401954   -8.2707022      667.115  0.015979568  0.015414397            2 
 3480000   0.69514525   -8.2444626    669.40049  0.016029705   0.01540899            2 
 3481000    0.6941723   -8.2609722    669.91115  0.016037325  0.015403585            2 
 3482000   0.68461999   -8.2279258    668.10684  0.015989538   0.01539818            2 
 3483000   0.68757632   -8.2359212    669.37217  0.016015221  0.015392781            6 
 3484000   0.68455038   -8.2444896    669.37174  0.016010614  0.015387392            3 
 3485000   0.67973799   -8.2201203    670.15708  0.016024799  0.015382002            2 
 3486000   0.68843069   -8.2259702    670.18167   0.01602079  0.015376621            2 
 3487000   0.69403561   -8.2419013    669.01538  0.015988323  0.015371234            2 
 3488000   0.69201648   -8.2332401    669.22835  0.015988827  0.015365854            1 
 3489000   0.68670507   -8.2399154    668.78145   0.01597357  0.015360451            1 
 3490000    0.6871423   -8.2385337    669.27638  0.015980811  0.015355047            4 
 3491000   0.68832041   -8.2354338    668.52474  0.015958291  0.015349662            3 
 3492000   0.68625718   -8.2379365    669.71761  0.015982188  0.015344287            3 
 3493000   0.69049445   -8.2073091     669.4321  0.015970801  0.015338909            1 
 3494000   0.69234429   -8.2326327    670.79363  0.015998703  0.015333542            1 
 3495000   0.67085418   -8.2132255     669.5614  0.015964745  0.015328174            2 
 3496000    0.6859082   -8.2296505    669.22206   0.01595209  0.015322813            2 
 3497000   0.68253293   -8.2152584    668.21058  0.015923424  0.015317437            2 
 3498000   0.68681269   -8.2332824    670.65162  0.015977025  0.015312063            4 
 3499000   0.68837049   -8.2275361     670.4658  0.015968034  0.015306701            1 
 3500000    0.7032545   -8.2394981    670.07698  0.015954214  0.015301332            2 
 3501000   0.68120266   -8.2282106    669.90304  0.015945516   0.01529596            2 
 3502000   0.69389885   -8.2279669    669.55253  0.015932623  0.015290601            1 
 3503000    0.6831078   -8.2361571    668.54498  0.015904106  0.015285233            1 
 3504000   0.68803903   -8.2715068    668.67886  0.015902751  0.015279851            2 
 3505000   0.70671044   -8.2675517    668.07843  0.015883938  0.015274456            1 
 3506000   0.69930445   -8.2575641    667.21791  0.015858954   0.01526907            2 
 3507000   0.69414402   -8.2648718    667.78181  0.015867831  0.015263682            2 
 3508000   0.69487117   -8.2338063    670.43498  0.015926335  0.015258296            2 
 3509000   0.68625955   -8.2650636    669.09572   0.01588999  0.015252919            3 
 3510000   0.70232735    -8.263439    668.90713  0.015880986  0.015247534            3 
 3511000   0.68288264   -8.2516249    669.17113  0.015882729  0.015242156            2 
 3512000   0.70016923   -8.2444695    668.36649  0.015859114  0.015236799            1 
 3513000   0.67984588   -8.2556687    667.77823  0.015840645  0.015231419            2 
 3514000   0.68417327   -8.2376221    668.39282  0.015850712  0.015226037            2 
 3515000   0.69005388   -8.2449268    667.65845  0.015828792   0.01522068            1 
 3516000   0.68413789   -8.2353401    669.00435   0.01585619  0.015215319            3 
 3517000   0.69228305   -8.2434444    667.86179  0.015824609  0.015209953            2 
 3518000   0.69533143   -8.2424002    668.05688  0.015824732  0.015204586            2 
 3519000   0.66978104   -8.2757015     669.0489  0.015843727  0.015199226            3 
 3520000   0.69261078   -8.2660614    668.48656  0.015825913  0.015193854            4 
 3521000   0.67939616   -8.2584403    668.16351  0.015813772  0.015188483            2 
 3522000   0.67956592   -8.2629574    669.15479  0.015832737  0.015183117            2 
 3523000   0.68464164   -8.2416276    668.87828  0.015821702  0.015177752            1 
 3524000   0.68228796   -8.2490545    667.30976  0.015780121  0.015172388            1 
 3525000   0.68480777    -8.257098    668.44733  0.015802537  0.015167014            2 
 3526000   0.68283659   -8.2456922     667.7525  0.015781634  0.015161638            8 
 3527000   0.68651869   -8.2505229    668.86992  0.015803561  0.015156262            6 
 3528000   0.70564486   -8.2699191    668.63977  0.015793645  0.015150886            9 
 3529000   0.68006025   -8.2794643    668.53194  0.015786624  0.015145512            3 
 3530000   0.69177461   -8.2576813    667.79545  0.015764765  0.015140141            3 
 3531000   0.68670575   -8.2544461    668.12092  0.015767982   0.01513478            5 
 3532000   0.69878028   -8.2549971    668.98762  0.015783966  0.015129412            3 
 3533000   0.67707848     -8.24754    668.37696  0.015765095  0.015124057            9 
 3534000   0.70790019   -8.2368741    668.45097  0.015762379   0.01511871            2 
 3535000   0.68170491   -8.2314974    667.82119  0.015743074  0.015113355            2 
 3536000   0.69012372   -8.2728489    669.22259  0.015771649  0.015108005            1 
 3537000   0.70160795   -8.2247584    669.34762  0.015770135  0.015102636            2 
 3538000   0.68354778   -8.2685066    667.63577  0.015725357   0.01509728            2 
 3539000   0.68832888   -8.2653895     668.0647  0.015731014  0.015091916            2 
 3540000    0.6839859   -8.2546919     667.5176  0.015713691   0.01508655            2 
 3541000   0.68813442   -8.2712247    668.22532  0.015725909  0.015081184            3 
 3542000   0.68050356   -8.2546989    668.60947  0.015730507  0.015075831            1 
 3543000   0.69120899   -8.2698639    667.80275  0.015707093  0.015070481            2 
 3544000   0.67682889   -8.2596155    668.32246  0.015714881  0.015065133            1 
 3545000   0.67196492   -8.2622464     666.6011  0.015669984  0.015059781            1 
 3546000   0.67849866    -8.288672    668.12754  0.015701437  0.015054431            2 
 3547000   0.68561271   -8.2843063    668.47816  0.015705248   0.01504908            1 
 3548000   0.68681758   -8.2693498    668.29269  0.015696465  0.015043734            2 
 3549000   0.68638835   -8.2823569    667.91537  0.015683182  0.015038381            2 
 3550000   0.68264144   -8.2462041    668.70257  0.015697243   0.01503305            2 
 3551000   0.68384708   -8.2796641    668.79705   0.01569504  0.015027719            1 
 3552000   0.66598483   -8.2835259    667.38338  0.015657455  0.015022394            2 
 3553000   0.67235406   -8.2756363    667.99293  0.015667345  0.015017067            1 
 3554000   0.69079388   -8.2474848    668.75591  0.015680827  0.015011746            2 
 3555000    0.6833274   -8.2686616    668.12119  0.015661537  0.015006444            1 
 3556000   0.68127139   -8.2721602    668.56462  0.015667525  0.015001133            2 
 3557000   0.69069677   -8.2737266    669.42885  0.015683367  0.014995825            2 
 3558000   0.68948241   -8.2600568    667.79024  0.015640581  0.014990511            3 
 3559000   0.66910319   -8.3018875    667.41269  0.015627346  0.014985202            2 
 3560000   0.68832528   -8.2964778    668.23813  0.015642278  0.014979906            1 
 3561000   0.69148636   -8.2612795     667.4861  0.015620287  0.014974615            2 
 3562000   0.67839019   -8.2660865    668.54156  0.015640594  0.014969323            2 
 3563000   0.68599575   -8.2568484    667.52972  0.015612539  0.014964031            4 
 3564000   0.69839067   -8.2738831    668.42132  0.015629006   0.01495874            1 
 3565000   0.68717555   -8.2900287    668.90724   0.01563598  0.014953442            3 
 3566000   0.68212779   -8.2481475    668.86292   0.01563056  0.014948165            2 
 3567000   0.69964779   -8.2801263    668.03365  0.015606804  0.014942879            3 
 3568000   0.68018072   -8.2686474    668.29899  0.015608627  0.014937596            3 
 3569000   0.68068723   -8.2533067    668.56003  0.015610349  0.014932324            2 
 3570000   0.67899111   -8.2639565    667.97369   0.01559229  0.014927045            4 
 3571000   0.68522301   -8.2607704     670.1521  0.015638759  0.014921783            3 
 3572000   0.67438581   -8.2898141    670.08705  0.015632863  0.014916526            1 
 3573000   0.67587251   -8.2667663    667.58668  0.015570172   0.01491125            2 
 3574000   0.68339789   -8.2928784    668.26509  0.015581633  0.014905981            2 
 3575000   0.66369372   -8.2762512    668.79091  0.015589532   0.01490071            1 
 3576000   0.67834785   -8.2873229    669.08236  0.015591964  0.014895458            3 
 3577000   0.68350098   -8.2754709    669.15585  0.015589317  0.014890199            1 
 3578000   0.68054352   -8.2672978    669.58834  0.015595033  0.014884948            2 
 3579000   0.66578254   -8.2723471    669.43221   0.01558704   0.01487971            3 
 3580000   0.67597397   -8.2759729    669.79191  0.015591059  0.014874468            2 
 3581000   0.67724345   -8.2732904    668.56054   0.01555805  0.014869216            1 
 3582000   0.67948877   -8.2719765    668.56073  0.015553711  0.014863963            1 
 3583000    0.6921653   -8.2545704    668.51057  0.015548204  0.014858723            2 
 3584000    0.6820362   -8.2698204    666.83067  0.015504805  0.014853478            1 
 3585000   0.69154483   -8.2361461    669.12979  0.015553924  0.014848244            3 
 3586000   0.68196853    -8.263816    667.95293  0.015522238  0.014843006            3 
 3587000    0.6784982   -8.2798316    668.41544  0.015528655  0.014837779            2 
 3588000   0.68815257   -8.2740002    668.85897  0.015534629  0.014832531            1 
 3589000    0.6737995    -8.285325    670.00885  0.015556999  0.014827297            2 
 3590000   0.66085379    -8.259496    668.67134  0.015521619  0.014822067            2 
 3591000   0.68338039    -8.261301    670.03541  0.015548951  0.014816834            1 
 3592000   0.67080157   -8.2699245    670.03733  0.015544667  0.014811604            2 
 3593000   0.67199592   -8.2866369    668.57033  0.015506316   0.01480637            3 
 3594000   0.66217587    -8.294305    668.57095  0.015502016  0.014801138            2 
 3595000   0.67772177   -8.2860716    668.15945  0.015488165  0.014795917            2 
 3596000   0.66547488   -8.2738235    668.45345  0.015490671  0.014790703            2 
 3597000   0.68826913   -8.2634611    669.25229  0.015504872  0.014785482            1 
 3598000   0.67628395    -8.270985    669.33024  0.015502368  0.014780257            2 
 3599000   0.68031138   -8.2977763    669.24881  0.015496175  0.014775029            1 
 3600000   0.68653144   -8.2774616    669.06956  0.015487721  0.014769816            1 
 3601000    0.6795069   -8.2936686    668.67133  0.015474205  0.014764607            1 
 3602000   0.66678641   -8.2834156    669.72596  0.015494308  0.014759397            4 
 3603000    0.6817146   -8.2921375    667.46135   0.01543763  0.014754192            3 
 3604000   0.69538913   -8.2909251    670.04093  0.015492992  0.014748985            2 
 3605000   0.67132716   -8.2484187    670.47208  0.015498661  0.014743777            3 
 3606000   0.67855048   -8.2669237    668.20122  0.015441884  0.014738568            2 
 3607000   0.66985441   -8.2993812    668.53476  0.015445309  0.014733358            1 
 3608000   0.67656549   -8.2795372    669.65726  0.015466954  0.014728154            3 
 3609000   0.67307499   -8.2949373    668.94823  0.015446297  0.014722941            2 
 3610000   0.67619528   -8.2804237    667.26458  0.015403153  0.014717731            4 
 3611000   0.69158588   -8.2689954    668.97192  0.015438288  0.014712533            3 
 3612000   0.67498734   -8.2858032    668.25282  0.015417424  0.014707339            4 
 3613000   0.68279962   -8.2967866    668.07332  0.015409017  0.014702144            3 
 3614000   0.65598776   -8.2937124    669.04499  0.015427158  0.014696955            2 
 3615000   0.66499729   -8.3005958    669.61135  0.015435946  0.014691764            1 
 3616000   0.67298504   -8.2866863    668.62288  0.015408897  0.014686578            2 
 3617000   0.68320805   -8.2893866    667.85829  0.015387022  0.014681398            2 
 3618000   0.66582361   -8.2918335    668.23977  0.015391555  0.014676208            3 
 3619000   0.66641272   -8.3113184    666.84812  0.015355257  0.014671011            4 
 3620000   0.66821565   -8.2780294    669.10697  0.015403015  0.014665825            3 
 3621000   0.68870795   -8.2837725    668.49752  0.015384735  0.014660653            4 
 3622000   0.68010585   -8.2874461    670.04755   0.01541615   0.01465548            1 
 3623000    0.6693117   -8.2881576    668.47497  0.015375724  0.014650314            3 
 3624000   0.68562504   -8.2591791    669.14808  0.015386959  0.014645157            2 
 3625000   0.68706923   -8.2898455    668.46604  0.015367036  0.014639986            2 
 3626000   0.67085304   -8.3001279    668.23576  0.015357505  0.014634822            1 
 3627000   0.66399733   -8.3028928    668.21212  0.015352728  0.014629655            1 
 3628000   0.67953434    -8.305764    668.24554  0.015349264  0.014624489            5 
 3629000   0.67873749   -8.2807366    668.29613  0.015346196  0.014619332            5 
 3630000   0.67798948   -8.2776383    668.79163  0.015353343  0.014614179            3 
 3631000   0.66227524   -8.3112983    668.59963  0.015344708  0.014609034            2 
 3632000   0.67291827   -8.2751108    669.84343  0.015369022  0.014603888            4 
 3633000   0.67882743   -8.3033395    668.72912  0.015339231  0.014598736            2 
 3634000   0.65963296   -8.2883274    668.71509  0.015334688  0.014593581            2 
 3635000   0.67697114   -8.2857436    669.25522  0.015342852  0.014588427            2 
 3636000   0.67792274   -8.3193602    668.85839  0.015329538  0.014583267            1 
 3637000   0.67125915   -8.2868928    670.19204   0.01535588  0.014578114            2 
 3638000    0.6671103    -8.291115    669.06651  0.015325878  0.014572965            3 
 3639000   0.65858308   -8.3220245    668.72215   0.01531378  0.014567817            1 
 3640000   0.67526062    -8.320369    668.14209  0.015296293  0.014562674            3 
 3641000     0.672858   -8.2931372    668.87649  0.015308901   0.01455752            3 
 3642000   0.66051083   -8.3011939    669.20615   0.01531224  0.014552369            4 
 3643000   0.66006426   -8.3061597    667.96877  0.015279732  0.014547232            8 
 3644000   0.66619133    -8.299015    668.91165  0.015297102  0.014542095            2 
 3645000   0.66558812   -8.2832463    670.57791  0.015330999  0.014536968            5 
 3646000   0.67591101   -8.2946913    669.50395  0.015302248  0.014531835            2 
 3647000   0.67354293   -8.3174872    669.14634  0.015289881  0.014526718            2 
 3648000   0.66356172    -8.292901    668.85621  0.015279062  0.014521588            3 
 3649000   0.66918425   -8.3091891     668.9877  0.015277878  0.014516449            1 
 3650000   0.65705375   -8.2875323    668.18927  0.015255463  0.014511319            1 
 3651000   0.65288517   -8.2992051    667.45648  0.015234559  0.014506179            3 
 3652000   0.67125369   -8.3027621    668.74441  0.015259776  0.014501045            4 
 3653000   0.66796533   -8.2903261    669.00327  0.015261504  0.014495914            1 
 3654000   0.67406029   -8.3016995    668.62173  0.015248625  0.014490788            3 
 3655000   0.66932205   -8.2863695    668.30144  0.015237151  0.014485661            2 
 3656000   0.68378884    -8.301914    668.25455  0.015231914  0.014480544            2 
 3657000   0.68259395   -8.2910667    669.18719  0.015249002   0.01447542            2 
 3658000   0.63835126   -8.3036381    668.99247  0.015240397  0.014470304            6 
 3659000   0.67401901   -8.3019723    668.57872  0.015226809   0.01446519            4 
 3660000   0.66176172   -8.2875936    668.69007  0.015225184  0.014460089            2 
 3661000   0.66016176    -8.291662    669.16212   0.01523177  0.014454983            2 
 3662000   0.66018098   -8.3142097    668.54146  0.015213487  0.014449888            2 
 3663000   0.66122502   -8.3106855    669.08241   0.01522164  0.014444796            3 
 3664000   0.67112806   -8.3204225    668.65983  0.015207875   0.01443969            1 
 3665000   0.66881317   -8.2995739    668.31896  0.015195974  0.014434584            2 
 3666000   0.66596228   -8.3243666     670.2347  0.015235377  0.014429493            1 
 3667000   0.65909024   -8.3133392    668.34038  0.015188173  0.014424395            4 
 3668000   0.67766457   -8.3194409    668.91467   0.01519708  0.014419296            2 
 3669000   0.66067413   -8.3147111    668.71475  0.015188397  0.014414186            4 
 3670000   0.67634695   -8.2947324    667.97901  0.015167552  0.014409096            6 
 3671000   0.65434538   -8.3168016     668.9284  0.015184972  0.014403997            2 
 3672000   0.67770502   -8.3122634    668.42353  0.015169379  0.014398904            2 
 3673000   0.66337844   -8.3136544    669.83265   0.01519722  0.014393805            2 
 3674000   0.66445419   -8.3024999    668.65421  0.015166354  0.014388725            2 
 3675000   0.66717749   -8.2974316    669.68717   0.01518565  0.014383648            1 
 3676000   0.67822367   -8.3249952    668.23367  0.015148569  0.014378559            2 
 3677000   0.67008095   -8.3147374    667.56294  0.015129248  0.014373476            3 
 3678000     0.673843   -8.3217868    667.25409  0.015118137  0.014368394            1 
 3679000   0.67810938   -8.3170994    668.99017  0.015153352  0.014363312            4 
 3680000    0.6560651   -8.3236175    668.81806  0.015145337  0.014358239            3 
 3681000   0.67475245    -8.296901    668.66661  0.015137793  0.014353167            2 
 3682000    0.6635996   -8.3116695    669.21205  0.015146027  0.014348105            5 
 3683000   0.65740962    -8.303502    669.13573  0.015140188  0.014343045            2 
 3684000   0.65547762   -8.3196185     669.6271  0.015147193  0.014337987            3 
 3685000   0.64878862   -8.3533332    667.68561  0.015099177  0.014332915            2 
 3686000   0.63502878   -8.3195998    667.87757  0.015099421  0.014327854            1 
 3687000   0.67394071   -8.3217328    668.70899  0.015114117  0.014322785            1 
 3688000   0.68382093   -8.3170703    667.78641  0.015089172  0.014317718            1 
 3689000   0.66039973   -8.2962438    668.00037  0.015089915  0.014312654            1 
 3690000   0.66387414   -8.3176674    668.58721  0.015099079  0.014307588            1 
 3691000   0.65832461    -8.314496    667.45101  0.015069336  0.014302527            1 
 3692000   0.66440279   -8.3380194    668.84216  0.015096654  0.014297478            2 
 3693000   0.65422117   -8.3142832    669.12422  0.015098931  0.014292426            2 
 3694000   0.65961659   -8.3061493    667.95153  0.015068389  0.014287372            1 
 3695000   0.65430485   -8.3186683    669.89784  0.015108206   0.01428231            3 
 3696000   0.65472619   -8.3132621    668.21793  0.015066241  0.014277246            3 
 3697000   0.66300983   -8.2893886    668.77433  0.015074708  0.014272184            3 
 3698000    0.6638037   -8.3414725    668.23571  0.015058494  0.014267131            2 
 3699000    0.6508791   -8.3341684    668.62022  0.015063085  0.014262077            1 
 3700000   0.67591869   -8.3181173      668.191  0.015049347  0.014257031            4 
 3701000   0.64672429   -8.3442807    668.41299  0.015050279  0.014251979            1 
 3702000   0.66250385   -8.3286386    667.72825    0.0150308  0.014246935            4 
 3703000     0.659932    -8.333793    668.35412  0.015040825  0.014241892            2 
 3704000   0.65918779   -8.3387444    668.20834  0.015033485  0.014236839            3 
 3705000   0.66590747   -8.3631968    666.37872  0.014988275  0.014231771            3 
 3706000   0.64557631   -8.3256578    668.34663  0.015028481  0.014226713            2 
 3707000   0.65849078   -8.3333111    668.13179  0.015019598  0.014221673            2 
 3708000   0.64211652   -8.3262017    668.56793  0.015025349  0.014216607            2 
 3709000   0.65878607   -8.3292742    666.37733   0.01497208  0.014211556            2 
 3710000   0.66539609    -8.327968    668.49239  0.015015552  0.014206507            5 
 3711000   0.65892409   -8.3156816    668.16914  0.015004247  0.014201464            2 
 3712000   0.67703037   -8.3267088    667.13497  0.014976988  0.014196421            1 
 3713000   0.65912108    -8.329621    668.45924  0.015002676  0.014191381            3 
 3714000   0.66881121    -8.344515    667.89828   0.01498605  0.014186342            1 
 3715000   0.65901479   -8.3643053    666.89713  0.014959559   0.01418129            1 
 3716000   0.66632279    -8.363574    667.50822  0.014969237  0.014176247            1 
 3717000   0.66978671   -8.3373348    667.42021  0.014963237  0.014171198            2 
 3718000   0.66969374   -8.3579921    667.93305  0.014970707   0.01416615            1 
 3719000   0.66621356   -8.3590919    668.21975  0.014973105  0.014161102            2 
 3720000   0.66124694   -8.3385189    667.05044  0.014942886  0.014156052            3 
 3721000   0.66340323   -8.3521643    666.61216  0.014929055  0.014151009            3 
 3722000   0.64855732   -8.3599598    668.45887  0.014966391   0.01414597            3 
 3723000   0.64830594   -8.3342784    667.63754  0.014943987  0.014140937            3 
 3724000   0.65748511   -8.3303299    667.24873  0.014931273  0.014135906            4 
 3725000   0.65172375   -8.3496505    667.04374  0.014922679  0.014130874            4 
 3726000   0.65770517   -8.3429299    668.07782  0.014941801  0.014125845            2 
 3727000   0.64468254   -8.3472148    666.68389  0.014906625  0.014120821            3 
 3728000   0.65181234   -8.3310743    668.48243   0.01494283  0.014115801            4 
 3729000   0.65658547   -8.3515655    668.22174  0.014932997   0.01411078            1 
 3730000   0.65644554   -8.3544375    667.39007  0.014910413   0.01410575            3 
 3731000   0.66646183   -8.3698618     667.7158  0.014913692  0.014100724            2 
 3732000   0.66604506   -8.3579709    665.85532  0.014868152  0.014095703            2 
 3733000   0.66429997   -8.3189669    666.04798   0.01486847  0.014090692            1 
 3734000   0.65903172   -8.3513749    667.03276  0.014886466  0.014085681            1 
 3735000   0.64320746   -8.3476701    666.95264  0.014880693  0.014080667            2 
 3736000   0.66364097   -8.3381172     667.2598  0.014883561  0.014075654            1 
 3737000   0.65690212   -8.3150996    667.62247  0.014887665  0.014070646            1 
 3738000   0.65363502   -8.3436836    667.53819  0.014881804  0.014065637            3 
 3739000   0.65923482   -8.3384659    667.87433  0.014885315  0.014060626            3 
 3740000   0.66024517   -8.3402737    666.48767  0.014850438  0.014055619            2 
 3741000   0.64291407   -8.3486109    666.60964  0.014849186  0.014050612            3 
 3742000   0.64962152   -8.3379732    667.51992  0.014865489  0.014045611            5 
 3743000   0.64095733   -8.3440669    667.69994  0.014865525   0.01404061            2 
 3744000   0.64425274   -8.3402209    667.14811  0.014849272  0.014035623            3 
 3745000   0.64630448   -8.3473755    667.15562  0.014845474   0.01403062            2 
 3746000   0.66176839   -8.3397601    666.99584  0.014837957  0.014025631            2 
 3747000   0.64219355   -8.3333281    666.38054  0.014820313  0.014020644            3 
 3748000    0.6615911   -8.3473929    667.21937  0.014835009  0.014015663            1 
 3749000   0.64384243   -8.3246809    667.71331  0.014842031  0.014010685            3 
 3750000   0.65203944   -8.3355839    666.74578  0.014816573  0.014005708            2 
 3751000   0.64480951   -8.3469891    666.25654  0.014801754  0.014000729            1 
 3752000   0.64817592   -8.3444144    666.79257  0.014809714  0.013995754            5 
 3753000   0.63489739   -8.3428109    668.63054  0.014846579  0.013990777            1 
 3754000   0.64812499   -8.3185103    668.55733  0.014840999  0.013985802            1 
 3755000   0.65342318   -8.2991431    668.84162  0.014843356  0.013980848            2 
 3756000   0.65632028   -8.3517464    667.32914  0.014805847  0.013975882            1 
 3757000   0.65514598     -8.33633    667.61678  0.014808286  0.013970921            2 
 3758000   0.63667694    -8.358395    666.35807  0.014776434  0.013965954            4 
 3759000   0.64585005   -8.3320552    667.92486  0.014807237  0.013960984            2 
 3760000   0.65728853   -8.3164675    667.43045  0.014792342  0.013956023            2 
 3761000   0.63538257   -8.3511354    666.09941  0.014758916  0.013951068            5 
 3762000   0.64536808   -8.3392177     666.1554  0.014756233  0.013946102            3 
 3763000    0.6379368   -8.3548238    667.14628  0.014774255  0.013941132            1 
 3764000   0.65293612   -8.3509503    667.68294  0.014782212  0.013936162            5 
 3765000   0.63858706   -8.3312353    668.26814  0.014791238  0.013931194            2 
 3766000   0.64912262    -8.350003    665.59505  0.014728161  0.013926231            2 
 3767000    0.6405795   -8.3343886    666.80659  0.014751053  0.013921271            1 
 3768000   0.65272474   -8.3343646    668.30808  0.014780345  0.013916322            2 
 3769000   0.64717484   -8.3463028    667.39804  0.014756302   0.01391137            1 
 3770000   0.64865072   -8.3265578    666.32628  0.014728698  0.013906424            3 
 3771000    0.6503481    -8.365506    667.19764  0.014744048  0.013901487            2 
 3772000   0.66270188   -8.3449375    667.56736  0.014748307  0.013896545            2 
 3773000   0.64103672   -8.3550462    667.37879  0.014740233    0.0138916            2 
 3774000   0.65431454   -8.3280212    668.00635  0.014750184  0.013886662            2 
 3775000    0.6479816   -8.3589864    667.18185  0.014728076  0.013881732            5 
 3776000   0.65259004   -8.3519542    667.12067  0.014722826  0.013876806            2 
 3777000   0.65347324   -8.3490367    667.71993  0.014732149  0.013871885            1 
 3778000   0.64228994   -8.3561913    668.58239  0.014747273  0.013866961            2 
 3779000   0.63083852    -8.329894    668.18443  0.014734595  0.013862035            3 
 3780000   0.66253813   -8.3560957      667.184  0.014708642  0.013857102            2 
 3781000   0.65915574    -8.332575    667.82288  0.014718833  0.013852175            3 
 3782000   0.64764451   -8.3764486    668.55214   0.01473101  0.013847247            2 
 3783000   0.64629849   -8.3618006    666.83718  0.014689338   0.01384232            1 
 3784000   0.64043675   -8.3718137    666.87816  0.014686358  0.013837395            1 
 3785000   0.65567932   -8.3775005    666.09659  0.014665271  0.013832463            1 
 3786000   0.64153395   -8.3423986    665.86385  0.014656274  0.013827544            1 
 3787000   0.63974138   -8.3708618    666.16229  0.014658971   0.01382262            2 
 3788000   0.64993412   -8.3366253    667.85564  0.014692354  0.013817699            1 
 3789000   0.64523395   -8.3595396    666.35145  0.014655394  0.013812781            3 
 3790000   0.64612906   -8.3529717    666.90667  0.014663735  0.013807869            2 
 3791000   0.66810354    -8.336537    667.92572  0.014682268  0.013802958            1 
 3792000   0.64611218   -8.3528709    666.98951  0.014657821   0.01379805            2 
 3793000   0.64208027   -8.3464959    667.78163   0.01467136  0.013793143            1 
 3794000   0.65379023   -8.3720901    668.14161    0.0146754  0.013788237            1 
 3795000   0.64794892   -8.3674698    667.12851  0.014649287  0.013783326            2 
 3796000   0.63671446   -8.3691697    666.56279  0.014633008   0.01377842            2 
 3797000   0.65082761   -8.3532027    666.50322  0.014627847  0.013773513            2 
 3798000    0.6389466   -8.3642141    666.07688  0.014614641  0.013768609            2 
 3799000   0.65637775   -8.3855566    667.06262  0.014632417  0.013763709            1 
 3800000   0.64723649   -8.3612093    665.45914  0.014593402  0.013758799            1 
 3801000   0.63616022   -8.3700556    667.78819  0.014640625  0.013753897            2 
 3802000   0.65396198   -8.3549842    666.00468  0.014597683  0.013749001            1 
 3803000    0.6558969   -8.3762135    666.71268  0.014609358  0.013744103            2 
 3804000   0.62805437   -8.3629593    665.97434  0.014589343  0.013739218            2 
 3805000   0.65314757   -8.3566797    667.50073  0.014618939  0.013734329            1 
 3806000   0.62286864   -8.3809658    666.56427  0.014594593  0.013729444            2 
 3807000   0.64889772   -8.3550009    667.07817  0.014602009  0.013724549            3 
 3808000   0.64894184   -8.3711273    667.64104  0.014610492  0.013719661            3 
 3809000   0.63952113   -8.3792067    667.64158  0.014606668  0.013714775            2 
 3810000   0.63013327   -8.3599197    666.53849  0.014578707  0.013709902            2 
 3811000   0.63598563   -8.3693849    667.93868  0.014605499  0.013705022            2 
 3812000   0.64280403   -8.3611705    665.52298  0.014548858  0.013700139            2 
 3813000   0.63225833   -8.3729772    665.96552  0.014554715  0.013695264            4 
 3814000   0.64229495   -8.3655479    666.77683  0.014568625  0.013690379            3 
 3815000   0.64578916   -8.3827391    667.04835  0.014570737  0.013685502            1 
 3816000   0.64393967   -8.3817176    666.19509  0.014548286  0.013680628            1 
 3817000   0.64031004   -8.3544733    667.11605  0.014564581  0.013675751            2 
 3818000   0.64728176   -8.3656184    666.74789   0.01455273  0.013670883            2 
 3819000   0.63971678   -8.3522302    666.92166  0.014552712  0.013666019            3 
 3820000   0.64171606   -8.3441553    667.39293  0.014559183  0.013661172            3 
 3821000   0.65264557   -8.3648832    666.19208  0.014529183  0.013656317            1 
 3822000    0.6402816   -8.3540739    666.87052  0.014540174  0.013651465            2 
 3823000   0.65410774   -8.3578205    666.15961  0.014520874   0.01364661            3 
 3824000   0.64633725    -8.361223    666.99519  0.014535286  0.013641755            2 
 3825000   0.63457508   -8.3724216    665.98796  0.014509542  0.013636899            2 
 3826000   0.65218193   -8.3710546    665.98071  0.014505591  0.013632047            2 
 3827000   0.64225337    -8.381663    666.59568  0.014515192   0.01362719            1 
 3828000   0.64513535   -8.3955943    665.84048   0.01449496  0.013622319            1 
 3829000   0.63830625   -8.3817071    667.00374  0.014516491   0.01361746            2 
 3830000   0.64391226   -8.3743002    666.55634  0.014502967    0.0136126            4 
 3831000   0.64013041   -8.3873887    666.29586  0.014493515  0.013607751            1 
 3832000   0.64538918   -8.3624788    666.44083  0.014492885    0.0136029            1 
 3833000   0.63214147   -8.3909108    666.85586  0.014498127  0.013598058            1 
 3834000   0.64785666   -8.3642259    666.07692  0.014477415  0.013593214            2 
 3835000   0.63703751    -8.359675    666.62564  0.014485564  0.013588376            4 
 3836000   0.61770525   -8.3801977    667.34022  0.014497311  0.013583543            5 
 3837000   0.62338728   -8.3813249    666.63049  0.014478119  0.013578711            1 
 3838000   0.64061988   -8.3786383    666.54863  0.014472569  0.013573881            2 
 3839000   0.64489728    -8.374949    666.77871  0.014473793  0.013569059            1 
 3840000   0.64209441   -8.3671373    666.85806  0.014471746  0.013564237            3 
 3841000   0.65341122   -8.3769356    667.52935  0.014482543  0.013559409            2 
 3842000   0.64437628   -8.3898196     667.0992  0.014469443  0.013554595            3 
 3843000   0.62153947    -8.361794    666.08617  0.014443711   0.01354978            2 
 3844000    0.6518874   -8.3576093    667.46052  0.014469748  0.013544969            1 
 3845000   0.66188522   -8.3811855    665.02675  0.014413237  0.013540165            1 
 3846000   0.64100393   -8.3540836    666.80779   0.01444808  0.013535353            1 
 3847000   0.63157448   -8.3761924    666.89913  0.014446303  0.013530542            1 
 3848000   0.62470277   -8.3874425     667.8144   0.01446237  0.013525744            2 
 3849000   0.62927081   -8.3692141     667.4736  0.014451234  0.013520938            3 
 3850000   0.64008832   -8.3617346    668.25468  0.014464387  0.013516127            2 
 3851000   0.65049088   -8.3803344    668.21906   0.01445986  0.013511325            2 
 3852000   0.64112982   -8.3729018      666.561  0.014420236  0.013506523            2 
 3853000   0.63486522    -8.395478     666.3237  0.014411361  0.013501717            2 
 3854000   0.64981493   -8.3730696    666.23229  0.014405645  0.013496918            2 
 3855000   0.62343211   -8.3753794    666.85859  0.014415447  0.013492121            3 
 3856000   0.62552996   -8.3781306     667.0611  0.014416085  0.013487333            5 
 3857000   0.65236349   -8.3575108    666.69601   0.01440446  0.013482543            1 
 3858000   0.62843809   -8.3931692    665.50127  0.014374919  0.013477749            2 
 3859000   0.61748865   -8.3908835    666.83123  0.014399914  0.013472952            4 
 3860000   0.63500488   -8.3614367    666.82112  0.014395966  0.013468166            1 
 3861000   0.63825226   -8.3677939    666.83742  0.014392589  0.013463379            3 
 3862000   0.64771857    -8.377675    668.00537  0.014414064  0.013458591            3 
 3863000   0.64941364   -8.3904763    666.24321  0.014372319  0.013453811            3 
 3864000   0.63943065   -8.3802348    666.99771  0.014384871  0.013449021            2 
 3865000   0.63247526   -8.3503939    667.90734  0.014400762  0.013444249            1 
 3866000   0.62215597   -8.3743113    665.03803  0.014335188  0.013439459            1 
 3867000    0.6307113   -8.3882984    665.76876  0.014347228  0.013434683            2 
 3868000   0.62823509   -8.3964861    666.18112  0.014352403  0.013429899            2 
 3869000   0.63454734   -8.4094075    665.75692  0.014339556  0.013425114            2 
 3870000   0.63986724   -8.3779602    667.16081  0.014366081  0.013420336            1 
 3871000    0.6411328    -8.404259    666.81697  0.014354968  0.013415556            2 
 3872000   0.62830288   -8.3755708    666.03231  0.014334373  0.013410782            2 
 3873000   0.65182337   -8.3873985     666.4547   0.01433976  0.013406011            2 
 3874000   0.63216257   -8.3983051     666.5112  0.014337274  0.013401233            2 
 3875000   0.63467976   -8.4063108    665.47515  0.014311294  0.013396463            2 
 3876000   0.63825416   -8.3762133    664.40137  0.014284515  0.013391682            5 
 3877000   0.62607652    -8.385217    666.14608  0.014318332  0.013386915            3 
 3878000    0.6265211   -8.3993709    665.99167  0.014311322  0.013382156            2 
 3879000    0.6523473   -8.3604338     666.4049   0.01431651  0.013377392            3 
 3880000    0.6311332    -8.402527    665.41039   0.01429146  0.013372621            1 
 3881000   0.62563455   -8.3858494    666.23764  0.014305541  0.013367854            2 
 3882000   0.63209718   -8.4104893    666.00831  0.014296933  0.013363083            1 
 3883000   0.63149002    -8.403434    666.09643  0.014295142  0.013358312            4 
 3884000   0.63002659   -8.4127023    666.17262  0.014293096  0.013353539            1 
 3885000   0.62166153   -8.4034297    664.28744   0.01424898  0.013348766            3 
 3886000    0.6335363   -8.3922197    665.97947  0.014281598  0.013343996            4 
 3887000   0.63679257   -8.3925063    667.20244  0.014304143  0.013339234            3 
 3888000   0.61496864   -8.4007197    664.44252  0.014241309  0.013334466            1 
 3889000   0.61835182   -8.3905301    666.41089  0.014279825  0.013329703            1 
 3890000   0.63391977   -8.4035151    665.82191  0.014263537  0.013324943            2 
 3891000   0.61125414   -8.3889687    664.62675  0.014234275  0.013320191            2 
 3892000   0.62887216   -8.3798478    666.83101  0.014277814  0.013315437            2 
 3893000   0.63734281    -8.405193    665.83199  0.014252761   0.01331068            2 
 3894000   0.62432389   -8.3754331    665.34584  0.014238697  0.013305922            2 
 3895000   0.63904571   -8.4242276    665.59279  0.014240325  0.013301174            1 
 3896000   0.61895706   -8.3988187    665.13288  0.014226833  0.013296428            1 
 3897000   0.63429741   -8.4132552    665.96784  0.014241037  0.013291687            2 
 3898000    0.6324638    -8.386738     665.7739  0.014233237  0.013286947            5 
 3899000   0.61262974   -8.3998781    665.27109   0.01421884  0.013282207            3 
 3900000   0.63381368   -8.4044852    665.62574  0.014222772  0.013277467            1 
 3901000   0.62647666   -8.4143686     664.7619  0.014200673  0.013272732            4 
 3902000    0.6186143   -8.3865812    665.87595  0.014220826  0.013267993            1 
 3903000   0.62339798   -8.3985609    665.90395   0.01421778  0.013263265            3 
 3904000    0.6176553   -8.4024468    666.64755  0.014230011  0.013258537            3 
 3905000   0.61604233   -8.4095586    665.98848  0.014212302  0.013253814            2 
 3906000   0.62453529   -8.3923207    665.55055   0.01419932  0.013249087            3 
 3907000   0.63067973   -8.3872552     665.8175   0.01420138  0.013244358            2 
 3908000   0.62943202   -8.3949424    665.89619  0.014199424  0.013239632            2 
 3909000   0.62727211   -8.4036087    664.17632  0.014159127  0.013234906            1 
 3910000   0.61929215   -8.3958752    664.39446  0.014160155  0.013230181            2 
 3911000   0.62401627   -8.3876008    666.18317  0.014194647  0.013225464            1 
 3912000    0.6218374   -8.4185897    665.56083  0.014177761  0.013220743            3 
 3913000   0.62608523   -8.4040941    665.75828  0.014178343  0.013216019            3 
 3914000   0.61273595   -8.4024711    665.04012   0.01415943  0.013211294            2 
 3915000   0.62452297   -8.4256072    665.87966  0.014173684  0.013206567            3 
 3916000   0.62594111   -8.4214454    665.50707  0.014162136  0.013201849            2 
 3917000   0.63061337   -8.3994306    665.39007  0.014156031  0.013197131            2 
 3918000   0.62779002   -8.4252303    665.88813  0.014163011  0.013192416            2 
 3919000    0.6402288   -8.4055906    665.86383   0.01415888    0.0131877            1 
 3920000     0.627763   -8.4147389    665.99571  0.014158072  0.013182987            2 
 3921000   0.62706228    -8.401886    664.64374  0.014125728  0.013178271            3 
 3922000   0.63420981   -8.4092841    666.26084  0.014156486   0.01317357            5 
 3923000   0.62595274   -8.4356978    665.11452  0.014128527  0.013168866            3 
 3924000   0.64309351    -8.411469    664.17927  0.014105064  0.013164157            4 
 3925000     0.626546   -8.4116086    665.05914  0.014120152  0.013159448            2 
 3926000   0.63669636   -8.4126401    664.49586  0.014104599  0.013154747            1 
 3927000    0.6336164   -8.4164784    664.20133  0.014094757  0.013150055            3 
 3928000   0.62278157   -8.4226427    666.22786  0.014134162   0.01314537            5 
 3929000   0.62698093   -8.4139986    666.29285  0.014131943  0.013140677            2 
 3930000   0.61088347    -8.411569    666.42366  0.014131121  0.013135995            2 
 3931000   0.62195653   -8.4125353    665.53441  0.014108675  0.013131317            2 
 3932000   0.60283916   -8.4130538      665.735  0.014109338  0.013126647            5 
 3933000   0.63547366   -8.4088279    664.78204  0.014085559  0.013121972            4 
 3934000   0.62751208   -8.4100957    665.85451  0.014104696    0.0131173            2 
 3935000   0.63321283   -8.4037928     666.0634  0.014105536  0.013112628            3 
 3936000   0.61093551   -8.4125258    666.19184  0.014104672  0.013107952            3 
 3937000   0.62277836   -8.4117473    667.68406  0.014132674   0.01310328            9 
 3938000   0.62091939   -8.4276928       664.76  0.014067208  0.013098614            2 
 3939000   0.60512657   -8.4148647     665.9117  0.014088003  0.013093942            2 
 3940000   0.63511645   -8.4063101    665.38777  0.014073345  0.013089273            2 
 3941000   0.60294951   -8.4075156    665.13188  0.014064363  0.013084606            2 
 3942000   0.61560082    -8.425364    665.52137   0.01406903  0.013079942            2 
 3943000   0.62108621   -8.4200045    665.62447   0.01406764  0.013075284            2 
 3944000   0.63082465   -8.4118182    665.42349  0.014059827  0.013070623            2 
 3945000   0.62367073   -8.4198406    665.51261  0.014058145  0.013065961            2 
 3946000    0.6276089   -8.4233805     666.0184  0.014065264  0.013061302            4 
 3947000   0.62736458    -8.405877    665.43937  0.014049476  0.013056647            2 
 3948000   0.60923067   -8.4182558    665.97191  0.014057158  0.013052002            4 
 3949000   0.61757591   -8.4278485     665.8463  0.014050948  0.013047358            3 
 3950000     0.640266    -8.419032    666.00223   0.01405068  0.013042715            6 
 3951000   0.63173989   -8.4248406    665.49425  0.014036409  0.013038077            1 
 3952000   0.60716812   -8.3990809    665.69572  0.014037106  0.013033434            3 
 3953000   0.61037695   -8.4142511    664.33097  0.014004785  0.013028793            2 
 3954000    0.6275547   -8.3844564    665.86237  0.014033518  0.013024155            4 
 3955000   0.60999296   -8.4268098    664.77013  0.014006956  0.013019514            5 
 3956000   0.61667936   -8.4267296    665.19259  0.014012314  0.013014878            4 
 3957000   0.61140466   -8.4194406    666.65788  0.014039632  0.013010238            3 
 3958000   0.62911274   -8.4383481    665.61204  0.014014065   0.01300561            4 
 3959000    0.6225753   -8.4273366    666.00542  0.014018806  0.013000978            3 
 3960000    0.6319409   -8.4473569    665.35282  0.014001532  0.012996347            2 
 3961000   0.61281675   -8.4265605    665.92756  0.014010089  0.012991727            2 
 3962000   0.61921248   -8.4230178    666.66572  0.014022079  0.012987105            4 
 3963000   0.61303156   -8.4095851    665.64081  0.013996989   0.01298249            2 
 3964000   0.61464993   -8.4268701    665.78321  0.013996452  0.012977878            3 
 3965000   0.61237641   -8.4170448    665.75097  0.013992244  0.012973262            2 
 3966000   0.60138252   -8.4208413    665.81064   0.01398997  0.012968653            3 
 3967000   0.61081328   -8.4146254    666.74517  0.014006075  0.012964044            2 
 3968000    0.6125816   -8.4108589    665.48316  0.013976041   0.01295944            2 
 3969000   0.62361401   -8.4130614    665.21923  0.013966978  0.012954839            4 
 3970000   0.61901653   -8.4269471    665.80849  0.013975829  0.012950239            3 
 3971000   0.60795706   -8.4279539    666.68369  0.013990676   0.01294564            3 
 3972000   0.60157469   -8.4240263    665.09911  0.013953909  0.012941036            4 
 3973000   0.61268391   -8.4448575    665.22349  0.013953005   0.01293643            4 
 3974000   0.60472996   -8.4284404    666.44847  0.013975182  0.012931819            2 
 3975000    0.6331448   -8.4356506    665.00007  0.013941301  0.012927216            2 
 3976000    0.6102893   -8.4273554    665.10737  0.013940044  0.012922609            2 
 3977000   0.61656723   -8.4078257    664.68734  0.013927737  0.012918004            3 
 3978000   0.61112412   -8.4482119    665.09652  0.013932808  0.012913394            7 
 3979000   0.62155171   -8.4326768    664.62687   0.01391947  0.012908805            4 
 3980000   0.60557709   -8.4569283    664.10482  0.013905042  0.012904201            4 
 3981000   0.61450425   -8.4362341    665.19758  0.013924424  0.012899608            2 
 3982000   0.61128921   -8.4084465    665.17464  0.013920447  0.012895017            2 
 3983000   0.61791869   -8.4434839     664.9298  0.013911829  0.012890429            2 
 3984000   0.61670031   -8.4273722    664.95551  0.013908875  0.012885847            2 
 3985000    0.6181829   -8.4454358    665.10488  0.013908509  0.012881261            3 
 3986000   0.60857408   -8.4380652    664.45211  0.013891372  0.012876678            2 
 3987000   0.59795494   -8.4324649    665.23333  0.013904216  0.012872099            2 
 3988000   0.61484101    -8.422615    665.18957  0.013899815  0.012867525            2 
 3989000   0.60854455   -8.4400897    666.20236  0.013917489  0.012862948            1 
 3990000   0.60744167   -8.4472392    664.52683  0.013879006  0.012858369            3 
 3991000   0.61146908   -8.4518516    665.42803  0.013894346  0.012853793            1 
 3992000   0.61823619   -8.4311857    665.49302  0.013892222  0.012849218            2 
 3993000   0.60475967   -8.4373937    665.30964  0.013884916  0.012844647            4 
 3994000   0.60913192   -8.4523549    664.12426  0.013856707  0.012840071            2 
 3995000   0.61135503   -8.4489684    665.68206  0.013885733  0.012835498            3 
 3996000   0.61533227   -8.4407458    664.88828  0.013865705  0.012830922            1 
 3997000   0.63394106   -8.4267892    665.79697  0.013881181  0.012826358            2 
 3998000   0.61692428   -8.4655203    664.92461  0.013859526  0.012821793            3 
 3999000   0.61212171    -8.428821    664.64431  0.013850219  0.012817235            3 
 4000000   0.62420919   -8.4461596    666.11466  0.013877389   0.01281267            3 
 4001000   0.60666288    -8.453126    664.11791  0.013832332  0.012808112            3 
 4002000   0.59943619   -8.4341602    665.34233  0.013854371  0.012803553            2 
 4003000   0.60041655   -8.4416613     665.0396  0.013844608  0.012799003            6 
 4004000   0.60001842   -8.4599105    664.77015  0.013835543  0.012794448            3 
 4005000   0.60891202   -8.4459313    665.03203  0.013837537  0.012789893            3 
 4006000   0.61116355    -8.438104    662.94625  0.013790694  0.012785346            2 
 4007000   0.61398823   -8.4384395    665.10762  0.013832202  0.012780786            1 
 4008000   0.61308425    -8.457356    663.25673  0.013790268   0.01277624            3 
 4009000   0.61640019   -8.4382857    665.09485  0.013825036  0.012771692            2 
 4010000   0.61178744   -8.4306102     665.2678  0.013825183  0.012767147            2 
 4011000   0.60805236    -8.446633    664.99781  0.013816127  0.012762604            3 
 4012000   0.60231848   -8.4659485    665.40861  0.013821216  0.012758069            2 
 4013000   0.60640451   -8.4463104    665.23715  0.013814211  0.012753535            3 
 4014000   0.61682756   -8.4328278    664.26584  0.013790605  0.012749005            1 
 4015000   0.61103104   -8.4586535    664.73199  0.013796845  0.012744478            2 
 4016000   0.61017616   -8.4551754    665.16685  0.013802433  0.012739952            1 
 4017000   0.59220774   -8.4259903    665.33075  0.013802397  0.012735429            1 
 4018000   0.60246074   -8.4560433    665.01211  0.013792353  0.012730908            1 
 4019000   0.60577841   -8.4284596    664.63635   0.01378113  0.012726389            2 
 4020000   0.60476604   -8.4417163    664.63237   0.01377762  0.012721869            2 
 4021000   0.60649945   -8.4470178    663.38145  0.013748269  0.012717355            3 
 4022000   0.61200852   -8.4521709    664.53414  0.013768733  0.012712837            1 
 4023000   0.61966713   -8.4701996    663.74196  0.013748901  0.012708323            2 
 4024000   0.61942827   -8.4359315    664.22052  0.013755395   0.01270381            2 
 4025000   0.62320906   -8.4428217    665.41019  0.013776608  0.012699298            3 
 4026000   0.59921884   -8.4356224    664.67769  0.013758025  0.012694787            5 
 4027000   0.61597164   -8.4615962    664.96947  0.013760646   0.01269028            3 
 4028000   0.60781681   -8.4409786     664.8961  0.013755712  0.012685777            1 
 4029000   0.60179061   -8.4321443    665.23889  0.013759388  0.012681275            1 
 4030000    0.6044797   -8.4353836    665.96733  0.013771037  0.012676775            1 
 4031000   0.61649558   -8.4497112    663.02264  0.013706744  0.012672275            2 
 4032000   0.61788139   -8.4477071    664.88932  0.013741925   0.01266778            2 
 4033000   0.62770082   -8.4595722    665.14246  0.013743749  0.012663285            2 
 4034000   0.60231852     -8.43322    665.10757  0.013739621  0.012658785            2 
 4035000    0.6169679   -8.4485959    664.09565  0.013715317  0.012654288            3 
 4036000   0.60692997   -8.4454968    665.51288  0.013741181  0.012649795            2 
 4037000   0.61238517   -8.4432226    665.92233  0.013746229  0.012645308            3 
 4038000   0.59373314   -8.4351361    665.56297  0.013735409  0.012640823            2 
 4039000   0.60819682   -8.4708295    664.53337  0.013710765  0.012636336            4 
 4040000   0.60336091   -8.4484645    664.24948  0.013701516  0.012631853            1 
 4041000   0.61233808   -8.4648776    665.33654  0.013720542  0.012627376            1 
 4042000   0.60495734    -8.461719    665.35593  0.013717548  0.012622897            1 
 4043000   0.59926414   -8.4609981     664.7272  0.013701195  0.012618423            2 
 4044000   0.60607195   -8.4465531    664.27273  0.013688442  0.012613947            2 
 4045000   0.59304562   -8.4566208    664.90324  0.013698048  0.012609473            4 
 4046000   0.61646837   -8.4574077    665.00197  0.013696696  0.012605002            5 
 4047000    0.6137557   -8.4624625     665.0622  0.013694551  0.012600537            1 
 4048000   0.58525725   -8.4526083    663.94428  0.013668155  0.012596073            1 
 4049000    0.6217004   -8.4639522    665.49078  0.013696608   0.01259161            2 
 4050000   0.59784661   -8.4763233    662.83363  0.013638552  0.012587137            2 
 4051000   0.60420337   -8.4593416     664.2848  0.013665037  0.012582669            2 
 4052000   0.61452424   -8.4490112    665.28712  0.013682279  0.012578209            1 
 4053000   0.60926288   -8.4905608    663.79751  0.013648275  0.012573749            4 
 4054000   0.59402429   -8.4647236    663.74838  0.013643899  0.012569289            2 
 4055000   0.60552826   -8.4615524     664.1544  0.013648878  0.012564833            1 
 4056000   0.58852321   -8.4555579    664.78911  0.013658553  0.012560378            2 
 4057000   0.61603632   -8.4739487    665.19337   0.01366349  0.012555926            1 
 4058000   0.60978598   -8.4533099    664.82403  0.013652539  0.012551477            1 
 4059000   0.60939126   -8.4526331    664.91147  0.013650971  0.012547029            1 
 4060000    0.6026832   -8.4497664    664.40643  0.013637242  0.012542576            1 
 4061000   0.59252936   -8.4652491    664.09514  0.013627496  0.012538127            4 
 4062000    0.6025232   -8.4666424    664.05997   0.01362342  0.012533675            2 
 4063000   0.60139349   -8.4719655    663.23872  0.013603223  0.012529225            2 
 4064000   0.59671177   -8.4619376    665.28146  0.013641762  0.012524776            5 
 4065000   0.59743847   -8.4729534    665.83002  0.013649652  0.012520328            3 
 4066000   0.60631357   -8.4453855    664.06316  0.013610083   0.01251588            1 
 4067000   0.60991125   -8.4696991    664.09655  0.013607421  0.012511437            1 
 4068000   0.61942764   -8.4501153     663.8676  0.013599385  0.012506998            1 
 4069000   0.60272412   -8.4626786    664.03043  0.013599378  0.012502557            3 
 4070000   0.59282381   -8.4840261    664.49483  0.013605545  0.012498119            2 
 4071000   0.60051467   -8.4503779      664.558  0.013603496  0.012493684            4 
 4072000   0.59651457   -8.4432915    665.05582  0.013610343  0.012489248            4 
 4073000   0.60107138   -8.4808814    664.00329  0.013585467  0.012484812            2 
 4074000   0.58268776   -8.4642209     664.8054   0.01359854  0.012480385            1 
 4075000   0.61706856   -8.4757916    664.29774  0.013584821  0.012475963            4 
 4076000   0.61236729   -8.4717342    664.50053  0.013585634  0.012471539            5 
 4077000   0.60752839   -8.4604914    665.32749  0.013599205  0.012467121            6 
 4078000   0.59127767   -8.4755375    664.73204  0.013583702  0.012462704            1 
 4079000   0.60906353   -8.4792198    664.85926  0.013582971  0.012458285            2 
 4080000   0.58634397   -8.4848899    664.31873  0.013568601  0.012453867            1 
 4081000   0.59057679   -8.4638336    664.61245  0.013571274  0.012449454            3 
 4082000   0.60522046   -8.4781607    664.17785  0.013559077  0.012445044            4 
 4083000   0.59190793    -8.464243    664.99185   0.01357237  0.012440638            3 
 4084000   0.59271688   -8.4689391    665.63633  0.013582197   0.01243623            5 
 4085000   0.59787146    -8.459456    664.92762  0.013564415  0.012431826            1 
 4086000    0.5985098   -8.4914216    663.18429   0.01352554  0.012427418            2 
 4087000   0.58577526   -8.4693356    664.44994  0.013548037  0.012423014            3 
 4088000   0.59048565    -8.472603    663.99958  0.013535543  0.012418612            1 
 4089000   0.61161174   -8.4743254    664.39594   0.01354031  0.012414211            5 
 4090000   0.60016094   -8.4730647    664.20141  0.013533036  0.012409811            5 
 4091000   0.59631042    -8.486168    664.06978  0.013527047  0.012405414            2 
 4092000     0.594824   -8.4975885    663.44307  0.013510978   0.01240101            1 
 4093000   0.60103112   -8.4778672    663.30776  0.013504922  0.012396614            3 
 4094000   0.60477339   -8.4827415    664.30081  0.013521837  0.012392222            1 
 4095000   0.60041201   -8.4666395    664.01578  0.013512735  0.012387825            2 
 4096000   0.58630351   -8.4761759    664.06958   0.01351053  0.012383437            6 
 4097000   0.59300434   -8.4678341    663.61874  0.013498062  0.012379054            4 
 4098000   0.60517536   -8.4644648    664.55808   0.01351387  0.012374672            3 
 4099000   0.60266955   -8.4964851    664.65226  0.013512488  0.012370291            1 
 4100000   0.59716523   -8.4913455    663.77026  0.013491265  0.012365902            3 
 4101000   0.59361351   -8.4787569    664.26298  0.013497988  0.012361528            5 
 4102000   0.60374263   -8.4582164    663.52916  0.013479789   0.01235715            3 
 4103000   0.58252916    -8.488241    664.61041  0.013498465  0.012352775            5 
 4104000    0.5791469   -8.4871462    664.46384  0.013492199  0.012348395            5 
 4105000   0.58110689   -8.4623265     664.1082  0.013481693  0.012344018            5 
 4106000   0.60079886   -8.4663256    663.81614  0.013472482   0.01233965            4 
 4107000   0.60215026    -8.473856      663.916  0.013471228  0.012335282            2 
 4108000   0.60680976   -8.4887521    664.93176  0.013488554  0.012330913            6 
 4109000   0.60277842   -8.4733942    664.90091  0.013484646  0.012326547            6 
 4110000   0.58849052   -8.4833232    664.18396  0.013466828  0.012322185            3 
 4111000    0.6059648   -8.5028296    663.89087  0.013457611  0.012317818            1 
 4112000   0.59418823   -8.4762189    663.76112  0.013451709  0.012313453            2 
 4113000   0.59888187   -8.4564948    664.81268  0.013469744  0.012309092            4 
 4114000   0.57878339    -8.501427    663.57273  0.013441353  0.012304733            1 
 4115000   0.57208946   -8.4831132    663.02411  0.013426977  0.012300376            3 
 4116000   0.59182658   -8.4740252    664.34082  0.013450373  0.012296024            1 
 4117000   0.58337643    -8.470137    664.43036  0.013448918  0.012291669            1 
 4118000   0.59354645   -8.4788918    663.38717  0.013424542  0.012287314            2 
 4119000   0.60222492   -8.4863978    664.14372  0.013436589  0.012282965            1 
 4120000   0.59438458   -8.4867924    664.90258  0.013448677  0.012278616            1 
 4121000   0.60554802     -8.49115    663.90336  0.013425207  0.012274269            1 
 4122000    0.6052114    -8.456365    664.22652  0.013428484  0.012269929            2 
 4123000   0.58266705   -8.4905691    663.57221  0.013412002  0.012265592            3 
 4124000   0.59936064   -8.4813488    664.06398  0.013418687  0.012261255            1 
 4125000   0.59077825   -8.4715964    665.18407  0.013438062  0.012256917            4 
 4126000   0.59955407   -8.4698592    663.21114  0.013394958  0.012252583            1 
 4127000   0.59046496   -8.4716409    664.07162  0.013409087  0.012248245            4 
 4128000   0.58916962   -8.4626036    663.57184  0.013395749  0.012243909            7 
 4129000   0.59212524   -8.4784367    664.38587  0.013408934  0.012239584            5 
 4130000    0.5737951   -8.4739477     664.0083  0.013398069  0.012235255            2 
 4131000    0.5946514   -8.4762707    663.74479   0.01338951  0.012230928            4 
 4132000   0.59837226    -8.475423    662.62945  0.013363776  0.012226598            2 
 4133000   0.59618003   -8.4769158    663.53556  0.013378812  0.012222279            3 
 4134000   0.58866136   -8.4829382    663.82014  0.013381312  0.012217948            2 
 4135000   0.59518002   -8.4681517     664.5659  0.013393106  0.012213629            2 
 4136000   0.58992968   -8.4907399    663.08286  0.013359987  0.012209308            1 
 4137000   0.60072091   -8.4843652     664.4013  0.013383315  0.012204993            1 
 4138000   0.58928984   -8.4834895    663.17785  0.013355443  0.012200676            3 
 4139000   0.58632705   -8.4717223    664.64646  0.013381784  0.012196353            2 
 4140000    0.5938118   -8.4921717    663.45828  0.013354635  0.012192033            2 
 4141000   0.58948351    -8.488139    662.20154   0.01332612  0.012187721            3 
 4142000   0.60232355   -8.4871694    663.05185   0.01334001  0.012183407            2 
 4143000   0.58466924   -8.5005727    664.15544  0.013358988  0.012179094            2 
 4144000   0.60251107   -8.4952243    662.96134  0.013331751  0.012174784            3 
 4145000   0.59371251    -8.491906    663.55495   0.01334047  0.012170475            4 
 4146000   0.59797767   -8.4827725    664.33439  0.013352918  0.012166175            2 
 4147000   0.59819705   -8.4812865    663.80341  0.013339028  0.012161874            1 
 4148000   0.59847866   -8.4994821    662.62674  0.013312173   0.01215757            2 
 4149000   0.57973167   -8.4972245     662.6179  0.013308787  0.012153265            2 
 4150000   0.60046009   -8.5003708    663.36685   0.01332062  0.012148958            2 
 4151000   0.58998878   -8.4942059    664.01825  0.013330488  0.012144658            4 
 4152000   0.58911482   -8.4886107    663.88358  0.013324574  0.012140363            7 
 4153000   0.58795158   -8.5141696    662.93901  0.013302412  0.012136066            1 
 4154000   0.58944192   -8.4800901      664.984  0.013340234  0.012131772            2 
 4155000   0.59019434   -8.5006681    664.30145  0.013323334  0.012127489            2 
 4156000   0.58921253   -8.4811937    664.15013  0.013317094   0.01212321            2 
 4157000   0.58054965   -8.5070216    662.98254  0.013290485  0.012118926            3 
 4158000   0.58564838   -8.5077558    663.90478  0.013305772  0.012114644            1 
 4159000   0.58475634   -8.5069383    663.65516  0.013297571  0.012110365            3 
 4160000   0.60682342   -8.4837948    663.29876  0.013287235  0.012106086            4 
 4161000   0.57810743   -8.4930478    663.66747  0.013291426  0.012101814            1 
 4162000   0.59669318   -8.4809498    664.72328  0.013309372  0.012097543            3 
 4163000    0.5841803   -8.4802328    664.05957  0.013292889  0.012093275            1 
 4164000   0.58069128   -8.5027247    662.11355  0.013250751  0.012089004            2 
 4165000   0.59499173   -8.4839141    663.04756  0.013266258  0.012084737            1 
 4166000   0.58731182   -8.5005487    664.02998  0.013282725  0.012080469            2 
 4167000   0.58751684    -8.510778    664.31388  0.013285215  0.012076199            1 
 4168000   0.58260181   -8.4998404    664.15941  0.013278939  0.012071935            1 
 4169000   0.57585412   -8.5132827    663.32234  0.013259022  0.012067676           10 
 4170000   0.58299116   -8.4876315    664.68315  0.013283036  0.012063414            3 
 4171000    0.5833558   -8.5123615    664.10226  0.013268246  0.012059158            1 
 4172000   0.57973193   -8.5137302    663.62273  0.013255488  0.012054898            3 
 4173000   0.57162963   -8.4990399    663.91527  0.013258153  0.012050642            1 
 4174000   0.58009162   -8.4964588    663.55114  0.013247707   0.01204639            3 
 4175000   0.57988954    -8.498486    663.99797  0.013253452  0.012042136            1 
 4176000   0.58229881   -8.4886321    663.85136  0.013247353   0.01203788            1 
 4177000   0.60099951   -8.5099184    663.74225  0.013242005  0.012033637            2 
 4178000    0.5699279   -8.5199775    661.40518  0.013192221  0.012029392            1 
 4179000   0.58477918   -8.5107381     663.7948  0.013236715  0.012025149            3 
 4180000   0.58019119   -8.4916161    662.96734  0.013217052  0.012020914            4 
 4181000   0.58672404   -8.4916656    663.84235  0.013231331  0.012016679            1 
 4182000    0.5906942   -8.5079573    663.04823  0.013212343  0.012012444            1 
 4183000   0.58874447   -8.4728451    663.27831  0.013213768  0.012008211            2 
 4184000   0.57934868   -8.4831207    662.99041  0.013204876  0.012003971            2 
 4185000   0.58625992   -8.4962454    662.44259  0.013190812  0.011999733            2 
 4186000   0.58202032   -8.5180256    663.69872  0.013212668  0.011995494            3 
 4187000   0.58061497   -8.5096127    664.38093   0.01322309  0.011991257            1 
 4188000   0.57299329   -8.5078322    663.24038  0.013197238  0.011987019            1 
 4189000   0.59064096   -8.5137772    664.26387  0.013214448  0.011982782            2 
 4190000   0.58096006   -8.5187034    663.45967    0.0131953  0.011978544            2 
 4191000    0.5822906   -8.5037609    662.35382  0.013170163  0.011974311            1 
 4192000   0.57761938   -8.5178837    663.18829  0.013183609  0.011970079            2 
 4193000   0.58828156   -8.5014313    663.92899  0.013195186  0.011965842            2 
 4194000   0.57559526     -8.52296    662.82987  0.013170201  0.011961614            1 
 4195000   0.58698801   -8.5128211    664.06047  0.013191507  0.011957388            3 
 4196000   0.58195915   -8.5012067    664.74347  0.013201928  0.011953163            2 
 4197000   0.57575904   -8.5095135    663.68624   0.01317779  0.011948941            3 
 4198000   0.58717878   -8.5246204    662.43818  0.013149877  0.011944718            1 
 4199000   0.59406818   -8.5121575    663.68258  0.013171441  0.011940499            2 
 4200000   0.58713898   -8.5083442    662.67532   0.01314832  0.011936284            1 
 4201000   0.57568241   -8.5291628    664.14963  0.013174435  0.011932071            1 
 4202000   0.57770594   -8.5221357    662.77112  0.013143962   0.01192786            2 
 4203000   0.58027445   -8.5245445    663.19798  0.013149298  0.011923647            3 
 4204000   0.58089883    -8.529648    662.96316  0.013141515  0.011919438            1 
 4205000    0.5726355   -8.5304428    663.19075    0.0131429  0.011915229            1 
 4206000   0.56665039   -8.5272316    662.73809  0.013130807  0.011911015            3 
 4207000   0.59622053   -8.5257449    663.24301  0.013137687  0.011906807            2 
 4208000   0.58896336    -8.518412    662.23163  0.013114536    0.0119026            2 
 4209000   0.57971122   -8.4984157    663.92889  0.013145024  0.011898398            2 
 4210000   0.57706761   -8.5372946     662.7257  0.013118086  0.011894199            1 
 4211000   0.59261254   -8.5178051    661.27621  0.013086286  0.011889999            1 
 4212000   0.57549024   -8.5409046    662.01472   0.01309779  0.011885804            1 
 4213000   0.58846445   -8.5192768    662.30576  0.013100438  0.011881606            2 
 4214000   0.58114569   -8.5088961    663.19626   0.01311494  0.011877412            4 
 4215000   0.58422978   -8.5185138    663.23931  0.013112679  0.011873222            2 
 4216000   0.59402678   -8.5199971     663.6389  0.013117467  0.011869031            3 
 4217000    0.5776709   -8.5272422    662.64385  0.013094693  0.011864844            2 
 4218000   0.58430651   -8.5227087    663.05292   0.01309967  0.011860659            2 
 4219000   0.56762376   -8.5167579    662.70196  0.013089633  0.011856476            1 
 4220000   0.56506262   -8.5141933    662.90175  0.013090477  0.011852297            3 
 4221000   0.58331393   -8.5232053    662.98698  0.013089058  0.011848121            1 
 4222000   0.57283509   -8.5301742    661.64493  0.013059469  0.011843946            1 
 4223000   0.57754034    -8.493046     663.9424  0.013101713  0.011839773            2 
 4224000   0.56299638   -8.5073057    662.94253  0.013078885  0.011835604            2 
 4225000   0.57369037   -8.5120054    662.96721  0.013076276  0.011831434            2 
 4226000   0.57098255   -8.4990266    663.69988   0.01308763  0.011827267            3 
 4227000   0.57561364   -8.5018946    662.99279  0.013070594  0.011823102            3 
 4228000   0.57745826   -8.5295516    663.78924    0.0130832  0.011818938            3 
 4229000   0.58150489   -8.5312443    662.99501  0.013064456  0.011814774            2 
 4230000   0.57145174   -8.5073881    664.96677  0.013100212  0.011810613            3 
 4231000   0.57369033   -8.5090559    663.59152  0.013070029  0.011806456            1 
 4232000   0.57399252   -8.5149936    663.61481  0.013067399  0.011802297            2 
 4233000   0.57712785   -8.5379518    661.76015    0.0130278   0.01179814            1 
 4234000   0.58504204   -8.5193208    663.52082  0.013059377  0.011793986            3 
 4235000   0.59180304   -8.5102776    661.78907  0.013022217  0.011789827            2 
 4236000   0.56852291   -8.5242751    662.48983  0.013032929  0.011785678            2 
 4237000   0.58526374   -8.5332165    662.28391  0.013025803  0.011781527            2 
 4238000   0.56405398   -8.5439321    662.56348  0.013028226  0.011777376            2 
 4239000   0.57361581   -8.5256005     663.1727  0.013037129  0.011773225            2 
 4240000     0.572303    -8.514631    661.38056  0.012998832  0.011769079            3 
 4241000   0.58044066   -8.5122004    663.55175  0.013038429  0.011764935            2 
 4242000   0.57585756   -8.5244251    663.43481  0.013033058  0.011760798            1 
 4243000    0.5715001   -8.5193214    661.46879  0.012991374  0.011756657            2 
 4244000   0.57516827   -8.5315599    662.75432  0.013013555  0.011752513            1 
 4245000   0.58221845   -8.5381624    662.81658  0.013011711  0.011748369            2 
 4246000   0.57297449   -8.5192064    661.63143  0.012985387   0.01174423            2 
 4247000   0.57020071   -8.5114546    661.78384   0.01298532  0.011740092            5 
 4248000   0.57767597   -8.5220411    662.85262  0.013003229  0.011735959            2 
 4249000   0.56174316   -8.5378822    662.81651  0.012999461  0.011731826            4 
 4250000   0.55890496    -8.527421    662.18337  0.012983988  0.011727692            1 
 4251000   0.56426502   -8.5167844    661.98331  0.012977012   0.01172356            1 
 4252000   0.57803792   -8.5253629     663.0314  0.012994501  0.011719435            2 
 4253000   0.55685149   -8.5101235    662.55895  0.012982188  0.011715312            2 
 4254000   0.57304946   -8.5309701     662.5849  0.012979645  0.011711188            2 
 4255000   0.57944494   -8.5121923    662.98374  0.012984405   0.01170707            3 
 4256000   0.58790224   -8.5324907    662.25753  0.012967135   0.01170295            1 
 4257000   0.57241708   -8.5310486    664.34712  0.013004994  0.011698835            3 
 4258000   0.57777248   -8.5239499    662.68911  0.012969491  0.011694722            2 
 4259000   0.57072234   -8.5373195    662.23646  0.012957589  0.011690606            3 
 4260000   0.55569573    -8.510889    663.21841  0.012973756  0.011686497            1 
 4261000   0.56651238   -8.5304207    662.14147  0.012949649  0.011682385            2 
 4262000    0.5692682   -8.5479891    661.32803  0.012930706  0.011678268            2 
 4263000   0.57247927   -8.5172702    662.73651  0.012955206  0.011674156            2 
 4264000   0.57143126   -8.5282271    663.56298   0.01296832  0.011670052            1 
 4265000   0.57006767    -8.499182     661.5641  0.012926223  0.011665945            2 
 4266000   0.56614889   -8.5442752    661.49209  0.012921786  0.011661841            1 
 4267000   0.56719122   -8.5215404    661.86165  0.012925975  0.011657738            2 
 4268000    0.5688594   -8.5025936    662.64486  0.012938239  0.011653637            2 
 4269000   0.55542083   -8.5239249    662.80366  0.012938308  0.011649534            1 
 4270000    0.5678747   -8.5405433    663.59558  0.012950733  0.011645436            2 
 4271000   0.56633051   -8.5471598    662.27807  0.012921995  0.011641342            2 
 4272000   0.57069751   -8.4964432    661.93078  0.012912195  0.011637248            1 
 4273000   0.57127841   -8.5347678    663.23047   0.01293452  0.011633152            1 
 4274000   0.57744135   -8.5324224    663.19503  0.012930803  0.011629056            2 
 4275000   0.57284885   -8.5433352    662.93236  0.012922658  0.011624963            1 
 4276000   0.57619723   -8.5210206    660.86014  0.012879251  0.011620875            2 
 4277000   0.57045387   -8.5436426    663.14875  0.012920831  0.011616788            2 
 4278000   0.58246332   -8.5386629    661.88281  0.012893151  0.011612699            1 
 4279000   0.55628076   -8.5444387    662.24416  0.012897175  0.011608616            1 
 4280000    0.5571349    -8.513006    662.87831  0.012906509  0.011604531            2 
 4281000   0.57560485   -8.5303563    662.50862  0.012896298  0.011600451            1 
 4282000   0.56371984   -8.5348608    662.10178  0.012885369  0.011596378            1 
 4283000   0.57646492   -8.5205501    661.43356  0.012869359  0.011592305            2 
 4284000   0.55258406   -8.5142395    663.06064  0.012898005  0.011588229            2 
 4285000   0.56573399   -8.5389468    664.04929  0.012914222  0.011584153            3 
 4286000   0.56865176   -8.5303296    662.81829  0.012887274   0.01158008            2 
 4287000   0.56312696   -8.5335145    661.47713  0.012858198  0.011576012            2 
 4288000   0.57579205   -8.5484992    662.41654  0.012873456  0.011571944            2 
 4289000   0.55970977   -8.5390917    661.17863  0.012846402  0.011567875            1 
 4290000   0.55895374    -8.523219    662.60567  0.012871128  0.011563808            2 
 4291000    0.5623691   -8.5599252    663.03592  0.012876484  0.011559742            2 
 4292000   0.55525294   -8.5413224     662.4269  0.012861659  0.011555671            5 
 4293000   0.55954763   -8.5179645    661.79473  0.012846392  0.011551608            1 
 4294000   0.55757284    -8.546761    661.05083  0.012828963  0.011547543            2 
 4295000   0.55685067   -8.5694746    662.03776  0.012845125  0.011543475            5 
 4296000   0.56283657   -8.5346496    661.62269  0.012834084  0.011539414            3 
 4297000   0.56479139   -8.5426098    661.43755  0.012827507  0.011535351            2 
 4298000     0.563517   -8.5350795    661.87246  0.012832954  0.011531285            1 
 4299000   0.55742959   -8.5325081    662.20299  0.012836376  0.011527227            2 
 4300000   0.57116768   -8.5440356    662.02231   0.01282989  0.011523174            1 
 4301000   0.56037895   -8.5348363    662.35985  0.012833447  0.011519119            3 
 4302000    0.5602452   -8.5334187    662.09243  0.012825283  0.011515066            2 
 4303000   0.56437755   -8.5363369    662.08353  0.012822131  0.011511013            1 
 4304000   0.55891861   -8.5294664    661.73911  0.012812483  0.011506964            2 
 4305000   0.56933396   -8.5437189    661.88957  0.012812419  0.011502917            2 
 4306000    0.5717767   -8.5570687    660.75864  0.012787557  0.011498869            2 
 4307000    0.5525362   -8.5575543    662.82099  0.012824491  0.011494823            4 
 4308000   0.56382078   -8.5633855    662.63838  0.012817982   0.01149078            2 
 4309000   0.55617692   -8.5458763    662.09498  0.012804498   0.01148674            3 
 4310000   0.55178454   -8.5242945    662.31485  0.012805778  0.011482702            3 
 4311000   0.56006492   -8.5488261    661.50769  0.012787205  0.011478666            3 
 4312000    0.5503317   -8.5553894    661.59833  0.012785991  0.011474628            3 
 4313000   0.56871785   -8.5461311     662.2351   0.01279533  0.011470594            2 
 4314000   0.56052519   -8.5310211    661.15958  0.012771588  0.011466563            2 
 4315000   0.56100878   -8.5607386    661.98317  0.012784534  0.011462532            1 
 4316000   0.55830723   -8.5750662    662.15448   0.01278488  0.011458506            1 
 4317000    0.5642674   -8.5554203     662.2527  0.012783814   0.01145448            2 
 4318000    0.5610386     -8.55504    662.42895  0.012784255   0.01145046            3 
 4319000   0.56559861   -8.5608899    662.04198  0.012773828  0.011446438            6 
 4320000   0.55396638   -8.5387381    661.01525  0.012751066  0.011442419            5 
 4321000   0.56846354   -8.5417994    661.64056  0.012760174  0.011438403            3 
 4322000   0.54487402   -8.5560677    661.46786  0.012753892  0.011434385            2 
 4323000   0.56334231   -8.5572011    662.74966  0.012775651  0.011430367            2 
 4324000   0.55900246   -8.5551747    661.22286  0.012743271  0.011426355            1 
 4325000   0.56441801   -8.5568457     662.3187  0.012761439  0.011422343            2 
 4326000   0.54853209   -8.5504387      661.691  0.012746398  0.011418331            2 
 4327000   0.55697645   -8.5370101    661.98437  0.012749102  0.011414322            2 
 4328000   0.55024572   -8.5364341    663.06858  0.012767032  0.011410316            2 
 4329000   0.54689278   -8.5323134    661.67371  0.012737232  0.011406315            2 
 4330000   0.55162019   -8.5384726    661.07794  0.012722824  0.011402309            1 
 4331000   0.56216601    -8.549743    660.45963  0.012707989  0.011398307            2 
 4332000   0.56277819   -8.5439128    661.82113  0.012731247  0.011394307            3 
 4333000   0.56966281   -8.5518123    662.04227  0.012732562  0.011390305            2 
 4334000    0.5572508   -8.5615985    661.96447  0.012728128  0.011386309            3 
 4335000   0.56430228    -8.558651    661.61442  0.012718462   0.01138231            2 
 4336000   0.55315319   -8.5619928    662.22888  0.012727339  0.011378316            1 
 4337000   0.55939642   -8.5310943    661.27597  0.012706094  0.011374325            2 
 4338000   0.55727692      -8.5526     661.7627  0.012712515  0.011370334            2 
 4339000   0.55690868   -8.5668069    662.26253  0.012719185  0.011366341            3 
 4340000   0.55413093   -8.5434944    660.76011  0.012687406  0.011362357            2 
 4341000   0.56170418    -8.549904    662.34725  0.012714951  0.011358372            1 
 4342000   0.54519462   -8.5738032    660.98834  0.012685942  0.011354386            6 
 4343000   0.55308695   -8.5599734    661.64589  0.012695638  0.011350405            2 
 4344000   0.55244903   -8.5570749    661.84965  0.012696625  0.011346427            1 
 4345000   0.55630455   -8.5519454    661.84165  0.012693549  0.011342453            1 
 4346000   0.55018473   -8.5510799    662.38646  0.012701075  0.011338476            2 
 4347000   0.55407147   -8.5433314    661.66932  0.012684405  0.011334503            1 
 4348000   0.55858759   -8.5485712    661.53448  0.012678904  0.011330529            2 
 4349000   0.55992623   -8.5596142    660.99061  0.012665567  0.011326558            1 
 4350000   0.56344434   -8.5582584    660.91307   0.01266117   0.01132259            2 
 4351000   0.55437421   -8.5624431     661.8682  0.012676553  0.011318616            1 
 4352000   0.55005786    -8.549739    661.80206  0.012672374  0.011314649            3 
 4353000   0.55468174   -8.5561089    661.60727  0.012665734  0.011310685            1 
 4354000   0.54967516   -8.5338645    660.76262  0.012646659  0.011306718            2 
 4355000   0.55053788   -8.5652575    662.08412  0.012669042  0.011302761            1 
 4356000   0.56791285   -8.5598413    662.29943  0.012670252  0.011298805            1 
 4357000   0.54792829   -8.5704746    660.54336  0.012633757  0.011294849            4 
 4358000   0.55630878   -8.5497634    660.79523  0.012635674  0.011290888            3 
 4359000   0.55220964   -8.5511717    663.02386  0.012675382  0.011286938            1 
 4360000    0.5470562    -8.573579    660.79429   0.01262986   0.01128299            3 
 4361000   0.55918464     -8.57004    662.77489  0.012664811  0.011279038            5 
 4362000   0.55336889    -8.560439    662.50933  0.012656834  0.011275092            1 
 4363000    0.5577378   -8.5659575     661.4448  0.012633601  0.011271144            1 
 4364000   0.55661004   -8.5543363    661.33618  0.012628632  0.011267196            3 
 4365000   0.55644632   -8.5637274    661.08813  0.012621003  0.011263245            2 
 4366000   0.54964049    -8.556564    661.71706  0.012630116  0.011259295            2 
 4367000   0.54467208   -8.5597031    661.70701  0.012627032  0.011255347            4 
 4368000   0.54197104   -8.5874453    661.21881  0.012614828  0.011251402            3 
 4369000   0.54904669   -8.5872497    660.72864  0.012602591  0.011247458            4 
 4370000   0.55582566   -8.5686464    661.11317   0.01260704  0.011243514            1 
 4371000   0.54816298   -8.5629344    661.79165  0.012617091  0.011239574            2 
 4372000   0.55834639   -8.5771584    660.64716   0.01259239  0.011235634            1 
 4373000   0.56564819   -8.5670569    661.52516  0.012606242  0.011231694            1 
 4374000   0.56147953    -8.544592     661.1493  0.012596199  0.011227756            5 
 4375000   0.54708207   -8.5611966    661.25966  0.012595422   0.01122382            2 
 4376000   0.54373426   -8.5682952    660.29012  0.012574081  0.011219885            6 
 4377000   0.55602542    -8.562234    661.65934  0.012597276   0.01121595           10 
 4378000   0.55902413   -8.5772845     661.1842  0.012585355  0.011212019            1 
 4379000   0.54376576    -8.572391    661.42916  0.012587142  0.011208091            3 
 4380000   0.54385404   -8.5716368    661.21461  0.012580187  0.011204165            4 
 4381000   0.55508244   -8.5561124    661.35647  0.012580013   0.01120024            2 
 4382000    0.5668875   -8.5589848    660.74422  0.012565499  0.011196319            2 
 4383000   0.54064061   -8.5826238    661.37366    0.0125746  0.011192398            2 
 4384000   0.54391804   -8.5737622    660.68805  0.012558699  0.011188478            1 
 4385000   0.55149335   -8.5702852    660.31799  0.012548802  0.011184561            1 
 4386000   0.53781135     -8.56905    661.23766  0.012563415  0.011180648            1 
 4387000   0.55093949    -8.565079    661.05708  0.012557121   0.01117673            2 
 4388000   0.54967101   -8.5686624    660.91951  0.012551647  0.011172815            2 
 4389000   0.54934789   -8.5635514    661.90765  0.012567549  0.011168905            1 
 4390000   0.55414353   -8.5719757     661.0684  0.012548755  0.011164997            2 
 4391000    0.5534212   -8.5743592    660.33332  0.012531946  0.011161085            5 
 4392000   0.54694985   -8.5628493    660.71066  0.012536253  0.011157176            2 
 4393000   0.55824815   -8.5856622    661.51024  0.012548567  0.011153275            3 
 4394000   0.55302382   -8.5647155     661.5417  0.012546307  0.011149375            4 
 4395000   0.54929479   -8.5802606     660.8969  0.012531227  0.011145471            3 
 4396000    0.5504281   -8.5823262    661.23894   0.01253486  0.011141573            2 
 4397000   0.54703466   -8.5705937    661.54596  0.012537828   0.01113767            5 
 4398000   0.53969075   -8.5627296    660.43736  0.012513972   0.01113377            3 
 4399000   0.55066476   -8.5723226     661.3616  0.012528635  0.011129872            3 
 4400000   0.54607728   -8.5730349    662.33835  0.012544287  0.011125976            3 
 4401000   0.55019051   -8.5856479    661.15049  0.012518944  0.011122083            2 
 4402000   0.54612598   -8.5814431    662.32979  0.012538426  0.011118193            1 
 4403000   0.53101981   -8.5612559    661.20827  0.012514351  0.011114304            2 
 4404000   0.55281742   -8.5782764    660.65932  0.012501123  0.011110416            1 
 4405000   0.54897562   -8.5665526     659.5976  0.012478199  0.011106534            1 
 4406000   0.55695099   -8.5791174    659.50539  0.012473623  0.011102652            2 
 4407000   0.57117505   -8.5770198     660.9585   0.01249827   0.01109877            2 
 4408000   0.55395281   -8.5773642    659.84101  0.012474308  0.011094889            3 
 4409000   0.53697266   -8.5819969    660.35487  0.012481191  0.011091014            2 
 4410000   0.55114722   -8.5659606    661.86089  0.012506819  0.011087141            1 
 4411000   0.54878458   -8.5721757     661.8471  0.012503724  0.011083268            3 
 4412000   0.55313256   -8.5757736    661.10616  0.012486895  0.011079402            3 
 4413000   0.54791769   -8.5757554    662.05569  0.012501996  0.011075538            5 
 4414000   0.53880249   -8.5706823    662.10677  0.012500128  0.011071677            2 
 4415000   0.54226153   -8.5420678    660.81355  0.012472887  0.011067818            3 
 4416000   0.53805139   -8.5782684    660.49729  0.012464094  0.011063955            3 
 4417000   0.53882859   -8.5799769    661.74525  0.012484817  0.011060095            1 
 4418000   0.54546918   -8.5727751    660.98315  0.012467616  0.011056236            3 
 4419000    0.5494254   -8.5875645    661.45809  0.012473751  0.011052375            3 
 4420000   0.54672157    -8.572978    661.05639  0.012463356  0.011048518            2 
 4421000   0.54080918   -8.5536954     661.6816  0.012472322  0.011044669            2 
 4422000   0.54685804   -8.5841292    660.62878   0.01244966   0.01104082            2 
 4423000   0.53104242    -8.576659    660.51727  0.012444745  0.011036973            3 
 4424000   0.55219963   -8.5597593    660.79182  0.012447103  0.011033128            5 
 4425000   0.54283167   -8.5768705      661.805  0.012463371  0.011029282            3 
 4426000   0.53795147   -8.5733843    662.04038  0.012464987  0.011025435            2 
 4427000   0.54312988   -8.5663465    661.72264   0.01245619  0.011021595            2 
 4428000   0.54754757   -8.5860759    660.73173  0.012434728  0.011017752            2 
 4429000   0.54826622     -8.56375    661.20666  0.012440857  0.011013907            3 
 4430000    0.5492769   -8.5892668    660.41518   0.01242316  0.011010068            2 
 4431000   0.54583471   -8.5780965    661.42847  0.012439413   0.01100623            2 
 4432000   0.53781058   -8.5846771    660.70735  0.012423047  0.011002398            3 
 4433000   0.54612961   -8.5744078     661.5319  0.012435745   0.01099856            1 
 4434000   0.54122211   -8.5890438    661.67216  0.012435577  0.010994728            1 
 4435000   0.53587812   -8.5814545    660.94178  0.012419049  0.010990896            2 
 4436000   0.53769964   -8.5629796     661.3661   0.01242422   0.01098707            2 
 4437000   0.54320127   -8.5657844    660.56595  0.012406392  0.010983241            1 
 4438000   0.55133393   -8.6029632    660.70703  0.012406246  0.010979414            2 
 4439000   0.53661975   -8.5934424    660.84242  0.012405993  0.010975583            2 
 4440000    0.5433286   -8.5734495     660.8047  0.012402491  0.010971758            2 
 4441000   0.55039158   -8.5887467    661.83218  0.012418978  0.010967935            2 
 4442000   0.53549329    -8.576428    661.73421  0.012414344  0.010964117            3 
 4443000   0.53340255   -8.5671463    661.15144   0.01240062    0.0109603            2 
 4444000   0.54343838   -8.5649276    661.67846  0.012407712  0.010956486            2 
 4445000   0.53832168   -8.6031184    660.33492  0.012379732  0.010952669            3 
 4446000   0.54467103    -8.589334    660.07817  0.012372135  0.010948854            2 
 4447000    0.5462577    -8.575929    660.75504  0.012382037  0.010945046            6 
 4448000    0.5242043   -8.5918969    660.75232  0.012379203  0.010941237            3 
 4449000   0.54297923   -8.5840107    660.84944  0.012378239  0.010937429            2 
 4450000   0.55120978   -8.5928368    660.64669  0.012371661  0.010933622            2 
 4451000   0.54046811   -8.5845085     660.4734  0.012365637  0.010929815            4 
 4452000   0.53676336   -8.5588249    660.23997   0.01235849  0.010926009            1 
 4453000   0.53966881   -8.5769424    661.05734  0.012371011  0.010922206            2 
 4454000   0.53110115   -8.5911148    661.32968  0.012373329  0.010918404            4 
 4455000   0.53709866   -8.6000089    660.92469  0.012362976  0.010914604            3 
 4456000    0.5363792   -8.5828746    659.59677  0.012335367  0.010910806           11 
 4457000   0.54262935   -8.5788307    660.38929  0.012347418  0.010907009            4 
 4458000   0.53254472   -8.6028262    660.17457  0.012340634  0.010903212            1 
 4459000   0.55518108   -8.5872548    660.05632  0.012335657  0.010899419            3 
 4460000   0.53938039   -8.5958631    660.77015  0.012346229  0.010895625            3 
 4461000   0.53435585   -8.5884249    660.43607   0.01233722  0.010891837            6 
 4462000   0.53496176   -8.6051415     661.5076  0.012354467  0.010888049            1 
 4463000   0.54072126   -8.6170979    661.11298  0.012344331  0.010884258            2 
 4464000   0.53581862   -8.5969141    660.05151   0.01232175  0.010880477            6 
 4465000   0.54977606   -8.5971414    662.01906  0.012355712  0.010876698            5 
 4466000   0.54389407   -8.5954792    661.50767  0.012343403  0.010872915            2 
 4467000   0.53306883    -8.589352    660.96959  0.012330602  0.010869136            2 
 4468000   0.52526579    -8.574651    660.52273  0.012319508   0.01086536            1 
 4469000   0.53289926   -8.5776758    661.07479  0.012327045  0.010861584            4 
 4470000   0.51614534   -8.6048809    660.00902  0.012304419  0.010857807            3 
 4471000   0.54113704   -8.5658791    661.19373  0.012323748  0.010854032            3 
 4472000   0.53573587   -8.5908356    660.14529  0.012301455  0.010850257            1 
 4473000   0.54455434   -8.5920264    659.95387  0.012295139  0.010846486            1 
 4474000    0.5412928    -8.595266    661.21084  0.012315803  0.010842718            2 
 4475000   0.54478227   -8.6002439     661.0486   0.01231003  0.010838951            2 
 4476000   0.53699127   -8.5821718    660.29082  0.012293171  0.010835184            1 
 4477000   0.53839526   -8.5735196    660.04036  0.012285764  0.010831417            2 
 4478000   0.54159646   -8.5923771    661.09241  0.012302598  0.010827649            3 
 4479000   0.52620777   -8.5864681    661.09105  0.012299826  0.010823888            2 
 4480000   0.53258108   -8.5919276    660.65608   0.01228899  0.010820128            2 
 4481000   0.52017106   -8.5902476    661.27956  0.012297842  0.010816369            1 
 4482000   0.53285825    -8.608282    660.68497  0.012284043  0.010812617            3 
 4483000   0.53466569   -8.6074158    660.83927  0.012284171  0.010808863            1 
 4484000    0.5340002   -8.6040867    659.16802  0.012250372  0.010805107            1 
 4485000   0.53527107   -8.5852415    661.44073  0.012289869  0.010801356            2 
 4486000   0.53727261    -8.595588    659.63771  0.012253636  0.010797604            4 
 4487000   0.51567897   -8.6010331    660.44367  0.012265873  0.010793855            3 
 4488000   0.53695092   -8.5856606    660.17514  0.012258154  0.010790111            2 
 4489000   0.53403352   -8.6006367    660.10235  0.012254072  0.010786369            3 
 4490000   0.54299163   -8.5981299    660.58188  0.012260243  0.010782625            2 
 4491000    0.5314482   -8.5893921    660.49681  0.012255934  0.010778885            3 
 4492000   0.52881839   -8.6105697    661.62269  0.012274093  0.010775146            2 
 4493000   0.52426923   -8.6032493    659.79036  0.012237376  0.010771406            1 
 4494000   0.52760281   -8.5928789    660.11054   0.01224059  0.010767669            2 
 4495000   0.52316757   -8.5912115    660.12526   0.01223814  0.010763933            1 
 4496000   0.55549334   -8.5978121    660.55488  0.012243381    0.0107602            4 
 4497000   0.52666501   -8.6004957    660.33475  0.012236579  0.010756467            2 
 4498000   0.52777665   -8.5979019    660.54343  0.012237725  0.010752738            3 
 4499000    0.5290813   -8.5885823    659.50928  0.012215849  0.010749013            2 
 4500000   0.52776606   -8.6091073    660.95743  0.012239952  0.010745287            2 
 4501000    0.5178744   -8.6026335    660.04663   0.01222037   0.01074156            2 
 4502000   0.53847925   -8.5763005    660.14465   0.01221947  0.010737837            1 
 4503000   0.53294274   -8.6097859    658.91607   0.01219402  0.010734113            2 
 4504000    0.5463985   -8.5971294    660.19622  0.012214998  0.010730391            1 
 4505000   0.52325284   -8.5939806    659.67517  0.012202648  0.010726672            3 
 4506000   0.53417966   -8.6101705    660.57966  0.012216668  0.010722954            1 
 4507000   0.53189316    -8.606947    659.50426  0.012194073  0.010719238            3 
 4508000   0.51990584   -8.6003856    659.51518   0.01219157  0.010715524            1 
 4509000   0.52955925   -8.5801097    661.30798     0.012222  0.010711808            1 
 4510000   0.53486911   -8.6113951     660.7779  0.012209496  0.010708094            1 
 4511000   0.52467598   -8.6143397    660.21217  0.012196338  0.010704382            1 
 4512000   0.53475234   -8.5961583     660.3462   0.01219611  0.010700673            2 
 4513000   0.51993958   -8.6032036    660.61573  0.012198385  0.010696965            3 
 4514000   0.54489064   -8.6306642    660.59181  0.012195241  0.010693259            3 
 4515000   0.52693984   -8.5938993    660.19578   0.01218523  0.010689557            1 
 4516000   0.52501848   -8.6047079    660.82883  0.012194214  0.010685855            2 
 4517000   0.53569865   -8.6077279    660.05815  0.012177296  0.010682153            1 
 4518000   0.52671493   -8.5984623    660.47616  0.012182311  0.010678455            1 
 4519000   0.53408538   -8.5997099    661.14217  0.012191897  0.010674756            2 
 4520000   0.53042078    -8.607416      661.453   0.01219493  0.010671058            1 
 4521000   0.52962024   -8.6141044    659.87206  0.012163092  0.010667364            2 
 4522000   0.53210086   -8.5971656    660.18217  0.012166117   0.01066367            1 
 4523000   0.52315734   -8.6128681    659.53185  0.012151445  0.010659979            4 
 4524000   0.53868673   -8.6149197    659.28595   0.01214423  0.010656289            3 
 4525000   0.54042149   -8.5819942    659.97955   0.01215432  0.010652601            2 
 4526000   0.52447351   -8.5757706    660.58194  0.012162725  0.010648917            1 
 4527000   0.51860808   -8.5943898    660.76986  0.012163498  0.010645232            2 
 4528000   0.52367831   -8.6034854    659.54492  0.012138268  0.010641553            2 
 4529000   0.51949893   -8.6028917    660.02167   0.01214436  0.010637875            1 
 4530000   0.52917385   -8.6177892    659.97197  0.012140765  0.010634201            1 
 4531000   0.52412786    -8.616635    660.52674  0.012148289  0.010630522            2 
 4532000   0.51718419   -8.5911991    660.74593  0.012149638  0.010626849            1 
 4533000   0.52575633   -8.6163316    659.24363   0.01211934  0.010623176            1 
 4534000   0.51375318   -8.6032185    659.72853  0.012125579  0.010619499            3 
 4535000   0.52445433   -8.6237978    660.51633  0.012137382  0.010615831            3 
 4536000   0.51215193   -8.5916422    661.45039  0.012151866  0.010612163            1 
 4537000   0.52914019   -8.5988239    661.04374  0.012141719  0.010608496            4 
 4538000   0.52258752   -8.5960482     660.2166  0.012123854  0.010604832            2 
 4539000   0.52861919   -8.6023285     660.6637  0.012129392  0.010601166            2 
 4540000   0.52566011   -8.6190617    660.01047   0.01211473  0.010597502            3 
 4541000   0.52201951   -8.5980397    659.99685  0.012111812  0.010593838            3 
 4542000   0.53412106   -8.5889587    659.77579  0.012105089  0.010590178            3 
 4543000   0.52973231   -8.6047301    660.41438  0.012114139  0.010586518            3 
 4544000   0.52291981   -8.5983013    659.21202  0.012089422  0.010582864            1 
 4545000   0.53300221   -8.6059749    660.07828  0.012102645  0.010579211            3 
 4546000   0.52817967    -8.600418    660.39475  0.012105784  0.010575558            2 
 4547000    0.5243788   -8.6008848    659.64885  0.012089452  0.010571906            1 
 4548000   0.51340162   -8.5998092    660.74353  0.012106852  0.010568257            4 
 4549000   0.53908945   -8.6082501    659.16752  0.012075319  0.010564609            2 
 4550000   0.51895106   -8.6034362    659.40818  0.012077073  0.010560961            8 
 4551000   0.53009253   -8.6065707    660.97368  0.012103085  0.010557317            1 
 4552000   0.53219436   -8.6114687    659.96084  0.012081884  0.010553673            1 
 4553000   0.53225755   -8.6154624    660.82961  0.012095132  0.010550031            2 
 4554000   0.51532485   -8.6063459    659.11284  0.012061061  0.010546393            4 
 4555000   0.52784377   -8.6222381    659.85555  0.012072001  0.010542754            1 
 4556000   0.53267668   -8.6173655    659.63241  0.012065269  0.010539116            1 
 4557000   0.52003298    -8.592709    660.31599  0.012075122  0.010535481            3 
 4558000   0.52403748   -8.6115345    660.37243  0.012073505  0.010531848            1 
 4559000   0.53121037   -8.6222789     660.3686  0.012070787  0.010528215            2 
 4560000   0.52001749   -8.6097328    661.14545  0.012082336  0.010524584            4 
 4561000   0.52990179   -8.6023273    659.14538  0.012043144  0.010520954            2 
 4562000   0.52120449   -8.6123909     659.9477   0.01205516  0.010517326            2 
 4563000   0.52386649   -8.6115149    658.08292  0.012018462  0.010513701            1 
 4564000   0.53171614   -8.6131707    660.16392  0.012053826  0.010510074            5 
 4565000   0.52989797   -8.6012116    660.72291  0.012061389  0.010506451            2 
 4566000   0.52385297   -8.6194803     660.3685   0.01205228   0.01050283            1 
 4567000   0.52031972    -8.633851    658.84426  0.012021828  0.010499205            3 
 4568000   0.52329355   -8.6063879    659.88792  0.012038235  0.010495585            2 
 4569000   0.51906316    -8.605188    659.39277   0.01202657  0.010491969            2 
 4570000   0.51149412   -8.6120696     659.5769  0.012027296  0.010488353            2 
 4571000   0.53037952   -8.6060009    659.26417  0.012018963  0.010484736            1 
 4572000   0.51677364   -8.6019827    659.59915   0.01202244  0.010481124            1 
 4573000   0.52062292   -8.6062905    659.28984  0.012014175  0.010477512            2 
 4574000   0.51010829    -8.601474    660.03997  0.012025214  0.010473904            2 
 4575000   0.52021916   -8.6160591    659.21619  0.012007581  0.010470297            2 
 4576000   0.52021078   -8.6168153    659.03865  0.012001724  0.010466687            1 
 4577000    0.5262853   -8.6039079    659.64825    0.0120102  0.010463083            4 
 4578000    0.5274906   -8.6168992    659.75373  0.012009497  0.010459479            2 
 4579000    0.5266048   -8.6282607    660.52112   0.01202084  0.010455875            2 
 4580000   0.52468299   -8.6157979    659.44252   0.01199859  0.010452269            2 
 4581000   0.50745827   -8.6444368    659.59041  0.011998661  0.010448663            3 
 4582000   0.50696415    -8.608677    660.36142  0.012010065   0.01044506            1 
 4583000   0.50886218   -8.6329791    659.07834  0.011984114  0.010441458            3 
 4584000   0.53068859   -8.6141527    660.61117  0.012009365  0.010437859            4 
 4585000   0.52345001    -8.617682    659.55764  0.011987598  0.010434264            3 
 4586000   0.51551992   -8.6189558    659.76094  0.011988678  0.010430671            2 
 4587000   0.53410527   -8.6183068     659.3055   0.01197779  0.010427075            6 
 4588000   0.51621136   -8.6151801    659.52663  0.011979196  0.010423485            1 
 4589000   0.51445135   -8.6196721    660.19011  0.011988634  0.010419895            2 
 4590000   0.51138214   -8.6252109    658.41401  0.011953776  0.010416305            2 
 4591000   0.52041153   -8.6151505    659.92892  0.011978671  0.010412717            2 
 4592000    0.5225826   -8.6245605    660.31029  0.011982983  0.010409133            1 
 4593000   0.52249722   -8.6093457    659.41861  0.011964196  0.010405548            2 
 4594000   0.51791611   -8.6125048    660.33487  0.011978212  0.010401968            2 
 4595000   0.51475901   -8.6065276    659.79754   0.01196586  0.010398388            1 
 4596000   0.52168761   -8.6265425    659.01668  0.011949098  0.010394809            1 
 4597000   0.51278315   -8.6091636    659.58837  0.011956863  0.010391227            1 
 4598000   0.51653752   -8.6214847    660.64563  0.011973424   0.01038765            2 
 4599000   0.50547176   -8.6294772    659.31882  0.011946779  0.010384074            3 
 4600000   0.50761511   -8.6206365    660.16061  0.011959431  0.010380498            2 
 4601000   0.51214202   -8.6215547    659.05976  0.011936893  0.010376923            1 
 4602000   0.52151538   -8.6146317    660.61253  0.011962417   0.01037335            1 
 4603000   0.51929321   -8.6176366      658.239  0.011916848  0.010369781            2 
 4604000   0.52088012   -8.6116351    659.27894  0.011933082   0.01036621            2 
 4605000   0.51079761   -8.6150127    659.50147  0.011934518  0.010362641            2 
 4606000   0.50769585   -8.6302829    659.70344  0.011935581  0.010359075            3 
 4607000    0.5178542    -8.634053    659.75535  0.011933929  0.010355511            2 
 4608000   0.50351004   -8.6267969    658.42217   0.01190723  0.010351947            2 
 4609000   0.52332846   -8.6289675    658.85797  0.011912526  0.010348388            3 
 4610000   0.50434957   -8.6165864     659.6139  0.011923606  0.010344825            4 
 4611000   0.51599461   -8.6327822    658.83043  0.011906861  0.010341269            2 
 4612000   0.50953195   -8.6337009    658.65052  0.011901029   0.01033771            1 
 4613000   0.52058958   -8.6252938      659.884  0.011920731  0.010334156            2 
 4614000   0.51942247   -8.6223106    658.93552  0.011901017  0.010330606            2 
 4615000    0.5154556   -8.6180203    659.97798  0.011917262  0.010327058            1 
 4616000    0.5238428   -8.6166188    659.34635  0.011903277  0.010323508            2 
 4617000   0.51337657    -8.616074    659.12548  0.011896713  0.010319956            4 
 4618000   0.51798136   -8.6286068      658.772  0.011887758  0.010316404            1 
 4619000   0.50669782   -8.6185042    659.26224  0.011894029  0.010312858            2 
 4620000   0.50710443   -8.6149602    658.60125  0.011879532  0.010309316            3 
 4621000   0.51475031   -8.6257738     658.9565  0.011883368  0.010305774            2 
 4622000   0.50546651   -8.6198232    659.37133  0.011888276  0.010302235            2 
 4623000   0.51725607   -8.6329393    659.72592  0.011892096  0.010298694            2 
 4624000   0.51068966   -8.6239581    658.34006  0.011864548  0.010295156            4 
 4625000   0.50530022   -8.6247687    659.59018  0.011884508  0.010291619            1 
 4626000   0.51421578   -8.6192039    659.42926   0.01187904  0.010288081            2 
 4627000   0.50886538   -8.6300993    658.48042  0.011859384  0.010284545            2 
 4628000   0.50903059   -8.6347315    659.22174   0.01187017  0.010281013            2 
 4629000   0.51363428   -8.6199647    658.49762  0.011854569  0.010277482            2 
 4630000   0.52303538    -8.635349     658.1938  0.011846541  0.010273952            3 
 4631000   0.49685877   -8.6389486    658.40025  0.011847698  0.010270423            2 
 4632000   0.50944092   -8.6256005    660.01964  0.011874274  0.010266892            2 
 4633000   0.51569865   -8.6107804    659.47222  0.011861865  0.010263366            4 
 4634000   0.51397936   -8.6192045    659.07535  0.011852168  0.010259843            2 
 4635000   0.53156516   -8.6281179    659.01675  0.011848557  0.010256319            3 
 4636000   0.51665615   -8.6408131    659.05466  0.011846683  0.010252798            3 
 4637000   0.51211264   -8.6413373    659.79069  0.011857356  0.010249278            2 
 4638000    0.5206206   -8.6422918    659.29359  0.011845867  0.010245761            5 
 4639000   0.50251528   -8.6226081    659.11194  0.011840051  0.010242244            4 
 4640000    0.5126754   -8.6189756    659.43535  0.011843307  0.010238729            2 
 4641000   0.51193754   -8.6254469    658.43952  0.011822874  0.010235212            1 
 4642000   0.49235228   -8.6552281    659.14463  0.011832986  0.010231696            4 
 4643000   0.50173326   -8.6269535    659.00818  0.011827988   0.01022818            2 
 4644000   0.50686391   -8.6309153    658.81484  0.011821972  0.010224672            1 
 4645000   0.50955459   -8.6371628    659.50419  0.011831794  0.010221164            2 
 4646000   0.50294597   -8.6461769    659.24718  0.011824637  0.010217654            2 
 4647000   0.51389208   -8.6560767    658.42633  0.011807373  0.010214147            4 
 4648000   0.51053226   -8.6293965    657.41088  0.011786626  0.010210644            3 
 4649000    0.5064134     -8.63923    659.25973  0.011817232  0.010207141            1 
 4650000   0.50268707   -8.6433522    659.50839  0.011819147  0.010203641            4 
 4651000   0.51548973   -8.6307303      659.159  0.011810345  0.010200144            5 
 4652000   0.51119855   -8.6216113     659.4251  0.011812573  0.010196646            1 
 4653000   0.51608438   -8.6377031    658.15897  0.011787359  0.010193151            2 
 4654000   0.50473043   -8.6519827    658.30123  0.011787373  0.010189655            2 
 4655000   0.51317734   -8.6405711    658.98108  0.011797012  0.010186159            3 
 4656000    0.5039556   -8.6338765    659.44747  0.011802826  0.010182668            2 
 4657000   0.50994019   -8.6262984    659.58573  0.011802765  0.010179177            3 
 4658000   0.49847688   -8.6282306    659.63524  0.011801117   0.01017569            2 
 4659000   0.49891568   -8.6360321    658.72707   0.01178234    0.0101722            4 
 4660000   0.50480189   -8.6355163    657.99701  0.011766756  0.010168715            2 
 4661000    0.5112402   -8.6413682     660.0192  0.011800386  0.010165231            2 
 4662000   0.51921811   -8.6462992    659.04672  0.011780472   0.01016175            3 
 4663000    0.5202635   -8.6426558    658.65445  0.011770935  0.010158271            1 
 4664000   0.50107478   -8.6162168     659.1377  0.011777046  0.010154795            4 
 4665000   0.50525043    -8.625654    658.26025  0.011758847  0.010151316            2 
 4666000   0.49432783   -8.6388383    659.67427  0.011781581  0.010147845            3 
 4667000   0.49236278   -8.6380382    659.80847  0.011781452  0.010144369            2 
 4668000   0.49422571    -8.634038    658.50195  0.011755605  0.010140893            2 
 4669000   0.50829987   -8.6296081    658.93054  0.011760736  0.010137419            4 
 4670000   0.50393317   -8.6360207    658.97651  0.011759038  0.010133947            2 
 4671000    0.5099218   -8.6539517    658.66256   0.01175092   0.01013048            2 
 4672000    0.5019014   -8.6460987    658.30223  0.011741978  0.010127012            4 
 4673000   0.50297348   -8.6480851    658.79308  0.011748218  0.010123544            3 
 4674000   0.50946725   -8.6256999    658.77395  0.011745364  0.010120081            2 
 4675000   0.50905011   -8.6480184    659.25672  0.011751457   0.01011662            2 
 4676000   0.50788764   -8.6468401      658.872  0.011742087  0.010113157            1 
 4677000   0.50100479   -8.6520379    659.78885  0.011755913  0.010109699            4 
 4678000   0.49937876   -8.6411737    658.34514  0.011727682  0.010106242            4 
 4679000   0.50841427   -8.6524113    659.70487  0.011749392  0.010102784            2 
 4680000   0.51382176   -8.6351832    658.19328  0.011719966  0.010099334            2 
 4681000    0.5061533   -8.6521754    658.78975  0.011728081  0.010095882            2 
 4682000   0.49533058    -8.647553    659.04832  0.011730178  0.010092435            2 
 4683000   0.50527296   -8.6563389    658.53477  0.011718535  0.010088987            4 
 4684000   0.49958732   -8.6444261     658.8455  0.011721561  0.010085539            1 
 4685000   0.50009965   -8.6523499    657.68933  0.011698494  0.010082094            2 
 4686000   0.49930996   -8.6386393     658.6329  0.011712777  0.010078648            3 
 4687000   0.49725399   -8.6280134    658.72595  0.011711933  0.010075205            3 
 4688000   0.50621299    -8.634187    658.37775  0.011703245  0.010071766            3 
 4689000   0.49889289   -8.6399621    658.56199  0.011704023  0.010068328            3 
 4690000   0.50840303   -8.6286894    658.73461  0.011704595   0.01006489            4 
 4691000   0.51927609   -8.6484867    657.81814  0.011685819  0.010061454            4 
 4692000   0.50080274   -8.6505187    659.35608  0.011710644  0.010058014            4 
 4693000   0.50307926   -8.6488826    658.92366   0.01170047  0.010054578            3 
 4694000    0.5079016   -8.6420249     658.5629  0.011691573  0.010051144            3 
 4695000   0.50217182    -8.628473    658.80731   0.01169342   0.01004771            1 
 4696000   0.50822658   -8.6444557    659.11595  0.011696407   0.01004428            3 
 4697000   0.49567999   -8.6504336    658.62659  0.011685235  0.010040851            2 
 4698000   0.49558667    -8.627426     660.1493  0.011709758  0.010037427            5 
 4699000    0.4948222   -8.6432686    658.29614  0.011674401  0.010034001            2 
 4700000   0.49384787   -8.6506769    658.46536  0.011674918  0.010030575            2 
 4701000   0.49523446   -8.6524221    659.20925  0.011685621  0.010027149            2 
 4702000   0.50275382    -8.635277    658.44937  0.011669668  0.010023726            6 
 4703000    0.4934621   -8.6548112     658.3784   0.01166593  0.010020302            1 
 4704000   0.50287199     -8.64968    659.31999   0.01168013   0.01001688            6 
 4705000   0.50349505   -8.6652079    658.46554  0.011662514  0.010013463            2 
 4706000    0.4993147   -8.6496858    658.79994  0.011665957  0.010010042            6 
 4707000   0.50722122   -8.6506278    658.49198  0.011658027  0.010006625            2 
 4708000   0.49818767   -8.6468497    658.24614  0.011651199  0.010003209            2 
 4709000   0.48604398   -8.6397253     659.4073  0.011669273 0.0099997946            4 
 4710000   0.49425761   -8.6357027    657.75105  0.011637492 0.0099963854            2 
 4711000   0.50031503   -8.6357163    659.43488  0.011664807 0.0099929799            6 
 4712000    0.4934592   -8.6444518    659.15064  0.011657305 0.0099895722            6 
 4713000   0.50604118   -8.6398947    657.86111   0.01163203 0.0099861675            3 
 4714000   0.51044981   -8.6517485    658.10732  0.011633915 0.0099827619            5 
 4715000   0.48994264   -8.6303583    658.35621  0.011635847  0.009979359            2 
 4716000   0.49543241   -8.6508878    658.41728  0.011634459 0.0099759527            2 
 4717000   0.49661482   -8.6466677    657.75621  0.011620313 0.0099725469            1 
 4718000   0.48968957   -8.6527324    658.85576  0.011637271 0.0099691463            4 
 4719000   0.49545592   -8.6617627    659.55859  0.011647217  0.009965745            6 
 4720000   0.49612843    -8.670927    657.46776  0.011607835 0.0099623451            2 
 4721000    0.5066413   -8.6628214    658.44181   0.01162257 0.0099589492            1 
 4722000    0.4919563   -8.6604007    658.00907  0.011612471 0.0099555526            4 
 4723000    0.4933966   -8.6625251    658.48169  0.011618351 0.0099521587            1 
 4724000    0.5148255    -8.643318    658.52624  0.011616678 0.0099487679            1 
 4725000   0.48919464    -8.657558     658.1221  0.011607092 0.0099453782            2 
 4726000   0.49579388   -8.6536531    658.23874  0.011606692 0.0099419872            4 
 4727000   0.49687389   -8.6579953    657.68166  0.011594416 0.0099385982            3 
 4728000   0.47614626   -8.6629756    658.25303  0.011602035 0.0099352123            2 
 4729000   0.49324163   -8.6615562    657.70672  0.011589954 0.0099318277            2 
 4730000   0.49049314   -8.6593006    658.78045  0.011606421 0.0099284464            3 
 4731000   0.48854226   -8.6746858    657.95434  0.011589416 0.0099250618            3 
 4732000    0.4825962   -8.6569153    658.02336  0.011588183 0.0099216799            1 
 4733000   0.48790357   -8.6586694    657.18536   0.01157098 0.0099182993            3 
 4734000   0.50156102   -8.6705013    659.17973  0.011603643 0.0099149177            4 
 4735000   0.49055829   -8.6688124    658.58219  0.011590676  0.009911539            1 
 4736000   0.48930895   -8.6608345    657.25771  0.011564923 0.0099081627            4 
 4737000    0.4928608   -8.6571061    657.90952  0.011573948 0.0099047909            5 
 4738000   0.49247034   -8.6606758     657.8956  0.011571261 0.0099014196            1 
 4739000   0.50145807   -8.6460919     658.8972  0.011586432 0.0098980498            4 
 4740000   0.49496207   -8.6810697    657.39948  0.011557656 0.0098946784            3 
 4741000    0.4897041    -8.661953     658.5083  0.011574708 0.0098913116            3 
 4742000   0.49198011   -8.6520678    657.80507  0.011559909 0.0098879443            4 
 4743000   0.49366201    -8.667591    656.70932   0.01153822 0.0098845777            2 
 4744000   0.48664995   -8.6504848    657.89704  0.011556651 0.0098812141            2 
 4745000     0.483866   -8.6681356    658.12225  0.011558171 0.0098778504            4 
 4746000   0.50327831   -8.6628253    658.18144  0.011556775 0.0098744883            8 
 4747000   0.48702332   -8.6550177     657.6709  0.011545378 0.0098711281            3 
 4748000   0.49612338   -8.6683196    658.92734  0.011564998 0.0098677661            6 
 4749000   0.48627152   -8.6807278    658.91629  0.011562369 0.0098644084            2 
 4750000   0.49944765    -8.677123    658.31544  0.011549394 0.0098610502            4 
 4751000   0.48374635   -8.6687691    657.12861  0.011526146 0.0098576958            4 
 4752000   0.49379705   -8.6721595    658.74656  0.011552093 0.0098543424            4 
 4753000   0.49879087   -8.6610437      657.232  0.011523108 0.0098509882            3 
 4754000   0.49222798   -8.6839244    657.60818  0.011527278 0.0098476372            4 
 4755000   0.48464634   -8.6684156    657.06295  0.011515299 0.0098442857            2 
 4756000   0.48425641   -8.6822317    658.35878  0.011535583 0.0098409365            3 
 4757000   0.49302421   -8.6562799    658.23111  0.011530921 0.0098375884            4 
 4758000   0.48822106   -8.6655497    657.36271  0.011513288 0.0098342455            4 
 4759000   0.50281445   -8.6648445    657.89694  0.011520224 0.0098309008            4 
 4760000   0.48703049    -8.683098    657.43393  0.011509698 0.0098275581            7 
 4761000   0.48697029   -8.6675713    657.84299   0.01151444 0.0098242163            2 
 4762000   0.48815047   -8.6679834    658.65585  0.011526247 0.0098208804            2 
 4763000   0.49296324   -8.6566477    657.32072  0.011500467 0.0098175444            3 
 4764000   0.49757284   -8.6644893    658.50649  0.011518795 0.0098142072            2 
 4765000    0.4868918    -8.665156    658.84482  0.011522295 0.0098108717            4 
 4766000   0.49457617   -8.6367575    658.80126  0.011519116 0.0098075398            4 
 4767000   0.48823018   -8.6435856    657.76343  0.011498557 0.0098042104            3 
 4768000    0.4897783    -8.667439    657.80932  0.011496947 0.0098008807            2 
 4769000   0.49842031   -8.6651902    658.30608  0.011503217 0.0097975488            4 
 4770000   0.49641678   -8.6680371    658.02386  0.011495875 0.0097942221            4 
 4771000   0.49070498   -8.6589268    658.90381  0.011508835 0.0097908971            3 
 4772000   0.49418373   -8.6707166    657.28977  0.011478237 0.0097875738            6 
 4773000   0.49065622   -8.6769842    658.25871  0.011492749 0.0097842504            2 
 4774000   0.48293715   -8.6658061    658.17669   0.01148891 0.0097809283            2 
 4775000    0.4855045   -8.6621664    658.17204  0.011486423 0.0097776118            3 
 4776000   0.47973944   -8.6791717    657.13134   0.01146586 0.0097742913            3 
 4777000   0.48023207   -8.6692507    658.34117  0.011484564 0.0097709727            3 
 4778000   0.48572991   -8.6721686    658.92962  0.011492424 0.0097676582            2 
 4779000   0.48181477   -8.6691672    657.39893  0.011463328 0.0097643419            1 
 4780000   0.49838978   -8.6775255    657.55819  0.011463706 0.0097610286            2 
 4781000   0.49063812   -8.6812924    658.11433  0.011471002 0.0097577173            2 
 4782000   0.48614094   -8.6704773    657.80005  0.011463126 0.0097544047            2 
 4783000    0.4693887   -8.6670928    657.58634  0.011457006 0.0097510956            4 
 4784000   0.48696115   -8.6730444     657.1812  0.011447554 0.0097477848            4 
 4785000   0.48762141   -8.6756374    658.48221   0.01146782  0.009744476            4 
 4786000   0.48996117   -8.6779694    657.82171  0.011453923 0.0097411669            4 
 4787000   0.48911442   -8.6836697    657.55211  0.011446837 0.0097378624            2 
 4788000   0.48056963   -8.6581462    658.34323  0.011458216 0.0097345605            2 
 4789000   0.48358943   -8.6682474    658.10386  0.011451658 0.0097312571            4 
 4790000   0.49332316   -8.6785627    657.53921  0.011439443 0.0097279559            2 
 4791000   0.48181608   -8.6729349    657.03146  0.011428224 0.0097246562            3 
 4792000   0.47866522   -8.6711818    657.66461   0.01143685 0.0097213606            3 
 4793000   0.48189846   -8.6745293    658.41505  0.011447511 0.0097180646            3 
 4794000   0.49490774   -8.6794288    657.31759  0.011426046 0.0097147684            3 
 4795000   0.47571496   -8.6717997    657.59673  0.011428515 0.0097114732            5 
 4796000   0.48897489   -8.6833824    658.13923  0.011435558 0.0097081816            5 
 4797000   0.49000382    -8.672935    657.96258  0.011430105 0.0097048876            4 
 4798000   0.47898837   -8.6787628    657.52156  0.011420063 0.0097015984            3 
 4799000   0.49325008   -8.6736406    658.67196   0.01143766 0.0096983105            2 
 4800000   0.47696771   -8.6688411    658.09452  0.011425252 0.0096950252            4 
 4801000     0.486055    -8.680602    656.94165  0.011402861 0.0096917378            4 
 4802000   0.48032505   -8.6678755    658.16935  0.011421792  0.009688453            3 
 4803000   0.47475679   -8.6810095    656.61673  0.011392476 0.0096851699            5 
 4804000   0.48358398   -8.6874851    656.88738  0.011394799 0.0096818862            4 
 4805000   0.47212354   -8.6757781    657.21345  0.011398083 0.0096786073            2 
 4806000   0.47949046   -8.6769026    656.87829    0.0113899 0.0096753311            4 
 4807000   0.48872935   -8.6723192    657.97721  0.011406581 0.0096720572            4 
 4808000   0.48007271   -8.6844321    658.72375  0.011417148 0.0096687813            2 
 4809000   0.47948265     -8.67372    656.90818  0.011383312 0.0096655093            2 
 4810000   0.47769078   -8.6590459    657.25898  0.011387023 0.0096622403            2 
 4811000   0.48291968   -8.6831011    658.10137  0.011399248 0.0096589685            1 
 4812000   0.48069338   -8.6657621    657.60525  0.011388287 0.0096557006            5 
 4813000   0.47443115   -8.6753444    657.50806  0.011384238  0.009652434            3 
 4814000   0.48864317   -8.6686786    657.21407  0.011376784   0.00964917            3 
 4815000   0.48238316   -8.6771844    657.03633  0.011371345 0.0096459038            7 
 4816000   0.47991201   -8.6774612    657.34525  0.011374329 0.0096426407            3 
 4817000   0.47320323   -8.6821901    657.71326  0.011378335 0.0096393797            4 
 4818000   0.48160867   -8.6752971    657.73386  0.011376329 0.0096361177            1 
 4819000   0.47615889   -8.6809724    657.55146  0.011370814   0.00963286            4 
 4820000   0.48927207   -8.6871824    658.31169  0.011381599 0.0096296012            2 
 4821000   0.48253621   -8.6648952    657.73625  0.011369292 0.0096263468            4 
 4822000   0.47983736   -8.6797379     658.0554  0.011372449 0.0096230923            2 
 4823000   0.48148259   -8.6747672    656.86244  0.011349479 0.0096198371            3 
 4824000   0.48344486   -8.6839836    656.86872  0.011347235 0.0096165859            2 
 4825000   0.47065959   -8.6840239    658.10591  0.011366251 0.0096133319            4 
 4826000   0.47950156   -8.6681545    657.45697   0.01135269 0.0096100814            2 
 4827000   0.46984059   -8.6794541    657.12598  0.011344624 0.0096068327            6 
 4828000   0.47788468   -8.6801311    658.18776  0.011360601 0.0096035843            2 
 4829000   0.48669755   -8.6784957    657.60587  0.011348207 0.0096003417            4 
 4830000   0.48019574   -8.6824356    657.53702  0.011344669 0.0095970957            2 
 4831000   0.47374786   -8.6787041    657.27098  0.011337732 0.0095938523            2 
 4832000   0.47958364   -8.6894945    657.02285  0.011331106 0.0095906082            1 
 4833000   0.46883649    -8.688564    656.80538  0.011325012 0.0095873663            4 
 4834000   0.47611764   -8.6769703    657.48199  0.011334333 0.0095841276            4 
 4835000   0.48038645   -8.6642077    656.66994  0.011317993 0.0095808889            2 
 4836000   0.48211631    -8.683417    657.12636  0.011323517 0.0095776548            2 
 4837000   0.46022379    -8.675007    656.89178  0.011317135 0.0095744209            6 
 4838000   0.48323558   -8.6724996    656.88945  0.011314756   0.00957119            4 
 4839000   0.48559622    -8.678129    657.27962  0.011319136 0.0095679588            3 
 4840000   0.47486195   -8.6845966    656.87378   0.01130981 0.0095647273            2 
 4841000   0.47944983   -8.6760489    657.63392  0.011320559 0.0095614985            1 
 4842000   0.47104601   -8.6935683    656.90519  0.011305679 0.0095582727            4 
 4843000   0.49331675   -8.6654835    657.24372   0.01130917 0.0095550481            6 
 4844000   0.47570759   -8.6831612    657.65554   0.01131392 0.0095518247            3 
 4845000   0.46408346   -8.6742629    656.65307  0.011294342 0.0095486044            3 
 4846000   0.48584038   -8.6831323    657.49124  0.011306425 0.0095453834            4 
 4847000   0.47083381    -8.689775    656.91292   0.01129415  0.009542165            4 
 4848000   0.47708966   -8.6989307    657.53649  0.011302539 0.0095389446            2 
 4849000    0.4738933   -8.6844521    658.31556  0.011313597 0.0095357255            6 
 4850000   0.48059143   -8.6937806    656.54228  0.011280795  0.009532509            2 
 4851000   0.47567931   -8.6973943    657.62403  0.011297053 0.0095292954            4 
 4852000   0.47303253   -8.6877046    656.80711  0.011280694 0.0095260811            2 
 4853000   0.46623421    -8.676735    657.09559  0.011283323 0.0095228663            5 
 4854000   0.46590856   -8.6962084    657.41357  0.011286457 0.0095196556            2 
 4855000   0.46798048   -8.6940981    656.78752  0.011273387 0.0095164441            6 
 4856000   0.47136333    -8.691058    657.27874  0.011279495 0.0095132325            3 
 4857000   0.48311933   -8.6872842    656.80403  0.011269028 0.0095100223            7 
 4858000   0.47490975   -8.6897877    657.47153  0.011278158 0.0095068145            5 
 4859000   0.48351372   -8.6813185    657.37544  0.011274189 0.0095036095            1 
 4860000   0.47402319   -8.6975981    657.32242  0.011270961 0.0095004067            1 
 4861000   0.46893859    -8.685193    657.33727  0.011268896 0.0094972049            4 
 4862000   0.47298811   -8.6777082    656.94823  0.011259911  0.009494004            2 
 4863000   0.47572216   -8.7015662      657.037  0.011259116 0.0094908033            6 
 4864000   0.47978132   -8.6834958    656.14927  0.011241592 0.0094876036            2 
 4865000    0.4837974   -8.7033402    656.96918  0.011253326 0.0094844018            2 
 4866000   0.47250962   -8.6894665    656.09865  0.011236105 0.0094812041            3 
 4867000   0.47346676   -8.6866809    657.33937   0.01125504 0.0094780097            2 
 4868000   0.47368206   -8.7088156    657.03558  0.011247528 0.0094748153            2 
 4869000   0.48574152   -8.6935416    656.73677  0.011240103 0.0094716212            4 
 4870000   0.47219458   -8.7075054    657.61607  0.011252842  0.009468429            3 
 4871000   0.45687358   -8.6864481    657.71618  0.011252244  0.009465237            4 
 4872000    0.4649557   -8.6976817    656.67447  0.011232117 0.0094620515            5 
 4873000   0.47122225   -8.6972798    657.20593    0.0112389 0.0094588655            3 
 4874000   0.48051919   -8.6851793    656.12777   0.01121816 0.0094556799            2 
 4875000   0.47437393   -8.6932133    656.70104  0.011225659  0.009452495            6 
 4876000   0.47338166   -8.7055847    658.08853   0.01124707 0.0094493143            6 
 4877000   0.48614034   -8.7037714    656.65697  0.011220302  0.009446134            2 
 4878000    0.4782048   -8.6995503    656.81985  0.011220785 0.0094429501            5 
 4879000   0.47294129   -8.6974008    656.88919  0.011219669 0.0094397719            3 
 4880000   0.46883059   -8.7094772    656.96097  0.011218596 0.0094365959            2 
 4881000   0.46631906   -8.6962282    656.64666  0.011210931  0.009433419            2 
 4882000   0.47080715   -8.6878853    656.62121    0.0112082 0.0094302432            2 
 4883000   0.46941841   -8.6871135    657.82787  0.011226498 0.0094270711            3 
 4884000   0.46722254   -8.6958946    656.36501  0.011199239 0.0094238994            3 
 4885000   0.46167667   -8.6981702    656.70146  0.011202686 0.0094207292            3 
 4886000   0.47146314   -8.7026874    657.80559  0.011219225 0.0094175628            5 
 4887000   0.47054147   -8.6978279    656.39026  0.011192795 0.0094143941            3 
 4888000   0.46496058   -8.6877552    656.74082  0.011196482 0.0094112274            3 
 4889000   0.46682229   -8.7072721    656.72935  0.011193996 0.0094080622            3 
 4890000   0.48084061   -8.7017594     655.9409   0.01117827 0.0094048978            4 
 4891000   0.46964882   -8.6912951    657.07534  0.011195313 0.0094017358            3 
 4892000   0.46573854   -8.6862079    655.80952  0.011171462 0.0093985745            2 
 4893000   0.47235259   -8.6919441    657.44087  0.011196963 0.0093954107            2 
 4894000   0.48277759    -8.695055    657.05767   0.01118815 0.0093922529            2 
 4895000   0.47143154   -8.7081182    657.02561  0.011185319 0.0093890936            4 
 4896000   0.46541582    -8.703889    657.36412  0.011188796 0.0093859417            4 
 4897000   0.46809387   -8.6977666    656.51589  0.011172076 0.0093827884            2 
 4898000   0.47636911   -8.6930853    658.10905  0.011196901 0.0093796367            3 
 4899000   0.46431848   -8.6858271     655.7707  0.011154839 0.0093764849            3 
 4900000   0.47309063   -8.7073351    656.16676  0.011159299 0.0093733355            2 
 4901000   0.46952921     -8.69513    657.09803  0.011172856 0.0093701888            5 
 4902000   0.46658577   -8.7095787    657.30156  0.011174037 0.0093670409            2 
 4903000    0.4587022    -8.697676    656.23388  0.011153611 0.0093638951            3 
 4904000   0.46245916   -8.7051007    657.34126  0.011170155 0.0093607513            4 
 4905000   0.46531902    -8.721178    656.06569  0.011146206 0.0093576061            5 
 4906000   0.45939539   -8.7006828    657.07824  0.011161133 0.0093544595            2 
 4907000   0.45681466   -8.7014384    656.61848  0.011151051 0.0093513183            2 
 4908000   0.47536922    -8.696237    657.59547  0.011165367 0.0093481791            2 
 4909000   0.46658183   -8.7056712    656.05486   0.01113694 0.0093450385            4 
 4910000   0.45831178   -8.7024435    656.92477  0.011149436 0.0093418991            1 
 4911000   0.46727465   -8.7008898    656.37519   0.01113784 0.0093387612            1 
 4912000   0.46770636   -8.6921729    656.82119  0.011143139 0.0093356252            3 
 4913000   0.47286852   -8.6917657    656.67705  0.011138426 0.0093324939            2 
 4914000   0.46245552     -8.71548    657.09785  0.011143296 0.0093293601            1 
 4915000   0.45530225   -8.7109717    656.10944   0.01112427 0.0093262272            3 
 4916000   0.46638987   -8.7044488    657.39263  0.011143759 0.0093230976            4 
 4917000   0.46378557   -8.6929612    655.73229  0.011113353 0.0093199669            3 
 4918000   0.46882331   -8.7054014     656.6409  0.011126489 0.0093168391            3 
 4919000   0.45939428    -8.713868    656.00138  0.011113393 0.0093137115            4 
 4920000   0.46918662   -8.6906223    655.82461   0.01110814 0.0093105852            1 
 4921000   0.46254402   -8.7213112    657.36808  0.011132021 0.0093074617            4 
 4922000   0.47322738   -8.6974945    656.24049  0.011110668 0.0093043382            5 
 4923000   0.46074276   -8.7140755    655.86505  0.011102056 0.0093012188            3 
 4924000   0.46119311   -8.7104775    656.68984   0.01111376 0.0092980958            3 
 4925000   0.46224739   -8.7137956    656.75196  0.011112554 0.0092949763            1 
 4926000   0.47182567    -8.708433    656.41333   0.01110457 0.0092918591            2 
 4927000   0.45989312    -8.700772    657.33131  0.011117842  0.009288743            8 
 4928000   0.46921398   -8.7163659    656.27183   0.01109767 0.0092856257            2 
 4929000   0.46458867   -8.7227609    656.30233  0.011095934 0.0092825111            2 
 4930000   0.46863406   -8.7124739    656.40734  0.011095459 0.0092793984            6 
 4931000   0.46261878   -8.7078647    655.91121  0.011084824 0.0092762875            1 
 4932000   0.46311529   -8.6964252    656.94739  0.011100084 0.0092731781            2 
 4933000   0.45803044    -8.708502     656.4596  0.011089594 0.0092700713            9 
 4934000   0.45736924   -8.7168211    657.03733  0.011097104 0.0092669657            2 
 4935000   0.45954739   -8.7156679    655.69487  0.011072186 0.0092638592            2 
 4936000   0.46388142   -8.7241518     656.4896   0.01108336 0.0092607542            3 
 4937000   0.45463324   -8.7166793    656.72318  0.011085058 0.0092576498            3 
 4938000   0.44449275   -8.7031639    656.01781  0.011070909 0.0092545482            3 
 4939000   0.45595299   -8.7074994    656.62711  0.011078948 0.0092514479            2 
 4940000   0.45776487    -8.710671    656.61807  0.011076553 0.0092483487            2 
 4941000   0.46310398   -8.7042769    656.94264  0.011079786 0.0092452536            1 
 4942000   0.45540574   -8.7144813    655.48679  0.011052995 0.0092421548            4 
 4943000   0.46131962   -8.7231283    656.33024  0.011064978 0.0092390586            4 
 4944000   0.46719129    -8.701936    654.77297  0.011036491 0.0092359637            2 
 4945000    0.4678814   -8.7062922    656.33922  0.011060654 0.0092328677            7 
 4946000   0.47766053   -8.7110406    656.26151  0.011057109 0.0092297779            2 
 4947000   0.46602494   -8.7075747    656.89701  0.011065579 0.0092266911            5 
 4948000   0.46132016   -8.7193598    656.08979  0.011049747  0.009223604            3 
 4949000   0.46984862   -8.7241643    656.62948  0.011056602 0.0092205143            2 
 4950000   0.46670449   -8.7076945    655.84809  0.011041214 0.0092174283            3 
 4951000   0.45425469   -8.7102946    656.79928  0.011054994 0.0092143433            2 
 4952000   0.45133354   -8.7135201    656.11324  0.011041216 0.0092112604            3 
 4953000   0.45653663   -8.7099964    655.39926  0.011026975 0.0092081765            1 
 4954000   0.46111411    -8.719488    655.91685  0.011033455 0.0092050948            3 
 4955000   0.46558995   -8.7161988    657.22155  0.011053171 0.0092020146            4 
 4956000   0.46196497   -8.7131308    655.96799  0.011029863 0.0091989353            4 
 4957000   0.44668433   -8.7129528    654.67337  0.011005873 0.0091958586            4 
 4958000   0.46209794   -8.7224558    656.01051  0.011026128 0.0091927814            5 
 4959000   0.46091224   -8.7121791     657.2984  0.011045547 0.0091897044            2 
 4960000   0.45640812   -8.7043987      655.789   0.01101796 0.0091866297            4 
 4961000   0.46132468   -8.7090655      656.635   0.01102995 0.0091835562            2 
 4962000   0.46428251   -8.7100984    655.76733  0.011013155 0.0091804876            3 
 4963000   0.46060484   -8.7198893    655.42917  0.011005258 0.0091774169            5 
 4964000   0.44767655   -8.7107133     657.2868  0.011034226 0.0091743496            3 
 4965000   0.46229121    -8.697012    656.24649  0.011014543 0.0091712823            3 
 4966000    0.4720382    -8.720282    657.13714  0.011027271 0.0091682174            1 
 4967000   0.46074187   -8.7010553    656.03151  0.011006501 0.0091651536            4 
 4968000   0.46165966   -8.7155314    656.49332  0.011012032 0.0091620898            6 
 4969000   0.46877096   -8.7107258     655.2753  0.010989389 0.0091590261            1 
 4970000   0.46314881    -8.720515    655.50659  0.010991056 0.0091559642            3 
 4971000   0.46381835   -8.7189261    656.77529  0.011010114 0.0091529039            4 
 4972000   0.45688416    -8.711341    656.08682   0.01099636 0.0091498469            2 
 4973000   0.45443585   -8.7182658    656.75705   0.01100538  0.009146789            4 
 4974000   0.44689195   -8.7165181    655.97028  0.010989986 0.0091437333            6 
 4975000   0.45869259   -8.7255474    656.84206   0.01100238 0.0091406789            3 
 4976000   0.45499278   -8.7162468    656.08922  0.010987561 0.0091376253            3 
 4977000   0.45374847   -8.7270017    656.11793  0.010985834 0.0091345727            4 
 4978000   0.45638909   -8.7283515    656.07016  0.010982827 0.0091315226            4 
 4979000   0.46415759   -8.7085273    655.81984  0.010976432 0.0091284738            4 
 4980000   0.45906764   -8.7338036     656.6559  0.010988218 0.0091254269            4 
 4981000   0.45280005   -8.7352485    656.54819   0.01098421 0.0091223818            2 
 4982000    0.4596837   -8.7248503    655.61158  0.010966338 0.0091193343            4 
 4983000   0.45793082   -8.7028027    655.58575  0.010963706 0.0091162899            5 
 4984000   0.45934569   -8.7280431    656.21419  0.010972014 0.0091132477            3 
 4985000   0.45850931   -8.7104473    655.86578  0.010963988 0.0091102063            3 
 4986000   0.45339458   -8.7167866    656.22285  0.010967757 0.0091071644            4 
 4987000   0.45448183   -8.7176508    655.81784   0.01095879 0.0091041235            2 
 4988000   0.46175058   -8.7059761    655.67843  0.010954264 0.0091010856            5 
 4989000   0.44480497   -8.7251017    655.65964  0.010951755 0.0090980488            4 
 4990000   0.46281409   -8.7273675    655.62407  0.010948966 0.0090950154            3 
 4991000   0.44978012    -8.715989    656.46766  0.010960857 0.0090919812            1 
 4992000   0.44946037   -8.6931395    657.07362  0.010968777 0.0090889497            3 
 4993000   0.44642978   -8.7173721    655.42197  0.010939014 0.0090859178            2 
 4994000   0.45129752   -8.7084743    655.98608  0.010946237 0.0090828886            6 
 4995000   0.44991732   -8.7274519    656.15943  0.010946937 0.0090798615            5 
 4996000   0.45917585   -8.7186951    655.77218  0.010938287 0.0090768314            2 
 4997000   0.44983806   -8.7156727     655.1258  0.010925319 0.0090738031            1 
 4998000   0.45030347   -8.7222614    656.06556  0.010938802  0.009070779            7 
 4999000   0.45102614   -8.7200064    655.80814  0.010932322  0.009067755            6 
 5000000    0.4390265   -8.7176652    656.16946  0.010936158 0.0090647336            2 
 5001000   0.46061723   -8.7111698    656.06133  0.010932169 0.0090617133            1 
 5002000   0.44378751   -8.7175225    656.40207   0.01093566 0.0090586928            3 
 5003000   0.46113818   -8.7194712    655.82569  0.010923874 0.0090556748            3 
 5004000   0.44999544   -8.7201955    656.57729  0.010934207 0.0090526601            5 
 5005000   0.44448949   -8.7249491    655.65177  0.010916613 0.0090496432            1 
 5006000   0.44521983   -8.7225383    655.63809  0.010914204 0.0090466291            3 
 5007000   0.44902058   -8.7018281    654.96509  0.010900824 0.0090436164            3 
 5008000    0.4407811   -8.7209099    655.97093  0.010915384  0.009040605            2 
 5009000   0.43957654    -8.713228    655.95541  0.010912947 0.0090375962            3 
 5010000   0.44942881   -8.7304751    656.15473  0.010914084  0.009034585            4 
 5011000   0.45901076   -8.7291009    655.93577  0.010908265 0.0090315767            2 
 5012000   0.45276521   -8.7345452    655.43657  0.010897788 0.0090285722            2 
Loop time of 12108.5 on 48 procs for 5000000 steps with 4000 atoms

Performance: 71354.986 tau/day, 412.934 timesteps/s
99.4% CPU use with 48 MPI tasks x no OpenMP threads

MPI task timing breakdown:
Section |  min time  |  avg time  |  max time  |%varavg| %total
---------------------------------------------------------------
Pair    | 773.52     | 832.1      | 890.88     | 107.8 |  6.87
Neigh   | 78.238     | 82.006     | 85.021     |  19.7 |  0.68
Comm    | 760.84     | 823.7      | 889.85     | 116.1 |  6.80
Output  | 17.903     | 17.908     | 17.992     |   0.3 |  0.15
Modify  | 10217      | 10242      | 10263      |   8.9 | 84.59
Other   |            | 110.5      |            |       |  0.91

Nlocal:        83.3333 ave          93 max          75 min
Histogram: 2 2 8 10 4 8 5 8 0 1
Nghost:        2078.15 ave        2097 max        2053 min
Histogram: 2 0 5 0 10 9 6 10 2 4
Neighs:        13534.4 ave       15125 max       11991 min
Histogram: 1 6 6 2 12 6 5 3 2 5
FullNghs:      27069.5 ave       30452 max       24249 min
Histogram: 2 6 4 8 7 8 5 7 0 1

Total # of neighbors = 1299334
Ave neighs/atom = 324.83350
Neighbor list builds = 267705
Dangerous builds = 0

#clear
#
#next RN
#
#jump SELF
Total wall time: 3:21:51
