
units lj                  # Use reduced LJ style units
atom_style atomic         # Uncharged point particles
atom_modify map hash      # Needed for indexing of clusters etc
                          # Used to be able to find where atoms are in relation to each other.

lattice fcc 1.0 spacing 1 1 1
Lattice spacing in x,y,z = 1.5874011 1.5874011 1.5874011
region box block 0 10 0 10 0 10 units lattice
create_box 2 box
Created orthogonal box = (0.0000000 0.0000000 0.0000000) to (15.874011 15.874011 15.874011)
  3 by 4 by 4 MPI processor grid
create_atoms 1 box
Created 4000 atoms
  using lattice units in orthogonal box = (0.0000000 0.0000000 0.0000000) to (15.874011 15.874011 15.874011)
  create_atoms CPU = 0.002 seconds
set type 1 type/fraction 2 0.53 78393
Setting atom values ...
  2126 settings made for type/fraction
mass 1 1.0
mass 2 1.0
pair_style lj/cut  3.5
pair_modify tail  yes
pair_coeff 1  1  1.0  1.0   # Intearaction between 1 and 1 set with epsilon = 1 and sigma = 1
pair_coeff 1  2  1.5  0.8
pair_coeff 2  2  0.5  0.88

write_data data.0
System init for write_data ...
Neighbor list info ...
  update every 1 steps, delay 10 steps, check yes
  max neighbors/atom: 2000, page size: 100000
  master list distance cutoff = 3.8
  ghost atom cutoff = 3.8
  binsize = 1.9, bins = 9 9 9
  1 neighbor lists, perpetual/occasional/extra = 1 0 0
  (1) pair lj/cut, perpetual
      attributes: half, newton on
      pair build: half/bin/atomonly/newton
      stencil: half/bin/3d
      bin: standard
WARNING: Not all mixed pair coeffs generated from mixing. Use write_data with 'pair ij' option to store all pair coeffs. (../write_data.cpp:312)


#############################
#   M E L T   S Y S T E M   #
#############################

velocity all create 2.4 6583654 mom yes dist gaussian # Assign velocities
                                                    # Temperature 2.4, random number seed, zero linear momentum
                                                                                # Gaussian distribution

timestep 0.002   # simulation timestep
thermo 1000       # output thermodynamic data every 1000 steps bf 100

# Define a fix  in this case with index 1 applied to all
# particles in the simulation. This fix is for simulations
# in the anisotropic NPT ensemble. Note that we use the MTK
# correction.
fix 1 all npt temp 2.4 2.4 0.1 iso 5.68 5.68 0.5 mtk yes tchain 5 pchain 5 # Use NPT ensemble
                                                                         # Set temperature and pressure and damping
                                                                         # Numbers of thermostats in chain and in barostat
run 10000          # run for 10000 steps
Per MPI rank memory allocation (min/avg/max) = 3.642 | 3.644 | 3.648 Mbytes
Step Temp E_pair E_mol TotEng Press Volume 
       0          2.4   -5.1225569            0   -1.5234569   -4.1795691         4000 
    1000    2.4378494   -4.7665934            0   -1.1107334    5.7944748    3664.4962 
    2000     2.473818   -4.8044596            0   -1.0946602    5.3907778     3684.889 
    3000    2.3992905   -4.7928365            0   -1.1948004    5.5336094    3666.6529 
    4000    2.3962842   -4.7984931            0   -1.2049654    5.9096215    3644.1063 
    5000    2.3743667   -4.7891356            0    -1.228476    5.6554997    3655.1842 
    6000    2.4018939   -4.7467625            0   -1.1448223    5.4552434    3705.6791 
    7000     2.423502   -4.7434413            0   -1.1090971    5.7537986      3681.51 
    8000    2.4515226   -4.8019477            0    -1.125583    6.0706631    3632.6754 
    9000    2.4296822   -4.7757384            0   -1.1321261    5.8210398    3671.9555 
   10000    2.4233967   -4.7534401            0   -1.1192539    5.6454191    3676.4125 
Loop time of 2.68531 on 48 procs for 10000 steps with 4000 atoms

Performance: 643501.132 tau/day, 3723.965 timesteps/s
99.6% CPU use with 48 MPI tasks x no OpenMP threads

MPI task timing breakdown:
Section |  min time  |  avg time  |  max time  |%varavg| %total
---------------------------------------------------------------
Pair    | 1.181      | 1.2679     | 1.4202     |   4.1 | 47.21
Neigh   | 0.21135    | 0.22458    | 0.25013    |   1.5 |  8.36
Comm    | 0.76599    | 0.9218     | 1.0046     |   5.9 | 34.33
Output  | 0.00024676 | 0.00025276 | 0.00031684 |   0.0 |  0.01
Modify  | 0.22705    | 0.25505    | 0.29869    |   4.1 |  9.50
Other   |            | 0.01577    |            |       |  0.59

Nlocal:        83.3333 ave          93 max          76 min
Histogram: 5 3 7 4 8 11 4 4 1 1
Nghost:        1735.62 ave        1761 max        1717 min
Histogram: 3 4 10 6 9 6 5 2 1 2
Neighs:        10383.5 ave       11624 max        9234 min
Histogram: 4 4 0 6 13 5 7 6 2 1

Total # of neighbors = 498409
Ave neighs/atom = 124.60225
Neighbor list builds = 905
Dangerous builds = 194

# Equilibrate just above the melting temperature to avoid step fn in T

fix 1 all npt temp 1.25 1.25 0.1 iso 5.68 5.68 0.5 mtk yes tchain 5 pchain 5
run 2000
Per MPI rank memory allocation (min/avg/max) = 3.644 | 3.646 | 3.649 Mbytes
Step Temp E_pair E_mol TotEng Press Volume 
   10000    2.4233967   -4.7534401            0   -1.1192539    5.6454191    3676.4125 
   11000    1.2363024   -6.9323414            0   -5.0783515    5.7470502    2825.4735 
   12000    1.2555348   -7.0414598            0   -5.1586284    5.3142767    2815.8861 
Loop time of 0.660295 on 48 procs for 2000 steps with 4000 atoms

Performance: 523402.435 tau/day, 3028.949 timesteps/s
99.6% CPU use with 48 MPI tasks x no OpenMP threads

MPI task timing breakdown:
Section |  min time  |  avg time  |  max time  |%varavg| %total
---------------------------------------------------------------
Pair    | 0.29387    | 0.32163    | 0.35095    |   2.2 | 48.71
Neigh   | 0.041495   | 0.043619   | 0.048855   |   0.7 |  6.61
Comm    | 0.21498    | 0.24449    | 0.2778     |   2.9 | 37.03
Output  | 5.3509e-05 | 5.5256e-05 | 7.0572e-05 |   0.0 |  0.01
Modify  | 0.040987   | 0.045511   | 0.049195   |   1.1 |  6.89
Other   |            | 0.004983   |            |       |  0.75

Nlocal:        83.3333 ave          95 max          77 min
Histogram: 5 6 11 7 9 5 2 2 0 1
Nghost:        2077.31 ave        2106 max        2048 min
Histogram: 2 0 8 4 9 9 8 3 4 1
Neighs:        13564.6 ave       16116 max       12405 min
Histogram: 8 7 7 12 8 2 3 0 0 1

Total # of neighbors = 651103
Ave neighs/atom = 162.77575
Neighbor list builds = 143
Dangerous builds = 13

#############################
# L I N E A R  Q U E N C H  #
#############################

# Define solid atoms. This closely follows ten Wolde  Ruiz-Montero and Frenkel  Faraday Discuss  1996  104  93-110
# Compute components of the per-atom q6 vector
compute q6 all orientorder/atom degrees 1 6 components 6 nnn NULL cutoff 1.3 # compute the Q6 parameter.
                                                                             # Use all neighbours within 1.3 unit cell.

# get number of connections
compute coord_number all coord/atom orientorder q6 0.5

# An atom is solid if it has 8 or more connections (of a possible 14)
variable is_solid atom c_coord_number>=8
group solid dynamic all var is_solid    # Must be dynamic to update
dynamic group solid defined

# do clustering
compute cluster solid cluster/atom 1.3 # Create a cluster where all atoms within are solid and max 1.3 units from another member

# define chunks one chunk per cluster
compute clus_chunks solid chunk/atom c_cluster nchunk every compress yes  # Says which atoms are in which chunk

# count the size of each chunk
compute size_chunks solid property/chunk clus_chunks count


# Find the maximum entry in the vector of chunk sizes
variable max_n equal max(c_size_chunks)


# Thermo style which includes this variable
# thermo_style custom step temp pe vol v_max_n

thermo ${N}  # Print the thermo information every 100 steps
thermo 1000  

# Reset the npt fix at a lower temperature (below freezing)
fix 1  all npt temp  ${temp} ${temp}  0.1  iso  5.68  5.68  0.5  mtk yes tchain  5  pchain  5
fix 1  all npt temp  0.45 ${temp}  0.1  iso  5.68  5.68  0.5  mtk yes tchain  5  pchain  5
fix 1  all npt temp  0.45 0.45  0.1  iso  5.68  5.68  0.5  mtk yes tchain  5  pchain  5

dump dmp2 all dcd ${N} traj.dcd
dump dmp2 all dcd 1000 traj.dcd


compute msd all msd com yes
variable twopoint equal c_msd[4]/6/(step*dt+1.0e-6)
fix 9 all vector 10 c_msd[4]
variable fit equal slope(f_9)/6/(10*dt)
thermo_style custom step temp pe c_msd[4] v_twopoint v_fit v_max_n

fix 1 all npt temp 1.25 ${temp} 0.1 iso 5.68 5.68 0.5 mtk yes tchain 5 pchain 5
fix 1 all npt temp 1.25 0.45 0.1 iso 5.68 5.68 0.5 mtk yes tchain 5 pchain 5
run 2000000 # 5000000  # Run for this many steps
Neighbor list info ...
  update every 1 steps, delay 10 steps, check yes
  max neighbors/atom: 2000, page size: 100000
  master list distance cutoff = 3.8
  ghost atom cutoff = 3.8
  binsize = 1.9, bins = 8 8 8
  4 neighbor lists, perpetual/occasional/extra = 1 3 0
  (1) pair lj/cut, perpetual
      attributes: half, newton on
      pair build: half/bin/atomonly/newton
      stencil: half/bin/3d
      bin: standard
  (2) compute orientorder/atom, occasional
      attributes: full, newton on
      pair build: full/bin/atomonly
      stencil: full/bin/3d
      bin: standard
  (3) compute coord/atom, occasional
      attributes: full, newton on
      pair build: full/bin/atomonly
      stencil: full/bin/3d
      bin: standard
  (4) compute cluster/atom, occasional
      attributes: full, newton on
      pair build: full/bin/atomonly
      stencil: full/bin/3d
      bin: standard
Per MPI rank memory allocation (min/avg/max) = 9.840 | 9.847 | 9.855 Mbytes
Step Temp PotEng c_msd[4] v_twopoint v_fit v_max_n 
   12000    1.2555348   -7.0414598 1.7893337e-30 1.2425928e-32 8.3333333e+20            2 
   13000     1.281352   -6.9862608    0.4460703 0.0028594249  0.036430658            4 
   14000    1.2407437   -7.0059722   0.88647144 0.0052766155  0.036064516            1 
   15000    1.2627541   -7.0285094    1.3199616 0.0073331198  0.035961583            1 
   16000    1.2807259   -7.0304216    1.7383513  0.009053913  0.035681866            2 
   17000    1.2568375   -7.0088763    2.0917694  0.010253771  0.034943739            3 
   18000    1.2565492   -7.0328403    2.4826533  0.011493765  0.034230417            2 
   19000    1.2613529    -7.037307    2.8889517  0.012670841  0.033869212            1 
   20000     1.246486   -6.9699611    3.2851305  0.013688043  0.033665256            1 
   21000    1.2709829   -7.0265182     3.747735  0.014871964  0.033749697            2 
   22000    1.2910351   -7.0147963    4.1087291  0.015563368  0.033848546            2 
   23000    1.2724927   -7.0293271    4.5228122     0.016387  0.033796244            3 
   24000    1.2323718   -7.0031037    4.9671424  0.017247022  0.033828212            3 
   25000    1.2497226    -7.002855    5.3718331   0.01790611   0.03389028            1 
   26000    1.2336158    -6.990191    5.7354777  0.018382941  0.033853602            1 
   27000    1.2487975   -7.0536259     6.117477  0.018881102  0.033785998            2 
   28000    1.2094067    -7.040554    6.5275931   0.01942736  0.033723809            2 
   29000    1.2480936   -7.0569886    6.9205643  0.019886679  0.033682922            2 
   30000    1.2274351   -7.0056588    7.3755048  0.020487513  0.033715663            3 
   31000    1.2348734   -6.9822987     7.772784   0.02089458  0.033742268            1 
   32000    1.2423692   -7.0477749    8.1118497  0.021124608  0.033741294            1 
   33000    1.2276466   -7.0521014    8.4581962  0.021359081  0.033641719            3 
   34000    1.2284658   -7.0649489    8.8490693  0.021688895  0.033585501            2 
   35000    1.2391168   -7.0180687    9.2644342  0.022058176  0.033546437            4 
   36000    1.2506346   -7.0523439    9.7371303  0.022539653  0.033537482            3 
   37000    1.2503154   -7.0580246    10.064431  0.022667638  0.033498918            2 
   38000    1.2210602   -7.0658659    10.452305  0.022921722  0.033427924            3 
   39000    1.2408436   -7.0244497    11.063466  0.023639884  0.033443563            3 
   40000    1.2353769    -7.072574    11.433271  0.023819314   0.03351677            3 
   41000    1.2241948   -7.0364732    11.902537  0.024192149  0.033607841            2 
   42000     1.261741    -7.029544    12.346898  0.024497812  0.033680579            4 
   43000    1.2465179   -7.0485567    12.798046  0.024802414  0.033748965            2 
   44000    1.2432599   -7.0664862    13.095536  0.024802151  0.033819802            1 
   45000    1.2440471   -7.0779381    13.366434  0.024752655  0.033820434            2 
   46000     1.241211   -7.0764915    13.756624   0.02492142  0.033783062            2 
   47000    1.2496831   -7.0735442     14.14744  0.025084112  0.033756063            2 
   48000    1.2662861   -7.0753904    14.589749  0.025329424  0.033741028            3 
   49000    1.2183059   -7.0464123    14.996778  0.025504725  0.033711084            3 
   50000    1.2561942     -7.06613     15.39483   0.02565805  0.033690682            1 
   51000    1.2338906   -7.0678194    15.765964  0.025761379  0.033654465            1 
   52000    1.2494816   -7.0563062    16.113589  0.025823059  0.033624541            3 
   53000    1.2204339   -7.0849551     16.39261  0.025774544  0.033586248            2 
   54000    1.2266488   -7.0393242    16.868139  0.026031078  0.033538347            1 
   55000    1.2502321   -7.0399694    17.292577  0.026200875   0.03351628            2 
   56000    1.2240203   -7.1262932    17.582658  0.026164669  0.033483503            2 
   57000    1.2261874   -7.1048138     17.88253   0.02614405  0.033429231            1 
   58000    1.2338432   -7.0895762    18.362381  0.026382732  0.033383144            2 
   59000    1.2432533   -7.0502546    18.649497  0.026341098  0.033322092            1 
   60000    1.2474862   -7.0251672    18.917622  0.026274474  0.033244009            2 
   61000    1.2561677   -7.0810783    19.361927  0.026450719  0.033179131            4 
   62000    1.2435776   -7.0996737    19.678875  0.026450101  0.033115557            3 
   63000    1.2236135   -7.0700044    20.029473  0.026494012  0.033038749            3 
   64000    1.2226658     -7.05838    20.296572  0.026427828   0.03295563            3 
   65000    1.1977515   -7.0512055    20.668164  0.026497646  0.032864862            2 
   66000    1.2292887   -7.0552819     21.09814  0.026639065  0.032788667            1 
   67000    1.2201834   -7.0338078    21.542306  0.026793913  0.032723966            1 
   68000    1.2275473   -7.0502481    21.905978  0.026845561  0.032669323            3 
   69000    1.2186835   -7.1046728    22.129772  0.026726777  0.032610885            3 
   70000    1.2080611   -7.0718345    22.608512  0.026914896  0.032550237            1 
   71000    1.2137807   -7.1161051    22.996555  0.026991262  0.032503504            2 
   72000    1.2470645   -7.0858068    23.398853  0.027082006   0.03247222            3 
   73000    1.2015578   -7.0823361      23.7887   0.02715605  0.032430838            4 
   74000    1.1998744    -7.077906    24.129375  0.027172719  0.032395846            2 
   75000    1.2367314   -7.0734455    24.413648  0.027126275   0.03235069            4 
   76000    1.2373477   -7.0635845    24.850743  0.027248622  0.032300748            1 
   77000    1.2340066    -7.062909    25.200183  0.027272925  0.032263091            4 
   78000    1.2027637   -7.0972983    25.617689  0.027369326  0.032229007            2 
   79000    1.2316296   -7.1045532    26.058185  0.027487537  0.032200238            1 
   80000    1.2285083   -7.1046564    26.547986  0.027654152  0.032187324            1 
   81000    1.2063339   -7.1330733    26.878774  0.027653059  0.032177393            2 
   82000    1.2233751   -7.0537915    27.431519   0.02787756  0.032173608            1 
   83000    1.2368158   -7.0675473    27.876498  0.027988451  0.032170382            3 
   84000    1.2070694   -7.0942315    28.224105  0.028000104  0.032176294            2 
   85000     1.229147    -7.103812    28.457576  0.027899584  0.032173137            1 
   86000     1.244211   -7.0921947    28.984892  0.028086136  0.032165683            2 
   87000    1.2036869   -7.0620573    29.371134   0.02813327  0.032168897            5 
   88000    1.1968565   -7.1350928    29.597314  0.028027759  0.032163036            1 
   89000    1.1960438   -7.1092144    29.976283   0.02806768  0.032149852            1 
   90000     1.226244   -7.0937682    30.283442  0.028040224  0.032134889            1 
   91000    1.2281666   -7.0896857    30.735365  0.028145939   0.03211555            2 
   92000    1.2356151   -7.1128344      31.0276   0.02810471  0.032101668            2 
   93000    1.2397671   -7.1034832    31.335313  0.028078237  0.032076548            4 
   94000    1.2274049   -7.0790147    31.660862   0.02806814  0.032054907            1 
   95000    1.2383812   -7.0394489    32.205006  0.028250005  0.032042544            2 
   96000    1.2248744   -7.0879176     32.47575  0.028190755  0.032027968            2 
   97000     1.224429   -7.1371016    32.904912  0.028268825  0.032011116            3 
   98000    1.2431134   -7.1023187    33.181297  0.028215388  0.031990764            2 
   99000     1.209155   -7.0825066     33.69257  0.028360749  0.031974607            5 
  100000    1.2258164   -7.1017897     33.81392  0.028178267  0.031955536            4 
  101000    1.1843403   -7.1041074    34.286902  0.028289523  0.031934359            3 
  102000    1.2203025   -7.1226054     34.77514  0.028411062  0.031921017            1 
  103000    1.1974085   -7.0717444    35.338491  0.028591012  0.031911405            2 
  104000    1.1976989   -7.1272721    35.407059  0.028371041  0.031899239            4 
  105000    1.2388822   -7.1079043    35.551632  0.028215581  0.031879658            3 
  106000    1.2179992    -7.104087    35.897446  0.028221263  0.031854207            2 
  107000    1.2394668   -7.1055466    36.243097  0.028226711  0.031821615            6 
  108000    1.2013313   -7.0933193    36.472509  0.028142368  0.031793202            1 
  109000    1.1748708   -7.1306704    36.773957  0.028114646  0.031756675            3 
  110000    1.2179701   -7.1304822    36.997233  0.028028207  0.031721523            2 
  111000    1.2199166   -7.1112024    37.335687  0.028029795   0.03168271            2 
  112000    1.1939173   -7.1361228    37.659755  0.028020651  0.031641536            2 
  113000    1.2061522   -7.1286892    38.002584  0.028025504  0.031593158            3 
  114000    1.2182945   -7.0871488     38.23845  0.027952083  0.031549832            1 
  115000    1.2011715   -7.0995758     38.83005  0.028137717  0.031508983            3 
  116000    1.2051847   -7.1198694    39.135449  0.028114546    0.0314722            2 
  117000    1.1881022   -7.1110696    39.461116  0.028106208   0.03143574            4 
  118000     1.210847   -7.1179464    39.965575  0.028224276  0.031402809            1 
  119000    1.2130163   -7.0939133    40.424019  0.028308136   0.03137925            3 
  120000    1.2045852   -7.1143546    40.945641  0.028434473  0.031355541            2 
  121000    1.1930924   -7.1237591    41.001567  0.028237993  0.031332869            3 
  122000    1.2128534   -7.1628882    41.503078  0.028349097  0.031308608            3 
  123000    1.1727253   -7.1327053    42.123247  0.028538785  0.031286981            2 
  124000    1.2090329   -7.0676779    42.420402  0.028508334  0.031269189            1 
  125000     1.204018   -7.1052042    42.690808  0.028460539  0.031256104            1 
  126000    1.2046919   -7.1042778    43.131203  0.028525928  0.031238518            4 
  127000    1.2032572   -7.1178348    43.299321  0.028411628  0.031221251            3 
  128000    1.2055248   -7.1469539    43.700131  0.028450606  0.031200583            3 
  129000     1.187668   -7.1195748    44.008817  0.028429468  0.031177294            2 
  130000    1.1637377   -7.1258338    44.313566  0.028406132  0.031156698            2 
  131000    1.2003779    -7.104688    44.566033  0.028349893  0.031135104            2 
  132000    1.1848645   -7.2027163    44.858624  0.028319838  0.031109967            3 
  133000    1.2241907     -7.17271    45.117826  0.028269315  0.031082514            3 
  134000    1.2211815   -7.0909051    45.401773  0.028234934  0.031054022            3 
  135000    1.2240383   -7.1488942    45.760328  0.028247116  0.031028523            2 
  136000    1.1711942   -7.1462836    46.037188  0.028209061   0.03100103            3 
  137000    1.2013815   -7.1542965    46.345479  0.028190681  0.030971498            2 
  138000    1.2016311   -7.1599022    46.778824  0.028248082   0.03094006            3 
  139000    1.2362194   -7.1548784    46.751514  0.028028486  0.030903686            1 
  140000    1.2063635   -7.1605903    47.200437  0.028095498  0.030864913            2 
  141000    1.1965718   -7.1174392    47.652595  0.028163472  0.030831118            2 
  142000    1.1907624   -7.1271012    47.918364  0.028121106  0.030801242            4 
  143000    1.2072158   -7.1573499    48.271505  0.028130247  0.030770262            3 
  144000    1.1866433   -7.1794817     48.55039   0.02809629  0.030738025            4 
  145000     1.229344   -7.1344174    49.085457  0.028210033   0.03070763            3 
  146000    1.1916491   -7.1554294    49.131794  0.028043261   0.03067644            4 
  147000    1.1981597   -7.2062496     49.32274  0.027960737  0.030643436            2 
  148000    1.2173975   -7.1512686    49.804093  0.028042845  0.030607804            2 
  149000    1.1941498   -7.1708038    50.060652  0.027998127  0.030576692            5 
  150000     1.216544   -7.1331379    50.632924  0.028129402  0.030546543            2 
  151000    1.1817717   -7.2078879    50.787655  0.028028507  0.030518609            2 
  152000    1.2120392   -7.1636612    51.360222  0.028158016  0.030492862            2 
  153000    1.1746359   -7.1305893    51.736127  0.028178718  0.030467826            2 
  154000    1.1919179   -7.1636922    51.828973  0.028045981  0.030437933            5 
  155000     1.173912   -7.2019019    52.059249  0.027988844  0.030404269            2 
  156000    1.2167769    -7.173327    52.507344  0.028048795   0.03037358            2 
  157000    1.1913353   -7.1340815    52.718447  0.027982191  0.030344706            3 
  158000    1.1898986   -7.1505439    53.080131   0.02799585  0.030314193            1 
  159000    1.1903657   -7.1362942    53.292505  0.027931082  0.030284352            2 
  160000    1.2172981   -7.1809097    53.678214  0.027957403  0.030251506            3 
  161000     1.190343   -7.1942183    53.942902  0.027920757  0.030223916            1 
  162000    1.1818055   -7.2085972    54.142026  0.027850836  0.030192425            3 
  163000    1.2137488   -7.1803521    54.475936  0.027850683  0.030162081            5 
  164000    1.2163957   -7.1918501    54.813654  0.027852467  0.030131371            4 
  165000    1.1768981   -7.1467395    55.253471  0.027905794  0.030099345            2 
  166000    1.1911247   -7.1811188    55.515236  0.027869094  0.030067039            3 
  167000    1.1887518   -7.2295856    55.747727  0.027818227  0.030035422            3 
  168000     1.208211   -7.2149981    56.107904  0.027831301  0.030004464            3 
  169000    1.1842009   -7.2052348    56.443729  0.027832213  0.029976113            1 
  170000    1.2149441   -7.1584755    56.969861  0.027926402  0.029948013            5 
  171000    1.1753816   -7.1877817    57.083496  0.027818468  0.029920018            3 
  172000    1.1800151   -7.1923061    57.218432  0.027722108  0.029889684            3 
  173000    1.1977534   -7.2316694    57.468574  0.027682357  0.029858114            3 
  174000    1.1954915   -7.2206065    57.790556  0.027677469  0.029828484            2 
  175000    1.1778064    -7.169882    58.273398  0.027749237  0.029800541            2 
  176000    1.1813004   -7.1886678    58.484995  0.027691759  0.029769996            3 
  177000    1.1643473   -7.2127997    58.976371  0.027766653  0.029739001            6 
  178000    1.1968822   -7.2111694    59.270029  0.027748141  0.029709347            1 
  179000    1.1971235   -7.2479786    59.410919  0.027658714   0.02968084            2 
  180000    1.1764088   -7.2292752    59.905455  0.027734007   0.02965265            3 
  181000    1.1676096   -7.1851818    60.019388  0.027633236  0.029624411            2 
  182000    1.1903077   -7.2029173    60.432205  0.027670423  0.029594676            2 
  183000    1.1806434   -7.2131685    60.769848  0.027672972  0.029565031            1 
  184000    1.1834022   -7.2172871    61.105775  0.027674717  0.029537887            2 
  185000    1.2045476   -7.1960073    61.380525  0.027648885  0.029511203            4 
  186000    1.1797742    -7.188394    61.627888  0.027611061   0.02948286            4 
  187000    1.1853532   -7.1824532    62.022135  0.027639097   0.02945605            2 
  188000    1.1562941   -7.2415535    62.014495  0.027488695  0.029428922            2 
  189000    1.1933353   -7.2084793     62.79067   0.02768548  0.029402731            2 
  190000    1.1642043   -7.1618291    63.228361  0.027731737  0.029379826            4 
  191000    1.1997868   -7.2394329    63.129049  0.027543215  0.029354525            2 
  192000    1.1591908   -7.2004216      63.4198  0.027525955  0.029326527            7 
  193000    1.1963779   -7.1716922     63.90689  0.027593648  0.029298039            7 
  194000    1.1516712   -7.2041429    64.017304  0.027498842   0.02927084            2 
  195000    1.1575352   -7.2456989     64.32873   0.02749091  0.029245433            1 
  196000    1.1668044   -7.2380607    64.853507   0.02757377  0.029221556            2 
  197000    1.1685006   -7.1487244    65.602109  0.027750469  0.029200189            1 
  198000    1.1638767   -7.2253431    65.752611  0.027673658    0.0291798            3 
  199000     1.196059   -7.2251731    65.937505   0.02761202  0.029160642            3 
  200000     1.173205   -7.2041621    66.338237  0.027640932  0.029140834            2 
  201000    1.1777554   -7.2151632    66.795705  0.027693078  0.029121711            1 
  202000    1.1646062   -7.1972503    67.039188  0.027656431  0.029104718            3 
  203000    1.1628497   -7.2293595    67.344735  0.027645622  0.029089242            2 
  204000    1.1901017   -7.2323524    67.980756  0.027769917  0.029073965            4 
  205000    1.1678995   -7.2499312    68.157388  0.027706255   0.02906059            7 
  206000    1.1557489   -7.2076156    68.716041  0.027797751  0.029048222            2 
  207000    1.1752474   -7.2083541    68.960164  0.027761741  0.029035332            2 
  208000    1.1669193   -7.2266591    69.243605  0.027741829  0.029021233            3 
  209000    1.1446339   -7.2268389    69.408693  0.027674917  0.029006394            2 
  210000     1.177449   -7.2179375    69.646404  0.027637462  0.028989609            3 
  211000    1.1470405   -7.2248071    69.888259  0.027601998  0.028971626            1 
  212000    1.1749887   -7.2598959     70.17708   0.02758533  0.028953255            3 
  213000    1.1955658   -7.2000638    70.653347  0.027642155  0.028935108            1 
  214000    1.1623438   -7.2322905    70.701012  0.027531547  0.028917599            3 
  215000    1.1738926   -7.2279314    71.222456  0.027605603    0.0288999            2 
  216000    1.1839482   -7.2487509     71.47603  0.027575629  0.028881284            2 
  217000    1.1488355   -7.1905821    71.972248  0.027639112  0.028863055            1 
  218000    1.1479416   -7.2720685    72.239082  0.027614328  0.028846558            5 
  219000    1.1506633   -7.2284995    72.735129   0.02767699  0.028832321            3 
  220000    1.1821713   -7.2560647    72.716237  0.027544029  0.028817407            8 
  221000    1.1460964   -7.2569773    73.191846  0.027598735  0.028801992            3 
  222000    1.1601896   -7.2353855    73.299979  0.027515007  0.028786522            2 
  223000    1.2078494   -7.2572694    73.640459  0.027518856  0.028769805            3 
  224000    1.1667125   -7.2139608    74.113618   0.02757203  0.028754227            2 
  225000    1.1562244   -7.2062369    74.706302  0.027669001  0.028739828            8 
  226000    1.1788821   -7.2325638    74.854223  0.027601115  0.028726815            2 
  227000    1.1452155   -7.2014198    75.250297  0.027624925  0.028713142            2 
  228000    1.1681086   -7.2247723    75.340285  0.027536654  0.028697155            2 
  229000    1.1492685   -7.1826878     75.73088  0.027558544  0.028680452            1 
  230000     1.154022   -7.2565925    75.834837   0.02747639  0.028665526            4 
  231000     1.145536   -7.1913931    76.429874  0.027572104  0.028650049            3 
  232000    1.1432684   -7.2463025    76.444474  0.027458503  0.028634959            4 
  233000    1.1452647   -7.2400039    76.772907  0.027458121  0.028618903            1 
  234000    1.1625547   -7.2163513    76.946838   0.02740272  0.028603435            2 
  235000    1.1557722   -7.2474105    77.135373  0.027352969  0.028584867            5 
  236000    1.1775014   -7.2635284    77.339885  0.027309281  0.028566101            2 
  237000    1.1721947    -7.205524    77.990348  0.027422767  0.028548455            2 
  238000    1.1583578   -7.2465003    77.896162  0.027274566  0.028531461            2 
  239000    1.1640499   -7.2677641    78.548744  0.027387986   0.02851461            7 
  240000    1.1538978   -7.2549987    78.960345  0.027416786  0.028498998            3 
  241000    1.1379107   -7.2689537    78.989283   0.02731303  0.028483446            1 
  242000    1.1289712   -7.2505622    79.627409  0.027419907   0.02846686            2 
  243000    1.1605907   -7.2624335    79.909809  0.027403912  0.028450484            2 
  244000    1.1715762   -7.2435363      80.2326  0.027401844  0.028435839            2 
  245000    1.1533409   -7.2224793    80.704966  0.027450669  0.028422871            3 
  246000    1.1566506   -7.2734005    80.719376  0.027343962  0.028409154            5 
  247000    1.1586661   -7.2368196    81.421906  0.027470278  0.028395052            2 
  248000    1.1596761   -7.2519523    81.378015  0.027344763  0.028381088            2 
  249000    1.1299755   -7.2776517    81.807574  0.027378706  0.028366664            2 
  250000    1.1481501   -7.2746612      82.0627  0.027354233  0.028352555            2 
  251000    1.1856014   -7.2646519    82.490171  0.027387175  0.028337558            2 
  252000    1.1640292   -7.2455717    82.537442  0.027294127  0.028322095            1 
  253000    1.1434837   -7.3238567    82.724189  0.027247757    0.0283068            4 
  254000    1.1474392   -7.3165568    82.722763  0.027140014  0.028291549            2 
  255000    1.1690546   -7.2663753    83.309368  0.027225284  0.028274364            2 
  256000    1.1779659   -7.2794566    83.471328  0.027171656  0.028257732            4 
  257000    1.1610181   -7.2617851    83.797201  0.027171596  0.028241363            3 
  258000    1.1702232   -7.3120605    84.063383  0.027152256   0.02822616            4 
  259000     1.159472   -7.1866309    85.037175  0.027360738  0.028211029            2 
  260000    1.1665106   -7.2831454    84.755634  0.027165267  0.028195898            3 
  261000    1.1489862   -7.2984857    84.979922  0.027132798  0.028180435            2 
  262000    1.1396552   -7.3187054    85.417941  0.027168556   0.02816445            3 
  263000    1.1319735   -7.2951563    85.974818  0.027241704  0.028149414            3 
  264000    1.1786375   -7.2596176    86.250419  0.027225511  0.028135063            3 
  265000    1.1474735   -7.2357448    86.452149   0.02718621  0.028121529            2 
  266000    1.1384264   -7.3361344    86.338458  0.027048389  0.028105825            3 
  267000    1.1383276   -7.2791255    86.795578  0.027089756  0.028089122            1 
  268000    1.1497483   -7.2938573    86.540728   0.02690943  0.028072626            6 
  269000    1.1527317   -7.3121407    86.987711  0.026947866  0.028054236            2 
  270000    1.1462615   -7.3054709    87.491422  0.027003525  0.028035879            2 
  271000    1.1718839   -7.2900959    87.119858  0.026789624  0.028016412            2 
  272000    1.1409675    -7.260768    87.718149  0.026874433  0.027996484            4 
  273000    1.1233257   -7.2772415    88.349342  0.026968664  0.027978101            2 
  274000    1.1330422   -7.3392146     88.12136    0.0268009  0.027958982            1 
  275000    1.1340241   -7.3089898     88.49574  0.026816891  0.027938435            2 
  276000    1.1658748   -7.2956212    88.609561  0.026754094  0.027918213            2 
  277000    1.1592365   -7.2890038    88.793284  0.026712781  0.027897174            2 
  278000    1.1625905   -7.2581949    89.634319  0.026868801  0.027876983            4 
  279000    1.1421545   -7.2786535    89.543347  0.026745325  0.027856366            2 
  280000     1.173683   -7.3308279    89.945158  0.026769392  0.027835242            2 
  281000    1.1351474   -7.3593988    89.598328  0.026571271  0.027813387            3 
  282000    1.1464452   -7.2971983    90.085664  0.026621059  0.027790261            1 
  283000    1.1237109   -7.2959796    90.761092  0.026725881   0.02776866            2 
  284000    1.1654225   -7.2500073    91.116002  0.026735916  0.027747757            4 
  285000    1.1555475    -7.323592    90.916752  0.026583845  0.027726996            1 
  286000    1.1540256   -7.2833357    91.441696  0.026643851  0.027706876            2 
  287000    1.1338951   -7.3179037    91.438794  0.026550172  0.027686352            3 
  288000    1.1313451    -7.299896     92.03805   0.02663138  0.027665748            5 
  289000    1.1213911   -7.3087665    92.635982  0.026711644  0.027645595            3 
  290000    1.1492237   -7.3295165    92.365801  0.026541897  0.027626451            3 
  291000    1.1437275   -7.3356457    92.832214  0.026584254  0.027606889            3 
  292000    1.1033964   -7.3069758    93.103669  0.026570682  0.027587551            4 
  293000    1.1125865   -7.3347745     93.38156  0.026559033  0.027567914            3 
  294000    1.1461329    -7.303832    93.971757  0.026635985  0.027548946            1 
  295000    1.1506846   -7.2509349     93.88968  0.026522509   0.02753062            6 
  296000    1.1267111   -7.3150109    94.126143  0.026499477  0.027510568            3 
  297000    1.1605753   -7.3511106    94.331963  0.026468003  0.027491352            1 
  298000    1.1485434   -7.3515579    94.783291  0.026505395  0.027470785            1 
  299000    1.1562966   -7.3046912    94.983378  0.026472513  0.027450622            8 
  300000    1.1249561   -7.3179418    94.836962  0.026343601  0.027431538            2 
  301000    1.1465791   -7.3064369     95.57104  0.026459313  0.027412466            1 
  302000    1.1518247   -7.3356895    95.833774  0.026444198  0.027392795            3 
  303000    1.1378179   -7.3042778    96.376578   0.02650621  0.027374395            1 
  304000    1.1020209   -7.2993833    96.654739  0.026495268  0.027356937            6 
  305000    1.1384579   -7.3513248    96.951721  0.026489541  0.027339299            1 
  306000    1.1251715   -7.3272325    96.970945   0.02640821  0.027321661            4 
  307000    1.1371743   -7.3238016    97.537076  0.026475862  0.027304267            3 
  308000    1.1286114   -7.3122125     97.83062  0.026469324  0.027286624            4 
  309000     1.140334   -7.3630933    98.020191  0.026434787  0.027269767            5 
  310000    1.1304193   -7.2917014    98.598367  0.026504937  0.027252342            3 
  311000    1.1343232   -7.3262271     98.81045  0.026476541  0.027235309            2 
  312000    1.1315378   -7.3451824    98.874103  0.026408681  0.027219101            2 
  313000    1.1346946   -7.3108462    99.258994  0.026426782  0.027202718            3 
  314000    1.1410163   -7.3475092    99.124436   0.02630691  0.027186365            2 
  315000    1.1468688   -7.3015668    99.863256  0.026418851  0.027169198            4 
  316000     1.115738   -7.3354303    99.950917  0.026358364   0.02715162            4 
  317000     1.133845   -7.3575745    99.911391  0.026264824  0.027134513            5 
  318000      1.12345   -7.3246345    100.58543  0.026358865   0.02711727            5 
  319000    1.1172424   -7.3190115     100.7582  0.026321368  0.027100186            3 
  320000    1.1298411   -7.3299415    100.65003  0.026210946  0.027082995            3 
  321000    1.1023595     -7.34376    100.71158  0.026145269  0.027064723            3 
  322000    1.1271274   -7.3447342     101.6988  0.026319566  0.027047513            3 
  323000    1.1311159   -7.3991282    100.89844  0.026031589   0.02702995            1 
  324000    1.1279279    -7.352852     101.5752  0.026125308  0.027010787            3 
  325000    1.1205527   -7.3659812    101.78384   0.02609842  0.026991801            6 
  326000    1.1268998   -7.3533056    101.95994  0.026063379  0.026973281            4 
  327000    1.0843915   -7.3220165    102.78955  0.026195094  0.026954397            3 
  328000    1.0988161   -7.3758882    102.70666  0.026094172  0.026935507            2 
  329000    1.1189682    -7.344038    102.78461  0.026034601  0.026916178            3 
  330000    1.1242803   -7.3659695    102.77056  0.025952162  0.026896791            3 
  331000    1.1075965   -7.3239986    103.72688  0.026114521  0.026877955           10 
  332000    1.1131532     -7.34627    103.44326  0.025964675  0.026858227            2 
  333000    1.1237387   -7.3791358    103.62039   0.02593103  0.026838264            4 
  334000    1.1194757   -7.3318599    104.15832  0.025987606  0.026818687            1 
  335000    1.0793316    -7.333162    104.18727  0.025917231  0.026799175            3 
  336000    1.1072686   -7.3626789    104.81438   0.02599563  0.026780471            3 
  337000    1.1382582   -7.3294744    105.14325  0.025999814  0.026761416            5 
  338000    1.1051144   -7.3670241    105.18458  0.025933083  0.026743439            5 
  339000    1.1545919    -7.358547    105.40955  0.025911884  0.026725073            2 
  340000    1.1254551   -7.4124609    105.33116   0.02581646  0.026705912            5 
  341000    1.0932589   -7.3679766    106.03874  0.025913672  0.026686827            4 
  342000    1.1164096   -7.3582682    106.76772  0.026015527  0.026668584            4 
  343000    1.1280209   -7.3805575    106.39444  0.025848988  0.026650704            1 
  344000    1.1142872   -7.3502689    107.27293  0.025986659  0.026632556            2 
  345000    1.1381084   -7.3660805    106.94717   0.02583265  0.026615505            3 
  346000     1.130799   -7.4049763     107.2746  0.025836849  0.026598555            2 
  347000    1.0925476   -7.4018812    107.73379  0.025872667  0.026581177            5 
  348000    1.1263392   -7.3767872      107.869  0.025830699  0.026564098            1 
  349000    1.1273687   -7.4106926    108.42384   0.02588917  0.026547107            5 
  350000    1.1373247   -7.3957063    108.77798   0.02589952  0.026531396            7 
  351000    1.1101344   -7.3738369    108.71198  0.025810061  0.026514712            7 
  352000     1.118441   -7.3590765    108.99553  0.025803866  0.026497401            4 
  353000    1.1113081   -7.3644685    109.20926  0.025781222  0.026479749            1 
  354000     1.101093   -7.3894828    109.42311  0.025758736  0.026462752            2 
  355000    1.1157682   -7.4021478    109.61148  0.025730393  0.026445578            3 
  356000    1.1214091   -7.3575703    110.21632    0.0257997  0.026428274            2 
  357000    1.1286293    -7.382185    110.22077   0.02572847  0.026410742            2 
  358000     1.109626   -7.3711076    110.33115  0.025682297   0.02639373            3 
  359000    1.1209489    -7.416574    110.75138  0.025708306  0.026376722            3 
  360000     1.147644   -7.3721316    110.67194  0.025618504  0.026359434            4 
  361000    1.1234612   -7.3681668    111.38805  0.025712846  0.026342894            5 
  362000    1.1039525   -7.3837583    112.00527  0.025783901  0.026327013            3 
  363000    1.1089602   -7.4168273    111.44728  0.025584776  0.026310457            1 
  364000    1.0957083   -7.4068304    111.74676  0.025583049  0.026293199            3 
  365000    1.1011506    -7.416761     112.0341  0.025578562  0.026275588            3 
  366000    1.1267007   -7.4397916    112.30054   0.02556934  0.026259044            2 
  367000     1.122767   -7.4296497    112.73141  0.025597505  0.026243056            3 
  368000    1.1102706   -7.3886508    113.66193  0.025738662  0.026227174            2 
  369000    1.1005892   -7.3714126    113.79041  0.025697925  0.026211914            4 
  370000    1.0802963   -7.3748261    113.99642   0.02567487  0.026196506            2 
  371000    1.0837406   -7.3986288    113.86645  0.025576471  0.026180919            2 
  372000    1.0952193   -7.4184923    114.63974  0.025680945  0.026164936            1 
  373000    1.1200826   -7.3524987    115.25203  0.025748891  0.026149898            4 
  374000    1.0973914   -7.4015879     114.6995   0.02555693  0.026135295            7 
  375000    1.1049126   -7.3626294    115.49939  0.025666531  0.026120368            2 
  376000    1.1100906   -7.3727521     115.9203  0.025691555  0.026106227            4 
  377000    1.0945693   -7.3726617     115.9656  0.025633422  0.026092228            2 
  378000    1.0637507   -7.3953658    116.23156  0.025624241  0.026077639            3 
  379000    1.1127911   -7.4333319    116.49895  0.025615424  0.026062945            3 
  380000    1.0965306   -7.4511554    116.25363  0.025494217  0.026047824            5 
  381000     1.088657   -7.4026376    116.63726  0.025511211  0.026032718            3 
  382000     1.112729   -7.3957347    116.62071  0.025440819  0.026017609            1 
  383000    1.1011411   -7.4263302    117.05976  0.025469921  0.026001489            3 
  384000    1.1134791   -7.4120798    117.14956  0.025423082  0.025985158            4 
  385000    1.0858757   -7.4151342    117.15116  0.025357393  0.025969547            2 
  386000    1.0917565    -7.423942    117.44556   0.02535526  0.025953371            4 
  387000    1.0644272   -7.3905371    117.52761  0.025307409  0.025937125            1 
  388000    1.1033427   -7.4633886    117.21408  0.025174845   0.02591976            4 
  389000    1.0913229   -7.4190443    117.81305  0.025238443  0.025901658            5 
  390000    1.0791158   -7.4057925    118.40076  0.025299308  0.025883651            4 
  391000    1.1097958   -7.3837584    118.68809  0.025295843  0.025866359            2 
  392000    1.0865019   -7.3692896    118.59973  0.025212527  0.025848715            4 
  393000    1.1192853   -7.4084461    118.84101  0.025199535  0.025830879            3 
  394000    1.1005447    -7.450781    118.70244  0.025106269  0.025812764            2 
  395000    1.1150804   -7.4626768    119.01266  0.025108156  0.025794874            1 
  396000    1.1032571   -7.3978606    119.27791   0.02510057  0.025776634            2 
  397000    1.1054265    -7.434438    119.52114    0.0250884  0.025758291            3 
  398000    1.1100958   -7.4024525    119.70781  0.025064449  0.025740264            3 
  399000    1.0837905   -7.4119981    120.49678  0.025166412  0.025723039            2 
  400000    1.1016096   -7.4005485    120.48847  0.025101764  0.025705255            2 
  401000    1.0854475   -7.4267477    120.59305  0.025060899  0.025687647            4 
  402000    1.0980657   -7.3977913    120.93256  0.025068939  0.025670049            1 
  403000    1.1009194   -7.4492972    121.19765  0.025061549  0.025652557            1 
  404000    1.0778072   -7.4201881    121.16062  0.024991878  0.025634654            3 
  405000    1.0842771   -7.4225372    121.53962  0.025008153  0.025616929            3 
  406000      1.08657   -7.4792999    121.31061   0.02489955  0.025598469            2 
  407000    1.0964153   -7.4283649    122.09351  0.024998672  0.025580469            3 
  408000      1.09744   -7.4176897    122.40767  0.025001567  0.025563097            3 
  409000    1.1075378   -7.4092026    122.19662  0.024897437  0.025545826            3 
  410000    1.0957695   -7.4159089    122.61248  0.024921235  0.025528516            4 
  411000    1.1178906   -7.4299182    123.02465  0.024944171  0.025511667            4 
  412000    1.0976874   -7.4342301    123.20377  0.024919857   0.02549478            3 
  413000    1.0689944   -7.4650213    123.40428  0.024899975  0.025478247            5 
  414000    1.1021739   -7.4373138    123.92282  0.024944206  0.025461645            6 
  415000     1.077697   -7.4434686    124.18137  0.024936017  0.025445107            3 
  416000    1.0969565   -7.4871442    123.47418  0.024734412  0.025428347            3 
  417000     1.092918   -7.4753404    124.01187  0.024782549  0.025410512            3 
  418000    1.0871965   -7.4705991    124.38685  0.024798016  0.025393476            1 
  419000    1.0828457   -7.4505115    124.87696  0.024836309  0.025376197            5 
  420000    1.0874648   -7.4163161    125.09714  0.024820862  0.025358724            3 
  421000    1.0716884   -7.4757647    124.86974  0.024716893  0.025341207            5 
  422000    1.0977245   -7.4731957      125.243  0.024732029  0.025323698            2 
  423000    1.1048482   -7.4382096    125.31693  0.024688127  0.025305959            4 
  424000     1.108548   -7.3871659    126.19945  0.024803352   0.02528887            2 
  425000    1.0919983    -7.450141    125.94106  0.024694326  0.025271511            3 
  426000     1.092001   -7.4498062    125.95125  0.024638351  0.025253766            4 
  427000    1.0759721   -7.4601625    126.40936  0.024670055  0.025236087            6 
  428000    1.0761387   -7.5104993    126.08876  0.024549993  0.025217959            3 
  429000    1.0826462   -7.5012332    126.28664  0.024531204  0.025199263            2 
  430000    1.0893079   -7.4471269    126.77733  0.024569251  0.025181012            8 
  431000    1.0589207   -7.4588316    127.31056  0.024615344  0.025163528            4 
  432000    1.0693324   -7.4476455    127.20596  0.024538187  0.025145868            3 
  433000    1.0658225   -7.4779432    127.45819   0.02453006  0.025127884            3 
  434000    1.0822223   -7.4712637    127.56387   0.02449383  0.025110143            3 
  435000    1.0792261   -7.4764401    127.93296  0.024508229  0.025092191            4 
  436000     1.094106   -7.4742505    128.49364  0.024559183  0.025074005            3 
  437000    1.1090268   -7.4391051    128.44864  0.024494402  0.025056149            2 
  438000     1.078849   -7.4446305    128.80172  0.024505655  0.025038414            4 
  439000    1.0830368   -7.5042972    128.47578  0.024387961  0.025020213            2 
  440000    1.0927849   -7.4320343    128.94712  0.024421804  0.025001597            4 
  441000    1.0998033   -7.4561217    129.24502  0.024422717  0.024983757            4 
  442000    1.1025486   -7.4934113    129.04867  0.024330443  0.024964993            4 
  443000    1.0752806   -7.5105935    129.11616  0.024288217   0.02494649            5 
  444000     1.092418   -7.4346559    129.72639  0.024348047  0.024928055            3 
  445000    1.0809809   -7.4507526    129.88759  0.024323519  0.024909289            2 
  446000    1.0713102   -7.4971705    130.20389  0.024328082  0.024890762            6 
  447000    1.0753805   -7.4665825    130.47288  0.024323803  0.024872093            2 
  448000    1.0782546    -7.531939    130.53277  0.024280649  0.024853154            2 
  449000    1.1007018   -7.5160077    130.39888  0.024201722  0.024834244            7 
  450000    1.0710778   -7.4864684    130.52218  0.024170773  0.024815505            3 
  451000      1.07432   -7.4580223    130.75311   0.02415985  0.024796746            2 
  452000    1.0750253   -7.4586415    131.49085  0.024242413  0.024778471            2 
  453000     1.083748   -7.4576435    132.20873  0.024320958   0.02476033            2 
  454000    1.0569515   -7.4550063    132.09864   0.02424718  0.024742247            3 
  455000    1.1000428   -7.4890841    131.71855  0.024124276  0.024724007            4 
  456000     1.084717   -7.5115354    131.82657  0.024091114  0.024705163            5 
  457000    1.0776813   -7.4920619    131.99448  0.024069016  0.024686145            2 
  458000    1.0672054   -7.4965685    132.29927  0.024071919  0.024667397            6 
  459000    1.0965307   -7.4761709    132.10838  0.023984818  0.024648836            2 
  460000    1.0449151   -7.5006205    132.86549  0.024069835  0.024630328            2 
  461000    1.0579372   -7.5129011    132.71011  0.023989535  0.024611128            2 
  462000    1.0811196    -7.498655    132.69098   0.02393416  0.024591767            3 
  463000    1.0909899   -7.4926867    133.29522  0.023991221  0.024573184            3 
  464000    1.0608528   -7.4668907    133.60115   0.02399446  0.024554554            1 
  465000    1.0830976   -7.4971594    133.36864  0.023901189  0.024535674            3 
  466000    1.0694302   -7.5377493    133.74621   0.02391742  0.024516915            2 
  467000    1.0740347   -7.5109956     134.2958  0.023964275  0.024498774            2 
  468000     1.080165    -7.502223    134.43485   0.02393783  0.024480902            5 
  469000    1.0821341   -7.4942046     134.7832  0.023948684  0.024462328            3 
  470000     1.046009   -7.4900525    134.62669   0.02386998  0.024443855            3 
  471000    1.0525101   -7.5005179    135.08096  0.023899674  0.024425958            3 
  472000    1.0662837   -7.5042781    135.37824  0.023901526  0.024407957            2 
  473000    1.0492886    -7.510203    135.53696  0.023878956  0.024389963            3 
  474000    1.0876704   -7.4957032    135.64412  0.023847419  0.024371971            2 
  475000    1.0786225   -7.5025933     135.5558  0.023781719  0.024353508            2 
  476000    1.0752737    -7.515047    135.77337  0.023769848  0.024335092            2 
  477000    1.0675893   -7.4889663     136.3361  0.023818326    0.0243167            6 
  478000    1.0680938   -7.5039731    136.50285  0.023797569  0.024298601            1 
  479000    1.0607092   -7.5415916    136.67456  0.023777759  0.024280771            2 
  480000    1.0267316   -7.5329606    136.49983  0.023697887  0.024262483            3 
  481000    1.0780485   -7.5218929    136.80181  0.023700938  0.024244374            2 
  482000    1.0555689   -7.4896778    137.18708  0.023718375  0.024225987            2 
  483000    1.0588591   -7.5118919    137.22787  0.023676306  0.024207364            6 
  484000     1.072943   -7.4861943    137.72647  0.023713235  0.024188655            3 
  485000     1.078558   -7.4973847    137.77897  0.023673363  0.024170113            2 
  486000    1.0584867   -7.5373824    137.82649    0.0236328  0.024152058            4 
  487000    1.0543423   -7.5869157    137.98726  0.023611784  0.024133445            3 
  488000    1.0809803   -7.5016227    138.44014  0.023640734   0.02411522            5 
  489000    1.0927905   -7.4793795    138.99083  0.023686236  0.024097316            3 
  490000    1.0282136   -7.5785578    138.63633  0.023577607  0.024079533            2 
  491000    1.0670014   -7.5242895    139.04329  0.023598658  0.024061724            1 
  492000    1.0415131   -7.4936043    139.59469  0.023644087  0.024044639            3 
  493000    1.0288738   -7.5317723    139.34253  0.023553503  0.024027496            3 
  494000     1.066071   -7.5452058    139.45783  0.023525275  0.024010271            3 
  495000    1.0789672   -7.5046141    140.38426  0.023633715  0.023993109            6 
  496000    1.0676104   -7.5298076    139.80835  0.023489306  0.023975652            4 
  497000    1.0610649   -7.5150427    139.77492  0.023436439  0.023957621            2 
  498000    1.0561088   -7.5451639    140.27833  0.023473616   0.02393966            2 
  499000      1.05307    -7.534973     139.9992  0.023379959   0.02392155            4 
  500000    1.0605936   -7.5360958    140.49245  0.023415409  0.023903383            3 
  501000    1.0611299   -7.5062095    141.29491  0.023502147   0.02388561            2 
  502000    1.0758111   -7.5398293    141.07223  0.023418364  0.023868418            2 
  503000    1.0347643   -7.5214219    141.69803  0.023475486  0.023851096            2 
  504000    1.0696812   -7.5157594    141.62618  0.023417026  0.023833573            4 
  505000    1.0388432   -7.5657115    141.97558  0.023428314  0.023816185            4 
  506000    1.0560217    -7.556369    142.00356   0.02338662  0.023799051            1 
  507000    1.0259893   -7.5589214    142.42406  0.023409608  0.023782315            6 
  508000    1.0450389   -7.5359388    142.49769  0.023375605  0.023765078            4 
  509000    1.0536161    -7.576401    142.56554  0.023340789   0.02374806            6 
  510000    1.0347368   -7.5322524    142.86074  0.023343258  0.023730684            5 
  511000    1.0818213   -7.5807084     142.3994  0.023222342  0.023713385            2 
  512000     1.068273   -7.5701811    142.89946  0.023258376  0.023695844            2 
  513000    1.0435984   -7.6041427    143.06423  0.023239804  0.023678215            4 
  514000    1.0355164   -7.5524909    142.95573  0.023176999  0.023660843            5 
  515000    1.0413962   -7.5522211    143.39245  0.023202662  0.023642989           11 
  516000    1.0607782   -7.5650726    143.56086  0.023184893  0.023625093            8 
  517000     1.052834   -7.5609123     143.6123   0.02314834  0.023607073            6 
  518000    1.0512215   -7.5611828    143.88884  0.023148139  0.023588916            2 
  519000     1.041097   -7.5621511    144.56955  0.023212837  0.023571388            9 
  520000    1.0220329   -7.5372489    144.58072  0.023169988  0.023553827            4 
  521000    1.0507595   -7.5697986    144.71357  0.023146765   0.02353639            7 
  522000    1.0396398   -7.5837987    144.79954  0.023116146   0.02351875            5 
  523000    1.0696636   -7.5787749    144.40056  0.023008375  0.023501217            3 
  524000    1.0215989   -7.5695424    145.05264  0.023068168  0.023483495            4 
  525000    1.0442072   -7.5390836    145.43489  0.023084903  0.023465912            4 
  526000    1.0398515   -7.5426837    145.31056  0.023021318  0.023448211            4 
  527000    1.0430075   -7.5834275    144.93749  0.022918641  0.023430501            2 
  528000    1.0386226   -7.5701397    145.59534  0.022979062  0.023412471            5 
  529000    1.0642886   -7.6052938    145.62738  0.022940671  0.023394549            4 
  530000    1.0589057    -7.569436    146.19833  0.022987158  0.023376991            4 
  531000    1.0292427   -7.5628625    146.62451  0.023010752  0.023359596            3 
  532000    1.0448149   -7.5404761    146.77297  0.022990754  0.023342572            3 
  533000    1.0524082   -7.5403676    146.68076  0.022933203  0.023325237            5 
  534000    1.0310626   -7.5550052    146.62018  0.022880803  0.023307803            2 
  535000    1.0456306   -7.5713881    147.18234  0.022925598  0.023290383            3 
  536000    1.0354708   -7.5760267    147.60528  0.022948582  0.023273182            3 
  537000    1.0261428   -7.5711567    147.48905   0.02288781  0.023256511            4 
  538000     1.022046   -7.5907497    147.43585  0.022837027  0.023239603            2 
  539000    1.0421356   -7.5879065    148.19939  0.022912707   0.02322275            2 
  540000     1.032351   -7.6397292    147.94081  0.022830373  0.023205685            5 
  541000    1.0361417   -7.6010779     147.9834  0.022794733  0.023188139            5 
  542000    1.0262364   -7.5407703    148.56323  0.022841825  0.023171008            8 
  543000    1.0177534   -7.5885431    148.36657  0.022769579  0.023153886            5 
  544000    1.0524477   -7.5870388    148.81361  0.022796203  0.023136486            4 
  545000      1.01525   -7.6206897    148.71016  0.022738557  0.023118527            4 
  546000    1.0630377   -7.5888697    148.60656  0.022681098  0.023100837            3 
  547000    1.0461195    -7.587513    149.02741  0.022703749  0.023083073            2 
  548000    1.0537566   -7.5999027    148.87265  0.022638785   0.02306538            2 
  549000     1.042443   -7.6146152    149.46183  0.022686981  0.023047721            5 
  550000    1.0304694   -7.5503798    149.92495  0.022715902  0.023030516            3 
  551000    1.0364301   -7.5894312    149.79363  0.022654814  0.023013318            2 
  552000    1.0302989    -7.605412    149.60715  0.022585621  0.022995452            2 
  553000    1.0470567   -7.5886216    149.88558  0.022586737  0.022977493            2 
  554000      1.05015   -7.5837404    149.72057  0.022521145  0.022959487            3 
  555000    1.0500817   -7.5845165    150.42364  0.022586132  0.022941737            2 
  556000    1.0332705   -7.6066228    150.50828  0.022558195  0.022924054            3 
  557000    1.0423159    -7.606328    150.02432   0.02244529  0.022905944            2 
  558000    1.0255676    -7.598485    150.40261   0.02246156  0.022887642            4 
  559000    1.0122226   -7.5832451    150.75146  0.022473384  0.022869758            4 
  560000    1.0336163   -7.5745586    150.74788  0.022432721  0.022851856            5 
  561000     1.045505   -7.6246223    150.49494   0.02235516  0.022833969            3 
  562000    1.0201066    -7.626573    151.09255  0.022403997  0.022816007            5 
  563000    1.0543781    -7.564581    151.54247  0.022430798  0.022798227            4 
  564000    1.0487838   -7.5763334    152.04029  0.022464582  0.022780634            7 
  565000    1.0176978   -7.5973325    151.67402  0.022370799  0.022762908            4 
  566000    1.0258766    -7.595839    151.93291  0.022369392   0.02274532            2 
  567000   0.99529556   -7.6036204    152.02468  0.022343427  0.022727735           10 
  568000    1.0150814   -7.6186487    152.52523  0.022377528  0.022709932            4 
  569000    1.0132988   -7.6375066    152.22957  0.022294899  0.022692076            3 
  570000    1.0218012   -7.6372266    152.01719  0.022224735  0.022674264            3 
  571000    1.0434212   -7.6623201    152.27394  0.022223284   0.02265626            2 
  572000    1.0376168   -7.6253397    152.59271  0.022230873  0.022637966            2 
  573000    1.0345194   -7.5989539    153.20006  0.022280405  0.022620039            5 
  574000    1.0262811   -7.6186721    152.62432  0.022158003  0.022601673            2 
  575000    1.0130181    -7.625652    152.85487   0.02215288  0.022582993            2 
  576000     1.021327   -7.6104414    152.96077   0.02212974   0.02256456           10 
  577000    1.0261588    -7.649954    153.25905  0.022134467  0.022546172            6 
  578000    1.0419826   -7.6055353    153.70704  0.022160761  0.022527771           10 
  579000    1.0304545   -7.6238642    153.61749  0.022109599  0.022509891            2 
  580000    1.0341752   -7.6236458    153.56373  0.022063754  0.022491458            8 
  581000    1.0147705   -7.6627229    153.87797   0.02207085   0.02247335            4 
  582000    1.0132858   -7.6147197    154.31088  0.022094914  0.022455282            6 
  583000    1.0060258   -7.5936637    154.64313  0.022104507  0.022437268            4 
  584000    1.0553441   -7.6575084    154.35699  0.022025826  0.022419384            4 
  585000    1.0247612    -7.644241    154.99918  0.022079655  0.022401322            3 
  586000    1.0379607   -7.6448575    154.86191  0.022022456  0.022383491            4 
  587000    1.0049135   -7.6889456    154.57221  0.021943812  0.022365575            3 
  588000   0.99799102   -7.6203392    155.49683  0.022037533  0.022347909            2 
  589000   0.99126897   -7.6746096    154.87638  0.021912334  0.022330166            4 
  590000    1.0131782   -7.6533094    155.10145  0.021906985  0.022311861            5 
  591000    1.0187831   -7.6812114    155.09521  0.021869037   0.02229347            6 
  592000    1.0249902   -7.6231589    155.48853  0.021887462  0.022275265            3 
  593000    1.0176876   -7.6568114    155.34653  0.021830598   0.02225732            8 
  594000    1.0196083   -7.6430865    155.81512  0.021859585  0.022239388            2 
  595000    1.0178375    -7.664146    156.05437  0.021856354  0.022221841            2 
  596000    1.0373259   -7.6292706    156.52202  0.021885069  0.022204443            2 
  597000    1.0193771   -7.6692431    156.47415   0.02184173  0.022186895            2 
  598000    1.0161077   -7.6302985    156.85942  0.021858893  0.022169557            3 
  599000    1.0271632   -7.6207392    157.44276  0.021903556  0.022152288            4 
  600000    1.0134282   -7.6225523     157.2887  0.021845653  0.022135208            3 
  601000    1.0214854   -7.7284403    156.92841  0.021759347  0.022117971           10 
  602000    1.0093762   -7.6757223    157.35851  0.021782739  0.022100587            3 
  603000    1.0247845   -7.6570485    157.38647  0.021750479  0.022083354            3 
  604000     1.018948   -7.6604996     157.6405  0.021749517  0.022066075            3 
  605000    1.0228573   -7.7145003    157.03246  0.021629816  0.022048475            4 
  606000     1.008006   -7.6640721    157.95272  0.021720671  0.022030826            4 
  607000    1.0055874   -7.6721153    157.40019  0.021609032  0.022012992            4 
  608000    1.0165907   -7.7066943    157.85032  0.021635187  0.021994926            2 
  609000     1.011408   -7.6667827    158.32939  0.021665215   0.02197743            3 
  610000     1.004527   -7.7298002    157.73392   0.02154835  0.021959828            4 
  611000    1.0106799   -7.6864275    158.78475  0.021656403  0.021942347            2 
  612000    1.0138982    -7.694374      158.454   0.02157598  0.021924582            3 
  613000    1.0183579   -7.6476562    158.80835  0.021588954  0.021907185            3 
  614000    1.0121841    -7.656742     158.9872  0.021578067  0.021889881            4 
  615000   0.99953895   -7.6893444    158.79572  0.021517035  0.021872336            4 
  616000    1.0119115   -7.6570119    158.88412  0.021494064  0.021854757            4 
  617000   0.98363368   -7.6314371    159.30707  0.021516351  0.021837101            2 
  618000    1.0206422   -7.6704476    159.10169  0.021453841   0.02181939            8 
  619000    1.0340052   -7.6794201    159.44146  0.021464924  0.021801485            3 
  620000    1.0120238   -7.6637492    160.02178  0.021508304  0.021783643            2 
  621000    1.0266561   -7.6879675    159.68064  0.021427891  0.021766005           13 
  622000    1.0132773   -7.6961952    159.82307  0.021412522  0.021748493            4 
  623000    1.0190498   -7.6661682    160.47394  0.021465213  0.021731168            2 
  624000    1.0203825   -7.6771015    160.48902  0.021432829  0.021713745            4 
  625000    1.0035739   -7.6956927    160.60993  0.021414657  0.021696227            3 
  626000     1.018418   -7.7002001    160.54196  0.021371401  0.021678708            4 
  627000    1.0100775   -7.6611323    160.62759  0.021348696  0.021661066            5 
  628000   0.98184492   -7.6442794    161.21742  0.021392969  0.021643525            5 
  629000   0.99261142   -7.6885741    160.61335  0.021278928  0.021625939            3 
  630000     1.001283   -7.6543135    161.13107  0.021313634  0.021608547            4 
  631000    1.0040023   -7.6859545     160.6219  0.021212613  0.021590899            1 
  632000   0.99154832   -7.7093161    160.77897  0.021199759  0.021573097            3 
  633000   0.98836875   -7.6718164    161.48252  0.021258888  0.021555293            5 
  634000   0.99146157   -7.6645147    161.39758  0.021214194  0.021537453            7 
  635000   0.99007525   -7.7081772    161.55533  0.021201487  0.021519592            4 
  636000    1.0233838   -7.6659165    161.88047  0.021210753  0.021501858            3 
  637000    1.0009892   -7.6809133    162.22932  0.021223093  0.021484181            6 
  638000    1.0178554    -7.724544    161.79895  0.021133615  0.021466434            2 
  639000    1.0095905   -7.7118762    162.13032  0.021143755  0.021448488            7 
  640000   0.99234694   -7.7181093     162.0511  0.021100403  0.021430503            3 
  641000   0.98729155   -7.6862908    161.91064  0.021049225  0.021412363            4 
  642000   0.98900846   -7.6355252    162.70592  0.021119667  0.021394344            4 
  643000    0.9879037   -7.6349198    162.73282  0.021090308  0.021376638            4 
  644000   0.98623402   -7.6839645      162.542  0.021032868  0.021358632            6 
  645000   0.98887524   -7.7038564    163.03738  0.021064261  0.021340764            2 
  646000    0.9778565   -7.6982156    162.74107   0.02099343  0.021322831            7 
  647000   0.99747558   -7.6733032    162.89329  0.020980589  0.021305082            6 
  648000   0.97458821   -7.7416901    162.44024  0.020889948   0.02128716            2 
  649000   0.99661058   -7.7274281    163.33027  0.020972043  0.021268866            3 
  650000    1.0039874   -7.7020473    163.52397  0.020964611  0.021250988            5 
  651000   0.98576839   -7.6795173    163.67187   0.02095134  0.021233483            6 
  652000     1.008419   -7.7257206    163.77046  0.020931807  0.021215886            5 
  653000   0.99326193   -7.6920322    163.63984  0.020883083  0.021198228            9 
  654000   0.97137622   -7.6901754    164.04178  0.020902368  0.021180939           14 
  655000   0.98979671     -7.73361    164.10634   0.02087867  0.021163492            7 
  656000   0.98954826   -7.7020524    164.71674  0.020924382  0.021146102            3 
  657000   0.99083514   -7.7174575    164.62461  0.020880849  0.021129032            5 
  658000   0.99212192   -7.7351138    164.72865   0.02086229  0.021111712            2 
  659000   0.97970826   -7.7416245     164.4618  0.020796889  0.021094211            4 
  660000   0.98124581   -7.7741875    164.21608  0.020734353  0.021076535           11 
  661000   0.97368607   -7.7457968    165.17539  0.020823927   0.02105901            4 
  662000    1.0041312   -7.7470523    165.00618  0.020771171  0.021041466            4 
  663000   0.97246365   -7.7414248    164.88856  0.020725058  0.021024115            3 
  664000   0.99009068    -7.721459    165.48824  0.020769107  0.021006952            4 
  665000   0.99407777    -7.731216    165.46551  0.020735026   0.02098997           12 
  666000   0.96610148   -7.7275025    165.89954  0.020758201  0.020973117            5 
  667000    1.0041549   -7.7501305    165.49474  0.020676504   0.02095595            9 
  668000   0.98135157   -7.7043644    166.01176   0.02071005  0.020938526            8 
  669000   0.98454518   -7.7455375    166.34797  0.020720973  0.020921221           12 
  670000   0.99482788   -7.7360101    166.10058  0.020659276  0.020904024            3 
  671000    1.0029829   -7.7147483    166.09868  0.020628251  0.020886873            5 
  672000   0.97378448   -7.7594894    166.22248  0.020612906  0.020869637            8 
  673000   0.98244338    -7.746533    166.34775   0.02059779  0.020852305            4 
  674000    1.0164521   -7.6666884    167.49684  0.020709303  0.020835325            3 
  675000   0.97605244   -7.7939185    166.68484  0.020578375  0.020818366            2 
  676000    0.9713279   -7.7640217    167.17699  0.020608603  0.020801185            2 
  677000    1.0033054   -7.7632818    167.12953   0.02057232  0.020784296            6 
  678000    1.0026479   -7.7141179    167.15234  0.020544781  0.020767199            4 
  679000   0.97838665   -7.7291643    167.59218  0.020568505  0.020750218            4 
  680000   0.97246587   -7.7353604    167.63958  0.020544066  0.020733328           13 
  681000   0.96152178    -7.756669    167.67785  0.020518582  0.020716299            8 
  682000   0.98154682    -7.753357    168.17514  0.020549259  0.020699279            4 
  683000    1.0129336   -7.7275163     167.7668  0.020469351  0.020682328            5 
  684000   0.97896728   -7.7525303    168.30589  0.020505103  0.020665434            5 
  685000   0.99328457   -7.7159368    168.53699  0.020503283  0.020648856            7 
  686000   0.98912806   -7.7086898    168.73219  0.020497107  0.020632374            7 
  687000   0.98659974   -7.7381018    168.52158  0.020441724  0.020615833            5 
  688000   0.98351677   -7.7564093    168.87711  0.020455077  0.020599259            4 
  689000   0.97981501   -7.7199974    169.49756  0.020500431  0.020582899            2 
  690000   0.99665478   -7.7604772    168.93303  0.020402539  0.020566403            4 
  691000   0.96883162   -7.7876578    169.22178  0.020407837  0.020550109            3 
  692000    0.9913663   -7.7673686    169.15989  0.020370893  0.020533722            8 
  693000   0.99542553    -7.758633    170.05493  0.020449125  0.020517424           11 
  694000   0.98128866    -7.755984    169.14743  0.020310691  0.020501133            3 
  695000   0.96766655   -7.7838453    169.57946  0.020333268  0.020484477            4 
  696000   0.95846755   -7.7840566    169.77701  0.020327707  0.020468098            4 
  697000   0.98232735   -7.7599518    170.25064  0.020355169  0.020451851            4 
  698000   0.96676233   -7.7649176    170.43247  0.020347716  0.020435587            7 
  699000   0.97600191   -7.7579039    170.65672  0.020345341   0.02041937            5 
  700000    0.9708891   -7.7918205    170.47361  0.020294477   0.02040336            2 
  701000   0.97430142   -7.7571032    171.09547  0.020339452  0.020387224            5 
  702000   0.96624066   -7.7638371    170.69601  0.020263059  0.020370993            5 
  703000   0.95441241   -7.7805724     170.3661  0.020195128  0.020354622            3 
  704000     0.964686   -7.7460604    171.68825  0.020322946  0.020338305            3 
  705000   0.97723722   -7.7480899    171.47574     0.020269  0.020322203            5 
  706000   0.99812703   -7.7917683    170.62022  0.020139308  0.020305995            4 
  707000   0.97030376   -7.7844756    170.80255  0.020132314  0.020289877           13 
  708000   0.96393437   -7.7655337    171.25541  0.020157181  0.020273544            3 
  709000   0.97686099    -7.731451    171.78599  0.020191114  0.020257141            2 
  710000   0.95039638   -7.7769213    171.34191  0.020110553    0.0202409            7 
  711000   0.97506631   -7.8045483     171.3496  0.020083169  0.020224521            3 
  712000   0.94679285   -7.7978272    171.52202  0.020075142  0.020208184            4 
  713000   0.98165677   -7.7512827    172.10735  0.020115399  0.020192114            4 
  714000   0.97245879   -7.7832736    172.06061   0.02008177  0.020176171            5 
  715000   0.96391074   -7.8015677    172.04384   0.02005173  0.020160094            3 
  716000   0.99388007    -7.790011    172.25943  0.020048816  0.020143869            9 
  717000   0.96179276   -7.8146362    172.08773  0.020000898  0.020127643            2 
  718000   0.93273148   -7.7999653    172.48561  0.020019222  0.020111421            4 
  719000   0.96396928   -7.7642029    172.78168  0.020025693  0.020095362            9 
  720000   0.96350767   -7.8137181    172.82245  0.020002599  0.020079373            6 
  721000   0.96237347   -7.8035857    172.87346  0.019980752  0.020063373            6 
  722000     0.954841   -7.7730949    173.15038  0.019985039  0.020047528            5 
  723000   0.96986355   -7.8078221    173.51468  0.019999387   0.02003167            3 
  724000   0.96885133   -7.7971404    173.07506  0.019921162  0.020015806            7 
  725000   0.95901638   -7.7967836    173.63162  0.019957658  0.019999974            3 
  726000   0.95946944   -7.8228647    173.51215  0.019916454   0.01998416            2 
  727000   0.98172679   -7.8108694    173.96779  0.019941288   0.01996838            9 
  728000   0.97179578   -7.8195196    173.32581  0.019840409  0.019952706            2 
  729000   0.97325517   -7.7553429    174.37041  0.019932603  0.019936962           13 
  730000   0.96965489   -7.7696854    173.80401  0.019840641  0.019921247            5 
  731000    0.9621296   -7.8055113    174.03753   0.01984012  0.019905319            1 
  732000    0.9701785   -7.8056565    174.35514  0.019849173  0.019889327            5 
  733000     0.968434   -7.7987987     174.1115  0.019794396  0.019873366            4 
  734000   0.94472125   -7.7995452    174.35856  0.019795476  0.019857303            4 
  735000   0.95782944    -7.773461    174.60286  0.019796243  0.019841377            5 
  736000    0.9815337   -7.8233356    174.86812  0.019799379  0.019825597            6 
  737000   0.97794499   -7.8086612    174.62612  0.019745152  0.019809604            3 
  738000   0.95139786   -7.7775215    174.56097   0.01971104  0.019793588            2 
  739000    0.9904551   -7.8458225    174.66346  0.019695925  0.019777522            4 
  740000   0.95924457   -7.8223684    174.62407  0.019664873  0.019761374            5 
  741000    0.9598778   -7.8114305     174.7474  0.019652204  0.019744982           14 
  742000   0.98086146   -7.8296128    174.58179  0.019607119  0.019728668            5 
  743000   0.95529448   -7.8354372    174.98317  0.019625748  0.019712567            4 
  744000   0.95235396   -7.8049309    175.21001  0.019624777  0.019696584            7 
  745000   0.96225727   -7.8780715    174.76752   0.01954894  0.019680368            6 
  746000   0.96552888   -7.8603949    175.06059  0.019555473  0.019663948           22 
  747000   0.95100043   -7.8602068    174.52034  0.019469025  0.019647408            6 
  748000   0.96081905   -7.8264133    175.43293  0.019544667  0.019630976            4 
  749000    0.9652112   -7.8232102    175.37023  0.019511596  0.019614591            6 
  750000   0.94541006   -7.8167431    175.08257  0.019453619  0.019598115            9 
  751000   0.94266929    -7.794331    175.45424  0.019468957  0.019581613            7 
  752000   0.94806601   -7.8165511    176.14659  0.019519791  0.019565105            7 
  753000   0.95710702   -7.8375725    175.69708  0.019444121  0.019548807            2 
  754000   0.96468138   -7.8260016    175.42745  0.019388534  0.019532405           10 
  755000   0.93960822   -7.8461913    175.93936  0.019419355  0.019515991            4 
  756000   0.95430506   -7.8339675    175.79785  0.019378069  0.019499507            4 
  757000   0.94401449   -7.8653365    175.92044  0.019365966  0.019483128            6 
  758000   0.96877878   -7.8083935    176.32513  0.019384909  0.019466828            6 
  759000   0.94622065   -7.8044106    176.47042  0.019375321   0.01945074            3 
  760000   0.93696126   -7.8539509    176.45956  0.019348636  0.019434397            3 
  761000   0.95027075   -7.8417626    176.95907   0.01937791  0.019418407            4 
  762000   0.95228279   -7.8246115    176.86201  0.019341865  0.019402203            6 
  763000   0.96179281   -7.8227611    177.09723  0.019342205  0.019386035            6 
  764000   0.95246304   -7.8509931    176.58685  0.019261219  0.019369833            5 
  765000   0.94422798   -7.8429048    176.92104  0.019272444  0.019353816            3 
  766000   0.94165044      -7.8963    176.99166  0.019254967  0.019337666            6 
  767000   0.93757377   -7.8770819    176.86638  0.019216252  0.019321388            6 
  768000   0.92877507   -7.8406517    177.20658  0.019228144   0.01930523            5 
  769000   0.94050751   -7.8800966    176.98442  0.019179066  0.019289131            4 
  770000   0.94010842   -7.8458715    177.45452  0.019205034  0.019272887            9 
  771000    0.9422699   -7.8521575    177.10629  0.019142486  0.019256548            4 
  772000   0.95405272   -7.8480675    177.57953  0.019168775  0.019240394            5 
  773000   0.92674701   -7.8106307    177.98601  0.019187798  0.019224358            8 
  774000   0.91482637   -7.8220888    177.54488  0.019115512  0.019208398            3 
  775000   0.94054445   -7.8415864    177.96574  0.019136101   0.01919243            9 
  776000   0.94668003   -7.8319762    177.66862  0.019079534    0.0191763            3 
  777000   0.95922452   -7.8441021    178.26035  0.019118442   0.01916028            5 
  778000   0.94861608   -7.8718645    177.76121  0.019040404  0.019143859           12 
  779000    0.9425098   -7.9016629    177.81638  0.019021863  0.019127414            5 
  780000   0.92942948   -7.8263514    178.42769  0.019062788  0.019111163            9 
  781000   0.91577232   -7.8426334    178.19165  0.019013193  0.019094812            3 
  782000   0.93237469   -7.8692311    177.96837  0.018965087   0.01907831            6 
  783000   0.93550275    -7.944109     177.6998  0.018912282  0.019061765           12 
  784000   0.93689273   -7.9224369    177.38996  0.018855225  0.019045206            5 
  785000   0.93157942   -7.8588067    178.94189  0.018995955  0.019028757            4 
  786000   0.93002074   -7.8963521    178.22892  0.018896196  0.019012325            3 
  787000   0.94431029   -7.9011673    178.83839   0.01893672  0.018995839            5 
  788000   0.95751279   -7.8668288    178.66656  0.018894518  0.018979392            6 
  789000   0.95332328   -7.9001367    178.68129  0.018872126  0.018963181            5 
  790000    0.9368001   -7.9035352    178.58982  0.018838589  0.018946995            5 
  791000   0.93437821   -7.8509967    179.00889  0.018858923  0.018930721            6 
  792000   0.94511496    -7.889798    178.95543  0.018829485  0.018914511            4 
  793000   0.93763086    -7.897821    179.21389  0.018832902  0.018898224            6 
  794000    0.9152099   -7.8953707    179.01098  0.018787886  0.018881987           14 
  795000   0.93309478   -7.8747262    179.26678  0.018791067  0.018865751            7 
  796000   0.91349925   -7.8626987    179.35225  0.018776408  0.018849596            7 
  797000   0.92632218   -7.8843723    179.75482  0.018794942  0.018833365            4 
  798000   0.94014033   -7.8826538    179.56639  0.018751712  0.018817258            7 
  799000     0.927903   -7.8588869    179.35688  0.018706391  0.018801069            3 
  800000   0.93134832   -7.8533392    179.63763  0.018712253  0.018784873            3 
  801000   0.93681417   -7.8534649     179.7156  0.018697003  0.018768613            4 
  802000    0.9405426   -7.8508325    179.55185  0.018656676  0.018752332            6 
  803000   0.93318936   -7.9242806    179.02353  0.018578615  0.018735729            5 
  804000   0.92663566   -7.8994383    179.13762  0.018567333  0.018719142            4 
  805000   0.93140176   -7.8823989    180.01849  0.018635455  0.018702601            3 
  806000   0.92272778   -7.9001596    179.47831  0.018556484   0.01868613            4 
  807000   0.93164139   -7.8225434    181.13612   0.01870468  0.018669685            2 
  808000   0.91765587    -7.862962    180.28556  0.018593808  0.018653543            7 
  809000   0.92492724   -7.9191665    179.95945  0.018537232  0.018637083            4 
  810000   0.94724402   -7.8915071     180.4443  0.018564229  0.018620584            5 
  811000   0.91931347   -7.8546537    180.66008   0.01856351  0.018604267            4 
  812000   0.92044024   -7.9224869    180.30073  0.018503769  0.018587833           12 
  813000   0.92499044   -7.9042904    180.71152  0.018523116   0.01857156            9 
  814000      0.91946   -7.8993619    180.21568  0.018449598  0.018555217            4 
  815000    0.9424495   -7.9268154    179.86863  0.018391475  0.018538796            5 
  816000    0.9336824   -7.8896835    180.52918  0.018436395   0.01852243            4 
  817000   0.94951585    -7.927838    180.46203  0.018406979  0.018506098            6 
  818000   0.93708309   -7.9062588    181.01224  0.018440529  0.018489735            8 
  819000   0.92799053   -7.9213175    180.57787  0.018373817  0.018473434            5 
  820000   0.91942406   -7.9060399     181.1492  0.018409471  0.018456946            6 
  821000   0.93566499   -7.9243114    180.94126  0.018365942  0.018440563            6 
  822000     0.937628   -7.9108238    181.36819   0.01838688   0.01842417            5 
  823000   0.93667376   -7.8914723    181.47135  0.018374985  0.018407939            6 
  824000   0.92084086   -7.8984901    181.71961  0.018377792  0.018391864            5 
  825000   0.90720291   -7.9101201    180.97923   0.01828073  0.018375832            6 
  826000   0.91799774   -7.8856397      181.217  0.018282587  0.018359669           19 
  827000   0.91156301   -7.8889185    181.19664  0.018258428   0.01834363            6 
  828000   0.90780762   -7.8711358    181.59256  0.018276224  0.018327363            5 
  829000   0.93833937    -7.907815    181.75712   0.01827072  0.018311143            6 
  830000   0.90621351   -7.9262052    181.86271  0.018259309  0.018294954            4 
  831000    0.9302876   -7.8988851    181.93774   0.01824486  0.018278861            3 
  832000   0.92237467   -7.9151546    182.32211  0.018261429   0.01826278            5 
  833000    0.9109452    -7.950311    181.49869  0.018157132  0.018246728            9 
  834000   0.92114655   -7.9392193    182.10115  0.018195558  0.018230728            7 
  835000   0.91806948   -7.9422781    182.65335  0.018228877  0.018214734            6 
  836000   0.92133054   -7.9356355    182.79104  0.018220797  0.018198737            5 
  837000   0.91529351   -7.9422288    182.25069   0.01814523  0.018182745            5 
  838000   0.92999081   -7.9543363    182.72414  0.018170658  0.018166678            4 
  839000   0.90756649   -7.9516966    182.09226   0.01808624  0.018150504            4 
  840000   0.90921691   -7.9376659    181.97773  0.018053347  0.018134271            7 
  841000   0.91482279   -7.9195044    182.48552  0.018082195  0.018118089            5 
  842000   0.94061693    -7.908228    182.64688   0.01807669  0.018102097            6 
  843000   0.91361356   -7.9360994    182.78037  0.018068443  0.018086051            3 
  844000   0.92198765   -7.9452926    182.64742  0.018033908  0.018069959            9 
  845000    0.8944133   -7.9436454    182.62202  0.018010061  0.018053785           11 
  846000   0.90529863   -7.8928491     183.3827  0.018063702   0.01803775            5 
  847000   0.89859641   -7.9443601    182.87699   0.01799262  0.018021852            8 
  848000   0.91898251    -7.970124    182.34277  0.017918905   0.01800574            4 
  849000   0.93751031   -7.9666672    182.56367   0.01791948  0.017989636            8 
  850000    0.9001831   -7.9415578    183.30162  0.017970747  0.017973544            9 
  851000    0.9320851   -7.9281722     183.6954   0.01798819  0.017957622           16 
  852000   0.91714608   -7.9536772    183.69182  0.017966728  0.017941739            8 
  853000   0.91589396   -7.9430753    183.55794  0.017932585   0.01792575           12 
  854000   0.91494425    -7.983959     183.3144  0.017887822  0.017909898            8 
  855000   0.91681309   -7.9742346    183.74007  0.017908389  0.017894045            7 
  856000    0.9118391   -7.9845437    183.03798  0.017819118  0.017878157            5 
  857000   0.90951737   -7.9570172    183.79297   0.01787174  0.017862291            4 
  858000   0.92575524   -7.9674888     184.1521  0.017885791  0.017846459            4 
  859000   0.89747948   -7.9198185    183.72239  0.017823282   0.01783077            3 
  860000   0.90037617   -8.0082936    184.15502  0.017844479  0.017814839            4 
  861000    0.9145235   -7.9586808    184.36329  0.017843911  0.017799014            6 
  862000   0.92647714   -7.9325348    185.05258  0.017889847  0.017783262            5 
  863000   0.92034776   -7.9701667     184.2476  0.017791387   0.01776742            9 
  864000   0.87963311   -7.9799661    184.34554  0.017780241   0.01775168           10 
  865000   0.91729315   -7.9871915     183.9108  0.017717804  0.017735816            5 
  866000   0.89924399   -8.0120329    183.63336  0.017670647  0.017719954            6 
  867000   0.93444383    -7.980251    184.59948  0.017743125  0.017704097            7 
  868000   0.89755809   -7.9916675    184.00739   0.01766584  0.017688463           10 
  869000    0.9049185   -7.9491699    184.91194  0.017732254  0.017672822            5 
  870000   0.89919056   -7.9636559    184.83115  0.017704133   0.01765733            4 
  871000   0.93199756   -7.9413806    185.07039  0.017706697  0.017641829           11 
  872000    0.9228253   -7.9434191    184.93751  0.017673692  0.017626325            5 
  873000   0.91334444   -7.9800675    185.17344  0.017675968  0.017610868            4 
  874000   0.91192149   -7.9836296    184.55451   0.01759673  0.017595365            8 
  875000   0.90465786   -7.9592368    185.44256  0.017661196  0.017579802           24 
  876000   0.90236301   -7.9681647    184.78479  0.017578461  0.017564315            7 
  877000    0.9023422   -7.9707486    185.57392  0.017633402  0.017548866           12 
  878000   0.91065589   -8.0067421    184.58237  0.017519207  0.017533341           12 
  879000   0.90899863   -7.9807262    184.82373  0.017522159  0.017517811            8 
  880000   0.90412272   -7.9930648    185.49855   0.01756615  0.017502353            3 
  881000   0.91081334   -8.0085146    185.13662  0.017511977  0.017486752           10 
  882000   0.89270128    -8.014484    185.04535  0.017483499   0.01747114            5 
  883000   0.91555525    -7.988064    185.76031  0.017531173  0.017455748           13 
  884000   0.89429076   -7.9594844    185.60167  0.017496387  0.017440314            6 
  885000   0.89421603   -7.9954608    185.30189  0.017448389  0.017424815            8 
  886000   0.91407637   -8.0208094    185.48442  0.017445864  0.017409332            5 
  887000   0.86965713   -7.9853642     186.3247  0.017505139  0.017393838            4 
  888000   0.91307025   -8.0144755    185.58105  0.017415639  0.017378318           15 
  889000   0.89590333   -7.9723706    185.81312  0.017417802  0.017362807           18 
  890000   0.88865726   -8.0270895    185.50065  0.017368975  0.017347171           22 
  891000   0.91728112    -8.054158    184.94999  0.017297979  0.017331494            9 
  892000    0.9158159    -7.986225    185.40564  0.017321155  0.017315912            5 
  893000   0.89223242   -8.0155214    185.81399  0.017339864  0.017300365           12 
  894000   0.89333514   -7.9843468    185.65634  0.017305774  0.017284748            6 
  895000   0.89985788   -8.0040888    186.18375  0.017335545  0.017269108           10 
  896000   0.88877365   -8.0562715    185.68738  0.017270032  0.017253486            4 
  897000   0.88717301   -8.0224488    185.87616  0.017268316  0.017237856            9 
  898000    0.8998677   -8.0231431    186.44782  0.017302137  0.017222212           13 
  899000   0.91067872    -8.033242    186.28298  0.017267611  0.017206739            7 
  900000   0.88386707   -8.0139396    185.62773  0.017187753  0.017191166            9 
  901000   0.87943486   -8.0617147    185.91482  0.017195229  0.017175706            5 
  902000    0.9034129     -7.99831    186.58549  0.017238127  0.017160139            3 
  903000   0.89810178   -8.0159237    186.13684  0.017177634  0.017144675            5 
  904000   0.87418601   -8.0096804    186.88076  0.017227209  0.017129168            4 
  905000   0.88113813   -8.0015068    186.22783  0.017148051  0.017113715            8 
  906000   0.88300101   -8.0315566    186.49185  0.017153407  0.017098242            8 
  907000   0.89091563   -7.9984771    186.68923   0.01715263  0.017082861            9 
  908000   0.92857798   -8.0230981    187.06594  0.017168313  0.017067578            8 
  909000   0.88512036   -8.0392101    186.80143  0.017125177  0.017052154            6 
  910000   0.90180565    -8.026021    187.04406  0.017128577  0.017036718            5 
  911000   0.88510537   -8.0173861    186.95236  0.017101387  0.017021538           13 
  912000    0.8820435   -8.0548432    186.55047  0.017045913  0.017006303           17 
  913000   0.89682821   -8.0773255    187.32025  0.017097503  0.016991106            6 
  914000   0.88882771   -8.0500614    187.30241  0.017077171  0.016975854           10 
  915000   0.89383364   -8.0365334    187.46002  0.017072862  0.016960731            9 
  916000   0.88369533   -8.0368229    187.19126  0.017029773   0.01694564            8 
  917000   0.88646625   -8.0375099    187.66324  0.017054093   0.01693064            8 
  918000   0.89369323   -8.0408039     187.2194  0.016995225  0.016915599           14 
  919000   0.89108933   -8.0854998    187.34912  0.016988495  0.016900476            7 
  920000   0.89994624   -8.0397621    188.00728  0.017029645  0.016885442            6 
  921000   0.88322118   -8.0555944    188.09072  0.017018704  0.016870434            9 
  922000   0.88541108   -8.0478743    187.80696  0.016974599  0.016855499            7 
  923000   0.89185794   -8.0437973    188.01416  0.016974916  0.016840599            6 
  924000   0.86556322   -8.0171744    187.94019  0.016949873  0.016825808            9 
  925000    0.8823512   -8.0438971     188.2612  0.016960468  0.016810941            8 
  926000   0.87981699   -8.0585617    188.38041   0.01695288  0.016796085            5 
  927000   0.87544051   -8.0163187    188.88502  0.016979955  0.016781223            7 
  928000   0.86192596    -8.074893     188.5809  0.016934348  0.016766388           11 
  929000   0.89496713   -8.0427743    188.56602  0.016914784  0.016751566           11 
  930000   0.89352001   -8.0629161    188.60862  0.016900414   0.01673672            6 
  931000   0.87663817   -8.0319716    189.25491   0.01694011    0.0167219            5 
  932000    0.8736393   -8.0724323    188.57964  0.016861556  0.016707074           10 
  933000   0.86939682   -8.0509664    188.34711  0.016822714  0.016692406            9 
  934000   0.87229854    -8.066313    188.87063  0.016851412   0.01667771           11 
  935000   0.90734724   -8.0521218    189.05932  0.016850207   0.01666314            7 
  936000    0.8975651   -8.0714112    188.90539    0.0168185  0.016648504            9 
  937000   0.88255419   -8.0507492     189.1085  0.016818614  0.016633859            9 
  938000   0.89011281   -8.0657767    189.25067  0.016813315  0.016619246           14 
  939000   0.89300528   -8.0480627     189.1748  0.016788676  0.016604611           13 
  940000   0.87643347   -8.0388653    189.52584  0.016801936  0.016590045           21 
  941000   0.89514718   -8.0935207    189.29408  0.016763557  0.016575486           11 
  942000   0.88201614   -8.0543452    189.47204  0.016761504  0.016560918           18 
  943000   0.87599421   -8.0668238    189.27533  0.016726346  0.016546382           22 
  944000   0.86636981   -8.0502784     189.7165  0.016747572   0.01653186           32 
  945000   0.87630757   -8.0239276    189.87484  0.016743813  0.016517374           18 
  946000   0.87158479   -8.0639145    189.77352  0.016717188  0.016502937           16 
  947000   0.85895835   -8.0312493    189.83206  0.016704686  0.016488507           41 
  948000   0.87409204   -8.0378697    189.56862  0.016663908  0.016474087            9 
  949000    0.8907592   -8.0888298    189.55902  0.016645506  0.016459536           21 
  950000   0.87883247   -8.0619689    189.24354  0.016600311  0.016444924           22 
  951000    0.8660368   -8.0786994    189.36693  0.016593668  0.016430358           17 
  952000   0.89263078   -8.0594837    190.30148  0.016658043  0.016415773           13 
  953000   0.88468769   -8.0959768    189.39277  0.016561103  0.016401186            6 
  954000   0.86690144   -8.0650073    189.82875  0.016581826   0.01638657            5 
  955000   0.87974966   -8.0614873    189.66996  0.016550607  0.016371943           12 
  956000    0.8658421    -8.070171     189.7224  0.016537866  0.016357182           17 
  957000   0.88731954   -8.0823011    190.09651  0.016553162  0.016342568           11 
  958000   0.86717276   -8.0702976    190.45603  0.016567156  0.016327978            7 
  959000   0.86318275   -8.0738312    190.04515  0.016514177  0.016313535            9 
  960000   0.87722969   -8.0848671    190.44645   0.01653181   0.01629902           13 
  961000   0.87930246   -8.0827478    190.20004   0.01649324  0.016284579            3 
  962000    0.8693181    -8.091691     190.3468  0.016488808  0.016270035           11 
  963000   0.86476792   -8.0771215    189.71631  0.016417126  0.016255584            3 
  964000   0.85164075   -8.0719858    190.69327   0.01648455  0.016241163            9 
  965000    0.8668465   -8.0898037     190.6489  0.016463636  0.016226812           13 
  966000   0.88647652   -8.0703271    190.31522  0.016417807  0.016212407            5 
  967000   0.86643908   -8.0909809    190.62575   0.01642759  0.016198047            3 
  968000   0.87496943   -8.0677489    190.52872  0.016402266  0.016183645           11 
  969000   0.86385616   -8.0738133    191.00924  0.016426664  0.016169234           10 
  970000   0.86482701   -8.1154919    190.44851  0.016361556  0.016154754            6 
  971000   0.87466292    -8.101814    190.42422  0.016342621  0.016140234           12 
  972000     0.873718   -8.0854872    190.29747  0.016314941  0.016125771            7 
  973000   0.86530806   -8.0560873    190.85992  0.016346345  0.016111342           14 
  974000   0.86334226   -8.0836041    190.92845  0.016335425  0.016096873           25 
  975000   0.86821723   -8.0846372     191.0933  0.016332761  0.016082506           12 
  976000   0.87726328   -8.0944609    191.06546  0.016313649   0.01606808            8 
  977000   0.85064245    -8.125777    190.56258  0.016254059  0.016053613            8 
  978000   0.87359774    -8.112132    190.63611  0.016243704  0.016039227            9 
  979000   0.85486958   -8.0917237    190.78929  0.016240151  0.016024952            5 
  980000   0.86794686   -8.1151276    190.61348  0.016208629  0.016010554           24 
  981000   0.86469203    -8.104369    190.80963  0.016208769  0.015996124            7 
  982000   0.87028161   -8.1367008     190.8431  0.016195103  0.015981723            5 
  983000   0.84233027   -8.1509741    190.99734  0.016191704   0.01596728           17 
  984000   0.85875562   -8.1308928    191.12903  0.016186401  0.015952922           13 
  985000    0.8521338   -8.1531088    190.97694  0.016157102  0.015938588            7 
  986000   0.87333781   -8.1090962    191.12718  0.016153413   0.01592438            6 
  987000   0.84571976   -8.1314308    190.90622   0.01611839  0.015910071            6 
  988000   0.85242721    -8.133513    190.39514   0.01605897  0.015895709            7 
  989000   0.83594652   -8.1430942    191.40921  0.016128178  0.015881303            6 
  990000   0.85368061   -8.1541315      191.069  0.016083249  0.015866945           11 
  991000   0.86079274   -8.1415543    191.16015  0.016074684  0.015852652           22 
  992000   0.86071035   -8.1275458    191.08245  0.016051953  0.015838381           18 
  993000   0.85590325   -8.1445318    191.22846  0.016048041  0.015824088           37 
  994000   0.84139727   -8.1416062    191.14591  0.016024976  0.015809752           17 
  995000   0.87712003   -8.1612023    190.82439  0.015981942  0.015795468           21 
  996000   0.84131925   -8.1853854    191.28126  0.016004122  0.015781106           13 
  997000   0.84641018   -8.2021802    190.78244  0.015946376  0.015766693            8 
  998000   0.86801382   -8.1551015     191.3838  0.015980611  0.015752383           23 
  999000   0.84661767   -8.1932985    191.10664  0.015941495  0.015737938           11 
 1000000   0.84916477   -8.1750535    191.32335  0.015943612  0.015723598           13 
 1001000   0.85517646   -8.1597267    191.82631  0.015969557  0.015709285           19 
 1002000    0.8664433   -8.1710589    191.29777  0.015909661  0.015694932           12 
 1003000   0.84080575   -8.1647207    191.37008  0.015899807  0.015680596           14 
 1004000   0.86491747   -8.1656779    191.41336  0.015887563  0.015666303           24 
 1005000   0.85069924   -8.1843854    191.22338  0.015856002  0.015651931           10 
 1006000   0.83179689   -8.1529423    191.29279   0.01584599  0.015637572           13 
 1007000   0.83477472    -8.165456    191.46807  0.015844759  0.015623235           15 
 1008000    0.8542634   -8.1775425    191.81465  0.015857693  0.015608848           17 
 1009000   0.84143308    -8.161336    191.78306  0.015839367  0.015594542            8 
 1010000   0.85067308   -8.1519035    191.85376  0.015829518  0.015580329           17 
 1011000   0.84376169   -8.1642415    191.91404   0.01581883  0.015566081           19 
 1012000   0.85218061   -8.1364344    191.74152  0.015788992  0.015551933           17 
 1013000   0.83921705   -8.1350009    192.46282  0.015832743  0.015537871            6 
 1014000   0.84826659   -8.1794572    192.06541  0.015784468  0.015523704           19 
 1015000   0.82977722   -8.1652382     192.5419  0.015808038   0.01550958           17 
 1016000   0.83011085   -8.1581474    192.26622  0.015769867  0.015495424            9 
 1017000   0.85159209   -8.1780859    192.00845  0.015733239  0.015481344            8 
 1018000   0.84715294    -8.145946    192.38226  0.015748384  0.015467221            8 
 1019000   0.84386561   -8.1513102    192.27329  0.015724018   0.01545315            8 
 1020000   0.83354974   -8.1665232    192.52294  0.015728998   0.01543912            6 
 1021000    0.8596026   -8.1515936    192.14113   0.01568243  0.015424985           12 
 1022000   0.82194201   -8.1594114    192.30188  0.015680192  0.015410878            9 
 1023000   0.83816042   -8.1922783    192.38808  0.015671886  0.015396808           12 
 1024000   0.84125089   -8.1765458    192.74363  0.015685517  0.015382746           21 
 1025000   0.85004455   -8.1065161    192.98895  0.015690159  0.015368788            6 
 1026000   0.85216698    -8.176607    192.55945  0.015639981  0.015354912           14 
 1027000   0.86542392   -8.1980822    192.65509  0.015632513  0.015340963            5 
 1028000   0.86663927   -8.1598301    192.98191  0.015643799   0.01532711           19 
 1029000   0.86442272   -8.1643997    193.02096  0.015631759   0.01531321           16 
 1030000   0.84453285   -8.1534715    192.65805  0.015587221  0.015299344           10 
 1031000   0.84072332   -8.1613923     193.2161  0.015617208  0.015285523           21 
 1032000   0.84478958   -8.1514466    192.93397  0.015579293  0.015271753           16 
 1033000    0.8586424   -8.1640918    193.56311  0.015614965  0.015258005           11 
 1034000   0.83817483   -8.1674627    192.72751   0.01553252  0.015244318           20 
 1035000   0.86247896   -8.1700752    193.06072  0.015544342  0.015230558           18 
 1036000   0.84007145   -8.1683915    193.11554  0.015533747  0.015216787           13 
 1037000   0.85032606   -8.1927111     193.2001  0.015525563  0.015202968           26 
 1038000   0.83603812   -8.1982499     192.5689  0.015459931  0.015189096           19 
 1039000   0.83284274   -8.2200096    193.11332  0.015488717  0.015175204           26 
 1040000   0.84840016   -8.1804034    192.80041  0.015448751  0.015161375           20 
 1041000   0.83638595   -8.1926125    192.89023  0.015441101  0.015147555           25 
 1042000   0.83601281   -8.1870525    193.05914   0.01543979  0.015133749           22 
 1043000   0.83715514   -8.2053922    193.14533  0.015431874  0.015119971           17 
 1044000   0.82524085   -8.2174209    193.17068  0.015419116   0.01510613           14 
 1045000   0.84367129   -8.2184283    192.72958  0.015369185  0.015092372           23 
 1046000    0.8410227   -8.1888762    193.26869  0.015397442  0.015078614           14 
 1047000   0.83348438   -8.2066918    193.18714  0.015376245  0.015064856           38 
 1048000   0.83638912   -8.1920756    193.13835  0.015357693  0.015051099           25 
 1049000   0.82842232   -8.2595014    193.09174   0.01533935  0.015037369           25 
 1050000   0.83873281   -8.1933716    193.45826   0.01535383   0.01502363           36 
 1051000   0.83362942   -8.1926897    193.61035  0.015351281  0.015009895           40 
 1052000    0.8250998   -8.2168155    193.25694  0.015308693  0.014996238           20 
 1053000   0.85949464    -8.214142     193.6247  0.015323259  0.014982545           28 
 1054000   0.85035906   -8.2142245    193.28819  0.015282115   0.01496883           32 
 1055000   0.83200717   -8.1988705    193.37303  0.015274331  0.014955161           25 
 1056000   0.84887679   -8.2350458    193.54388  0.015273349  0.014941505           77 
 1057000    0.8421155   -8.2131413    193.05122  0.015220058  0.014927725           59 
 1058000   0.81558847   -8.2031295    193.63119  0.015251354  0.014914027           70 
 1059000   0.83976544   -8.1852378    193.53177  0.015229129  0.014900381           85 
 1060000   0.84440159   -8.2082533    193.40835  0.015205059  0.014886748           55 
 1061000   0.82243004   -8.2302875    193.49722  0.015197708  0.014873027           41 
 1062000   0.83174965    -8.208003    193.60807  0.015192096  0.014859355           57 
 1063000   0.80986233   -8.1985112    193.33569  0.015156451   0.01484577           44 
 1064000   0.84043271   -8.2573242    193.37833  0.015145546  0.014832085           47 
 1065000    0.8299337   -8.2013129    193.87353  0.015170073  0.014818425           46 
 1066000   0.84674766   -8.2260582    193.95871  0.015162501  0.014804845           20 
 1067000   0.83500541   -8.1721659    194.39839   0.01518263  0.014791272           33 
 1068000   0.84399699   -8.2008748    194.25521  0.015157242   0.01477775           56 
 1069000   0.84983843   -8.2198079    193.94203  0.015118649  0.014764176           34 
 1070000   0.82485386   -8.2341035    193.98653  0.015107985  0.014750663           37 
 1071000   0.81306003   -8.2356331    193.71219  0.015072533  0.014737075           42 
 1072000   0.81977437   -8.2255631    193.94319   0.01507643  0.014723516           50 
 1073000   0.81553956   -8.2456446    193.72301  0.015045279  0.014709915           15 
 1074000   0.83867691   -8.2194157    193.59067  0.015021002   0.01469644           70 
 1075000   0.83875819   -8.2326716    194.55324  0.015081647  0.014682918           60 
 1076000   0.81582327    -8.253737    192.73743     0.014927  0.014669374           67 
 1077000   0.83256661   -8.2262581    193.81185  0.014996275  0.014655803          134 
 1078000   0.83305004   -8.2578617    194.22246  0.015014105  0.014642298           76 
 1079000   0.82306481   -8.2234987    194.02867  0.014985223   0.01462871          103 
 1080000   0.82967238   -8.2317911    193.84639  0.014957283  0.014615213          138 
 1081000   0.80575405   -8.2178431    194.31406  0.014979499  0.014601791           56 
 1082000   0.81321787    -8.220091    194.61758  0.014989031  0.014588379           75 
 1083000   0.82826735    -8.203056    194.62415  0.014975696  0.014575012           71 
 1084000   0.83010059   -8.2157863    193.88497  0.014905056  0.014561638           94 
 1085000   0.82182531   -8.2022223    194.20118  0.014915605  0.014548316           60 
 1086000    0.8203264   -8.2412338    194.76598   0.01494521  0.014534954          104 
 1087000   0.83502677   -8.2273207    194.40896  0.014904091  0.014521555           97 
 1088000   0.79630367   -8.2346104    194.24857  0.014878108  0.014508136          146 
 1089000   0.80113492   -8.2259735    194.19965  0.014860701  0.014494703          124 
 1090000   0.82529123   -8.2737066    194.36575  0.014859767  0.014481248           72 
 1091000   0.83126128   -8.2822849    193.81504  0.014804082  0.014467812           98 
 1092000   0.83747002   -8.2584868    194.55918  0.014847312  0.014454373          114 
 1093000   0.81442879   -8.2775726    194.50001  0.014829217  0.014440994           82 
 1094000   0.81394321   -8.2277237    194.82653  0.014840534  0.014427665          118 
 1095000   0.83349162   -8.2653396    194.07051  0.014769445  0.014414372          146 
 1096000   0.80982257   -8.2324061    194.85554  0.014815658  0.014401097          104 
 1097000   0.81762577   -8.2517575    194.00165  0.014737287  0.014387781          116 
 1098000   0.79420305   -8.2719289    194.27711  0.014744772    0.0143744          118 
 1099000   0.80575161   -8.2636936    194.24537  0.014728948  0.014361039          155 
 1100000   0.81375557   -8.2809612    194.40428  0.014727597  0.014347697          144 
 1101000   0.79345871   -8.2840865    194.39321  0.014713382  0.014334344          123 
 1102000   0.83214183   -8.2687532    194.36742  0.014698081   0.01432099          173 
 1103000   0.81629115   -8.2933677    194.21456  0.014673207  0.014307559          152 
 1104000   0.81910298   -8.2928179    193.90215  0.014636334  0.014294153          146 
 1105000   0.81156281   -8.2670925    194.34958  0.014656831  0.014280754          143 
 1106000   0.81307343   -8.2967892    194.14465  0.014628138  0.014267296          193 
 1107000   0.80332333   -8.2804255    194.19158  0.014618457  0.014253894          179 
 1108000    0.8009734   -8.2942319    194.02216  0.014592521  0.014240469          214 
 1109000   0.78970196   -8.2967598    193.82764  0.014564746  0.014227063          205 
 1110000    0.8213432   -8.2836613    194.38687  0.014593609  0.014213695          237 
 1111000   0.80155552   -8.2840327    193.95959  0.014548424  0.014200244          236 
 1112000   0.78878804   -8.2793715     194.5581  0.014580194  0.014186885          190 
 1113000   0.80935934   -8.3194437    193.73633  0.014505565  0.014173385          245 
 1114000   0.78862964   -8.3101506    193.54174  0.014477988  0.014159909          265 
 1115000   0.80567864   -8.3016189    194.21164   0.01451507  0.014146419          238 
 1116000   0.80650187   -8.3293188    193.97077  0.014484078  0.014132996          194 
 1117000   0.80556873   -8.2903448    194.19653  0.014487953   0.01411959          226 
 1118000   0.80881279   -8.3106701    194.39645  0.014489896  0.014106185          240 
 1119000   0.81226051   -8.3296216    193.67426  0.014423165  0.014092733          204 
 1120000   0.80034995   -8.3141506    194.13335  0.014444446  0.014079273          235 
 1121000   0.81121751   -8.3190799    194.06471  0.014426457  0.014065827          206 
 1122000   0.79678368   -8.3086672    194.00948  0.014409498  0.014052384          262 
 1123000   0.80551522   -8.3024258    194.41766  0.014426956  0.014038965          227 
 1124000   0.80481733    -8.315402    194.29623  0.014405118  0.014025565          222 
 1125000   0.79106869    -8.294067    194.50079  0.014407466  0.014012109          235 
 1126000   0.80016912   -8.2823907    194.10747  0.014365561  0.013998696          221 
 1127000   0.81664451   -8.3216824    194.33432  0.014369589  0.013985329          274 
 1128000   0.81903266   -8.3520012    193.73479  0.014312558  0.013971895          307 
 1129000   0.79994491   -8.3395477    193.99585  0.014319151   0.01395849          316 
 1130000   0.79330208    -8.326753    193.76114  0.014289169   0.01394508          350 
 1131000   0.79700143     -8.34652    193.99522  0.014293783  0.013931685          314 
 1132000   0.79432362   -8.3279699    194.86081  0.014344877  0.013918334          328 
 1133000   0.79196312   -8.3391211    193.91398  0.014262576  0.013904984          430 
 1134000   0.79460614   -8.3443983    194.29946  0.014278326  0.013891657          425 
 1135000   0.82017829   -8.3528323    193.94018  0.014239367  0.013878278          381 
 1136000   0.79716405   -8.3743412    194.06804  0.014236212    0.0138649          460 
 1137000   0.78387817   -8.3192764    194.02067  0.014220219  0.013851566          366 
 1138000   0.78881739   -8.3555994     194.0585  0.014210494  0.013838197          373 
 1139000   0.80595328   -8.3294575    194.47581  0.014228549  0.013824866          373 
 1140000   0.80571939   -8.3463622    194.22997  0.014198097  0.013811551          357 
 1141000    0.8032588   -8.3958386    194.05734  0.014173045  0.013798194          397 
 1142000   0.79170569   -8.3642949    193.88725  0.014148223  0.013784827          428 
 1143000   0.80993337   -8.3919308    193.50584  0.014108037  0.013771514          470 
 1144000   0.79008985   -8.3684857    194.10901  0.014139642  0.013758175          442 
 1145000   0.82615257   -8.3781493     193.9136  0.014113071  0.013744859          458 
 1146000   0.81277337   -8.3936088    193.79019  0.014091783  0.013731456          541 
 1147000   0.80888765   -8.3709726    194.27863  0.014114983  0.013718079          470 
 1148000   0.78195117   -8.3597464    194.07789  0.014088116  0.013704718          565 
 1149000   0.80849601   -8.4265916    193.27436  0.014017577  0.013691325          595 
 1150000   0.81047102   -8.3966882    193.56344  0.014026336  0.013677941          593 
 1151000   0.78343516   -8.3681808    194.07761  0.014051377  0.013664574          575 
 1152000   0.79096389   -8.3971282     194.1445  0.014044018  0.013651181          660 
 1153000   0.80626934   -8.3914881    193.73779  0.014002442  0.013637803          688 
 1154000   0.79238891   -8.4409667    194.23938  0.014026529   0.01362439          701 
 1155000   0.79433577   -8.3912248    193.66396  0.013972868  0.013610974          682 
 1156000   0.78942308   -8.4223325    192.81067   0.01389927   0.01359752          742 
 1157000   0.79146966   -8.3821135    193.38336  0.013928504  0.013584086          683 
 1158000   0.79392256   -8.4387534    193.10328  0.013896321  0.013570629          784 
 1159000   0.78152101   -8.4890073    192.85603  0.013866554  0.013557149          822 
 1160000   0.77438411   -8.4245773    192.92927  0.013859861  0.013543643          836 
 1161000    0.7792067   -8.4507245    193.55206  0.013892626  0.013530153          820 
 1162000   0.78554089   -8.4548915     193.2712  0.013860528  0.013516641          841 
 1163000   0.78932048   -8.4805891    192.89943  0.013821971  0.013503093          841 
 1164000   0.79178493   -8.4943363     193.1391  0.013827255  0.013489501          882 
 1165000   0.79668081   -8.4898822    193.15602  0.013816596  0.013475909          929 
 1166000   0.80502297   -8.5246948    192.70392  0.013772435  0.013462324          971 
 1167000   0.79338558   -8.4861751    192.90576  0.013775047  0.013448783          942 
 1168000   0.79152581   -8.4825839    193.09655  0.013776865  0.013435242         1008 
 1169000   0.78783348   -8.5080647    192.91329  0.013752017  0.013421687         1039 
 1170000   0.77797954   -8.5314081    192.51494  0.013711891  0.013408138         1050 
 1171000   0.77307381   -8.5072727    193.09354  0.013741356  0.013394606         1100 
 1172000   0.78473278   -8.5345432    193.23146  0.013739438  0.013381054         1075 
 1173000   0.78628302   -8.5172191    193.22792  0.013727474  0.013367519         1175 
 1174000   0.77724654    -8.582213    192.78888  0.013684617  0.013353967         1213 
 1175000   0.79392768   -8.5454989    192.21059  0.013631957  0.013340376         1185 
 1176000   0.79101917   -8.5685305    192.55468  0.013644747  0.013326813         1226 
 1177000   0.78703475   -8.5545696    192.43316  0.013624551  0.013313231         1183 
 1178000   0.78540223   -8.5620549    192.71569  0.013632972   0.01329962         1260 
 1179000   0.78196767   -8.5449987    192.82509  0.013629141  0.013286006         1280 
 1180000   0.79479167    -8.568958    192.40943  0.013588236  0.013272391         1274 
 1181000   0.78882168    -8.565667    192.47161  0.013581119  0.013258773         1325 
 1182000   0.77178633    -8.569761     192.4734  0.013569755  0.013245181         1347 
 1183000    0.7809669   -8.5903742    192.14556   0.01353519  0.013231632         1330 
 1184000   0.78084633   -8.6179751    192.49705  0.013548497  0.013218035         1370 
 1185000   0.78425081   -8.6208774    192.38297  0.013529042  0.013204431         1303 
 1186000   0.77162981   -8.6050071    192.17106  0.013502745  0.013190798         1390 
 1187000   0.77698521   -8.6049411    192.07532  0.013484648  0.013177139         1420 
 1188000   0.78390917   -8.6423643    191.62667  0.013441826  0.013163418         1456 
 1189000   0.76874312   -8.6128166    191.96438   0.01345419  0.013149731         1485 
 1190000   0.78301985   -8.6015079    192.01546  0.013446461  0.013136029         1483 
 1191000   0.76924524   -8.6587737    192.05752  0.013438114  0.013122391         1516 
 1192000    0.7675109   -8.6400318    191.51301  0.013388773  0.013108713         1584 
 1193000   0.76584651   -8.6537135    191.60242  0.013383796  0.013095058         1674 
 1194000   0.78570337   -8.6501358    191.58911  0.013371657  0.013081361         1644 
 1195000    0.7933921   -8.6330676    191.83571  0.013377665  0.013067653         1650 
 1196000   0.77255657   -8.6669281    191.65482  0.013353875  0.013053946         1674 
 1197000    0.7844204   -8.6763489    191.68106  0.013344546  0.013040224         1675 
 1198000   0.78522245   -8.6810623    191.29053  0.013306242  0.013026534         1785 
 1199000   0.77594725   -8.6906736    191.11675  0.013283066  0.013012808         1750 
 1200000   0.76558373   -8.6991477      191.402  0.013291806  0.012999123         1827 
 1201000   0.77978019   -8.7111297    191.16937  0.013264597  0.012985398         1926 
 1202000   0.76361703   -8.7216186    191.48596   0.01327551   0.01297164         1971 
 1203000   0.77357673   -8.7192324    191.54657  0.013268674  0.012957887         2121 
 1204000   0.78222094   -8.7296868    191.10108  0.013226819  0.012944095         2111 
 1205000   0.78285515   -8.7350678    191.45161  0.013240084  0.012930289         2107 
 1206000    0.7660873   -8.7603671     190.9666  0.013195592  0.012916467         2268 
 1207000   0.77954189   -8.7642608    190.50544   0.01315282   0.01290266         2328 
 1208000     0.755367   -8.8095146    190.82639  0.013164072  0.012888826         2285 
 1209000   0.76647411   -8.8009986    190.50003  0.013130689  0.012874924         2415 
 1210000    0.7772486   -8.7982501    190.82042  0.013141902   0.01286105         2395 
 1211000   0.78991436   -8.7719047     190.4007  0.013102168  0.012847208         2357 
 1212000   0.78025199   -8.7872178    190.28545  0.013083433  0.012833333         2499 
 1213000   0.76774336   -8.8069388    190.10883  0.013060513   0.01281941         2473 
 1214000   0.79209921   -8.8314797    190.48165  0.013075347  0.012805525         2563 
 1215000   0.76905892   -8.8333863     190.0276  0.013033443  0.012791587         2605 
 1216000    0.7769355   -8.8295495    189.83482  0.013009513  0.012777601         2633 
 1217000   0.76299889   -8.8661088     190.2145  0.013024822  0.012763611         2753 
 1218000   0.77358036   -8.8512133    189.83207  0.012987963  0.012749634         2857 
 1219000   0.77407427   -8.8975675    189.66408  0.012965825  0.012735628         2854 
 1220000   0.74958571   -8.8699676    189.63141  0.012952965  0.012721637         2846 
 1221000   0.77153712   -8.8872058     189.5485  0.012936698  0.012707648         2895 
 1222000   0.77384252   -8.8741677    190.16414  0.012968095  0.012693653         2879 
 1223000   0.75556011   -8.9098877    189.33788  0.012901191   0.01267965         2930 
 1224000   0.75708567   -8.9105018    189.65359  0.012912146  0.012665675         2931 
 1225000   0.76298204   -8.9179558    189.44085  0.012887133    0.0126517         2999 
 1226000   0.77108079   -8.9059241    189.44531  0.012876924  0.012637725         3009 
 1227000   0.77030265   -8.9247684      189.233   0.01285201  0.012623753         3033 
 1228000   0.76115102   -8.9209989    189.14728  0.012835728  0.012609747         3062 
 1229000   0.75318308   -8.9342166    189.10555  0.012822454  0.012595757         3059 
 1230000    0.7464389   -8.9196065    189.34083   0.01282797  0.012581737         3150 
 1231000   0.76545836    -8.936797    189.06873  0.012799129  0.012567725         3146 
 1232000   0.75805722    -8.944439    188.94353  0.012780271  0.012553723         3184 
 1233000   0.75727694   -8.9680035     188.9393   0.01276962    0.0125397         3232 
 1234000   0.77193688   -8.9434812    189.07391  0.012768363  0.012525671         3205 
 1235000    0.7566068      -8.9624    188.87296  0.012744464  0.012511679         3232 
 1236000   0.74545453   -8.9826581    188.65491  0.012719452  0.012497674         3259 
 1237000   0.78069823    -8.985676    188.57207  0.012703589  0.012483656         3282 
 1238000   0.75713784   -8.9952978    188.87764  0.012713896  0.012469679         3294 
 1239000   0.76400694   -9.0096898    188.64657  0.012688093  0.012455656         3407 
 1240000   0.76120948   -9.0161746    188.64616  0.012677833  0.012441644         3409 
 1241000   0.74792048   -8.9991971    188.64825  0.012667758  0.012427625         3418 
 1242000   0.78124416   -9.0240569    188.42709   0.01264272  0.012413647         3470 
 1243000   0.74874309   -8.9797745    188.90964  0.012664899  0.012399677         3471 
 1244000   0.75387348   -9.0241531    188.78872  0.012646618   0.01238571         3486 
 1245000   0.76285248   -9.0445823    188.48054  0.012615833  0.012371723         3556 
 1246000   0.75762705   -9.0376512    188.51467   0.01260799  0.012357714         3566 
 1247000   0.74575995   -9.0423341    188.24851  0.012580093  0.012343701         3668 
 1248000   0.74873302   -9.0652301    188.37794  0.012578655  0.012329686         3624 
 1249000   0.75034155   -9.0564189    187.87155  0.012534798  0.012315699         3633 
 1250000   0.74489593   -9.0640641    188.05836  0.012537224   0.01230171         3635 
 1251000   0.74579146   -9.0770634    187.71538  0.012504355  0.012287736         3705 
 1252000   0.77628151    -9.090253    188.08145  0.012518733  0.012273766         3675 
 1253000   0.73914493    -9.095995     188.1838  0.012515549  0.012259828         3692 
 1254000   0.76624772   -9.0848048    187.88458  0.012485684   0.01224588         3743 
 1255000   0.72904279   -9.0604777    188.11333  0.012490925  0.012231965         3698 
 1256000   0.76031679   -9.0691008    188.07387  0.012478362  0.012218042         3693 
 1257000   0.75621632   -9.1023022    188.28556  0.012482469  0.012204093         3722 
 1258000   0.73744931   -9.1029043    187.69223  0.012433242   0.01219017         3699 
 1259000   0.73373993   -9.1213457    187.74901  0.012427125  0.012176245         3754 
 1260000   0.75533723   -9.1269558    187.42445  0.012395797  0.012162305         3773 
 1261000   0.75649682   -9.1246118    187.40405  0.012384619  0.012148381         3818 
 1262000   0.74496898    -9.143174      187.368  0.012372425  0.012134472         3812 
 1263000   0.74607277   -9.1350374    187.75463  0.012388138  0.012120589         3821 
 1264000   0.73571322   -9.1280443    187.71268  0.012375572  0.012106703         3817 
 1265000   0.75599236   -9.1415373    187.58427   0.01235733  0.012092806         3813 
 1266000   0.75376074   -9.1159958    187.19843  0.012322171  0.012078921         3818 
 1267000   0.74027305   -9.1399521    187.67898  0.012344053  0.012065102         3833 
 1268000   0.73401412   -9.1328124    187.84363  0.012345139  0.012051256         3803 
 1269000   0.72673139   -9.1590748      187.515   0.01231383  0.012037435         3821 
 1270000   0.76471798   -9.1386237    187.38389  0.012295531  0.012023613         3817 
 1271000    0.7577736   -9.1522651    187.44084  0.012289591  0.012009812         3838 
 1272000   0.73404638   -9.1917161    187.63165   0.01229243  0.011996019         3816 
 1273000   0.74215984   -9.1626326    187.18154  0.012253308  0.011982255         3849 
 1274000    0.7508523   -9.1574003    187.20729  0.012245375  0.011968506         3859 
 1275000   0.73418132   -9.1863582     187.2958  0.012241556  0.011954749         3840 
 1276000   0.73893664   -9.1815925    187.27685  0.012230724   0.01194101         3805 
 1277000   0.74300016   -9.1692088    187.32344  0.012224187  0.011927284         3836 
 1278000   0.75689784   -9.1641203    187.89728  0.012252039  0.011913577         3843 
 1279000   0.74724711   -9.1752896    187.09925  0.012190464  0.011899895         3832 
 1280000   0.74551492   -9.1674288    187.41317  0.012201378  0.011886225         3843 
 1281000   0.74745724   -9.1896574    187.22037  0.012179311  0.011872558         3881 
 1282000   0.72151053   -9.1907889    186.95198  0.012152365  0.011858903         3825 
 1283000   0.75189683   -9.1883868    187.17894  0.012157635  0.011845237         3862 
 1284000   0.75089166   -9.1935321    187.22591  0.012151214  0.011831582         3858 
 1285000   0.74466666   -9.1869887    187.24597  0.012143059  0.011817947         3860 
 1286000    0.7434134    -9.220671    186.89525   0.01211089  0.011804331         3887 
 1287000   0.74672641   -9.2117829    186.78989  0.012094657  0.011790728         3883 
 1288000   0.74350764   -9.2187306    186.62417  0.012074545  0.011777122         3850 
 1289000   0.73346074   -9.2183738    186.88024  0.012081733  0.011763538         3874 
 1290000   0.73397637   -9.2520966    186.64895  0.012057425  0.011749953         3881 
 1291000   0.75511068   -9.2240263     186.7133   0.01205224  0.011736369         3888 
 1292000   0.75008284   -9.2165661    186.67009  0.012040124  0.011722831         3876 
 1293000   0.74265227   -9.2102872    187.27005   0.01206948  0.011709289         3894 
 1294000   0.73525453   -9.2211946    186.57038  0.012015094  0.011695765         3870 
 1295000   0.73960277   -9.2183573     186.9241  0.012028578  0.011682254         3894 
 1296000   0.74286564    -9.243342    186.74702   0.01200791  0.011668771         3880 
 1297000   0.73029949   -9.2177509    186.78174  0.012000883   0.01165529         3880 
 1298000   0.72732132   -9.2369684    186.61162  0.011980715  0.011641838         3881 
 1299000   0.74046565   -9.2498483    186.35519  0.011955042  0.011628397         3893 
 1300000   0.74029788   -9.2503647    186.33462  0.011944527  0.011614994         3911 
 1301000   0.73495407   -9.2450701    186.22459  0.011928298   0.01160159         3904 
 1302000   0.72332045   -9.2395655    186.47676  0.011935276  0.011588192         3888 
 1303000   0.72648047   -9.2440816    186.48502  0.011926645    0.0115748         3905 
 1304000   0.73216758   -9.2411797    186.61129  0.011925568  0.011561412         3921 
 1305000   0.74191994   -9.2473422    186.57253  0.011913955  0.011548055         3919 
 1306000   0.73476674   -9.2445867    186.52229  0.011901626   0.01153471         3911 
 1307000   0.72735506   -9.2573913    186.53585  0.011893385  0.011521393         3921 
 1308000   0.72636282   -9.2710026    185.89521  0.011843477  0.011508093         3916 
 1309000   0.73236407   -9.2732172    186.09189   0.01184695  0.011494808         3917 
 1310000    0.7284948   -9.2459537    186.39618  0.011857263  0.011481553         3918 
 1311000    0.7316612   -9.2735531    186.37729  0.011847018  0.011468299         3903 
 1312000   0.74650318   -9.2473706    186.57987  0.011850855   0.01145508         3914 
 1313000   0.73229144   -9.2495476    186.80947  0.011856402  0.011441887         3926 
 1314000   0.72938157   -9.2705628      187.142  0.011868468  0.011428702         3895 
 1315000   0.73808089   -9.2453013    186.57861   0.01182374  0.011415527         3910 
 1316000   0.73372904   -9.2322726    186.52832   0.01181157  0.011402374         3910 
 1317000   0.72246563   -9.2274467    186.73047  0.011815393  0.011389231         3915 
 1318000   0.70428658   -9.2658181    186.32174  0.011780585   0.01137611         3906 
 1319000   0.72963329   -9.2465749     186.4265  0.011778273   0.01136299         3917 
 1320000   0.71422999   -9.2539787      186.667  0.011784533  0.011349893         3900 
 1321000   0.72096731   -9.2235985    186.75198  0.011780973  0.011336825         3906 
 1322000   0.73211702   -9.2578351    186.35501  0.011747038   0.01132376         3916 
 1323000   0.74590573   -9.2732689     186.3033  0.011734901   0.01131069         3911 
 1324000   0.74013355   -9.2726372    186.71031  0.011751656  0.011297662         3932 
 1325000    0.7283555   -9.2721063    186.21068  0.011711363  0.011284628         3900 
 1326000   0.73196606   -9.2828803    186.39868  0.011714346  0.011271637         3925 
 1327000   0.73257365    -9.305821    186.30834  0.011699846  0.011258645         3925 
 1328000   0.73995588   -9.2523228    186.28409  0.011689514  0.011245684         3900 
 1329000   0.72529591   -9.2639085    186.54068  0.011696807  0.011232744         3914 
 1330000   0.72978124   -9.2669422    186.17543  0.011665127  0.011219809         3936 
 1331000   0.72453642   -9.2634026    186.39895  0.011670357  0.011206886         3920 
 1332000   0.73992391   -9.2596619    186.51764  0.011669022  0.011193997         3937 
 1333000   0.72620487   -9.2710185    185.96419  0.011625669   0.01118112         3904 
 1334000   0.71014091    -9.275486    186.43042  0.011646078  0.011168258         3945 
 1335000   0.72815076   -9.2709863    186.18372  0.011621955   0.01115542         3921 
 1336000   0.72941666   -9.2771451    186.31145  0.011621223  0.011142601         3916 
 1337000   0.70713038   -9.2807709    186.01851  0.011594273   0.01112979         3910 
 1338000    0.7168892   -9.2840948    186.44473  0.011612153  0.011116985         3936 
 1339000   0.71619056   -9.2961809    186.14091  0.011584572  0.011104217         3930 
 1340000   0.71170519   -9.2593651    185.79399  0.011554353   0.01109145         3933 
 1341000   0.71659635   -9.2888673    186.31627  0.011578192  0.011078694         3945 
 1342000   0.72580089   -9.2917049    186.10711  0.011556577  0.011065956         3926 
 1343000   0.71430766   -9.3071066    186.00338  0.011541535  0.011053236         3934 
 1344000   0.73247421   -9.2847183    186.42131  0.011558861  0.011040543         3931 
 1345000   0.71644616   -9.2934401     186.3531  0.011546041  0.011027863         3932 
 1346000   0.72129995   -9.3022285     185.9396  0.011511862  0.011015196         3939 
 1347000   0.71202151   -9.3085255    185.89873  0.011500787  0.011002546         3935 
 1348000   0.72301791   -9.2852149    186.13477  0.011506848   0.01098991         3938 
 1349000   0.70470301   -9.3084298    186.04123   0.01149254  0.010977291         3934 
 1350000   0.71951777   -9.2991533    185.59455  0.011456454  0.010964693         3951 
 1351000   0.71732226   -9.2781738    186.14715   0.01148206  0.010952103         3934 
 1352000   0.71025424   -9.2853088    185.77549  0.011450659  0.010939546         3929 
 1353000    0.7117158   -9.2909867     186.1083  0.011462694  0.010926998         3943 
 1354000   0.71612414   -9.3046433    185.88629  0.011440564  0.010914467         3938 
 1355000   0.72414546   -9.3112895    186.02014  0.011440353  0.010901959         3932 
 1356000   0.71518236   -9.3103968    185.99114  0.011430134  0.010889475         3946 
 1357000   0.70306092   -9.3153452    186.28043  0.011439476  0.010877004         3939 
 1358000   0.71753641   -9.3089678    185.59676  0.011389099  0.010864553         3947 
 1359000   0.69994211   -9.2986514    185.93819  0.011401655  0.010852116         3928 
 1360000   0.72872936   -9.2719775     186.2316   0.01141125   0.01083972         3924 
 1361000   0.71982066   -9.3300015    186.03709  0.011390956  0.010827311         3937 
 1362000   0.73281926   -9.3258514    185.86597  0.011372122  0.010814926         3945 
 1363000   0.69680203   -9.3240484    185.88813  0.011365134   0.01080256         3943 
 1364000   0.71531835   -9.3147343    186.05243   0.01136684  0.010790209         3935 
 1365000   0.73033633    -9.298016    186.17202  0.011365813  0.010777877         3945 
 1366000   0.72233286   -9.3053894    186.13618  0.011355306  0.010765563         3940 
 1367000   0.70742501   -9.3159521    186.03524  0.011340846  0.010753264         3948 
 1368000   0.71141613   -9.3126365    185.76964  0.011316377  0.010740974         3939 
 1369000   0.69640842   -9.3066651     186.0198  0.011323338  0.010728702         3942 
 1370000    0.7171235   -9.3156756    186.26381  0.011329916  0.010716455         3941 
 1371000   0.69005805   -9.2981616    185.72609  0.011288967  0.010704228         3953 
 1372000   0.70853378   -9.3098276    185.64537  0.011275837  0.010692023         3949 
 1373000   0.69709407   -9.2999426    185.97611  0.011287698  0.010679837         3946 
 1374000    0.6923798   -9.3150487    185.84889  0.011271767  0.010667661         3942 
 1375000   0.70539357   -9.3408187    185.43616  0.011238555  0.010655483         3953 
 1376000   0.69994128   -9.3218374    185.95599  0.011261869  0.010643341         3939 
 1377000   0.70889294   -9.3234554    186.12476  0.011263905  0.010631219         3961 
 1378000   0.70298849   -9.3235242    185.65641  0.011227408  0.010619107         3955 
 1379000   0.69213804   -9.3214212     185.6739  0.011220323  0.010607006         3944 
 1380000   0.70084923   -9.3354375    185.50444  0.011201959  0.010594918         3937 
 1381000   0.71560161   -9.2983904     185.9832  0.011222737  0.010582854         3944 
 1382000   0.70941651   -9.3289501    186.05465  0.011218925  0.010570807         3949 
 1383000   0.69721998   -9.3427795    186.15855  0.011217073  0.010558765         3952 
 1384000   0.69107918   -9.3064543    186.52677   0.01123114  0.010546761         3939 
 1385000   0.70636262   -9.3176424    185.94011  0.011187732  0.010534762         3943 
 1386000   0.68186833   -9.3211202    185.79409  0.011170881  0.010522786         3944 
 1387000   0.69320966   -9.3359856    185.95086  0.011172246  0.010510815         3958 
 1388000   0.68226935   -9.3496205    185.73645  0.011151324   0.01049888         3952 
 1389000   0.68540016   -9.3370111    185.86181  0.011150816   0.01048695         3951 
 1390000   0.71156474   -9.3490372    185.56064  0.011124739  0.010475039         3945 
 1391000   0.70994007   -9.3391822    185.92661  0.011138666  0.010463138         3948 
 1392000   0.69387365   -9.3425508    185.53129  0.011106998  0.010451255         3958 
 1393000   0.70405143   -9.3481113    185.70486  0.011109408  0.010439393         3935 
 1394000   0.69763542   -9.3442678    185.59477  0.011094857  0.010427546         3929 
 1395000   0.69521729   -9.3343472     185.5932   0.01108681  0.010415733         3947 
 1396000   0.69995691   -9.3204075    185.72136  0.011086519  0.010403919         3943 
 1397000     0.708937   -9.3225584    185.71509  0.011078209  0.010392136         3938 
 1398000   0.70702195   -9.3522964    185.75356  0.011072577   0.01038037         3944 
 1399000   0.69991112   -9.3196624    185.83269  0.011069376  0.010368618         3951 
 1400000   0.69387137   -9.3511176    185.85223  0.011062633  0.010356877         3949 
 1401000    0.7153375   -9.3106292    185.68188  0.011044604  0.010345158         3956 
 1402000   0.69089207   -9.3435183    185.63653   0.01103403  0.010333451         3948 
 1403000   0.68746985    -9.323206    185.50665  0.011018451  0.010321767         3940 
 1404000   0.70764662    -9.362984    185.77416  0.011026481  0.010310101         3950 
 1405000   0.71014689   -9.3338978     185.6993  0.011014193  0.010298449         3937 
 1406000   0.68791237   -9.3490693    185.63263  0.011002408  0.010286806         3959 
 1407000   0.67382004   -9.3302217    185.74221  0.011001078  0.010275179         3955 
 1408000   0.69557781   -9.3447606    185.49077  0.010978383  0.010263577         3943 
 1409000   0.70486525    -9.341443    185.50971  0.010971712  0.010251983         3931 
 1410000   0.68309063   -9.3488447    185.45993  0.010960989  0.010240413         3937 
 1411000   0.69883796   -9.3509948    185.90122  0.010979283  0.010228854         3947 
 1412000   0.68608841   -9.3321887    185.46092  0.010945521  0.010217307         3937 
 1413000    0.7006622   -9.3495852    185.78868  0.010957106  0.010205778         3953 
 1414000   0.67535976   -9.3737003    185.57535  0.010936784  0.010194258         3948 
 1415000   0.69846431   -9.3472926    185.59413  0.010930161   0.01018276         3945 
 1416000   0.67295136   -9.3478627    185.39866  0.010910938   0.01017128         3950 
 1417000   0.68581104   -9.3510435     185.5342  0.010911209  0.010159817         3952 
 1418000   0.67053561   -9.3695689     185.6416  0.010909826  0.010148369         3947 
 1419000   0.67595775   -9.3473575    185.98719  0.010922433  0.010136942         3947 
 1420000   0.68453945   -9.3351655    185.61272  0.010892765  0.010125531         3932 
 1421000   0.69396938    -9.365751    185.34935  0.010869655  0.010114131         3936 
 1422000   0.67880997   -9.3587988    185.39501  0.010864687  0.010102751         3938 
 1423000   0.68512892    -9.348252    185.59615  0.010868831  0.010091404         3930 
 1424000    0.6901191   -9.3469561    185.83507   0.01087518  0.010080074         3940 
 1425000   0.67544505   -9.3343783    185.84785  0.010868295  0.010068756         3941 
 1426000   0.68292033   -9.3276283    185.70123  0.010852105  0.010057449         3953 
 1427000   0.67756492   -9.3231606    185.44161  0.010829339  0.010046162         3947 
 1428000   0.68584644   -9.3590658    185.38569  0.010818493  0.010034879         3955 
 1429000   0.68564042   -9.3607022    185.55737  0.010820933  0.010023625         3929 
 1430000   0.68108993   -9.3673499    185.31412  0.010799191  0.010012378         3935 
 1431000   0.68012677   -9.3497195    185.23506  0.010787041   0.01000115         3929 
 1432000   0.67782191   -9.3668927    185.30615  0.010783645 0.0099899346         3945 
 1433000   0.66998935   -9.3544931     185.4663  0.010785433 0.0099787457         3951 
 1434000   0.67458205   -9.3462256    185.64945  0.010788555 0.0099675653         3950 
 1435000   0.67757678   -9.3484095    185.37496  0.010765097 0.0099564063         3954 
 1436000    0.6905474   -9.3529641    185.29771  0.010753117 0.0099452628         3954 
 1437000   0.66944962   -9.3718914    185.46781  0.010755498 0.0099341376         3958 
 1438000    0.6706824   -9.3433548    185.83239  0.010769147 0.0099230226         3950 
 1439000   0.68468363   -9.3503141    185.49015  0.010741843 0.0099119207         3931 
 1440000   0.66743755   -9.3713701    185.46147  0.010732724 0.0099008309         3950 
 1441000   0.68255053   -9.3779579    185.50792  0.010727962 0.0098897643         3964 
 1442000   0.66816716    -9.386608    185.15836  0.010700322 0.0098787051         3958 
 1443000   0.69522553   -9.3622687    185.75838  0.010727557 0.0098676821         3953 
 1444000   0.68021599   -9.3524926    185.59314  0.010710592  0.009856667         3939 
 1445000   0.66965186   -9.3447244    185.19776  0.010680378 0.0098456786         3941 
 1446000   0.68406549   -9.3579024    185.32977    0.0106806 0.0098346933         3945 
 1447000   0.67473998   -9.3550846    185.64719  0.010691499 0.0098237135         3941 
 1448000    0.6968715   -9.3652764    185.32786  0.010665738 0.0098127656         3939 
 1449000   0.67941002   -9.3717746    185.46006   0.01066598 0.0098018262         3946 
 1450000   0.65927359   -9.3592544     185.4856  0.010660092 0.0097909001         3933 
 1451000   0.67964108   -9.3822189    185.52646  0.010655092 0.0097799834         3940 
 1452000    0.6619995   -9.3491173    185.40575  0.010640826 0.0097690744         3944 
 1453000   0.68232483   -9.3464708    185.60956  0.010645192 0.0097581866         3940 
 1454000   0.67623296   -9.3797216    185.68718  0.010642319  0.009747325         3953 
 1455000   0.67170766    -9.380888    185.37959  0.010617388  0.009736469         3944 
 1456000   0.66994974   -9.3812084    185.18683  0.010599063  0.009725632         3939 
 1457000   0.67745736   -9.3689312    185.05359  0.010584168 0.0097148142         3941 
 1458000   0.67102921   -9.3805491    185.11727  0.010580548 0.0097040048         3956 
 1459000   0.67524985   -9.3800147     185.2863   0.01058295 0.0096932202         3943 
 1460000   0.68127693   -9.3828584    185.74356  0.010601801 0.0096824504         3942 
 1461000   0.66116982   -9.3866536    185.40031  0.010574966 0.0096716888         3940 
 1462000   0.66312719   -9.3736482    185.60359   0.01057932  0.009660952         3957 
 1463000   0.67613399   -9.3887328    185.07861  0.010542185  0.009650225         3953 
 1464000   0.66123639   -9.3823456    185.24434  0.010544418 0.0096395173         3932 
 1465000   0.66767853   -9.3814423    185.02176   0.01052456 0.0096288244         3931 
 1466000   0.67446674   -9.3987185    184.92284  0.010511758 0.0096181371         3952 
 1467000   0.66156475   -9.3846445    185.15504  0.010517782 0.0096074618         3937 
 1468000    0.6580701   -9.3846508    185.49769  0.010530069 0.0095968029         3954 
 1469000   0.66576615   -9.3855801    185.19617  0.010505796 0.0095861557         3945 
 1470000   0.66211057   -9.3453137    185.30901  0.010505046  0.009575532         3937 
 1471000    0.6386639   -9.3652153    185.37232  0.010501491 0.0095649296         3942 
 1472000   0.66188148   -9.4023936    185.40821  0.010496389 0.0095543307         3953 
 1473000   0.67295606   -9.3995098    185.12167  0.010473052 0.0095437503         3952 
 1474000   0.66637886   -9.3918988    185.33718  0.010478131  0.009533192         3945 
 1475000    0.6603299   -9.3942474    185.21136  0.010463919 0.0095226434         3945 
 1476000   0.65313937   -9.3878843    185.08935  0.010449941 0.0095121117         3938 
 1477000   0.65920222   -9.3860572    185.20218  0.010449231 0.0095015916         3936 
 1478000   0.64945427   -9.3960172    185.23504  0.010444014 0.0094911027         3941 
 1479000   0.66924934   -9.3543258    185.35093  0.010443483 0.0094806246         3940 
 1480000   0.67942973   -9.3889515    185.07231  0.010420738 0.0094701641         3944 
 1481000   0.66973634   -9.3735913    185.26032  0.010424281 0.0094597244         3946 
 1482000   0.65311739   -9.3952582    185.10427  0.010408472 0.0094492852         3939 
 1483000   0.65369419   -9.3969348    185.26115  0.010410269 0.0094388666         3939 
 1484000   0.66678875   -9.3976675     185.5121  0.010417346  0.009428471         3956 
 1485000   0.66258722   -9.4061186    185.09629  0.010386997 0.0094180828         3935 
 1486000   0.66709657   -9.3750369    185.12849  0.010381813 0.0094077094         3950 
 1487000   0.64756874    -9.413684    184.95278  0.010364984 0.0093973439         3946 
 1488000   0.66874272   -9.3934307     185.1399  0.010368498  0.009386983         3944 
 1489000   0.65524619   -9.3914917    185.07754  0.010358044 0.0093766376         3937 
 1490000   0.66113419   -9.4017204    185.22865  0.010359544 0.0093663074         3954 
 1491000   0.64557386   -9.3994319    185.29598  0.010356359 0.0093559967         3939 
 1492000   0.64841143   -9.3981758    185.08356  0.010337554 0.0093457039         3944 
 1493000   0.65479768   -9.3947296    185.13912  0.010333731 0.0093354192         3951 
 1494000   0.66479939   -9.3832257     185.0902  0.010324085 0.0093251567         3952 
 1495000   0.66056766   -9.3883389    184.93667  0.010308621 0.0093149133         3941 
 1496000    0.6517161   -9.3904114    184.99043  0.010304726 0.0093046801         3928 
 1497000   0.64891575   -9.3830259    184.99587  0.010298144 0.0092944555         3943 
 1498000   0.65812622   -9.4204703    185.14226  0.010299414 0.0092842562         3932 
 1499000   0.65668116   -9.3950313    185.28201  0.010300312 0.0092740724         3945 
 1500000   0.66549202   -9.4003189    185.07591  0.010281995 0.0092638996         3944 
 1501000   0.64510942   -9.3964334    184.97095  0.010269318 0.0092537384         3944 
 1502000   0.65610936   -9.4092363    185.08921  0.010269042 0.0092436046         3941 
 1503000   0.64943797   -9.4270733    185.01024  0.010257831 0.0092334701         3954 
 1504000   0.65207035   -9.4135568    184.87133  0.010243314  0.009223362         3946 
 1505000   0.66481285   -9.4133099    185.43147  0.010267523 0.0092132627         3937 
 1506000   0.64385157   -9.4274186    185.25384  0.010250877 0.0092031828         3962 
 1507000   0.64773006   -9.4240337    184.90416  0.010224738 0.0091931107         3950 
 1508000   0.64694216   -9.4253657    184.90137  0.010217803 0.0091830533         3956 
 1509000    0.6467167   -9.4127321    184.77262  0.010203922 0.0091730148         3945 
 1510000   0.65517344    -9.410596    185.12879   0.01021682 0.0091629912         3955 
 1511000   0.64650689   -9.4068051    185.23715  0.010216035 0.0091529756         3949 
 1512000    0.6511216   -9.4226354    184.81113  0.010185799 0.0091429815         3968 
 1513000   0.65336714   -9.4266649    184.86578  0.010182076 0.0091330081         3964 
 1514000   0.64518922   -9.3851311    184.98784  0.010182069 0.0091230457         3944 
 1515000   0.65358271   -9.4004859    185.16543  0.010185117 0.0091130972         3956 
 1516000   0.64750738   -9.4019784    185.43576  0.010193259 0.0091031606         3947 
 1517000   0.63132198   -9.4111336     185.1489  0.010170781  0.009093236         3957 
 1518000   0.63807403   -9.4160843     184.7802   0.01014384 0.0090833254         3952 
 1519000   0.65370291   -9.4053252     185.1764  0.010158898 0.0090734229         3945 
 1520000   0.65012146   -9.4297132    185.14499  0.010150493 0.0090635442         3939 
 1521000   0.64959155   -9.4028841    185.09547  0.010141106 0.0090536809         3956 
 1522000   0.65091738   -9.4032841    184.78934  0.010117682 0.0090438222         3946 
 1523000   0.63956195   -9.4064652    185.14288  0.010130383 0.0090339854         3936 
 1524000   0.64827372   -9.4396225    185.00848  0.010116387 0.0090241519         3945 
 1525000   0.64275021   -9.4059619    185.27429  0.010124278 0.0090143485         3949 
 1526000   0.63502932   -9.4178165    185.29522  0.010118787 0.0090045547         3946 
 1527000   0.63239358   -9.4292431    185.51799  0.010124317 0.0089947764         3943 
 1528000   0.61504556     -9.41527    184.90784  0.010084415 0.0089850059         3950 
 1529000   0.65237098   -9.4263184    184.81858  0.010072955 0.0089752526         3940 
 1530000    0.6520907    -9.441512    184.94598   0.01007331 0.0089655104         3946 
 1531000   0.64391741   -9.4380773    184.83495  0.010060688  0.008955782         3956 
 1532000   0.66392561   -9.4346158    184.86083  0.010055528 0.0089460736         3945 
 1533000   0.62561515   -9.4306804    184.85498  0.010048651 0.0089363739         3946 
 1534000   0.63415252   -9.4306445    184.73807  0.010035749 0.0089266921         3947 
 1535000   0.64454303   -9.4077653    185.01693   0.01004435 0.0089170248         3943 
 1536000   0.63115054   -9.4082165    184.84198  0.010028319 0.0089073635         3949 
 1537000   0.63599127   -9.4364546    184.91709  0.010025867 0.0088977147         3942 
 1538000   0.64070824   -9.4403746    184.85429  0.010015945 0.0088880851         3956 
 1539000   0.64714404   -9.4338708    184.68399  0.010000216 0.0088784594         3953 
 1540000   0.62963869    -9.432974    185.11289  0.010016931 0.0088688561         3953 
 1541000   0.64364664   -9.4341313    184.70886 0.0099885821 0.0088592711         3951 
 1542000   0.64037923   -9.4330872    185.14862   0.01000587 0.0088496949         3947 
 1543000   0.65016499   -9.4501691    184.97853 0.0099901991 0.0088401297         3938 
 1544000   0.63451478    -9.445609    184.80561 0.0099743961 0.0088305861         3955 
 1545000   0.63755009   -9.4493523    184.78436 0.0099667942 0.0088210465         3944 
 1546000   0.63184933   -9.4286952    185.10122 0.0099774267 0.0088115197         3944 
 1547000   0.63847351   -9.4492574    184.48514 0.0099377904 0.0088020145         3953 
 1548000   0.63708286   -9.4462703    184.59066 0.0099370512 0.0087925214         3942 
 1549000   0.63039858   -9.4496082     185.0006 0.0099526898 0.0087830476         3948 
 1550000   0.64090524   -9.4427128    184.73959 0.0099322361 0.0087735772         3951 
 1551000   0.62815241    -9.449586    184.50405 0.0099131767 0.0087641263         3958 
 1552000    0.6359063   -9.4445685    184.71962 0.0099183647 0.0087546875         3955 
 1553000   0.63243367   -9.4429919    184.89874 0.0099215892 0.0087452544         3940 
 1554000   0.63616979   -9.4550603    184.76787 0.0099081871 0.0087358355         3962 
 1555000   0.63420769   -9.4393598    184.86897 0.0099072332 0.0087264287         3958 
 1556000   0.63244266   -9.4475701      184.913 0.0099032241 0.0087170403         3955 
 1557000   0.63403572   -9.4412451    184.69805  0.009885359 0.0087076646         3958 
 1558000   0.63165068   -9.4264034    184.68818 0.0098784865 0.0086982925         3933 
 1559000   0.62557384   -9.4631779    184.59427 0.0098671302   0.00868894         3958 
 1560000   0.63263842   -9.4409075    184.70069   0.00986649 0.0086796026         3949 
 1561000   0.63238963   -9.4440784    184.63768 0.0098568053 0.0086702749         3950 
 1562000   0.62527534   -9.4478594    184.79743 0.0098590179 0.0086609573         3956 
 1563000   0.62886918   -9.4461904    184.37068 0.0098299574 0.0086516602         3960 
 1564000   0.63376887   -9.4448043    184.54526 0.0098329741 0.0086423767         3938 
 1565000   0.62950275   -9.4377874     184.3903 0.0098184398 0.0086331008         3952 
 1566000   0.61757124   -9.4431798     184.7841 0.0098331259 0.0086238376         3951 
 1567000   0.62166037   -9.4554186    184.43203 0.0098081278  0.008614583         3948 
 1568000   0.62750739   -9.4587391    184.31846 0.0097958365  0.008605347         3953 
 1569000   0.62222419   -9.4655291    184.71503 0.0098106559 0.0085961225         3947 
 1570000   0.63314626   -9.4475424    184.86358 0.0098122918 0.0085869201         3958 
 1571000   0.62780431   -9.4625244    184.77038 0.0098011023 0.0085777359         3941 
 1572000   0.62852516     -9.43653    184.40371 0.0097754301 0.0085685522         3941 
 1573000   0.63386534    -9.462516    184.80967  0.009790722 0.0085593816         3957 
 1574000   0.62233941   -9.4607182    184.45971 0.0097659734 0.0085502314         3943 
 1575000   0.64936308   -9.4562511    184.46601 0.0097601062 0.0085410937         3949 
 1576000   0.61938047   -9.4691676     184.7416 0.0097684855 0.0085319638         3955 
 1577000   0.61694928   -9.4637638    184.71019 0.0097606314 0.0085228492         3960 
 1578000   0.62465851   -9.4468032    184.65596 0.0097515823 0.0085137491         3953 
 1579000   0.60996827   -9.4357373     184.7462  0.009750169 0.0085046574         3949 
 1580000   0.61868191   -9.4478221    184.62685 0.0097377031 0.0084955719         3949 
 1581000   0.62850868   -9.4608909    184.75445 0.0097382697 0.0084865049         3954 
 1582000   0.60531067   -9.4671972    184.47935 0.0097176228 0.0084774513         3947 
 1583000   0.61945747   -9.4669617    184.81271 0.0097290332 0.0084684052         3948 
 1584000   0.61454088   -9.4539277     184.6677 0.0097152619 0.0084593847         3953 
 1585000   0.63603543   -9.4565989    184.76952 0.0097144858 0.0084503764         3950 
 1586000    0.6149519   -9.4854851    184.53672 0.0096961284  0.008441371         3956 
 1587000   0.61481484   -9.4560765    184.54304 0.0096903508  0.008432371         3953 
 1588000   0.62650129   -9.4647055    184.64919  0.009689819 0.0084233839         3946 
 1589000    0.6187817    -9.457406    184.66016 0.0096842963 0.0084144131         3953 
 1590000    0.6309028   -9.4949161    184.56068 0.0096729918 0.0084054615         3959 
 1591000   0.61169789   -9.4764589    184.24157 0.0096501972   0.00839651         3958 
 1592000   0.61587676   -9.4957648    184.32581 0.0096485452 0.0083875636         3953 
 1593000   0.63208657   -9.4820458    184.49916 0.0096515566 0.0083786337         3953 
 1594000   0.62020367   -9.4544392    184.73276 0.0096577145 0.0083697252         3952 
 1595000   0.60778649   -9.4700684    184.41918 0.0096352759 0.0083608213         3948 
 1596000   0.62470702   -9.4613702    184.28175  0.009622063 0.0083519399         3956 
 1597000    0.6169242   -9.4540619    184.43441 0.0096240036 0.0083430695         3951 
 1598000    0.6190488   -9.4720784    184.51291 0.0096220751 0.0083342139         3958 
 1599000   0.61441358   -9.4587055    184.88451 0.0096354235  0.008325367         3951 
 1600000   0.60479913   -9.5020935    184.64355 0.0096168518 0.0083165357         3953 
 1601000    0.6024964   -9.4750308    184.55351  0.009606158 0.0083077089         3951 
 1602000   0.62648136   -9.4830667    184.63177  0.009604233    0.0082989         3950 
 1603000   0.61728682   -9.4612413    184.84529 0.0096093413 0.0082901089         3942 
 1604000   0.61167605   -9.4963049    184.44112 0.0095823525  0.008281327         3956 
 1605000   0.60940701   -9.4877894    184.35397 0.0095718574  0.008272556         3942 
 1606000    0.6280267   -9.4870493    184.45268 0.0095710193 0.0082638009         3960 
 1607000    0.5892064   -9.4878301    184.40033 0.0095623483 0.0082550549         3950 
 1608000   0.61321114    -9.488791    184.48715 0.0095609013 0.0082463287         3955 
 1609000   0.62600299   -9.4988249    184.37023 0.0095489035 0.0082376057         3940 
 1610000   0.60540531    -9.489062    184.50877 0.0095501433  0.008228892         3961 
 1611000   0.61318809   -9.4838471      184.334 0.0095351746 0.0082201905         3950 
 1612000   0.60835803   -9.4857178    184.42852 0.0095341462 0.0082115032         3957 
 1613000   0.61251625    -9.487732    184.49225 0.0095315279 0.0082028266         3949 
 1614000   0.60235465   -9.4974501    184.39637 0.0095206715 0.0081941601         3951 
 1615000   0.61505913   -9.4891741    184.59395 0.0095249718 0.0081855108         3966 
 1616000   0.58271763   -9.4732984    184.28806 0.0095033034 0.0081768673         3938 
 1617000   0.59792527   -9.4889914    184.37591 0.0095019537 0.0081682374         3939 
 1618000   0.60334365   -9.4910566    184.33453 0.0094939497 0.0081596312         3952 
 1619000   0.61286843   -9.4988938    184.41151  0.009492048 0.0081510258         3958 
 1620000   0.61061313   -9.4792306    184.60016 0.0094958932 0.0081424355         3963 
 1621000   0.60719806   -9.5063648    184.55445 0.0094876853 0.0081338611         3953 
 1622000   0.60319825   -9.5084241    184.38274  0.009473014 0.0081252921         3952 
 1623000   0.60677231   -9.4935514    184.39358 0.0094677334 0.0081167274         3951 
 1624000   0.60425232   -9.4912984    184.36433 0.0094604026 0.0081081864         3957 
 1625000    0.6006509    -9.505965    183.95667 0.0094336756 0.0080996469         3955 
 1626000   0.60310734   -9.4793978    184.28934 0.0094449229 0.0080911245         3963 
 1627000   0.61020685    -9.508051    184.49306 0.0094495524 0.0080826131         3955 
 1628000   0.59102276   -9.4945233    183.93214 0.0094150357 0.0080741134         3949 
 1629000   0.60379598   -9.4730516    184.33922 0.0094300809 0.0080656234         3950 
 1630000   0.59695445    -9.483251    184.63632 0.0094394845 0.0080571489         3948 
 1631000   0.60089831   -9.5114805    184.25395 0.0094141605 0.0080486845         3947 
 1632000   0.61387972   -9.4842539    184.38828 0.0094152512 0.0080402409         3954 
 1633000   0.60620024    -9.496322    184.39295  0.009409724 0.0080318019         3958 
 1634000   0.60532091   -9.5053141      184.294 0.0093989187 0.0080233753         3943 
 1635000   0.59652543   -9.4990146    184.05632 0.0093810561 0.0080149619         3954 
 1636000   0.59861196   -9.4961837    184.10014 0.0093775542 0.0080065634         3959 
 1637000   0.61166528   -9.5092891    184.21187 0.0093775131 0.0079981677         3954 
 1638000   0.59982189   -9.5047674     184.2528 0.0093738708 0.0079897827         3951 
 1639000   0.60028382   -9.4996983    184.58779 0.0093851836  0.007981406         3962 
 1640000   0.59951933    -9.513057     184.2537 0.0093624849 0.0079730436         3954 
 1641000   0.59246588   -9.5242045    184.11301 0.0093496349 0.0079646867         3963 
 1642000   0.59101826   -9.5254619    184.23563  0.009350164  0.007956339         3962 
 1643000   0.58550415   -9.5380794    184.11055 0.0093381288 0.0079480016         3967 
 1644000   0.58921745    -9.501127      184.019 0.0093278084 0.0079396776         3937 
 1645000   0.59143496    -9.498413    184.17922 0.0093302543 0.0079313653         3955 
 1646000   0.60404212   -9.5103431    184.53105 0.0093423982 0.0079230603         3954 
 1647000   0.60295773   -9.5053808    184.05279 0.0093125275 0.0079147696         3959 
 1648000   0.59293031   -9.5401419    184.23891 0.0093162879 0.0079064964         3954 
 1649000   0.59948849   -9.5224885    184.11332 0.0093042915 0.0078982326         3960 
 1650000   0.58764478   -9.5239746    183.98762  0.009292304  0.007889975         3952 
 1651000   0.59511738   -9.5218907    184.18681   0.00929673 0.0078817313         3961 
 1652000   0.58720382   -9.5308589    183.91184 0.0092772314 0.0078734997         3955 
 1653000   0.59490568   -9.5238528    184.07752  0.009279972 0.0078652832         3953 
 1654000   0.60036762   -9.5200616     184.0979 0.0092753879 0.0078570759         3961 
 1655000   0.59499532   -9.5195549    184.24408 0.0092771439 0.0078488771         3956 
 1656000   0.60246103   -9.5231523    183.96399 0.0092574473 0.0078406948         3954 
 1657000   0.59935353   -9.5354783    183.90412 0.0092488493 0.0078325249         3960 
 1658000    0.5885987   -9.5414971    184.12971 0.0092546096 0.0078243757         3952 
 1659000   0.58725789    -9.511081    184.13891 0.0092494934 0.0078162305         3954 
 1660000    0.5931846   -9.5071853     183.9523 0.0092345534  0.007808101         3956 
 1661000   0.59535801   -9.5064852    184.33302 0.0092480943 0.0077999772         3940 
 1662000   0.59478355   -9.5415982    184.00701 0.0092261838 0.0077918619         3957 
 1663000    0.6016267   -9.5047738    183.98159  0.009219362 0.0077837563         3958 
 1664000   0.59434158   -9.5390165    184.05659 0.0092175774 0.0077756662         3967 
 1665000   0.59353739   -9.5508551    183.97138 0.0092077769 0.0077675916         3965 
 1666000    0.5896002   -9.5391323    183.83003 0.0091951795 0.0077595288         3970 
 1667000   0.58246387   -9.5386932    184.05316 0.0092008179 0.0077514665         3964 
 1668000   0.59108519   -9.5157953    184.09777 0.0091975305 0.0077434223         3958 
 1669000   0.57724078   -9.5329409    184.19933 0.0091970904  0.007735388         3962 
 1670000   0.59830908   -9.5294197    183.96765 0.0091800223 0.0077273699         3951 
 1671000   0.58459511   -9.5367723    184.00471 0.0091763767 0.0077193624         3962 
 1672000    0.5911022   -9.5237717    184.13164  0.009177215 0.0077113685         3963 
 1673000    0.5776236   -9.5085675    183.91658 0.0091610174 0.0077033855         3953 
 1674000   0.56521237   -9.5284586    184.33409 0.0091763288 0.0076954121         3957 
 1675000   0.58965599   -9.5517542    183.86204 0.0091473654 0.0076874471         3954 
 1676000   0.59222116   -9.5403874     183.8927 0.0091434318 0.0076794942         3957 
 1677000    0.5671877   -9.5409474    184.16818 0.0091516685  0.007671545         3961 
 1678000    0.5873579    -9.538835    183.79566 0.0091277145 0.0076636047         3967 
 1679000   0.59107749   -9.5523428    183.91394 0.0091281485 0.0076556906         3953 
 1680000   0.59220639   -9.5332267    183.93851  0.009123934 0.0076477782         3952 
 1681000   0.57783866   -9.5391931    183.91061  0.009117123 0.0076398727         3961 
 1682000   0.58606764    -9.555024    183.60113 0.0090963701 0.0076319754         3963 
 1683000   0.59447568    -9.550261     183.7439 0.0090980342 0.0076240918         3966 
 1684000   0.57489039   -9.5354794    183.94817 0.0091027401 0.0076162208         3950 
 1685000   0.58703385   -9.5431054     183.9573 0.0090977892 0.0076083603         3957 
 1686000   0.56857557    -9.549254    183.64044 0.0090767318 0.0076005069         3953 
 1687000   0.57210715   -9.5494053     183.9838 0.0090883124 0.0075926714         3947 
 1688000   0.57075973   -9.5272236    183.90875 0.0090792234 0.0075848494         3960 
 1689000   0.58004886   -9.5432256    184.07356 0.0090819793 0.0075770398         3956 
 1690000   0.56205459   -9.5525157    183.90716 0.0090684003 0.0075692381         3952 
 1691000   0.56390772   -9.5331279    183.98935 0.0090670879 0.0075614447         3958 
 1692000   0.57321943   -9.5395246    184.11969 0.0090681487  0.007553663         3953 
 1693000   0.58162386   -9.5204792    183.99511 0.0090566604 0.0075458951         3950 
 1694000   0.56507163   -9.5471592    183.78249 0.0090408542 0.0075381334         3966 
 1695000   0.58884076   -9.5572169     183.5838 0.0090257524 0.0075303825         3962 
 1696000    0.5756922   -9.5487342    184.15992 0.0090487383 0.0075226462         3949 
 1697000   0.58305569   -9.5566808     183.7757 0.0090245384 0.0075149211         3955 
 1698000   0.56365713   -9.5467439    183.97804 0.0090291539 0.0075072056         3963 
 1699000   0.57708315   -9.5474211    183.81284 0.0090157366 0.0074995048         3953 
 1700000   0.58561234   -9.5435777    183.93325 0.0090163357 0.0074918103         3959 
 1701000   0.58812929   -9.5597416    183.68326 0.0089987878 0.0074841288         3960 
 1702000   0.58867716   -9.5664265    183.73484 0.0089960261 0.0074764554         3951 
 1703000   0.57219415   -9.5489047    183.75066 0.0089915178 0.0074687897         3955 
 1704000   0.57270952    -9.565925    183.75561 0.0089864833 0.0074611403         3948 
 1705000   0.57640173   -9.5530388    183.62709 0.0089749311 0.0074534925         3956 
 1706000   0.58038248   -9.5547973    183.71513  0.008973971 0.0074458618         3963 
 1707000   0.57828242   -9.5465161    183.95502 0.0089804247 0.0074382433         3956 
 1708000    0.5837826   -9.5389728     184.1029 0.0089823817 0.0074306372         3956 
 1709000   0.56713565   -9.5502698    183.98716 0.0089714824 0.0074230425         3945 
 1710000   0.57045741   -9.5378174    183.94577 0.0089642189 0.0074154547         3960 
 1711000   0.57959973    -9.554835     183.6227 0.0089432446 0.0074078779         3966 
 1712000   0.57354845   -9.5409272    183.87798 0.0089504468 0.0074003098         3953 
 1713000   0.56340339   -9.5414094    183.95999 0.0089492116 0.0073927571         3957 
 1714000    0.5744607   -9.5437847    183.94054 0.0089430447 0.0073852134         3959 
 1715000   0.56708993   -9.5524684    183.69367 0.0089258344 0.0073776807         3961 
 1716000     0.570516   -9.5428773    183.88966 0.0089301508 0.0073701523         3959 
 1717000   0.57089984   -9.5674259    183.59796  0.008910792 0.0073626342         3960 
 1718000   0.57193325   -9.5640873    183.56799 0.0089041517 0.0073551274         3956 
 1719000   0.56076117   -9.5585678    183.86749 0.0089134907 0.0073476274         3960 
 1720000   0.57030575   -9.5581311    183.89784  0.008909779 0.0073401476         3956 
 1721000   0.57457638   -9.5573658    183.60724 0.0088905307 0.0073326761         3951 
 1722000   0.56054311   -9.5534712    183.66337 0.0088880841 0.0073252093         3958 
 1723000   0.56712802   -9.5520458    183.84063 0.0088914987 0.0073177524         3953 
 1724000   0.56237643   -9.5608076    183.82896 0.0088857772 0.0073103089         3960 
 1725000   0.56401948   -9.5726144    183.63022  0.008871025 0.0073028707         3956 
 1726000   0.56467196   -9.5608659    183.90062 0.0088789405 0.0072954406         3957 
 1727000   0.56035076   -9.5442551    183.86793 0.0088722222 0.0072880346         3944 
 1728000   0.55948674   -9.5607518    183.64476 0.0088563251 0.0072806286         3960 
 1729000   0.56901359   -9.5715011    183.44328 0.0088414922 0.0072732398         3947 
 1730000   0.55533345   -9.5691261    183.62795  0.008845277  0.007265858         3947 
 1731000   0.55477015   -9.5517443    183.73715 0.0088454243 0.0072584764         3958 
 1732000   0.56193202   -9.5623927    183.84539 0.0088455249 0.0072511073         3950 
 1733000   0.57426678   -9.5789148    183.61127  0.008829163 0.0072437555         3956 
 1734000   0.56433432   -9.5752393    183.71044 0.0088288369 0.0072364104         3958 
 1735000   0.56246664   -9.5801304    183.46099  0.008811767 0.0072290727         3963 
 1736000   0.56100469   -9.5693161    183.67335 0.0088168852 0.0072217538         3958 
 1737000    0.5710203   -9.5689619      183.818 0.0088187487 0.0072144409         3947 
 1738000   0.55866376   -9.5575307    183.51375 0.0087990864 0.0072071388         3957 
 1739000   0.55859897   -9.5615481    183.55421 0.0087959656 0.0071998425         3958 
 1740000   0.55580011   -9.5801096    183.48855 0.0087877656 0.0071925646         3953 
 1741000   0.55759193   -9.5762316    183.44498 0.0087806329 0.0071852903         3962 
 1742000    0.5475454   -9.5962864    183.40273 0.0087735708 0.0071780252         3952 
 1743000    0.5584119   -9.5814543    183.59584 0.0087777703 0.0071707677         3963 
 1744000   0.55488109   -9.5587679    183.57251 0.0087716223 0.0071635268         3951 
 1745000   0.55260941   -9.5746576    183.56189 0.0087660881 0.0071562985         3948 
 1746000   0.56203834   -9.6085767    183.54236 0.0087601357 0.0071490712         3972 
 1747000      0.54813   -9.5796496     183.5339 0.0087547175  0.007141861         3956 
 1748000   0.56052701   -9.5805282    183.68349 0.0087568405  0.007134658         3965 
 1749000   0.56698502   -9.5727841    183.77875 0.0087563728 0.0071274642         3949 
 1750000   0.56980259   -9.5765075    183.35667 0.0087312702 0.0071202796         3956 
 1751000   0.55180565   -9.5854929    183.51277 0.0087337126 0.0071131042         3968 
 1752000   0.55286468   -9.5630017      183.526 0.0087293571 0.0071059385         3955 
 1753000   0.54852845   -9.5752767    183.66608 0.0087310366 0.0070987843         3958 
 1754000   0.54439697   -9.5785964    183.55325  0.008720698 0.0070916453         3967 
 1755000   0.56014074   -9.5687851    183.64254 0.0087199686 0.0070845167         3958 
 1756000   0.55361904    -9.583288    183.73013 0.0087191597 0.0070773879         3961 
 1757000   0.55362821   -9.5681358    183.56275 0.0087062582 0.0070702777         3964 
 1758000   0.54893702   -9.5877967    183.30137  0.008688916 0.0070631743         3963 
 1759000   0.55446146   -9.5744511    183.58495 0.0086974111 0.0070560762         3957 
 1760000   0.55615332   -9.5727769    183.68911 0.0086974008 0.0070489897         3962 
 1761000   0.55698343   -9.5874361    183.79933 0.0086976779 0.0070419199         3961 
 1762000   0.56525959   -9.5944638    183.50408 0.0086787777 0.0070348544         3965 
 1763000   0.54405509   -9.5878904     183.6608 0.0086812631 0.0070277967         3950 
 1764000   0.53337975   -9.5710431    183.25791 0.0086573089 0.0070207464         3962 
 1765000   0.53500163   -9.5926288    183.51928 0.0086647441 0.0070137116         3957 
 1766000   0.55260686   -9.5626523    183.77506 0.0086719073 0.0070066858         3957 
 1767000   0.55582701   -9.5973428    183.47575 0.0086528841 0.0069996616         3955 
 1768000   0.54590624   -9.5875292    183.68528  0.008657866 0.0069926569         3959 
 1769000   0.54632268    -9.610216    183.23902 0.0086319494 0.0069856523         3970 
 1770000   0.54934405   -9.5914352    183.30412 0.0086301373 0.0069786637         3957 
 1771000   0.53723051   -9.5822683    183.42257 0.0086308382 0.0069716812         3959 
 1772000   0.53685876   -9.6040192    183.25916 0.0086182824 0.0069647064         3964 
 1773000   0.54208996   -9.5944031    183.35856 0.0086180936 0.0069577375         3962 
 1774000   0.54624818   -9.5806371    183.48754 0.0086192943 0.0069507821         3952 
 1775000   0.53984504   -9.5739325    183.48889 0.0086145021 0.0069438353         3966 
 1776000   0.53694776    -9.608682    183.54842 0.0086124448 0.0069368947         3958 
 1777000   0.55868763   -9.5982495     183.5122 0.0086058994 0.0069299713         3958 
 1778000   0.54022679   -9.5756756    183.62006 0.0086061144   0.00692306         3949 
 1779000   0.53775927   -9.5928925     183.4475 0.0085931936 0.0069161508         3968 
 1780000   0.52984744   -9.6047386    183.36947 0.0085847132 0.0069092475         3964 
 1781000   0.52803317   -9.6086284    183.23186 0.0085734541 0.0069023583         3959 
 1782000   0.55058643   -9.6006937    183.46909 0.0085797367 0.0068954796         3960 
 1783000   0.53857394   -9.5964734    183.68567 0.0085850472 0.0068886152         3963 
 1784000   0.55467177   -9.5723874    183.32037  0.008563171 0.0068817566         3958 
 1785000   0.54751946   -9.6070576    183.29876 0.0085573651 0.0068749095         3958 
 1786000   0.53707034    -9.605901    183.44057 0.0085591904  0.006868068         3965 
 1787000   0.53640391   -9.5992318    183.73539 0.0085681493 0.0068612354         3962 
 1788000   0.54902473   -9.6022177     183.2904 0.0085426177   0.00685441         3967 
 1789000    0.5283253     -9.59598    183.25329 0.0085361137 0.0068475926         3959 
 1790000   0.54902516   -9.6032061    183.13537 0.0085258554 0.0068407882         3963 
 1791000   0.53435691     -9.61215    183.30032 0.0085287696 0.0068339928         3966 
 1792000   0.53646817   -9.5908507    183.24302 0.0085213458 0.0068272127         3953 
 1793000   0.54693984   -9.6081354    183.20991 0.0085150545 0.0068204333         3955 
 1794000   0.53125559   -9.6055372    183.30526 0.0085147373 0.0068136674         3961 
 1795000   0.52393281   -9.6013352    183.42523 0.0085155632  0.006806907         3967 
 1796000   0.53093836   -9.6048743    183.47995 0.0085133608  0.006800156         3947 
 1797000   0.52333942   -9.6098876    183.36876 0.0085034669 0.0067934172         3967 
 1798000   0.53116879   -9.6084884    183.40381 0.0085003617 0.0067866871         3958 
 1799000   0.53469546   -9.6062325    183.25519 0.0084887526 0.0067799596         3962 
 1800000   0.52842825   -9.6126574    183.25885 0.0084842061 0.0067732451         3967 
 1801000   0.52784652   -9.6096048    183.03378 0.0084690812 0.0067665372         3966 
 1802000   0.53132101   -9.6040552    183.33094 0.0084781235   0.00675984         3968 
 1803000   0.52893532   -9.6083032    183.27646 0.0084709033 0.0067531551         3957 
 1804000   0.53050371   -9.6225421    183.45698 0.0084745465  0.006746479         3958 
 1805000   0.51939004   -9.6208227     183.4156 0.0084679409 0.0067398119         3961 
 1806000   0.54242301   -9.6241974    183.17522 0.0084521604 0.0067331526         3954 
 1807000   0.53466802   -9.6272477    183.29631 0.0084530672 0.0067265025         3953 
 1808000    0.5198981    -9.597255    183.39406 0.0084528975 0.0067198586         3958 
 1809000   0.53832328   -9.6176238    183.47496 0.0084519514 0.0067132249         3951 
 1810000   0.54226738   -9.6187629    183.25239 0.0084370346 0.0067066015         3956 
 1811000   0.53843005   -9.6126911    183.22638 0.0084311789 0.0066999847         3965 
 1812000   0.52541261   -9.6024194     182.9525 0.0084139301  0.006693379         3967 
 1813000   0.52836661   -9.6011302    183.30767 0.0084256145 0.0066867821         3961 
 1814000   0.52152571   -9.6215377    183.16339 0.0084143416 0.0066801931         3952 
 1815000   0.52298229   -9.6131177    183.70611  0.008434624 0.0066736197         3962 
 1816000   0.53059114   -9.6233647    183.15531 0.0084047038 0.0066670498         3958 
 1817000    0.5213368   -9.6286516    183.39881 0.0084112459 0.0066604833         3960 
 1818000   0.52237975   -9.6148282    183.14416 0.0083949467 0.0066539306         3959 
 1819000   0.52547334   -9.6072506    183.42724 0.0084033002 0.0066473803         3958 
 1820000   0.52231147   -9.6072062    183.14655 0.0083858312 0.0066408442         3958 
 1821000   0.52348866   -9.6070344    183.33124 0.0083896778 0.0066343129         3955 
 1822000    0.5145134   -9.6201766    183.32389 0.0083847369 0.0066277934         3951 
 1823000   0.52183145   -9.6242445    183.24498 0.0083765303 0.0066212807         3962 
 1824000   0.52421201   -9.6166568    183.22094 0.0083708396 0.0066147734         3953 
 1825000   0.52758258   -9.6280307     183.0712 0.0083594155 0.0066082784         3964 
 1826000   0.51979135   -9.6240334    183.29613 0.0083651028 0.0066017924         3962 
 1827000   0.52921027   -9.6259544    183.17324  0.008354919 0.0065953192         3964 
 1828000   0.51773481   -9.6210718     183.1785 0.0083505881  0.006588854         3972 
 1829000   0.51868215   -9.6092056    183.19644 0.0083468396 0.0065823973         3943 
 1830000   0.52582585   -9.6319317    183.21498 0.0083431229  0.006575949         3963 
 1831000   0.52695948   -9.6037257    183.10916 0.0083337501 0.0065695059         3967 
 1832000   0.51478096   -9.6291085    183.11819  0.008329612 0.0065630682         3966 
 1833000   0.51657249   -9.6211819    183.36985  0.008336509 0.0065566483         3963 
 1834000   0.51517401   -9.6355019    183.19552 0.0083240422 0.0065502337         3962 
 1835000   0.51937923   -9.6209065    183.17501 0.0083185745 0.0065438232         3971 
 1836000   0.52852829   -9.6274416    183.31457  0.008320378 0.0065374227         3961 
 1837000   0.52324799    -9.648249    183.09935 0.0083060857 0.0065310315         3960 
 1838000   0.52593176    -9.631124    183.39321   0.00831489 0.0065246509         3961 
 1839000   0.52055079   -9.6086355    182.99139 0.0082921599 0.0065182773         3964 
 1840000   0.51066728   -9.6295113    183.15829 0.0082952126 0.0065119145         3964 
 1841000   0.52182132   -9.6271783    183.15096 0.0082903747 0.0065055571         3956 
 1842000   0.51401928   -9.6291749    182.97737 0.0082780208 0.0064992074         3957 
 1843000   0.52436091    -9.622531    183.31497 0.0082887942 0.0064928672         3957 
 1844000   0.52476253   -9.6410732    183.10128 0.0082746419  0.006486536         3963 
 1845000   0.52200244   -9.6529954    183.27568 0.0082780344 0.0064802136         3961 
 1846000   0.52600307   -9.6285284     183.0467 0.0082632134 0.0064738948         3962 
 1847000   0.51554861   -9.6401439    183.12145 0.0082621119 0.0064675908         3955 
 1848000   0.52264548   -9.6152407    183.02039 0.0082530839  0.006461294         3959 
 1849000   0.52409446    -9.633119    183.10857 0.0082525946 0.0064550005         3957 
 1850000   0.50876761   -9.6414202    183.15014 0.0082500062 0.0064487148         3959 
 1851000   0.51342261   -9.6462896    183.24611 0.0082498699 0.0064424403         3959 
 1852000   0.51671823   -9.6379284    182.78183 0.0082245243 0.0064361709         3965 
 1853000   0.50692748   -9.6487421    182.93673  0.008227052 0.0064299133         3962 
 1854000   0.50529825   -9.6500418    182.67243 0.0082107347 0.0064236608         3955 
 1855000   0.50736615   -9.6482404    182.95828 0.0082191502 0.0064174178         3967 
 1856000   0.50668154   -9.6455158    182.95883 0.0082147463 0.0064111857         3964 
 1857000   0.51838531   -9.6412877    183.22504 0.0082222691 0.0064049621         3958 
 1858000   0.50696623   -9.6537719    183.06557 0.0082106912 0.0063987433         3958 
 1859000   0.50794904   -9.6491377    182.69298 0.0081895722 0.0063925287         3956 
 1860000   0.51034721   -9.6452853    183.11925 0.0082042673 0.0063863186         3956 
 1861000   0.51865806   -9.6530501    183.09418 0.0081987365 0.0063801174         3957 
 1862000   0.51359161   -9.6596332    183.31666   0.00820429 0.0063739271         3964 
 1863000   0.50492292   -9.6385995    182.82057 0.0081776959 0.0063677437         3959 
 1864000   0.50116631   -9.6442197    182.86441 0.0081752687 0.0063615695         3959 
 1865000   0.51884314   -9.6432484    182.77654 0.0081669588 0.0063554032         3957 
 1866000    0.5096258   -9.6679524    182.79811 0.0081635456 0.0063492448         3969 
 1867000   0.51264854   -9.6579674    182.74704 0.0081568936 0.0063430895         3956 
 1868000   0.51282689   -9.6495857    182.87767 0.0081583544 0.0063369515         3963 
 1869000     0.499074   -9.6601304    183.04417 0.0081614131  0.006330816         3956 
 1870000   0.50798099   -9.6522566    183.07391 0.0081583739 0.0063246915         3965 
 1871000   0.50503043   -9.6588549    182.81291 0.0081423884 0.0063185723         3971 
 1872000   0.50937102   -9.6671021    183.04826  0.008148516 0.0063124631         3962 
 1873000   0.50829876   -9.6649252    182.85538 0.0081355835 0.0063063633         3959 
 1874000   0.50195416    -9.637126    183.01695 0.0081384274 0.0063002698         3964 
 1875000   0.50435985   -9.6552344    182.69602 0.0081198233 0.0062941861         3954 
 1876000   0.51058222   -9.6722861    182.85129 0.0081223921 0.0062881112         3960 
 1877000   0.50958875   -9.6460061    182.82724 0.0081169968 0.0062820358         3960 
 1878000   0.50140494   -9.6682051    183.12901 0.0081260652 0.0062759789         3958 
 1879000    0.4971971   -9.6540031     182.9694  0.008114662   0.00626993         3957 
 1880000    0.5072203   -9.6476054    183.01748  0.008112477 0.0062638856         3959 
 1881000   0.49856817   -9.6752228    182.82912 0.0080998193 0.0062578468         3962 
 1882000   0.51337821   -9.6676224    182.83662 0.0080958476 0.0062518157         3962 
 1883000   0.49511493   -9.6600296    182.76219 0.0080882543 0.0062457895         3964 
 1884000   0.49692575   -9.6642724    182.86847 0.0080886621 0.0062397742         3965 
 1885000   0.51278485   -9.6712676    182.92763 0.0080869865 0.0062337644         3961 
 1886000   0.50392288   -9.6520359    182.89371 0.0080811996 0.0062277627         3965 
 1887000   0.49696709   -9.6471376    182.82762 0.0080739982 0.0062217752         3960 
 1888000   0.50037001   -9.6611719    182.88513 0.0080722602 0.0062157953         3971 
 1889000   0.51275518   -9.6655452    182.50057 0.0080510223 0.0062098209         3961 
 1890000   0.50028818    -9.664249    182.77456 0.0080588429 0.0062038543         3968 
 1891000   0.50521935   -9.6559855    182.75138 0.0080535599 0.0061978965         3966 
 1892000   0.49531521    -9.667511    182.77732 0.0080504457 0.0061919441         3961 
 1893000   0.49128882   -9.6633024    182.90285 0.0080517193 0.0061859971         3964 
 1894000   0.50208164   -9.6701264     182.8979 0.0080472499 0.0061800599         3965 
 1895000   0.49272482   -9.6412893    182.89029  0.008042669 0.0061741273         3962 
 1896000   0.49605037   -9.6629062     182.6413 0.0080274834 0.0061682067         3960 
 1897000   0.48630149   -9.6482958    183.00375 0.0080391737 0.0061622968         3955 
 1898000   0.49363444   -9.6728494    182.75827 0.0080241599  0.006156391         3963 
 1899000   0.49895243   -9.6665925    182.70069 0.0080174079  0.006150496         3967 
 1900000   0.48590188   -9.6788768    182.96908 0.0080249597 0.0061446042         3968 
 1901000    0.4932591   -9.6614096    182.83395 0.0080148147 0.0061387239         3960 
 1902000   0.49764362   -9.6782021    182.74105 0.0080065306 0.0061328489         3964 
 1903000   0.48286137    -9.660641    183.07085 0.0080167654 0.0061269789         3967 
 1904000   0.48448071   -9.6670671    182.81557 0.0080013818 0.0061211146         3963 
 1905000   0.50211682   -9.6616444    183.02067 0.0080061535 0.0061152634         3963 
 1906000   0.47168536   -9.6598931    182.85254 0.0079946023 0.0061094155         3965 
 1907000   0.49812453   -9.6545361    182.74746  0.007985818 0.0061035787         3948 
 1908000   0.48901508   -9.6816285    182.25608 0.0079601713 0.0060977535         3965 
 1909000   0.49368382   -9.6878014    182.71286 0.0079759412 0.0060919283         3972 
 1910000   0.48483653   -9.6696777    182.68466 0.0079705351 0.0060861168         3961 
 1911000   0.48330012   -9.6787405    182.83531 0.0079729333 0.0060803143         3964 
 1912000   0.48794394   -9.6901529    182.68238  0.007962098  0.006074515         3965 
 1913000   0.48792492    -9.696164     182.4522  0.007947909  0.006068722         3973 
 1914000    0.4790271   -9.6982174    182.66617 0.0079530725  0.006062939         3964 
 1915000   0.48446072    -9.686805    182.88023 0.0079582347 0.0060571608         3964 
 1916000   0.48401428   -9.6684345    182.73456 0.0079477453 0.0060513885         3969 
 1917000   0.49114578   -9.6778508    182.77612 0.0079454059 0.0060456286         3955 
 1918000   0.48845417   -9.6855971    182.58278 0.0079328633 0.0060398709         3952 
 1919000   0.49282793    -9.694255    182.53604 0.0079266996 0.0060341234         3958 
 1920000   0.49137639   -9.6914616    182.58157 0.0079245474 0.0060283871         3963 
 1921000   0.48988253   -9.6922893    182.76083 0.0079281986 0.0060226583         3962 
 1922000   0.48972165   -9.6892367    182.73176 0.0079228129 0.0060169369         3963 
 1923000   0.48954538   -9.6806891    182.77407 0.0079205266 0.0060112208         3965 
 1924000   0.48462784   -9.6627189    182.63881 0.0079105512 0.0060055136         3947 
 1925000   0.48204931   -9.6809881    182.55313 0.0079027327 0.0059998114         3959 
 1926000   0.49023841   -9.6913493    182.48219 0.0078955604 0.0059941188         3952 
 1927000   0.48452401   -9.6936124    182.36912 0.0078865731  0.005988431         3960 
 1928000   0.49355373   -9.6752123    182.66904 0.0078954462 0.0059827509         3959 
 1929000   0.48935664   -9.6757089    183.00539 0.0079058835 0.0059770785         3968 
 1930000    0.4939882   -9.6909715    182.65722 0.0078867541 0.0059714137         3963 
 1931000   0.48367288   -9.6591001    182.83605 0.0078903871 0.0059657578         3963 
 1932000   0.48744545   -9.7098561    182.59528  0.007875918 0.0059601062         3959 
 1933000   0.47668798   -9.6866285    182.46795 0.0078663541 0.0059544618         3965 
 1934000   0.47737951   -9.6717496    182.43758 0.0078609779 0.0059488242         3955 
 1935000   0.48635868    -9.702953    182.36083 0.0078536102 0.0059431956         3968 
 1936000   0.47636145   -9.6894588    182.51335 0.0078561189 0.0059375734         3968 
 1937000   0.46623144   -9.6847561    182.75729 0.0078625577 0.0059319591         3964 
 1938000   0.47648905    -9.696236     182.3931 0.0078428406 0.0059263492         3962 
 1939000    0.4869456   -9.6847825    182.63088 0.0078490152 0.0059207458         3953 
 1940000   0.47633358   -9.6903016    182.51672 0.0078400654 0.0059151554         3965 
 1941000   0.47618801   -9.6927156    182.66012 0.0078421828 0.0059095756         3965 
 1942000   0.47591998   -9.7041502    182.47885 0.0078303658 0.0059039972         3958 
 1943000   0.47945565    -9.697274    182.58617  0.007830939 0.0058984288         3963 
 1944000   0.47550353   -9.6982819    182.60938 0.0078279054 0.0058928611         3963 
 1945000   0.48138008   -9.7017001    182.75764  0.007830233 0.0058873018         3967 
 1946000   0.47739679   -9.6808767    182.48358 0.0078144732 0.0058817523         3961 
 1947000   0.47292726   -9.6983254    182.37853 0.0078059634 0.0058762081         3968 
 1948000   0.47807439    -9.705883    182.57786 0.0078104833 0.0058706741         3970 
 1949000    0.4676387   -9.6923315     182.5313  0.007804485 0.0058651426         3972 
 1950000   0.47027223    -9.712524    182.59213 0.0078030825  0.005859618         3958 
 1951000   0.46747841   -9.7025883    182.48126 0.0077943474 0.0058540998         3958 
 1952000   0.46860213   -9.6900919    182.45605 0.0077892781 0.0058485896         3964 
 1953000   0.46698687   -9.7034992    182.71463 0.0077963233 0.0058430871         3962 
 1954000   0.46777241   -9.6981066    182.66719   0.00779031 0.0058375963         3958 
 1955000    0.4635609   -9.6961866    182.30573 0.0077709177 0.0058321106         3955 
 1956000   0.47016262   -9.7085103    182.42284  0.007771934 0.0058266297         3971 
 1957000   0.47767605   -9.7090028    182.28627 0.0077621473 0.0058211558         3968 
 1958000   0.46862116   -9.7029744    182.48013 0.0077664341 0.0058156903         3963 
 1959000   0.46438559   -9.6918462    182.34639 0.0077567801 0.0058102379         3963 
 1960000   0.46422509   -9.7119766    182.31244 0.0077513792  0.005804787         3970 
 1961000   0.46746054   -9.6957168    182.36936 0.0077498452 0.0057993402         3964 
 1962000   0.46270263   -9.6922733    182.75735 0.0077623747 0.0057939038         3973 
 1963000   0.47418868   -9.6952236     182.6576 0.0077541858 0.0057884697         3959 
 1964000   0.46372404   -9.7115028     182.3895 0.0077388618 0.0057830415         3960 
 1965000   0.47367353   -9.6951739    182.28093 0.0077303194 0.0057776211         3963 
 1966000   0.47023561   -9.7183806     182.2529 0.0077251993 0.0057722102         3971 
 1967000   0.45601917   -9.6996914    182.53944 0.0077334111  0.005766809         3970 
 1968000   0.46105213    -9.720649     182.5705  0.007730797 0.0057614095         3960 
 1969000   0.47220264   -9.7140088    182.42113  0.007720549 0.0057560211         3961 
 1970000   0.46407806    -9.721574    182.33697   0.00771307 0.0057506392         3956 
 1971000   0.46584896   -9.7048422    182.39267 0.0077115115 0.0057452624         3955 
 1972000   0.46749403   -9.7021515    182.17511 0.0076984071 0.0057398921         3963 
 1973000   0.46073849   -9.6926626    182.72106 0.0077175648 0.0057345293         3957 
 1974000   0.46675264   -9.7253704    182.24125 0.0076933998 0.0057291771         3963 
 1975000   0.47399822   -9.7058478    182.24458 0.0076896447 0.0057238256         3958 
 1976000   0.47522858   -9.7013496    182.54323  0.007698348 0.0057184863         3965 
 1977000   0.46241693   -9.6902163    182.41435 0.0076890217 0.0057131499         3968 
 1978000   0.46434273   -9.6933941    182.40641 0.0076847998 0.0057078249         3956 
 1979000    0.4521659   -9.6965189    182.55642 0.0076872334 0.0057025009         3959 
 1980000   0.46010249   -9.7086273    182.36252 0.0076751902 0.0056971875         3963 
 1981000   0.48241453   -9.7145497    182.41854 0.0076736723 0.0056918787         3968 
 1982000   0.45757344   -9.7140465    182.25189  0.007662794 0.0056865767         3970 
 1983000    0.4540363   -9.7226103    182.22813 0.0076579312  0.005681279         3961 
 1984000   0.45564732   -9.7194561    182.47847 0.0076645862 0.0056759931         3964 
 1985000   0.45054979   -9.7172973     182.2355 0.0076505247 0.0056707124         3968 
 1986000   0.46109443   -9.7122082     182.6696 0.0076648877 0.0056654395         3969 
 1987000    0.4616875    -9.721266    182.43901 0.0076513591 0.0056601713         3957 
 1988000     0.459059   -9.7150808    182.20181 0.0076375676 0.0056549108         3960 
 1989000   0.46542809   -9.7285559    182.44068 0.0076437355 0.0056496581         3974 
 1990000   0.45332474   -9.7082492     182.3071 0.0076343008 0.0056444098         3972 
 1991000   0.45948025   -9.7206715    182.46267 0.0076369777 0.0056391683         3961 
 1992000   0.45648967   -9.7218903    182.41978 0.0076313497 0.0056339339         3960 
 1993000   0.46445842   -9.7242736    182.59794 0.0076349699  0.005628705         3969 
 1994000   0.46084897   -9.7208819    182.40293 0.0076229912 0.0056234843         3962 
 1995000   0.45252408   -9.7224557    182.45412 0.0076213084 0.0056182698         3959 
 1996000   0.45634581    -9.741045    182.22176  0.007607789 0.0056130623         3966 
 1997000   0.46334806    -9.727869    182.27203 0.0076060771 0.0056078585         3962 
 1998000   0.45032307   -9.7286936    182.47284 0.0076106456 0.0056026626         3968 
 1999000   0.44677964   -9.7107568     182.2519  0.007597628 0.0055974707         3962 
 2000000   0.45311645   -9.7354325    182.09865 0.0075874438 0.0055922871         3968 
 2001000   0.45634022   -9.7306317    182.38751 0.0075956815  0.005587111         3959 
 2002000   0.45166215   -9.7245243    182.23529 0.0075855514 0.0055819398         3961 
 2003000   0.44998597   -9.7247023    182.26547 0.0075830199 0.0055767813         3964 
 2004000   0.44546807   -9.7263112    182.29267 0.0075803671 0.0055716283         3950 
 2005000   0.45639955    -9.734413    182.25421 0.0075749881 0.0055664809         3960 
 2006000   0.46611017   -9.7294239    182.18833  0.007568475 0.0055613416         3964 
 2007000   0.44498522   -9.7189052    182.51377 0.0075782165  0.005556205         3962 
 2008000   0.44981933   -9.7261776    182.14451 0.0075591183 0.0055510762         3970 
 2009000   0.44421409   -9.7276919    182.17358 0.0075565614 0.0055459523         3961 
 2010000   0.44829494   -9.7282695    182.27666 0.0075570756 0.0055408353         3962 
 2011000    0.4600855   -9.7500799    182.10858 0.0075463524  0.005535728         3963 
 2012000   0.45692434    -9.735795    182.00915 0.0075384837 0.0055306258         3960 
Loop time of 5250.82 on 48 procs for 2000000 steps with 4000 atoms

Performance: 65818.339 tau/day, 380.893 timesteps/s
99.4% CPU use with 48 MPI tasks x no OpenMP threads

MPI task timing breakdown:
Section |  min time  |  avg time  |  max time  |%varavg| %total
---------------------------------------------------------------
Pair    | 384.2      | 427.96     | 460.23     | 100.0 |  8.15
Neigh   | 36.59      | 38.289     | 39.301     |  10.7 |  0.73
Comm    | 342.23     | 377.35     | 425.91     | 113.2 |  7.19
Output  | 5.7563     | 5.7583     | 5.809      |   0.3 |  0.11
Modify  | 4332.6     | 4351.4     | 4374.3     |  13.8 | 82.87
Other   |            | 50.09      |            |       |  0.95

Nlocal:        83.3333 ave          88 max          77 min
Histogram: 2 3 0 6 5 9 7 8 1 7
Nghost:        2426.15 ave        2438 max        2406 min
Histogram: 1 0 1 4 4 8 12 11 4 3
Neighs:        16805.0 ave       19353 max       14818 min
Histogram: 3 9 5 5 4 8 5 4 3 2
FullNghs:      33609.7 ave       35788 max       30945 min
Histogram: 3 2 3 4 9 4 13 1 4 5

Total # of neighbors = 1613265
Ave neighs/atom = 403.31625
Neighbor list builds = 106402
Dangerous builds = 0

#clear
#
#next RN
#
#jump SELF
Total wall time: 1:27:34
