
units lj                  # Use reduced LJ style units
atom_style atomic         # Uncharged point particles
atom_modify map hash      # Needed for indexing of clusters etc
                          # Used to be able to find where atoms are in relation to each other.

lattice fcc 1.0 spacing 1 1 1
Lattice spacing in x,y,z = 1.5874011 1.5874011 1.5874011
region box block 0 10 0 10 0 10 units lattice
create_box 2 box
Created orthogonal box = (0.0000000 0.0000000 0.0000000) to (15.874011 15.874011 15.874011)
  3 by 4 by 4 MPI processor grid
create_atoms 1 box
Created 4000 atoms
  using lattice units in orthogonal box = (0.0000000 0.0000000 0.0000000) to (15.874011 15.874011 15.874011)
  create_atoms CPU = 0.003 seconds
set type 1 type/fraction 2 0.37 78393
Setting atom values ...
  1496 settings made for type/fraction
mass 1 1.0
mass 2 1.0
pair_style lj/cut  3.5
pair_modify tail  yes
pair_coeff 1  1  1.0  1.0   # Intearaction between 1 and 1 set with epsilon = 1 and sigma = 1
pair_coeff 1  2  1.5  0.8
pair_coeff 2  2  0.5  0.88

write_data data.0
System init for write_data ...
Neighbor list info ...
  update every 1 steps, delay 10 steps, check yes
  max neighbors/atom: 2000, page size: 100000
  master list distance cutoff = 3.8
  ghost atom cutoff = 3.8
  binsize = 1.9, bins = 9 9 9
  1 neighbor lists, perpetual/occasional/extra = 1 0 0
  (1) pair lj/cut, perpetual
      attributes: half, newton on
      pair build: half/bin/atomonly/newton
      stencil: half/bin/3d
      bin: standard
WARNING: Not all mixed pair coeffs generated from mixing. Use write_data with 'pair ij' option to store all pair coeffs. (../write_data.cpp:312)


#############################
#   M E L T   S Y S T E M   #
#############################

velocity all create 2.4 6583654 mom yes dist gaussian # Assign velocities
                                                    # Temperature 2.4, random number seed, zero linear momentum
                                                                                # Gaussian distribution

timestep 0.002   # simulation timestep
thermo 1000       # output thermodynamic data every 1000 steps bf 100

# Define a fix  in this case with index 1 applied to all
# particles in the simulation. This fix is for simulations
# in the anisotropic NPT ensemble. Note that we use the MTK
# correction.
fix 1 all npt temp 2.4 2.4 0.1 iso 5.68 5.68 0.5 mtk yes tchain 5 pchain 5 # Use NPT ensemble
                                                                         # Set temperature and pressure and damping
                                                                         # Numbers of thermostats in chain and in barostat
run 10000          # run for 10000 steps
Per MPI rank memory allocation (min/avg/max) = 3.642 | 3.644 | 3.648 Mbytes
Step Temp E_pair E_mol TotEng Press Volume 
       0          2.4   -6.0326183            0   -2.4335183   -4.1254262         4000 
    1000    2.4257767   -5.0313331            0   -1.3935777    5.5671098    3978.6275 
    2000     2.400074   -5.0618091            0   -1.4625981    5.6478321    3956.3844 
    3000    2.4308242   -5.0046959            0   -1.3593711    6.0153598    3951.9845 
    4000    2.4082138   -5.0653055            0   -1.4538878    5.4543063    3975.0331 
    5000     2.446384   -4.9846193            0   -1.3159607    5.6776422     3991.792 
    6000     2.453214   -5.0888929            0   -1.4099919    6.0362678    3915.1007 
    7000    2.4044307   -5.0100397            0   -1.4042953    5.5199624     3989.513 
    8000    2.3891506   -5.0051975            0   -1.4223675    5.7007459    3968.1584 
    9000    2.3950776   -4.9967574            0   -1.4050391    5.6972171    3982.8005 
   10000     2.373237   -5.0244756            0   -1.4655101    5.7613764    3950.0071 
Loop time of 2.46439 on 48 procs for 10000 steps with 4000 atoms

Performance: 701186.939 tau/day, 4057.795 timesteps/s
99.6% CPU use with 48 MPI tasks x no OpenMP threads

MPI task timing breakdown:
Section |  min time  |  avg time  |  max time  |%varavg| %total
---------------------------------------------------------------
Pair    | 1.0823     | 1.1575     | 1.2748     |   3.5 | 46.97
Neigh   | 0.20731    | 0.21585    | 0.23874    |   1.2 |  8.76
Comm    | 0.72437    | 0.84162    | 0.93195    |   4.9 | 34.15
Output  | 0.00023787 | 0.00024306 | 0.00031193 |   0.0 |  0.01
Modify  | 0.19704    | 0.23444    | 0.27091    |   5.0 |  9.51
Other   |            | 0.01475    |            |       |  0.60

Nlocal:        83.3333 ave          93 max          75 min
Histogram: 4 3 4 6 6 16 3 2 3 1
Nghost:        1656.33 ave        1680 max        1625 min
Histogram: 1 2 2 3 12 6 8 6 5 3
Neighs:        9669.17 ave       11041 max        8563 min
Histogram: 5 4 1 10 11 7 3 3 3 1

Total # of neighbors = 464120
Ave neighs/atom = 116.03000
Neighbor list builds = 911
Dangerous builds = 242

# Equilibrate just above the melting temperature to avoid step fn in T

fix 1 all npt temp 1.25 1.25 0.1 iso 5.68 5.68 0.5 mtk yes tchain 5 pchain 5
run 2000
Per MPI rank memory allocation (min/avg/max) = 3.643 | 3.645 | 3.649 Mbytes
Step Temp E_pair E_mol TotEng Press Volume 
   10000     2.373237   -5.0244756            0   -1.4655101    5.7613764    3950.0071 
   11000    1.2619987   -7.0330716            0   -5.1405469    5.3431054    3163.4254 
   12000    1.2487016   -7.0232634            0   -5.1506793    5.9859204    3138.7284 
Loop time of 0.585065 on 48 procs for 2000 steps with 4000 atoms

Performance: 590703.465 tau/day, 3418.423 timesteps/s
99.6% CPU use with 48 MPI tasks x no OpenMP threads

MPI task timing breakdown:
Section |  min time  |  avg time  |  max time  |%varavg| %total
---------------------------------------------------------------
Pair    | 0.25848    | 0.28415    | 0.30626    |   1.9 | 48.57
Neigh   | 0.039265   | 0.041101   | 0.042937   |   0.4 |  7.03
Comm    | 0.19038    | 0.21097    | 0.23802    |   2.4 | 36.06
Output  | 5.087e-05  | 5.2107e-05 | 6.8312e-05 |   0.0 |  0.01
Modify  | 0.038104   | 0.044199   | 0.050088   |   1.8 |  7.55
Other   |            | 0.004595   |            |       |  0.79

Nlocal:        83.3333 ave          90 max          77 min
Histogram: 5 1 3 9 9 2 11 3 3 2
Nghost:        1932.27 ave        1955 max        1906 min
Histogram: 3 1 3 7 5 8 8 8 3 2
Neighs:        12178.7 ave       13472 max       10749 min
Histogram: 2 2 8 4 6 6 5 6 7 2

Total # of neighbors = 584577
Ave neighs/atom = 146.14425
Neighbor list builds = 144
Dangerous builds = 9

#############################
# L I N E A R  Q U E N C H  #
#############################

# Define solid atoms. This closely follows ten Wolde  Ruiz-Montero and Frenkel  Faraday Discuss  1996  104  93-110
# Compute components of the per-atom q6 vector
compute q6 all orientorder/atom degrees 1 6 components 6 nnn NULL cutoff 1.3 # compute the Q6 parameter.
                                                                             # Use all neighbours within 1.3 unit cell.

# get number of connections
compute coord_number all coord/atom orientorder q6 0.5

# An atom is solid if it has 8 or more connections (of a possible 14)
variable is_solid atom c_coord_number>=8
group solid dynamic all var is_solid    # Must be dynamic to update
dynamic group solid defined

# do clustering
compute cluster solid cluster/atom 1.3 # Create a cluster where all atoms within are solid and max 1.3 units from another member

# define chunks one chunk per cluster
compute clus_chunks solid chunk/atom c_cluster nchunk every compress yes  # Says which atoms are in which chunk

# count the size of each chunk
compute size_chunks solid property/chunk clus_chunks count


# Find the maximum entry in the vector of chunk sizes
variable max_n equal max(c_size_chunks)


# Thermo style which includes this variable
# thermo_style custom step temp pe vol v_max_n

thermo ${N}  # Print the thermo information every 100 steps
thermo 1000  

# Reset the npt fix at a lower temperature (below freezing)
fix 1  all npt temp  ${temp} ${temp}  0.1  iso  5.68  5.68  0.5  mtk yes tchain  5  pchain  5
fix 1  all npt temp  0.45 ${temp}  0.1  iso  5.68  5.68  0.5  mtk yes tchain  5  pchain  5
fix 1  all npt temp  0.45 0.45  0.1  iso  5.68  5.68  0.5  mtk yes tchain  5  pchain  5

dump dmp2 all dcd ${N} traj.dcd
dump dmp2 all dcd 1000 traj.dcd


compute msd all msd com yes
variable twopoint equal c_msd[4]/6/(step*dt+1.0e-6)
fix 9 all vector 10 c_msd[4]
variable fit equal slope(f_9)/6/(10*dt)
thermo_style custom step temp pe c_msd[4] v_twopoint v_fit v_max_n

fix 1 all npt temp 1.25 ${temp} 0.1 iso 5.68 5.68 0.5 mtk yes tchain 5 pchain 5
fix 1 all npt temp 1.25 0.45 0.1 iso 5.68 5.68 0.5 mtk yes tchain 5 pchain 5
run 500000 # 5000000  # Run for this many steps
Neighbor list info ...
  update every 1 steps, delay 10 steps, check yes
  max neighbors/atom: 2000, page size: 100000
  master list distance cutoff = 3.8
  ghost atom cutoff = 3.8
  binsize = 1.9, bins = 8 8 8
  4 neighbor lists, perpetual/occasional/extra = 1 3 0
  (1) pair lj/cut, perpetual
      attributes: half, newton on
      pair build: half/bin/atomonly/newton
      stencil: half/bin/3d
      bin: standard
  (2) compute orientorder/atom, occasional
      attributes: full, newton on
      pair build: full/bin/atomonly
      stencil: full/bin/3d
      bin: standard
  (3) compute coord/atom, occasional
      attributes: full, newton on
      pair build: full/bin/atomonly
      stencil: full/bin/3d
      bin: standard
  (4) compute cluster/atom, occasional
      attributes: full, newton on
      pair build: full/bin/atomonly
      stencil: full/bin/3d
      bin: standard
Per MPI rank memory allocation (min/avg/max) = 9.820 | 9.826 | 9.830 Mbytes
Step Temp PotEng c_msd[4] v_twopoint v_fit v_max_n 
   12000    1.2487016   -7.0232634 1.8076748e-30 1.2553296e-32 8.3333333e+20            1 
   13000    1.2700866   -7.0334896   0.49944679 0.0032015818  0.040603341            2 
   14000    1.2488286   -7.0360114   0.95156642 0.0056640856  0.039499941            2 
   15000    1.2257104   -7.0200616    1.4330229  0.007961238  0.039175152            1 
   16000    1.2315326   -7.0529158    1.8902653 0.0098451315  0.038896837            1 
   17000     1.245278   -7.0524246     2.320197  0.011373515  0.038660072            2 
   18000    1.2235394    -7.097596    2.7171043  0.012579186   0.03826657            1 
   19000    1.2456459    -7.081944    3.1627251  0.013871601  0.037457501            1 
   20000     1.219153   -7.0843335    3.5835836  0.014931598    0.0368882            1 
   21000    1.2364877     -7.09931    4.0769411  0.016178337  0.036852641            1 
   22000    1.2572276   -7.1129503    4.4883721  0.017001409  0.036740542            2 
   23000    1.1986823   -7.0698807    4.8226994  0.017473548  0.036464912            2 
   24000    1.2361032   -7.0751044    5.2345387  0.018175481  0.036196791            1 
   25000    1.2569636   -7.0716173    5.6577935  0.018859311  0.035978928            1 
   26000    1.2225141   -7.1052756    6.1096611  0.019582247  0.035906696            2 
   27000    1.2292048    -7.122387     6.497369  0.020053608  0.035746109            1 
   28000    1.2328527   -7.0869951    6.8672269  0.020438175  0.035608441            3 
   29000    1.2173363    -7.096278    7.2253326   0.02076245  0.035377063            2 
   30000    1.2424644   -7.1217467    7.5803983  0.021056662  0.035090228            2 
   31000    1.2271827   -7.0999933    8.0263941  0.021576328  0.034827736            2 
   32000    1.1845704   -7.1249295     8.443218  0.021987547  0.034661781            2 
   33000    1.1974118   -7.1400079     8.737144  0.022063494  0.034505068            3 
   34000    1.2057422   -7.1273065    9.1140905  0.022338457  0.034284739            1 
   35000    1.2156118   -7.1143492    9.5629578  0.022768947  0.034098722            1 
   36000    1.2094619   -7.1284789    9.8709728  0.022849474  0.033918325            1 
   37000    1.2179502   -7.1568905    10.237148  0.023056639  0.033766468            1 
   38000    1.1894238   -7.1737905    10.625666  0.023301898  0.033642236            1 
   39000    1.2219231   -7.1307197    11.074329  0.023663096  0.033523591            1 
   40000     1.187921   -7.1515347    11.499497  0.023957284   0.03344873            1 
   41000    1.2012323   -7.1249712    11.924982  0.024237767  0.033424665            2 
   42000    1.2298639   -7.1319664    12.241242  0.024288179   0.03339153            2 
   43000    1.2065652   -7.1516361    12.617421  0.024452365  0.033320181            2 
   44000    1.1976524    -7.135136    13.005837  0.024632267  0.033268812            2 
   45000    1.1911041   -7.1855443    13.330226  0.024685603   0.03319723            1 
   46000    1.1951543    -7.181029    13.838378  0.025069526  0.033145663            1 
   47000    1.1851468   -7.1405113    14.245295  0.025257615  0.033125593            1 
   48000    1.2008048   -7.1800258    14.568923  0.025293269  0.033103063            1 
   49000     1.201418   -7.1435608    15.237497  0.025914111  0.033095358            1 
   50000    1.1766797    -7.199339    15.567945  0.025946574  0.033128715            2 
   51000    1.1971255   -7.1670127    16.037762  0.026205493  0.033162446            3 
   52000    1.1908062   -7.1593583    16.536424  0.026500679  0.033217504            5 
   53000    1.1981926   -7.2247139    16.792224  0.026402867   0.03325881            2 
   54000    1.1822396    -7.161409    17.329862  0.026743614  0.033313594            1 
   55000    1.1711358   -7.1807885    17.775194  0.026932112  0.033365521            1 
   56000    1.1831377   -7.1826198    18.267152  0.027183262  0.033438852            3 
   57000    1.1861148   -7.1905128    18.532914  0.027094903  0.033496506            1 
   58000    1.1632748   -7.2208882    18.867751  0.027108837  0.033521267            1 
   59000    1.1745307   -7.2220744    19.336541  0.027311498  0.033553619            3 
   60000    1.1636491   -7.2318816    19.860327  0.027583787  0.033599091            2 
   61000    1.1806248     -7.26265    20.215964  0.027617437  0.033639582            1 
   62000    1.1722907   -7.2377558    20.661297   0.02777056  0.033676364            1 
   63000    1.1433141   -7.2029174    21.035102  0.027824208  0.033708127            2 
   64000    1.1602362   -7.2243181    21.334902  0.027779821  0.033712403            1 
   65000    1.1659954   -7.2785636    21.747923  0.027881953  0.033721336            1 
   66000    1.1689269   -7.2504036    22.158477  0.027977874  0.033729104            3 
   67000     1.163748   -7.2554846    22.527637  0.028019449  0.033729377            1 
   68000    1.1346658   -7.2439146    22.867082  0.028023385  0.033723684            1 
   69000    1.1512307   -7.2495482    23.268768  0.028102377  0.033714075            1 
   70000     1.146845   -7.2630236    23.590615  0.028084066   0.03369843            1 
   71000    1.1562183   -7.2739655    24.035204  0.028210333  0.033683241            2 
   72000    1.1582772   -7.2799864    24.313857  0.028141039  0.033662129            2 
   73000    1.1577591   -7.2571388    24.574349   0.02805291  0.033627012            2 
   74000    1.1756808   -7.2655722    24.779084  0.027904374   0.03357749            1 
   75000    1.1513591   -7.2892733    25.214653  0.028016281  0.033518015            3 
   76000    1.1407099   -7.2698945    25.558498  0.028024669  0.033466247            2 
   77000    1.1499082   -7.2720019    26.000158  0.028138699   0.03341696            1 
   78000    1.1232298   -7.3239707    26.241406   0.02803569  0.033371385            3 
   79000    1.1288292   -7.2943194    26.605424  0.028064793   0.03331312            1 
   80000     1.161711   -7.2918183    26.897979  0.028018728  0.033253638            1 
   81000    1.1641466    -7.275803    27.175851  0.027958695  0.033185802            1 
   82000    1.1305786   -7.2893321    27.337483  0.027781995  0.033113511            2 
   83000    1.1272687   -7.3174983    27.684295  0.027795477  0.033024775            5 
   84000    1.1361604   -7.3126495    28.119008  0.027895841  0.032942279            1 
   85000    1.1439348    -7.280482    28.477427  0.027919046  0.032862317            2 
   86000    1.1428373   -7.3366993     28.68827  0.027798711  0.032784971            1 
   87000    1.1204972   -7.3245851    29.155346  0.027926576   0.03271385            1 
   88000     1.133042   -7.3058522    29.453703  0.027891764  0.032643835            2 
   89000    1.1534757   -7.3083583    29.735452  0.027842183  0.032563664            2 
   90000    1.1423267   -7.3239461    30.036652  0.027811715  0.032481583            2 
   91000    1.1241462   -7.3548357    30.221372  0.027675249  0.032403105            4 
   92000    1.1335488   -7.2891904    30.499458  0.027626321  0.032314175            1 
   93000    1.1072933    -7.348429    30.829156  0.027624692  0.032222324            2 
   94000    1.1436965   -7.3298226    31.295508  0.027744245   0.03213726            3 
   95000    1.1237051   -7.3530465    31.417382  0.027559107  0.032056933            1 
   96000    1.0972688   -7.3695666    31.790284  0.027595733  0.031972527            2 
   97000    1.1134797   -7.3547906    32.083791  0.027563394  0.031887442            1 
   98000    1.1196701   -7.3793549     32.35485  0.027512627  0.031797563            2 
   99000     1.133295   -7.3722148     32.55683  0.027404739  0.031710267            1 
  100000    1.0956032   -7.3635896    33.026487  0.027522073  0.031623798            2 
  101000    1.1184574   -7.3569865    33.290911  0.027467749  0.031542639            1 
  102000    1.1249236   -7.4253997    33.594668  0.027446624  0.031462422            2 
  103000    1.1130002   -7.3607002    34.146303  0.027626458  0.031386536            1 
  104000    1.1111632   -7.4070644    34.203083  0.027406316  0.031307281            2 
  105000    1.1054083   -7.3790746    34.527193  0.027402534  0.031225851            1 
  106000    1.1057287   -7.4103002    34.730938  0.027304197  0.031145893            2 
  107000    1.0878997   -7.4054914    34.857354  0.027147472  0.031061083            1 
  108000    1.1085099   -7.4178619    34.919886  0.026944356  0.030969587            3 
  109000     1.088628   -7.3954074    35.450501  0.027102829  0.030876223            2 
  110000    1.1153672   -7.4396641    35.803117  0.027123573  0.030789298            2 
  111000      1.10174   -7.4243727    35.901717  0.026953241  0.030704485            3 
  112000    1.0589137   -7.4406354    36.236862  0.026961951  0.030614975            3 
  113000     1.092769   -7.4126358    36.395807  0.026840565  0.030522526            2 
  114000    1.0999346   -7.4254594    36.675771  0.026809774  0.030431798            2 
  115000    1.1077736   -7.4207754    37.030494  0.026833691  0.030340243            1 
  116000    1.0876169   -7.4440256    37.357847  0.026837534  0.030252319            1 
  117000     1.093565   -7.4586869    37.463595  0.026683472  0.030164881            1 
  118000    1.0825577   -7.4760885    37.563685  0.026528026  0.030071002            1 
  119000    1.0492397     -7.43659    37.780554  0.026456971  0.029974716            1 
  120000    1.0873903   -7.5016157    38.018316  0.026401608  0.029880046            2 
  121000    1.0698049   -7.4557269    38.182426  0.026296436  0.029783106            2 
  122000    1.0653351   -7.4811556    38.352464  0.026197038  0.029682836            2 
  123000    1.0897063    -7.431386    38.576754  0.026136012    0.0295803            2 
  124000    1.0921638   -7.4298705     39.10926  0.026283105   0.02948345            2 
  125000    1.0744509   -7.4838745     39.14946   0.02609964  0.029387672            2 
  126000     1.067506   -7.4722695    39.578215  0.026176068  0.029293165            3 
  127000    1.0768879    -7.499064    39.673921  0.026032757  0.029198596            2 
  128000    1.0780304   -7.4825941    40.031683  0.026062294  0.029108543            7 
  129000    1.0505561    -7.470285    40.378774  0.026084479  0.029025408            1 
  130000    1.0545753    -7.481993    40.904154  0.026220611    0.0289453            7 
  131000    1.0504376   -7.5430666    40.998773  0.026080644  0.028867401            1 
  132000    1.0723551   -7.4736418    41.495249  0.026196495  0.028791344            1 
  133000    1.0524602   -7.4999496    41.695657  0.026125098  0.028717309            4 
  134000     1.063419   -7.4902016    42.018688  0.026131025  0.028645475       -1e+20 
  135000    1.0525702   -7.5121254    42.355199  0.026145184  0.028576774            2 
  136000     1.072533   -7.5006721    42.759226  0.026200506   0.02851072            2 
  137000     1.067019   -7.5208994    42.785391  0.026025177  0.028446398            4 
  138000    1.0586898   -7.5230958    42.866066  0.025885306  0.028375645            4 
  139000    1.0687309   -7.5042367    43.118147  0.025850208  0.028304353            3 
  140000    1.0542866   -7.5239208     43.25802  0.025748822  0.028230269            3 
  141000    1.0595339   -7.5413537    43.342279  0.025616004  0.028153863            2 
  142000    1.0328296   -7.5356459    43.555316  0.025560631  0.028076094            2 
  143000    1.0369782   -7.5500574    43.842739  0.025549382  0.027999452            2 
  144000    1.0183773    -7.568371    43.677375  0.025276258  0.027918639            2 
  145000    1.0432633   -7.5632632     44.09725  0.025343247  0.027836275            2 
  146000    1.0170267   -7.5614911    44.394766  0.025339478    0.0277549            1 
  147000    1.0342025    -7.522262    44.569488   0.02526615  0.027673865            3 
  148000    1.0217193   -7.5534145    44.579132  0.025100863  0.027592422            3 
  149000    1.0225447    -7.538445    44.996553  0.025165857  0.027510816            2 
  150000    1.0222845   -7.5304491    45.361874  0.025201041  0.027434076            2 
  151000    1.0272792   -7.5491746     45.64539  0.025190612   0.02735977            2 
  152000    1.0260866   -7.5720843    45.728285  0.025070332  0.027286397            1 
  153000     1.030022   -7.5865798    45.887807  0.024993359  0.027210493            1 
  154000    1.0159771   -7.5951656    45.919527  0.024848229  0.027130892            4 
  155000     1.034412   -7.5560013    46.080162  0.024774281  0.027048889            4 
  156000    1.0167903   -7.5804853    46.392414  0.024782272  0.026967154            2 
  157000    1.0086144   -7.5917919    46.491045  0.024676776  0.026887251            3 
  158000    1.0022952   -7.6025638    46.757947  0.024661364  0.026807343            2 
  159000    1.0119037    -7.571453    46.915363  0.024588765  0.026727111            2 
  160000    1.0316443   -7.5902752    47.023952  0.024491642   0.02664812            7 
  161000    1.0148867   -7.6192228       47.271  0.024467391   0.02656865            1 
  162000    1.0251687   -7.6140454    47.697801  0.024535906  0.026493182            3 
  163000    1.0024813   -7.6215604    47.740066  0.024406987  0.026418341            3 
  164000    1.0049026   -7.6327409    48.161044  0.024472075  0.026344181            2 
  165000    1.0049932    -7.646241    48.167076  0.024326806  0.026269869            3 
  166000    0.9985221   -7.6548117     48.48542   0.02434007  0.026195842            1 
  167000    1.0057654   -7.6259036    48.612169  0.024257569  0.026122236            1 
  168000     1.006328   -7.6305181    48.564525  0.024089546  0.026048593            2 
  169000   0.99469006   -7.6093483    48.916488  0.024120556  0.025973919            1 
  170000   0.97814746   -7.6445315    49.124412  0.024080594  0.025899398            2 
  171000   0.97295285   -7.6728791     49.12602  0.023940555  0.025826842            2 
  172000   0.99606055   -7.6199316    49.686341   0.02407284  0.025754102            1 
  173000    1.0063177   -7.5976998    49.821326  0.023998712  0.025683055            4 
  174000    1.0126199   -7.6077837    49.987726  0.023940482  0.025612349            2 
  175000     1.014237   -7.6735992    50.021694  0.023819854  0.025539978            6 
  176000   0.99240848   -7.6342845    50.021218  0.023684289  0.025465861            1 
  177000    0.9843756   -7.6812835    50.106738  0.023590743  0.025389023            2 
  178000    0.9819777   -7.6985393    50.039298  0.023426637  0.025310814            3 
  179000   0.98932922     -7.66302    50.549867  0.023533458  0.025233798            3 
  180000   0.96368253   -7.6781069    50.501488  0.023380318  0.025157016            3 
  181000   0.99108113   -7.6276623    50.793691  0.023385677   0.02507992            2 
  182000    0.9812608   -7.7167121    50.849259  0.023282628  0.025003559            2 
  183000   0.98330577   -7.7297014    50.901182  0.023179044  0.024927163       -1e+20 
  184000   0.98187829   -7.6898123    51.091159  0.023139112  0.024850636            4 
  185000   0.96173942   -7.6867584    51.343071  0.023127509  0.024774622            3 
  186000   0.99135289   -7.6894294     51.48178  0.023065314  0.024699517            1 
  187000   0.95909945    -7.706303    51.625754  0.023006129  0.024625119            1 
  188000   0.97502368   -7.7176142     51.96891  0.023035864  0.024552159            3 
  189000    0.9791782   -7.7037675    51.782943  0.022831985  0.024477569            3 
  190000   0.95451071   -7.7016161    52.010156  0.022811472  0.024401848            2 
  191000    0.9714142     -7.71393    52.217385  0.022782454  0.024326647            2 
  192000     0.967095   -7.7293814    52.124914  0.022623661   0.02425209            2 
  193000   0.97165413   -7.7383835    52.379961  0.022616563  0.024175042            2 
  194000   0.97077194   -7.7454994    52.492678  0.022548401  0.024099369            2 
  195000   0.95568772   -7.7452895    52.608924  0.022482446   0.02402384            2 
  196000   0.92463005    -7.762574     52.80056  0.022449217  0.023948926            2 
  197000   0.95493451   -7.7731238    52.993902  0.022417048  0.023874884            3 
  198000   0.97716888   -7.7195152    53.268168  0.022419262  0.023802624            1 
  199000   0.94812724   -7.7562165    53.447931   0.02238188  0.023730294            1 
  200000   0.94597599   -7.7380134    53.385098  0.022243791  0.023657026            2 
  201000   0.94783284   -7.7704905    53.593346  0.022219463  0.023582736            3 
  202000   0.94374977   -7.7675503    53.510641  0.022075347   0.02350892            2 
  203000   0.94341288   -7.7810717      53.6339    0.0220172  0.023434685            2 
  204000   0.94801193   -7.7721757    53.934112  0.022031908  0.023361088            3 
  205000   0.95607134   -7.8045991    53.910307  0.021914759  0.023287325            2 
  206000    0.9301269    -7.800115    54.166903  0.021912178  0.023213429            2 
  207000   0.93675737   -7.8012868     54.18806  0.021814839  0.023139492            2 
  208000   0.92516803   -7.7775277    54.462559  0.021819935  0.023066661            2 
  209000   0.94630031   -7.7888542    54.256281  0.021633286  0.022992921            3 
  210000   0.94934153   -7.7862593    54.510449   0.02163113  0.022919383            2 
  211000   0.93467647   -7.8585592     54.56592  0.021550521  0.022846128            3 
  212000   0.94624614   -7.8003004    54.868291  0.021567724  0.022772964            1 
  213000   0.93049995   -7.8136055    54.939959  0.021494507  0.022699401            1 
  214000   0.91407019   -7.7946941    54.829345  0.021350991  0.022625638            2 
  215000   0.91828583    -7.780832     54.81383   0.02124567  0.022550809            2 
  216000   0.92280895   -7.8653027    54.752101  0.021123496  0.022475945            4 
  217000   0.92437063    -7.803922    55.068003  0.021147466  0.022400688            3 
  218000   0.92353691     -7.83023    54.955988  0.021007641  0.022325045            1 
  219000   0.91776195   -7.8413605    54.955001   0.02091134  0.022248635            2 
  220000    0.9223246   -7.8526999    55.116253  0.020877369  0.022173032            5 
  221000   0.93211849   -7.8686605    55.361742  0.020875468  0.022098117            1 
  222000   0.93237631    -7.828686    55.630863  0.020882456  0.022024589            2 
  223000   0.91608934   -7.8508813    55.655891  0.020798166  0.021951532            2 
  224000   0.91870586    -7.814938    55.886076  0.020790951  0.021878549            1 
  225000   0.92400766   -7.8425732    55.743844  0.020645868  0.021805558            2 
  226000   0.91186236   -7.8771912    55.816396  0.020581267  0.021732473            2 
  227000   0.90851526   -7.8516052    56.057017  0.020578934  0.021659806            7 
  228000   0.90835602    -7.877916     56.19549  0.020539287  0.021588972            1 
  229000   0.88468215   -7.9152983     56.11511  0.020420346  0.021517018            2 
  230000   0.89816516   -7.8815368    56.368498  0.020423369  0.021445748            3 
  231000   0.87645865   -7.8798143    56.464894  0.020369731  0.021374861            3 
  232000   0.89493216   -7.9125113    56.528652  0.020304832  0.021303262            1 
  233000   0.89375414   -7.8856643    56.454032  0.020190998   0.02123147            2 
  234000   0.90759665    -7.922838    56.495743  0.020119566  0.021158985            4 
  235000    0.9015905   -7.9061077    56.664794  0.020093899  0.021086466            2 
  236000    0.9044988   -7.9137382    56.679645  0.020013999  0.021014605            1 
  237000   0.89438277   -7.8968489    56.835923  0.019984502  0.020943557            1 
  238000   0.88856231   -7.8917686    56.925517  0.019931904   0.02087274            2 
  239000   0.87758665   -7.9264261    56.890234  0.019836204  0.020802206            4 
  240000   0.88367039   -7.9031217    56.828638  0.019732166  0.020731122            2 
  241000   0.89375564   -7.9064181    57.101652  0.019744693  0.020659572            2 
  242000   0.85993038   -7.8973302    57.174555  0.019688207  0.020588768            3 
  243000   0.86952021   -7.9473078    57.147476    0.0195979  0.020518007            2 
  244000   0.89859399   -7.9202552    57.453726  0.019622174  0.020448216            2 
  245000   0.86685667   -7.9477876    57.455844  0.019542804   0.02037879            3 
  246000    0.8635758   -7.9467588    57.407723  0.019447061  0.020308978            2 
  247000   0.86254487   -7.9511267    57.574159   0.01942448  0.020239555            3 
  248000    0.8569275   -7.9481951    57.591362  0.019351936  0.020170248            1 
  249000   0.88448755   -7.9687666    57.532915  0.019254657  0.020100996            3 
  250000   0.86330014   -7.9686352    57.705314  0.019235104  0.020031513            1 
  251000   0.86621382   -8.0013507    57.718009  0.019162686  0.019962004            1 
  252000   0.86454803   -8.0067799    57.671979  0.019071422  0.019893015            2 
  253000   0.85542907   -7.9881793    57.836102  0.019050099  0.019824212            1 
  254000   0.86950839   -7.9851808    57.880485   0.01898966  0.019755806            4 
  255000   0.86019204   -7.9410815    58.193424  0.019017459  0.019688002            2 
  256000    0.8473399   -7.9842997     58.16376  0.018933516  0.019620582            2 
  257000   0.85517877   -7.9871899    58.211534  0.018875335  0.019553228            5 
  258000   0.85389599   -7.9905878    58.366676  0.018852286  0.019487221            1 
  259000   0.84531224   -8.0042563    58.308495  0.018760777  0.019421132            3 
  260000   0.86240923   -8.0071382    58.518401  0.018755898  0.019355076            1 
  261000   0.84368452   -7.9925672     58.53786  0.018690249  0.019289335            1 
  262000   0.85946804   -8.0267685    58.534143   0.01861773  0.019223235            2 
  263000   0.86969153   -8.0104428    58.506848  0.018538292  0.019157444            3 
  264000   0.85100022   -8.0409185    58.708225  0.018531637  0.019091889            3 
  265000   0.85145501     -8.02897    58.766147   0.01847992  0.019026456            3 
  266000   0.84562981   -8.0644205    58.933615  0.018462912   0.01896159            2 
  267000   0.84934046   -8.0596449    58.788186  0.018348373  0.018896643            2 
  268000   0.84887938   -8.0326939     58.86035  0.018302348  0.018831569            5 
  269000   0.83549559   -8.0617115     58.78928  0.018212293  0.018766669            3 
  270000   0.84533592   -8.0356836    59.146279  0.018255024  0.018702232            2 
  271000   0.81361144   -8.0772983    59.030234  0.018151979  0.018638079            2 
  272000   0.84408736   -8.0838034     59.16139  0.018125426  0.018574137            1 
  273000   0.83278245   -8.0821474    59.009654  0.018012715  0.018510276            2 
  274000   0.83411869   -8.0436529    59.196023  0.018003657  0.018446088            2 
  275000   0.84362958   -8.0631129    59.168613  0.017929883  0.018382123            1 
  276000   0.85039793   -8.0654038    59.098436  0.017843731  0.018318006            2 
  277000   0.83509084   -8.0703819    59.060435   0.01776788  0.018253919            2 
  278000   0.81410571   -8.1057823    59.167258  0.017735989  0.018190128            2 
  279000   0.81716815   -8.1069763    59.187903  0.017678585  0.018127178            1 
  280000   0.81831922    -8.060159    59.433946  0.017688674  0.018064538            2 
  281000   0.81244692   -8.0774624    59.599969  0.017674961  0.018002378            3 
  282000   0.82663435   -8.0828791    59.813019  0.017675242  0.017940844            2 
  283000   0.80673006    -8.109974    59.587879   0.01754649  0.017879763            4 
  284000   0.81441639   -8.1383534    59.512006  0.017462443  0.017818076            2 
  285000   0.80385153   -8.1185983    59.497432   0.01739691  0.017756264            2 
  286000   0.82024899   -8.1318093    59.519938  0.017342639  0.017694131            2 
  287000   0.82108942   -8.1397506    59.563379  0.017294826  0.017632268            2 
  288000   0.82982081   -8.1604881    59.750798  0.017289004  0.017570653            2 
  289000   0.79975968   -8.1285453    59.718556  0.017219883  0.017509863            1 
  290000   0.81054174   -8.1309054    59.642621  0.017138684  0.017448813            1 
  291000   0.81515469   -8.1288686    59.727485  0.017104091  0.017387644            1 
  292000   0.81199215   -8.1313304    59.849795  0.017080421  0.017326827            2 
  293000   0.79923917   -8.1526294    60.001624  0.017065308  0.017266497            2 
  294000    0.7841304    -8.146424    59.772067  0.016942196   0.01720645            3 
  295000   0.79012197   -8.1691377    59.882274  0.016915897  0.017146049            1 
  296000   0.80761694   -8.1578762     59.91363  0.016867576  0.017085457            2 
  297000    0.7903543   -8.1926754    59.921811  0.016813078  0.017025282            1 
  298000   0.80672028   -8.1754371     59.79874  0.016722243  0.016965114            1 
  299000   0.79928009   -8.1749756    60.044153  0.016734714  0.016904976            4 
  300000   0.79798106   -8.1238797      60.1912  0.016719778  0.016845517            1 
  301000   0.78301772   -8.1891365    60.039717  0.016622292  0.016786211            1 
  302000   0.78685318   -8.1743875     59.89801  0.016528148   0.01672679            3 
  303000    0.7855112   -8.2076023     59.96581  0.016492247  0.016667392            3 
  304000   0.78619906   -8.2062794    59.989387  0.016444459   0.01660807            4 
  305000   0.77343311    -8.254819    60.025848  0.016400505  0.016548774            2 
  306000   0.76228476   -8.2399727    60.128389  0.016374834  0.016489841            2 
  307000   0.77031126   -8.2518261    60.031752  0.016295264  0.016431208            4 
  308000   0.77816162   -8.2335393     60.26311  0.016304954  0.016372872            1 
  309000   0.79090155   -8.2103901     60.11585  0.016212473  0.016314517            5 
  310000   0.79075078   -8.2325799    60.151634  0.016169794  0.016255961            1 
  311000   0.76822985   -8.2249658    60.317232  0.016162173  0.016197741            2 
  312000   0.77604999    -8.225226    60.311935  0.016108957  0.016140081            2 
  313000   0.77165978   -8.2176826    60.283336  0.016049876  0.016082207            2 
  314000   0.76881468   -8.2498159    60.371901  0.016022267  0.016024484            1 
  315000   0.76304976   -8.2245427     60.31059  0.015955182  0.015967433            2 
  316000   0.77414646   -8.1964227    60.167927  0.015867069  0.015910587            1 
  317000   0.76863074    -8.252855    60.300183  0.015851783  0.015853633            1 
  318000   0.76249416   -8.2497044    60.261982  0.015791924   0.01579677            3 
  319000   0.76241619   -8.2524599    60.341605   0.01576322  0.015740188            3 
  320000     0.756451   -8.2552912    60.405312   0.01573055  0.015683984            4 
  321000   0.75895234   -8.2225468    60.450301  0.015693224  0.015627965            2 
  322000   0.74777323   -8.2328346    60.246768  0.015591814  0.015571827            5 
  323000   0.75259424   -8.2683295    60.412418  0.015586279  0.015516185            2 
  324000    0.7485262    -8.274728    60.443447  0.015546154  0.015460696            3 
  325000   0.74433731   -8.2684128    60.387174  0.015483891  0.015405266            2 
  326000   0.76626805   -8.2912542    60.525623  0.015471785  0.015350242            9 
  327000   0.75300667   -8.2878879     60.49891  0.015417663  0.015295349            6 
  328000   0.74589783   -8.2718837    60.516634  0.015375161  0.015241013            3 
  329000   0.76160786   -8.2809115    60.499538  0.015324098  0.015186932            3 
  330000   0.75579035   -8.2702345    60.616401  0.015307172  0.015133024            4 
  331000   0.74203821   -8.3033578    60.508377   0.01523373  0.015078777            3 
  332000   0.72806714   -8.3125544    60.639341  0.015220718  0.015024758            2 
  333000   0.73498686   -8.3103322    60.649245  0.015177489  0.014970955            3 
  334000    0.7362717   -8.3156429    60.513745   0.01509824  0.014917024            2 
  335000   0.72669228   -8.3226817    60.630568  0.015082231  0.014863246            2 
  336000   0.73922927   -8.3290125    60.457657  0.014994459  0.014809485            2 
  337000   0.71339777    -8.338447    60.441854  0.014946057  0.014756122            3 
  338000   0.72831897   -8.3267619    60.498383  0.014915775  0.014702821            4 
  339000   0.72909898   -8.3274434    60.634137  0.014905147  0.014649771            2 
  340000   0.73810453   -8.3161136     60.59325  0.014851287  0.014596785            5 
  341000     0.722864   -8.3497401    60.474025  0.014778598  0.014544155            1 
  342000   0.72328105   -8.3296397    60.484735  0.014737996  0.014491684            2 
  343000   0.73529879   -8.3281586    60.581989  0.014718656  0.014439608            3 
  344000   0.72167743   -8.3585297    60.493259  0.014654375  0.014387511            1 
  345000    0.7179055    -8.377927     60.58096  0.014633082   0.01433565            5 
  346000   0.71856666   -8.3865852    60.651366  0.014607747   0.01428419            4 
  347000   0.70470441   -8.3804414    60.714283   0.01458076  0.014232852            2 
  348000   0.73245907   -8.3750901    60.554335  0.014500559  0.014181573            2 
  349000   0.69848791   -8.3901712    60.483998  0.014442215  0.014130331            3 
  350000   0.71257942   -8.3824365    60.678955   0.01444737  0.014079401            4 
  351000   0.70632694   -8.3847857    60.532808  0.014371512   0.01402855            2 
  352000   0.70064495   -8.3910255    60.672669  0.014363795  0.013978141            3 
  353000    0.7135216   -8.4170261    60.661918  0.014320566  0.013928085            2 
  354000   0.69889642   -8.4163894    60.874301  0.014330109  0.013878255            2 
  355000   0.72617299   -8.4592231    60.651032  0.014237331  0.013828257            3 
  356000   0.70948155   -8.4335772    60.720134  0.014213515  0.013778638            2 
  357000   0.71656745   -8.4266387      60.6214  0.014150654  0.013729212            2 
  358000   0.70259292   -8.4096517    60.720957  0.014134301  0.013679816            2 
  359000   0.70042487   -8.4079771    60.653688  0.014079315  0.013630971            8 
  360000   0.69844479   -8.4212972    60.808084  0.014075945  0.013582449            1 
  361000    0.6901366    -8.413179    60.842434  0.014044883  0.013534184            4 
  362000   0.68992726   -8.4124424    60.971501  0.014035797  0.013486222            2 
  363000    0.6931466    -8.422803    60.801826  0.013958179  0.013438484            2 
  364000   0.67653687   -8.4462882    60.744362  0.013906676  0.013390756            3 
  365000   0.69374826   -8.4357278    60.781766  0.013877116  0.013343194            3 
  366000    0.6864353   -8.4692951    60.881069   0.01386181  0.013295938            2 
  367000   0.67556614   -8.4510701    60.871535  0.013821874  0.013248787            3 
  368000    0.6774924   -8.4681781    60.921404  0.013795608  0.013201655            3 
  369000   0.68800194    -8.453437    60.950973  0.013764899  0.013154941            2 
  370000   0.68666887   -8.4779347    60.806346  0.013695123   0.01310829            2 
  371000   0.66962301   -8.4761048    60.851589  0.013668371  0.013061731            2 
  372000    0.6760742   -8.4681311     60.76183  0.013611521  0.013015257            2 
  373000   0.68096499   -8.4650817    60.695375  0.013560182  0.012968611            3 
  374000   0.69280288   -8.4816394    60.848943  0.013558142  0.012922184            6 
  375000   0.66968272   -8.4809628    60.783657  0.013507479  0.012876156            4 
  376000   0.66965499   -8.4980838    60.744095  0.013462787  0.012830239            1 
  377000   0.65720897   -8.4959037    60.778906  0.013434772  0.012784581            3 
  378000   0.65764537   -8.4773808     60.83342  0.013411248  0.012739048            2 
  379000   0.65521815   -8.5036509    60.563646  0.013316545  0.012693515            2 
  380000   0.65668672     -8.48592    60.575796  0.013284166  0.012647996            2 
  381000   0.66699376   -8.4779196     60.51619  0.013236262  0.012602567            3 
  382000    0.6469545    -8.495727    60.618016  0.013223825  0.012557307            2 
  383000   0.64150373   -8.5026673    60.634341  0.013192851  0.012512151            1 
  384000   0.64693685   -8.5001567    60.662488  0.013164602  0.012467143            4 
  385000    0.6462139   -8.5264845    60.625136  0.013122324  0.012422324            3 
  386000    0.6524856   -8.5196478    60.661706  0.013096223  0.012377771            2 
  387000   0.64017391   -8.5458172    60.701755  0.013071007  0.012333297            2 
  388000   0.65297416   -8.5411441    60.550726  0.013004881  0.012288923            1 
  389000   0.63558512   -8.5361945    60.455768  0.012951107  0.012244683            2 
  390000   0.65114141   -8.5510211    60.574883  0.012943351  0.012200589            3 
  391000   0.65272273   -8.5691393    60.682056  0.012933089  0.012156722            3 
  392000   0.65536912   -8.5308765    60.623365   0.01288762  0.012113003            2 
  393000   0.64108901   -8.5627484    60.588504  0.012847435  0.012069478            1 
  394000   0.63822995   -8.5783091    60.665559  0.012831125  0.012026264            2 
  395000   0.65342825   -8.5686646    60.561062  0.012776595  0.011983155            3 
  396000   0.64779955   -8.5643237    60.450346  0.012721032  0.011940064            5 
  397000   0.63454165   -8.5653148    60.539736  0.012707753  0.011897248            1 
  398000   0.63020059   -8.5551184    60.561845  0.012680453  0.011854579            2 
  399000   0.61980812   -8.6064981    60.449285  0.012625164   0.01181192            2 
  400000   0.61788878   -8.6065465    60.565992  0.012617915  0.011769527            2 
  401000   0.64080573   -8.5755831    60.573149  0.012587936  0.011727412            4 
  402000    0.6132215   -8.5875718    60.591479  0.012560423  0.011685381            5 
  403000   0.61734501   -8.6012772    60.579469  0.012526772  0.011643489            1 
  404000   0.62649957   -8.5921524    60.389238  0.012456526  0.011601825            5 
  405000   0.61351736   -8.5829705    60.550161  0.012458881  0.011560314            2 
  406000   0.61105485   -8.6091999    60.606969  0.012439854  0.011518925            2 
  407000   0.61790511   -8.6305913    60.342453   0.01235513  0.011477701            1 
  408000   0.60987909   -8.6005441    60.506249  0.012358302  0.011436668            4 
  409000    0.6115645   -8.5923031    60.457068  0.012318066  0.011395938            2 
  410000   0.61239487   -8.6024851    60.610615  0.012319231  0.011355307            2 
  411000   0.61402337   -8.6332174    60.550745  0.012277118  0.011314916            6 
  412000    0.6076549   -8.6199579    60.499001  0.012236853  0.011274715            1 
  413000   0.60355312     -8.63768    60.642773  0.012236233  0.011234539            4 
  414000   0.60279472   -8.6434842    60.471247  0.012172151  0.011194686            4 
  415000   0.60422191   -8.6489624    60.459547  0.012140471  0.011154842            3 
  416000   0.61091545   -8.6235162    60.486164  0.012116619  0.011115186            3 
  417000   0.61290147   -8.6330672    60.402252  0.012070794  0.011075654            3 
  418000   0.59824326   -8.6475417    60.457869  0.012053004   0.01103628            5 
  419000   0.59203426   -8.6508508    60.566367  0.012045817  0.010997174            5 
  420000   0.60203747   -8.6372329    60.563307  0.012016529  0.010958118            5 
  421000    0.5907536   -8.6433728    60.380778  0.011951856  0.010919146            3 
  422000   0.58914241   -8.6575273    60.414132  0.011930121  0.010880413            2 
  423000    0.5974622   -8.6504007    60.443244  0.011907652  0.010841775            2 
  424000   0.58324358   -8.6569741    60.279067  0.011847301  0.010803402            2 
  425000   0.59173769   -8.6530894    60.426343  0.011848303  0.010765132            3 
  426000   0.58282134    -8.668701    60.236983  0.011783447  0.010726911            1 
  427000   0.58610771   -8.6441889    60.417433  0.011791068  0.010688987            3 
  428000   0.59495161   -8.6796466    60.307579   0.01174213  0.010651201            6 
  429000   0.58171186   -8.6497006     60.34246  0.011721535  0.010613565            2 
  430000   0.57541746   -8.6819235    60.259627  0.011678222  0.010575982            6 
  431000   0.58314962    -8.681144    60.244196  0.011648143  0.010538672            4 
  432000   0.57487373    -8.686852    60.257694  0.011623784   0.01050148            2 
  433000   0.57739791   -8.6884537    60.368049  0.011618177  0.010464438            3 
  434000   0.56695358   -8.7013028    60.225493  0.011564035  0.010427487            2 
  435000   0.55767088   -8.6937697    60.264167   0.01154486  0.010390672            2 
  436000   0.56829415   -8.7022018    60.463622  0.011556503  0.010354103            3 
  437000   0.57610007    -8.690097    60.369312  0.011512073  0.010317664            2 
  438000   0.56638985   -8.6879935    60.263799  0.011465715  0.010281354            3 
  439000   0.56584523   -8.7076115    60.270138  0.011440801  0.010245166            1 
  440000   0.54652846   -8.7082174    60.302678  0.011420962  0.010209177            2 
  441000   0.55234277   -8.7077325    60.277368  0.011390281   0.01017331            1 
  442000   0.55914186   -8.7055596    60.280661  0.011365132  0.010137623            2 
  443000   0.56671205   -8.7018145    60.325157  0.011347847  0.010102084            2 
  444000   0.56631199    -8.734879    60.262801  0.011310586  0.010066733            4 
  445000   0.56506443   -8.7196256     60.23253    0.0112795   0.01003156            2 
  446000   0.55413608   -8.7206456    60.301312  0.011267061   0.00999638            2 
  447000    0.5566934   -8.7366912    60.233935  0.011229294 0.0099614137            3 
  448000   0.56152996   -8.7345287    60.225874  0.011202729 0.0099266356            1 
  449000    0.5493144   -8.7221834    60.160184  0.011165587 0.0098919894            4 
  450000   0.54984081   -8.7387437    60.243957  0.011156288 0.0098574866            4 
  451000   0.53272674    -8.738042    60.266453  0.011135708 0.0098231559            2 
  452000   0.55237782   -8.7432035    60.235158  0.011105302 0.0097889564            4 
  453000   0.54038024   -8.7486537    60.223839  0.011078705 0.0097548928            3 
  454000   0.53968958   -8.7651881    60.123537  0.011035892 0.0097209209            3 
  455000   0.55003585   -8.7642891     60.21431  0.011028262 0.0096871085            6 
  456000   0.53973638   -8.7700336    60.197179  0.011000946 0.0096534368            1 
  457000   0.54550602   -8.7569401    60.138848  0.010966238  0.009619899            3 
  458000   0.54449776   -8.7453564    60.097294  0.010934733 0.0095865278            4 
  459000   0.54186583   -8.7522496    60.068031  0.010905598 0.0095533111            5 
  460000   0.53369622   -8.7651109    60.146635  0.010896129  0.009520171            4 
  461000   0.53176495   -8.7654717    60.128639  0.010869241 0.0094871151            2 
  462000   0.53097369    -8.772121    60.047932  0.010831157 0.0094542166            3 
  463000   0.53000976   -8.7852149    60.114201  0.010819691 0.0094214188            3 
  464000   0.52638723   -8.7626682    60.083651  0.010790886 0.0093887914            3 
  465000   0.52926626   -8.7746127    60.039779  0.010759817 0.0093562571            2 
  466000   0.51383896   -8.7800143    60.092218  0.010746105 0.0093238458            2 
  467000   0.52494745   -8.7931915     60.04123  0.010713995 0.0092915776            2 
  468000   0.51125455   -8.7949484    60.009839  0.010685513 0.0092594462            3 
  469000   0.53293885    -8.790779    60.114775  0.010681374 0.0092274745            3 
  470000   0.51135211   -8.7963539    59.960514  0.010631297 0.0091955653            6 
  471000   0.51470774    -8.807081     59.97143  0.010610656 0.0091638317            2 
  472000   0.51402662   -8.8090991    59.954638  0.010585211 0.0091322059            5 
  473000   0.51292058   -8.8064468    60.003615  0.010571461 0.0091007272            4 
  474000   0.50242076   -8.8149915    60.006113  0.010549598 0.0090693252            3 
  475000   0.50228793   -8.8058619    59.896377  0.010508136 0.0090381323            2 
  476000   0.50450113   -8.8239009    60.028794  0.010509243 0.0090070779            5 
  477000   0.49898953   -8.8158183    59.968444  0.010476667 0.0089761313            1 
  478000   0.50073056   -8.8187149    60.008178  0.010461677 0.0089453004            6 
  479000   0.50173387   -8.8279115    59.953654   0.01043035 0.0089146442            4 
  480000    0.4925731    -8.817696    59.967974  0.010411107 0.0088841334            7 
  481000   0.50334313   -8.8177481    59.897944  0.010377329 0.0088537999            3 
  482000   0.49669181   -8.8526593    59.953576  0.010365418 0.0088235674            1 
  483000   0.50574382   -8.8322064    59.965734  0.010346055 0.0087935059            3 
  484000   0.49537533   -8.8369814    59.989857  0.010328832 0.0087635421            2 
  485000   0.48330311   -8.8334219    59.866877  0.010286405 0.0087336799            2 
  486000   0.48655735   -8.8367625    59.915348  0.010273551 0.0087039637            2 
  487000   0.50033612   -8.8456893     59.84998   0.01024127 0.0086744218            4 
  488000   0.49131589   -8.8270465    59.877777   0.01022503 0.0086450078            4 
  489000   0.48861043    -8.834602     59.85615  0.010200435 0.0086157646            2 
  490000   0.48400297   -8.8627859    59.854951  0.010179413 0.0085866198            2 
  491000   0.47987449   -8.8299034    59.935179  0.010172298  0.008557564            3 
  492000   0.48167771    -8.840447     59.82632  0.010133184 0.0085286493            3 
  493000   0.48206683   -8.8531661     59.85378  0.010117272 0.0084998892            2 
  494000   0.47415683   -8.8558446    59.884415  0.010101959 0.0084712428            3 
  495000   0.48961712   -8.8588221    59.855399  0.010076666 0.0084427438            2 
  496000   0.47629368   -8.8790605     59.85266  0.010055891 0.0084143483            1 
  497000   0.47857571    -8.864189    59.793422  0.010025725 0.0083860494            4 
  498000   0.47298534   -8.8776678    59.830566  0.010011808 0.0083578781            2 
  499000   0.46893296   -8.8654838    59.871259 0.0099985402 0.0083298225            3 
  500000   0.48023884   -8.8606009    59.860863 0.0099768104 0.0083019301            2 
  501000   0.47152395   -8.8793728    59.894441 0.0099624819 0.0082741171            5 
  502000    0.4553736   -8.8684558    59.816331 0.0099296698 0.0082464275            3 
  503000   0.46740298   -8.8962912    59.777556  0.009903505 0.0082188737            3 
  504000   0.46112192   -8.8735468    59.818013 0.0098905444 0.0081914166            3 
  505000   0.47001506   -8.8947485     59.84868 0.0098760197 0.0081641136            4 
  506000   0.45902638   -8.9029329    59.948016 0.0098728617 0.0081369383            2 
  507000   0.46080243   -8.9052238    59.832948 0.0098344753 0.0081099003            4 
  508000   0.46253871   -8.8888198    59.789693 0.0098080205 0.0080829796            3 
  509000   0.44724691   -8.8940809    59.711072 0.0097758795 0.0080561317            4 
  510000   0.44625244   -8.8929121    59.776848 0.0097674589 0.0080293978            3 
  511000   0.45747343    -8.910298    59.825597 0.0097562944   0.00800278            2 
  512000   0.44876627   -8.9116405    59.794362 0.0097321553 0.0079762922            2 
Loop time of 1213.88 on 48 procs for 500000 steps with 4000 atoms

Performance: 71176.597 tau/day, 411.902 timesteps/s
99.4% CPU use with 48 MPI tasks x no OpenMP threads

MPI task timing breakdown:
Section |  min time  |  avg time  |  max time  |%varavg| %total
---------------------------------------------------------------
Pair    | 78.57      | 83.969     | 88.583     |  29.2 |  6.92
Neigh   | 8.0405     | 8.4173     | 9.2764     |   7.3 |  0.69
Comm    | 77.654     | 83.003     | 88.94      |  32.9 |  6.84
Output  | 0.86835    | 0.86883    | 0.8784     |   0.2 |  0.07
Modify  | 1022.4     | 1026.9     | 1029.2     |   4.5 | 84.60
Other   |            | 10.68      |            |       |  0.88

Nlocal:        83.3333 ave          91 max          77 min
Histogram: 3 1 6 9 7 11 4 5 0 2
Nghost:        2146.52 ave        2167 max        2122 min
Histogram: 1 3 4 6 8 3 12 2 6 3
Neighs:        14186.5 ave       16297 max       12886 min
Histogram: 3 5 11 9 10 3 3 3 0 1
FullNghs:      28372.6 ave       31121 max       26135 min
Histogram: 2 4 4 12 8 8 4 4 0 2

Total # of neighbors = 1361883
Ave neighs/atom = 340.47075
Neighbor list builds = 26731
Dangerous builds = 0

#clear
#
#next RN
#
#jump SELF
Total wall time: 0:20:17
