
units lj                  # Use reduced LJ style units
atom_style atomic         # Uncharged point particles
atom_modify map hash      # Needed for indexing of clusters etc
                          # Used to be able to find where atoms are in relation to each other.

lattice fcc 1.0 spacing 1 1 1
Lattice spacing in x,y,z = 1.5874011 1.5874011 1.5874011
region box block 0 10 0 10 0 10 units lattice
create_box 2 box
Created orthogonal box = (0.0000000 0.0000000 0.0000000) to (15.874011 15.874011 15.874011)
  3 by 4 by 4 MPI processor grid
create_atoms 1 box
Created 4000 atoms
  using lattice units in orthogonal box = (0.0000000 0.0000000 0.0000000) to (15.874011 15.874011 15.874011)
  create_atoms CPU = 0.028 seconds
set type 1 type/fraction 2 0.0 78393
Setting atom values ...
  0 settings made for type/fraction
mass 1 1.0
mass 2 1.0
pair_style lj/cut  3.5
pair_modify tail  yes
pair_coeff 1  1  1.0  1.0   # Intearaction between 1 and 1 set with epsilon = 1 and sigma = 1
pair_coeff 1  2  1.5  0.8
pair_coeff 2  2  0.5  0.88

write_data data.0
System init for write_data ...
Neighbor list info ...
  update every 1 steps, delay 10 steps, check yes
  max neighbors/atom: 2000, page size: 100000
  master list distance cutoff = 3.8
  ghost atom cutoff = 3.8
  binsize = 1.9, bins = 9 9 9
  1 neighbor lists, perpetual/occasional/extra = 1 0 0
  (1) pair lj/cut, perpetual
      attributes: half, newton on
      pair build: half/bin/atomonly/newton
      stencil: half/bin/3d
      bin: standard
WARNING: Not all mixed pair coeffs generated from mixing. Use write_data with 'pair ij' option to store all pair coeffs. (../write_data.cpp:312)


#############################
#   M E L T   S Y S T E M   #
#############################

velocity all create 2.4 5833274 mom yes dist gaussian # Assign velocities
                                                    # Temperature 2.4, random number seed, zero linear momentum
                                                                                # Gaussian distribution

timestep 0.002   # simulation timestep
thermo 1000       # output thermodynamic data every 1000 steps bf 100

# Define a fix  in this case with index 1 applied to all
# particles in the simulation. This fix is for simulations
# in the anisotropic NPT ensemble. Note that we use the MTK
# correction.
fix 1 all npt temp 2.4 2.4 0.1 iso 5.68 5.68 0.5 mtk yes tchain 5 pchain 5 # Use NPT ensemble
                                                                         # Set temperature and pressure and damping
                                                                         # Numbers of thermostats in chain and in barostat
run 10000          # run for 10000 steps
Per MPI rank memory allocation (min/avg/max) = 3.642 | 3.644 | 3.648 Mbytes
Step Temp E_pair E_mol TotEng Press Volume 
       0          2.4   -8.3859253            0   -4.7868253   -2.2405722         4000 
    1000    2.3797751   -4.4966384            0  -0.92786813    5.4591985    5168.8144 
    2000    2.3714801   -4.3918768            0  -0.83554595    5.7238627     5204.738 
    3000    2.4155038   -4.4000591            0  -0.77770929    5.4831811    5239.8154 
    4000    2.4300486   -4.3627081            0  -0.71854641     5.727535    5224.6855 
    5000    2.3986817    -4.398764            0  -0.80164104    5.7810425    5189.1635 
    6000    2.3793059   -4.3268548            0   -0.7587882     5.737256    5237.1845 
    7000    2.4825501    -4.351259            0  -0.62836485    5.6210231    5261.2783 
    8000    2.4341285    -4.408343            0  -0.75806308    5.5552192    5220.6542 
    9000    2.3672116   -4.3497654            0  -0.79983571    5.5151842    5257.3999 
   10000    2.4362975   -4.3631699            0  -0.70963725    5.4184838    5274.9632 
Loop time of 2.07002 on 48 procs for 10000 steps with 4000 atoms

Performance: 834773.006 tau/day, 4830.862 timesteps/s
99.6% CPU use with 48 MPI tasks x no OpenMP threads

MPI task timing breakdown:
Section |  min time  |  avg time  |  max time  |%varavg| %total
---------------------------------------------------------------
Pair    | 0.8445     | 0.89993    | 1.0386     |   3.5 | 43.47
Neigh   | 0.1657     | 0.17127    | 0.19166    |   1.1 |  8.27
Comm    | 0.63237    | 0.73923    | 0.84285    |   4.8 | 35.71
Output  | 0.00024134 | 0.0002492  | 0.000387   |   0.0 |  0.01
Modify  | 0.19252    | 0.24503    | 0.28243    |   5.6 | 11.84
Other   |            | 0.01432    |            |       |  0.69

Nlocal:        83.3333 ave          95 max          75 min
Histogram: 2 2 8 9 7 11 5 2 1 1
Nghost:        1368.17 ave        1406 max        1340 min
Histogram: 1 8 5 11 6 7 6 2 1 1
Neighs:        7209.69 ave        8916 max        6157 min
Histogram: 2 3 8 16 8 7 2 1 0 1

Total # of neighbors = 346065
Ave neighs/atom = 86.516250
Neighbor list builds = 898
Dangerous builds = 176

# Equilibrate just above the melting temperature to avoid step fn in T

fix 1 all npt temp 1.25 1.25 0.1 iso 5.68 5.68 0.5 mtk yes tchain 5 pchain 5
run 2000
Per MPI rank memory allocation (min/avg/max) = 3.642 | 3.644 | 3.648 Mbytes
Step Temp E_pair E_mol TotEng Press Volume 
   10000    2.4362975   -4.3631699            0  -0.70963725    5.4184838    5274.9632 
   11000    1.2558971   -5.8322855            0   -3.9489108    5.4355468    4366.7606 
   12000    1.2386823   -5.8968585            0   -4.0392995    5.6697845    4319.3036 
Loop time of 0.450857 on 48 procs for 2000 steps with 4000 atoms

Performance: 766540.112 tau/day, 4435.996 timesteps/s
99.6% CPU use with 48 MPI tasks x no OpenMP threads

MPI task timing breakdown:
Section |  min time  |  avg time  |  max time  |%varavg| %total
---------------------------------------------------------------
Pair    | 0.19456    | 0.20444    | 0.23595    |   1.7 | 45.34
Neigh   | 0.030869   | 0.031874   | 0.035798   |   0.5 |  7.07
Comm    | 0.13752    | 0.15903    | 0.17953    |   2.4 | 35.27
Output  | 5.0432e-05 | 5.152e-05  | 6.4895e-05 |   0.0 |  0.01
Modify  | 0.037302   | 0.051218   | 0.069034   |   3.5 | 11.36
Other   |            | 0.004251   |            |       |  0.94

Nlocal:        83.3333 ave          90 max          77 min
Histogram: 5 3 4 7 4 7 7 4 3 4
Nghost:        1560.35 ave        1575 max        1541 min
Histogram: 1 1 3 6 4 11 8 9 3 2
Neighs:        8833.60 ave        9671 max        7969 min
Histogram: 3 3 2 6 7 10 7 7 1 2

Total # of neighbors = 424013
Ave neighs/atom = 106.00325
Neighbor list builds = 144
Dangerous builds = 12

#############################
# L I N E A R  Q U E N C H  #
#############################

# Define solid atoms. This closely follows ten Wolde  Ruiz-Montero and Frenkel  Faraday Discuss  1996  104  93-110
# Compute components of the per-atom q6 vector
compute q6 all orientorder/atom degrees 1 6 components 6 nnn NULL cutoff 1.3 # compute the Q6 parameter.
                                                                             # Use all neighbours within 1.3 unit cell.

# get number of connections
compute coord_number all coord/atom orientorder q6 0.5

# An atom is solid if it has 8 or more connections (of a possible 14)
variable is_solid atom c_coord_number>=8
group solid dynamic all var is_solid    # Must be dynamic to update
dynamic group solid defined

# do clustering
compute cluster solid cluster/atom 1.3 # Create a cluster where all atoms within are solid and max 1.3 units from another member

# define chunks one chunk per cluster
compute clus_chunks solid chunk/atom c_cluster nchunk every compress yes  # Says which atoms are in which chunk

# count the size of each chunk
compute size_chunks solid property/chunk clus_chunks count


# Find the maximum entry in the vector of chunk sizes
variable max_n equal max(c_size_chunks)


# Thermo style which includes this variable
# thermo_style custom step temp pe vol v_max_n

thermo ${N}  # Print the thermo information every 100 steps
thermo 1000  

# Reset the npt fix at a lower temperature (below freezing)
fix 1  all npt temp  ${temp} ${temp}  0.1  iso  5.68  5.68  0.5  mtk yes tchain  5  pchain  5
fix 1  all npt temp  0.45 ${temp}  0.1  iso  5.68  5.68  0.5  mtk yes tchain  5  pchain  5
fix 1  all npt temp  0.45 0.45  0.1  iso  5.68  5.68  0.5  mtk yes tchain  5  pchain  5

dump dmp2 all dcd ${N} traj.dcd
dump dmp2 all dcd 1000 traj.dcd


compute msd all msd com yes
variable twopoint equal c_msd[4]/6/(step*dt+1.0e-6)
fix 9 all vector 10 c_msd[4]
variable fit equal slope(f_9)/6/(10*dt)
thermo_style custom step temp pe c_msd[4] v_twopoint v_fit v_max_n

fix 1 all npt temp 1.25 ${temp} 0.1 iso 5.68 5.68 0.5 mtk yes tchain 5 pchain 5
fix 1 all npt temp 1.25 0.45 0.1 iso 5.68 5.68 0.5 mtk yes tchain 5 pchain 5
run 5000000 # 5000000  # Run for this many steps
Neighbor list info ...
  update every 1 steps, delay 10 steps, check yes
  max neighbors/atom: 2000, page size: 100000
  master list distance cutoff = 3.8
  ghost atom cutoff = 3.8
  binsize = 1.9, bins = 9 9 9
  4 neighbor lists, perpetual/occasional/extra = 1 3 0
  (1) pair lj/cut, perpetual
      attributes: half, newton on
      pair build: half/bin/atomonly/newton
      stencil: half/bin/3d
      bin: standard
  (2) compute orientorder/atom, occasional
      attributes: full, newton on
      pair build: full/bin/atomonly
      stencil: full/bin/3d
      bin: standard
  (3) compute coord/atom, occasional
      attributes: full, newton on
      pair build: full/bin/atomonly
      stencil: full/bin/3d
      bin: standard
  (4) compute cluster/atom, occasional
      attributes: full, newton on
      pair build: full/bin/atomonly
      stencil: full/bin/3d
      bin: standard
Per MPI rank memory allocation (min/avg/max) = 9.729 | 9.732 | 9.736 Mbytes
Step Temp PotEng c_msd[4] v_twopoint v_fit v_max_n 
   12000    1.2386823   -5.8968585 8.4092572e-31 5.8397617e-33 8.3333333e+20            5 
   13000    1.2648589   -5.8209505   0.56371468 0.0036135555  0.045611711            3 
   14000    1.2287363    -5.850842    1.1381342 0.0067746079  0.046631895            2 
   15000    1.2570766   -5.8516505    1.6789182 0.0093273233  0.046552945            3 
   16000    1.2797396   -5.8274558    2.2646747   0.01179518  0.046857989            3 
   17000    1.2767787   -5.8574612    2.7899282  0.013676118  0.046758652            3 
   18000    1.2226082   -5.8681088    3.3479902  0.015499954  0.046662492            1 
   19000    1.2410059   -5.8059059    3.8107981  0.016714027  0.046166101            3 
   20000    1.2515234   -5.8206674    4.3519964  0.018133318  0.045412626            3 
   21000    1.2279737   -5.8523535    4.9035449  0.019458511   0.04518995            3 
   22000    1.2410741   -5.8254522    5.4421521  0.020614212  0.044996293            2 
   23000    1.2601759   -5.8295835    5.9858017  0.021687687  0.044977341            4 
   24000    1.2386405   -5.8230082    6.6100829  0.022951676  0.045066589            5 
   25000    1.2589187   -5.8635852      7.16645  0.023888166  0.045242852            2 
   26000    1.2296122   -5.8102219    7.7168431  0.024733471  0.045419338            3 
   27000    1.2376768   -5.8470542    8.2226028  0.025378403  0.045444539            2 
   28000    1.2362373   -5.8508834    8.7405134  0.026013432  0.045435607            6 
   29000    1.2222926   -5.8334468    9.2527002  0.026588218  0.045403219            3 
   30000    1.2516329   -5.8521898    9.7239065  0.027010851  0.045265948            3 
   31000    1.2567899   -5.8261956    10.416401  0.028001078   0.04522887            6 
   32000    1.2664629   -5.8658816    11.069281  0.028826252  0.045297788            2 
   33000    1.2333031   -5.8547077    11.759009  0.029694467  0.045574865            2 
   34000    1.2437457   -5.8212591    12.306477  0.030162932  0.045862301            3 
   35000    1.2490639   -5.8407334    12.863852  0.030628218  0.046035923            2 
   36000    1.2340056   -5.8568849    13.405836  0.031032027  0.046176743            3 
   37000     1.239825   -5.8215252    13.950332  0.031419667  0.046255816            3 
   38000    1.2519931   -5.8713508    14.525734   0.03185468  0.046294159            2 
   39000    1.2674626   -5.8442172    15.126735  0.032322083  0.046433414            2 
   40000    1.2465226   -5.8578996    15.685589   0.03267831  0.046526068            4 
   41000     1.249696    -5.845496    16.137944  0.032800699  0.046530659            2 
   42000    1.2313302   -5.8262812    16.809562  0.033352305  0.046548307            2 
   43000    1.2349224   -5.8419299    17.333545  0.033592141  0.046627616            2 
   44000    1.2384728   -5.8606676    17.918978  0.033937458  0.046663547            3 
   45000    1.2416481   -5.8455426    18.324567  0.033934384  0.046670154            3 
   46000    1.2586501   -5.8570864    18.924327  0.034283201  0.046661781            5 
   47000    1.2440036   -5.8324905    19.629707  0.034804445  0.046697718            5 
   48000    1.2424007   -5.8318293    20.200415  0.035070164   0.04673592            6 
   49000    1.2337623    -5.845372    20.772241   0.03532694  0.046764979            2 
   50000    1.2348804   -5.8342291    21.116969  0.035194948  0.046748455            2 
   51000    1.2383987   -5.8606251    21.416398  0.034994115    0.0466795            4 
   52000    1.2525452   -5.8601414    21.923984  0.035134589  0.046577954            4 
   53000    1.2413464   -5.8526537    22.524989  0.035416649   0.04648821            3 
   54000    1.2619125   -5.8602226    23.067801  0.035598458  0.046404787            4 
   55000    1.2414803   -5.8567584    23.564596  0.035703933  0.046307632            5 
   56000    1.2611165   -5.8119763    24.149009  0.035936025  0.046216565            6 
   57000    1.2243577   -5.8480498    24.850814  0.036331599  0.046161626            3 
   58000    1.2427021   -5.8320105    25.191475  0.036194648  0.046121128            4 
   59000    1.2287805   -5.8611632     26.03999  0.036779646  0.046095188            3 
   60000    1.2458749   -5.8717307    26.481431  0.036779765  0.046090866            2 
   61000    1.2435288   -5.8149348    27.037379  0.036936309  0.046082321            5 
   62000    1.2340607   -5.8508008    27.440358  0.036882201  0.046049065            3 
   63000    1.2300262   -5.8332205    27.944985  0.036964265  0.046011478            5 
   64000    1.2621139    -5.874929    28.521069  0.037136808   0.04597008            6 
   65000    1.2686159   -5.8403443    29.184701  0.037416282   0.04595138            1 
   66000    1.2329465   -5.8600378    29.716995  0.037521458  0.045932612            2 
   67000    1.2317771   -5.8372057    30.101563  0.037439755  0.045902572            3 
   68000    1.2422706   -5.8391348    30.528995  0.037412984   0.04584386            2 
   69000    1.2585288   -5.8363362    30.979898  0.037415335  0.045777462            4 
   70000    1.2148011   -5.8749675    31.552563  0.037562575  0.045721746            3 
   71000    1.2548172   -5.8539531    31.978782  0.037533782  0.045667676            4 
   72000    1.2447008   -5.8097382    32.838992  0.038008093  0.045625422            3 
   73000    1.2651926   -5.8700235    33.095407  0.037780145  0.045585184            3 
   74000    1.2377391   -5.8493544    33.831246   0.03809825  0.045558987            4 
   75000    1.2388602   -5.8070363    34.230121  0.038033467  0.045536038            1 
   76000    1.2028011   -5.8506195    34.944409  0.038316237   0.04550778            5 
   77000    1.2326886   -5.8912093    35.673291  0.038607457  0.045493043            1 
   78000     1.228928   -5.8772141    36.164299  0.038637071  0.045492887            9 
   79000    1.2323628   -5.8619642    36.636846  0.038646462  0.045491316            3 
   80000    1.2455315   -5.8489789     37.22318  0.038774146  0.045482171            4 
   81000    1.2295632   -5.8965164    37.825478  0.038915101  0.045476391            4 
   82000    1.2292433   -5.8562163    38.197446  0.038818542  0.045468339            2 
   83000    1.2398936   -5.8776083    38.578139  0.038733071  0.045446551            3 
   84000    1.2500258   -5.8423403    38.994232  0.038684754  0.045419767            2 
   85000    1.2461345   -5.8711538    39.555468  0.038779871  0.045387601            3 
   86000    1.2304392   -5.8661761    40.200762  0.038954227  0.045362154            3 
   87000    1.2462566   -5.8767244     40.61881  0.038906906   0.04533222            6 
   88000    1.2182146   -5.8615612    41.154256  0.038971833  0.045297471            4 
   89000    1.2504188   -5.8551591    41.466641  0.038826443  0.045266403            4 
   90000    1.2327704   -5.8853465    42.172728  0.039048822  0.045234398            4 
   91000    1.2686712   -5.8671171    42.856975  0.039246314  0.045212908            4 
   92000    1.2278355   -5.8924768    43.097152  0.039037275  0.045191868            7 
   93000    1.2259693   -5.8444328    43.808069  0.039254542  0.045160325            3 
   94000    1.2364554   -5.8799837    44.532067  0.039478782  0.045133206           10 
   95000    1.2507376   -5.8647156    45.068028  0.039533358  0.045118049            3 
   96000    1.2321471   -5.9223628    45.515817  0.039510258   0.04510746            5 
   97000    1.2449087   -5.8822169    46.242004  0.039726807   0.04509594            4 
   98000    1.2201364    -5.880706    46.742989   0.03974744  0.045091038            4 
   99000    1.2114252   -5.8753681    47.264634  0.039785046  0.045085996            2 
  100000    1.2425717   -5.8401358     47.87025  0.039891875  0.045086116            5 
  101000    1.2344708   -5.8564531     48.36156  0.039902277  0.045077911            3 
  102000    1.2516754   -5.8458723    48.744671  0.039824077  0.045072491            6 
  103000    1.2578259   -5.8436364    49.424877  0.039987764  0.045063256            2 
  104000    1.2494358   -5.8499187    49.828955  0.039927047  0.045054156            6 
  105000    1.2400702   -5.8310892    50.786422  0.040306684  0.045051096            1 
  106000     1.244828   -5.8293131    51.173729  0.040230919  0.045053296            5 
  107000    1.2123938   -5.8990771    51.688184  0.040255595  0.045057203            4 
  108000    1.2287145   -5.8971558    52.092132  0.040194546  0.045058683            4 
  109000    1.2589461   -5.8448049    52.383041  0.040048197  0.045045554            2 
  110000    1.2423266   -5.8670521    52.622142  0.039865259  0.045023909            3 
  111000    1.2218082   -5.9123057    52.978279  0.039773482  0.044992189            5 
  112000    1.2102016   -5.8983333    53.601493  0.039882063  0.044950929            5 
  113000    1.2575208    -5.861317    54.338699  0.040072787  0.044919992            4 
  114000    1.2364998   -5.8147413    54.701229  0.039986279  0.044890192            7 
  115000     1.232829   -5.9276956    54.889508  0.039775006  0.044856183            6 
  116000    1.2080616   -5.9220585    55.236009  0.039681041   0.04481793            2 
  117000    1.2274908   -5.8123198    56.135059  0.039982236  0.044780004            1 
  118000    1.2237458   -5.8647482    56.601836  0.039973048  0.044745694            3 
  119000    1.2322698    -5.880935    57.092886  0.039981013  0.044711278            4 
  120000    1.2308037   -5.8980382    57.641962   0.04002914  0.044677181            3 
  121000    1.2308263   -5.8534793    58.001256  0.039945769  0.044639415            3 
  122000    1.2172673   -5.8682939    58.662419  0.040069958  0.044605152            4 
  123000    1.2223528   -5.8331006    59.117969  0.040052824  0.044580221            4 
  124000    1.2342326   -5.8380113     59.95663  0.040293434  0.044561729            3 
  125000    1.2255489   -5.8998001    60.619499  0.040412999  0.044546578            4 
  126000    1.2308527   -5.8998424    61.052472  0.040378619   0.04453319            2 
  127000    1.2333697   -5.8784733    61.341192  0.040250126  0.044515967            3 
  128000    1.2301829   -5.8690396    61.778821  0.040220586  0.044490627            2 
  129000    1.2485935   -5.8966812    62.545086  0.040403802  0.044472206            4 
  130000    1.2428229   -5.8813769    63.048924  0.040415977   0.04445919            3 
  131000     1.213726   -5.8609928    63.889086  0.040641912  0.044447805            4 
  132000    1.2540284   -5.8789912    64.223624  0.040545217  0.044437542            3 
  133000    1.2151837   -5.8763704    64.924912  0.040679769  0.044430975            5 
  134000    1.2341021   -5.8854364    65.551148  0.040765639   0.04443337            5 
  135000    1.2267967   -5.8429519    65.932374  0.040698996   0.04443418            5 
  136000    1.2245146   -5.8306113    67.049935  0.041084519  0.044437299            3 
  137000     1.202095   -5.8902922    67.057483  0.040789223  0.044439029            7 
  138000    1.2513551   -5.8623541    67.428738  0.040717837  0.044434187           10 
  139000    1.2367352   -5.8727215    68.163978  0.040865694  0.044430713            3 
  140000     1.259665   -5.8995301     69.25141  0.041221077  0.044437107            3 
  141000    1.2310546   -5.8734301    69.674397  0.041178722  0.044443055            6 
  142000    1.2310413   -5.8954084    70.239923  0.041220612  0.044454051            7 
  143000    1.2445931   -5.8988511    70.734715  0.041220696  0.044463686            3 
  144000    1.2011667   -5.8792797    71.005011  0.041090862  0.044469499            3 
  145000     1.235064   -5.8519548    71.459002  0.041068392  0.044465716            5 
  146000    1.2544697   -5.8882487    71.899119   0.04103831  0.044459562            1 
  147000    1.2580689   -5.8459556      72.2146  0.040937981  0.044455052            2 
  148000    1.2358586    -5.902498    72.834745  0.041010554  0.044447006            4 
  149000    1.2173062   -5.9059788    73.287792  0.040988698  0.044438053            5 
  150000    1.2153398   -5.8558425      73.6367  0.040909278  0.044428139            5 
  151000    1.2632131   -5.8961587    74.366276  0.041040991  0.044417579            2 
  152000    1.2214322   -5.9012886    74.927419  0.041078629  0.044409507            4 
  153000    1.2247154   -5.8655498    75.257923  0.040990154  0.044402599            3 
  154000    1.2288119   -5.8973817    75.815801  0.041025866  0.044393124            6 
  155000    1.2399759   -5.8580518     76.87675  0.041331586  0.044387722            2 
  156000    1.2325194   -5.9008927    77.209173  0.041244216  0.044388023            6 
  157000    1.2412299   -5.8777258    77.682524  0.041232762  0.044388822            4 
  158000    1.2084287   -5.9021307    78.338671  0.041317864  0.044387796            5 
  159000    1.2207132   -5.8732866    78.946895  0.041376779  0.044389016            2 
  160000    1.2806026   -5.8532944    79.781369  0.041552796  0.044391166            2 
  161000    1.2329448   -5.8845329    80.098171  0.041458681  0.044397691            8 
  162000    1.2197747   -5.8735137    80.670203  0.041497018  0.044401919            3 
  163000    1.2189209   -5.8926273    81.034732    0.0414288  0.044406023            7 
  164000    1.2112212   -5.8949338    81.420207  0.041372056  0.044402065            5 
  165000    1.2441136   -5.8778823    82.162381  0.041496152  0.044393856            3 
  166000    1.2322947   -5.9108558    82.308378  0.041319467  0.044386619            3 
  167000    1.2470903   -5.8915996    82.773477   0.04130413  0.044379284            3 
  168000     1.228997   -5.9143583    83.495374  0.041416356  0.044378798            4 
  169000    1.2309651   -5.8879004    84.082534  0.041460815  0.044375707            5 
  170000    1.2240565   -5.8842003    84.834875  0.041585723  0.044372534            2 
  171000    1.2225025   -5.8820764    84.992342   0.04141927  0.044368999            4 
  172000    1.2183516   -5.8697153    85.568454  0.041457584  0.044366064            5 
  173000    1.2260515   -5.8484416    85.813039   0.04133576   0.04436072            5 
  174000    1.2238313   -5.8612284    86.458297   0.04140723  0.044352638            3 
  175000    1.2382593   -5.8182394    87.146846  0.041498498   0.04434844            6 
  176000    1.2155429   -5.8562079    87.728939  0.041538323  0.044344026            4 
  177000    1.2333962   -5.8670602     87.94009  0.041403055  0.044341126            3 
  178000     1.213542    -5.892562    88.309482   0.04134339  0.044333822            3 
  179000    1.2548025   -5.8660823    89.461443  0.041648717  0.044328936            3 
  180000    1.2135217   -5.9161313    89.764724  0.041557742  0.044327065            5 
  181000    1.2282458   -5.8930072    90.596128  0.041710924  0.044326397            3 
  182000    1.2184244   -5.9235048     90.85801  0.041601653  0.044325144            4 
  183000    1.2111535   -5.8802304     91.84669   0.04182454  0.044328325            3 
  184000    1.2199886   -5.8875952    92.179394  0.041747914  0.044330034            2 
  185000    1.2025368   -5.9291691    92.341146  0.041595111  0.044329246            3 
  186000    1.2732142   -5.8902547    92.990926  0.041662601  0.044327017            3 
  187000    1.2147097   -5.9060192    93.204066  0.041534789  0.044322584            3 
  188000    1.2420539   -5.8721839    93.856547  0.041603079  0.044315872            2 
  189000    1.2457754   -5.8843841    94.187085  0.041528697  0.044307657            5 
  190000    1.2158507   -5.8629076    94.339828  0.041377117  0.044295941            3 
  191000    1.2149855   -5.8794703    94.986934  0.041442816  0.044284696            4 
  192000    1.2013799   -5.9148376    95.057733  0.041257696  0.044269587            3 
  193000    1.2177429   -5.8866473    95.530389  0.041248009   0.04425222            3 
  194000    1.2538336   -5.8905488    96.258139  0.041347998  0.044237042            6 
  195000    1.2512086   -5.9132006    96.940416  0.041427528  0.044222088            4 
  196000    1.2436146   -5.8575513    97.823855  0.041591775  0.044210386            5 
  197000    1.2272341   -5.8524346    98.031186  0.041468353  0.044199505            2 
  198000    1.2142004   -5.8614701    98.588681  0.041493552  0.044188771            3 
  199000    1.2122858   -5.8537252    99.087117  0.041493768   0.04417944            2 
  200000    1.1984996   -5.8746176    99.699375  0.041541406  0.044169183            6 
  201000    1.2062436   -5.8923967    99.955806  0.041441047  0.044159323            4 
  202000    1.2297918   -5.8725787    100.12493  0.041305665  0.044147377            3 
  203000    1.1846873    -5.888267     100.8851  0.041414243  0.044132893            3 
  204000    1.2020382   -5.8863899    101.06352  0.041284119   0.04411644            4 
  205000    1.2396754   -5.8522848    101.29344  0.041176197  0.044095555            2 
  206000    1.2104297   -5.9104348    101.55504  0.041082137  0.044070639            2 
  207000    1.2196067   -5.8387985    101.62838  0.040913198   0.04404605            3 
  208000    1.2148295   -5.9138575     101.8867  0.040819993  0.044016194            7 
  209000    1.2152924   -5.8839784    102.29564  0.040787734  0.043983691            3 
  210000    1.2328483   -5.8917159    103.12835   0.04092395  0.043951533            2 
  211000    1.2148914   -5.8967362    103.29681  0.040796528  0.043919643            4 
  212000    1.2145931   -5.8794724    103.68393  0.040756263  0.043886691            6 
  213000    1.1940615   -5.9031964    104.22619  0.040777069  0.043855214            2 
  214000    1.1953448   -5.8678504    104.96888  0.040875733  0.043824929            2 
  215000    1.2464902   -5.9040867    105.01725   0.04070436  0.043793014            4 
  216000    1.2346706   -5.9026156    106.03652  0.040909151  0.043764421            3 
  217000    1.2190556    -5.892817    105.99596  0.040705055  0.043735217            2 
  218000     1.230853   -5.9120905    106.68745  0.040782666  0.043703865            5 
  219000    1.2266515   -5.9099608    106.95186  0.040697056  0.043673145            3 
  220000    1.2150533   -5.8761679     107.3296  0.040655151  0.043641799            2 
  221000    1.2108747   -5.8869159    108.35171  0.040856604  0.043613316            6 
  222000    1.2143865   -5.8989946    108.81902   0.04084798   0.04358533            5 
  223000    1.2627206   -5.8951947    109.22792  0.040817608  0.043559774            2 
  224000    1.2093328    -5.925516    109.67599  0.040802081  0.043534348            5 
  225000    1.2106462   -5.9026264     110.3921  0.040885964  0.043509256            3 
  226000    1.2294777   -5.8722338     110.6513  0.040800628  0.043483258            3 
  227000    1.2117404   -5.9134522    111.07075  0.040774873   0.04345777            3 
  228000    1.2221995   -5.9009369    111.73555  0.040839015  0.043433533            3 
  229000    1.1970676   -5.9031946    112.37426  0.040893109  0.043411563            2 
  230000    1.2064436   -5.9126984      112.805  0.040871376  0.043390354            5 
  231000    1.2233238   -5.8893409    113.43119  0.040920342  0.043370866            3 
  232000    1.2079822   -5.9006869    113.79611   0.04087504  0.043354262            3 
  233000    1.2545059   -5.8926579    114.60747  0.040989797  0.043335956            4 
  234000    1.2068484    -5.911806    115.14087  0.041004582  0.043318102            4 
  235000    1.2035321   -5.8991354    115.84533  0.041079903  0.043300262            5 
  236000    1.2452331   -5.8797312    116.50396  0.041138405   0.04328506            3 
  237000     1.208113    -5.918421     116.8084  0.041071871  0.043268605            2 
  238000      1.19957   -5.9123572    117.08607  0.040996525  0.043251783            3 
  239000    1.2396148   -5.8574034    117.81922  0.041080621  0.043235412            4 
  240000    1.2124463   -5.9163729    118.16535  0.041029634   0.04321993            2 
  241000    1.2373432   -5.9118819     118.7907  0.041075622  0.043203487            3 
  242000    1.2305946   -5.9143602    119.00821  0.040980788  0.043190818            4 
  243000    1.2061875   -5.8676333    120.19102  0.041217769  0.043178374           12 
  244000    1.1996785   -5.8737168    120.62988  0.041198731  0.043167996            7 
  245000    1.2051091   -5.9210531    121.04472  0.041171674  0.043156977            2 
  246000    1.2114165   -5.9127783    121.35086  0.041108014  0.043146446            4 
  247000    1.1924116   -5.9045179    122.34055   0.04127549  0.043136607            4 
  248000    1.2128744   -5.8824023    122.77767  0.041255937  0.043127442            3 
  249000     1.228514    -5.893791    122.96335  0.041152392  0.043117079            7 
  250000    1.2136384   -5.8757478    123.61097  0.041203656   0.04310767            3 
  251000    1.1985528   -5.9288822    124.07078  0.041192158  0.043099056            2 
  252000    1.1846565   -5.9072985    124.33659  0.041116598  0.043090371            7 
  253000    1.2190183    -5.853994    124.78924  0.041103175  0.043081189            2 
  254000    1.2290318   -5.9002714    125.29181  0.041106238  0.043071146            3 
  255000    1.1908654    -5.901917    125.70803  0.041081054  0.043060593            5 
  256000    1.2033235   -5.9069844    126.40247  0.041146636  0.043048732            3 
  257000    1.2013604    -5.903233    126.68188  0.041077135   0.04303854            8 
  258000    1.1981124   -5.9393005    127.45603  0.041167969  0.043026378            3 
  259000    1.1941851   -5.9233172    127.26023   0.04094602  0.043013141            3 
  260000    1.1871723   -5.8947293    127.81661  0.040966861   0.04299998            4 
  261000     1.202307   -5.9237329    128.28155  0.040958348  0.042986158            4 
  262000    1.1843697   -5.9061946    129.38768  0.041153841  0.042972937            4 
  263000    1.2151198   -5.9211208    129.35001  0.040985428  0.042959369            6 
  264000    1.2248894   -5.9176215    130.03087  0.041045096   0.04294561            3 
  265000     1.213682   -5.9329213    130.42124  0.041012969  0.042930971            3 
  266000    1.1965783   -5.9268348    131.00357   0.04104122  0.042919343            3 
  267000     1.206399    -5.923338     131.3507   0.04099585  0.042906359            5 
  268000    1.2144888   -5.9240984    131.90445  0.041015065   0.04289253            3 
  269000    1.1904266   -5.8846671    132.51681  0.041052294  0.042880192            4 
  270000    1.1968743    -5.871815    132.82587  0.040995638  0.042869682            5 
  271000     1.199215   -5.9203159     133.0869   0.04092463  0.042856423            4 
  272000    1.2181719   -5.9231125    133.56415   0.04092039  0.042842162            5 
  273000    1.1939643   -5.9423905    134.08263  0.040928762  0.042828138            4 
  274000    1.2058926   -5.9176163    134.81972  0.041003565  0.042815509            7 
  275000    1.2090913   -5.9079099    135.45968  0.041048387  0.042804004            2 
  276000    1.2147569   -5.9091839    135.63405   0.04095231  0.042792429            6 
  277000     1.197857   -5.9020665    136.02316  0.040921528  0.042779834            3 
  278000    1.1949696    -5.926757    136.90808  0.041039594  0.042767159            3 
  279000    1.2028027   -5.9261298    136.95839  0.040907524  0.042752926            5 
  280000     1.198819   -5.9293976    137.70236  0.040982844  0.042739894            4 
  281000    1.1895674   -5.9072605    138.51463  0.041077885   0.04272679            8 
  282000    1.1946724   -5.8948122    138.91695  0.041051109  0.042713928            3 
  283000    1.2140147   -5.9260067    138.90959  0.040903883  0.042701596            6 
  284000    1.1967868   -5.9202178    139.86967  0.041041569  0.042689687            3 
  285000    1.2097118   -5.9376111    139.73177  0.040857243  0.042677243            6 
  286000    1.2005813    -5.902469    140.37481  0.040901752  0.042664775            3 
  287000    1.2211908    -5.910495    140.69219  0.040851391  0.042650696            3 
  288000    1.2138249   -5.9125631    140.99831  0.040798121  0.042636988            5 
  289000    1.1988789   -5.9303755    141.86485  0.040906818  0.042625372            2 
  290000    1.2080479   -5.8979791    142.35456  0.040906484  0.042614471            2 
  291000    1.1868383   -5.9373012    142.84965  0.040907688  0.042604255            2 
  292000    1.1698902   -5.9443835    143.82619  0.041046286   0.04259349            4 
  293000     1.194087   -5.9268271    144.48763   0.04109432  0.042585619            3 
  294000    1.2047434   -5.9136756     145.2929  0.041182796  0.042577391            4 
  295000    1.2448622   -5.9102152    145.89493  0.041213258  0.042570535            4 
  296000    1.2022601   -5.9307648    145.87054  0.041067155  0.042563723            3 
  297000    1.2210139   -5.9355544    146.74495  0.041174227  0.042557454            4 
  298000    1.2141839   -5.9242557    147.67494  0.041296124  0.042551485            6 
  299000    1.1993255   -5.9092847    147.27098  0.041045424  0.042545253            6 
  300000    1.1978998   -5.9348147    148.25239  0.041181219  0.042539925            3 
  301000    1.1814976    -5.896006    148.70267  0.041169066  0.042534578            3 
  302000    1.1995151   -5.9267923    149.17816  0.041163952  0.042527117            2 
  303000    1.2183574   -5.8911618    149.69621  0.041170576  0.042519675            2 
  304000    1.1911965   -5.9210563    150.19851  0.041172838  0.042512416            2 
  305000    1.2142334   -5.9152001     151.0452   0.04126918  0.042507139            2 
  306000    1.1911543   -5.9177067    151.06544  0.041139825  0.042500772            3 
  307000    1.1820112   -5.9208976    151.29514  0.041068171  0.042495834            7 
  308000    1.2055914   -5.9485789    151.65558  0.041032353   0.04249035            3 
  309000    1.1943075   -5.9148205    152.36725   0.04109149   0.04248373            2 
  310000     1.176636   -5.8830669     153.4178  0.041241343  0.042477529            7 
  311000    1.1860991   -5.9322977    153.93624  0.041247653  0.042472113            4 
  312000    1.1866962    -5.943738    153.94549  0.041117919  0.042465311            3 
  313000    1.2282208   -5.9469001    154.62621  0.041167786  0.042458431            5 
  314000    1.1973857   -5.9321768    155.02471  0.041142439  0.042452171            3 
  315000    1.2070008   -5.9160754    156.05295  0.041283849  0.042446184            2 
  316000    1.1991054   -5.8907393    156.07069  0.041157881  0.042440363            3 
  317000    1.2192163   -5.8996472    156.72624   0.04120038  0.042434696            4 
  318000    1.1769763   -5.9352951    156.36271  0.040975553  0.042428655            5 
  319000    1.1930159    -5.904102    157.15496  0.041054064  0.042422646            5 
  320000    1.1823928    -5.885726    157.71669  0.041072055   0.04241601            5 
  321000    1.1808993   -5.9435543    158.62654  0.041180306  0.042410064            4 
  322000     1.196093   -5.9127055     158.6441  0.041056962   0.04240426            5 
  323000    1.2000914   -5.9078062    160.13763  0.041315178  0.042399499            3 
  324000    1.1946492   -5.9731832    159.89291  0.041124721  0.042393822            5 
  325000    1.1830027   -5.9487839    160.59761  0.041178873  0.042388406            8 
  326000    1.2193642   -5.8859775     161.7908  0.041357566  0.042384065            5 
  327000    1.1827035   -5.9551028     161.5267  0.041163787  0.042378371            3 
  328000    1.2087854   -5.9152661    161.72471  0.041088595  0.042371963            4 
  329000    1.2073633   -5.9225291    162.41899  0.041139562  0.042368185            7 
  330000    1.1974899   -5.8889515    163.57199  0.041306059  0.042364577            2 
  331000    1.2005834   -5.9127777    163.78965  0.041236064  0.042360548            4 
  332000    1.1991296   -5.9200817     164.6197  0.041320205  0.042356079            2 
  333000    1.2078764   -5.9155853    164.83141  0.041249101  0.042352481            2 
  334000    1.2149551   -5.9293858    164.98781  0.041164624  0.042349092            4 
  335000    1.1882967   -5.9346944    165.85601  0.041257715  0.042345583            2 
  336000    1.1812807   -5.9045423    166.40832  0.041271904  0.042343081            3 
  337000    1.2134444   -5.9132644    167.39239  0.041392778  0.042340988            3 
  338000    1.1752393   -5.9417682    167.39974  0.041272124  0.042338742            3 
  339000    1.1911289   -5.9496141    168.05722  0.041312001  0.042336394            1 
  340000    1.2015088   -5.9495707    168.34483  0.041260988   0.04233407            6 
  341000    1.1878735   -5.9174662    169.41936   0.04140258  0.042332981            4 
  342000     1.211243   -5.8929062    170.45195  0.041533127   0.04233266            5 
  343000    1.1962146    -5.892584    171.01779  0.041549511   0.04233409            3 
  344000    1.2134893   -5.9428316    171.04868  0.041436212  0.042335675            4 
  345000    1.2112425   -5.9317179      172.553   0.04167947  0.042337809            2 
  346000    1.2000822   -5.9309177    173.08327  0.041686723  0.042341719            5 
  347000    1.2074947   -5.9482739     173.1049  0.041571782   0.04234531            6 
  348000     1.211689   -5.9063748     173.9348  0.041651054  0.042348536            3 
  349000    1.1856364   -5.9315962    174.04851  0.041558861  0.042351021            3 
  350000    1.2032297   -5.9212954    174.71285  0.041598297  0.042353114            4 
  351000     1.190827   -5.9239463    175.16432   0.04158697  0.042354787            4 
  352000    1.2072093   -5.8972914    175.43904  0.041533863  0.042355615            4 
  353000     1.182375   -5.9543703    176.04913  0.041560228  0.042357003            4 
  354000     1.211004    -5.894512    176.59062  0.041570297  0.042359527            3 
  355000    1.1896725   -5.9396996    177.98929  0.041781523  0.042363185            5 
  356000    1.1886543   -5.9530804    177.41854  0.041530557  0.042366109            2 
  357000    1.1928958   -5.9502798    178.48584  0.041663361  0.042368403            3 
  358000    1.1748812   -5.9274807    178.47428  0.041544293  0.042370298            3 
  359000    1.2179147    -5.934445    179.18959  0.041594612  0.042371409            3 
  360000    1.2332912   -5.9342001    179.72701  0.041603474  0.042372835            3 
  361000    1.1910609   -5.9502892    179.68966  0.041479607  0.042374639            2 
  362000    1.1679662   -5.9463931    180.48544  0.041548213  0.042375519            6 
  363000     1.212216   -5.9454612    181.00717  0.041553529  0.042375623            3 
  364000    1.1873607   -5.9346213    181.47779  0.041547113  0.042376944            3 
  365000    1.1974009   -5.9122825    182.39102  0.041641785  0.042378071            8 
  366000    1.1878806   -5.9150864    182.45396   0.04154234  0.042379367            3 
  367000    1.2084954   -5.9328927     183.4639  0.041658468  0.042380951            4 
  368000    1.1888875   -5.9268495    183.29977    0.0415081  0.042383454            7 
  369000    1.1989956   -5.9359971    184.45155  0.041655726  0.042384161            2 
  370000     1.194284   -5.9343234    185.06137  0.041680489  0.042385632            2 
  371000    1.1691016   -5.9145551    185.53767  0.041675129  0.042387303            2 
  372000    1.1715281   -5.9517135    185.48747  0.041551852  0.042389368            4 
  373000    1.2086167   -5.9276676    186.26057  0.041613174  0.042390443            8 
  374000    1.2116183    -5.956132    186.62054  0.041582118  0.042391168            6 
  375000    1.1940239   -5.9572369    187.78979  0.041731064  0.042393545            3 
  376000    1.2049201   -5.9164401    188.93552  0.041874007  0.042396419            3 
  377000    1.1993436   -5.9032528    188.65313  0.041700515  0.042399677            3 
  378000    1.2133507   -5.9957113    188.68557  0.041597348  0.042402375            4 
  379000    1.1587354   -5.9526468    189.69163  0.041708801  0.042404161            3 
  380000    1.2056939   -5.9502444    190.35067  0.041743569  0.042406621            4 
  381000     1.196405   -5.9264836    190.37257  0.041638794   0.04240771            3 
  382000    1.2006195   -5.9580362    190.84334  0.041632491  0.042408639            2 
  383000    1.1719453   -5.9202412    191.51625  0.041670203  0.042409966            3 
  384000     1.187722   -5.9629242    191.47178  0.041552035  0.042411157            5 
  385000    1.1914504   -5.9401634    192.56069  0.041679802  0.042412272            5 
  386000    1.1903953   -5.9216584    193.40623  0.041754366  0.042414147            4 
  387000    1.1756374   -5.9361796    193.64189  0.041697219  0.042415716            3 
  388000    1.1917267   -5.8944228    195.07562  0.041897684  0.042418326            3 
  389000    1.1882802    -5.958573     195.1172  0.041798885  0.042420578            2 
  390000    1.1882399   -5.9332158     195.9165    0.0418625  0.042422433            2 
  391000     1.183846   -5.9365475    195.76453  0.041723045  0.042424205            8 
  392000    1.1981782   -5.9527247    196.72681  0.041821175   0.04242664            3 
  393000    1.1771557   -5.9675587    196.75193  0.041720087   0.04242889            5 
  394000    1.2017935   -5.9774671    197.18638  0.041706086  0.042430219            1 
  395000    1.1827682   -5.9375468    197.55047  0.041677315  0.042431198            3 
  396000    1.1816424   -5.9498139    197.81173  0.041627047   0.04243183            4 
  397000    1.2095022   -5.9565167    198.01946  0.041565797  0.042431615            7 
  398000    1.1692961   -5.9885204     198.1162  0.041481615  0.042431417            4 
  399000    1.1956196   -5.9562313    199.69451  0.041707291   0.04243022            2 
  400000    1.1770064   -5.9647664    199.15541  0.041490711  0.042429089            3 
  401000    1.1836638   -5.9344382    200.08351  0.041580115   0.04242785            3 
  402000    1.1705144   -5.9468475    201.14251  0.041696209  0.042426579            4 
  403000    1.1933254   -5.9030853    201.37184  0.041640166  0.042425523            4 
  404000    1.1641354   -5.9678932    200.96807  0.041453809  0.042422927            4 
  405000    1.1705294   -5.9326826    201.34655  0.041429331  0.042420395            7 
  406000    1.1803679   -5.9408211    201.88778  0.041438378  0.042417103            6 
  407000    1.1874201   -5.9514865    202.88183  0.041540096   0.04241327            4 
  408000    1.1771217   -5.9771609    202.87752  0.041437403   0.04240997            5 
  409000    1.1871841   -5.9778233    202.81662  0.041323681  0.042407076            5 
  410000    1.1834393    -5.931649    204.65698  0.041596947   0.04240418           12 
  411000    1.1822176   -5.9777571    204.82201    0.0415292    0.0424014            3 
  412000    1.1883719   -5.9275822    205.67146  0.041600214   0.04239912            4 
  413000     1.182933   -5.9194185    206.18804  0.041603721  0.042397915            2 
  414000     1.179724   -5.9043818    206.62234  0.041590648  0.042396485            5 
  415000    1.2085077   -5.9430043    206.76368  0.041518811  0.042395542            2 
  416000    1.1679398   -5.9348227    208.40991  0.041748779   0.04239558            4 
  417000    1.1517881   -5.9407654    207.55523  0.041477864  0.042394458            4 
  418000    1.1812988   -5.9254155    208.56637  0.041580217  0.042392859            3 
  419000    1.1911969   -5.9501259    209.45936  0.041658583  0.042392089            9 
  420000    1.1657928   -5.9374143    210.45696  0.041757334  0.042391752            5 
  421000    1.1572093   -5.9348307    209.52405  0.041473485  0.042390139            4 
  422000    1.2083668   -5.9274737    210.53541  0.041574923  0.042387511            4 
  423000    1.2075149   -5.9070349    211.17263  0.041602173   0.04238477            4 
  424000    1.1679071   -5.9305999     210.6908  0.041409356  0.042381438            2 
  425000    1.2139633   -5.9673779    211.15296  0.041402542  0.042377967            8 
  426000    1.1663887   -5.9432647    210.96477  0.041268538  0.042373072            2 
  427000    1.2146652   -5.9449545    211.86171  0.041346938  0.042368816            5 
  428000    1.1595749    -5.982732    212.28864  0.041333457  0.042364453            4 
  429000    1.1853916   -5.8966726    213.14431  0.041403323  0.042360702            4 
  430000    1.2017336    -5.953204    213.32061  0.041341204  0.042356392            6 
  431000    1.1807859   -6.0028609    213.50427  0.041280795  0.042351007            4 
  432000    1.1694188   -5.9749617     214.5778  0.041392323  0.042346074            5 
  433000    1.1691084   -5.9665032    213.98875  0.041183363  0.042341488            6 
  434000    1.1915295   -5.9250046    215.08863  0.041299661  0.042337185            4 
  435000    1.1658503   -5.9600971    215.53693  0.041290599   0.04233317            4 
  436000    1.1528911   -5.9569207    216.31065  0.041343778  0.042329439            4 
  437000      1.19078   -5.9322966    217.17712  0.041414401   0.04232619            6 
  438000    1.1734414   -5.9553991    217.49163  0.041379686   0.04232231            3 
  439000    1.2012434   -5.9755765    217.69602  0.041324225  0.042317394            6 
  440000    1.1753956   -5.9771725    218.27186  0.041339367  0.042311891            5 
  441000    1.1976935   -5.9943576    218.36411   0.04126306  0.042307114            2 
  442000    1.1924685   -5.9506277    219.17242    0.0413221  0.042301537            3 
  443000    1.1733468   -5.9403984     219.1368  0.041222121   0.04229656            4 
  444000    1.1867143   -5.9597521    219.74323  0.041243098   0.04229135            4 
  445000    1.2026528    -5.976108    220.37692  0.041269086  0.042286316            4 
  446000    1.1971517   -5.9653059    220.44635  0.041189527  0.042281106            6 
  447000     1.188268   -5.9537457    221.07165  0.041213955  0.042275417            3 
  448000    1.1967647   -5.9481031    221.53132  0.041207462  0.042270074            4 
  449000    1.2269016   -5.9526099    222.19707  0.041239249  0.042264722            3 
  450000    1.1569257   -5.9316644    223.08316  0.041311696   0.04225982            4 
  451000    1.1636346   -5.9570897    224.04545  0.041397903  0.042254484            2 
  452000    1.1591373   -5.9422198    223.48482  0.041202954  0.042249564            4 
  453000    1.1653441   -5.9240207    224.51978  0.041302387    0.0422444            4 
  454000    1.1708342   -5.9288263    224.81566  0.041265724  0.042239754            7 
  455000     1.203635   -5.9499405    225.88143  0.041370226  0.042234786            8 
  456000    1.1644744   -5.9606124    225.63913  0.041235221  0.042230941            6 
  457000      1.16209   -5.9617937    225.87486  0.041187976  0.042226602            2 
  458000    1.1698624   -5.9837754     227.3077  0.041358753  0.042222956            2 
  459000    1.1696042   -5.9391657    228.07268  0.041407531  0.042219776            4 
  460000    1.1742983   -5.9616668    227.58349  0.041228894   0.04221655            6 
  461000     1.179862   -5.9425313    228.16488  0.041244555  0.042212372            4 
  462000    1.1783647   -5.9698958    228.98533   0.04130327  0.042208866            2 
  463000    1.1973767   -5.9325541    229.86816   0.04137296  0.042205366            4 
  464000      1.17125   -5.9542317    229.74191  0.041261119  0.042200477           11 
  465000     1.191187   -5.9465867     230.3731  0.041285502  0.042195235            3 
  466000     1.191613   -5.9586005    230.65769  0.041247799  0.042190258            2 
  467000     1.184687   -5.9653641    231.41814  0.041295171  0.042185281            2 
  468000    1.1629781   -5.9672499    230.97101  0.041127316  0.042179647            4 
  469000    1.2176866   -5.9627518    231.17247  0.041075421  0.042173795            5 
  470000    1.1501118   -5.9551605    232.05679  0.041144821  0.042167418            3 
  471000    1.2064908   -5.9654583    231.97294  0.041042629   0.04216115            2 
  472000    1.1742044   -5.9723535    232.43071  0.041036495  0.042154467            3 
  473000    1.1789106    -5.971983    233.36619   0.04111455  0.042147138            3 
  474000    1.1950827   -5.9497234    233.55449  0.041060917  0.042139823            7 
  475000    1.1856746   -5.9278772    234.03619   0.04105898  0.042133062            3 
  476000    1.1797044   -5.9453752    234.44917  0.041045023    0.0421263            4 
  477000    1.1748348   -5.9342936    235.79223  0.041193611  0.042120382            4 
  478000        1.167   -5.9594676    235.66829  0.041085824  0.042114368            2 
  479000    1.1649173   -5.9281489    235.59574  0.040987429  0.042107267            4 
  480000    1.1752639   -5.9464161    236.62468  0.041080674  0.042100629            4 
  481000    1.1695866   -5.9738169    236.93544  0.041049106  0.042094256            7 
  482000    1.1725016   -5.9575014    238.34243  0.041207198  0.042089368            3 
  483000     1.183154   -5.9685939    237.79374  0.041027215  0.042083768            4 
  484000    1.1577224   -5.9871946    238.73701  0.041104857  0.042077925            3 
  485000    1.1930604   -5.9967465    238.72944  0.041018804  0.042071704            4 
  486000    1.1575075   -5.9791394    239.89076  0.041133532  0.042066307            2 
  487000     1.184089   -5.9548362    241.04798  0.041247088  0.042061785            4 
  488000    1.1901686   -5.9432304     240.6428  0.041093375  0.042057273            3 
  489000     1.179874   -5.9998297    241.54554  0.041163179  0.042052758            5 
  490000    1.1668739   -5.9718745    242.12861  0.041178335  0.042048741            4 
  491000    1.1626654   -5.9465632    243.77788  0.041374386   0.04204544            4 
  492000     1.171399   -5.9450055    244.33011  0.041383827  0.042043008            6 
  493000    1.1727291   -5.9854872    243.90665  0.041228304  0.042039406            7 
  494000    1.2108393   -5.9842291     244.9995    0.0413292  0.042035894            3 
  495000    1.1928087   -5.9813429      244.492   0.04116027   0.04203228            4 
  496000    1.1692391   -5.9818246    244.31128  0.041046922  0.042027697            3 
  497000    1.1927399   -5.9662137     244.7295  0.041034456  0.042022291            3 
  498000    1.1576499    -5.963978    245.60428  0.041098441  0.042017497            2 
  499000    1.1866012   -5.9651572    245.98644  0.041079899  0.042012261            5 
  500000     1.166816   -5.9917824     246.5834  0.041097233  0.042006347            5 
  501000    1.1764793   -6.0012798    246.31887  0.040971203  0.042000351            4 
  502000    1.1868962   -5.9702295    246.83747  0.040975675  0.041994646            6 
  503000    1.1760952   -5.9420649    247.83504  0.041059483   0.04198853            5 
  504000    1.1326674   -5.9704579     247.3182   0.04089256  0.041982527            2 
  505000     1.174871   -5.9516785    248.73627   0.04104559  0.041976252            2 
  506000    1.1638806   -5.9696903    249.83993  0.041146234  0.041971282            5 
  507000    1.1839428   -5.9338829    250.04392  0.041098606  0.041965723            6 
  508000    1.1603965      -5.9696    249.83746  0.040983835  0.041960501            3 
  509000    1.1842487   -5.9867076    249.97486  0.040925812  0.041954872            3 
  510000    1.1520253   -5.9493655    251.75392  0.041136261  0.041948907            4 
  511000    1.1600909   -5.9546528    251.32262  0.040985424  0.041942787            3 
  512000    1.1871542   -5.9911386    251.52955  0.040939055  0.041937042            2 
  513000    1.1783097   -5.9901843    251.77822  0.040899645   0.04193035            2 
  514000    1.1612597   -5.9551558    252.28686  0.040902539  0.041922971            4 
  515000    1.1672827   -5.9912509    253.23545   0.04097661  0.041916755            3 
  516000    1.1611383   -5.9973763    253.26028  0.040901208  0.041910434            3 
  517000    1.1892851   -5.9679521    252.94202  0.040770797  0.041903999            3 
  518000    1.1757078   -5.9329407    253.42819  0.040770301  0.041896851            3 
  519000     1.156125   -5.9923249    254.86398  0.040922283  0.041889372            8 
  520000    1.1597562   -5.9926298    254.71296  0.040819385  0.041881141            5 
  521000    1.1423006   -5.9670224     254.6265  0.040727207   0.04187323            4 
  522000    1.1687139   -5.9598473    256.53054  0.040953151  0.041866171            3 
  523000    1.1514869   -5.9990898    256.10947  0.040807754  0.041859225            8 
  524000    1.1671966   -5.9857202    256.57674  0.040804189  0.041851629            3 
  525000    1.1617877   -5.9531405    257.45884  0.040866483  0.041844606            6 
  526000    1.1569419    -5.966179    258.49767   0.04095337  0.041838395            2 
  527000    1.1478931   -5.9664425    258.65201  0.040900064  0.041831798            6 
  528000    1.1734075    -5.983016    257.86391  0.040698218  0.041824257            4 
  529000    1.1335085   -6.0107123      258.663  0.040747164  0.041817246            8 
  530000    1.1914944   -5.9995208    260.18325  0.040909317  0.041810106            4 
  531000    1.1756045   -5.9641772    260.07419  0.040815158  0.041803538            2 
  532000    1.1660621   -5.9832808    260.71996  0.040839593  0.041796314            3 
  533000     1.161389   -5.9510279    261.33825  0.040859639   0.04178897            9 
  534000    1.1539315   -5.9823246    260.56985   0.04066321  0.041781254            3 
  535000    1.1617229   -6.0039316    260.89967  0.040638578  0.041772831            6 
  536000    1.1768916   -5.9932304    262.10523  0.040750192  0.041764706            2 
  537000     1.136422   -5.9809483    262.23292  0.040694122  0.041756205            6 
  538000    1.1952409   -5.9345309    263.27934  0.040780566  0.041748215            8 
  539000    1.1630972   -5.9451716    264.16642  0.040842056  0.041740797            7 
  540000     1.157556   -5.9946605    264.20858  0.040772928  0.041733422            3 
  541000    1.1715549   -6.0016029    264.84465   0.04079554  0.041725995            4 
  542000    1.1569295    -5.978818    265.85412   0.04087548  0.041718336            3 
  543000    1.1656929   -5.9555167     265.5508  0.040753653  0.041711312            4 
  544000    1.1510947    -5.985726    265.96829  0.040742691  0.041704427            5 
  545000    1.1360059   -5.9621798    266.71176  0.040781614  0.041697533            4 
  546000    1.1424055   -6.0082042    266.26387  0.040638564  0.041690438            3 
  547000    1.1483111    -5.994016    267.01959  0.040679402  0.041683082            6 
  548000    1.1658739   -5.9788259    267.95276  0.040747075  0.041676265            2 
  549000    1.1798342    -6.023703    268.32007  0.040728608  0.041669024            3 
  550000    1.1570564   -5.9599358    268.72461  0.040715851  0.041661542            2 
  551000    1.1536663   -5.9616367    269.12327  0.040702248  0.041654311            4 
  552000    1.1459346   -5.9918346    268.04594  0.040465873    0.0416463            2 
  553000    1.1565556   -5.9875168     268.9729  0.040532384  0.041638021           10 
  554000    1.1618584   -5.9817285    270.65807  0.040712706  0.041630316            3 
  555000    1.1589622   -5.9913714    270.62684  0.040634661  0.041623078            4 
  556000    1.1764498   -6.0036027    271.28867  0.040660772  0.041615312            2 
  557000     1.170218   -5.9566973    271.33865  0.040595249   0.04160685            3 
  558000    1.1797387   -5.9625321    271.41811  0.040534365  0.041598511           10 
  559000    1.1629091   -5.9619796     270.9475  0.040391696  0.041589492            3 
  560000    1.1616783   -5.9867485    271.47813  0.040398532  0.041579859            2 
  561000    1.1305521   -5.9726721      272.196  0.040433155  0.041570216            3 
  562000    1.1877616   -5.9629272    272.40945   0.04039286  0.041560643            3 
  563000    1.1910384   -5.9856357    272.61054  0.040350879  0.041551368            6 
  564000    1.1495761   -6.0057399    273.28452  0.040378918  0.041542233            4 
  565000    1.1617146   -6.0102066    273.93605  0.040403547   0.04153319            5 
  566000    1.1819697    -6.012677    273.99776  0.040341249  0.041523333            3 
  567000    1.1390266    -5.968793    274.94208  0.040408888  0.041513969            4 
  568000    1.1672437   -5.9896016    275.30091  0.040390392  0.041504695            4 
  569000    1.1658844   -5.9929567    276.28218   0.04046312  0.041496183            5 
  570000     1.168201   -5.9925812    275.99149  0.040349633  0.041487034            5 
  571000    1.1723368   -5.9767931    276.64242  0.040373967  0.041477464            3 
  572000    1.1691026    -6.003454    276.35631    0.0402617  0.041467797            4 
  573000    1.1447847   -6.0122816    276.90035  0.040270556  0.041457487            4 
  574000    1.1844037   -6.0085782    277.06891  0.040224871  0.041447526            2 
  575000    1.1502191   -5.9875376    276.69257  0.040100372  0.041437875            6 
  576000    1.1877854    -6.044573    277.41279  0.040134953   0.04142729            3 
  577000    1.1836567   -5.9897264    279.80712  0.040411196   0.04141686            3 
  578000    1.1571238   -5.9645605    280.33418  0.040417269  0.041407502            5 
  579000    1.1414206   -5.9661907    280.16299  0.040322826  0.041398732            2 
  580000    1.1542576   -6.0332978    279.19967  0.040114895  0.041389167            7 
  581000    1.1530044   -5.9753904    281.01022   0.04030554  0.041379387            3 
  582000    1.1787403   -6.0091079    280.69788  0.040191564  0.041369151            3 
  583000    1.1574823   -5.9702276     281.2708  0.040204516   0.04135864            4 
  584000    1.1542718   -5.9557492     280.5703  0.040035716  0.041348065            5 
  585000     1.158905   -5.9899517    281.57401  0.040110258  0.041337462            5 
  586000    1.1874915   -6.0110297    281.75126  0.040067017  0.041326677            6 
  587000    1.1535377   -6.0115165      283.218  0.040206984  0.041316609            5 
  588000    1.1701674   -5.9851398    283.84953  0.040228108  0.041306384            3 
  589000    1.1560418   -5.9952736    283.51409   0.04011235  0.041296697            3 
  590000    1.1665561   -5.9753209    284.11129  0.040128713  0.041286081            5 
  591000    1.1560144   -6.0095976    282.94338  0.039896134  0.041274388            9 
  592000    1.1823145   -5.9758904      283.792  0.039948199  0.041262126            3 
  593000    1.1556282    -6.021988    284.01439  0.039912084  0.041250094            3 
  594000    1.1659526   -5.9849317    284.07873  0.039853918  0.041237532            5 
  595000    1.1545738   -6.0064435    284.58933   0.03985845  0.041225205            1 
  596000    1.1332005   -5.9858267    285.66498  0.039941971  0.041212797            4 
  597000    1.1428328   -5.9611946    286.82964  0.040037638  0.041200692            5 
  598000    1.1554779   -5.9982647    286.30064  0.039896968  0.041188736            2 
  599000    1.1211421    -6.020834    286.38128   0.03984158  0.041177157            6 
  600000    1.1594671   -6.0261682    287.04151  0.039866876  0.041165267            5 
  601000    1.1413412   -5.9866481    288.17689  0.039957971  0.041153837            2 
  602000    1.1203008   -5.9966629    289.11438   0.04002137  0.041143149            4 
  603000    1.1488565   -6.0003513    287.99973  0.039800957  0.041132234            5 
  604000    1.1416673   -5.9680864    288.96802  0.039868657  0.041120957            3 
  605000    1.1620347   -5.9849747    290.78445  0.040052955  0.041110439            9 
  606000    1.1700175   -5.9977476    291.40629  0.040072372  0.041099851            4 
  607000    1.1383337   -5.9926789    290.88986  0.039935456  0.041089216            2 
  608000    1.1367314   -5.9914479    292.31266  0.040064783  0.041078368            2 
  609000    1.1667741   -5.9899395    291.04999  0.039826216  0.041067151            2 
  610000    1.1524667   -6.0079732    291.92495  0.039880458  0.041055978            3 
  611000    1.1535142   -5.9960595    291.93827  0.039817003  0.041045135            7 
  612000    1.1477153   -6.0263971    292.67448   0.03985219  0.041033937            3 
  613000    1.1373655   -6.0010745    294.44213  0.040027478  0.041023326            5 
  614000    1.1759345   -6.0329133    293.76778  0.039870762  0.041013435            3 
  615000    1.1476943   -6.0058687     295.1286  0.039990325   0.04100276            8 
  616000     1.150663    -5.999024    294.40012  0.039826856  0.040992055            2 
  617000    1.1500627   -5.9663108     295.7319   0.03994218  0.040981867            8 
  618000    1.1389115   -6.0036185    295.73916  0.039878527  0.040971371            4 
  619000    1.1623303   -5.9915403    296.43305  0.039907519  0.040961083            3 
  620000    1.1217819   -5.9852869    298.48677  0.040119189  0.040951228            3 
  621000    1.1552242   -5.9821523    297.95681  0.039983469  0.040941485            5 
  622000    1.1693485   -5.9810713    298.61465  0.040007321   0.04093167            4 
  623000    1.1404007   -5.9621118    298.30531  0.039901727  0.040922119            6 
  624000    1.1735582   -5.9967476    299.18556  0.039955337  0.040912534            7 
  625000    1.1547378   -6.0009353     299.6737  0.039956493  0.040903127            5 
  626000    1.1428218    -6.023777    299.20785  0.039830651  0.040893657            2 
  627000    1.1344033   -5.9799709    300.20757  0.039899996  0.040883902            3 
  628000    1.1323293   -6.0346295    300.32467  0.039851999  0.040874063            5 
  629000    1.1319485   -5.9553952    300.58425  0.039823032  0.040864577            4 
  630000     1.146841   -6.0069749    301.91374   0.03993568  0.040854921            5 
  631000     1.165672   -5.9917524    301.76061  0.039852167  0.040845265            4 
  632000    1.1446543   -5.9942331    302.92349  0.039942443  0.040836378            3 
  633000    1.1631392   -5.9878647    302.70934   0.03985115  0.040827778            4 
  634000    1.1891683   -5.9836365    302.54031  0.039766076  0.040819258            2 
  635000    1.1508086    -6.003299    303.20623  0.039790844  0.040810402            4 
  636000    1.1502545   -6.0030445    303.73005  0.039796914  0.040801641            5 
  637000    1.1476304   -6.0142096    304.83775  0.039879349  0.040792398            4 
  638000    1.1683098   -6.0220678    305.14677  0.039857206  0.040783153            6 
  639000    1.1487367   -6.0399289    305.18391  0.039799675  0.040774067            5 
  640000    1.1624384   -5.9981699    306.42274  0.039898794  0.040764808            3 
  641000    1.1800572   -6.0048368    306.04687  0.039787685  0.040755768            3 
  642000    1.1360333   -6.0287178    307.35276  0.039895218   0.04074652            8 
  643000    1.1329002   -6.0131975    306.55495  0.039729776   0.04073771            5 
  644000    1.1509697   -6.0193926    306.69069  0.039685648  0.040728334            2 
  645000    1.1696938   -5.9918712    307.81026  0.039768768  0.040718867            5 
  646000    1.1224583   -5.9822973    310.09743  0.040002249  0.040709368            2 
  647000    1.1278529   -6.0569706    308.61849  0.039749935  0.040700424            6 
  648000    1.1420771   -5.9746789    310.20541  0.039892671  0.040691882            5 
  649000    1.1138168   -6.0433772    310.25392  0.039837432  0.040683403            4 
  650000    1.1480578   -6.0087797    311.17686  0.039894469   0.04067471            2 
  651000    1.1186803   -5.9991534    311.53916  0.039879565  0.040666089            5 
  652000    1.1307059   -6.0029463    311.90333  0.039864945  0.040657748            3 
  653000    1.1396341   -5.9785951     311.0879  0.039699834  0.040649537            4 
  654000    1.1557603   -5.9974202    312.53458  0.039823468   0.04064069            4 
  655000     1.170311   -6.0190231     313.3113  0.039861489  0.040632247            5 
  656000    1.1266053   -5.9968024    313.60275  0.039837748  0.040623906            6 
  657000    1.1554585   -6.0346549    313.08574  0.039711535  0.040615617            4 
  658000    1.1715969   -5.9963828    314.47204  0.039826753  0.040607128            6 
  659000    1.1372673   -6.0022492    315.02561  0.039836319  0.040599341            4 
  660000    1.1319535   -5.9896756    314.88489  0.039758193  0.040591852            5 
  661000    1.1321188    -6.020895    316.52246  0.039904496  0.040584095            3 
  662000    1.1337376   -6.0078536    316.53533  0.039845837  0.040576461            5 
  663000    1.1211053   -6.0229171    317.20828  0.039870322  0.040569209            3 
  664000    1.1380754   -5.9784274    316.91768  0.039773805  0.040561305            6 
  665000    1.1338961   -6.0017437    318.08554  0.039860343  0.040553621            4 
  666000    1.1316053   -6.0323771    317.95178  0.039783756   0.04054566            4 
  667000    1.1657386    -6.047281    318.17445   0.03975193  0.040537965            2 
  668000    1.1464869   -6.0003434    318.60537  0.039746179  0.040530597            7 
  669000    1.1485386   -6.0172873     319.8521  0.039842065  0.040523094            5 
  670000     1.135095   -5.9933027    320.77493  0.039897379  0.040515861            2 
  671000    1.1640551   -6.0081447    320.18381  0.039764507  0.040508476            4 
  672000    1.1169866   -6.0098761    322.24991  0.039961546  0.040501281            3 
  673000    1.1464631   -6.0094608    320.81428  0.039724403  0.040494067            8 
  674000    1.1306371   -5.9876529    322.51021  0.039875149  0.040486798            7 
  675000     1.184196   -6.0296786    321.89526  0.039740156  0.040479608            5 
  676000    1.1486223   -6.0028183    321.97296  0.039690946  0.040472417            7 
  677000    1.1429608   -6.0077966    324.28373  0.039916757  0.040465815            3 
  678000    1.1397377   -5.9900352    323.80463  0.039798996  0.040459435            4 
  679000    1.1457338   -5.9878152    324.79145  0.039861494  0.040453122            2 
  680000    1.1552004   -6.0192603    325.24354  0.039858277  0.040447214            6 
  681000    1.1328248   -6.0312615     326.8988  0.040002301  0.040441155            5 
  682000    1.1136189   -6.0290773    326.67773  0.039916634  0.040435319            3 
  683000    1.1517528   -6.0123927    327.00396  0.039897994  0.040429262            6 
  684000    1.1553742   -6.0459527    328.34709    0.0400033  0.040423122            5 
  685000     1.148133   -6.0484233    328.25715   0.03993396  0.040417445            3 
  686000    1.1319998   -6.0129782    329.26866  0.039998622  0.040411381            5 
  687000    1.1743411   -6.0021195    328.79704  0.039883193  0.040405588            4 
  688000    1.1487517    -6.003998    329.54584   0.03991592  0.040399839            4 
  689000    1.1572065   -6.0314116    329.22125  0.039818729  0.040394087            3 
  690000    1.1162177    -6.011141    329.94464  0.039848386  0.040388221            3 
  691000    1.1457956    -6.064359    330.19053  0.039820372  0.040382794            4 
  692000    1.1343366    -6.019781    332.44977  0.040034896  0.040377327            3 
  693000    1.1452016   -6.0169456    331.83432  0.039903116  0.040372247            3 
  694000    1.1537069   -5.9979457    333.26818  0.040017793  0.040367392            4 
  695000    1.1458076   -6.0109346    332.76743  0.039900171  0.040362124            9 
  696000    1.1494039   -6.0108262    333.05489  0.039877261  0.040357003           10 
  697000    1.1166059   -6.0195685    335.16104  0.040071861  0.040352455            5 
  698000    1.1312289   -6.0257874    335.32182  0.040033646  0.040347819            2 
  699000    1.1471388   -6.0674777    335.14175  0.039954905  0.040343008            7 
  700000     1.146018    -6.020156    336.03726  0.040004435  0.040338539            4 
  701000    1.1284758   -6.0194225    335.82431  0.039922053  0.040333989            6 
  702000    1.1393516   -5.9939111    337.71024   0.04008906  0.040329837           11 
  703000    1.1320393   -6.0039905    337.23625  0.039975847  0.040325698            3 
  704000    1.1344275   -6.0311534    337.05464  0.039897567  0.040321088           10 
  705000    1.1592264    -6.018185     338.5627  0.040019231  0.040316615            2 
  706000    1.1350149   -6.0115835    338.70435  0.039979267  0.040312274            3 
  707000     1.115729   -6.0048353    339.55032  0.040022433  0.040307812            5 
  708000    1.1384206   -6.0367453    338.94439  0.039894585  0.040303591            7 
  709000    1.1067436    -6.013955    339.40223  0.039892128  0.040298601            5 
  710000    1.1248709   -6.0682882    338.67588   0.03975069  0.040293573            2 
  711000    1.1464601   -6.0366331    339.64381  0.039808229  0.040287614           11 
  712000     1.170728   -6.0545021    340.40726  0.039841673  0.040282088            6 
  713000    1.1047581   -6.0392857    340.36777  0.039781179  0.040276555           10 
  714000    1.1485087   -6.0344281    341.79342  0.039891855  0.040271315            3 
  715000    1.1438242   -6.0271883     341.4156  0.039792028  0.040265664            8 
  716000    1.1541561   -6.0752264    342.19302  0.039826935  0.040260062            4 
  717000    1.1073743   -6.0299367    342.42407  0.039798242  0.040254304            3 
  718000     1.132095   -6.0253289    343.07719  0.039818615  0.040247889            6 
  719000    1.1378421   -6.0377596    341.93217  0.039630525  0.040241211            4 
  720000    1.1413766   -6.0215252    342.35031  0.039623878  0.040234475            5 
  721000    1.1535272   -5.9823114    342.99524  0.039643463  0.040227832            3 
  722000     1.145221   -6.0156582    342.86216  0.039573195  0.040221348            4 
  723000    1.1061406   -6.0388793    343.52607  0.039594983  0.040214681            4 
  724000    1.1330274   -6.0497543    343.75538  0.039566687  0.040207887            4 
  725000    1.1501137   -6.0351039    345.07424  0.039663706  0.040200866            2 
  726000    1.1347095    -6.020072    344.74262  0.039571008  0.040194344            3 
  727000    1.1610463   -6.0569326    345.69485  0.039625727  0.040187876            5 
  728000    1.1496797   -6.0273637    346.54377  0.039668472  0.040181688            9 
  729000    1.1482375   -6.0516789    346.89818   0.03965457  0.040175882            7 
  730000    1.1382707   -5.9864711    347.52745  0.039672083  0.040169892            4 
  731000    1.1235999   -6.0195713    348.41159  0.039718604   0.04016367            5 
  732000    1.1447313   -6.0259368    347.42722  0.039552279  0.040157256            6 
  733000    1.0983656   -6.0340366     348.1703  0.039582799  0.040150234            5 
  734000    1.1188098   -6.0467859    348.47905  0.039563924  0.040143086            2 
  735000    1.1272454   -6.0116222    348.53563  0.039516511  0.040136046            5 
  736000    1.1247979    -6.051455    348.99527  0.039514863  0.040129096            6 
  737000    1.1219322   -5.9949118    350.69857  0.039653841  0.040122217            7 
  738000    1.1333337   -5.9981272     349.7797  0.039496353  0.040115507            2 
  739000    1.1241121   -6.0191809    351.32861   0.03961757  0.040108778            5 
  740000    1.1334108   -5.9966709    350.11483  0.039427345  0.040102343            6 
  741000     1.124402   -6.0458126    351.67882  0.039550025  0.040095663            4 
  742000    1.1137505   -6.0497549    351.38937  0.039464215  0.040088911            5 
  743000    1.1331887   -6.0405811    352.05918  0.039486225  0.040082095            4 
  744000    1.1255417   -6.0290362    352.42558  0.039474191   0.04007545           13 
  745000     1.151862   -6.0123186       352.31  0.039408277  0.040068796           10 
  746000    1.1383807    -6.047285    354.11764  0.039557377  0.040062425            3 
  747000    1.1519281   -6.0743048    353.57605  0.039444003  0.040055757            3 
  748000    1.1547121   -6.0332574    354.53345  0.039497933  0.040049051            2 
  749000    1.1581799   -6.0400441    354.31431  0.039420818  0.040042564            3 
  750000    1.1254762   -6.0186954     356.3844  0.039598267  0.040036097            4 
  751000    1.1226381   -6.0310141    356.81044  0.039592814  0.040030177            5 
  752000    1.1409059   -6.0469601    357.21343  0.039584822   0.04002441           10 
  753000    1.1184039    -6.035404    358.16461  0.039637517  0.040019477            7 
  754000    1.1461232   -6.0301358    358.08439  0.039576082  0.040013876            5 
  755000    1.1352491   -5.9789491    357.92725  0.039506319  0.040008134            8 
  756000    1.1396224   -6.0288214    358.90905  0.039562285  0.040002337            5 
  757000    1.1394586    -6.039979    359.06053  0.039526699  0.039995991            3 
  758000    1.1559011   -6.0356041    359.34626  0.039505965   0.03998995            4 
  759000    1.1275653    -6.065221    359.07562    0.0394242  0.039983613            3 
  760000    1.1232909   -6.0316109     358.9011  0.039353191  0.039977379            3 
  761000    1.1465562   -6.0918228    360.16904  0.039440325  0.039971035            3 
  762000    1.1259992   -6.0639128    360.50542  0.039425352  0.039964858            4 
  763000    1.1434126   -6.0188767    360.82267   0.03940833  0.039958908            5 
  764000    1.1178045   -6.0319052    362.47107  0.039536548  0.039952903            3 
  765000    1.1349998   -6.0264318    361.89214  0.039421801  0.039946915            2 
  766000    1.1407288   -6.0243488    363.85774  0.039584175  0.039941101            4 
  767000    1.1232323   -6.0266496    363.25415  0.039466987  0.039935382            3 
  768000    1.1579808   -6.0818019    363.53728  0.039446319  0.039929645            8 
  769000    1.1097118   -6.0243749    365.01042  0.039554662  0.039923976            4 
  770000    1.1253962   -6.0718714    364.34183  0.039430934  0.039918519            2 
  771000    1.1414162   -6.0423552    365.81054  0.039538536  0.039912619           13 
  772000    1.1570825    -6.031906    365.25127  0.039426951  0.039907132            4 
  773000    1.1279271   -6.0310034    367.41199  0.039608882  0.039901898           15 
  774000    1.1426857   -6.0800474    365.96985  0.039402439   0.03989666            3 
  775000    1.1452624   -6.0607309    367.29694  0.039494294  0.039891529            6 
  776000    1.1059505   -6.0729905    368.44314  0.039566489  0.039886598            5 
  777000    1.1327914   -6.0541403    368.92107  0.039566825  0.039881799            4 
  778000    1.1237932   -6.0672079    368.45052  0.039465566  0.039876863            3 
  779000    1.1110264    -6.047192    369.52888  0.039530261  0.039872018            5 
  780000    1.1368235   -6.0484889    369.82728  0.039511462  0.039867104            9 
  781000    1.1512825   -6.0325295    370.70281  0.039554291  0.039862147            4 
  782000    1.1202576   -6.0723652    371.66445  0.039606186  0.039857019            5 
  783000     1.119104   -6.0711653     371.9176  0.039582546  0.039852288            4 
  784000    1.1474557   -6.0463062    372.45296  0.039588962  0.039847752            3 
  785000    1.1373181   -6.0352979    372.90441  0.039586455  0.039843285            5 
  786000    1.1022574   -6.0453338    372.74105  0.039518772  0.039838934            3 
  787000    1.1304465   -6.0700644    374.23881  0.039627151  0.039834587            4 
  788000    1.1263403   -6.0256212    374.68601  0.039624155  0.039829946            3 
  789000    1.1077829   -6.0621903    374.08862  0.039510838  0.039825415            3 
  790000    1.1046413   -6.0556166    375.23394  0.039581639   0.03982099            6 
  791000    1.1115585   -6.0628599    375.39174  0.039548224  0.039816694            4 
  792000    1.1390081   -6.0576091    376.15173  0.039578254  0.039812584            4 
  793000    1.1157192    -6.051058    376.38299  0.039552647  0.039808616            6 
  794000    1.1191271   -6.0582734    376.54901  0.039520257   0.03980437            5 
  795000    1.1308631   -6.0692544    375.83008  0.039395187  0.039799532            7 
  796000    1.1379055   -6.0323331    378.21569  0.039595444  0.039794989            3 
  797000    1.1487997   -6.0255107    378.61758  0.039587785  0.039790772            8 
  798000    1.1145484   -6.0546989    377.51292   0.03942282  0.039785945            5 
  799000    1.1476215   -6.0556958    377.96949  0.039421098  0.039781043            6 
  800000    1.1355389   -6.0607609    378.36089  0.039412593  0.039775966            5 
  801000    1.1027656   -6.0449696    379.70414  0.039503135  0.039770984            5 
  802000    1.1087374   -6.0393228    378.15786  0.039293211  0.039766001            4 
  803000     1.119944   -6.0575386    380.16861  0.039452948  0.039760938            4 
  804000    1.1187854   -6.0731629    380.47099  0.039435219  0.039755903            3 
  805000    1.1371052   -6.0675352    380.51687   0.03939098  0.039750837            3 
  806000    1.1221759   -6.0900558    380.96316  0.039388251  0.039745777            4 
  807000    1.0971597   -6.0508526    381.53957  0.039398965  0.039740692           10 
  808000    1.1282808   -6.0345793    382.30965  0.039429626    0.0397361            2 
  809000    1.1148312   -6.0369538    382.47977  0.039398411  0.039731088            4 
  810000    1.1086277   -6.1084422    382.29804  0.039331074  0.039726075            3 
  811000     1.100751   -6.0563557    384.19926  0.039477934  0.039720959            4 
  812000    1.1345404   -6.1082571    384.37026  0.039446866  0.039716078            5 
  813000    1.1183299   -6.0221896    384.60673  0.039422584  0.039711245            5 
  814000    1.1355133   -6.0916398    384.96418  0.039410747  0.039706595            6 
  815000    1.1266385   -6.0452294    384.75615   0.03934112  0.039701836            3 
  816000    1.0928761   -6.0706682    386.29883  0.039450453  0.039696774            5 
  817000    1.1214705    -6.096376    386.01348   0.03937306  0.039691839            5 
  818000    1.1136934   -6.1011276    386.23836  0.039347836  0.039686822            6 
  819000    1.1621175   -6.0555483     387.3706  0.039414998  0.039682086            7 
  820000    1.1303821   -6.0697121    387.17725  0.039347282  0.039677497            3 
  821000    1.1004937   -6.0535254    387.41769  0.039323761  0.039672524            2 
  822000    1.1375335   -6.0672898    389.30301  0.039467052  0.039667882           12 
  823000     1.117265   -6.0687161    388.56757   0.03934463  0.039663397            5 
  824000    1.1287652   -6.0946882    389.38504  0.039379555  0.039659285            6 
  825000    1.1288902   -6.0443836    390.01355  0.039395308  0.039654557            3 
  826000    1.1215963   -6.0397143    389.48947  0.039294741  0.039649678            7 
  827000    1.1145293   -6.0903835    390.10972  0.039309726  0.039644836           10 
  828000    1.1157656   -6.0569396     391.6716  0.039419445  0.039639285            6 
  829000    1.1120963   -6.0559713    390.96995  0.039301362  0.039633727            5 
  830000    1.1198104   -6.0448696    389.89549  0.039146133  0.039628542            5 
  831000    1.1210755   -6.0799672    391.12319  0.039222141  0.039623375            4 
  832000    1.1255261   -6.0707874    392.78434   0.03934138  0.039618485            4 
  833000    1.1238573   -6.0142095    393.03226  0.039318953  0.039613321            3 
  834000    1.1126988   -6.0462872    392.50667  0.039219292  0.039608263            4 
  835000    1.1105381   -6.0484575    393.19527  0.039241045  0.039602831            7 
  836000    1.1305179   -6.1046981    393.69411  0.039243831  0.039597093            8 
  837000    1.1230274   -6.0769282     393.3326  0.039160952  0.039591769            7 
  838000    1.1483455   -6.0774143    393.65255  0.039146037  0.039586051            5 
  839000    1.1146685   -6.0787773     395.1268  0.039245809  0.039580519            3 
  840000    1.1096429   -6.0222023    395.70319  0.039256269  0.039575277            4 
  841000    1.1077257   -6.0460954    395.14184  0.039153967   0.03957014            4 
  842000    1.1252795   -6.0753673    395.54558  0.039147425  0.039564919            3 
  843000    1.1447762    -6.084347     396.3034    0.0391759  0.039560061            5 
  844000    1.1165669   -6.0525963    397.98899  0.039295912  0.039555162            3 
  845000    1.0984864   -6.0430999    398.56688  0.039306398  0.039550391            3 
  846000    1.1082889   -6.0800541    398.26132  0.039229839  0.039545498            5 
  847000    1.1286921   -6.0641731    400.02598  0.039357141  0.039540465            8 
  848000    1.1211648   -6.0505724    400.08819  0.039316842  0.039535602            3 
  849000    1.1144286   -6.0587624    400.56068   0.03931691  0.039531279            3 
  850000     1.089178   -6.0598672    400.02561  0.039218197   0.03952663            5 
  851000    1.1476604   -6.0682286    400.68272   0.03923646   0.03952159            4 
  852000    1.1179278   -6.0697434    400.69875  0.039191975  0.039516682            8 
  853000    1.1020559   -6.0895415    400.28882  0.039105981  0.039511572            5 
  854000    1.1137037   -6.0417419    401.02289   0.03913182  0.039506041            7 
  855000     1.131671   -6.0322232    403.03556  0.039282219  0.039500984            3 
  856000    1.1065656   -6.1145843    401.46304  0.039083239  0.039496007            6 
  857000    1.0958916   -6.1000419    401.57407  0.039048431  0.039490458            7 
  858000    1.1064587    -6.096277    402.80911  0.039122874  0.039485225            4 
  859000    1.1055139   -6.0896328    402.90341  0.039086478  0.039479787            3 
  860000      1.08025   -6.0789271    404.08743  0.039155758  0.039474698            3 
  861000    1.1200865    -6.080242    404.24621  0.039125649  0.039469698            6 
  862000    1.0960538   -6.0496026    404.41327  0.039096411  0.039464628            5 
  863000    1.1130248   -6.0562719    406.25412  0.039228864   0.03945975            2 
  864000    1.1184919   -6.0913491    406.44929  0.039202285  0.039455147            2 
  865000    1.1140822   -6.0841459    404.81922  0.038999924  0.039450376            1 
  866000    1.0965394   -6.0609829    407.07318  0.039171784  0.039445412            7 
  867000    1.1236512   -6.0654255    407.48108   0.03916581  0.039440359            3 
  868000    1.1170124    -6.053559    406.37251  0.039014258  0.039435432           17 
  869000    1.1254099   -6.0709464    406.80334  0.039010677  0.039430383           10 
  870000    1.1028583   -6.0488719    410.08801  0.039280461  0.039425161            8 
  871000    1.1160509   -6.0484851    408.16655  0.039051526  0.039419924            3 
  872000    1.1212524   -6.0800389    407.87645  0.038979018  0.039414404            4 
  873000    1.1181442   -6.0281444    407.78394  0.038925539  0.039408203            4 
  874000    1.1067142   -6.0433302    408.11094   0.03891218  0.039401922            7 
  875000    1.1441303   -6.0788589     408.6744  0.038921371  0.039395544            5 
  876000    1.1035864   -6.0825507    408.50899  0.038861205  0.039389361            7 
  877000    1.1168909   -6.0531948    408.34578  0.038801386  0.039383317            2 
  878000    1.1252874   -6.0324904    409.08872  0.038827707  0.039377028            5 
  879000    1.1298199   -6.0780158    410.70919  0.038937162    0.0393709            2 
  880000    1.1151311    -6.031641    410.97767  0.038918339   0.03936479            6 
  881000    1.0948604   -6.0438322    412.01557  0.038972339  0.039358905            8 
  882000    1.1278874    -6.101354     410.8791  0.038820777  0.039352531            5 
  883000     1.088304   -6.0784994    412.19764   0.03890125  0.039346246            4 
  884000    1.1336434   -6.0228266    412.41227  0.038877476  0.039339622            2 
  885000    1.1030798   -6.0796242    412.00034  0.038794759  0.039333102            5 
  886000    1.1116933   -6.0694122    411.87457  0.038739143  0.039326219            4 
  887000    1.1148003   -6.0650711    411.54221  0.038664244  0.039319342            5 
  888000    1.1008428   -6.0734246    412.73452  0.038732594  0.039312426            7 
  889000    1.0940261   -6.0654271    413.77338  0.038786406  0.039305534            2 
  890000    1.1303144   -6.1118183    412.82523  0.038654048  0.039298649            4 
  891000    1.1335583   -6.0775766    413.52926  0.038676511  0.039291405            4 
  892000    1.0970652   -6.0460231    413.85697  0.038663768  0.039284371            5 
  893000    1.1177903   -6.0742436     414.1097  0.038644055  0.039277199            7 
  894000    1.1089752    -6.119477    415.47141   0.03872776  0.039269995            6 
  895000    1.1175658   -6.1084393    414.45524  0.038589874   0.03926266            6 
  896000    1.1161035   -6.0425337    417.09798  0.038792595  0.039255487            9 
  897000    1.1309867   -6.0774052    416.21612  0.038667421  0.039248346            3 
  898000    1.1233944   -6.0796899    416.07096  0.038610891  0.039240996            4 
  899000    1.1117794   -6.0814132    417.69952  0.038718903  0.039234127            6 
  900000    1.0900989   -6.0547415    419.40824  0.038834096  0.039227719            3 
  901000    1.1285307   -6.0845629    417.99381  0.038660175  0.039221283            4 
  902000    1.1139273   -6.0314513       418.67  0.038679786   0.03921477            5 
  903000    1.1091476   -6.0943832    418.46912  0.038618413  0.039208089            8 
  904000    1.1021925   -6.1279608    418.16721  0.038547862  0.039201381            8 
  905000     1.107508   -6.0775981    418.95032  0.038577378  0.039194442            8 
  906000      1.11016   -6.1010328    420.90661  0.038714736  0.039187355            4 
  907000    1.1047662   -6.0547287    420.62151  0.038645857  0.039180582            5 
  908000    1.1291786   -6.0596534    422.09688    0.0387387  0.039173703            4 
  909000    1.0920766    -6.072861    422.22454  0.038707787  0.039166813            6 
  910000    1.1114775   -6.1044427    420.75092  0.038530304  0.039159939            7 
  911000     1.104768   -6.1034536    422.31309  0.038630908    0.0391529            5 
  912000    1.0956789   -6.0806374    420.89221  0.038458718  0.039145629           12 
  913000      1.10414   -6.0737023    422.31216  0.038546199   0.03913851           11 
  914000     1.103594   -6.0804754    422.96009    0.0385631  0.039131541            5 
  915000    1.0923412   -6.1180001     421.8101  0.038416221  0.039124347            4 
  916000    1.1155833   -6.0537114    425.52225  0.038711995  0.039117182            5 
  917000     1.101862   -6.0780103    423.72379  0.038506342  0.039110068            5 
  918000    1.0891885   -6.0980708    423.16874  0.038414011  0.039102823            3 
  919000    1.0680023   -6.0987372    424.80814  0.038520869  0.039095579            3 
  920000    1.1045212   -6.0645917    425.25648  0.038519609  0.039088091            2 
  921000    1.1151453   -6.0682006     425.5438  0.038503782  0.039080702            7 
  922000    1.0918646   -6.1101319    424.44934    0.0383631  0.039073112            4 
  923000    1.1064077   -6.1188127    424.43178  0.038319951  0.039064995            8 
  924000    1.1086211   -6.0909352    425.66705  0.038389886  0.039057142            5 
  925000    1.0938155   -6.1115124    425.77396  0.038358015  0.039049582            5 
  926000    1.0820481   -6.0536165    425.19895  0.038264844  0.039041485            5 
  927000    1.1021108   -6.0689592    426.14277  0.038308412  0.039033675            3 
  928000     1.104189   -6.0993036    427.01787  0.038345714  0.039025904            2 
  929000    1.1003512   -6.0697277    427.45161  0.038343345   0.03901814            3 
  930000    1.0934818   -6.0825274    427.36292  0.038294169    0.0390102            5 
  931000    1.1195889   -6.0766369    428.01711  0.038311592  0.039002595            3 
  932000     1.082847   -6.0629337      429.704  0.038421316  0.038994841            3 
  933000    1.1007968   -6.1229861    429.06999  0.038323507  0.038987322            8 
  934000    1.1220872    -6.053818    430.51276  0.038411203  0.038979738            5 
  935000    1.0924874   -6.0793751    430.08761  0.038332229  0.038972184            7 
  936000    1.1128986   -6.0919001    430.87343  0.038361238  0.038964548            3 
  937000    1.1104684   -6.1305144    429.55335  0.038202895  0.038956928            4 
  938000    1.1134751   -6.0855492    430.00874  0.038202625  0.038948939            3 
  939000    1.1061467   -6.0628452    431.21086  0.038268624  0.038941238            5 
  940000    1.1129933   -6.1120571    431.60732   0.03826306  0.038933552            3 
  941000    1.0921565   -6.0961901    432.16771  0.038272025  0.038926107            4 
  942000    1.1112712   -6.1062018    433.47829  0.038347337  0.038918718            3 
  943000    1.0773637   -6.0555726    435.27675  0.038465602  0.038911094            4 
  944000    1.0987433   -6.0939159    434.40426  0.038347834  0.038903706            5 
  945000    1.0966261    -6.086244    434.30766  0.038298736  0.038896273            6 
  946000    1.1145249   -6.1069162    434.38598   0.03826515  0.038888601            4 
  947000    1.1173299   -6.0754801    434.52632  0.038237092  0.038880809            4 
  948000    1.0870791   -6.0758991    434.59906  0.038203152  0.038873384            9 
  949000    1.0817497   -6.0865519    434.74779  0.038175956  0.038865495            6 
  950000      1.10237   -6.1009865    435.55128  0.038206252  0.038857544            4 
  951000     1.082773   -6.0917592    435.47528  0.038159418   0.03884988            9 
  952000    1.1025197   -6.0877906    437.54237  0.038300277  0.038842374            3 
  953000     1.117878   -6.1079004    437.20484  0.038230573  0.038834916            8 
  954000    1.1005181   -6.1122691    437.21189  0.038191115  0.038827249            7 
  955000    1.0910392   -6.0843852    438.06926  0.038225939  0.038820273            6 
  956000    1.0764275    -6.109115     438.3959  0.038214426  0.038813289            4 
  957000    1.0971126    -6.110515     439.5559  0.038275505  0.038806164            7 
  958000    1.1192686   -6.1186877    439.18524  0.038203309  0.038799154            7 
  959000    1.0869409   -6.1001646    441.33411    0.0383502  0.038792188            4 
  960000    1.1088025    -6.100994    440.61437  0.038247775  0.038785381            5 
  961000    1.0953074   -6.1071479    440.61204  0.038207774  0.038778407            4 
  962000    1.0657981   -6.1000469    441.33589   0.03823076  0.038771296            7 
  963000     1.111493   -6.1211129    441.34682  0.038192006  0.038764029            4 
  964000    1.0841743    -6.068925    442.57574  0.038258622  0.038756413            7 
  965000    1.0932053   -6.1124712    441.47488   0.03812391  0.038749116            3 
  966000    1.0955774   -6.1023292    442.32477  0.038157761  0.038741837            2 
  967000    1.0869131   -6.1107779     444.3128  0.038289625  0.038734648            3 
  968000    1.0927412    -6.076785     441.3648  0.037996281  0.038727146            8 
  969000    1.1121226   -6.1013653      443.371  0.038129601  0.038719641            6 
  970000    1.0994062   -6.0634243    444.76285  0.038209867  0.038712039            3 
  971000     1.104245   -6.0823656    443.89862  0.038096346  0.038704802            4 
  972000     1.086334   -6.1232657    443.58659    0.0380304  0.038697243            3 
  973000    1.0940773   -6.0879455    444.30581  0.038052913  0.038689624            4 
  974000    1.0954159    -6.118983    444.41426  0.038023123  0.038681818            3 
  975000    1.1092924   -6.0845948    444.80844  0.038017815  0.038673991            4 
  976000     1.096708   -6.1385878     445.1639  0.038009213  0.038666342            2 
  977000    1.0717848   -6.1166301    445.17555  0.037971302  0.038658359            4 
  978000    1.0951932    -6.122608    445.22099  0.037936349  0.038650176            2 
  979000    1.1036962   -6.1196266    445.38206  0.037911309  0.038641993            4 
  980000    1.1072613   -6.1322046     446.5938  0.037975663  0.038633939            5 
  981000    1.0935833   -6.1050473    446.76221  0.037951258  0.038625698            5 
  982000    1.0763225   -6.0918725    446.15876  0.037861402  0.038617472            6 
  983000    1.1213566   -6.0958087    447.14031  0.037906096  0.038609202            5 
  984000    1.0922708   -6.1077138    447.76747  0.037920687  0.038600896            3 
  985000    1.1195198   -6.0837192    447.90592  0.037893902  0.038592875            5 
  986000    1.1198085   -6.0842353    448.95942  0.037944508  0.038584796            6 
  987000    1.0961155   -6.0833209    449.80608  0.037977548  0.038577058           11 
  988000    1.0856063   -6.0821432    449.82577   0.03794077  0.038569437            5 
  989000    1.1039883   -6.1208343    451.32659  0.038028867  0.038561604            3 
  990000     1.062699   -6.0901504    452.80342  0.038114766  0.038553971            8 
  991000    1.0835334   -6.0763787    450.98965  0.037923785  0.038546342           13 
  992000    1.1119161   -6.1041509    450.06274   0.03780769  0.038539021            7 
  993000    1.1018667   -6.1035107     452.3863   0.03796461  0.038531542            6 
  994000    1.0661818   -6.0803677    452.90265  0.037969706  0.038524108            6 
  995000     1.092423   -6.0831976    452.97829   0.03793788  0.038516584            3 
  996000    1.0782935   -6.0984745    453.98477     0.037984  0.038508981            4 
  997000     1.068477   -6.0757789    453.50684  0.037905955  0.038501692            3 
  998000    1.0793032    -6.088694    456.48467  0.038116622  0.038494464            9 
  999000    1.0815321   -6.1494953    455.82365  0.038023327   0.03848753            4 
 1000000    1.0650245   -6.1376584    457.39036  0.038115863  0.038480947            5 
 1001000    1.1107699   -6.1234686    457.45331  0.038083027  0.038473917            7 
 1002000     1.091544   -6.1336548    457.14434  0.038019323  0.038467164            8 
 1003000    1.1037159   -6.0997462    456.82392  0.037954795   0.03846042            3 
 1004000    1.0699667   -6.1404812    456.25328  0.037869629  0.038453481            7 
 1005000    1.0859454   -6.1223595    457.80546  0.037960652  0.038446558            4 
 1006000    1.0868011   -6.0899803     456.9335  0.037850687  0.038439425            4 
 1007000    1.1144901   -6.1228372    458.64123  0.037954421  0.038432173            5 
 1008000    1.0700514   -6.1575143    459.26884  0.037968654  0.038425199            4 
 1009000    1.0835149   -6.1393038    459.20586  0.037925822  0.038418267            7 
 1010000    1.1153603   -6.1269562     460.4759  0.037993061  0.038411543            6 
 1011000    1.1302798   -6.1199901    460.02251   0.03791811  0.038404684            4 
 1012000    1.1245036   -6.1338203    460.68415  0.037935125  0.038397688            6 
 1013000    1.0951389   -6.1151654    460.52385  0.037884489  0.038390707            4 
 1014000    1.0840702   -6.1038087    460.95568  0.037882617  0.038383889            4 
 1015000    1.0830579   -6.1024405     461.5027  0.037890205  0.038377215           12 
 1016000     1.063567   -6.1178054    461.72072  0.037870794  0.038370485            4 
 1017000    1.0911712   -6.0874973    463.66798  0.037993116  0.038363993            4 
 1018000    1.0988129   -6.1368738    462.09176  0.037826765  0.038357191            4 
 1019000    1.0877815   -6.1101429    464.20763  0.037962678  0.038350344            5 
 1020000    1.0913065     -6.13345    463.33585  0.037854236  0.038343809            9 
 1021000    1.0888226   -6.0840577    465.10559  0.037961605  0.038337099            4 
 1022000    1.0848668   -6.1380061    464.97681   0.03791396   0.03833025            7 
 1023000    1.0924848   -6.1182295    463.43348   0.03775118  0.038323372            6 
 1024000     1.070552   -6.1081077    466.40748  0.037956338  0.038316325            7 
 1025000    1.0616843   -6.1288372    466.08857  0.037893379  0.038309339           10 
 1026000     1.082293   -6.1011834    465.70293  0.037825124  0.038302371            3 
 1027000    1.0672846   -6.1209701    466.77034  0.037874906  0.038295168            3 
 1028000    1.0687748   -6.1408342    465.31033  0.037719709  0.038288196            6 
 1029000    1.0703791   -6.1163188    467.14458  0.037831599  0.038280966            5 
 1030000    1.0848803   -6.1059745    467.90413  0.037856321   0.03827377            3 
 1031000    1.1068374   -6.1208362    467.61259  0.037796038  0.038266452            3 
 1032000    1.0722678   -6.1465287    465.83318  0.037615729  0.038258925            7 
 1033000    1.1043546   -6.1082793    467.30401  0.037697968  0.038251625            5 
 1034000    1.0781673    -6.109592    469.42124  0.037832143  0.038244292            4 
 1035000    1.1000215   -6.0797148    468.96305    0.0377587  0.038237043            3 
 1036000    1.1045167   -6.1070954    467.70054  0.037620699  0.038229733            4 
 1037000    1.0950786   -6.1237479    469.01401  0.037689972  0.038222236            5 
 1038000    1.0789303    -6.094704    469.23869    0.0376717  0.038214581            4 
 1039000    1.1056881   -6.1224676    468.95739   0.03761288  0.038207109            4 
 1040000    1.0877083   -6.0828602    468.49825  0.037539924  0.038199351            2 
 1041000    1.0923079   -6.0870932    470.20221  0.037640266   0.03819139            3 
 1042000    1.0877312   -6.1237368    469.22123   0.03752569   0.03818348            3 
 1043000    1.0794706   -6.1220119    469.57291   0.03751781  0.038175198            5 
 1044000    1.0941148   -6.1424079    469.34652  0.037463803  0.038166635           13 
 1045000    1.0899526   -6.1234602    469.31506  0.037425443  0.038158157           10 
 1046000     1.097735   -6.1179102    470.27348   0.03746602   0.03815007            5 
 1047000    1.1141556   -6.1485593    470.37143  0.037438032  0.038141489            6 
 1048000    1.0771339   -6.1124571    470.67824  0.037426705  0.038133051            5 
 1049000    1.0669045   -6.0953541      470.052  0.037341277  0.038124636            7 
 1050000    1.0785717   -6.1323368    471.17226  0.037394624  0.038115891            5 
 1051000    1.0766454   -6.1212457    472.15975  0.037437341   0.03810714           10 
 1052000    1.0668348   -6.1139442    472.65023  0.037440608  0.038098464            7 
 1053000    1.0822558   -6.1248744    471.14765  0.037286139  0.038089911            6 
 1054000    1.0841131   -6.1046879    473.22929  0.037415345  0.038081593            4 
 1055000    1.1022682     -6.11687    473.36833  0.037390863  0.038073082            3 
 1056000    1.1091082   -6.1020013    472.76446  0.037307801  0.038064561            6 
 1057000    1.0816036   -6.1204647    474.79427  0.037432534  0.038055967            7 
 1058000    1.0720747   -6.1154773     474.8154  0.037398819   0.03804743            5 
 1059000    1.0521469   -6.1425211    474.18209  0.037313668  0.038038882            7 
 1060000    1.0966263   -6.1171563    472.93217  0.037180202  0.038030268            5 
 1061000    1.0879796   -6.1219936     474.4814  0.037266839  0.038021647            3 
 1062000    1.1009333   -6.1309103    474.19985  0.037209656   0.03801299            3 
 1063000    1.1048718    -6.084961    477.39754  0.037425332   0.03800432            4 
 1064000    1.0651505   -6.1026014    475.13712   0.03721312   0.03799538            3 
 1065000    1.0921044    -6.115988    476.33474  0.037271888   0.03798653            6 
 1066000    1.0661365   -6.1258593    475.27418  0.037154016  0.037977376            3 
 1067000    1.1082518   -6.1443012    475.52727  0.037138962   0.03796834           14 
 1068000    1.0803228   -6.1220472    474.88004  0.037053686  0.037959085            5 
 1069000     1.073496   -6.0920815    477.27491  0.037205715  0.037949963            5 
 1070000    1.0825719   -6.0947081    477.13475  0.037160027  0.037940794            5 
 1071000    1.0513686   -6.1297102    478.13879  0.037203454  0.037931763            6 
 1072000    1.0810799   -6.1453938    475.36143  0.036952848  0.037922719            4 
 1073000    1.0853058   -6.1121497    478.03167   0.03712579   0.03791339            4 
 1074000     1.089256   -6.1261056    477.69074  0.037064769    0.0379042            6 
 1075000    1.0986519   -6.1289502    478.33857  0.037080509  0.037895221            6 
 1076000    1.0502352   -6.1591717    479.30063  0.037120557  0.037886284            4 
 1077000    1.0949549   -6.1235564    478.98609  0.037061753   0.03787737            4 
 1078000    1.0883342   -6.1627648    479.44811  0.037063088   0.03786834            4 
 1079000    1.0846832   -6.1157572    480.45057  0.037106161  0.037859404            9 
 1080000     1.093036   -6.1503558    479.81816  0.037023006  0.037850194            9 
 1081000    1.0851213    -6.154896    480.34515  0.037029382  0.037841051            4 
 1082000    1.0719808   -6.1330939    480.10253  0.036976473  0.037832035            9 
 1083000    1.0641282   -6.1050512    480.37863  0.036963575  0.037823067            7 
 1084000    1.0892732   -6.1256628    481.62528  0.037025314  0.037814204            8 
 1085000    1.0738631   -6.1162849    482.34432  0.037046415  0.037805167            3 
 1086000     1.086549   -6.1454936    481.94749  0.036981852  0.037796074            6 
 1087000    1.0906662   -6.1104671    482.07786  0.036957824  0.037786997            3 
 1088000    1.0728152   -6.1527279    481.93189  0.036912676  0.037777855            4 
 1089000    1.0806386   -6.1722786    482.55452  0.036926425  0.037768608            8 
 1090000    1.0698932   -6.1401322    484.64161  0.037052111  0.037759502            7 
 1091000    1.0729272   -6.1445066    483.55906  0.036935461  0.037750452            5 
 1092000    1.0652692   -6.1605577    484.22167  0.036952203  0.037741516            6 
 1093000     1.084784   -6.1469854    483.76972  0.036883937  0.037732476            4 
 1094000     1.082262   -6.1388241    484.87976  0.036934778  0.037723346            8 
 1095000     1.086241   -6.1381891    483.31894  0.036782263  0.037714039            4 
 1096000    1.0730207   -6.1407636    486.53895  0.036993534  0.037704812            5 
 1097000    1.0841947   -6.1029007    486.78531  0.036978526  0.037695755            7 
 1098000    1.0847381   -6.1560575    485.51042  0.036848089  0.037686663            7 
 1099000    1.0954544    -6.193001    486.47802   0.03688793  0.037677332            3 
 1100000    1.0722584   -6.1463076    487.30896  0.036917345  0.037668018           10 
 1101000    1.0684965   -6.1340178    488.24335  0.036954537  0.037658886            6 
 1102000    1.0798829    -6.129814    488.86744  0.036968197   0.03764973            5 
 1103000    1.0772392   -6.1240823    487.33543  0.036818936  0.037640564           17 
 1104000    1.0650536   -6.1266198    488.09459  0.036842888   0.03763141            7 
 1105000    1.0736919   -6.1090913    487.92229  0.036796553  0.037622095            6 
 1106000    1.0572805   -6.1117482     489.6043  0.036890017  0.037612923            7 
 1107000    1.0925407   -6.1298267    488.21712  0.036752268  0.037603611           12 
 1108000     1.090397   -6.1474916    489.49631  0.036815306  0.037594453            5 
 1109000    1.0763625   -6.1409762    490.69973  0.036872537  0.037585303            4 
 1110000    1.0784801    -6.146383    488.85779  0.036701035  0.037576049            5 
 1111000    1.0727713   -6.1047234    490.39427  0.036783248  0.037566945            4 
 1112000    1.0718643   -6.1126657    490.14839  0.036731744  0.037557744            5 
 1113000      1.08465   -6.1383073    491.19692  0.036777247  0.037548655            4 
 1114000    1.0679152   -6.1789036    491.27883  0.036750361  0.037539424            6 
 1115000    1.0606716   -6.1749221    489.66118  0.036596501  0.037530133            3 
 1116000    1.0864753   -6.1206058    493.49257  0.036849804  0.037520743            4 
 1117000    1.0789964   -6.1420911    492.50449  0.036743098  0.037511689            3 
 1118000    1.0591954   -6.1402521     493.6927    0.0367988  0.037502784            7 
 1119000    1.0752196   -6.1390058     491.7782  0.036623339  0.037493804            6 
 1120000    1.0652079   -6.1451444    492.04853  0.036610754  0.037484628            4 
 1121000    1.0607043   -6.1759872    492.54538   0.03661503  0.037475307            8 
 1122000    1.0642589   -6.1524435    493.38252  0.036644572   0.03746603            7 
 1123000    1.0781472    -6.149847    493.45954  0.036617657  0.037456774            5 
 1124000    1.0714964   -6.1046668    496.62643  0.036819872   0.03744774            4 
 1125000    1.0755395   -6.1542355     495.0236  0.036668415  0.037438538            3 
 1126000     1.035191   -6.1476115    494.26468  0.036579684  0.037429274            5 
 1127000    1.0773896    -6.131788    495.25507  0.036620458  0.037420083            5 
 1128000    1.0618151    -6.145956    494.76514  0.036551798  0.037410869            6 
 1129000    1.0874945   -6.1643281     495.5929  0.036580521  0.037401568            3 
 1130000    1.0634722   -6.1175171    495.60013  0.036548682  0.037392501            8 
 1131000    1.0493206   -6.1368316    497.05433  0.036623514   0.03738331            8 
 1132000    1.0659775   -6.1453342    496.64411  0.036560962  0.037374185            2 
 1133000    1.0806111   -6.1503718    497.40912   0.03658496  0.037365006            8 
 1134000    1.0560943   -6.1784515    497.22273  0.036539001  0.037355698            8 
 1135000    1.0874621   -6.1268795    499.96455  0.036708117  0.037346608            7 
 1136000    1.0707502   -6.1692067    498.70354  0.036583299   0.03733756            9 
 1137000    1.0550445   -6.1291852    501.51943  0.036757507  0.037328875            5 
 1138000    1.0838893   -6.1335663    501.04025  0.036690118  0.037320302            3 
 1139000    1.0586612   -6.1625672    500.20857  0.036597056   0.03731159            4 
 1140000    1.0861437   -6.1441011    501.16437  0.036634822   0.03730277            7 
 1141000    1.0751665   -6.1231116    502.46677  0.036697836  0.037294267            3 
 1142000    1.0527564   -6.1285487    502.97381    0.0367027  0.037285814           10 
 1143000    1.0950749   -6.1378055    504.09157  0.036752083  0.037277218            4 
 1144000    1.0680371   -6.1500211    503.45183  0.036673356  0.037268732            6 
 1145000    1.0877873   -6.1541705    504.22651  0.036697708  0.037260303            6 
 1146000    1.0788086   -6.1412876    503.01757  0.036577775  0.037251913            1 
 1147000     1.070532   -6.1637729    504.34804  0.036642548  0.037243405            2 
 1148000    1.0817327    -6.136685    505.33839   0.03668252  0.037234845            4 
 1149000    1.0718027   -6.1642576    503.61379  0.036525514   0.03722643            3 
 1150000    1.0504484   -6.1306694    503.84825  0.036510742  0.037217799            8 
 1151000    1.0378688   -6.1394107    504.49349  0.036525738  0.037209131            4 
 1152000    1.0721757    -6.160037    505.74744   0.03658474  0.037200363            4 
 1153000    1.0706535   -6.1613428    505.61151  0.036543185  0.037191841            5 
 1154000     1.062374   -6.1225597    507.18902  0.036625434  0.037183305            6 
 1155000    1.0712482   -6.1356061    507.11411   0.03658832  0.037174797            3 
 1156000    1.0844908   -6.1864053    505.75213  0.036458487  0.037166072            6 
 1157000    1.0461326   -6.1239919       509.44  0.036692596  0.037157433            3 
 1158000    1.0459793    -6.155635    507.31413  0.036507925  0.037148844            4 
 1159000    1.0524886    -6.156328    507.96681  0.036523354  0.037140245            4 
 1160000    1.0771676   -6.1079018    509.49882  0.036601927  0.037132069           11 
 1161000    1.0619067    -6.141065    507.01508  0.036392125  0.037123569            6 
 1162000    1.0535771   -6.1681091     508.5406   0.03647021  0.037115028           11 
 1163000    1.0877534   -6.1571554    508.48244  0.036434683  0.037106577            5 
 1164000    1.0720796    -6.210427    508.96583  0.036437989  0.037098234            8 
 1165000    1.0471443   -6.1458141    510.20641  0.036495451  0.037089866            4 
 1166000    1.0675809   -6.1368531     509.9461  0.036445547  0.037081336            4 
 1167000    1.0585781   -6.1536786    508.86584  0.036337178  0.037072855            4 
 1168000    1.0713124   -6.1413177    511.62592  0.036502991  0.037064357            6 
 1169000    1.0655485   -6.1161344    511.41178    0.0364565   0.03705602            5 
 1170000    1.0628383   -6.1377847    511.96456  0.036464712  0.037047581            8 
 1171000    1.0564256   -6.1761116    511.52893  0.036402571  0.037039069           11 
 1172000    1.0821438   -6.1650788    513.20349  0.036490578  0.037030609            6 
 1173000    1.0629263   -6.1475786    511.43878  0.036334099   0.03702239            4 
 1174000    1.0688393   -6.1577997    512.78552  0.036398745  0.037013905            8 
 1175000    1.0867765   -6.1672906    513.17568  0.036395438  0.037005621            7 
 1176000    1.0753654   -6.1351893    514.86158  0.036483956  0.036997453            7 
 1177000    1.0725404   -6.1371512    514.38691  0.036419351  0.036989378            7 
 1178000    1.0735248   -6.1469438     515.6458   0.03647749  0.036981351            6 
 1179000    1.0599782   -6.1458593    516.20484  0.036486065  0.036973313            6 
 1180000    1.0366774   -6.1314639    517.03645  0.036513874  0.036965611            6 
 1181000    1.0930005   -6.1935615    517.07047  0.036485356  0.036957712            6 
 1182000    1.0638172   -6.1464626    517.12794  0.036458541  0.036949923            4 
 1183000     1.076315   -6.1093152    518.20303  0.036503454   0.03694211            7 
 1184000    1.0758762   -6.1873692    518.14317   0.03646841  0.036934274            7 
 1185000    1.0409262    -6.160888     517.0964  0.036364023  0.036926507            3 
 1186000    1.0539945   -6.1822121    517.75065  0.036379332  0.036918915           10 
 1187000    1.0861624   -6.1709188    519.88075  0.036498227  0.036911198            7 
 1188000    1.0601103   -6.1901766    519.69741  0.036454644  0.036903508            5 
 1189000    1.0720315   -6.1291126    519.87952  0.036436748  0.036895747            9 
 1190000    1.0635063   -6.1391572    519.43777  0.036375194  0.036888031            9 
 1191000    1.0646231   -6.1278174    520.38099  0.036410649  0.036880218            3 
 1192000    1.0805171   -6.1970839    519.44596  0.036314734  0.036872406            5 
 1193000    1.0465612   -6.1549387    520.88644  0.036384915   0.03686454            5 
 1194000    1.0781467   -6.1586832    522.64421  0.036477122  0.036856688            7 
 1195000    1.0548696   -6.1929243    520.09557  0.036268868  0.036848839            5 
 1196000    1.0516306   -6.1741335    522.29512  0.036391801  0.036841013           10 
 1197000    1.0294096    -6.178048    522.90697  0.036403994  0.036833399            7 
 1198000    1.0553674   -6.1776969    521.06978  0.036245811  0.036825866            8 
 1199000    1.0664031   -6.1924081    522.29674  0.036300858  0.036818068            5 
 1200000    1.0631241   -6.2096086     524.9239  0.036453049  0.036810528            5 
 1201000     1.048612   -6.1793415     524.6629  0.036404586  0.036803007            4 
 1202000    1.0697845   -6.1638661    523.51952   0.03629503  0.036795515            8 
 1203000    1.0458938    -6.153339     526.8261  0.036493911  0.036788076            9 
 1204000    1.0740969   -6.1678591    526.27449  0.036425422  0.036780567           10 
 1205000    1.0564354   -6.1968586    524.46697  0.036270192  0.036773022            3 
 1206000    1.0660341   -6.1696595    525.07648  0.036282234  0.036765436            7 
 1207000    1.0619371   -6.1361519    528.62236  0.036496987  0.036758043            2 
 1208000     1.067072   -6.1675153    526.95536  0.036351777  0.036750591            9 
 1209000    1.0713638   -6.1781514    527.44464  0.036355434   0.03674302            5 
 1210000    1.0628676   -6.1672609    528.64325  0.036407937  0.036735612            5 
 1211000    1.0571748   -6.1652106    528.06203  0.036337877   0.03672821           12 
 1212000    1.0478935   -6.1516984    528.55344  0.036341683  0.036720884            8 
 1213000    1.0540434   -6.1378969    530.45434  0.036442315  0.036713568            7 
 1214000    1.0619725   -6.1688046    529.92902  0.036376237  0.036706188            3 
 1215000    1.0486575   -6.1753789    527.76794  0.036198075  0.036698899            4 
 1216000    1.0651155   -6.2144992    527.71809  0.036164891  0.036691262           11 
 1217000    1.0307239   -6.2065602    529.40372  0.036250597  0.036683682            3 
 1218000    1.0767102   -6.1479898    530.09042  0.036267817  0.036675915            4 
 1219000    1.0738159   -6.1272775    530.89263  0.036292906   0.03666836            3 
 1220000    1.0328226   -6.1733567    530.22394  0.036217482  0.036660996            6 
 1221000    1.0658932   -6.1802836     530.5402  0.036209405  0.036653351            5 
 1222000    1.0703298   -6.1473509    532.76189   0.03633128  0.036645809            5 
 1223000    1.0424177   -6.1904068    530.63146  0.036156409  0.036638314            3 
 1224000    1.0628994   -6.1777446    533.17771  0.036300225  0.036630787            9 
 1225000    1.0657713   -6.1698146    533.17088  0.036270128  0.036623348            4 
 1226000    1.0725677   -6.1551558     532.6114  0.036202515  0.036615884            5 
 1227000    1.0615385   -6.1527462    532.04193  0.036134333  0.036608223            6 
 1228000    1.0473504   -6.1935458    534.79792  0.036291933  0.036600553            4 
 1229000    1.0627301   -6.1592517    533.72886  0.036189915  0.036592923            4 
 1230000    1.0471755   -6.1859689    534.69883  0.036226208  0.036585475            6 
 1231000    1.0612987    -6.163211    533.63856  0.036125004  0.036577721            9 
 1232000    1.0676841   -6.1795643    534.52878  0.036155897   0.03657003            4 
 1233000    1.0334345   -6.1881228    534.59168  0.036130825  0.036562174            3 
 1234000    1.0661077   -6.1844739    535.06694   0.03613364  0.036554521            6 
 1235000    1.0239709    -6.181807    535.02161  0.036101323  0.036546842            6 
 1236000    1.0709144   -6.1653523    536.31525  0.036159335  0.036539269            5 
 1237000    1.0620492   -6.1757842    536.50592  0.036142948    0.0365317            6 
 1238000    1.0679234   -6.1978289    534.51144  0.035979499  0.036524003            7 
 1239000    1.0554283   -6.1469321    536.10318  0.036057518  0.036516148            2 
 1240000    1.0489252   -6.1901561    537.61446  0.036130004  0.036508566            6 
 1241000    1.0432256   -6.1645491    537.93621  0.036122496  0.036500835            4 
 1242000    1.0594945   -6.1426351    538.33001  0.036119835  0.036493205            9 
 1243000    1.0630262   -6.1781831     538.0386  0.036071239  0.036485372            4 
 1244000    1.0129335   -6.1645555    538.84221  0.036096075  0.036477669            6 
 1245000    1.0438111   -6.1529032    540.10597  0.036151671  0.036470065            8 
 1246000    1.0854689   -6.1302922    538.88492  0.036040992  0.036462613            5 
 1247000    1.0646732   -6.1842775    539.54903  0.036056471  0.036454969            7 
 1248000    1.0557607   -6.1452293    539.75397  0.036041264  0.036447183            4 
 1249000    1.0640153   -6.1769333    538.98352  0.035961003  0.036439394            8 
 1250000    1.0407012   -6.1631244    540.11293  0.036007529   0.03643168            3 
 1251000    1.0339989   -6.2010936    540.99469  0.036037483  0.036423957            4 
 1252000    1.0621924   -6.1772832    541.84164  0.036065072   0.03641626           12 
 1253000    1.0342592   -6.1750416    541.70584  0.036027258  0.036408462            5 
 1254000    1.0510353   -6.1840372    542.20938   0.03603199  0.036400916            5 
 1255000    1.0618307   -6.1528299    541.76749  0.035973937  0.036393288            7 
 1256000    1.0520737    -6.180563    541.63508   0.03593651  0.036385837            4 
 1257000    1.0453457   -6.1863183    542.46563  0.035962982  0.036378345            7 
 1258000    1.0519386    -6.195465    542.11305  0.035911039  0.036370892            5 
 1259000    1.0463664   -6.1479179    544.01344  0.036008303   0.03636359            6 
 1260000    1.0564888    -6.155403    543.82388  0.035967188  0.036356161            4 
 1261000    1.0651339   -6.2191236    543.92667  0.035945458  0.036348761            4 
 1262000    1.0610839   -6.1872308    544.11941  0.035929702  0.036341202            4 
 1263000    1.0364568   -6.1929796    546.73419  0.036073778  0.036333576            4 
 1264000    1.0710256   -6.1921382    543.77651  0.035850245  0.036326023            5 
 1265000    1.0585872   -6.1836587    544.00002  0.035836628  0.036318264           11 
 1266000    1.0261334   -6.1800174    545.67188   0.03591837  0.036310608            9 
 1267000    1.0394864    -6.162444    544.37434  0.035804679   0.03630295            4 
 1268000    1.0605724    -6.171206    545.90636  0.035877127  0.036295148           12 
 1269000    1.0740038     -6.15609    546.79748  0.035907373  0.036287584            5 
 1270000     1.061642   -6.2194516    546.42625  0.035854741   0.03627993            7 
 1271000    1.0348354   -6.1654042    546.44679  0.035827878   0.03627212            3 
 1272000    1.0372254   -6.1949631    547.88634  0.035894021  0.036264432            6 
 1273000    1.0664158   -6.1734296    547.13553  0.035816675  0.036256651            5 
 1274000    1.0292879   -6.1811714    547.66368  0.035823108  0.036248695           10 
 1275000    1.0515262   -6.1649843    548.89804  0.035875689  0.036240959            6 
 1276000    1.0628868   -6.1760277    547.11738  0.035731281  0.036233141            5 
 1277000    1.0476518   -6.1780942    549.26479  0.035843434  0.036225272            6 
 1278000     1.071711   -6.1615736    548.26733  0.035750348   0.03621738            5 
 1279000    1.0479042   -6.1636797    549.34603  0.035792678  0.036209401            3 
 1280000    1.0514236   -6.2021537     547.6361  0.035653392  0.036201373            5 
 1281000    1.0466024   -6.1851924     550.6396  0.035820947  0.036193389            4 
 1282000    1.0460753   -6.1758046    549.04436  0.035689311   0.03618513            7 
 1283000    1.0233732   -6.1796195    549.30957   0.03567872  0.036176954            5 
 1284000     1.032806   -6.1465311    549.08709  0.035636493  0.036168746            7 
 1285000    1.0604885   -6.1657557    551.45966  0.035762624  0.036160702            4 
 1286000    1.0361866   -6.1739778    549.67259  0.035619012  0.036152823            8 
 1287000    1.0305952   -6.2005071    552.57273   0.03577912  0.036144814            4 
 1288000    1.0440666   -6.1827817    550.41923   0.03561201  0.036136955            6 
 1289000    1.0438476   -6.1908687    551.63371  0.035662898  0.036128974           10 
 1290000    1.0596491   -6.1930311    552.48679  0.035690361  0.036121143            7 
 1291000    1.0341908   -6.2170297    552.20878   0.03564477  0.036113289            6 
 1292000    1.0286368   -6.1974794    552.87476  0.035660137  0.036105524            4 
 1293000    1.0295312   -6.1789753    554.92756   0.03576486  0.036097752           10 
 1294000    1.0394263   -6.1877765    554.06144  0.035681442    0.0360901            4 
 1295000    1.0491713    -6.173454    553.12685  0.035593748  0.036082414            6 
 1296000    1.0615638   -6.1873778    554.14964   0.03563205  0.036074492            9 
 1297000     1.053081   -6.1930443    554.36626  0.035618495  0.036066645            6 
 1298000    1.0197129   -6.2077832    555.24277  0.035647328   0.03605881            9 
 1299000    1.0323199   -6.1976969     553.7766  0.035525828  0.036051015            6 
 1300000    1.0341434   -6.2026446    554.91223  0.035571297  0.036043173            7 
 1301000    1.0387662   -6.1816257    556.78611  0.035663984  0.036035458            7 
 1302000    1.0344385   -6.1814059    554.86865  0.035513866  0.036027637            7 
 1303000    1.0473287   -6.1970044    556.76697  0.035608018  0.036019798           12 
 1304000    1.0245078   -6.2042306    557.93771  0.035655528  0.036011889            7 
 1305000    1.0477876   -6.2086832    559.24753  0.035711847  0.036004156            5 
 1306000    1.0274767   -6.2073232    557.08839  0.035546733  0.035996305            7 
 1307000    1.0520766    -6.205727    558.44205  0.035605844  0.035988531            3 
 1308000     1.026094   -6.1952926    558.42619  0.035577611  0.035980755            4 
 1309000    1.0498717   -6.1889365     558.0118  0.035524051  0.035972988            9 
 1310000    1.0505634   -6.2146045    558.47328   0.03552629  0.035965214            9 
 1311000    1.0463353   -6.2149778       557.62  0.035444953  0.035957219            5 
 1312000    1.0332309   -6.2032674    559.97248  0.035567358  0.035949396            8 
 1313000    1.0530527   -6.1945888    560.33155  0.035563058  0.035941576            5 
 1314000    1.0491868    -6.208627     559.4467  0.035479877   0.03593383            3 
 1315000    1.0129604   -6.2367445    559.92624  0.035483285  0.035926127            7 
 1316000     1.053117   -6.2018466    561.00562  0.035524672  0.035918312            8 
 1317000    1.0323288   -6.1899725    560.27981  0.035451773  0.035910515            7 
 1318000     1.028978    -6.182867    560.97808  0.035469024  0.035902914            4 
 1319000    1.0392885   -6.1953935     562.9611  0.035567418  0.035895268            4 
 1320000    1.0493014   -6.2092563    562.26148  0.035496306  0.035887641            4 
 1321000     1.038001    -6.199486    562.43338  0.035480279  0.035880193            4 
 1322000    1.0577835   -6.2021487    563.78327  0.035538532  0.035872714            5 
 1323000    1.0411674   -6.2079803    564.19254  0.035537449  0.035865167            5 
 1324000    1.0735666    -6.201169    562.25255  0.035388504  0.035857627           11 
 1325000    1.0140785   -6.1793624    566.32672  0.035618033  0.035849927            5 
 1326000     1.067673   -6.1965484    563.72652   0.03542776  0.035842333            8 
 1327000    1.0463217   -6.2109357    564.34901  0.035440154  0.035834839           14 
 1328000    1.0536884   -6.2100515    565.51234  0.035486467  0.035827308            5 
 1329000    1.0458373   -6.1955083    565.66424   0.03546929  0.035819526            7 
 1330000    1.0467775   -6.1976363    563.66719  0.035317493  0.035811623            7 
 1331000    1.0399154   -6.1834996    564.64779  0.035352353  0.035803798            4 
 1332000    1.0161559    -6.182764    564.62718  0.035324523  0.035795876            5 
 1333000    1.0461871    -6.188287    567.45402  0.035474745   0.03578824            4 
 1334000    1.0420783   -6.1703449    566.92647  0.035415197  0.035780598            4 
 1335000    1.0212358   -6.2268699    567.32806  0.035413737  0.035773085            3 
 1336000    1.0377323   -6.2118705    566.16338  0.035314582  0.035765267            4 
 1337000    1.0387073   -6.2061753    565.78844    0.0352648  0.035757462           14 
 1338000    1.0354846   -6.2095515    568.83575  0.035428236  0.035749683            6 
 1339000    1.0231117    -6.250092    566.25426  0.035241117   0.03574184           11 
 1340000    1.0431226   -6.2422306    566.53977  0.035232573   0.03573392            8 
 1341000    1.0409087   -6.2223104    567.43953  0.035262213  0.035726039            7 
 1342000    1.0587434   -6.2131063    569.41658  0.035358705  0.035718277            3 
 1343000    1.0364675   -6.2206875    568.17673  0.035255444  0.035710505            6 
 1344000    1.0282829   -6.1984342    567.52866  0.035189029  0.035702498            9 
 1345000    1.0403022   -6.1999113    568.95609  0.035251306  0.035694523            6 
 1346000    1.0253104   -6.1511004    569.37272  0.035250911  0.035686601            8 
 1347000    1.0555796   -6.2003115    569.32119  0.035221554  0.035678625            9 
 1348000    1.0270297    -6.166928    571.11385  0.035306247  0.035670705            3 
 1349000    1.0349854   -6.1720656     569.7163  0.035193742  0.035662885            3 
 1350000    1.0288519   -6.1915815    571.53935  0.035280207  0.035655062            3 
 1351000    1.0435644   -6.2439677    572.28168  0.035299882   0.03564723            4 
 1352000    1.0523818   -6.1656422    571.76786  0.035242102  0.035639368            5 
 1353000    1.0641616   -6.2036237    571.98923  0.035229689  0.035631671            2 
 1354000    1.0399829   -6.2197252    571.81032  0.035192659  0.035623731            3 
 1355000     1.048447   -6.2124836    571.97166  0.035176609  0.035615781            8 
 1356000    1.0316341   -6.2290058    574.52708  0.035307712   0.03560777            6 
 1357000    1.0540812    -6.186832    574.04734  0.035252232  0.035600062            9 
 1358000    1.0221927   -6.2125743    573.70508   0.03520527  0.035592296            7 
 1359000     1.020647   -6.2181616    574.35395  0.035219153  0.035584467            4 
 1360000    1.0423902   -6.2338229    575.20292  0.035245277  0.035576743            7 
 1361000    1.0386873   -6.2288194    572.23116  0.035037421  0.035568904            9 
 1362000    1.0441074   -6.2008543    575.07315  0.035185582  0.035561084            6 
 1363000     1.034385    -6.214327    574.99877  0.035155219  0.035553257            5 
 1364000    1.0367648    -6.190404    574.32485  0.035088273  0.035545396            6 
 1365000    1.0345894   -6.1856308    573.61058  0.035018961  0.035537491            6 
 1366000    1.0117868   -6.2269867    575.19533  0.035090003  0.035529528            5 
 1367000    1.0100721   -6.2544029    574.04017  0.034993914  0.035521284            4 
 1368000    1.0519158   -6.2091823    573.65809  0.034945059   0.03551291            6 
 1369000    1.0369069   -6.2309703    572.66041  0.034858803  0.035504537            7 
 1370000    1.0426155   -6.2045444    574.29045  0.034932509  0.035496188           10 
 1371000      1.03096   -6.2085735    575.48991  0.034979936  0.035487775            9 
 1372000    1.0372557   -6.2189372    576.28482  0.035002722  0.035479461            7 
 1373000    1.0209765   -6.2288392     575.0399  0.034901669  0.035471136            6 
 1374000    1.0304974   -6.2307062    577.09511  0.035000916  0.035462801            3 
 1375000    1.0381521   -6.1990535    577.47124  0.034998257  0.035454424            7 
 1376000    1.0408351   -6.2053092    576.17841  0.034894526  0.035446215           10 
 1377000     1.031826   -6.2419199    575.27813  0.034814702   0.03543795            6 
 1378000    1.0253443   -6.1935456    577.84522   0.03494468  0.035429654            3 
 1379000    1.0236905   -6.2265905    578.01892  0.034929835   0.03542135            6 
 1380000    1.0436792   -6.2443009    578.43221  0.034929481  0.035413199            8 
 1381000    1.0257712   -6.2037144    580.02018  0.035000011     0.035405            5 
 1382000    1.0116893   -6.2329201    577.92009  0.034848052    0.0353969           10 
 1383000    1.0208122   -6.1729103    582.07804  0.035073393  0.035388843            6 
 1384000    1.0297442   -6.2361306    578.54765   0.03483548  0.035380897            8 
 1385000    1.0120835   -6.2518151    581.31356  0.034976748  0.035372775            5 
 1386000    1.0566783   -6.2171116    580.48804  0.034901878  0.035364729            6 
 1387000    1.0236082   -6.2225137    580.25545  0.034862741   0.03535665            4 
 1388000    1.0238423   -6.2294159    580.34347  0.034842908  0.035348402            6 
 1389000    1.0358995   -6.2447323    581.45788  0.034884682  0.035340212            6 
 1390000    1.0395699   -6.1795626    582.28489  0.034909166  0.035332155            4 
 1391000    1.0390812   -6.2192784    581.99748  0.034866851     0.035324           15 
 1392000    1.0297598   -6.2229115    581.10538  0.034788397   0.03531586            7 
 1393000    1.0680597   -6.2326298    581.22738  0.034770721   0.03530753            6 
 1394000    1.0251007   -6.1970048    583.01996  0.034852939  0.035299216            6 
 1395000    1.0283966   -6.2200355    582.13376  0.034775015  0.035290923            6 
 1396000    1.0149284   -6.2408517    582.10516  0.034748398  0.035282613           12 
 1397000    1.0474391   -6.2248579    582.89336  0.034770542   0.03527417            7 
 1398000    1.0345023   -6.2154502    581.60165  0.034668672  0.035265823           11 
 1399000     1.016399    -6.224183    584.36616  0.034808563  0.035257629            7 
 1400000    1.0204909   -6.2206546    584.20599  0.034774166  0.035249354            3 
 1401000    1.0329275   -6.1940305    583.66106  0.034716932  0.035241112           11 
 1402000    1.0422855   -6.2377364    583.56669  0.034686561  0.035232822            5 
 1403000    1.0177843   -6.2408136    585.34555  0.034767495  0.035224519            7 
 1404000    1.0385373   -6.2330398    586.19945  0.034793415  0.035216152            6 
 1405000    1.0286067   -6.2094186    585.69086  0.034738485  0.035207914            3 
 1406000    1.0314271   -6.1913764    585.46394  0.034700329  0.035199646            5 
 1407000    1.0295959   -6.2355394     584.8678  0.034640358  0.035191281           12 
 1408000    1.0260663   -6.2079264    585.80713   0.03467135  0.035182899           12 
 1409000    1.0230484   -6.1887354    587.11461  0.034724072   0.03517451           12 
 1410000    1.0161483   -6.2148065    586.71343  0.034675735  0.035166033           10 
 1411000    1.0179844   -6.2348108    586.19835  0.034620739  0.035157815            7 
 1412000    1.0375667   -6.2362825    587.31895  0.034662355  0.035149498            3 
 1413000    1.0012522   -6.2298488    587.23692  0.034632987  0.035141179            7 
 1414000    1.0322965   -6.2286475    586.84877  0.034585618  0.035132587            5 
 1415000    1.0263571   -6.2211148    586.81892  0.034559418  0.035124003            6 
 1416000    1.0211021   -6.2190467    587.34749  0.034566119  0.035115403            2 
 1417000    1.0405431   -6.2148202    587.08399  0.034526229  0.035106854            5 
 1418000    1.0483987    -6.244904    587.78646  0.034543163  0.035098185            7 
 1419000    1.0251669   -6.2706798    587.49144  0.034501494  0.035089372            8 
 1420000    1.0436484   -6.2396369    586.52362    0.0344204  0.035080674            4 
 1421000    1.0430551   -6.2173123    590.22708  0.034613364  0.035072013            7 
 1422000    1.0429312   -6.2038772    590.04353  0.034578266  0.035063443            5 
 1423000    1.0252756   -6.2252698    589.34426  0.034513016  0.035054942           11 
 1424000    1.0295116   -6.2161903     591.5058  0.034615274  0.035046438            8 
 1425000    1.0418671   -6.2361169    589.49577  0.034473437  0.035038069            2 
 1426000    1.0329753   -6.1997075    589.83067  0.034468833  0.035029444           10 
 1427000    1.0004223   -6.2022284    589.15476  0.034405207  0.035020736           13 
 1428000   0.99262367    -6.208704    591.01556  0.034489704  0.035012018           17 
 1429000    1.0161279   -6.2355715     589.9826   0.03440533  0.035003393            6 
 1430000    1.0126417   -6.2125875     591.6362  0.034477634  0.034994883            5 
 1431000    1.0366749   -6.2034959    591.57517  0.034449987  0.034986317            4 
 1432000    1.0317159   -6.2401262    590.86705  0.034384721  0.034977809           12 
 1433000    1.0277014   -6.2460189    591.94534  0.034423432  0.034969192            7 
 1434000    1.0314967   -6.2614056    590.49852  0.034315349  0.034960417           10 
 1435000    1.0034602   -6.2042268    592.69283  0.034418863  0.034951637            6 
 1436000     1.031669   -6.2455246    591.60444  0.034331734  0.034942951            8 
 1437000    1.0303186    -6.227433    591.76616  0.034317221  0.034934259            6 
 1438000     1.013426   -6.2062124    591.64022  0.034286058  0.034925542            3 
 1439000    1.0416633   -6.2226681    592.42843  0.034307878  0.034916764            5 
 1440000    1.0347721   -6.2680585    592.19226  0.034270385  0.034907947            4 
 1441000    1.0204873   -6.2644518     593.2839  0.034309733  0.034899141            4 
 1442000      1.02086   -6.2185877    593.43841  0.034294869  0.034890241            5 
 1443000    1.0186036    -6.216383    594.06507  0.034307292  0.034881417            4 
 1444000    1.0281997   -6.2411899    593.22459  0.034235029  0.034872641            5 
 1445000    1.0233116   -6.2092577    595.17225  0.034323659  0.034863881            6 
 1446000    1.0187149   -6.2455974     591.2357  0.034073058  0.034855002            8 
 1447000    1.0304924   -6.2362443    593.09735  0.034156724   0.03484606            7 
 1448000    1.0132705   -6.2834277    593.93035  0.034181075  0.034837173           13 
 1449000    1.0396035   -6.2217946    594.28602   0.03417794  0.034828392            7 
 1450000    1.0204404   -6.2269591    595.89584  0.034246887   0.03481964            6 
 1451000    1.0207467   -6.2298159    596.05172  0.034232238  0.034810831           10 
 1452000    1.0134111   -6.2272743    595.36577  0.034169293  0.034802109           11 
 1453000    1.0124601   -6.2258525    596.18922  0.034193004  0.034793384            2 
 1454000    1.0376301   -6.2264545    598.00277  0.034273428  0.034784632            3 
 1455000    1.0308079   -6.2432292    597.66338  0.034230434  0.034776011            5 
 1456000     1.023826   -6.2269795    597.50451  0.034197831  0.034767381            4 
 1457000    1.0182373   -6.2411311    598.98456  0.034259012  0.034758845            5 
 1458000    1.0316426   -6.2444186    595.18971  0.034018616  0.034750157            5 
 1459000     1.025005   -6.2501926    600.07354  0.034274248  0.034741559            5 
 1460000    1.0278202   -6.2145498    600.52705  0.034276658  0.034732974            5 
 1461000    1.0275606   -6.2185702    600.71464  0.034263897   0.03472461            5 
 1462000    1.0062282    -6.244152    601.73083  0.034298383  0.034716227            3 
 1463000    1.0110423   -6.2531305     599.2976  0.034136341  0.034707681            4 
 1464000    1.0135776   -6.2454566    599.26696  0.034111279  0.034699213           12 
 1465000    1.0036401   -6.2216986    602.02685  0.034244986  0.034690871            4 
 1466000    1.0184829   -6.2069275    602.70882  0.034260392  0.034682676            3 
 1467000    1.0244755   -6.2283817    601.32244  0.034158285  0.034674463           11 
 1468000    1.0293972    -6.259378    602.15552  0.034182307  0.034666115            6 
 1469000    1.0132433   -6.2302521    602.36367  0.034170846  0.034657933            9 
 1470000   0.98801593   -6.2727409    602.64838   0.03416374  0.034649442            6 
 1471000    1.0271945   -6.2118034    602.42707  0.034127978   0.03464105            5 
 1472000    1.0173481   -6.2228866    603.70045  0.034176882  0.034632806            4 
 1473000    1.0197947   -6.2270063    605.35449  0.034247256  0.034624517            7 
 1474000    1.0353667   -6.2627116    603.54699  0.034121834  0.034616184            9 
 1475000    1.0215514   -6.2308646    604.38899  0.034146271  0.034607743            6 
 1476000    1.0175033   -6.2531532    603.34657  0.034064282  0.034599276            4 
 1477000    1.0182007   -6.2640408    602.57579  0.033997732  0.034590597            9 
 1478000    1.0227428   -6.2321205    603.38554  0.034020385  0.034581853            6 
 1479000    1.0035112   -6.2646273    605.71896  0.034128857  0.034573098            6 
 1480000    1.0135062   -6.2570144    605.47342  0.034091972  0.034564315            5 
 1481000      1.00768   -6.2349558    604.38247  0.034007566  0.034555601            7 
 1482000    1.0009774   -6.2144995    602.27589  0.033866165  0.034547059            4 
 1483000    1.0214544   -6.2603126    602.45627  0.033853465  0.034538264            6 
 1484000    1.0193204   -6.2565234    604.68492  0.033955802  0.034529424           11 
 1485000    1.0055265   -6.2395538    605.15618  0.033959382  0.034520754            7 
 1486000    1.0149928   -6.2186815    606.89026  0.034033774  0.034512152           11 
 1487000    1.0300533   -6.2403841    605.64767   0.03394125  0.034503616            3 
 1488000    1.0272264   -6.2702123    604.45851  0.033851843  0.034494938            7 
 1489000    1.0271118   -6.2377983    606.46222  0.033941248  0.034486308            4 
 1490000    1.0197928   -6.2415745    607.46039  0.033974295  0.034477713           14 
 1491000    1.0018181   -6.2497083     607.4824  0.033952739  0.034469015            9 
 1492000    1.0067272   -6.2449849    607.93732  0.033955391  0.034460499            3 
 1493000     1.006114   -6.2280042    608.66152   0.03397307  0.034452009            5 
 1494000    1.0376002   -6.2137131    609.14629   0.03397737   0.03444357            4 
 1495000   0.99920856   -6.2240336    609.25237  0.033960556   0.03443499            3 
 1496000   0.99987252   -6.2630469     607.8752  0.033861141  0.034426412           11 
 1497000    1.0219866   -6.2273447    610.22753  0.033969468  0.034417917           11 
 1498000    1.0106464    -6.254549    612.76652  0.034088035  0.034409565            5 
 1499000     1.029501   -6.2397503    612.08653  0.034027492  0.034401345            5 
 1500000     1.037627   -6.2181804    610.17276  0.033898486  0.034393078            4 
 1501000    1.0033108   -6.2178637    612.84616  0.034024326  0.034384986            6 
 1502000    1.0146907   -6.2082003    613.55551  0.034041029  0.034376771            9 
 1503000   0.98534668   -6.2437804    610.81285  0.033866314  0.034368587            7 
 1504000    1.0119385   -6.2689951    613.48238   0.03399171  0.034360257            9 
 1505000    1.0171454   -6.2864886    611.68102  0.033869381  0.034351842            6 
 1506000    1.0256766   -6.2800512    611.94305   0.03386139  0.034343517            6 
 1507000    1.0161896   -6.2707765    614.17657  0.033962429  0.034335172           10 
 1508000   0.98950686   -6.2603247    614.29651  0.033946536  0.034326936            4 
 1509000    1.0188799   -6.2517372    613.61191  0.033886233  0.034318983            7 
 1510000    1.0089358   -6.2251324    614.17215   0.03389471  0.034310918            7 
 1511000    1.0029841   -6.2461208    613.20847   0.03381913  0.034302827            3 
 1512000    1.0164896   -6.2700817    615.74211  0.033936404  0.034294855            4 
 1513000    1.0126312   -6.2351167    616.97728  0.033982005  0.034286815           13 
 1514000    1.0141019    -6.259894    615.88266   0.03389931  0.034278895            8 
 1515000    1.0289062   -6.2335441    617.29758  0.033954762  0.034270921            6 
 1516000    1.0393703   -6.2432281    617.36942  0.033936314  0.034263109           10 
 1517000    1.0098772   -6.2471096     616.1704  0.033848078  0.034255354            5 
 1518000   0.98777276   -6.2712525     617.5786  0.033903085   0.03424743            5 
 1519000    1.0179649   -6.2333967    616.45955  0.033819374  0.034239407            4 
 1520000   0.98664983    -6.271111      617.797   0.03387045  0.034231442            6 
 1521000    1.0158488   -6.2401396    616.77029  0.033791929  0.034223488            7 
 1522000    1.0173226   -6.2445275    618.93068  0.033888014  0.034215578            9 
 1523000    1.0037264   -6.2863526    618.60366  0.033847869  0.034207661            5 
 1524000    1.0144743   -6.2366299    621.67238  0.033993459  0.034199775            6 
 1525000    1.0179031   -6.2627105    618.83396  0.033816063  0.034191973           11 
 1526000     1.002093    -6.259017    618.73562  0.033788533  0.034184131            6 
 1527000    1.0028277   -6.2786037    619.71273   0.03381973  0.034176246            5 
 1528000    1.0025438   -6.2415597    620.24391  0.033826566  0.034168277           24 
 1529000   0.98943005   -6.2981104    620.68141  0.033828287  0.034160256            7 
 1530000    1.0068947   -6.2669228    619.59047  0.033746758  0.034152299            7 
 1531000    1.0185914   -6.2875984    620.66609  0.033783262  0.034144229            7 
 1532000    1.0008801    -6.227818    621.99719  0.033833615  0.034136252            5 
 1533000    1.0049287   -6.2406703    621.81791    0.0338018  0.034128329            6 
 1534000    1.0073256   -6.2684483    620.55412   0.03371111  0.034120353            4 
 1535000    1.0058836   -6.2479882     622.1845   0.03377766  0.034112364            7 
 1536000    1.0189055   -6.2694628    623.19457   0.03381047  0.034104396           12 
 1537000    1.0192088   -6.2458123    624.51229  0.033859916  0.034096342            4 
 1538000   0.99915927   -6.2901318    622.04883  0.033704423  0.034088319            5 
 1539000   0.99821923   -6.2478081    623.35517  0.033753258   0.03408024            6 
 1540000    1.0074804   -6.2922402    623.75516  0.033752985  0.034072254            5 
 1541000    1.0176711   -6.2510305    622.29279  0.033652001  0.034064244            6 
 1542000    1.0156999   -6.2720123    622.99185  0.033667956  0.034056327            6 
 1543000    1.0117845   -6.2645346    624.87707  0.033747951  0.034048367            4 
 1544000    1.0150921   -6.2714914    624.52772  0.033707239    0.0340405            5 
 1545000    1.0024421   -6.2434462    623.89041  0.033651047  0.034032632            4 
 1546000    1.0020782   -6.2702001    625.53131  0.033717729  0.034024758           14 
 1547000   0.97735799   -6.2870993    625.27146  0.033681936  0.034016753            7 
 1548000    1.0217198   -6.2833471    625.50081  0.033672524  0.034008723            4 
 1549000   0.99293071    -6.248107    625.89141  0.033671799  0.034000829            5 
 1550000    1.0188974   -6.2889251    625.79752  0.033645028  0.033992828            8 
 1551000    1.0114071   -6.2507348    625.96516  0.033632343  0.033984787            8 
 1552000    1.0017559   -6.2487871    625.79508   0.03360154  0.033976765            9 
 1553000    1.0184605   -6.2538743    626.06685  0.033594486  0.033968766            5 
 1554000   0.99932842   -6.2898456    626.87283  0.033616089   0.03396071            6 
 1555000    1.0050223    -6.261055    624.35302  0.033459433  0.033952718            5 
 1556000    1.0158499   -6.2575801    627.20345  0.033590588  0.033944708            4 
 1557000   0.99064979   -6.2545683    626.65876  0.033539861   0.03393666            3 
 1558000    1.0048653   -6.2762047    628.68958  0.033626957  0.033928563            7 
 1559000   0.99017734   -6.2743761    627.46837   0.03354011  0.033920564            8 
 1560000   0.99007195   -6.2634965    628.74388  0.033586746  0.033912572            4 
 1561000    1.0007895   -6.2754525    629.40916  0.033600745  0.033904614           10 
 1562000    1.0021379   -6.2685175    630.71102  0.033648689  0.033896773            5 
 1563000    1.0187599   -6.2883188    630.25716  0.033602962  0.033888877            4 
 1564000    1.0002784   -6.2903477    629.22283  0.033526365  0.033880843            6 
 1565000   0.98616848   -6.2506037    629.81919  0.033536698  0.033872903            6 
 1566000     1.019861   -6.2788282    630.76515  0.033565621  0.033865026            4 
 1567000   0.98647946   -6.3030337    631.14402  0.033564349  0.033857208            7 
 1568000   0.99562442   -6.2646171    631.97953  0.033587347  0.033849392            2 
 1569000   0.99842758   -6.2900196     631.6182  0.033546749   0.03384159            6 
 1570000    1.0183797   -6.2671936    631.92498  0.033541665  0.033833675            8 
 1571000   0.98964596   -6.2914753    632.37085  0.033543966  0.033825915            6 
 1572000   0.98841032   -6.2807084     630.1943  0.033407247  0.033818135           11 
 1573000   0.98985942    -6.278091    632.88582  0.033528598  0.033810341            6 
 1574000    1.0089657   -6.2636046    633.93319  0.033562748   0.03380266            5 
 1575000   0.98089269   -6.2384199    633.75944  0.033532246  0.033795012            5 
 1576000     1.004708   -6.2622795    634.56282  0.033553449  0.033787413            9 
 1577000   0.99400688   -6.2822382    634.90078   0.03355003  0.033779887            7 
 1578000   0.99960307   -6.2897271    635.60481  0.033565949  0.033772454            7 
 1579000   0.98500384   -6.2514901    635.42825  0.033535373  0.033764855            6 
 1580000    1.0063131   -6.2887953    634.30818  0.033455073   0.03375721            6 
 1581000   0.99302347   -6.2464472    636.27576  0.033537622  0.033749671            5 
 1582000   0.99957165   -6.2553227    635.88717  0.033495953   0.03374216            4 
 1583000   0.98492833   -6.2761206    634.79271  0.033417178  0.033734618           14 
 1584000   0.99223082   -6.2801919    637.44574  0.033535655  0.033727092           13 
 1585000    1.0027652   -6.2393761    638.53198  0.033571608  0.033719699            5 
 1586000    1.0037872   -6.2653916    638.35785  0.033541291   0.03371244            9 
 1587000   0.97583593    -6.294693    636.57373  0.033426472  0.033704936            4 
 1588000   0.99706549   -6.2378581    639.73023  0.033571066  0.033697402            7 
 1589000   0.98525025   -6.2769201    637.66066  0.033441403  0.033690002           11 
 1590000    1.0029843    -6.266777    638.43616  0.033461015  0.033682565            3 
 1591000    1.0128725   -6.2867152    637.72305  0.033402632  0.033675045            3 
 1592000   0.99184456   -6.2976313    638.00505  0.033396412  0.033667401            5 
 1593000   0.97956728   -6.2493366    638.88983  0.033421732  0.033659842            3 
 1594000   0.99278952   -6.2878701    638.02809  0.033355714  0.033652289            7 
 1595000    1.0192322    -6.280306    640.11397  0.033443781  0.033644568            7 
 1596000   0.98500641     -6.27353    638.73832  0.033350998  0.033636736            4 
 1597000    1.0222475   -6.2525911    639.58409  0.033374248  0.033629063            7 
 1598000     1.002984   -6.3047821    640.39616  0.033395711  0.033621256           10 
 1599000   0.99716612   -6.2849788    640.69663  0.033390485  0.033613492            5 
 1600000    1.0100811   -6.2443779    639.90604  0.033328439  0.033605816            5 
 1601000    0.9967895    -6.316439    640.42156  0.033334456  0.033598139            8 
 1602000   0.98835091   -6.2599779    641.03577  0.033345598  0.033590348            4 
 1603000    0.9838849   -6.2476598     641.1073  0.033328514  0.033582579            3 
 1604000   0.97928775    -6.273041    638.59148  0.033177031  0.033574731           11 
 1605000    1.0015721   -6.3292229    638.80298  0.033167341  0.033566913            5 
 1606000   0.97995374   -6.2769555    641.09677   0.03326571  0.033559063            5 
 1607000    1.0098593     -6.26831    642.09474  0.033296761  0.033551333            5 
 1608000    1.0079364   -6.2651654    641.27206   0.03323342   0.03354351           14 
 1609000   0.99568886   -6.2911556    642.02415  0.033251717   0.03353557            6 
 1610000   0.98036098   -6.2665219    640.18241  0.033135735  0.033527539            5 
 1611000    1.0053084   -6.2750654    641.22991  0.033169352   0.03351955            4 
 1612000   0.98493389   -6.2807441    642.60138  0.033219674  0.033511574            4 
 1613000   0.99030501    -6.283774    640.83379   0.03310776  0.033503481            5 
 1614000   0.98956592   -6.2805994     641.9755  0.033146195  0.033495362            4 
 1615000   0.98311829   -6.2872095    642.61376  0.033158605  0.033487399           10 
 1616000   0.98564271   -6.2819351    643.55462  0.033186604  0.033479404            4 
 1617000    1.0173861   -6.2784499    642.35311   0.03310416  0.033471339            6 
 1618000   0.98183234   -6.3026944    642.86146  0.033109882  0.033463367            4 
 1619000   0.99877035   -6.2946049    644.08821  0.033152574  0.033455438            5 
 1620000   0.98597098   -6.2946111    644.78068   0.03316773  0.033447539            4 
 1621000    1.0088803   -6.2798287    644.14885  0.033114788  0.033439516            5 
 1622000   0.98825933   -6.2775886    642.78296  0.033024197  0.033431499            3 
 1623000   0.99016246    -6.293075     644.7109  0.033102839  0.033423426           17 
 1624000    0.9850157   -6.2670675    645.13614  0.033104276  0.033415302            9 
 1625000    1.0010778   -6.2848427    644.00414  0.033025853  0.033407198            6 
 1626000    1.0008728   -6.2647737    643.75612  0.032992831  0.033399062            6 
 1627000   0.96863018   -6.2997123    644.08667  0.032989483  0.033391001            5 
 1628000    0.9972162   -6.2824135    644.06399  0.032968059  0.033382839            8 
 1629000   0.97937501   -6.2829276    644.92761     0.032992  0.033374518            6 
 1630000   0.98412747   -6.3166737    645.12345  0.032981771  0.033366318            7 
 1631000   0.97648029   -6.2781856    645.50521  0.032981055  0.033358066           11 
 1632000   0.98459015   -6.2960269      646.615  0.033017514  0.033349823           10 
 1633000    1.0001779   -6.3170505    646.83256  0.033008398  0.033341658            8 
 1634000    1.0134211   -6.2561614    645.34614   0.03291239  0.033333468            5 
 1635000    1.0062174    -6.279456    647.31975  0.032992852  0.033325302            5 
 1636000   0.98641504   -6.2575418    645.16162  0.032862756  0.033317125            9 
 1637000   0.98806634   -6.2944286    646.32301  0.032901802  0.033308851            6 
 1638000    1.0017887   -6.2815629    646.66554  0.032899142  0.033300652            5 
 1639000   0.99402433    -6.296987    646.90728  0.032891361   0.03329229            9 
 1640000   0.99455549   -6.2754481     646.1283  0.032831722   0.03328392            6 
 1641000   0.97977754   -6.3085456    645.77684  0.032793867   0.03327552            8 
 1642000   0.99592251   -6.3281628    646.18532  0.032794627  0.033267099            4 
 1643000   0.96970506   -6.2784235    646.84784   0.03280827  0.033258648           12 
 1644000    1.0006077   -6.3198194    644.71139  0.032680018    0.0332502           11 
 1645000    1.0143942   -6.2987657    647.72348  0.032812739   0.03324188            3 
 1646000    1.0044732   -6.3150129    647.29661  0.032771193  0.033233459            4 
 1647000   0.98117888   -6.3203288    647.29389  0.032751158  0.033225069           11 
 1648000    0.9834273   -6.2989988    647.43347  0.032738343  0.033216629            8 
 1649000   0.99648964   -6.2938943    647.48085  0.032720884  0.033208196            4 
 1650000   0.98313312   -6.2779085      649.772  0.032816768  0.033199756           14 
 1651000   0.97925477   -6.2531596    650.26435  0.032821742  0.033191347            4 
 1652000   0.97450307   -6.2662247    650.14752  0.032795981  0.033182918            7 
 1653000   0.97365491   -6.3037954    649.76655  0.032756934  0.033174651            9 
 1654000   0.97057302    -6.312939      648.781  0.032687475  0.033166285           12 
 1655000   0.98088149   -6.2689957    650.47616   0.03275308  0.033157897            6 
 1656000   0.98130809   -6.3116464    649.07451  0.032662767  0.033149443            7 
 1657000   0.97267393   -6.2947035    647.14428   0.03254598  0.033141087            6 
 1658000   0.99096789   -6.2882633     649.5452  0.032647024  0.033132669           11 
 1659000   0.99621929   -6.2991313    649.76776  0.032638525  0.033124251            9 
 1660000   0.97696896   -6.2764231    650.02195  0.032631624  0.033115893            6 
 1661000   0.99031261   -6.3022791    650.74085  0.032648046  0.033107535            8 
 1662000   0.99146433   -6.2951937    651.66298  0.032674638  0.033099037            8 
 1663000    0.9927868   -6.2790491    653.92975  0.032768578  0.033090663           10 
 1664000   0.98577238   -6.2554327     652.4609  0.032675325  0.033082364            5 
 1665000   0.97309482   -6.3147062     652.3556   0.03265043  0.033074013           12 
 1666000   0.95338268   -6.3068136    651.72965  0.032599522  0.033065601            6 
 1667000   0.98420844   -6.2919771    653.00914  0.032643928  0.033057168            5 
 1668000   0.96244029   -6.3259827    653.24625  0.032636204  0.033048766            8 
 1669000   0.98607257   -6.2928394    651.95613  0.032552233  0.033040309           10 
 1670000   0.98805517   -6.3007219    652.79476  0.032574589  0.033031827            8 
 1671000   0.98794479   -6.3032399    655.01841  0.032665989  0.033023478            8 
 1672000   0.97481703   -6.3057503    654.20611  0.032605966  0.033015035            6 
 1673000   0.97908013   -6.3159727    652.83245  0.032518054   0.03300654            3 
 1674000   0.99356688   -6.2658365    654.75478  0.032594324  0.032998187            7 
 1675000   0.99489812   -6.2947447    654.99689   0.03258691  0.032989815            6 
 1676000   0.98134709   -6.3422603    652.48608  0.032442625  0.032981386            5 
 1677000   0.98776255     -6.34319    655.10062  0.032553201  0.032972969            7 
 1678000   0.96229527   -6.3214817    656.78657  0.032617529  0.032964599            2 
 1679000   0.96746385   -6.3385612    654.21244  0.032470341   0.03295617           11 
 1680000    1.0138518   -6.2886848     655.4086  0.032510347  0.032947749            5 
 1681000   0.98173127   -6.2871785    657.59427  0.032599359  0.032939244            8 
 1682000   0.96031658   -6.3103377     655.3816  0.032470353  0.032930868           14 
 1683000    1.0008482   -6.2779184    657.22828  0.032542497  0.032922398            5 
 1684000   0.97492874     -6.36267    656.11459  0.032468062  0.032913849            7 
 1685000   0.99750583   -6.3451256    654.61863  0.032374809   0.03290515           10 
 1686000   0.95929635   -6.3061174    655.24643  0.032386636  0.032896572            7 
 1687000   0.95317508   -6.3009216    657.63893  0.032485622  0.032887985            6 
 1688000   0.95991245   -6.3296138    654.87636  0.032329994  0.032879282           11 
 1689000    0.9813667   -6.2962724     654.8965  0.032311846  0.032870592            8 
 1690000   0.96750037   -6.2877923    656.57778   0.03237563  0.032861889            5 
 1691000   0.99643974   -6.2844551     656.8066  0.032367761   0.03285323            5 
 1692000   0.99532399   -6.3234334    656.10465  0.032314059   0.03284464            5 
 1693000   0.99880863   -6.2781952    658.30317  0.032403188  0.032836071            5 
 1694000   0.97778415   -6.3143771    656.17417  0.032279328  0.032827623            6 
 1695000   0.99237458   -6.3084141    659.11327  0.032404782  0.032819111            9 
 1696000   0.98178366   -6.3266797    658.14454  0.032338077  0.032810621            4 
 1697000    1.0071102    -6.282562    659.93463  0.032406925  0.032802199            5 
 1698000   0.98791556   -6.3314261    660.64713  0.032422808  0.032793653            5 
 1699000   0.98424387   -6.2939124    659.82669  0.032363483  0.032785302           10 
 1700000   0.96390933   -6.2921818    659.53893   0.03233034   0.03277683           10 
 1701000   0.98922136   -6.3620963    658.91578  0.032280804  0.032768336            5 
 1702000    1.0058848   -6.3251156     656.2353  0.032130596  0.032759748           17 
 1703000   0.97894994   -6.3010903    659.43764   0.03226843  0.032751245            3 
 1704000   0.98576201   -6.3210821    660.10757  0.032282256  0.032742648            5 
 1705000    0.9907962   -6.3142601    659.70339  0.032243568  0.032734092            9 
 1706000    0.9792065   -6.3325785    659.28836  0.032204394  0.032725489            9 
 1707000    0.9844389   -6.3216522    658.93512  0.032168283  0.032716924            7 
 1708000   0.99144826   -6.3458093    659.56573  0.032180217  0.032708373            5 
 1709000    0.9726534   -6.3356282    660.58281  0.032210981  0.032699778            6 
 1710000   0.99101087    -6.328592    662.09637  0.032265905  0.032691218            8 
 1711000   0.96593076    -6.302392    663.73328  0.032326772  0.032682853            7 
 1712000   0.97752168   -6.3043672    663.41254  0.032292277  0.032674525            5 
 1713000   0.98199988    -6.286481    663.08256  0.032257373  0.032666106           11 
 1714000    1.0073027   -6.3568615    662.51485  0.032210952  0.032657653            6 
 1715000   0.96904514   -6.3199026    662.30473   0.03218196  0.032649127            5 
 1716000   0.98005709    -6.336568    662.40138  0.032167899  0.032640706            5 
 1717000   0.99679594   -6.3003637    665.59794  0.032304307  0.032632272            3 
 1718000   0.97609746   -6.2926455    663.03728  0.032161296  0.032623939            4 
 1719000   0.99479162   -6.3059548    664.66469   0.03222148  0.032615585            4 
 1720000   0.97063327   -6.2873174     667.1945  0.032325315  0.032607304            3 
 1721000   0.98156261   -6.3536269    663.31386  0.032118626  0.032598863           22 
 1722000   0.97380326    -6.329251     662.7249  0.032071472  0.032590337           11 
 1723000   0.96216978   -6.3190847    666.47387  0.032234178  0.032581905            4 
 1724000   0.99172329   -6.3216929    664.52522  0.032121289  0.032573574            5 
 1725000   0.98914511   -6.3185799    663.88385  0.032071684  0.032565052            7 
 1726000   0.96200292   -6.3215228    663.82845  0.032050427  0.032556513            6 
 1727000    1.0043479   -6.3169721     666.7471  0.032172703  0.032548137            6 
 1728000   0.98041674   -6.3209949    667.56232  0.032193399  0.032539727           11 
 1729000     0.983544   -6.3153358    668.61014  0.032225281  0.032531369            9 
 1730000   0.98111088     -6.31033    667.92211  0.032173512  0.032523022            9 
 1731000   0.96322974   -6.2977297    668.44642  0.032180167  0.032514653           13 
 1732000   0.99410275   -6.3365263    666.30171  0.032058396  0.032506266            9 
 1733000    0.9824841   -6.2800377    667.64781  0.032104626  0.032497847           13 
 1734000    0.9907456   -6.2948356    665.85846  0.032000118  0.032489359            8 
 1735000   0.96151972   -6.3227089      665.927  0.031984966  0.032480931            5 
 1736000    0.9770201   -6.3020704    668.26616  0.032078829  0.032472487            9 
 1737000   0.96682564   -6.2967459    668.37403  0.032065536  0.032464056            7 
 1738000   0.97878928   -6.3113836    668.77572  0.032066346  0.032455665           15 
 1739000   0.97553738   -6.3325991    668.19473  0.032020066  0.032447395            6 
 1740000    0.9751997    -6.300473    669.07583  0.032043861  0.032438946           12 
 1741000   0.98065186    -6.347969    668.19789  0.031983433  0.032430602           10 
 1742000   0.97182475   -6.3435552    669.67364   0.03203567  0.032422292            8 
 1743000   0.97632893   -6.3190902    667.36529  0.031906927   0.03241387            3 
 1744000   0.99095648   -6.3214603       671.91  0.032105791  0.032405564           10 
 1745000   0.97347024   -6.2983719    669.59374  0.031976778  0.032397267            5 
 1746000   0.97419036   -6.3312475     670.5762  0.032005355  0.032388946            8 
 1747000   0.96861074    -6.351256    672.01878  0.032055847  0.032380567            8 
 1748000   0.98428596   -6.3466108    670.88989  0.031983691  0.032372176            8 
 1749000   0.97613983   -6.3556355    667.53326  0.031805473  0.032363776            7 
 1750000   0.95801191   -6.3161748    670.90044   0.03194764  0.032355393            7 
 1751000     0.957632   -6.3339992    669.97791   0.03188549  0.032347047           13 
 1752000   0.95313409   -6.2969869    671.39345   0.03193462  0.032338641           11 
 1753000   0.97184858    -6.331364    671.60964   0.03192668  0.032330315            7 
 1754000   0.99977465   -6.3186764    672.14293  0.031933815   0.03232198            5 
 1755000    0.9587732    -6.327613    670.37447  0.031831646  0.032313648           11 
 1756000   0.94033732   -6.3387917    671.98715  0.031890051  0.032305274            3 
 1757000   0.96303652   -6.3333448    673.24014  0.031931329  0.032296901            6 
 1758000   0.95657978   -6.3304879    671.79417  0.031844623  0.032288493            6 
 1759000   0.98622054    -6.324963    675.26076  0.031990751  0.032280141            4 
 1760000   0.97693879   -6.3434639    672.83356  0.031857649   0.03227195           15 
 1761000   0.97516485   -6.3512694    675.99392  0.031989112  0.032263865            9 
 1762000   0.98834074   -6.3258879    673.93144  0.031873413  0.032255714            6 
 1763000   0.94300529   -6.3297547    674.10142  0.031863368  0.032247527            7 
 1764000   0.96322561   -6.3146382    675.91113  0.031930798  0.032239353            9 
 1765000   0.97295879   -6.3377327    678.77771  0.032048051   0.03223126            4 
 1766000   0.98956089   -6.3034552    678.14332  0.031999968   0.03222328            4 
 1767000   0.97093957   -6.3040233    678.43148  0.031995448  0.032215373            4 
 1768000   0.96582411   -6.3247389    679.10194  0.032008953  0.032207535            6 
 1769000   0.97729997   -6.3383366    677.51019  0.031915875  0.032199729            9 
 1770000   0.96139911   -6.3468218    678.00178  0.031920988  0.032191781            5 
 1771000   0.94828749   -6.3443966    679.29146  0.031963649  0.032183989            5 
 1772000   0.98104124   -6.3046139    679.72345  0.031965926  0.032176133            6 
 1773000   0.97697507   -6.3432668    678.60719  0.031895431  0.032168324            8 
 1774000   0.97735486    -6.319221    679.52704  0.031920661  0.032160482            5 
 1775000   0.97026208    -6.324423    681.63786  0.032001777  0.032152583           11 
 1776000   0.96180167   -6.3191859    681.39708   0.03197246   0.03214479            3 
 1777000   0.96612961   -6.3536239    680.66026  0.031919915  0.032136978            8 
 1778000   0.97484994   -6.3391232    680.02109  0.031872005  0.032129107            6 
 1779000   0.94655406     -6.37028    679.86494  0.031846774  0.032121241           11 
 1780000    0.9489709   -6.3134143    682.67061  0.031960235  0.032113462            7 
 1781000   0.96049387   -6.3348571    681.20699  0.031873806  0.032105634           17 
 1782000   0.96866998   -6.3200306    682.15457  0.031900232  0.032098006            6 
 1783000   0.96391143    -6.336514    681.21037  0.031838211  0.032090236            8 
 1784000   0.97672146   -6.3404813    681.01012  0.031811011  0.032082455            6 
 1785000   0.98103422   -6.2944602     683.7004  0.031918786  0.032074668            8 
 1786000   0.96334256   -6.3414284    681.23392   0.03178583   0.03206695            9 
 1787000   0.98090939   -6.3071323    682.55704  0.031829744   0.03205928            7 
 1788000   0.94700886   -6.3439173    683.15253  0.031839697  0.032051631            7 
 1789000   0.96472793   -6.3430518    683.54169  0.031840027  0.032043862            7 
 1790000   0.97076316   -6.3423106    684.15688  0.031850879  0.032036159            6 
 1791000   0.97354848   -6.3446355    684.13347  0.031832006  0.032028486            8 
 1792000   0.93596476   -6.3428706    683.19478  0.031770591  0.032020839            6 
 1793000   0.95646932   -6.3302685    684.26942  0.031802817   0.03201312            8 
 1794000   0.96362911    -6.366395    683.14982  0.031733083  0.032005476            6 
 1795000   0.93279204   -6.3651483    686.11662  0.031853139  0.031997792            6 
 1796000   0.97622448   -6.3324778    685.24273  0.031794856  0.031990141            6 
 1797000   0.95693118    -6.306084    688.52454  0.031929352   0.03198252            8 
 1798000   0.95012468   -6.3327985     685.7993  0.031785284  0.031974922            4 
 1799000   0.97117825   -6.3662308    687.02251  0.031824278  0.031967253           13 
 1800000   0.96432002   -6.3203952    687.22589  0.031816013  0.031959562            7 
 1801000   0.95816361   -6.3527549    686.58013  0.031768468   0.03195201           11 
 1802000   0.96123648   -6.3086723    689.15738  0.031870023  0.031944368            8 
 1803000   0.97265045   -6.3378764    687.47041  0.031774376  0.031936647           11 
 1804000   0.95150883   -6.3625308    687.05049  0.031737366  0.031928946            9 
 1805000   0.95871345   -6.3351088    688.86614  0.031803607  0.031921315            7 
 1806000   0.96422234   -6.3257782    688.93713  0.031789273  0.031913688            9 
 1807000   0.95079219   -6.3336867    688.82332  0.031766432  0.031906096            4 
 1808000   0.96281422   -6.3176868    689.77172  0.031792575  0.031898489            5 
 1809000     0.970665    -6.357125    687.53025  0.031671745   0.03189086            7 
 1810000   0.95636503   -6.3426999    689.83702  0.031760452  0.031883295            6 
 1811000   0.97863032    -6.368002    689.23686  0.031715298  0.031875728           15 
 1812000    0.9523027   -6.3120315    691.10811  0.031783854  0.031868085            4 
 1813000   0.97908405   -6.3357795    691.45423  0.031782232  0.031860542            6 
 1814000   0.95920074   -6.3468238    690.79488  0.031734421  0.031852979           10 
 1815000   0.96817737   -6.4164418    687.24006  0.031553722  0.031845176            7 
 1816000   0.94079731   -6.3236801    688.96894  0.031615682  0.031837366            8 
 1817000   0.96736695   -6.3514507    688.67069  0.031584603  0.031829596            6 
 1818000   0.97666424   -6.3277758    690.44208  0.031648427  0.031821912           10 
 1819000   0.96910625   -6.3425045     689.7249  0.031598172  0.031814242            6 
 1820000   0.97256065   -6.3267306    690.46795  0.031614833  0.031806589           16 
 1821000   0.94744918   -6.3503838    691.25035  0.031633276  0.031798947            4 
 1822000   0.95394587    -6.350494    693.51316  0.031719409  0.031791254            4 
 1823000   0.96124388   -6.3227128    691.25602  0.031598831  0.031783635            3 
 1824000    1.0058577   -6.3362378     692.3435  0.031631191  0.031776071            7 
 1825000   0.95967538   -6.3264158    691.50908  0.031575757  0.031768494            6 
 1826000   0.96008149   -6.3303836    693.77382  0.031661821   0.03176087            5 
 1827000   0.97059223   -6.3491064    693.14094  0.031615624   0.03175323            5 
 1828000   0.97460752   -6.3525386    691.33172  0.031515851  0.031745679           10 
 1829000    0.9582293   -6.3481537    694.55598  0.031645525  0.031738064            7 
 1830000   0.97405571   -6.3126772    693.16478  0.031564881  0.031730399            5 
 1831000   0.94896182   -6.3182198    693.17858   0.03154827  0.031722821            8 
 1832000   0.96640633   -6.3646961    693.22569  0.031533192  0.031715174           20 
 1833000   0.95550786    -6.364047    692.25379  0.031471803  0.031707523            8 
 1834000   0.93923228   -6.3861497    694.90816  0.031575252  0.031699926            9 
 1835000    0.9680639   -6.3514473    693.40437  0.031489753  0.031692293           15 
 1836000   0.97872695   -6.3445843    692.75301  0.031443038  0.031684592           10 
 1837000   0.94467943   -6.3462726    694.88406  0.031522594  0.031676883            5 
 1838000   0.93411092   -6.3363234    693.73284  0.031453248  0.031669221            6 
 1839000    0.9564762   -6.3459847    692.87485  0.031397265  0.031661485            6 
 1840000   0.95491763   -6.3304908    694.70392   0.03146304  0.031653693           14 
 1841000   0.94031774   -6.3824167    694.98622  0.031458728  0.031645969            6 
 1842000   0.96463167   -6.3235097    693.16445  0.031359231  0.031638207            9 
 1843000   0.95267293   -6.3238205    694.63127   0.03140854  0.031630495            6 
 1844000   0.94851064   -6.3652234    693.97505  0.031361851  0.031622719            5 
 1845000   0.96180233   -6.3612971    695.65651    0.0314208  0.031615047            6 
 1846000   0.95132955   -6.3303138    694.54668  0.031353678  0.031607426            9 
 1847000   0.96850848    -6.357761    696.09417  0.031406523  0.031599667           11 
 1848000   0.95129734   -6.3461632    695.16285  0.031347531  0.031591957            9 
 1849000   0.94060243   -6.3233743    698.29398  0.031471696  0.031584238           12 
 1850000   0.95102361   -6.3522952    696.49961  0.031373856  0.031576588           10 
 1851000   0.96356711   -6.3528004    697.45589  0.031399959  0.031568932            6 
 1852000   0.95683706   -6.3514419    697.02998   0.03136384   0.03156125            5 
 1853000   0.96686714   -6.3498955    698.20121  0.031399587  0.031553616           11 
 1854000   0.94660398   -6.3459283    697.90738  0.031369444  0.031546018           12 
 1855000   0.94745503   -6.3581431    698.37439  0.031373512  0.031538323           11 
 1856000    0.9517129   -6.3605476    697.31416  0.031309005  0.031530635           10 
 1857000   0.97173362   -6.3399833    700.11627   0.03141789   0.03152297           11 
 1858000   0.94482262   -6.3667693     698.8923  0.031346085  0.031515297            4 
 1859000   0.92562108   -6.3598372    698.25875  0.031300823  0.031507618            5 
 1860000   0.96065943    -6.354223    699.54161   0.03134147  0.031500016            4 
 1861000    0.9529891   -6.3631041    699.02649  0.031301562  0.031492287           11 
 1862000   0.93613895   -6.3873272    698.82792  0.031275865  0.031484498           11 
 1863000   0.95445715   -6.3497027    698.26518  0.031233905   0.03147673            5 
 1864000   0.94839492   -6.3795515    696.67483  0.031146049   0.03146902            8 
 1865000   0.95848576   -6.3574793    698.31406  0.031202594  0.031461284            5 
 1866000   0.94559857   -6.3254543    699.63309  0.031244779  0.031453504            7 
 1867000   0.94302012   -6.3668099    700.58698   0.03127062  0.031445785            9 
 1868000    0.9561115   -6.3611847    700.61409   0.03125509  0.031438052            4 
 1869000   0.94294943    -6.345269    700.25617  0.031222408  0.031430353            4 
 1870000     0.964837   -6.3376716    701.44227  0.031258568  0.031422708           11 
 1871000   0.94878733   -6.3614057    702.72861  0.031299154   0.03141509            8 
 1872000   0.95469448   -6.3751508    700.28546  0.031173676  0.031407492            5 
 1873000   0.96737289    -6.365319    701.50646  0.031211357  0.031399825            6 
 1874000   0.94680734   -6.3537556    703.01613  0.031261834  0.031392215           14 
 1875000   0.93595808   -6.3486175    703.19237  0.031252994  0.031384659            7 
 1876000   0.95998661   -6.3569964    703.89196  0.031267411  0.031377072            7 
 1877000   0.94546981   -6.3488752    702.20977  0.031176069  0.031369434           10 
 1878000   0.95599575   -6.3650505     702.9281  0.031191343  0.031361825            6 
 1879000   0.94350987   -6.3752128    703.84784  0.031215533  0.031354184           10 
 1880000   0.95656071    -6.378158    703.45574  0.031181549  0.031346618            6 
 1881000   0.94182327   -6.3892275    702.52594  0.031123779  0.031338992            6 
 1882000   0.95474028   -6.3520029    702.06618  0.031086884  0.031331365            5 
 1883000   0.96999552   -6.3595169    703.59222   0.03113791  0.031323679            6 
 1884000   0.98108587   -6.3674214    704.06608  0.031142342  0.031316003           11 
 1885000   0.95068525   -6.3579333    705.20445  0.031176147  0.031308237            6 
 1886000   0.95284702   -6.3714459    701.95983  0.031016253  0.031300524           13 
 1887000   0.94161969   -6.3233434    704.13269  0.031095773  0.031292783            4 
 1888000   0.94600882   -6.3475838    704.58919  0.031099452  0.031285044            6 
 1889000   0.93966949   -6.3743647    703.87544  0.031051501   0.03127719            8 
 1890000     0.952757   -6.3937735    701.73667   0.03094077   0.03126932           11 
 1891000   0.95136215   -6.3107884    705.71248  0.031099616  0.031261605            6 
 1892000   0.94345821   -6.3678335    702.98087  0.030962864   0.03125382            4 
 1893000   0.96786241   -6.3403241    705.07373  0.031038639   0.03124603            8 
 1894000   0.93308864   -6.3286227    705.40544  0.031036846  0.031238189           15 
 1895000   0.94467536   -6.3427646    705.95728  0.031044735   0.03123039            6 
 1896000   0.95331528   -6.3807886    704.37726  0.030958916  0.031222623            8 
 1897000   0.94504899   -6.3491164    705.78164  0.031004289   0.03121475            6 
 1898000   0.94401219   -6.3420283    705.04391  0.030955563  0.031206908            6 
 1899000   0.94644865   -6.3601217    705.32072   0.03095141  0.031199082            8 
 1900000   0.95002984   -6.3578432    706.26132  0.030976374  0.031191257           12 
 1901000   0.94732869   -6.3813164    707.34822  0.031007725  0.031183433            8 
 1902000   0.95587649   -6.3565651    707.58646   0.03100186  0.031175648            7 
 1903000   0.95060848   -6.3416515    708.36785  0.031019787  0.031167936            8 
 1904000   0.95837203   -6.4056291    707.12873  0.030949261  0.031160133            8 
 1905000   0.95256311   -6.3527674    708.26013  0.030982508    0.0311523           12 
 1906000   0.93977158   -6.3513894    708.08464   0.03095858  0.031144495            7 
 1907000   0.95336077   -6.3774062    707.49309  0.030916496  0.031136674            5 
 1908000   0.94307087   -6.3629426    705.64067  0.030819386  0.031128754           15 
 1909000   0.93391542   -6.3853189    707.28239  0.030874908  0.031120826           11 
 1910000   0.94672301   -6.3528623    706.37703  0.030819242  0.031112941           12 
 1911000   0.92772592   -6.3989508    709.07055  0.030920572  0.031105081            8 
 1912000   0.94749462   -6.3586847    709.97728  0.030943919  0.031097251           12 
 1913000   0.92532758   -6.3854533    708.28371  0.030853969  0.031089331           10 
 1914000   0.95493711   -6.3718504    707.03018  0.030783271  0.031081379           12 
 1915000   0.94736261   -6.3522876    709.41597  0.030871017  0.031073488           12 
 1916000   0.93242299    -6.363563     709.1971  0.030845385   0.03106562           10 
 1917000    0.9377733   -6.3869458    708.13015  0.030782914  0.031057705           12 
 1918000   0.95187434   -6.3671211    707.63649  0.030745416  0.031049845            9 
 1919000   0.95152092   -6.3280682    711.34625  0.030890492  0.031041967            8 
 1920000    0.9540181   -6.3486739    709.26297  0.030783983  0.031034025            6 
 1921000   0.95817203    -6.395944    709.58511  0.030781933  0.031026101           23 
 1922000   0.93160513   -6.3827086    709.67614  0.030769864  0.031018254           18 
 1923000   0.94152204   -6.3569701     711.3861  0.030827964  0.031010361            7 
 1924000   0.93754806   -6.3504917    712.31476  0.030852164  0.031002508           17 
 1925000   0.94367728   -6.3606883    708.99766  0.030692539  0.030994746            7 
 1926000   0.96565872   -6.3974567    711.64251   0.03079104  0.030986913            6 
 1927000   0.95198638   -6.3565585      711.533  0.030770325  0.030979092            7 
 1928000   0.93847052    -6.366269    711.16964   0.03073866  0.030971157            6 
 1929000   0.93429874    -6.391385    713.14059  0.030807871  0.030963263           18 
 1930000   0.95279188   -6.3551999    711.57188  0.030724175  0.030955404            8 
 1931000   0.96574042   -6.3840663     710.7268  0.030671793  0.030947509            9 
 1932000   0.92822222   -6.4008434    713.24402  0.030764494   0.03093961           10 
 1933000   0.94864855   -6.3968877    709.84273  0.030601945  0.030931703            6 
 1934000   0.95474251   -6.3734575    711.49829  0.030657458  0.030923662            4 
 1935000    0.9577572   -6.3796646    711.49491  0.030641469  0.030915641            7 
 1936000   0.93890083   -6.4008567    713.83493  0.030726366  0.030907549           12 
 1937000   0.95264321   -6.4160741    709.48041  0.030523163  0.030899513            6 
 1938000   0.94678509   -6.4031264    710.86409  0.030566911  0.030891466           13 
 1939000   0.95048063   -6.3594412     711.8048  0.030591576  0.030883419           30 
 1940000   0.94516149   -6.3927669    713.00804  0.030627493  0.030875448           16 
 1941000   0.95660229   -6.3801645    712.74502  0.030600421  0.030867507            6 
 1942000   0.91418159   -6.3962023    713.04341  0.030597469  0.030859561           10 
 1943000   0.95748869   -6.3760329    714.60784  0.030648818  0.030851549            9 
 1944000   0.94234567   -6.3837708    713.92569  0.030603811  0.030843688            5 
 1945000   0.94594488   -6.3918692     715.4809  0.030654709  0.030835902           12 
 1946000   0.94738123   -6.3567528    715.33923  0.030632889  0.030828064            5 
 1947000   0.93463058   -6.3953829    715.85496   0.03063923  0.030820284           18 
 1948000   0.93543309   -6.3877146    716.32893  0.030643777  0.030812412            5 
 1949000   0.95853005    -6.388973     716.3025  0.030626924  0.030804502           18 
 1950000   0.95472338   -6.3701776    715.91281  0.030594565   0.03079674            5 
 1951000   0.93225899   -6.3941058    716.24079  0.030592892  0.030788913            4 
 1952000   0.92088263   -6.3864561    715.66139  0.030552484  0.030781029            8 
 1953000   0.94111971   -6.3504862    716.10902   0.03055594  0.030773153           11 
 1954000   0.95090914   -6.3618757    715.23725  0.030503124   0.03076531           10 
 1955000   0.94843224   -6.4014062    716.26992   0.03053154  0.030757417            5 
 1956000   0.92662953   -6.3692699    715.75343  0.030493926  0.030749547           18 
 1957000   0.94526989   -6.3849063     717.5942  0.030556728  0.030741703            4 
 1958000    0.9339175   -6.3884071    714.37589  0.030404149  0.030733784           11 
 1959000   0.94047562   -6.3699516    715.29497  0.030427725  0.030725881            3 
 1960000   0.95914921   -6.4046517    715.96797  0.030440815   0.03071799            8 
 1961000   0.93899891    -6.407338    715.75552  0.030416264  0.030710014            8 
 1962000   0.94561258   -6.4066865    718.44478  0.030514984  0.030702106            9 
 1963000   0.93968857    -6.359122    717.89306  0.030476017  0.030694216           16 
 1964000   0.94545833    -6.369247    716.42979  0.030398413  0.030686357            3 
 1965000   0.91790189   -6.3732028    716.52012  0.030386774  0.030678425            7 
 1966000   0.93202341   -6.3722321    719.66051   0.03050443   0.03067052            6 
 1967000   0.94825598   -6.4229821    718.47385  0.030438648  0.030662582           14 
 1968000   0.94135634   -6.3656348    718.44586  0.030421996  0.030654583           12 
 1969000   0.92002406   -6.3903342    719.69506  0.030459415  0.030646768            8 
 1970000   0.93395688   -6.3742071    719.27035  0.030425988  0.030638879           11 
 1971000   0.92120141   -6.4073499     720.0907  0.030445235  0.030630873           11 
 1972000   0.93422675   -6.3849424    720.96843  0.030466888  0.030622975            6 
 1973000   0.94234021   -6.4082415    720.18047  0.030418165  0.030615005            6 
 1974000   0.92612724   -6.3718008     718.6823  0.030339509  0.030607074            5 
 1975000   0.93557317   -6.3704987    718.87926  0.030332458  0.030599124            9 
 1976000   0.91646297   -6.3583831    722.01076  0.030449172  0.030591223            6 
 1977000   0.94691271   -6.3873905     720.1754  0.030356407  0.030583317           10 
 1978000   0.93623737   -6.3739632    720.09112  0.030337509  0.030575505            8 
 1979000   0.93904295   -6.4091314    720.87808  0.030355317  0.030567587           10 
 1980000   0.92696726    -6.394329    719.91273  0.030299357  0.030559592            7 
 1981000    0.9383082   -6.4000973    719.33633  0.030259815  0.030551636            9 
 1982000   0.94087468   -6.3589457    720.64894  0.030299737  0.030543674            6 
 1983000   0.92997288     -6.41379    721.58157   0.03032365  0.030535761            9 
 1984000   0.96188366    -6.378042    721.81363  0.030318113  0.030527811           15 
 1985000   0.93324077   -6.3717033     722.8324  0.030345609  0.030519949            4 
 1986000   0.93758222   -6.4163139    720.58977  0.030236227  0.030512146           13 
 1987000   0.93942105   -6.3872036    724.32657  0.030377729  0.030504277            8 
 1988000   0.94173872   -6.4538727    722.80707  0.030298754  0.030496509           10 
 1989000   0.94507532   -6.3797074    721.48155  0.030227985  0.030488775            4 
 1990000   0.93394522   -6.3749292    721.63546   0.03021924  0.030480987            4 
 1991000   0.92084949   -6.4008446      723.627  0.030287418  0.030473204           15 
 1992000    0.9323957   -6.4516656    722.88127  0.030241017  0.030465376           11 
 1993000   0.94657693   -6.4014943    723.99744  0.030272514  0.030457507           10 
 1994000   0.94648227   -6.3967167    725.12169  0.030304317    0.0304498            5 
 1995000   0.94742161   -6.3883164    726.62454  0.030351902  0.030442129            5 
 1996000   0.94195625   -6.4323605    724.81957  0.030261338  0.030434503           10 
 1997000   0.92594595   -6.4431064    725.29699  0.030266107  0.030426662            7 
 1998000   0.92492033   -6.3989216      724.813  0.030230773  0.030418913           18 
 1999000   0.92399061   -6.4160716    723.99562  0.030181575  0.030411159           10 
 2000000   0.93738067   -6.3933294    725.80699  0.030241958  0.030403435           10 
 2001000   0.94283108   -6.3944585     726.2784  0.030246477  0.030395717            3 
 2002000   0.94697593   -6.3938602    727.16676  0.030268347  0.030387945            8 
 2003000   0.92905973   -6.3974914    725.61766  0.030188786  0.030380258            8 
 2004000   0.93440225   -6.3874807    726.01245  0.030190139  0.030372518            4 
 2005000   0.95141189   -6.3928795    725.89227  0.030170086  0.030364866            9 
 2006000   0.91248824   -6.3696871    726.47091  0.030179084   0.03035715            7 
 2007000   0.90615906   -6.3898368    726.15814   0.03015106  0.030349506            7 
 2008000   0.93241113   -6.3925494    726.58484  0.030153753  0.030341828           14 
 2009000   0.92254298   -6.3611339    726.89454   0.03015159  0.030334095           10 
 2010000    0.9589803   -6.3974686    728.95113  0.030221854  0.030326404            9 
 2011000   0.92832512   -6.3971581    725.98317  0.030083838  0.030318748            5 
 2012000    0.9240832   -6.4075113    727.75705  0.030142356  0.030311041           14 
 2013000   0.92246724   -6.4108711    727.74425  0.030126853   0.03030347           10 
 2014000   0.92740999    -6.406585    728.30017  0.030134896  0.030295826            9 
 2015000   0.92768173   -6.3734687    731.15116  0.030237848  0.030288235            7 
 2016000   0.93243831   -6.4112601    730.15903  0.030181838  0.030280761           10 
 2017000   0.93350173   -6.4149511    731.26016  0.030212368  0.030273126           11 
 2018000   0.93407102   -6.3996596    730.50287  0.030166124  0.030265569            7 
 2019000   0.92691978   -6.4040676    732.07993  0.030216276  0.030258028           10 
 2020000   0.91941601    -6.401387    730.30097  0.030127928  0.030250444            8 
 2021000   0.94796641   -6.3899359    730.67129   0.03012829  0.030242848           10 
 2022000   0.92190832   -6.4078891    730.03356  0.030087107  0.030235241            9 
 2023000   0.91434947   -6.4073963    732.21568  0.030162122  0.030227636           14 
 2024000   0.93276552   -6.3914212    730.87996  0.030092225  0.030219959           12 
 2025000   0.92144656    -6.405001     731.5788  0.030106123  0.030212346            9 
 2026000   0.93905937   -6.3806458     731.0439  0.030069262  0.030204689            8 
 2027000   0.90974807   -6.4326468    731.42844  0.030070237  0.030197043            7 
 2028000   0.92850144   -6.3991138    729.58134  0.029979509  0.030189309            5 
 2029000   0.91711309   -6.4216507    729.60787  0.029965823  0.030181579            5 
 2030000   0.91424314   -6.4134898    731.53488  0.030030167  0.030173894           11 
 2031000   0.93210357    -6.407304    729.98668  0.029951858  0.030166167            6 
 2032000   0.91733242    -6.410907    732.45593  0.030038383  0.030158462           12 
 2033000   0.94086189   -6.4117369    732.10391  0.030009178  0.030150795           11 
 2034000   0.90943192   -6.4035726     734.5582  0.030094977   0.03014304            5 
 2035000   0.91416203   -6.4182438    730.49367  0.029913746  0.030135339           12 
 2036000   0.92199175   -6.4328765    733.20295  0.030009944  0.030127638           10 
 2037000   0.90970959   -6.4162636    731.14482  0.029911014  0.030119897            9 
 2038000   0.91087895   -6.3957491      733.121  0.029977143  0.030112238           10 
 2039000   0.93201519   -6.3910679    733.59449  0.029981792  0.030104548           37 
 2040000   0.93177748   -6.4142166    731.77882  0.029892925  0.030096793           15 
 2041000   0.93764238   -6.4429608    732.43392  0.029905027  0.030088995           10 
 2042000   0.90342414    -6.411401    731.80209  0.029864597  0.030081235            7 
 2043000   0.92964348   -6.4099636    732.42734  0.029875483  0.030073448           14 
 2044000   0.91155703   -6.4152429     734.1127  0.029929578   0.03006568           27 
 2045000   0.91156158   -6.4216294    732.97709  0.029868667  0.030057927            6 
 2046000   0.92497844   -6.3970318    733.23958   0.02986476  0.030050163            5 
 2047000   0.91200295    -6.457266    732.35016  0.029813962   0.03004236            9 
 2048000   0.92218713   -6.4218412    734.81489  0.029899695  0.030034521           16 
 2049000   0.91626795   -6.4460323    734.70525  0.029880643  0.030026858            7 
 2050000   0.93282678   -6.4312965    736.24418  0.029928625   0.03001917           15 
 2051000   0.92411038   -6.3973619    735.60531  0.029888075  0.030011522            7 
 2052000    0.9206125   -6.3874356     735.9693  0.029888292  0.030003914           10 
 2053000   0.92544022   -6.3944902    735.34346   0.02984833   0.02999637           10 
 2054000    0.9195023   -6.4052515    737.46292  0.029919787  0.029988799           15 
 2055000   0.92377538   -6.3951884    737.27135  0.029897459  0.029981268            3 
 2056000   0.89607133   -6.4178915    734.98587  0.029790283  0.029973687            5 
 2057000   0.91639193   -6.4337557    736.75616  0.029847519  0.029966041           20 
 2058000   0.91986815   -6.4321874    737.16567  0.029849598  0.029958414           19 
 2059000   0.91636588   -6.4077937    738.31857  0.029881762  0.029950941           11 
 2060000   0.92324904   -6.4340443     738.0691  0.029857164  0.029943467           15 
 2061000   0.91778578   -6.4126818    739.01598  0.029880963  0.029935984            8 
 2062000   0.92115547   -6.3891198     737.5426  0.029806927  0.029928388           10 
 2063000     0.928495   -6.4232362    736.54808  0.029752306  0.029920798            7 
 2064000   0.93991992   -6.3986599    738.74411  0.029826555  0.029913202            8 
 2065000   0.93776102   -6.4027928    739.94712  0.029860659  0.029905761            4 
 2066000   0.93063121   -6.4117722    739.43247  0.029825447  0.029898386            6 
 2067000   0.91114844   -6.4101039    741.30627  0.029886561  0.029891048           11 
 2068000   0.91581675   -6.3963448    739.76684  0.029810076  0.029883646           11 
 2069000   0.92084333   -6.4071708    741.49217  0.029865159  0.029876176           24 
 2070000   0.93000577   -6.4207655    739.67051  0.029777396  0.029868835            5 
 2071000   0.92694296   -6.4119175     741.2102  0.029824972  0.029861406            6 
 2072000     0.913562   -6.4247953    741.43133  0.029819471  0.029853964           14 
 2073000   0.90484707   -6.4047287    743.20718  0.029876474  0.029846535            9 
 2074000   0.89410394   -6.4238442    741.40889  0.029789814  0.029839116           10 
 2075000    0.9290717   -6.4419698    739.50981  0.029699189  0.029831727            8 
 2076000   0.90385449   -6.4038547    742.05581  0.029787083  0.029824329           14 
 2077000   0.93375458   -6.4214376    743.96292  0.029849258  0.029816945            6 
 2078000   0.92769583   -6.4131208    740.43201  0.029693295  0.029809585           20 
 2079000   0.91832301   -6.4306162    738.87992    0.0296168   0.02980215           11 
 2080000     0.916553   -6.4060672    743.29311  0.029779371  0.029794684            5 
 2081000   0.92457058   -6.4206937    740.19208  0.029640881   0.02978719            5 
 2082000   0.93051484   -6.4066036    741.87719  0.029694092   0.02977964            7 
 2083000   0.91543924   -6.4129725    742.06075   0.02968718  0.029772117           14 
 2084000   0.91848193   -6.4487556    741.35418  0.029644681  0.029764653            7 
 2085000   0.93099271   -6.4085361    742.38614  0.029671708  0.029757108            7 
 2086000   0.90443516   -6.4196565    741.69761  0.029629978  0.029749621           10 
 2087000   0.92794204   -6.4562608    742.12183  0.029632719  0.029742139           12 
 2088000   0.92482505   -6.4285175    744.44978  0.029711438  0.029734647            7 
 2089000    0.9164952   -6.4106088    743.54121   0.02966097  0.029727141            7 
 2090000   0.90753714   -6.3985354    742.73502  0.029614634  0.029719655           17 
 2091000   0.93842592   -6.4433543    744.30818  0.029663167  0.029712158           17 
 2092000   0.91187826   -6.4470055    743.57602  0.029619822  0.029704648            5 
 2093000    0.9296182   -6.4221562    742.97365  0.029581687  0.029697164            9 
 2094000   0.92264289   -6.4269185    744.22746  0.029617457  0.029689633           10 
 2095000     0.914915   -6.4180051    742.51742  0.029535299  0.029682052            6 
 2096000   0.92489967   -6.4016717    745.32315  0.029632759  0.029674529            7 
 2097000    0.9183697   -6.4150336    745.56124  0.029628089  0.029667152           15 
 2098000   0.94195137   -6.4310536    745.54518  0.029613329  0.029659658           19 
 2099000   0.91883863   -6.4033191     744.8062  0.029569882  0.029652145            7 
 2100000   0.90316288   -6.4388893    744.62305  0.029548534  0.029644666           13 
 2101000   0.92536676   -6.4377174    744.41103   0.02952606  0.029637253           11 
 2102000   0.91002031   -6.4137592    745.34152  0.029548903  0.029629811            5 
 2103000   0.91341483   -6.4191247    745.61655   0.02954575   0.02962241            9 
 2104000   0.93731461   -6.4179338    744.68061  0.029494638  0.029614988            8 
 2105000    0.9403291   -6.4292283    746.12119  0.029537656  0.029607611            8 
 2106000   0.89232919    -6.405496    747.78729  0.029589557  0.029600332            8 
 2107000   0.90841229   -6.4169383    749.60962  0.029647588   0.02959307            9 
 2108000   0.91472621      -6.4342    747.15691  0.029536564  0.029585701            8 
 2109000   0.92005806   -6.4263778    747.32753    0.0295293  0.029578234            7 
 2110000   0.94504868   -6.4507315    746.48061  0.029481857  0.029570783            7 
 2111000   0.90895941   -6.4300011    748.45873  0.029545979  0.029563346            4 
 2112000   0.93593659   -6.4438343    747.46132  0.029492634     0.029556            7 
 2113000   0.92702656    -6.444532     746.0855  0.029424416  0.029548686            7 
 2114000    0.9109575    -6.449722    746.84911  0.029440599  0.029541308            4 
 2115000   0.93798006   -6.4465402     748.8915  0.029507151  0.029533927            8 
 2116000   0.93067584   -6.4600157     750.0127  0.029537362  0.029526571           10 
 2117000   0.90870079   -6.4273008    750.39051  0.029538282  0.029519129           14 
 2118000   0.91811739   -6.4440099    748.47875  0.029449117  0.029511782            7 
 2119000   0.91370735   -6.4446024    749.31727  0.029468195  0.029504438            7 
 2120000   0.91051992   -6.4215874    747.71573  0.029391342   0.02949709            6 
 2121000   0.91196777   -6.4498845    748.92826  0.029425124  0.029489676           13 
 2122000   0.93531728   -6.4453639    747.15231  0.029341514  0.029482238            6 
 2123000   0.89980907   -6.4303595    750.06722  0.029442111   0.02947476            9 
 2124000   0.89292153   -6.4226963    745.95852  0.029267048  0.029467308           21 
 2125000    0.9229636   -6.4218474    750.48365  0.029430731  0.029459907           15 
 2126000   0.91459957   -6.4416094    748.42776  0.029336303  0.029452494           14 
 2127000   0.92173016   -6.4386033    748.87857  0.029340173  0.029445015           12 
 2128000   0.90265225   -6.4215024    750.27483  0.029381063  0.029437591           11 
 2129000   0.89942787   -6.4454992    748.66738  0.029304344  0.029430161            7 
 2130000   0.89439416   -6.4420571    750.39649  0.029358235  0.029422735           11 
 2131000   0.89033931   -6.4129293    752.96181  0.029444776  0.029415341           11 
 2132000   0.90066505   -6.4209507    750.96679  0.029352986  0.029407948           13 
 2133000   0.92617614   -6.4091549    752.65898  0.029405336  0.029400558            5 
 2134000   0.91216181   -6.4284093    751.57876  0.029349374  0.029393169            6 
 2135000    0.9147517   -6.4396176    751.89484  0.029347964  0.029385772            5 
 2136000   0.90222234    -6.436815    751.79158  0.029330196  0.029378449            7 
 2137000   0.91892993   -6.4438343    753.70388  0.029391042  0.029371073           16 
 2138000   0.92529827   -6.4400261    753.11166  0.029354212  0.029363697            8 
 2139000    0.8722662   -6.4372638    753.35219  0.029349859   0.02935639           15 
 2140000   0.91469948   -6.4312039    751.81062  0.029276115  0.029349072           10 
 2141000   0.93126586   -6.4263443    753.25858  0.029318799   0.02934185            7 
 2142000   0.92717236   -6.4333133    754.70643  0.029361439  0.029334557           22 
 2143000   0.92595571   -6.4331198     754.0082  0.029320587  0.029327228            7 
 2144000   0.92324864   -6.4169418    754.47564  0.029325079  0.029319919            9 
 2145000   0.92121522   -6.4338331    754.55637  0.029314544  0.029312586           11 
 2146000   0.91561064   -6.4057936     754.2699   0.02928976  0.029305261            5 
 2147000   0.90643071   -6.4631439     754.8658  0.029299247  0.029297924            4 
 2148000   0.90659501   -6.4300049    754.99555   0.02929064  0.029290626           32 
 2149000   0.90155009   -6.4689752    753.28989  0.029210869   0.02928336            6 
 2150000   0.89957563   -6.4406862    756.76781  0.029332086  0.029276134            7 
 2151000   0.92787663    -6.444799    755.59485  0.029273007  0.029268997            9 
 2152000   0.90507437   -6.4432319    753.71707  0.029186689  0.029261756            8 
 2153000   0.89657667   -6.4808887    753.37424  0.029159864  0.029254435           23 
 2154000   0.91461067   -6.4518457    755.94896  0.029245936  0.029247147           19 
 2155000   0.91140801   -6.4300143     756.3922  0.029249505  0.029239836           11 
 2156000   0.90038522   -6.4190098    755.12524  0.029186968  0.029232526           12 
 2157000   0.91068852   -6.4427574    756.24228  0.029216593  0.029225219            4 
 2158000    0.8981589   -6.4166075    757.81843  0.029263918  0.029217939            4 
 2159000   0.90097058   -6.4395013     757.7516  0.029247785  0.029210698           13 
 2160000   0.89033048   -6.4483953    757.59018  0.029228016  0.029203413           19 
 2161000   0.90834725   -6.4565349    755.42124  0.029130851  0.029196119           10 
 2162000   0.89510312   -6.4394291    757.58186  0.029200658  0.029188849           16 
 2163000   0.90610804    -6.431624    757.99436   0.02920305  0.029181608            8 
 2164000    0.9114512   -6.4212398     757.0524  0.029153281  0.029174347            9 
 2165000     0.904978   -6.4287909    757.27238  0.029148282  0.029167065            8 
 2166000   0.90274838   -6.4344228    757.30767  0.029136183  0.029159844           18 
 2167000    0.8941346   -6.4126152    757.26797  0.029121211  0.029152671            7 
 2168000   0.90472898   -6.4491391    758.19928  0.029143576  0.029145482           15 
 2169000   0.87994506   -6.4498239    760.53113   0.02921973  0.029138277           11 
 2170000   0.90084673   -6.4061011    757.40925  0.029086377  0.029131066           10 
 2171000   0.88964532   -6.4473956    759.27668   0.02914466  0.029123855           14 
 2172000   0.90488878    -6.438205    759.19207  0.029127995  0.029116694           13 
 2173000   0.91035466   -6.4497636    760.38677  0.029160407  0.029109519           10 
 2174000   0.91287327   -6.4769402     757.5313  0.029037538  0.029102286            9 
 2175000    0.9176545     -6.45613    759.42672  0.029096809  0.029095075           10 
 2176000   0.91168128   -6.4643676    759.77969  0.029096955  0.029087825           16 
 2177000    0.9071331    -6.441709     760.7036  0.029118956  0.029080632           15 
 2178000   0.91783401   -6.4613513    761.58468  0.029139297  0.029073405           15 
 2179000   0.90178653   -6.4635138    758.94991  0.029025161  0.029066221           15 
 2180000   0.88983887   -6.4264844     761.5843   0.02911255  0.029058978            6 
 2181000   0.91153028   -6.4562717    761.32258  0.029089201  0.029051758            5 
 2182000   0.90727574   -6.4575571    760.93092  0.029060912  0.029044493            5 
 2183000   0.88881869   -6.4428167      761.993  0.029088143  0.029037257            9 
 2184000   0.91015055   -6.4227071    760.81101  0.029029724   0.02903001            8 
 2185000   0.92328909   -6.4693996    760.18006  0.028992375  0.029022781            7 
 2186000    0.8939591   -6.4128175    762.63858  0.029072834  0.029015567            5 
 2187000   0.90333996    -6.441036    762.89232  0.029069209  0.029008419           12 
 2188000   0.89949749   -6.4443513    762.07941  0.029024962  0.029001264            6 
 2189000   0.91592086   -6.4543656    762.38258  0.029023244  0.028994114           12 
 2190000   0.89346721   -6.4698527    762.80504  0.029026067  0.028986871           18 
 2191000   0.89601192   -6.4511372    762.95123  0.029018379  0.028979644            9 
 2192000   0.90602925   -6.4451166    762.66762  0.028994359   0.02897249            9 
 2193000   0.88997442   -6.4324716     763.2829  0.029004518  0.028965396            9 
 2194000   0.87604598   -6.4742252    762.43712  0.028959173  0.028958213            7 
 2195000   0.88205803   -6.4819296     763.3438  0.028980402  0.028951021           16 
 2196000   0.90586981   -6.4771265    763.46817  0.028971925  0.028943842           11 
 2197000   0.87271519   -6.4832056    762.90282  0.028937294  0.028936642            7 
 2198000   0.88506901   -6.4780461     761.9054  0.028886313   0.02892938            7 
 2199000   0.91162442   -6.4528995    763.92706   0.02894979  0.028922188            7 
 2200000   0.90405945    -6.465116    766.07472  0.029017982  0.028915015            5 
 2201000   0.89897346   -6.4616772    763.10046  0.028892187  0.028907794           14 
 2202000   0.89057324   -6.4626805    764.12465  0.028917826  0.028900562           24 
 2203000   0.90240648   -6.4694264    764.05645   0.02890212  0.028893263            6 
 2204000    0.9163667   -6.4773774    765.87639  0.028957819  0.028886062           28 
 2205000   0.89345268   -6.4676311    765.81431   0.02894234  0.028878841            6 
 2206000   0.87602497   -6.4509125    764.56961  0.028882201  0.028871667            9 
 2207000   0.88980077    -6.416015     766.6151  0.028946349  0.028864491           10 
 2208000   0.89769836   -6.4541922    766.29741  0.028921249  0.028857355            4 
 2209000   0.89209479   -6.4523646    766.33235  0.028909475  0.028850267            9 
 2210000   0.90562939   -6.4661961    765.90558  0.028880301    0.0288431           16 
 2211000    0.8916846   -6.4669494    766.41304  0.028886365  0.028835956           10 
 2212000   0.90004953   -6.4499023    766.04133  0.028859303   0.02882885           12 
 2213000   0.89704461   -6.4775319    766.32977  0.028857124  0.028821691           10 
 2214000   0.91374903   -6.4797143    767.47202  0.028887083   0.02881457            8 
 2215000   0.89090617   -6.4694004    767.40119  0.028871377   0.02880746           10 
 2216000   0.86747932   -6.4580918    768.69448  0.028906983  0.028800342            8 
 2217000   0.89049223   -6.4820801    766.43092   0.02880886    0.0287932           12 
 2218000   0.88318422   -6.4588227    766.84694  0.028811502  0.028786075           15 
 2219000   0.88712699   -6.4903843    769.37793  0.028893568   0.02877892            7 
 2220000   0.90200613   -6.4489345     769.2408  0.028875405  0.028771808            6 
 2221000   0.88712247   -6.4568108    767.24826  0.028787643  0.028764667            8 
 2222000   0.92039128   -6.4598866    768.08162  0.028805941   0.02875753           10 
 2223000   0.89744255   -6.4380214    768.32862  0.028802242  0.028750445            5 
 2224000   0.88907371    -6.450734    769.23269  0.028823167  0.028743289            5 
 2225000   0.89615282   -6.4894099    767.93757  0.028761707  0.028736166           16 
 2226000   0.91062865   -6.4557788    768.70693  0.028777588  0.028729023           12 
 2227000   0.88415012   -6.4996234    769.37154  0.028789535  0.028721844           13 
 2228000   0.89319937   -6.4438968    769.41412  0.028778206  0.028714679           14 
 2229000   0.86735303   -6.4834365    768.23205  0.028721103  0.028707483            8 
 2230000   0.89942662   -6.4856676    768.50237  0.028718325   0.02870025           16 
 2231000   0.88162626   -6.4769303    769.08407   0.02872718  0.028693046           10 
 2232000   0.90083915   -6.4426171    769.16932  0.028717493   0.02868588            9 
 2233000   0.89344041   -6.4568212    767.52634  0.028643318  0.028678643           12 
 2234000   0.90239388   -6.4958668    768.27371  0.028658375   0.02867139            6 
 2235000   0.89352416   -6.4357191    769.11462  0.028676906  0.028664126           10 
 2236000   0.90378724   -6.4666568    771.33365  0.028746782  0.028656878            8 
 2237000   0.87506661   -6.4802784    771.62463  0.028744771  0.028649677            8 
 2238000   0.91137915   -6.4649754    768.22057  0.028605175  0.028642429           13 
 2239000   0.89760366    -6.464565     769.4607  0.028638555  0.028635173           24 
 2240000   0.91188272   -6.4474903    769.62179  0.028631763  0.028627934           22 
 2241000    0.8884492   -6.5164825    768.84174   0.02858998  0.028620717           13 
 2242000   0.88959206    -6.493365    771.64936  0.028681585  0.028613472            8 
 2243000   0.87970201    -6.461249    771.81433  0.028674927  0.028606394           14 
 2244000   0.90231874   -6.4991975    767.94303  0.028518383  0.028599203           18 
 2245000   0.89685411   -6.4606254    771.20659  0.028626822  0.028592024            7 
 2246000    0.8839855   -6.4880152    770.08165  0.028572338  0.028584908           15 
 2247000    0.8900784   -6.4708865    772.33294  0.028643115  0.028577733            8 
 2248000   0.90326885   -6.4939834    771.33436  0.028593355  0.028570549            7 
 2249000   0.90765773   -6.4904407     771.3317  0.028580543  0.028563342            8 
 2250000   0.89229531   -6.5168254    770.45621  0.028535415  0.028556164           18 
 2251000    0.8998942   -6.4589058    770.99462  0.028542671  0.028548958           14 
 2252000   0.90206087   -6.4633528    774.20392  0.028648754  0.028541801            6 
 2253000   0.89557469   -6.4848816    772.68185   0.02857974  0.028534673           13 
 2254000   0.90553362   -6.4688243    773.59656  0.028600879   0.02852756            8 
 2255000   0.87557752   -6.4850411    771.10558  0.028496141  0.028520446           17 
 2256000   0.88311645   -6.4805456    775.61329  0.028650018  0.028513319           18 
 2257000   0.89356593   -6.4785817    772.07972  0.028506857   0.02850618           32 
 2258000   0.88637496   -6.4708545      774.621   0.02858802  0.028499064            6 
 2259000   0.88007759   -6.4908359    773.73398  0.028542644  0.028491965           11 
 2260000   0.89168589   -6.4718084    773.67049  0.028527673  0.028484898           12 
 2261000   0.89143233   -6.4827868    775.54419  0.028584114  0.028477851           12 
 2262000   0.91750966   -6.4758712    773.09344  0.028481191  0.028470769           13 
 2263000   0.90153282    -6.462642    773.27463  0.028475277  0.028463647           54 
 2264000   0.89548217   -6.4884358     771.9753  0.028414874  0.028456406           28 
 2265000   0.88430078   -6.4418999    774.15444  0.028482503  0.028449207           11 
 2266000   0.89593943   -6.4807578    774.37808  0.028478158  0.028441988           12 
 2267000   0.88115713   -6.4931601     773.7172  0.028441303  0.028434759           16 
 2268000   0.87950247   -6.4935396    772.28886  0.028376281  0.028427556           22 
 2269000   0.88184296   -6.4652548    774.63445  0.028449921  0.028420316           15 
 2270000   0.90384799   -6.4757932    775.69636  0.028476372   0.02841312           26 
 2271000   0.89723385   -6.5014037    775.96269  0.028473605  0.028406002            5 
 2272000   0.88389595   -6.4828039    777.54423  0.028519081  0.028398914           26 
 2273000   0.90784271   -6.4610903    775.73853  0.028440333  0.028391833            8 
 2274000    0.8856731   -6.4693321     775.8824  0.028433099  0.028384802           22 
 2275000   0.88076548   -6.4688623    776.38921  0.028439165  0.028377727            8 
 2276000    0.8910242   -6.4779176    776.10298   0.02841619  0.028370669           10 
 2277000   0.87456245   -6.4879494    778.12351  0.028477658  0.028363627           13 
 2278000   0.85575901   -6.4705869    777.33808  0.028436424  0.028356601           18 
 2279000   0.91472607   -6.4558793    776.22785   0.02838335  0.028349589           12 
 2280000   0.88624637   -6.4692607     779.0026  0.028472317  0.028342579           18 
 2281000   0.88249031   -6.4629633    780.12713  0.028500918  0.028335544           16 
 2282000   0.90158461   -6.4848011    777.84869  0.028405225  0.028328536           12 
 2283000    0.8954732   -6.4726604     779.0116  0.028435231  0.028321439           10 
 2284000   0.87349758   -6.4723482    776.20148  0.028320253  0.028314299           11 
 2285000   0.88272955   -6.4781893    779.44732  0.028426233   0.02830724           20 
 2286000   0.89512681   -6.5145219    776.84331  0.028318872  0.028300166            5 
 2287000   0.86577487   -6.5255429    776.44306  0.028291906  0.028293037           13 
 2288000   0.89190687   -6.4958421    779.64568  0.028396186  0.028285994           12 
 2289000    0.8932051   -6.4776362     780.7557  0.028424192  0.028279034           13 
 2290000   0.87021467   -6.4859075    779.04144  0.028349398  0.028272005           13 
 2291000   0.89656235   -6.4571817    779.56468  0.028356055   0.02826496            7 
 2292000   0.88939772   -6.4732183    780.80342  0.028388722  0.028257978            9 
 2293000    0.8797609   -6.4655504    781.65262  0.028407204  0.028250997            6 
 2294000   0.86982242   -6.4714455    779.96199  0.028333406  0.028243999           26 
 2295000   0.89046038   -6.4734554    779.17077   0.02829233  0.028237018           19 
 2296000   0.90309115   -6.4943262     780.1405  0.028315204  0.028230028           16 
 2297000   0.88030383   -6.5080015    780.41102  0.028312691  0.028222982            9 
 2298000   0.88009911    -6.514944    779.49021  0.028266979  0.028215933           24 
 2299000   0.86909217   -6.4875607    780.13669  0.028278117  0.028208898           22 
 2300000   0.89403807   -6.4871999    783.05927  0.028371713  0.028201846           25 
 2301000   0.89128554   -6.4712587    783.03572   0.02835853  0.028194924           15 
 2302000   0.88760424   -6.4838147    779.99348   0.02823608  0.028187977            9 
 2303000   0.90047032   -6.5085004    780.13611  0.028228981   0.02818094            7 
 2304000   0.88044182   -6.4928023    781.15793  0.028253687  0.028173862            7 
 2305000   0.87895614   -6.4900883    782.97962  0.028307289  0.028166867           11 
 2306000   0.87813256   -6.4933901    782.31515  0.028271001  0.028159858           24 
 2307000   0.87749232   -6.4630015    782.31511  0.028258745  0.028152892            9 
 2308000   0.88069059   -6.5182283    782.88271  0.028266996  0.028145927            5 
 2309000   0.88855759   -6.5102029    784.26365  0.028304592  0.028138945            8 
 2310000   0.89116034   -6.4843996    784.36376  0.028295951  0.028132001            8 
 2311000   0.89197225   -6.5019311     784.0397  0.028272022  0.028125116           10 
 2312000   0.87117723    -6.509153    784.58476  0.028279439  0.028118232            8 
 2313000   0.88675941   -6.5074453    782.28695  0.028184427  0.028111299            8 
 2314000    0.8637848    -6.502566    784.92463  0.028267237  0.028104393            6 
 2315000   0.88641008   -6.4994831    784.61994  0.028244058  0.028097473            8 
 2316000   0.88447522   -6.4942578    784.52074  0.028228294  0.028090634            5 
 2317000   0.91159411   -6.4751207    784.82857  0.028227182  0.028083808           11 
 2318000   0.90472442   -6.4838444    784.47294   0.02820222   0.02807694            5 
 2319000   0.89242497   -6.4776416    786.84277  0.028275218  0.028070099            9 
 2320000   0.89244499    -6.490955    783.93526  0.028158594  0.028063284           11 
 2321000   0.88095748   -6.5019574    784.00376  0.028148921  0.028056408            8 
 2322000   0.87909281   -6.4796514    787.18049  0.028250807  0.028049553           26 
 2323000   0.88932686   -6.5088949    786.92958  0.028229645  0.028042679           12 
 2324000   0.86461758   -6.4833453     787.8822  0.028251657  0.028035831           15 
 2325000    0.8936777    -6.484218    786.59482  0.028193363  0.028028976           10 
 2326000   0.88668373   -6.4824405    785.60929  0.028145933  0.028022204           16 
 2327000   0.87486064   -6.5088645    786.74929  0.028174663   0.02801539            8 
 2328000    0.8686349   -6.5187406    786.29258  0.028146212  0.028008564           12 
 2329000   0.87573611   -6.4905274    788.93311  0.028228607  0.028001775            6 
 2330000   0.88381423   -6.5339126    785.69189  0.028100568  0.027994967           24 
 2331000   0.87294302   -6.4733994    786.15942  0.028105228  0.027988153            8 
 2332000   0.88065153    -6.507366     787.3951  0.028137332  0.027981283           26 
 2333000   0.88478329   -6.5272837    787.67273  0.028135188  0.027974429           10 
 2334000   0.88064174   -6.5199173    786.52283  0.028082078  0.027967568            5 
 2335000   0.87431443   -6.5146894    788.18141  0.028129244  0.027960683            7 
 2336000   0.87712209   -6.4904693    787.17917  0.028081449  0.027953836            4 
 2337000   0.89080609    -6.500684    788.01809  0.028099347  0.027947022           11 
 2338000   0.87889486   -6.5398356    789.52808  0.028141149   0.02794018           11 
 2339000   0.87948488   -6.5234928    788.83297  0.028104353  0.027933307           13 
 2340000   0.88661939   -6.5231758    786.10346  0.027995137  0.027926379           16 
 2341000   0.87507307   -6.4982937    788.69212  0.028075328  0.027919516            6 
 2342000   0.88818325   -6.5044858    788.31401  0.028049886  0.027912623            6 
 2343000   0.89358898   -6.5105631    788.48423  0.028043969  0.027905805            9 
 2344000   0.88509019    -6.489461    789.33779   0.02806235  0.027898933            8 
 2345000      0.85782   -6.5028261    788.70397   0.02802786  0.027892064            6 
 2346000   0.87198341   -6.4941554    790.16543  0.028067826   0.02788521           12 
 2347000   0.87293044    -6.521421    790.00582    0.0280502  0.027878334           13 
 2348000   0.87949883   -6.4952916    788.92396  0.027999857  0.027871476           17 
 2349000   0.87283333   -6.5316705    788.54285  0.027974417  0.027864586           12 
 2350000   0.87128508   -6.5020672    790.25015  0.028023055  0.027857725            7 
 2351000   0.88833657   -6.5220045    790.10638  0.028006039  0.027850818           24 
 2352000   0.87663054   -6.4955563    790.02335   0.02799119  0.027843866            6 
 2353000   0.87957134   -6.5070267    786.56526  0.027856823  0.027836965           15 
 2354000   0.87234102   -6.5122761    791.38324  0.028015549  0.027829969            9 
 2355000   0.86976814    -6.517836    788.30344  0.027894672  0.027822945           16 
 2356000   0.89232665   -6.5488823    788.63907  0.027894704  0.027815856           13 
 2357000   0.89288471   -6.4967661    790.37115  0.027944108  0.027808768           19 
 2358000   0.89335666   -6.4854103    789.02919  0.027884831   0.02780179           10 
 2359000   0.87324032   -6.5090133    790.04606  0.027908932   0.02779474           10 
 2360000   0.87011725   -6.4918981    789.28435   0.02787021   0.02778776           11 
 2361000   0.88123428   -6.5017487    790.68552  0.027907861  0.027780753            9 
 2362000   0.89439849   -6.5137017    789.44339  0.027852222  0.027773692           14 
 2363000   0.89076372   -6.4957451    790.50127  0.027877743  0.027766577           23 
 2364000   0.89165188   -6.5267446    788.52908  0.027796428  0.027759432           12 
 2365000   0.87163145   -6.5300815    787.38135  0.027744234  0.027752301           14 
 2366000   0.86909902   -6.5054866    789.74476   0.02781575  0.027745232           26 
 2367000   0.87876862   -6.5262234    789.97794  0.027812207  0.027738139           20 
 2368000    0.8820798   -6.5160325    789.38286  0.027779521  0.027731031            7 
 2369000   0.87135354   -6.5021139    790.01457  0.027790016  0.027723912           13 
 2370000    0.8757561   -6.4843924    790.45832  0.027793893  0.027716858           16 
 2371000   0.84023784   -6.4656607    792.98918  0.027871123  0.027709834            6 
 2372000   0.86861136   -6.4773246    792.21403   0.02783214  0.027702766            8 
 2373000   0.88295743   -6.5175345    790.26141   0.02775184    0.0276957            6 
 2374000   0.86691981    -6.492848    791.67797  0.027789875  0.027688683           17 
 2375000   0.87477418   -6.5215781    792.36073  0.027802131  0.027681625           10 
 2376000   0.86548803   -6.5164064    789.36075  0.027685211  0.027674555           13 
 2377000   0.87437443   -6.5015839    790.02729  0.027696932  0.027667496            8 
 2378000   0.87581571   -6.5076686    791.50902   0.02773721  0.027660393           14 
 2379000   0.86429425   -6.4902139    794.26329  0.027822029  0.027653361           11 
 2380000   0.87675652   -6.5081227     792.6954  0.027755441  0.027646322           16 
 2381000   0.87424423   -6.4705395    793.81456  0.027782954  0.027639373           16 
 2382000   0.86105544   -6.4841264    793.44199  0.027758256  0.027632379            9 
 2383000   0.86424095   -6.5170613    793.94184  0.027764087  0.027625357           16 
 2384000    0.8565557   -6.5071078    793.42055  0.027734219  0.027618264           14 
 2385000   0.85879766    -6.495758    794.78227   0.02777017  0.027611231            6 
 2386000   0.86906179    -6.525784    793.45066  0.027712024  0.027604202           15 
 2387000   0.85718217   -6.5223395    794.13184  0.027724195  0.027597142           13 
 2388000    0.8709044   -6.4775327    792.72188  0.027663382  0.027590109            7 
 2389000   0.86873412   -6.5101153    793.56336  0.027681155  0.027583115            8 
 2390000   0.88942728   -6.5050312     792.4132   0.02762947   0.02757611           13 
 2391000   0.87309024   -6.4950753    794.59015  0.027693788  0.027569083           12 
 2392000   0.86711528    -6.519528    794.16798  0.027667502  0.027562058            9 
 2393000   0.88930025   -6.5175842    795.41603  0.027699402  0.027555075            4 
 2394000   0.86873606   -6.5413824    793.68255  0.027627491  0.027548071            8 
 2395000   0.87258569    -6.512227    792.24609  0.027565974  0.027540989            6 
 2396000   0.86843271   -6.5124282    793.86088  0.027610632  0.027533909           10 
 2397000   0.88430512   -6.5600838    791.93434  0.027532135  0.027526821           12 
 2398000   0.87070868   -6.5110241    795.18842  0.027633737  0.027519761           12 
 2399000   0.87990967   -6.5014984    796.39652  0.027664184  0.027512781            6 
 2400000   0.86589867   -6.4985172    795.44894  0.027619755  0.027505884           18 
 2401000    0.8522662   -6.5378964    794.92752  0.027590154  0.027498916           14 
 2402000   0.86140954   -6.5420512     793.7279  0.027537049  0.027491929            7 
 2403000   0.87134046   -6.5520818    796.13972  0.027609229  0.027484976            8 
 2404000   0.87711209    -6.541648    794.73235  0.027548958  0.027478014           16 
 2405000   0.86149738   -6.5445564    796.10722  0.027585143  0.027471069           15 
 2406000   0.87907364   -6.5216308    796.60332   0.02759086  0.027464172            7 
 2407000   0.85648384   -6.5256051    795.84254  0.027553058  0.027457255           16 
 2408000   0.85563385   -6.5106155    798.36589  0.027628941  0.027450315           14 
 2409000   0.86584825   -6.5129015    797.58535  0.027590472   0.02744347            9 
 2410000   0.84768989   -6.5265623    797.98091  0.027592701  0.027436633           17 
 2411000    0.8840694   -6.5004754    798.70158  0.027606165  0.027429814           25 
 2412000   0.87941421   -6.5327661    797.51907  0.027553865  0.027422992            9 
 2413000   0.85208938   -6.5331346    798.10909  0.027562823  0.027416148           15 
 2414000   0.85832651   -6.5365783    800.30758  0.027627298  0.027409355           13 
 2415000   0.86341989   -6.5222776    799.72222   0.02759566  0.027402582           10 
 2416000    0.8668182   -6.4906027    800.38155   0.02760698  0.027395814           10 
 2417000   0.87936529   -6.4898647    799.66462  0.027570839  0.027389026            9 
 2418000   0.84491388   -6.5075834     800.6494  0.027593376  0.027382294           29 
 2419000   0.86198954   -6.5089618    800.57975   0.02757957  0.027375543           16 
 2420000   0.87289039   -6.5456474    799.37827    0.0275268  0.027368678           17 
 2421000   0.85522893   -6.5518411    798.06351  0.027470174  0.027361823           34 
 2422000   0.85290973   -6.5440929    800.16845  0.027531257  0.027354974           34 
 2423000    0.8587891   -6.5397629    798.91255  0.027476701  0.027348093           20 
 2424000   0.85342756    -6.530863     799.4302  0.027483161  0.027341186           10 
 2425000   0.85800233   -6.5287203    801.55661  0.027544901  0.027334366            6 
 2426000   0.83861542   -6.5020069    799.52961  0.027463919  0.027327552           12 
 2427000   0.87172885    -6.515755    798.56413  0.027419452  0.027320739           34 
 2428000   0.87203912    -6.540641    800.51469  0.027475106  0.027313889            8 
 2429000   0.85953493   -6.5183508    802.29138  0.027524749  0.027306986           10 
 2430000     0.869321   -6.5529944    800.27807  0.027444378  0.027300201           11 
 2431000   0.87596152   -6.5490418    800.52751   0.02744164  0.027293353           12 
 2432000   0.87474442   -6.5296761     800.2395  0.027420487  0.027286529           11 
 2433000    0.8477542   -6.5337435    800.21314  0.027408314  0.027279708           15 
 2434000   0.86528865   -6.5229336    799.52997  0.027373664  0.027272839            4 
 2435000   0.88726201   -6.5469489    801.41048  0.027426779  0.027265999           10 
 2436000   0.87262876   -6.5535974    803.52766  0.027487947   0.02725917           10 
 2437000   0.84920113   -6.5435668    802.84593  0.027453356  0.027252321           11 
 2438000   0.85571114    -6.510172     803.3799  0.027460346  0.027245537            6 
 2439000   0.86674922   -6.5043552    803.12614  0.027440418  0.027238787           17 
 2440000   0.88065324   -6.5362763    804.34679   0.02747086  0.027232036           20 
 2441000   0.83900569    -6.527802    802.03583  0.027380712  0.027225218           42 
 2442000   0.85970779   -6.5217054    803.67124  0.027425308  0.027218399           27 
 2443000   0.84894409   -6.5215585    802.14948  0.027362174   0.02721158           19 
 2444000   0.84461451   -6.5224963    803.30717  0.027390452  0.027204758           37 
 2445000   0.84537262   -6.5493469    802.15032   0.02733982  0.027197884           13 
 2446000    0.8607864   -6.5377114    802.24353  0.027331818  0.027190986           13 
 2447000   0.86291608   -6.5309406    803.26767  0.027355526  0.027184165           13 
 2448000   0.84707749   -6.5224799    803.71543  0.027359594  0.027177327           28 
 2449000   0.85733503   -6.5657999    803.45958  0.027339716  0.027170498            6 
 2450000   0.89238329   -6.5321859    805.86548   0.02741039  0.027163701           21 
 2451000   0.86738074   -6.5202449    804.61176  0.027356581  0.027156942           11 
 2452000   0.83755199   -6.5512587    803.67898  0.027313723  0.027150188            9 
 2453000   0.84395512   -6.5396616    804.37901  0.027326369  0.027143424           12 
 2454000   0.86064922   -6.5606334    803.93441  0.027300136  0.027136621           11 
 2455000   0.84995114   -6.5519404    804.94772  0.027323412  0.027129872           14 
 2456000   0.87927423    -6.537483    804.25354  0.027288733  0.027123079           12 
 2457000   0.84799749   -6.5192823    804.38328  0.027282027  0.027116318           11 
 2458000   0.87264096   -6.5118054    804.96147   0.02729053  0.027109546           23 
 2459000   0.85841302   -6.4947707    804.71283  0.027271006  0.027102779            7 
 2460000   0.86313921   -6.5555892    805.77881   0.02729603  0.027095946           11 
 2461000   0.87165742   -6.5166354    804.76301  0.027250542  0.027089169           10 
 2462000   0.86976961   -6.5188391     806.3187   0.02729213  0.027082368           16 
 2463000   0.86112059   -6.5143846    804.85444  0.027231508  0.027075602           13 
 2464000    0.8517585   -6.5317944    806.54772  0.027277723  0.027068839           15 
 2465000   0.85067668   -6.5141025    806.27531  0.027257448  0.027062067           10 
 2466000   0.85297769   -6.5249653    806.03245  0.027238188  0.027055251           13 
 2467000   0.86646427   -6.5312624    806.29225  0.027235923  0.027048434            8 
 2468000   0.84463291   -6.5278987    808.65231  0.027304576  0.027041659           11 
 2469000    0.8745481   -6.5361333    805.60326  0.027190606  0.027034931           21 
 2470000   0.85014832   -6.5753609    804.94254  0.027157306  0.027028147           16 
 2471000   0.86765271   -6.5257043    805.32953  0.027159366  0.027021359           34 
 2472000   0.86426801   -6.5600619    807.64148  0.027226318  0.027014564           26 
 2473000   0.86447235   -6.5545577    807.81019  0.027220993  0.027007785           32 
 2474000   0.85928784   -6.5257511    807.90444  0.027213165  0.027001079           13 
 2475000   0.86145282   -6.5481922     808.2032  0.027212229  0.026994365           16 
 2476000   0.84747532   -6.5355298    809.27346   0.02723726  0.026987616           24 
 2477000   0.86455112   -6.5142213    809.61751  0.027237839  0.026980844           11 
 2478000   0.86637171   -6.5463563    808.14418    0.0271773  0.026974091            8 
 2479000   0.86670669   -6.5669896    806.54979   0.02711274  0.026967349           21 
 2480000   0.85424083   -6.5417272     808.0122  0.027150948  0.026960549           11 
 2481000    0.8610192   -6.5384702    809.23186  0.027180971  0.026953774           14 
 2482000   0.86127485   -6.5454957    808.59802  0.027148738  0.026947021           13 
 2483000    0.8441614   -6.5093877    807.86765  0.027113292  0.026940265            6 
 2484000   0.84269698   -6.5211167    810.90773  0.027204365  0.026933533            7 
 2485000   0.84572751   -6.5161566    807.80809  0.027089473  0.026926785           12 
 2486000   0.85391609   -6.5449864    808.91603  0.027115716  0.026920076            7 
 2487000   0.85553792   -6.5363047    808.67978  0.027096897  0.026913308            6 
 2488000   0.85995278   -6.5692432    808.16673  0.027068821  0.026906588           14 
 2489000   0.84994938   -6.5313875    809.84757  0.027114221  0.026899851           16 
 2490000   0.85763065   -6.5679738     810.4124  0.027122235  0.026893121           10 
 2491000   0.84748953    -6.562747    809.00253  0.027064182  0.026886373            8 
 2492000    0.8469703   -6.5460199    808.94533  0.027051409  0.026879626           17 
 2493000   0.85677054    -6.548614    809.59072  0.027062131  0.026872925           23 
 2494000   0.84429171   -6.5521084    810.60941  0.027085318  0.026866218           48 
 2495000   0.84731104   -6.5482212     811.8796  0.027116887  0.026859486           15 
 2496000   0.85107158   -6.5402872    808.63221  0.026997603  0.026852784            9 
 2497000   0.83943937   -6.5484192    810.28746  0.027042032  0.026845986            7 
 2498000   0.84913854   -6.5479704    811.64575   0.02707652  0.026839241            7 
 2499000   0.85263147    -6.547594    811.11221  0.027047893  0.026832476           27 
 2500000    0.8580462   -6.5559014    811.13449  0.027037816  0.026825744            9 
 2501000    0.8607191   -6.5750096    812.42216  0.027069911  0.026819018           20 
 2502000   0.82493861   -6.5500375    811.49509  0.027028214  0.026812294           15 
 2503000   0.83782493   -6.5494976     810.3829  0.026980387  0.026805612           16 
 2504000    0.8596162   -6.5306908    812.23165  0.027031138  0.026798968            9 
 2505000   0.84998151   -6.5488932    810.36702  0.026958317  0.026792289           14 
 2506000   0.83495193   -6.5477741    814.50121  0.027085036   0.02678556            9 
 2507000   0.84406076    -6.562106    812.07703  0.026993652  0.026778902           10 
 2508000   0.86730482   -6.5495564     813.5752  0.027032669  0.026772234           16 
 2509000   0.83793439   -6.5528653    812.62141  0.026990216  0.026765578           10 
 2510000   0.84654438   -6.5496904    813.14487  0.026996842  0.026758904           14 
 2511000   0.86019602   -6.5405285    813.23706   0.02698915  0.026752271           15 
 2512000   0.86534433   -6.5675469    811.97646  0.026936586  0.026745588           17 
 2513000   0.84681235   -6.5446161    812.21274  0.026933703  0.026738953           13 
 2514000   0.86562534   -6.5206535    813.91635   0.02697946  0.026732303           16 
 2515000    0.8513712   -6.5572352    814.66731  0.026993615  0.026725693           12 
 2516000   0.84302752   -6.5549276     815.2162  0.027001067  0.026719043           20 
 2517000   0.86505531   -6.5711918    813.83092  0.026944475  0.026712353           15 
 2518000    0.8562396   -6.5305207    814.69321  0.026962312  0.026705703           10 
 2519000   0.84385097   -6.5432299    814.67198  0.026950906  0.026699119            6 
 2520000   0.82572628   -6.5274513    814.53964  0.026935835  0.026692446           12 
 2521000   0.83599603    -6.584937    814.48249  0.026923261  0.026685788           21 
 2522000   0.84394199    -6.547544    815.23009  0.026937288  0.026679124           16 
 2523000   0.84148583   -6.5513919    812.68482  0.026842543   0.02667252           20 
 2524000   0.84718657   -6.5636385    813.47119  0.026857871  0.026665873           13 
 2525000   0.86759639   -6.5772406    813.95578  0.026863227  0.026659181           18 
 2526000   0.83007368   -6.5624716    814.42684  0.026868133  0.026652481            8 
 2527000   0.83389851   -6.5732317    813.77968  0.026836159    0.0266458           16 
 2528000   0.82772642   -6.5505424    816.73344  0.026922911  0.026639149           16 
 2529000   0.86320678   -6.5826887    815.65437  0.026876709  0.026632514           16 
 2530000   0.84441061   -6.5713098    814.67884  0.026833954  0.026625808           23 
 2531000   0.84457958    -6.518218     816.8411  0.026894544  0.026619088            8 
 2532000   0.85048233   -6.5469898    815.23385  0.026831025  0.026612435            7 
 2533000   0.85337079   -6.5319842    813.85825  0.026775176  0.026605801           38 
 2534000    0.8422268   -6.5298145    816.10605  0.026838531  0.026599151           33 
 2535000   0.82404231   -6.5444935    815.56163  0.026810047  0.026592511           14 
 2536000   0.83210543   -6.5629173    815.03447  0.026782153  0.026585822            9 
 2537000   0.83534853   -6.5496591    816.17846  0.026809173  0.026579167            5 
 2538000   0.85473958   -6.5481057    817.66441    0.0268474  0.026572537           10 
 2539000   0.84055932   -6.5720364    816.78679  0.026808021  0.026565886            8 
 2540000   0.86966957   -6.5616532    817.09646  0.026807627  0.026559149           12 
 2541000   0.84666712    -6.583555    818.17862  0.026832567  0.026552442           11 
 2542000   0.86808905   -6.5462256    818.63051  0.026836825  0.026545736            8 
 2543000    0.8504114   -6.5720188    817.61642   0.02679304  0.026539111           21 
 2544000   0.84717285   -6.5748523    816.50666  0.026746156  0.026532441           27 
 2545000   0.84579871   -6.5643854    816.33798  0.026730124   0.02652575            9 
 2546000   0.84711263   -6.5474763    817.48534  0.026757179   0.02651907           11 
 2547000   0.85121482   -6.5555845    814.38651  0.026645286  0.026512391            7 
 2548000   0.84758869   -6.5574722    818.13934  0.026757566  0.026505692            8 
 2549000   0.84268355   -6.5369641    816.96639  0.026708722  0.026499057           17 
 2550000   0.84661886   -6.5684839    817.14271   0.02670401  0.026492408            5 
 2551000   0.84503969    -6.560729    817.10528  0.026692319  0.026485717           45 
 2552000   0.84328544   -6.5418555    818.25384  0.026719365  0.026479052            7 
 2553000   0.83000455    -6.544451    819.02978  0.026734227  0.026472367           12 
 2554000     0.855016   -6.5251322    816.94678  0.026655794  0.026465701           11 
 2555000   0.83850173    -6.561596    816.77866  0.026639878  0.026459015           15 
 2556000   0.85637277   -6.5651869     817.7409  0.026660827  0.026452322           12 
 2557000   0.85728927   -6.5486161    817.13011  0.026630495  0.026445612           13 
 2558000   0.84666959   -6.5598844    818.72295  0.026671975  0.026438864           16 
 2559000    0.8520738   -6.5466332    816.52923  0.026590114  0.026432179           21 
 2560000   0.84677876   -6.5780541    817.60518  0.026614752  0.026425497            8 
 2561000   0.83821177   -6.5555022    820.42127  0.026695993  0.026418757           14 
 2562000   0.83714972   -6.5246697    820.41052  0.026685224  0.026412055           21 
 2563000   0.85271429   -6.5540771    819.79349   0.02665475  0.026405363           13 
 2564000   0.82412451   -6.5541896    818.06263  0.026588099  0.026398616           39 
 2565000   0.84858548   -6.5723621    820.82393  0.026667444  0.026391883           17 
 2566000   0.84054404    -6.572084    818.20337  0.026571946  0.026385147           18 
 2567000   0.84381047    -6.609409    819.35017  0.026598824  0.026378403           24 
 2568000   0.83158719   -6.6055442    818.37029  0.026556668  0.026371622           17 
 2569000   0.84097396    -6.620743    819.90971  0.026596267  0.026364828           39 
 2570000   0.82976274   -6.5462064    821.17473  0.026626937  0.026358103           11 
 2571000   0.83079404   -6.5895779    818.42614   0.02652749  0.026351389           40 
 2572000   0.82891875   -6.5779394     818.7546  0.026527819   0.02634466           24 
 2573000   0.86823544   -6.5644121    820.04699  0.026559366  0.026337985           11 
 2574000   0.84744673   -6.5460765    818.56628   0.02650111  0.026331313            8 
 2575000   0.84760411   -6.5745468    820.04936  0.026538814  0.026324619           15 
 2576000   0.83984229   -6.5879344    822.41503  0.026605041  0.026317942           17 
 2577000   0.82856365   -6.5794934    821.74514  0.026573055  0.026311309           21 
 2578000   0.85502217   -6.5494379    820.33502  0.026517165  0.026304702            4 
 2579000   0.85263581    -6.546174    822.20005  0.026567147  0.026298115           16 
 2580000   0.83711813    -6.571319    821.86135  0.026545909  0.026291485            7 
 2581000   0.83736891   -6.5728672    821.74842  0.026531978  0.026284864           27 
 2582000   0.83676287    -6.593263    821.70579  0.026520326  0.026278237           14 
 2583000   0.84417609   -6.5620991    821.85871  0.026514993  0.026271642           17 
 2584000   0.84016538   -6.5916355    821.15275  0.026481964  0.026265054           15 
 2585000   0.85877254    -6.574155    822.77991  0.026524175  0.026258452            6 
 2586000   0.84304129   -6.5701075    822.75696  0.026513178  0.026251901            4 
 2587000   0.83295893   -6.5706656    821.68044  0.026468253  0.026245297           13 
 2588000   0.83087403    -6.589724    822.47708  0.026483677   0.02623871            7 
 2589000   0.83188809   -6.5630397    821.41929    0.0264394  0.026232116           11 
 2590000   0.82910182   -6.5957872    823.12171  0.026483967  0.026225445           16 
 2591000   0.82628687   -6.5576118    824.28848  0.026511272  0.026218815           12 
 2592000   0.82821926   -6.5488008    824.67689  0.026513532  0.026212201            9 
 2593000   0.84752422   -6.5700365     823.9088  0.026478622  0.026205621           19 
 2594000   0.82625089   -6.5561022    823.50415  0.026455415  0.026199086            9 
 2595000   0.83723106    -6.578953    822.83206  0.026423637  0.026192511           11 
 2596000   0.84125931    -6.610878    823.86854   0.02644673  0.026185955           11 
 2597000   0.83579784   -6.5759373    824.68141   0.02646263  0.026179364           16 
 2598000   0.83236203   -6.6016154    825.66948  0.026484138  0.026172806           15 
 2599000    0.8197055   -6.6031865    825.05189  0.026454145  0.026166215           15 
 2600000   0.83139578   -6.5553616    824.52967  0.026427233  0.026159627           13 
 2601000   0.82677021   -6.5746977    823.98197  0.026399525  0.026153081           15 
 2602000   0.82799307   -6.5616338    825.51952  0.026438622  0.026146573           13 
 2603000   0.81070123    -6.580886    825.50405  0.026427969  0.026140089           13 
 2604000   0.84959902   -6.6005872    824.70194  0.026392151  0.026133554            7 
 2605000   0.83807649   -6.5671507    827.22358  0.026462687  0.026127013           18 
 2606000   0.83580053   -6.5822305    825.01256  0.026381829  0.026120476            8 
 2607000   0.82319647   -6.5772855    825.09416  0.026374318  0.026113897            8 
 2608000   0.85374031   -6.5813605    824.80126  0.026354846  0.026107324           13 
 2609000   0.81199177   -6.5804156    826.29369  0.026392414  0.026100801           28 
 2610000   0.83430786   -6.5937713    825.04851  0.026342545  0.026094264           12 
 2611000   0.83954673   -6.6084524     824.8469  0.026326021  0.026087702           33 
 2612000   0.83418506   -6.5723914    828.60364  0.026435798  0.026081194           11 
 2613000    0.8189074   -6.6205724    825.60019  0.026329895  0.026074667           12 
 2614000   0.83800406   -6.5909542    825.10578  0.026304061  0.026068162           21 
 2615000   0.82434217   -6.5658335    826.73957  0.026346066   0.02606163            8 
 2616000   0.83571034   -6.5685554    825.39305  0.026293102  0.026055108           12 
 2617000   0.84039944   -6.6224433     826.7518  0.026326322  0.026048571           17 
 2618000   0.86104224   -6.6338096    824.98112  0.026259903  0.026041975           19 
 2619000   0.82549297   -6.6090417    827.24908   0.02632204  0.026035396           13 
 2620000   0.83371006   -6.5764032    827.97514  0.026335087  0.026028836            9 
 2621000   0.83499454   -6.5795061    827.92048  0.026323302  0.026022327           14 
 2622000   0.83107014   -6.5762034    827.99285  0.026315562  0.026015827           28 
 2623000   0.83063606   -6.6111605    825.80997  0.026236179  0.026009277           40 
 2624000   0.82856332   -6.5929213    827.10494  0.026267306  0.026002735           21 
 2625000   0.82101318   -6.5925695    827.59359  0.026272813  0.025996202           19 
 2626000     0.828043   -6.5710921    826.73985  0.026235715  0.025989727           11 
 2627000   0.81316914   -6.5869203    827.69754  0.026256108  0.025983204           21 
 2628000   0.83381634   -6.5939953    826.48627  0.026207708  0.025976609           17 
 2629000   0.83854397   -6.5773628    828.14706  0.026250382  0.025970023           17 
 2630000   0.83200167   -6.5683746     827.9636  0.026234588  0.025963423           10 
 2631000   0.83737399   -6.6065259    828.06943  0.026227969  0.025956869           17 
 2632000   0.85820968   -6.5851974    827.92934  0.026213568   0.02595028           15 
 2633000   0.82656108   -6.5908028    826.63927  0.026162782   0.02594371           13 
 2634000   0.82771452    -6.590615    827.45178  0.026178555  0.025937141            9 
 2635000   0.82449473   -6.5670571     829.0134  0.026218008  0.025930587           10 
 2636000   0.83772356   -6.5707635    827.40034  0.026157067  0.025924059           11 
 2637000   0.83150315   -6.5937838    829.44565  0.026211783    0.0259175           12 
 2638000   0.82926899   -6.5632349    829.24569   0.02619553  0.025910897           14 
 2639000   0.83443232   -6.6233169    825.45706  0.026065967  0.025904237           12 
 2640000   0.82130208   -6.6054328     827.3434  0.026115638  0.025897559           31 
 2641000   0.84185186   -6.6040943    828.77015  0.026150768  0.025890918           19 
 2642000   0.83652489   -6.6064704    826.64798  0.026073933  0.025884287           16 
 2643000   0.82093881   -6.5877006    828.04648  0.026108162  0.025877669           17 
 2644000   0.83832431   -6.5933467    826.63369   0.02605376  0.025871054           22 
 2645000   0.82912474   -6.5988212     825.9559  0.026022555  0.025864411           12 
 2646000   0.82638779   -6.5882503    829.76489  0.026132681  0.025857734           13 
 2647000   0.82797777   -6.6225084    828.20342   0.02607365  0.025851054           12 
 2648000   0.80945166   -6.5836002    828.82717  0.026083433  0.025844408            7 
 2649000   0.80691723   -6.5909216    829.94023  0.026108602  0.025837767           10 
 2650000   0.83049159   -6.6067194    828.10773  0.026041124  0.025831112           23 
 2651000   0.83051274   -6.6123486    830.18502  0.026096599  0.025824489           26 
 2652000   0.81160189   -6.6173505    829.32117  0.026059614  0.025817844           51 
 2653000   0.82668265    -6.592839    830.11847  0.026074836   0.02581126           24 
 2654000   0.81829934   -6.6144221    828.58551  0.026016877  0.025804631           28 
 2655000   0.82688179   -6.6078402    828.21552  0.025995465  0.025797955           13 
 2656000   0.81798192   -6.5972078    829.67807  0.026031566  0.025791306           10 
 2657000   0.83890081   -6.5855682    830.45396  0.026046103  0.025784647           12 
 2658000   0.83510411   -6.5836176     827.5808  0.025946225  0.025777986           42 
 2659000   0.82712664   -6.5832161     829.8098  0.026006324  0.025771328           27 
 2660000   0.83930868   -6.6202938    828.03437  0.025940927  0.025764632           41 
 2661000   0.82570041   -6.5845565    825.73225  0.025859083  0.025757939           56 
 2662000    0.8139462   -6.6119633    828.68563  0.025941824  0.025751179           30 
 2663000   0.81622291   -6.5951535    827.95783  0.025909308  0.025744464           12 
 2664000   0.82630416   -6.5818495    828.42329  0.025914142  0.025737793           14 
 2665000   0.80876631   -6.5980932    829.25421    0.0259304  0.025731131           13 
 2666000   0.81870207   -6.6018036    828.89287   0.02590938  0.025724437           10 
 2667000   0.82953525    -6.581439    828.53616  0.025888519   0.02571775            9 
 2668000   0.83058275   -6.6109401      828.614  0.025881247  0.025711047           46 
 2669000   0.85486449   -6.6017916    828.04188  0.025853687  0.025704341           16 
 2670000   0.82388191   -6.6144131    830.85849  0.025931913  0.025697671            8 
 2671000   0.82985979   -6.6030493    830.38588  0.025907459  0.025690999           15 
 2672000   0.80585446   -6.5960177    829.80959   0.02587979  0.025684381           14 
 2673000   0.81133186   -6.5816247    831.27161  0.025915688  0.025677751           18 
 2674000   0.81730569    -6.599346    829.19608  0.025841314  0.025671084           51 
 2675000    0.8241691   -6.6155571      830.882  0.025884174  0.025664379           27 
 2676000    0.8190202   -6.6321204    831.97123  0.025908421  0.025657664           10 
 2677000   0.82674669    -6.591961    832.85916  0.025926384  0.025650982           17 
 2678000   0.84856253   -6.6299385     830.9187   0.02585632  0.025644303           23 
 2679000   0.80344498   -6.5964378    832.16397  0.025885404  0.025637602           74 
 2680000   0.82094788    -6.596504    829.97729  0.025807752  0.025630919           23 
 2681000   0.82717543   -6.6096042    832.19659  0.025867108  0.025624232           14 
 2682000     0.831886   -6.5927741    829.99599  0.025789087  0.025617492           24 
 2683000   0.83308051   -6.5963947    831.17902   0.02581622  0.025610782           18 
 2684000   0.82453733   -6.6206082    831.81545  0.025826361  0.025604096           18 
 2685000   0.83349185   -6.5846376    831.04672  0.025792884  0.025597431           16 
 2686000   0.83306026   -6.6074483    831.52426  0.025798097  0.025590742           14 
 2687000   0.82779267   -6.6269769    833.19715  0.025840378  0.025584055           20 
 2688000   0.82803571   -6.6169838    831.77587  0.025786702  0.025577375           29 
 2689000   0.83103357   -6.6228188    830.92699  0.025750805  0.025570683           11 
 2690000   0.82933576   -6.5995024    832.21505  0.025781135  0.025564011           11 
 2691000    0.8169853   -6.6176078    832.06178  0.025766809  0.025557316           16 
 2692000    0.8182506   -6.5876831    833.59913  0.025804827  0.025550633           26 
 2693000   0.83754118   -6.6570599     830.9279  0.025712585  0.025543958           18 
 2694000    0.8226425   -6.5980527    832.66136  0.025756662  0.025537346           16 
 2695000   0.81043203   -6.5919491    832.82797  0.025752256  0.025530717           14 
 2696000    0.8093295    -6.588084    831.63272  0.025705759  0.025524101           23 
 2697000   0.81292999   -6.6156718    831.85749  0.025703173   0.02551745           21 
 2698000   0.83415711    -6.618426    831.74457  0.025690158  0.025510767           25 
 2699000   0.80162577   -6.6001688    832.85923  0.025715056  0.025504083           12 
 2700000   0.82487924   -6.5931797    832.44873  0.025692862  0.025497429           23 
 2701000   0.80045234   -6.5892111    832.89733   0.02569719  0.025490783           33 
 2702000   0.81634886   -6.6200641    833.97365  0.025720875  0.025484141           12 
 2703000   0.82848339   -6.6129344    834.92453  0.025740675  0.025477472           10 
 2704000     0.814279   -6.6041966    834.03571  0.025703763  0.025470847           15 
 2705000   0.82037693   -6.6002434    833.28636  0.025671176  0.025464211           13 
 2706000   0.81053362    -6.623189    832.92168  0.025650458  0.025457568           26 
 2707000   0.81821162   -6.6017576    834.42251  0.025687185  0.025450959           22 
 2708000   0.84018574    -6.623728     834.5419  0.025681373  0.025444329           13 
 2709000   0.80151135   -6.6310355    834.41007  0.025667838  0.025437695           17 
 2710000   0.81719974   -6.6319748    834.76464  0.025669269  0.025431125           17 
 2711000   0.82685755   -6.5933631    835.05842  0.025668831  0.025424526           36 
 2712000   0.80032636   -6.6047086    836.50819  0.025703914  0.025417924           16 
 2713000   0.81291401   -6.6338417    835.46624  0.025662435  0.025411343           40 
 2714000   0.81424871   -6.6213165    835.63642  0.025658205  0.025404716           32 
 2715000   0.80605571   -6.6414628    833.99708  0.025598437  0.025398102           46 
 2716000   0.80066781   -6.6075772    836.67027  0.025671032  0.025391485           23 
 2717000   0.81645389   -6.5940388    836.63512  0.025660505   0.02538491           22 
 2718000   0.83799184   -6.6363577    833.75567  0.025562781  0.025378324           15 
 2719000   0.81491849   -6.6314782    835.92506  0.025619868  0.025371764           19 
 2720000   0.82512574   -6.6022414    836.67995  0.025633577  0.025365182           19 
 2721000   0.81521065   -6.5859083    837.84268  0.025659766  0.025358634            7 
 2722000   0.82106571   -6.6259137    835.96116  0.025592737  0.025352048            9 
 2723000   0.82353595   -6.5919764    836.49301  0.025599615   0.02534546           24 
 2724000   0.81372778   -6.6340915    837.53308  0.025622035  0.025338879            9 
 2725000   0.79995126      -6.6117    838.06566  0.025628919   0.02533228           12 
 2726000   0.82316976   -6.6527624    835.35931  0.025536785  0.025325708           47 
 2727000   0.79938416   -6.6324091    836.25944  0.025554927  0.025319121           41 
 2728000   0.79932562   -6.6480081    837.29683  0.025577249  0.025312505           68 
 2729000   0.82505545    -6.638795    837.10516  0.025562024  0.025305926           20 
 2730000   0.81876326    -6.612166    839.72163  0.025632528  0.025299365           12 
 2731000   0.83003033   -6.6271412     840.0962  0.025634572  0.025292839           23 
 2732000   0.81367718   -6.6301185    835.98003  0.025499635  0.025286338           28 
 2733000   0.81078106   -6.6518951    839.46461  0.025596555   0.02527982           12 
 2734000   0.81877608   -6.6560137    837.12498   0.02551588  0.025273301           12 
 2735000   0.79949318   -6.6298427    839.14908  0.025568223  0.025266771           14 
 2736000   0.82411935   -6.5994528    837.47667   0.02550794  0.025260248           10 
 2737000   0.80538998   -6.6243571    837.58565  0.025501938  0.025253725           11 
 2738000   0.83293126   -6.6131521    838.97671  0.025534962  0.025247225           13 
 2739000   0.81196264   -6.6003067    839.09666  0.025529289  0.025240706           15 
 2740000   0.82716216    -6.631341    840.49044  0.025562361  0.025234194           12 
 2741000   0.80198392   -6.6357461    838.39127  0.025489215  0.025227617           12 
 2742000   0.82190459   -6.6416237    838.28499   0.02547669  0.025221042           26 
 2743000   0.81567971   -6.6465395      837.727   0.02545045  0.025214468           34 
 2744000   0.80762228    -6.637505    837.11557  0.025422606  0.025207887            8 
 2745000     0.816213   -6.6215341    838.33862  0.025450474  0.025201348           40 
 2746000   0.83049839   -6.6406381    839.97961  0.025491005  0.025194831           12 
 2747000    0.8209384   -6.6032316    837.04047  0.025392564  0.025188312           27 
 2748000   0.82556442   -6.6360283    840.71935  0.025494886  0.025181798           21 
 2749000   0.80994897   -6.6525793    839.55127  0.025450202  0.025175284           13 
 2750000   0.80691738   -6.6109542    839.36552  0.025435319  0.025168772           54 
 2751000   0.82767612   -6.6194094    840.13004  0.025449232   0.02516227           23 
 2752000   0.82264556   -6.6405322     841.7318  0.025488487  0.025155743           16 
 2753000    0.8217976   -6.6335974    840.01315  0.025427205  0.025149188           16 
 2754000   0.81897955    -6.628021    839.60922   0.02540575  0.025142605           15 
 2755000    0.8202867   -6.6047577    838.22519  0.025354664  0.025136029           29 
 2756000   0.80667638   -6.6146579    839.88993  0.025395801  0.025129504           28 
 2757000   0.80561746   -6.6356355    840.10134   0.02539298  0.025122984           21 
 2758000   0.81882621   -6.6682368    841.11478  0.025414394   0.02511646           21 
 2759000   0.81719974   -6.6611477    839.86009  0.025367285  0.025109918           28 
 2760000   0.79869505   -6.6474887    840.22435  0.025369093  0.025103351           14 
 2761000   0.81278018   -6.6516441    840.79401  0.025377098  0.025096791           15 
 2762000    0.8119945   -6.6572844    840.90672  0.025371311  0.025090256           19 
 2763000   0.79744074   -6.6066023    841.52398  0.025380745  0.025083765           28 
 2764000   0.81714857   -6.6429516    839.88008     0.025322  0.025077273            8 
 2765000   0.80834641    -6.638385    841.42843  0.025359507    0.0250708           11 
 2766000   0.81242747   -6.6235642    843.35905  0.025408504  0.025064309           13 
 2767000   0.81747328   -6.6278235    841.91831   0.02535593  0.025057851           13 
 2768000   0.80668526   -6.6500778    841.74717  0.025341618  0.025051391            9 
 2769000   0.80157533   -6.6309207    840.94488  0.025308321  0.025044907           35 
 2770000   0.81231161    -6.610712     842.1196  0.025334525  0.025038408           24 
 2771000    0.8206741   -6.6406587      840.607  0.025279893  0.025031899           18 
 2772000   0.79288469   -6.6594427    842.07826  0.025315003  0.025025375           38 
 2773000   0.81560764   -6.6316602    841.03295  0.025274461   0.02501884           36 
 2774000   0.81739999    -6.622615    840.77974  0.025257743   0.02501231           51 
 2775000   0.79705455   -6.6430412    842.23266  0.025292272  0.025005766           92 
 2776000   0.82175194   -6.6593127    841.28234  0.025254633  0.024999232           89 
 2777000   0.80147352   -6.6314253    843.21621  0.025303571    0.0249927           30 
 2778000   0.80286044   -6.6264383     842.3646  0.025268917  0.024986194           29 
 2779000   0.83051509   -6.6212413    842.16653  0.025253884  0.024979678           14 
 2780000   0.79760856   -6.6209645    842.29995    0.0252488  0.024973175           18 
 2781000   0.80719869   -6.6492413    844.04048  0.025291876  0.024966663           23 
 2782000   0.79889294   -6.6346868    842.11014  0.025224962   0.02496015           20 
 2783000   0.80929293   -6.6405091    841.19314   0.02518844  0.024953609           14 
 2784000   0.80170641   -6.6246066    843.29162  0.025242206  0.024947092           23 
 2785000   0.79280671    -6.660559    843.46635  0.025238371  0.024940614           27 
 2786000   0.81245921   -6.6602887     844.6008  0.025263245  0.024934159           24 
 2787000   0.81082151    -6.632117    842.28371  0.025184898   0.02492773           24 
 2788000   0.81175836   -6.6481569    844.92816  0.025254907  0.024921286           32 
 2789000   0.79603028   -6.6285657    843.11677  0.025191729  0.024914827           43 
 2790000   0.81111773   -6.6164574    845.81261   0.02526322   0.02490841           27 
 2791000   0.80350787   -6.6278807    845.28815  0.025238509  0.024901985           14 
 2792000   0.81279022    -6.660348    843.82189  0.025185706  0.024895525           24 
 2793000   0.82681647   -6.6343939    846.29272  0.025250409  0.024889065           16 
 2794000   0.80005581   -6.6258768    844.33643  0.025183024  0.024882654           38 
 2795000   0.81026007    -6.633082     847.6979  0.025274237  0.024876228           15 
 2796000   0.80777219   -6.6669369    844.11316  0.025158356  0.024869788            8 
 2797000   0.79228054   -6.6369605    844.34361  0.025156227  0.024863329           17 
 2798000   0.81390828   -6.6590031      844.448  0.025150345  0.024856915           12 
 2799000   0.81145858   -6.6681908    844.46523  0.025141873  0.024850496            9 
 2800000   0.79763771   -6.6628085    844.50557  0.025134094  0.024844007            9 
 2801000   0.80733233   -6.6296179    844.77479  0.025133131  0.024837519           11 
 2802000   0.80006054   -6.6212693    846.93701  0.025188467  0.024831036           33 
 2803000    0.7914997   -6.6339202     846.2031  0.025157661  0.024824554           53 
 2804000   0.82334639   -6.6590657    843.72834  0.025075141  0.024818052           45 
 2805000    0.8210996   -6.6608754    843.29017  0.025053184  0.024811509           55 
 2806000   0.82664127   -6.6676811    842.82556  0.025030457  0.024804913           45 
 2807000    0.8151426   -6.6559528    844.20011  0.025062347  0.024798364           43 
 2808000   0.80136402   -6.6272921    846.21807  0.025113309  0.024791839           22 
 2809000   0.81306429   -6.6302654     844.4791   0.02505278  0.024785335           40 
 2810000   0.78986736    -6.658163    844.92328  0.025057037  0.024778831           32 
 2811000   0.79339143   -6.6524692    844.96088  0.025049238  0.024772333           59 
 2812000   0.78631204    -6.664026    845.62504  0.025060012  0.024765849           44 
 2813000   0.79720938   -6.6395648    847.57737   0.02510894  0.024759377           32 
 2814000   0.80123381   -6.6197081    846.75648  0.025075707  0.024752918           24 
 2815000   0.79938304   -6.6341833    845.26076  0.025022521  0.024746517            9 
 2816000    0.7925246   -6.6665327    845.05052  0.025007414  0.024740071           22 
 2817000    0.8150626   -6.6213756    847.36768  0.025067083   0.02473368           21 
 2818000   0.79085765   -6.6303346    847.39807  0.025059087  0.024727304           20 
 2819000   0.81610273   -6.6312001    846.86128  0.025034329  0.024720892           20 
 2820000   0.77901188   -6.6424991     845.1889  0.024976031  0.024714445           13 
 2821000   0.80270614   -6.6418502    846.09356  0.024993902  0.024707963           34 
 2822000    0.7905611   -6.6515854    846.64081  0.025001205  0.024701504           16 
 2823000   0.80811162   -6.6648426    846.31003  0.024982584  0.024695091           17 
 2824000   0.80279136   -6.6710709    845.99418  0.024964417  0.024688633           20 
 2825000   0.79955238     -6.68272    846.76081  0.024978195  0.024682194           19 
 2826000   0.78580019   -6.6485539    848.31141  0.025015081  0.024675763           28 
 2827000   0.79814035   -6.6557725    846.80745  0.024961899  0.024669306           27 
 2828000   0.79635809   -6.6405739    846.66857   0.02494898  0.024662855           39 
 2829000   0.78513684   -6.6625393    848.89209  0.025005658   0.02465639           32 
 2830000   0.80136607   -6.6516747    849.10851  0.025003195  0.024649947           41 
 2831000   0.80130401   -6.6424382    847.34444  0.024942436  0.024643522           20 
 2832000    0.7824563   -6.6589765    847.78843  0.024946694  0.024637113           18 
 2833000    0.8006217   -6.6633913     847.2697  0.024922629  0.024630655           54 
 2834000   0.80739524   -6.6728951    848.95041  0.024963256  0.024624191          110 
 2835000   0.81312542   -6.6840843    849.47576  0.024969893  0.024617772           35 
 2836000   0.80029267   -6.6768622    848.76135  0.024940096  0.024611341           20 
 2837000   0.79964082   -6.6712094    847.46422  0.024893204  0.024604893           13 
 2838000   0.80955918   -6.6927848    849.10081  0.024932488  0.024598456           52 
 2839000   0.79009202   -6.6745649    849.38468  0.024932038  0.024592038           17 
 2840000   0.80721465    -6.655186    849.45695   0.02492538  0.024585655           38 
 2841000   0.78382126   -6.6304817    849.63959  0.024921964  0.024579298           42 
 2842000    0.8103977   -6.6768846    848.02099  0.024865734  0.024572937           46 
 2843000   0.81237312   -6.6509358    849.19065  0.024891272  0.024566568           24 
 2844000    0.7949567   -6.6663998     850.1914  0.024911844  0.024560235           18 
 2845000   0.80789716   -6.6608122    851.44457  0.024939794  0.024553913           37 
 2846000   0.78693158   -6.6793773    851.66944  0.024937615  0.024547588           29 
 2847000   0.78745164   -6.6679393    849.13747  0.024854744  0.024541243           11 
 2848000   0.79545161   -6.6377657    851.38151  0.024911678  0.024534879           16 
 2849000   0.78352077   -6.6532243    850.37222  0.024873412  0.024528528           16 
 2850000   0.79059541   -6.6581446    850.84978  0.024878649  0.024522209           39 
 2851000   0.78747226    -6.649121    849.03265  0.024816809  0.024515886           13 
 2852000   0.81256882    -6.643576    852.41383  0.024906902  0.024509564           13 
 2853000   0.78965785   -6.6541428    851.60517  0.024874552  0.024503249           29 
 2854000   0.79160488   -6.6593585    849.65546  0.024808907  0.024496958           26 
 2855000   0.79819639   -6.6341294    853.26338  0.024905528  0.024490637           23 
 2856000   0.78761444   -6.6494408    851.08294  0.024833186  0.024484354           16 
 2857000   0.79410212   -6.6745862    851.30351  0.024830927  0.024478076           21 
 2858000   0.80063204   -6.6709556    851.55647  0.024829615  0.024471756           10 
 2859000   0.79994615   -6.6840335     852.1213  0.024837393   0.02446546           28 
 2860000   0.78919793   -6.6618687    852.33457  0.024834923  0.024459136           32 
 2861000   0.78416107   -6.6405954    851.74016  0.024808929  0.024452851           13 
 2862000   0.78675936    -6.658054    853.31258  0.024846045  0.024446604           13 
 2863000   0.79855842   -6.6374554    854.05697  0.024859034  0.024440332           12 
 2864000   0.78675508   -6.6775096    851.59287  0.024778657   0.02443406           20 
 2865000   0.79807515   -6.6487305    852.96982  0.024810059  0.024427771           18 
 2866000   0.79154073   -6.6681738    853.12441  0.024805897  0.024421454            8 
 2867000   0.78679162   -6.6691881    852.42103    0.0247768  0.024415145           20 
 2868000    0.7881231   -6.6418469     851.9836  0.024755451  0.024408794           30 
 2869000   0.79344712   -6.6531192    850.03578  0.024690246  0.024402437           42 
 2870000   0.78111573   -6.6516817    852.14285  0.024742824    0.0243961           37 
 2871000   0.80216391   -6.6520546    851.93082  0.024728051  0.024389783           18 
 2872000   0.79694692   -6.6590501    852.33516  0.024731173  0.024383454           22 
 2873000    0.8031035   -6.6371382    852.52379  0.024728037  0.024377137           21 
 2874000   0.77745875   -6.6254674    852.70984  0.024724827  0.024370861           17 
 2875000   0.79149552   -6.6348289    854.67703  0.024773247  0.024364601           16 
 2876000   0.79090343   -6.6617581    851.80266  0.024681347  0.024358301           11 
 2877000   0.79773273   -6.6484039    855.59287  0.024782553  0.024352023           18 
 2878000   0.78405437   -6.6371425    854.48797   0.02474195  0.024345725           12 
 2879000   0.79158914   -6.6830378    854.07828  0.024721497  0.024339406           17 
 2880000    0.7803576   -6.6507044     852.4994  0.024667228  0.024333086           19 
 2881000   0.78055835   -6.6502819    853.57291  0.024689718  0.024326796           25 
 2882000   0.77861064   -6.6836321    853.84831  0.024689114   0.02432044           48 
 2883000   0.79822861   -6.7009801    854.19339  0.024690525  0.024314105           45 
 2884000   0.80076534   -6.6427888    853.49573  0.024661805  0.024307749           16 
 2885000   0.78374865   -6.6494181    853.48818  0.024653038  0.024301425           10 
 2886000   0.79175663   -6.6451411    853.34704   0.02464042  0.024295086           15 
 2887000   0.76847746   -6.6480856    854.28635  0.024658999  0.024288733           22 
 2888000   0.81253842   -6.6636663    853.76416  0.024635392   0.02428237           17 
 2889000   0.78434941   -6.6811575    854.30477  0.024642459  0.024276004           25 
 2890000    0.7816174   -6.6805924    852.47124  0.024581062  0.024269634           41 
 2891000   0.78419576   -6.6491786    852.53005  0.024574255  0.024263234           29 
 2892000   0.78553181   -6.6595181    853.03095  0.024580191  0.024256871           26 
 2893000   0.79405765   -6.6785574    852.82191  0.024565673  0.024250504           31 
 2894000   0.79243775   -6.6752246    853.88781  0.024587878  0.024244142           27 
 2895000    0.7752148   -6.6654969     853.5039  0.024568333  0.024237751           24 
 2896000   0.77645098   -6.6464162    852.23501  0.024523337  0.024231366           21 
 2897000   0.80299007   -6.6569638    853.91269  0.024563131     0.024225           41 
 2898000    0.7952734   -6.6976347    852.20607   0.02450558  0.024218599           47 
 2899000   0.78927628   -6.6779265    852.15612  0.024495692   0.02421216           32 
 2900000   0.77613683   -6.6751537      852.744  0.024504138  0.024205747           18 
 2901000   0.79406538    -6.654264    852.09105  0.024476935  0.024199337           69 
 2902000   0.80056843   -6.6813609     855.0542   0.02455359  0.024192957           20 
 2903000   0.78462704   -6.6953365    852.96153  0.024485059  0.024186598           21 
 2904000   0.77464867   -6.6760363    854.74652   0.02452785  0.024180206           12 
 2905000   0.78948486   -6.6979128    855.67408  0.024546015  0.024173821           22 
 2906000   0.78579803   -6.6948892     852.7748  0.024454428  0.024167423           10 
 2907000   0.77443218   -6.7181267    852.85664  0.024448361  0.024160985           33 
 2908000   0.79185427   -6.6446866     853.4588   0.02445721  0.024154538           32 
 2909000   0.78868122   -6.6942979    854.60273  0.024481573  0.024148093           30 
 2910000   0.80307835   -6.6602423    855.52763  0.024499646  0.024141672           10 
 2911000   0.79112468   -6.6540318    854.22144  0.024453837  0.024135288           10 
 2912000   0.77124255   -6.6700151    857.66337  0.024543938  0.024128907           30 
 2913000   0.77823485   -6.6522429    855.39143  0.024470518  0.024122516           34 
 2914000   0.78369964   -6.6944884    855.70861  0.024471191  0.024116075           30 
 2915000   0.78348739   -6.6953329    853.50639   0.02439984  0.024109647           12 
 2916000   0.78579172   -6.6903722    855.91384  0.024460272  0.024103218           19 
 2917000   0.78634864   -6.6900358     855.0627  0.024427571  0.024096741           19 
 2918000   0.78086846   -6.6835916    854.37279  0.024399497   0.02409027           39 
 2919000   0.79822645    -6.699567    854.53415  0.024395745  0.024083807           63 
 2920000   0.79409761   -6.6779276    855.55858  0.024416626  0.024077356           22 
 2921000   0.79242166   -6.6919514    855.08336   0.02439471  0.024070849           37 
 2922000   0.79241213   -6.6888021    855.45678  0.024397011  0.024064393           23 
 2923000    0.7688382   -6.6826544    855.82884  0.024399271  0.024057971           29 
 2924000   0.77866169   -6.6726116    855.29874  0.024375819  0.024051528           64 
 2925000   0.77743017   -6.6781911    855.20711  0.024364875  0.024045062           68 
 2926000   0.78145128   -6.6880563    852.84072  0.024289152  0.024038611           98 
 2927000   0.79156203   -6.6737314    855.54102  0.024357733  0.024032202           38 
 2928000   0.77426624   -6.6761477    853.31369  0.024286023    0.0240258           16 
 2929000   0.76638107    -6.673884    854.23099  0.024303829  0.024019406           20 
 2930000   0.79035312   -6.6954412     855.1504  0.024321684  0.024012979           27 
 2931000   0.77954885   -6.6940285    857.12736  0.024369594  0.024006575           23 
 2932000   0.78841818   -6.6907753     855.5606  0.024316752  0.024000153           25 
 2933000   0.80151791   -6.6867751    856.96919  0.024348482  0.023993768           28 
 2934000   0.80536119   -6.6974999    853.99814  0.024255798  0.023987394           31 
 2935000   0.78729262   -6.6751101    855.78967  0.024298401  0.023981023           11 
 2936000   0.78892221   -6.6825494    856.88441  0.024321197  0.023974666           22 
 2937000   0.77793349   -6.7196884    855.67591  0.024278626  0.023968272           64 
 2938000   0.78795819   -6.6956127    856.84843   0.02430362  0.023961896           42 
 2939000   0.78271669   -6.7162093    855.65252  0.024261442  0.023955474           20 
 2940000   0.79519348   -6.6817408    856.58059  0.024279495  0.023949049           27 
 2941000   0.79707887    -6.716841    854.68627  0.024217564  0.023942629           17 
 2942000   0.77912416   -6.6940247    855.99491    0.0242464  0.023936251           14 
 2943000   0.77944871   -6.6856374    857.35441  0.024276657  0.023929877           11 
 2944000     0.805007   -6.7266811    855.45618  0.024214679  0.023923524           20 
 2945000    0.7748855   -6.7074433    856.61012  0.024239109  0.023917182           12 
 2946000   0.79092562   -6.6992928    858.83222  0.024293738  0.023910837           22 
 2947000   0.80454837   -6.6782351    858.01265  0.024262319  0.023904502           33 
 2948000   0.77441276   -6.6971648    857.86115  0.024249806  0.023898183           22 
 2949000   0.78585645    -6.664757     859.6399  0.024291848  0.023891864           20 
 2950000   0.77014265   -6.6861116    858.40863  0.024248831  0.023885558           25 
 2951000      0.79483   -6.7371643    856.88113  0.024197479  0.023879208           32 
 2952000   0.78873318   -6.7170401    856.62679  0.024182102  0.023872816           17 
 2953000   0.77761779   -6.7266231    856.31952  0.024165242   0.02386646           18 
 2954000   0.77995805   -6.7311531    855.70396  0.024139696  0.023860066           26 
 2955000   0.77173861   -6.6940942    856.73275   0.02416054  0.023853712           21 
 2956000   0.78352152   -6.6913437    859.38353  0.024227096  0.023847376           26 
 2957000   0.78353843   -6.6834639    858.70146  0.024199681   0.02384105           41 
 2958000   0.75802717   -6.6880051    857.45909  0.024156499  0.023834686           85 
 2959000    0.7647735   -6.6773044    857.34934  0.024145244  0.023828309           14 
 2960000   0.76146822    -6.689925     858.3109  0.024164158  0.023821956           31 
 2961000   0.78528031    -6.668138    858.24513  0.024154146  0.023815645           14 
 2962000   0.76982164   -6.6945068    858.76791    0.0241607  0.023809315           16 
 2963000   0.78393326   -6.6850733    859.19328  0.024164509   0.02380297           26 
 2964000   0.77674301   -6.7028148    858.19836  0.024128384  0.023796618           26 
 2965000   0.80096637   -6.7289607    857.88472  0.024111431  0.023790241           16 
 2966000    0.7920193   -6.6818788    859.05019  0.024136047  0.023783887           15 
 2967000   0.77854526   -6.7007002    860.20053  0.024160222  0.023777542           25 
 2968000   0.78311513   -6.6993115     858.9327  0.024116484  0.023771168           40 
 2969000   0.78318033   -6.7003171    857.77778  0.024075945  0.023764813           25 
 2970000   0.77247302   -6.7010549    858.32953   0.02408332   0.02375844           38 
 2971000   0.76519187   -6.7136234    859.33012  0.024103279  0.023752055           30 
 2972000   0.78518066   -6.7018204    859.38792   0.02409679  0.023745705           21 
 2973000   0.77231319   -6.7322156    859.08992  0.024080332  0.023739352           18 
 2974000   0.76968103   -6.6744176    859.04328  0.024070928  0.023732984           29 
 2975000   0.77423772   -6.7149098    859.58792  0.024078093  0.023726645           17 
 2976000   0.76983703   -6.6899922    858.43499  0.024037718  0.023720311           32 
 2977000   0.78532474   -6.6884416     858.0645  0.024019273  0.023713967           21 
 2978000   0.76401819   -6.6830361    860.50158  0.024079404  0.023707615           26 
 2979000    0.8029596   -6.7115173    858.21141  0.024007257  0.023701238           26 
 2980000   0.77052765   -6.7347282    858.74027   0.02401399  0.023694842            8 
 2981000    0.7736449   -6.6913182    860.05893  0.024042797  0.023688476           15 
 2982000   0.78276594   -6.6831383    860.04185  0.024034257  0.023682118           15 
 2983000   0.78154808   -6.6599435    860.62316  0.024042439  0.023675799           14 
 2984000   0.77355675   -6.6986496     859.6374  0.024006853   0.02366948           20 
 2985000   0.77862258   -6.6979939    858.02879  0.023953903  0.023663117           28 
 2986000   0.78876359   -6.6888796    859.65975  0.023991397  0.023656728           20 
 2987000   0.78195634   -6.7107498    861.88537  0.024045457  0.023650359           17 
 2988000   0.77455856   -6.6882202    859.02892  0.023957745  0.023643974           15 
 2989000   0.75602745   -6.7045783    859.11318  0.023952079  0.023637603           15 
 2990000   0.78371301   -6.7059088    860.08877  0.023971259  0.023631228           20 
 2991000   0.76964998   -6.7060573    859.32703  0.023942021  0.023624849           23 
 2992000   0.78148191   -6.6739607     860.1876  0.023957988  0.023618491           29 
 2993000   0.76347642    -6.695817    860.39371  0.023955722  0.023612183           37 
 2994000   0.78759058   -6.6918559    859.84125  0.023932344  0.023605857           52 
 2995000   0.75344764    -6.692987    861.24618  0.023963444   0.02359953           53 
 2996000   0.76975222   -6.6797073    861.51088  0.023962808  0.023593196           28 
 2997000    0.7760541   -6.6974312    858.42336  0.023868962  0.023586855           60 
 2998000   0.78949585   -6.7091887    858.85009  0.023872862  0.023580494           19 
 2999000   0.75422937   -6.7265477    861.36537  0.023934794  0.023574137           63 
 3000000   0.76264384   -6.6983725    859.77262  0.023882573  0.023567791           72 
 3001000   0.79103758   -6.6933253    861.13458  0.023912434  0.023561435           40 
 3002000   0.77368669   -6.7088327    861.47099  0.023913807  0.023555136           42 
 3003000   0.75735475   -6.7290141    861.20319  0.023898412    0.0235488           52 
 3004000   0.77323725   -6.7238663    860.71602  0.023876942  0.023542407           81 
 3005000   0.76055429   -6.7379018     861.3009  0.023885216  0.023536029           79 
 3006000   0.78652217   -6.7440809    859.28678  0.023821434  0.023529628          175 
 3007000   0.76671598   -6.7305944    860.15981  0.023837707  0.023523244          180 
 3008000   0.76754048   -6.7766331    859.30728  0.023806164  0.023516869          180 
 3009000   0.77431533   -6.7403575    860.22854  0.023823766  0.023510488           79 
 3010000   0.75817338   -6.7508409     860.4579  0.023822201   0.02350411           85 
 3011000   0.77045829   -6.7393281    859.30184  0.023782294  0.023497763           25 
 3012000   0.75451933   -6.6792303    860.92703  0.023819362  0.023491442           58 
 3013000   0.75734331   -6.6855214    863.07878   0.02387097  0.023485161           13 
 3014000   0.76427399   -6.7264472    862.29751  0.023841449  0.023478887           13 
 3015000   0.76888999   -6.7253578    861.77374  0.023819064  0.023472611           24 
 3016000   0.76917325   -6.7264304    862.55273   0.02383269   0.02346634           34 
 3017000   0.77287743    -6.710199    862.30991  0.023818084  0.023460062           64 
 3018000   0.77018676   -6.6977516    862.86986  0.023825653  0.023453814           58 
 3019000   0.77846278   -6.7257839    862.82238  0.023816451  0.023447568           28 
 3020000   0.77151579   -6.7053505    863.41432  0.023824898  0.023441326           73 
 3021000   0.76830687   -6.7098788    862.60096  0.023794576  0.023435054           42 
 3022000   0.76810969   -6.7066021    864.08034  0.023827497  0.023428816           23 
 3023000   0.76383902   -6.7209274    863.75347  0.023810604  0.023422579           60 
 3024000   0.76882363   -6.7242824     863.1522  0.023786161  0.023416337           40 
 3025000    0.7654072   -6.6912428    864.68478  0.023820517  0.023410117           37 
 3026000   0.76794822   -6.7303656    864.02963  0.023794603  0.023403861           70 
 3027000   0.77440288   -6.7233796    863.81909  0.023780946  0.023397602           32 
 3028000   0.77274711   -6.7081529    861.74324  0.023715963  0.023391346           18 
 3029000   0.78677117   -6.7250727    865.18044  0.023802697  0.023385083           33 
 3030000   0.77187457   -6.7156324    862.47946  0.023720557  0.023378837           29 
 3031000   0.77948702   -6.6986915    863.01533  0.023727464  0.023372585           23 
 3032000   0.76137167   -6.7047104     862.8152  0.023714138  0.023366332           19 
 3033000   0.76132732   -6.7102531     862.8715  0.023707866  0.023360073           25 
 3034000   0.77809168   -6.7274941    864.38405  0.023741597  0.023353826            8 
 3035000   0.76210437    -6.678693    865.04216  0.023751844  0.023347613           17 
 3036000   0.77510524   -6.7002842    864.95487  0.023741625  0.023341378           28 
 3037000   0.76654401   -6.7169813    864.21961  0.023713632  0.023335123           16 
 3038000   0.75385035   -6.7077106    865.15414  0.023731461  0.023328888           21 
 3039000   0.76517218   -6.6847801    863.58738  0.023680689  0.023322645           20 
 3040000   0.76587665   -6.6951007    866.12577  0.023742483  0.023316396           13 
 3041000   0.76536272   -6.7160492    864.24385  0.023683105  0.023310135           21 
 3042000   0.75619651   -6.7229008    864.95259  0.023694734  0.023303857           39 
 3043000   0.77306654   -6.7143171    864.24716   0.02366763   0.02329758           96 
 3044000   0.77743049   -6.7374177    864.71741  0.023672728  0.023291298           57 
 3045000   0.74750718    -6.712846    863.05084  0.023619344  0.023284998           60 
 3046000    0.7564593    -6.714808    863.02033  0.023610755  0.023278719           38 
 3047000    0.7736639   -6.7364885    864.75092  0.023650337  0.023272431           69 
 3048000   0.77994054   -6.7453708    863.89839  0.023619269  0.023266174           43 
 3049000   0.75366327    -6.707579    864.58374  0.023630254  0.023259923           78 
 3050000   0.76502038   -6.7319332    864.75127  0.023627084  0.023253693           35 
 3051000   0.74923348   -6.7222226    865.26682  0.023633421  0.023247429           58 
 3052000    0.7581475   -6.7105207     865.5994  0.023634759  0.023241145           65 
 3053000   0.75903845   -6.7134155    864.96526  0.023609708  0.023234878           70 
 3054000   0.76826682   -6.7519585     864.0174  0.023576113  0.023228583           63 
 3055000    0.7692882   -6.7218763    864.04833   0.02356924   0.02322229           89 
 3056000   0.74627697   -6.7564033    865.63824  0.023604882  0.023215994           70 
 3057000   0.76475343   -6.7327322    866.46938  0.023619817  0.023209709           62 
 3058000   0.76905231   -6.7489681    863.06829  0.023519411   0.02320342           36 
 3059000   0.75856524     -6.70864    865.83883  0.023587197  0.023197184           27 
 3060000   0.76802655   -6.7508648    865.28171  0.023564317  0.023190925           66 
 3061000   0.75634178   -6.7359949    864.15488  0.023525941  0.023184669          156 
 3062000   0.76311537   -6.7374788    864.90221  0.023538597  0.023178392          180 
 3063000   0.76446847   -6.7325278    866.83552  0.023583511  0.023172103          195 
 3064000   0.76918507   -6.7641024    865.26681  0.023533149  0.023165815          228 
 3065000   0.76503783   -6.7599263    863.95964   0.02348993  0.023159484          231 
 3066000    0.7644563   -6.7740382    862.08415  0.023431294  0.023153145          276 
 3067000   0.75625325   -6.7588219    863.18688  0.023453616  0.023146848          246 
 3068000   0.77728762   -6.7624732    864.90006  0.023492505  0.023140547          248 
 3069000   0.77876885   -6.7757322    864.67261  0.023478674  0.023134221          297 
 3070000   0.75522091   -6.7767544    864.21749  0.023458672  0.023127914          403 
 3071000   0.75256722   -6.7491554    865.97131  0.023498624   0.02312158          303 
 3072000   0.76822414   -6.7555237    864.51423  0.023451449  0.023115266          285 
 3073000   0.76093456    -6.736102    866.93655  0.023509506  0.023108969          308 
 3074000    0.7727236   -6.7526096    864.04717   0.02342353  0.023102733          352 
 3075000   0.74141391   -6.7427984    864.79869  0.023436279  0.023096443          351 
 3076000   0.76824531   -6.7521553    865.59932   0.02345035  0.023090121          451 
 3077000   0.77354311   -6.7598773    866.20869  0.023459232  0.023083799          483 
 3078000   0.76312659   -6.7585783     865.2811  0.023426497   0.02307749          438 
 3079000   0.76123702   -6.7540365    866.32776  0.023447217  0.023071208          462 
 3080000   0.75348382   -6.7818342    865.65446  0.023421387  0.023064882          527 
 3081000   0.74886886   -6.7570027    866.41411  0.023434332   0.02305855          589 
 3082000    0.7563465   -6.7926537     864.5152  0.023375384  0.023052203          701 
 3083000    0.7523711   -6.7931106    862.05586  0.023301326  0.023045838          738 
 3084000   0.75482136   -6.7592294    864.83514   0.02336887  0.023039456          658 
 3085000   0.77203022   -6.8194787    864.22509  0.023344816  0.023033064          761 
 3086000   0.76357446   -6.8125326    862.87988  0.023300926  0.023026672          819 
 3087000   0.75908252   -6.8373459    861.66258  0.023260517  0.023020254          968 
 3088000   0.76643583   -6.8392796    863.61599  0.023305699  0.023013798          956 
 3089000   0.76785266   -6.8279526    861.37169  0.023237609  0.023007365          982 
 3090000   0.75189998   -6.8324563    861.30894  0.023228396  0.023000885         1120 
 3091000   0.72897529   -6.8308244    862.43584  0.023251263  0.022994388         1203 
 3092000   0.74338736   -6.8664835    861.02141  0.023205622  0.022987877         1247 
 3093000   0.75082939   -6.8605756    861.55194  0.023212414   0.02298132         1391 
 3094000   0.77303868    -6.887226    859.31155  0.023144569   0.02297473         1488 
 3095000   0.76423157   -6.9026068    859.52746  0.023142904  0.022968093         1694 
 3096000   0.75900567   -6.8946116     857.6273  0.023084283  0.022961405         1894 
 3097000   0.75588202   -6.9492989    857.44323  0.023071877  0.022954671         2092 
 3098000   0.75784125   -6.9547958    856.63182  0.023042603  0.022947891         2222 
 3099000    0.7688452   -6.9855935     854.3815  0.022974656  0.022941044         2537 
 3100000   0.76147867   -7.0220602    855.13812  0.022987584  0.022934133         2726 
 3101000   0.75636521   -7.0392425    852.63811  0.022912988  0.022927164         2805 
 3102000   0.75778923   -7.0220718    852.27598  0.022895873  0.022920138         2981 
 3103000   0.74725759   -7.0870903    850.35412  0.022836881  0.022913052         3111 
 3104000   0.77050854   -7.1320196     849.9542  0.022818788  0.022905896         3254 
 3105000   0.76263178   -7.1634368    849.28093  0.022793369   0.02289868         3388 
 3106000   0.75923373   -7.1897671    845.23219  0.022677404  0.022891388         3552 
 3107000   0.75319431   -7.2151402    846.27197  0.022697993  0.022884049         3564 
 3108000   0.75054031   -7.2132154    844.65745    0.0226474  0.022876681         3680 
 3109000   0.74562011   -7.2377896    844.35234  0.022631938  0.022869271         3719 
 3110000   0.74211383   -7.2249218    846.81855  0.022690744  0.022861823         3804 
 3111000   0.73745977   -7.2703727    842.92195  0.022579073  0.022854336         3852 
 3112000   0.75020419   -7.2719828    844.39832  0.022611352  0.022846826         3877 
 3113000   0.74017555   -7.2945585     842.0799  0.022542025   0.02283927         3911 
 3114000   0.75186747   -7.3191914    841.02865  0.022506654  0.022831696         3932 
 3115000    0.7518021   -7.2762829    840.66905  0.022489809  0.022824093         3921 
 3116000   0.75967353   -7.2976579    842.23444  0.022524455  0.022816487         3914 
 3117000   0.74460546   -7.3516379    839.54931  0.022445442  0.022808855         3927 
 3118000   0.74886992   -7.3664361    838.85372  0.022419653  0.022801159         3910 
 3119000   0.73660958   -7.3379136    839.39893  0.022427031  0.022793451         3928 
 3120000   0.74259664   -7.3615743     839.6262  0.022425913  0.022785766         3920 
 3121000   0.76632248   -7.3836391     839.4495   0.02241401  0.022778066         3918 
 3122000   0.75388071   -7.3472149    838.23046  0.022374292  0.022770366         3940 
 3123000   0.73998836   -7.3472756    839.28753  0.022395334  0.022762659         3927 
 3124000   0.75125808   -7.3600516    840.29779  0.022415114  0.022754953         3931 
 3125000   0.75642299   -7.3664731    838.51519  0.022360405  0.022747261         3959 
 3126000   0.75078928   -7.3530745    837.41079  0.022323811  0.022739554         3933 
 3127000   0.74883383   -7.3821944    839.92787  0.022383751  0.022731844         3937 
 3128000   0.75931568   -7.3834663    838.93331  0.022350099  0.022724124         3939 
 3129000   0.75313277   -7.3787983    838.72513  0.022337412  0.022716403         3947 
 3130000   0.76754558   -7.3707284     837.8874  0.022307971  0.022708684         3961 
 3131000   0.74378062   -7.3524387    840.29063   0.02236481  0.022700958         3966 
 3132000   0.74748389   -7.3862727    838.08266  0.022298921  0.022693233         3952 
 3133000   0.75414766   -7.3725892    839.98892  0.022342508  0.022685521         3933 
 3134000   0.74785314   -7.3726459     839.3974   0.02231965  0.022677784         3962 
 3135000   0.76015339   -7.3591695    837.79295  0.022269882  0.022670048         3958 
 3136000   0.75478402    -7.371852    837.74896  0.022261611  0.022662309         3944 
 3137000   0.76186123   -7.3803586    839.99867  0.022314278  0.022654582         3937 
 3138000   0.75421633   -7.3844096    838.19064  0.022259152  0.022646862         3936 
 3139000   0.75069605   -7.3837975    838.02325  0.022247617  0.022639116         3941 
 3140000   0.74579606   -7.3806449    838.98115  0.022265954  0.022631386         3952 
 3141000   0.73866889   -7.4086079    837.93388   0.02223108  0.022623643         3947 
 3142000   0.74845477   -7.4050731    838.25151  0.022232429  0.022615902         3946 
 3143000    0.7348451   -7.3691516    838.49047  0.022231691  0.022608159         3935 
 3144000   0.74534259   -7.3827279    835.57699  0.022147397  0.022600417         3955 
 3145000   0.75944789   -7.3992722    838.76729  0.022224888  0.022592667         3955 
 3146000   0.75889794   -7.3846077    839.51232  0.022237559  0.022584909         3963 
 3147000   0.75400637   -7.4065436    837.14896   0.02216791  0.022577147         3942 
 3148000   0.74274063   -7.4053739    837.16697  0.022161345  0.022569386         3956 
 3149000   0.72017944   -7.3968896    838.36509  0.022186014  0.022561617         3949 
 3150000   0.75150803   -7.4075198    834.41166  0.022074383  0.022553836         3961 
 3151000   0.73430536   -7.4367211     836.9625  0.022134838  0.022546059         3953 
 3152000   0.74672759   -7.4616085    837.69786  0.022147257  0.022538274         3972 
 3153000   0.74329883   -7.4140882    837.77957  0.022142393  0.022530491         3947 
 3154000   0.76572823   -7.4158511    838.69559  0.022159575  0.022522708         3942 
 3155000   0.74360554   -7.4012735    836.98235  0.022107299  0.022514928         3961 
 3156000    0.7418823   -7.4332294    836.87192  0.022097378  0.022507138         3969 
 3157000   0.74959968   -7.4054823    837.62959  0.022110379   0.02249936         3957 
 3158000   0.76282887   -7.4106154    836.83299  0.022082357  0.022491578         3975 
 3159000   0.74938916   -7.4025784    836.84135  0.022075587  0.022483794         3960 
 3160000   0.74836742   -7.4282752    837.43018  0.022084129  0.022476012         3965 
 3161000   0.73418465   -7.4219912    835.71863  0.022032021  0.022468228         3964 
 3162000   0.75178109   -7.4053771     837.2874  0.022066398  0.022460446         3969 
 3163000   0.74357094   -7.4292737    836.70043  0.022043957  0.022452666         3979 
 3164000   0.74188332   -7.4046407    839.14992  0.022101504  0.022444881         3975 
 3165000   0.74759354   -7.4307194    836.12719  0.022014934  0.022437111         3976 
 3166000   0.72908601   -7.4091564     836.5695  0.022019623  0.022429331         3968 
 3167000   0.75696471   -7.4242637    835.64425  0.021988324  0.022421534         3969 
 3168000   0.74153781   -7.4068002     838.2478  0.022049868  0.022413756         3964 
 3169000   0.73321472   -7.4327396    837.66365  0.022027549  0.022405965         3992 
 3170000   0.73452987   -7.4337399    838.54559  0.022043785   0.02239819         3971 
 3171000   0.77197308   -7.4039095    836.89685  0.021993505  0.022390423         3977 
 3172000   0.74003026   -7.4376126    835.86349  0.021959423  0.022382644         3983 
 3173000   0.73586915   -7.4165478    836.49365  0.021969053   0.02237486         3978 
 3174000   0.74289915   -7.4556294     835.3147  0.021931178  0.022367081         3963 
 3175000   0.74785705   -7.4377105    836.78036  0.021962739  0.022359291         3970 
 3176000   0.75614998   -7.4370226    837.38573  0.021971708   0.02235152         3978 
 3177000   0.74427368   -7.4463061    836.66582  0.021945909  0.022343746         3959 
 3178000    0.7338639   -7.4068431    837.79063  0.021968498  0.022335968         3967 
 3179000   0.73239022   -7.4105618    837.30345  0.021948816  0.022328193         3972 
 3180000   0.76590401   -7.3829117    837.09293  0.021936397  0.022320417         3975 
 3181000   0.74722027    -7.411965    836.36797   0.02191051  0.022312639         3962 
 3182000   0.74105239   -7.4305058    836.81239  0.021915263  0.022304871         3976 
 3183000   0.74863767   -7.4235507     835.9634   0.02188615  0.022297096         3987 
 3184000   0.76029522   -7.4204251    837.33448  0.021915161  0.022289329         3979 
 3185000   0.76375686   -7.4313335    834.81827  0.021842446  0.022281563         3975 
 3186000   0.73462176   -7.3986437    837.97437  0.021918141    0.0222738         3972 
 3187000   0.74064631   -7.4390943    836.17638   0.02186425   0.02226603         3966 
 3188000   0.72935107     -7.43164    837.40228  0.021889436  0.022258254         3974 
 3189000   0.74876486    -7.436105     836.8422  0.021867937  0.022250482         3972 
 3190000   0.73970126   -7.4183801    837.23199  0.021871264  0.022242709         3957 
 3191000   0.74901083   -7.4038257    836.75547  0.021851966   0.02223493         3965 
 3192000   0.71838123   -7.4092618    836.82556   0.02184695  0.022227151         3971 
 3193000   0.72922676   -7.4093761      836.739  0.021837848  0.022219368         3970 
 3194000   0.73611749   -7.4242396    834.15008  0.021763465  0.022211602         3978 
 3195000   0.73575363   -7.4275509    836.66276   0.02182219  0.022203829         3973 
 3196000   0.74525099   -7.4193936    837.46121  0.021836181  0.022196059         3973 
 3197000   0.74707211   -7.4273788     835.3062  0.021773178  0.022188291         3980 
 3198000   0.75996161   -7.4499695    835.96062  0.021783422  0.022180524         3970 
 3199000   0.76765328   -7.4173868    835.78471  0.021772031  0.022172775         3973 
 3200000   0.73862583   -7.4211239    835.08205  0.021746928  0.022165012         3973 
 3201000    0.7341827   -7.4305479    836.07368   0.02176595  0.022157245         3978 
 3202000   0.74753891   -7.4512465     836.1308  0.021760639  0.022149484         3985 
 3203000   0.72998904   -7.4193336    834.99555  0.021724309  0.022141725         3982 
 3204000   0.71286939   -7.4243785     835.6584  0.021734769  0.022133964         3976 
 3205000   0.73074537   -7.4427742    836.28114  0.021744179  0.022126206         3961 
 3206000   0.74191048   -7.4181617    836.94406  0.021754628  0.022118444         3956 
 3207000   0.74243384   -7.4188487    835.89258  0.021720522   0.02211068         3976 
 3208000    0.7334935   -7.4331846    836.79536  0.021737203  0.022102919         3978 
 3209000   0.73653257   -7.4364357    836.14249  0.021713475  0.022095156         3982 
 3210000   0.73704288   -7.4427926     836.8414  0.021724855  0.022087406         3966 
 3211000   0.72788689   -7.4404222    836.66567  0.021713528  0.022079656         3987 
 3212000   0.73818355   -7.4264663    836.67221  0.021706938  0.022071901         3976 
 3213000    0.7445932   -7.4429588    834.79603  0.021651521  0.022064151         3974 
 3214000   0.72886547   -7.4399823    835.72703  0.021668923  0.022056394         3967 
 3215000   0.74792508   -7.4443994    836.68131  0.021686918  0.022048643         3977 
 3216000   0.73403787   -7.4167687    835.81248  0.021657662  0.022040887         3978 
 3217000   0.74516164   -7.4215229     837.0279  0.021682414  0.022033147         3977 
 3218000   0.74515256   -7.4473203    837.03804  0.021675939  0.022025398         3983 
 3219000   0.73284473    -7.412151    835.77679  0.021636554  0.022017646         3968 
 3220000   0.74679629    -7.430048    836.17355  0.021640102  0.022009897         3975 
 3221000   0.75194981   -7.4554993    834.90732  0.021600624  0.022002146         3987 
 3222000   0.75012631   -7.4424605    835.63143  0.021612648  0.021994404         3976 
 3223000   0.75149139   -7.4294588    836.02687  0.021616167  0.021986654         3968 
 3224000   0.74052157   -7.4514743    835.34353  0.021591799  0.021978909         3984 
 3225000    0.7443166   -7.4396239    836.59999  0.021617571  0.021971166         3982 
 3226000   0.73636605   -7.4494842    835.61685  0.021585473  0.021963425         3979 
 3227000   0.73355017   -7.4198517    834.92876  0.021561015  0.021955689         3963 
 3228000   0.73212939   -7.4331241    834.75115  0.021549751  0.021947951         3987 
 3229000   0.73038287   -7.4420844    836.99203  0.021600909  0.021940219         3975 
 3230000   0.72199723   -7.4568156    835.74032  0.021561928  0.021932482         3975 
 3231000    0.7345671   -7.4271046    836.47952   0.02157432  0.021924753         3980 
 3232000   0.72991572    -7.448679     835.5161  0.021542804  0.021917022         3971 
 3233000   0.73307084   -7.4246389     836.1151   0.02155158  0.021909288         3970 
 3234000   0.73756505   -7.4535896    836.74129  0.021561052  0.021901558         3963 
 3235000   0.73625482   -7.4492467    835.25925  0.021516209  0.021893826         3978 
 3236000   0.72315299   -7.4180975    836.67582   0.02154604  0.021886087         3969 
 3237000   0.73908238   -7.4397211    836.51385  0.021535214  0.021878353         3977 
 3238000    0.7430595   -7.4333254     835.6298  0.021505811  0.021870628         3984 
 3239000   0.72835148   -7.4408574    836.97828  0.021533865  0.021862893         3967 
 3240000   0.73280483   -7.4655128    835.47479  0.021488549  0.021855163         3976 
 3241000   0.73164443   -7.4554144    835.12731  0.021472984  0.021847428         3978 
 3242000   0.72391721   -7.4297951    835.92955  0.021486982  0.021839704         3974 
 3243000   0.74149706   -7.4415417    835.09714  0.021458966  0.021831982         3976 
 3244000   0.73508404   -7.4370823    835.15212  0.021453764  0.021824272         3977 
 3245000     0.729217   -7.4510283    836.09215  0.021471293  0.021816537         3964 
 3246000   0.71506042   -7.4388017    836.89771  0.021485359  0.021808829         3971 
 3247000   0.71792301   -7.4462795    836.64621  0.021472287  0.021801107         3973 
 3248000   0.73816759   -7.4512926    834.52696  0.021411303  0.021793389         3967 
 3249000   0.75216251   -7.4262273    836.45305  0.021454115  0.021785679         3981 
 3250000   0.72666386   -7.4278341    835.92449  0.021433961  0.021777961         3974 
 3251000   0.74896206   -7.4422351    834.02236  0.021378611  0.021770244         3974 
 3252000   0.72916398   -7.4318727    835.89743  0.021420086  0.021762537         3977 
 3253000   0.73532901   -7.4271698    835.77342  0.021410324  0.021754835         3977 
 3254000   0.73839479   -7.4432764    834.55871  0.021372636  0.021747125         3986 
 3255000   0.72493242   -7.4535742    836.34951  0.021411918  0.021739418         3971 
 3256000   0.71485824   -7.4478755    836.25519  0.021402928  0.021731715         3977 
 3257000   0.74043743   -7.4484509     835.6362  0.021380519  0.021724008         3983 
 3258000   0.72674994   -7.4477743    836.02614   0.02138393  0.021716313         3978 
 3259000   0.72915883   -7.4564064    835.31838  0.021359271  0.021708611         3973 
 3260000   0.73471395   -7.4300583    835.42826  0.021355528   0.02170091         3972 
 3261000   0.73124571   -7.4630354     835.2246  0.021343775  0.021693208         3975 
 3262000   0.72590165   -7.4470378    836.90684  0.021380207  0.021685518         3972 
 3263000   0.74027555    -7.453217     835.5581   0.02133921  0.021677814         3964 
 3264000   0.72817517    -7.447325    835.24083  0.021324572  0.021670123         3973 
 3265000   0.73323263   -7.4414845    835.07722  0.021313865  0.021662432         3970 
 3266000   0.71735611   -7.4394041    835.26506  0.021312132  0.021654739         3976 
 3267000   0.71838137   -7.4572567      836.788  0.021344455  0.021647052         3976 
 3268000   0.73296267   -7.4735638    835.52417  0.021305696  0.021639363         3984 
 3269000   0.73767028    -7.449835    835.02655  0.021286493  0.021631675         3974 
 3270000   0.74529333   -7.4792913    834.77446  0.021273559  0.021623985         3965 
 3271000   0.73206549   -7.4530621    834.81427   0.02126807  0.021616297         3979 
 3272000   0.74201662   -7.4359942    835.62838  0.021282304   0.02160862         3973 
 3273000   0.72225945    -7.447713    836.95263  0.021309518  0.021600946         3976 
 3274000   0.72369237   -7.4406459    836.11646  0.021281726  0.021593261         3979 
 3275000    0.7241007   -7.4546366    834.83078  0.021242514   0.02158559         3972 
 3276000   0.71871213   -7.4360817    834.09267  0.021217253  0.021577906         3967 
 3277000   0.71541501   -7.4540717    834.69294  0.021226044  0.021570232         3970 
 3278000   0.72661014   -7.4370938    833.12832  0.021179793  0.021562559         3974 
 3279000   0.72463588   -7.4604674    836.21265  0.021251719  0.021554887         3961 
 3280000   0.73190337    -7.461295    836.33012  0.021248224   0.02154721         3975 
 3281000   0.71556174   -7.4732988    835.24987  0.021214312  0.021539547         3971 
 3282000   0.73869733   -7.4529306    834.45902  0.021187767  0.021531874         3981 
 3283000   0.73943071   -7.4436675    835.35348  0.021204018  0.021524204         3982 
 3284000   0.72294241   -7.4498395    835.26458  0.021195305  0.021516533         3968 
 3285000   0.72058592   -7.4620361    835.72054  0.021200419  0.021508871         3976 
 3286000   0.72816053   -7.4658768    836.50333  0.021213819  0.021501218         3973 
 3287000   0.71868464   -7.4404217    834.58213  0.021158659  0.021493557         3970 
 3288000   0.71865698   -7.4648001    833.90233  0.021134994  0.021485897         3981 
 3289000   0.72142502   -7.4658851    835.86598  0.021178321  0.021478245         3966 
 3290000   0.73406978   -7.4820351    836.09395  0.021177658  0.021470581         3976 
 3291000   0.73794204    -7.453977    836.40025  0.021178979  0.021462925         3975 
 3292000   0.71955137   -7.4638967    833.99919  0.021111766  0.021455278         3967 
 3293000   0.73526315   -7.4436519     834.2598   0.02111195  0.021447621         3985 
 3294000   0.72907153   -7.4483763    835.54916  0.021138159  0.021439974         3969 
 3295000   0.72485092   -7.4745567    835.96853   0.02114235  0.021432329         3977 
 3296000   0.72392796   -7.4484683     835.6343  0.021127485  0.021424688         3979 
 3297000   0.71771624   -7.4711047    834.51221  0.021092716  0.021417045         3975 
 3298000   0.72713057   -7.4540153    833.59529  0.021063152  0.021409407         3976 
 3299000   0.72627907   -7.4559194    834.50366  0.021079713  0.021401768         3970 
 3300000   0.73189988   -7.4539513    837.77682   0.02115598  0.021394136         3975 
 3301000   0.73090178   -7.4645858    835.79711  0.021099594  0.021386499         3964 
 3302000   0.72264205   -7.4508047    836.43097  0.021109201  0.021378866         3980 
 3303000   0.70245083   -7.4651925    834.68129  0.021058666  0.021371233         3970 
 3304000   0.72969337   -7.4512701    835.00402  0.021060432  0.021363598         3987 
 3305000   0.74352562   -7.4651273    834.85266  0.021050244  0.021355974         3974 
 3306000   0.74256065   -7.4589902    834.51742  0.021035426  0.021348341         3969 
 3307000   0.70854988   -7.4672331    834.88474  0.021038321  0.021340714         3967 
 3308000   0.72288918   -7.4426382    834.06216  0.021011239   0.02133309         3967 
 3309000   0.71393615   -7.4719334    835.02663  0.021029179  0.021325459         3981 
 3310000   0.73087028   -7.4673069    835.37396   0.02103157  0.021317849         3977 
 3311000   0.72071146   -7.4557241    833.62914  0.020981303   0.02131022         3983 
 3312000   0.72254079   -7.4594079    834.22766  0.020990028  0.021302603         3981 
 3313000   0.72245899   -7.4738386    835.48819  0.021015399  0.021294986         3978 
 3314000   0.71791518   -7.4282729     835.4191   0.02100732  0.021287367         3965 
 3315000   0.72292322   -7.4545301    834.23719  0.020971272  0.021279753         3980 
 3316000   0.71075796     -7.46769    834.51108   0.02097183   0.02127213         3980 
 3317000   0.72541162   -7.4728304      836.578  0.021017435  0.021264512         3971 
 3318000   0.72150245   -7.4614951    834.04423  0.020947464  0.021256898         3970 
 3319000    0.7191444   -7.4517699    834.13097  0.020943331  0.021249287         3976 
 3320000   0.71630592   -7.4397494    835.11705  0.020961773  0.021241684         3974 
 3321000   0.72406655   -7.4411286    834.58368  0.020942078  0.021234078         3978 
 3322000   0.72669745   -7.4685049    834.51305  0.020934002  0.021226474         3981 
 3323000   0.70042988   -7.4691722    835.38731  0.020949627  0.021218872         3973 
 3324000   0.72033347   -7.4695237     835.2685  0.020940345  0.021211274         3971 
 3325000    0.7200462   -7.4724722    834.60658  0.020917458  0.021203677         3976 
 3326000   0.72705165   -7.4571569    834.44842  0.020907206  0.021196083         3987 
 3327000   0.70956567   -7.4702777    834.83577  0.020910624   0.02118849         3981 
 3328000   0.73453629   -7.4768981     833.4395  0.020869378  0.021180897         3969 
 3329000   0.71531044   -7.4705237     835.7984  0.020922159  0.021173306         3978 
 3330000   0.73452394   -7.4524095    835.24222  0.020901958  0.021165709         3968 
 3331000    0.7253262   -7.4642465    834.77981  0.020884114  0.021158126         3982 
 3332000   0.70649694   -7.4727988    835.54505  0.020896985  0.021150538         3981 
 3333000   0.71599492   -7.4627628    834.56703  0.020866262  0.021142953         3984 
 3334000   0.71012699   -7.4781549    834.72684  0.020863998  0.021135369         3970 
 3335000   0.71471203   -7.4562972    833.87185  0.020836378  0.021127786         3975 
 3336000   0.72512796   -7.4708062    834.69837  0.020850779   0.02112021         3972 
 3337000    0.7185932   -7.4709439    834.28996  0.020834331  0.021112633         3983 
 3338000   0.71817526    -7.483192     835.1998  0.020850804  0.021105058         3968 
 3339000   0.72543095   -7.4576402    835.93676  0.020862952  0.021097481         3961 
 3340000   0.72537495   -7.4556395    835.43962  0.020844302   0.02108991         3968 
 3341000      0.71359   -7.4685208    835.03898   0.02082807  0.021082331         3967 
 3342000   0.70298448   -7.4560512    836.00427  0.020845907  0.021074755         3959 
 3343000   0.72076136   -7.4523765    835.67913  0.020831567  0.021067191         3982 
 3344000   0.70911273   -7.4529539    835.88866  0.020830559  0.021059629         3966 
 3345000   0.71154047   -7.4729049    834.57584  0.020791625  0.021052063         3979 
 3346000   0.70445404    -7.462526    834.02925  0.020771798  0.021044507         3970 
 3347000   0.70764016   -7.4710412    834.68664   0.02078196  0.021036947         3985 
 3348000   0.70408251   -7.4663962    834.92278   0.02078163  0.021029389         3982 
 3349000   0.72300463   -7.4646423    832.90382  0.020725187  0.021021835         3979 
 3350000   0.73184642   -7.4509948    835.00233  0.020771202  0.021014274         3969 
 3351000   0.71610671   -7.4763787    833.80724  0.020735284  0.021006722         3978 
 3352000   0.72701637   -7.4511859    836.04395  0.020784704  0.020999177         3968 
 3353000   0.71164142   -7.4721379    834.70762  0.020745293  0.020991634         3985 
 3354000   0.71448485    -7.484461    834.60963  0.020736673  0.020984089         3978 
 3355000     0.702045   -7.4860871    836.07112  0.020766794  0.020976544         3976 
 3356000   0.70460705   -7.4634378    835.87628  0.020755768  0.020968999         3975 
 3357000   0.72009823    -7.454007    834.01353  0.020703344  0.020961458         3966 
 3358000   0.71367866   -7.4736309    834.22205  0.020702354  0.020953909         3976 
 3359000   0.71694397   -7.4608218    834.70302  0.020708123  0.020946381         3963 
 3360000   0.71276317   -7.4937689    833.20561  0.020664822  0.020938845         3982 
 3361000   0.71465273    -7.487032    833.27485   0.02066039  0.020931303         3983 
 3362000   0.70558644   -7.4700306    835.04825  0.020698202  0.020923772         3982 
 3363000   0.71400748   -7.4896471    836.10897  0.020718331  0.020916247         3984 
 3364000   0.71439601   -7.4459885     833.8479  0.020656161  0.020908711         3979 
 3365000   0.69510874   -7.4339527    833.97373  0.020653138  0.020901184         3955 
 3366000   0.72049552   -7.5042942    833.62502  0.020638369  0.020893652         3969 
 3367000   0.72872449   -7.4662757    833.85733   0.02063799   0.02088613         3973 
 3368000   0.71514961    -7.478769    834.98149  0.020659677  0.020878602         3984 
 3369000    0.7359282   -7.4898444    833.86015  0.020625808  0.020871081         3981 
 3370000   0.70959837   -7.4589273    836.70605  0.020690061   0.02086357         3982 
 3371000   0.70430074   -7.4720568    835.04618   0.02064289  0.020856052         3979 
 3372000   0.70734403   -7.4775757    834.67721   0.02062765  0.020848535         3979 
 3373000   0.70919076   -7.4548585    833.64507  0.020596034  0.020841015         3982 
 3374000   0.69063471   -7.4555855    835.02941  0.020624121  0.020833502         3978 
 3375000   0.71150808   -7.4879313    835.21643  0.020622628  0.020825986         3968 
 3376000   0.71045715   -7.4443935    835.48537  0.020623158  0.020818474         3979 
 3377000   0.70746308   -7.4696293     833.8439  0.020576545  0.020810963         3974 
 3378000   0.71096788   -7.4855827     834.8608   0.02059554  0.020803459         3976 
 3379000   0.70428184   -7.4886055    833.75736  0.020562231  0.020795955         3969 
 3380000   0.70870537   -7.4953838    834.85995  0.020583332  0.020788457         3985 
 3381000   0.72529536   -7.4662325    835.77546  0.020599809  0.020780966         3964 
 3382000   0.70297543   -7.4499823    834.22489  0.020555512  0.020773479         3974 
 3383000   0.69941667   -7.4678742    837.11846  0.020620713  0.020765983         3980 
 3384000   0.71980043    -7.482756    834.82229  0.020558075  0.020758481         3987 
 3385000   0.70174975   -7.4823726    835.44882  0.020567425  0.020750986         3975 
 3386000   0.72173765   -7.4674648    833.91731  0.020523659  0.020743491         3985 
 3387000   0.71572199   -7.4701564    833.49478  0.020507204  0.020735998         3973 
 3388000   0.70355818   -7.4826212    835.34333  0.020546619  0.020728516         3968 
 3389000   0.71044639   -7.4980041    833.57088  0.020496973  0.020721018         3983 
 3390000   0.70925394   -7.4701301    834.70612  0.020518833  0.020713532         3975 
 3391000   0.72679072   -7.4898275    835.40887  0.020530052  0.020706049         3979 
 3392000   0.70516798   -7.4863275    834.11609  0.020492239  0.020698572         3973 
 3393000   0.71466802    -7.470878    834.85204  0.020504274  0.020691096         3984 
 3394000   0.70095285   -7.4587746    833.08151  0.020454761   0.02068362         3973 
 3395000   0.70706663   -7.4706089    834.49751  0.020483493  0.020676149         3960 
 3396000   0.71353572   -7.4696179    835.31021  0.020497404  0.020668678         3977 
 3397000      0.71073   -7.4709551    833.22865  0.020440306  0.020661215         3985 
 3398000   0.70567162   -7.4818937    833.46026  0.020439971   0.02065375         3983 
 3399000   0.69081556   -7.4815132    833.27426  0.020429397  0.020646284         3983 
 3400000   0.70981896   -7.4566456    835.93587  0.020488624  0.020638817         3965 
 3401000   0.71633208   -7.4837185    834.04788  0.020436339  0.020631358         3968 
 3402000   0.71135908   -7.4545029    835.07171  0.020455411  0.020623898         3983 
 3403000   0.71770082   -7.4633357    833.56245  0.020412441  0.020616442         3973 
 3404000   0.71794198   -7.4462885    833.20788  0.020397764  0.020608989         3967 
 3405000   0.72419757   -7.4765022    834.05522  0.020412512  0.020601545         3975 
 3406000   0.70420805   -7.4989919    833.20769  0.020385782  0.020594089         3968 
 3407000   0.70367127   -7.4764876    833.52266  0.020387503   0.02058664         3972 
 3408000   0.71051927   -7.4691034    832.91654  0.020366699  0.020579197         3984 
 3409000   0.72144526    -7.475809    834.28598  0.020394201  0.020571754         3977 
 3410000   0.70234907   -7.4933247     834.1639  0.020385237  0.020564309         3976 
 3411000   0.69379584   -7.4712868    834.39702  0.020384956  0.020556865         3977 
 3412000   0.70742537    -7.461176    834.94338  0.020392326  0.020549425         3976 
 3413000   0.68407011   -7.5113205    832.79133  0.020333805  0.020541984         3979 
 3414000   0.72082094   -7.4784998    832.29602  0.020315759  0.020534551         3963 
 3415000   0.70955973   -7.4867665    833.86326  0.020348054  0.020527118         3980 
 3416000   0.71192044   -7.4778538    833.96786  0.020344649   0.02051968         3973 
 3417000   0.70331457   -7.4724535    832.93526  0.020313512  0.020512253         3982 
 3418000   0.70461359   -7.4822507    834.45636  0.020344655   0.02050483         3969 
 3419000   0.69486834   -7.5019558    833.06066  0.020304686  0.020497396         3969 
 3420000    0.6936508   -7.4805568    834.95419  0.020344888  0.020489971         3972 
 3421000   0.71160301   -7.4953294    834.49648  0.020327791  0.020482549         3980 
 3422000   0.72223219   -7.4876226    835.90793  0.020356223  0.020475136         3970 
 3423000   0.69341061   -7.5108134     831.5009  0.020242986  0.020467713         3977 
 3424000   0.71019701   -7.4910541    835.00438  0.020322342  0.020460296         3988 
 3425000   0.71131639   -7.4916655    834.08907  0.020294138  0.020452886         3982 
 3426000   0.71013695   -7.4809186    834.89706  0.020307868  0.020445477         3983 
 3427000   0.70059324   -7.4751632    834.48881  0.020292015  0.020438066         3976 
 3428000   0.72356919    -7.494507    833.66736  0.020266126  0.020430661         3981 
 3429000   0.69523767   -7.4853197     833.3834  0.020253315  0.020423263         3981 
 3430000   0.69303644   -7.4655363     832.0775  0.020215683  0.020415865         3982 
 3431000   0.70258782   -7.5235271    835.08353  0.020282802  0.020408465         3966 
 3432000   0.71164807   -7.5010088    834.16998   0.02025471  0.020401066         3980 
 3433000   0.70838242   -7.4878201    833.01438  0.020220759  0.020393672         3977 
 3434000   0.69986331   -7.5046291    834.15638  0.020242583  0.020386279         3985 
 3435000   0.70266226   -7.4774504    833.41296  0.020218655  0.020378889         3977 
 3436000   0.71161467   -7.4502981    833.44891  0.020213643   0.02037151         3964 
 3437000   0.70733106   -7.4890291    834.91641  0.020243342  0.020364123         3971 
 3438000    0.7029584   -7.4740311    834.89118  0.020236843  0.020356748         3982 
 3439000   0.70528221   -7.4894649    833.95368  0.020208241  0.020349369         3967 
 3440000   0.69863579   -7.4968755    832.21286  0.020160195  0.020341987         3972 
 3441000   0.70122475   -7.4964572    832.89434   0.02017084  0.020334611         3977 
 3442000   0.69458926   -7.4774657    832.66135  0.020159339  0.020327235         3978 
 3443000    0.7029012   -7.4833945    832.69115  0.020154205  0.020319854         3973 
 3444000   0.69395236   -7.4702186    833.95739  0.020178992  0.020312489         3980 
 3445000   0.69611621   -7.4806521    834.36643  0.020183029  0.020305125         3978 
 3446000   0.70666476   -7.5075995    833.13102  0.020147297  0.020297757         3982 
 3447000   0.69673637   -7.4984842    833.63374  0.020153606   0.02029039         3978 
 3448000   0.69981007    -7.478971    832.22607  0.020113739  0.020283031         3976 
 3449000   0.70501211   -7.5099322    833.61014  0.020141349  0.020275669         3977 
 3450000   0.70181789   -7.4731385    832.59161  0.020110909  0.020268314         3962 
 3451000   0.69659523    -7.483887    832.86496  0.020111682  0.020260953         3980 
 3452000   0.70992513   -7.5040154    834.76877  0.020151815  0.020253595         3972 
 3453000   0.70203502    -7.495835    834.50095  0.020139515   0.02024624         3975 
 3454000   0.70005839   -7.4973537    834.63781  0.020136986  0.020238891         3978 
 3455000   0.69635181   -7.4752098    833.34156  0.020099893  0.020231548         3962 
 3456000   0.69237355   -7.4994403    833.20414  0.020090763  0.020224205         3966 
 3457000   0.70006107   -7.4840604    833.93999   0.02010269  0.020216854         3972 
 3458000   0.70384558   -7.4962256    833.67672  0.020090532  0.020209507         3980 
 3459000   0.68659229   -7.4983867    833.71602  0.020085671  0.020202158         3975 
 3460000   0.69882648   -7.5014361    833.54911  0.020075846  0.020194825         3978 
 3461000   0.69730704   -7.4946353    833.47649  0.020068297  0.020187498         3974 
 3462000   0.69560866   -7.4805278     833.5376  0.020063971  0.020180165         3977 
 3463000    0.6811694   -7.4934906    833.28009   0.02005198   0.02017283         3981 
 3464000    0.7073276   -7.4935446    833.68641  0.020055966  0.020165495         3977 
 3465000   0.70012051   -7.4967803    834.23427  0.020063354  0.020158171         3978 
 3466000   0.67675968   -7.5046816    833.63438  0.020043142   0.02015084         3971 
 3467000   0.68724528   -7.4943662    832.55462  0.020011408  0.020143516         3974 
 3468000    0.6897806   -7.4928363    833.37458  0.020025341  0.020136191         3980 
 3469000   0.69710413    -7.499767    832.77198  0.020005092  0.020128878         3979 
 3470000   0.68833435   -7.4939091    833.77081  0.020023314  0.020121561         3965 
 3471000   0.71020289   -7.4767918    833.25457  0.020005152  0.020114246         3970 
 3472000   0.69988639   -7.4888379    833.50127  0.020005311   0.02010694         3982 
 3473000   0.69931357   -7.5056145    831.56027  0.019952977  0.020099633         3980 
 3474000   0.70450884   -7.5229059    833.61227  0.019996456  0.020092322         3980 
 3475000   0.69874622    -7.485405    833.94017  0.019998565  0.020085018         3967 
 3476000   0.70150929   -7.5153181    832.79453  0.019965347  0.020077722         3971 
 3477000   0.70435315   -7.4946224    832.00658  0.019940719   0.02007042         3973 
 3478000   0.69921904   -7.4894654    832.42026  0.019944898  0.020063124         3970 
 3479000   0.70785574   -7.4888547    833.83451  0.019973041  0.020055829         3979 
 3480000   0.69385599    -7.505583     833.3909  0.019956679  0.020048536         3979 
 3481000   0.70791044   -7.4961318    832.67688  0.019933852  0.020041244         3969 
 3482000   0.69837973   -7.5049151    831.81621  0.019907529   0.02003395         3981 
 3483000    0.7033999   -7.4965243    832.02141  0.019906723  0.020026661         3977 
 3484000   0.67231183   -7.4954433    833.14333  0.019927845  0.020019378         3984 
 3485000    0.7210059   -7.5175763    832.06648  0.019896377  0.020012092         3983 
 3486000   0.69785423   -7.5143974    832.03828  0.019889995    0.0200048         3973 
 3487000   0.71231053   -7.5075126    833.44577  0.019917928  0.019997522         3985 
 3488000   0.69713498   -7.5131573    832.12341  0.019880624  0.019990249         3977 
 3489000   0.70076186   -7.5098544    832.78097  0.019890632  0.019982966         3974 
 3490000   0.68230028   -7.5086798    834.02328  0.019914596  0.019975695         3974 
 3491000   0.71296599   -7.4924817    833.10292  0.019886922  0.019968423         3977 
 3492000   0.69868201   -7.4909046    833.50507  0.019890824  0.019961149         3983 
 3493000   0.70254153   -7.4871925    833.62405  0.019887968  0.019953883         3968 
 3494000   0.69878132   -7.4882697    831.84645  0.019839879  0.019946624         3974 
 3495000   0.69020724   -7.4996318    832.78293  0.019856532  0.019939362         3979 
 3496000   0.69504459    -7.494822    834.15345  0.019883521  0.019932101         3979 
 3497000   0.69274156   -7.5052538    833.28997  0.019857258  0.019924842         3963 
 3498000   0.68239181    -7.489114    833.04421  0.019845726  0.019917587         3958 
 3499000   0.69380128   -7.5151094    835.04175  0.019887629  0.019910323         3981 
 3500000   0.69515387   -7.5010101    833.68011  0.019849526  0.019903069         3973 
 3501000   0.70507468   -7.5167983    832.94908  0.019826456  0.019895817         3975 
 3502000   0.68811402   -7.5236291    833.13642  0.019825253  0.019888568         3973 
 3503000   0.68946334   -7.4835684    834.82455  0.019859752  0.019881317         3978 
 3504000   0.69582854   -7.5073992    833.19712  0.019815381  0.019874075         3977 
 3505000    0.6914556   -7.5066094    832.05232  0.019782509  0.019866834         3968 
 3506000   0.67182387   -7.4891432    833.53211  0.019812039  0.019859596         3980 
 3507000   0.68983069   -7.5232873    831.45331  0.019756993  0.019852352         3977 
 3508000     0.680657   -7.5005136    832.33283  0.019772255  0.019845106         3975 
 3509000   0.68390605    -7.492363    833.95796  0.019805214  0.019837874         3984 
 3510000   0.67953707   -7.5181779    831.69668  0.019745885   0.01983064         3985 
 3511000   0.69082298   -7.5127992    832.05816  0.019748841  0.019823415         3985 
 3512000   0.67907765   -7.5033974     831.2474   0.01972398  0.019816188         3979 
 3513000   0.70581624   -7.4978531    832.08976  0.019738347  0.019808972         3971 
 3514000   0.71404347   -7.5067253    832.58977  0.019744588  0.019801758         3988 
 3515000   0.69012683   -7.5085622    832.01351  0.019725308   0.01979454         3978 
 3516000   0.68702099   -7.4869354    832.92788   0.01974137  0.019787325         3979 
 3517000   0.69450348   -7.4939199    831.67118   0.01970598  0.019780112         3971 
 3518000   0.68308175     -7.50599     832.0917   0.01971034  0.019772904         3975 
 3519000   0.67855504   -7.4843967    834.01162  0.019750204  0.019765698         3984 
 3520000   0.69868445   -7.5033068    832.73926  0.019714471  0.019758493         3973 
 3521000   0.68843223   -7.4815008    832.80081  0.019710329  0.019751281         3979 
 3522000   0.69349416   -7.5255318     833.5748  0.019723046  0.019744083         3981 
 3523000   0.67653536   -7.5084243    831.87555  0.019677253  0.019736893         3974 
 3524000   0.69459764   -7.5016123    832.99575  0.019698159  0.019729699         3981 
 3525000   0.70382511    -7.491393    832.08609  0.019671066  0.019722506         3985 
 3526000   0.70666055   -7.5410714    833.13671  0.019690317  0.019715309         3974 
 3527000    0.6923686   -7.4991844    832.41682  0.019667726  0.019708121         3981 
 3528000   0.66277613   -7.5033352    832.23226  0.019657792  0.019700929         3975 
 3529000   0.68988606   -7.4922067    833.47427   0.01968155  0.019693735         3976 
 3530000   0.68549413   -7.5207128    832.19085  0.019645676  0.019686553         3973 
 3531000   0.66745447   -7.5040451    831.15624  0.019615695  0.019679365         3983 
 3532000    0.6962525   -7.5210947    833.61078  0.019668053  0.019672179         3968 
 3533000   0.68309976   -7.4816833     833.1798  0.019652321   0.01966501         3978 
 3534000   0.69936984   -7.5169996    832.55934  0.019632129  0.019657833         3973 
 3535000   0.68328573   -7.5061268    830.07549  0.019568022  0.019650662         3984 
 3536000   0.67618436    -7.495442    833.58304  0.019645151  0.019643493         3977 
 3537000   0.69245169   -7.5188916    831.63599  0.019593723  0.019636326         3984 
 3538000   0.68681386   -7.4748138    833.72015  0.019637275  0.019629158         3987 
 3539000   0.68659778    -7.517411    834.15732   0.01964202  0.019621998         3973 
 3540000   0.68591556   -7.5164801    832.36006  0.019594163   0.01961483         3971 
 3541000   0.68413234   -7.5126324    833.17359  0.019607775  0.019607675         3978 
 3542000   0.67970254   -7.4839585    834.11505  0.019624389  0.019600515         3970 
 3543000   0.68320349   -7.4958255    832.82223  0.019588443  0.019593363         3972 
 3544000   0.68216752   -7.5020533    830.16717  0.019520485  0.019586209         3972 
 3545000   0.69493418   -7.5115513    833.40639  0.019591123  0.019579068         3964 
 3546000   0.68255924   -7.5156354    833.80946  0.019595071  0.019571919         3973 
 3547000   0.67127321   -7.4917379    832.32367  0.019554639   0.01956477         3977 
 3548000   0.68130813   -7.5136712    832.44115  0.019551887  0.019557633         3983 
 3549000    0.6791212   -7.5410336    832.90509  0.019557272  0.019550493         3976 
 3550000   0.69303553    -7.519197    832.52215  0.019542773  0.019543361         3979 
 3551000   0.68581676   -7.5034934    832.05841  0.019526387  0.019536223         3981 
 3552000   0.68232682   -7.5184297    833.78193  0.019561325  0.019529087         3969 
 3553000   0.67376717    -7.511966    831.90613  0.019511824  0.019521959         3980 
 3554000   0.68224602   -7.5272983    831.04488   0.01948614  0.019514828         3970 
 3555000   0.69921621   -7.4978673    831.77332  0.019497734  0.019507705         3979 
 3556000   0.68509011   -7.5064473    833.13474  0.019524155  0.019500586         3976 
 3557000   0.69127242   -7.5151266    833.09427  0.019517718  0.019493469         3974 
 3558000   0.68446567   -7.5085561    831.42196  0.019473065   0.01948635         3977 
 3559000   0.67737479   -7.5174605    833.37929  0.019513424  0.019479238         3965 
 3560000   0.68647908   -7.4951534    834.15213  0.019526033  0.019472123         3975 
 3561000   0.68717672   -7.4987107    833.24972  0.019499432   0.01946502         3980 
 3562000   0.67648179   -7.5083536     833.9693  0.019510792  0.019457917         3986 
 3563000   0.68711473   -7.5136478    832.68476  0.019475273  0.019450807         3973 
 3564000   0.66841508   -7.5319497    831.46162  0.019441209    0.0194437         3982 
 3565000   0.68433117   -7.5172943    831.94142  0.019446971  0.019436599         3982 
 3566000   0.68755288   -7.5102783    831.19393   0.01942405  0.019429499         3980 
 3567000   0.68869232   -7.5188563    831.51745  0.019426162  0.019422404         3974 
 3568000   0.66398223   -7.5330867    834.00485  0.019478813   0.01941531         3978 
 3569000   0.67631346   -7.5013564    831.56976  0.019416498  0.019408216         3977 
 3570000    0.6743485   -7.4958585    831.37711  0.019406562  0.019401117         3986 
 3571000   0.68570108   -7.5157716    831.77905  0.019410507  0.019394035         3977 
 3572000   0.68490692    -7.524272    831.85679  0.019406887  0.019386948         3973 
 3573000   0.68246538   -7.5246754    832.25241  0.019410682  0.019379876         3984 
 3574000   0.69147536   -7.5147124     831.9129  0.019397335  0.019372791         3987 
 3575000   0.67419883   -7.5211361    833.88441  0.019437865  0.019365717         3984 
 3576000   0.67398154   -7.5148214    831.32723  0.019372838  0.019358645         3972 
 3577000   0.68923538   -7.5110263    833.77791  0.019424516  0.019351583         3973 
 3578000    0.6701303   -7.5082432    831.79267   0.01937285  0.019344517         3973 
 3579000   0.67559525   -7.5068081     832.5434  0.019384917  0.019337447         3979 
 3580000   0.68062234   -7.4957219    832.18407  0.019371138  0.019330378         3980 
 3581000   0.69268263   -7.5245168    831.56749   0.01935138  0.019323321         3979 
 3582000   0.68667378   -7.5090524    831.06872  0.019334374  0.019316261         3987 
 3583000   0.68233185   -7.5201425    831.71597  0.019344031  0.019309201         3983 
 3584000    0.6835591   -7.5084526    831.84245  0.019341575  0.019302151         3979 
 3585000   0.68110686    -7.506869     830.5395  0.019305893    0.0192951         3985 
 3586000   0.66435564    -7.537753    832.41989  0.019344206  0.019288046         3977 
 3587000   0.67176287   -7.5263771    831.58804  0.019319488  0.019280999         3974 
 3588000   0.67353253   -7.5026297    830.71128   0.01929374  0.019273952         3977 
 3589000   0.68938847   -7.5107227    832.00723  0.019318455  0.019266903         3981 
 3590000   0.67541862   -7.5121164    832.45104  0.019323376  0.019259858         3981 
 3591000   0.68252118   -7.5267455     830.7569   0.01927868  0.019252825         3977 
 3592000   0.67641692   -7.5232521    831.66849  0.019294462  0.019245787         3980 
 3593000   0.67741323   -7.5438358     832.5136  0.019308693  0.019238753         3983 
 3594000   0.66904214   -7.5182297    831.14023  0.019271476  0.019231719         3980 
 3595000   0.66788671   -7.5039834    830.99428  0.019262733    0.0192247         3986 
 3596000   0.67528322    -7.506915    832.45499  0.019291226  0.019217678         3977 
 3597000   0.68078189   -7.4893488     831.5728  0.019265425  0.019210651         3979 
 3598000   0.65997601   -7.5137451    834.05269  0.019317507  0.019203627         3978 
 3599000   0.67724906   -7.5360505    831.43731  0.019251582  0.019196608         3971 
 3600000   0.67082959   -7.5191359    831.47361  0.019247074  0.019189592         3986 
 3601000    0.6771189   -7.5212814    833.01031  0.019277291  0.019182574         3981 
 3602000   0.68688297   -7.5174597    831.98404  0.019248196  0.019175563         3981 
 3603000   0.70032497   -7.5263518    831.19292  0.019224556  0.019168556         3982 
 3604000   0.66267295   -7.5315388    832.23494  0.019243316  0.019161544         3988 
 3605000   0.69452734   -7.5156983    832.31077  0.019239731  0.019154541         3980 
 3606000   0.67133895   -7.5154068     832.9292  0.019248687  0.019147538         3979 
 3607000   0.66644918   -7.5286883    832.68312  0.019237666  0.019140543         3980 
 3608000   0.68422194    -7.523148    831.00795  0.019193643   0.01913355         3980 
 3609000   0.67892474   -7.5380994    831.07595  0.019189894  0.019126555         3986 
 3610000   0.68217843    -7.547611    831.16359  0.019186602  0.019119564         3983 
 3611000   0.67030873   -7.5174899    830.68046  0.019170139  0.019112578         3986 
 3612000   0.67482153   -7.5382634    833.98955  0.019241176  0.019105585         3980 
 3613000   0.67656904   -7.5202672    832.51825  0.019201916  0.019098597         3982 
 3614000   0.69425661   -7.5267233    832.93431  0.019206196  0.019091613         3982 
 3615000   0.67648661   -7.5104928    832.55742  0.019192195  0.019084638         3977 
 3616000   0.67380068   -7.5311741    832.05156   0.01917523  0.019077662         3976 
 3617000   0.66902524   -7.5181421    830.12378  0.019125513  0.019070695         3987 
 3618000   0.66669932   -7.5165128    831.60819  0.019154417   0.01906372         3986 
 3619000    0.6771165   -7.5248978    831.84661  0.019154615  0.019056745         3984 
 3620000    0.6723352   -7.5171742    832.18534  0.019157121  0.019049779         3982 
 3621000   0.69172392   -7.5184423    831.64364  0.019139364  0.019042809         3981 
 3622000    0.6754745   -7.5397501    832.02564  0.019142869  0.019035845         3984 
 3623000   0.67688135   -7.5303929    833.20621  0.019164739  0.019028898         3984 
 3624000   0.66595848   -7.4898438     831.8059  0.019127251  0.019021937         3978 
 3625000   0.66671204   -7.5345364    831.79343  0.019121688   0.01901498         3984 
 3626000    0.6701963    -7.521445    832.49678  0.019132579  0.019008029         3983 
 3627000   0.67577305   -7.5316511    830.84596  0.019089375  0.019001091         3975 
 3628000   0.67602543   -7.5229317    831.96148  0.019109736  0.018994136         3973 
 3629000   0.67719155   -7.5157698    831.56565  0.019095381  0.018987183         3985 
 3630000   0.66442055   -7.5333524    830.15778    0.0190578  0.018980237         3976 
 3631000    0.6714135    -7.533736    831.95466  0.019093791  0.018973302         3981 
 3632000   0.66648374   -7.5361335    830.82546  0.019062625  0.018966362         3971 
 3633000   0.67357944   -7.5320666    832.61345  0.019098391  0.018959427         3978 
 3634000   0.67844632   -7.5402185     832.6695  0.019094421  0.018952489         3985 
 3635000   0.65411215   -7.5383296    832.79225  0.019091982  0.018945561         3982 
 3636000   0.67668909   -7.5315629    832.87927  0.019088725  0.018938631         3967 
 3637000   0.67219142   -7.5261417    831.90879  0.019061241    0.0189317         3981 
 3638000   0.65969971   -7.5257103    831.20376  0.019039852  0.018924774         3983 
 3639000   0.66503527   -7.5155297     831.1611  0.019033642  0.018917852         3983 
 3640000   0.68163851   -7.5324952     830.8119  0.019020419  0.018910932         3974 
 3641000   0.67219438   -7.5108001    831.37608  0.019028108  0.018904019         3983 
 3642000   0.65951012   -7.5235291    832.30405  0.019044116    0.0188971         3984 
 3643000   0.67791531   -7.5348084    832.36877  0.019040369  0.018890182         3989 
 3644000   0.67431115   -7.5496746    832.21585  0.019031647  0.018883271         3990 
 3645000    0.6651662   -7.5371295    830.18427  0.018979979  0.018876364         3979 
 3646000   0.66820025   -7.5356359    831.62927    0.0190078  0.018869461         3983 
 3647000   0.66598233   -7.5273341    832.28966  0.019017678  0.018862565         3984 
 3648000   0.68340928   -7.5287175    829.77522  0.018955026  0.018855659         3981 
 3649000   0.65276248   -7.5322636    830.61416  0.018968991  0.018848759         3982 
 3650000   0.66219227   -7.5282657    830.77295  0.018967419  0.018841864         3978 
 3651000   0.67128341   -7.5531276    830.94935   0.01896625  0.018834978         3984 
 3652000   0.67038739   -7.5269392    831.01695  0.018962599  0.018828082         3979 
 3653000   0.67610323   -7.5119899    831.58996   0.01897048  0.018821198         3972 
 3654000   0.66065096   -7.5369698    832.46441  0.018985231  0.018814309         3975 
 3655000   0.66442186   -7.5364315     832.5504  0.018981997  0.018807434         3971 
 3656000    0.6755784   -7.5500741    833.44503  0.018997197  0.018800551         3979 
 3657000   0.66341902   -7.5341233    831.17838  0.018940351  0.018793678         3976 
 3658000   0.66443004   -7.5214531    831.38045  0.018939777  0.018786803         3976 
 3659000   0.66721797   -7.5689276    831.71672  0.018942259  0.018779928         3979 
 3660000   0.67450085    -7.510481    829.54295   0.01888759  0.018773054         3980 
 3661000   0.65985343   -7.5447287    831.60511  0.018929371  0.018766184         3979 
 3662000   0.67204558   -7.5248705    831.69143  0.018926166  0.018759322         3980 
 3663000   0.66796089   -7.5246336    833.44116  0.018960805  0.018752467         3978 
 3664000    0.6517018   -7.5429634    830.38399  0.018886099  0.018745608         3977 
 3665000   0.67456084   -7.5430023    831.67535  0.018910308  0.018738755         3974 
 3666000   0.66546882   -7.5363217    830.77396   0.01888466  0.018731894         3988 
 3667000   0.67480205   -7.5527908    831.31272  0.018891753  0.018725044         3983 
 3668000   0.66901088    -7.525838    830.81811  0.018875366  0.018718188         3985 
 3669000   0.66181197   -7.5160407    833.01934  0.018920217  0.018711342         3984 
 3670000   0.66659942   -7.5096863    830.50136  0.018857887  0.018704497         3981 
 3671000   0.65914764   -7.5338857     829.5464  0.018831072  0.018697653         3975 
 3672000   0.66323193   -7.5265363    832.02705  0.018882241  0.018690808         3976 
 3673000   0.67713505   -7.5435928    832.72849  0.018893014  0.018683975         3977 
 3674000   0.66414895   -7.5348194    831.62782  0.018862907  0.018677144         3981 
 3675000   0.66172919   -7.5412456    830.64572  0.018835504  0.018670312         3983 
 3676000   0.65945942   -7.5395451    830.78967  0.018833643  0.018663485         3988 
 3677000   0.65662263   -7.5248756    831.76769  0.018850686   0.01865666         3985 
 3678000   0.65146799   -7.5412456    831.96305  0.018849987  0.018649834         3977 
 3679000   0.67386799   -7.5372165    832.47545   0.01885647  0.018643019         3979 
 3680000   0.66612131   -7.5393914    831.34966  0.018825853  0.018636192         3983 
 3681000   0.66779755   -7.5557439    830.15187  0.018793622  0.018629377         3982 
 3682000   0.66830426   -7.5168767    831.33257   0.01881524  0.018622566         3979 
 3683000    0.6645446   -7.5409797    830.41924  0.018789466  0.018615752         3987 
 3684000   0.65105623   -7.5412919    832.41088  0.018829417  0.018608937         3971 
 3685000   0.67270938   -7.5560607    831.20668  0.018797076  0.018602127         3979 
 3686000   0.69001761   -7.5406264    831.63308  0.018801616  0.018595324         3979 
 3687000   0.65746023   -7.5071536    831.19253  0.018786559  0.018588517         3975 
 3688000   0.66112311    -7.559283    830.56545  0.018767296  0.018581716         3980 
 3689000   0.66575355   -7.5426978    831.62578  0.018786161  0.018574925         3978 
 3690000   0.66955664   -7.5514395    831.97543  0.018788966  0.018568128         3986 
 3691000   0.64727013   -7.5259377    830.93741   0.01876044  0.018561336         3992 
 3692000   0.67132305   -7.5568082    831.14662  0.018760081  0.018554545         3984 
 3693000   0.66201292    -7.533625    830.90529  0.018749555  0.018547764         3985 
 3694000   0.66077433   -7.5522074    831.41898  0.018756068  0.018540984         3974 
 3695000   0.65935845   -7.5488835    832.06508  0.018765563  0.018534199         3974 
 3696000    0.6618085   -7.5432254    831.11486  0.018739062  0.018527413         3983 
 3697000   0.66688656   -7.5644268    830.64531  0.018723409  0.018520637         3985 
 3698000   0.66692619   -7.5498174    830.73023  0.018720259   0.01851386         3972 
 3699000   0.66387601   -7.5314069    831.23038  0.018726466  0.018507083         3974 
 3700000   0.67566587   -7.5663883     831.0157   0.01871657  0.018500308         3982 
 3701000   0.65785932   -7.5279277    831.88772  0.018731147  0.018493541         3978 
 3702000   0.66972936   -7.5323357    830.68928   0.01869911   0.01848678         3975 
 3703000   0.66217386   -7.5322315    830.90407  0.018698894  0.018480014         3978 
 3704000   0.65685469   -7.5686018     831.6267  0.018710104  0.018473247         3972 
 3705000   0.66117916   -7.5324471    830.78881  0.018686208  0.018466486         3975 
 3706000   0.66714732   -7.5425333    830.94287   0.01868463  0.018459734         3980 
 3707000    0.6698465   -7.5563996    830.95725  0.018679913  0.018452972         3981 
 3708000   0.66614687   -7.5351744    831.53007  0.018687749  0.018446218         3988 
 3709000   0.65976677   -7.5503986    831.60409  0.018684373  0.018439466         3973 
 3710000   0.66375473   -7.5496602     831.9397  0.018686876  0.018432717         3986 
 3711000   0.65508374   -7.5462434     832.3201  0.018690382   0.01842597         3984 
 3712000   0.65708795   -7.5538626    830.38914  0.018641997  0.018419229         3979 
 3713000   0.65322176   -7.5613847    830.89279  0.018648281  0.018412491         3983 
 3714000   0.66760372   -7.5235211    830.81338  0.018641478  0.018405755         3973 
 3715000    0.6641246   -7.5456409    831.28276  0.018646989   0.01839902         3976 
 3716000   0.64966878   -7.5342079    832.35371  0.018665987  0.018392281         3969 
 3717000   0.67301349   -7.5545769     829.7547  0.018602697  0.018385555         3976 
 3718000   0.66516426   -7.5575329    830.25894  0.018608995   0.01837883         3984 
 3719000   0.65235364   -7.5595053    830.55445  0.018610613   0.01837211         3971 
 3720000   0.65334087   -7.5516432    831.78574  0.018633193  0.018365389         3988 
 3721000   0.65911816   -7.5371041    830.11873  0.018590852   0.01835867         3978 
 3722000    0.6434526   -7.5744509    831.06122  0.018606959   0.01835195         3978 
 3723000   0.65814767   -7.5635099    831.59852  0.018613988   0.01834524         3983 
 3724000   0.65892263   -7.5276824    830.37129  0.018581527  0.018338529         3978 
 3725000   0.65034322   -7.5614778    830.43087  0.018577872  0.018331814         3975 
 3726000   0.65387575   -7.5563394    831.06559  0.018587082  0.018325106         3977 
 3727000   0.64471153   -7.5539836    831.05719  0.018581907  0.018318409         3984 
 3728000   0.64264697   -7.5425226    830.91629  0.018573772  0.018311709         3982 
 3729000   0.64728699   -7.5455825    830.65928  0.018563048  0.018305007         3987 
 3730000   0.65110372   -7.5605771    832.03034  0.018588703  0.018298314         3978 
 3731000   0.65593729   -7.5564078    831.28448  0.018567062   0.01829162         3981 
 3732000   0.64484839   -7.5636744    831.02639  0.018556323  0.018284933         3983 
 3733000   0.66938394    -7.526473    831.82953  0.018569281  0.018278246         3982 
 3734000   0.66984203   -7.5375982    830.68625  0.018538793  0.018271559         3979 
 3735000   0.63676683   -7.5621664     831.0556  0.018542071  0.018264869         3989 
 3736000   0.64083213   -7.5479352    830.65995  0.018528282  0.018258186         3982 
 3737000      0.65127   -7.5592384    830.81332  0.018526744  0.018251507         3989 
 3738000   0.66666866   -7.5410438    829.91868  0.018501843   0.01824483         3988 
 3739000   0.64388504   -7.5198654    831.20983  0.018525672  0.018238154         3977 
 3740000    0.6521105   -7.5347941    831.45178  0.018526109   0.01823148         3974 
 3741000   0.65433227   -7.5512251    830.27934   0.01849504  0.018224811         3982 
 3742000   0.65988026   -7.5547693    830.28137  0.018490143  0.018218144         3979 
 3743000   0.64373594   -7.5581167    830.38569  0.018487525  0.018211474         3977 
 3744000   0.64935087   -7.5651279    831.27225   0.01850232  0.018204802         3985 
 3745000   0.66440604   -7.5285483    831.06131  0.018492686  0.018198143         3979 
 3746000   0.65729188   -7.5642581    829.75524  0.018458695  0.018191485         3984 
 3747000   0.64885891   -7.5577845    830.02022  0.018459662  0.018184833         3978 
 3748000   0.65991516   -7.5250505    830.63715  0.018468453  0.018178181         3978 
 3749000   0.65162635   -7.5539148    830.15685  0.018452851  0.018171536         3973 
 3750000   0.64274247   -7.5542141    830.54029  0.018456451  0.018164883         3975 
 3751000   0.66943809   -7.5546927    831.57006  0.018474408  0.018158239         3978 
 3752000   0.65436726   -7.5363092    831.81368  0.018474895    0.0181516         3974 
 3753000   0.65357813   -7.5493704    831.23444  0.018457111  0.018144959         3979 
 3754000   0.66237057   -7.5459151    830.81897  0.018442971  0.018138322         3983 
 3755000   0.65473698    -7.560079    829.68718  0.018412942  0.018131689         3980 
 3756000   0.66314635   -7.5433375     830.9287  0.018435585  0.018125063         3978 
 3757000   0.64934481   -7.5620345    830.78772  0.018427551  0.018118435         3986 
 3758000   0.64688187   -7.5825852    830.27151  0.018411201  0.018111806         3982 
 3759000   0.64357119   -7.5515182    829.47131  0.018388563  0.018105183         3982 
 3760000   0.65474785   -7.5601966    829.96769  0.018394674  0.018098562         3982 
 3761000     0.652673   -7.5552758    829.18548  0.018372451  0.018091942         3973 
 3762000   0.64825863   -7.5556786    829.37269  0.018371715  0.018085329         3981 
 3763000   0.64776495   -7.5677935    830.52234  0.018392292  0.018078717         3972 
 3764000   0.65058077   -7.5550915    829.66814  0.018368494   0.01807211         3980 
 3765000    0.6482932   -7.5505412    829.58189  0.018361706  0.018065497         3978 
 3766000   0.63651166   -7.5750359    830.18774  0.018370237  0.018058887         3974 
 3767000   0.65228208   -7.5308021    830.72497  0.018377245  0.018052282         3977 
 3768000   0.64516969   -7.5620044    829.73948  0.018350572  0.018045685         3986 
 3769000   0.65288116   -7.5414407    829.93032  0.018349923  0.018039094         3988 
 3770000   0.63691602   -7.5540012    829.35542  0.018332348  0.018032493         3988 
 3771000   0.63790827   -7.5622094    829.77184  0.018336689  0.018025896         3985 
 3772000   0.62859908   -7.5413386    828.84757  0.018311408  0.018019303         3979 
 3773000   0.65098492   -7.5417152    831.55127  0.018366271  0.018012716         3984 
 3774000   0.65664871   -7.5546979     830.7291   0.01834325  0.018006127         3986 
 3775000   0.65607169   -7.5682246    830.39139  0.018330936  0.017999542         3986 
 3776000   0.65474821   -7.5562748    829.84322  0.018313984  0.017992956         3986 
 3777000   0.64389887   -7.5614635    831.67155  0.018349474  0.017986379         3973 
 3778000   0.64696047   -7.5430484    831.84721  0.018348491  0.017979803         3977 
 3779000   0.65201256   -7.5323006    829.63075  0.018294759  0.017973231         3983 
 3780000   0.64055999   -7.5759342     830.5957  0.018311193  0.017966661         3972 
 3781000   0.64460267   -7.5606369    831.85774  0.018334165  0.017960087         3972 
 3782000   0.65067035   -7.5632222     829.1267  0.018269141   0.01795352         3981 
 3783000   0.65445906    -7.561924    830.94297  0.018304321  0.017946953         3982 
 3784000   0.64142888   -7.5684822    831.05942  0.018302048  0.017940385         3987 
 3785000   0.64779396   -7.5647381    831.41633  0.018305071  0.017933825         3985 
 3786000   0.64477401   -7.5763167    830.29756  0.018275611  0.017927266         3990 
 3787000   0.65585673   -7.5514279    830.95431  0.018285237  0.017920714         3983 
 3788000   0.65588125   -7.5637499    829.58253  0.018250232  0.017914167         3980 
 3789000   0.65496502   -7.5620129     830.1756  0.018258459  0.017907614         3981 
 3790000   0.64797887    -7.589457    829.60655  0.018241129  0.017901064         3987 
 3791000   0.63730989   -7.5705006    831.55715  0.018279195  0.017894522         3981 
 3792000   0.65448128   -7.5687825    829.50572  0.018229292  0.017887982         3980 
 3793000   0.66044805   -7.5711469    830.05604  0.018236577  0.017881443         3984 
 3794000   0.65548281   -7.5543174    828.84634    0.0182052  0.017874901         3976 
 3795000   0.65482542   -7.5721691    828.92168  0.018202057  0.017868364         3981 
 3796000   0.65337349   -7.5693177    830.07608  0.018222605  0.017861835         3975 
 3797000   0.65327892   -7.5701085    830.87457   0.01823533  0.017855307         3984 
 3798000   0.63908719   -7.5671299    830.27838  0.018217447  0.017848782         3983 
 3799000   0.66001447   -7.5930683    830.37739  0.018214824  0.017842261         3978 
 3800000   0.64081306   -7.5740365    831.91522  0.018243755  0.017835746         3980 
 3801000   0.65063569   -7.5742083     830.1625  0.018200528  0.017829222         3978 
 3802000   0.65210283   -7.5654332    829.17156  0.018174022  0.017822705         3979 
 3803000   0.64464971   -7.5621036    829.04775   0.01816653  0.017816185         3981 
 3804000   0.63711771   -7.5781873    831.97381  0.018225855  0.017809675         3982 
 3805000   0.64869872   -7.5746214    828.60182  0.018147215  0.017803166         3987 
 3806000   0.63877825   -7.5885556    830.01859  0.018173467  0.017796655         3983 
 3807000   0.64496471   -7.5703338    829.29251    0.0181528  0.017790148         3983 
 3808000   0.64293104   -7.5840603    829.48438  0.018152232  0.017783643         3978 
 3809000   0.64973421   -7.5598876    829.32488  0.018143977  0.017777143         3986 
 3810000   0.64329334     -7.59149    829.61383  0.018145534  0.017770641         3983 
 3811000   0.64636663   -7.5721078    831.16755  0.018174747  0.017764148         3980 
 3812000   0.63416799    -7.596858    829.40377  0.018131422  0.017757648         3978 
 3813000   0.63867002   -7.5751811    830.54928  0.018151702  0.017751158         3983 
 3814000   0.65699537   -7.5697705     829.7892  0.018130336  0.017744677         3983 
 3815000   0.63665994   -7.5535004    830.58295  0.018142922  0.017738193         3981 
 3816000   0.64582499   -7.5741374    831.40998  0.018156228  0.017731713         3980 
 3817000   0.64505406    -7.562305    829.67574  0.018113609   0.01772523         3975 
 3818000   0.63624009   -7.5740703    830.02453  0.018116477  0.017718758         3984 
 3819000   0.62876349   -7.5581406    830.57627  0.018123773  0.017712286         3981 
 3820000   0.63895716    -7.574129    829.57745  0.018097239  0.017705811         3976 
 3821000   0.63643795   -7.5777762    828.22642  0.018063038  0.017699341         3982 
 3822000   0.64359747   -7.5571218    831.41066   0.01812774  0.017692876         3983 
 3823000   0.63516148   -7.5468009    829.42332  0.018079678  0.017686411         3987 
 3824000   0.63285883    -7.573648    829.46771  0.018075918  0.017679941         3974 
 3825000   0.64153881   -7.5783845    830.27865   0.01808886  0.017673486         3973 
 3826000    0.6364817   -7.5699991    830.26256  0.018083781  0.017667033         3982 
 3827000   0.63768044   -7.5491559     830.8241  0.018091283  0.017660583         3976 
 3828000   0.62990344   -7.5789333    830.02986  0.018069267   0.01765413         3977 
 3829000   0.63294787   -7.5887518    830.14608  0.018067078  0.017647678         3978 
 3830000    0.6481954   -7.5944784    829.70359  0.018052733  0.017641233         3989 
 3831000    0.6322124   -7.5576742    829.50885  0.018043784   0.01763479         3986 
 3832000   0.65190943   -7.5636898    830.52921  0.018061265  0.017628349         3984 
 3833000   0.63494698   -7.5682158    830.03008  0.018045701  0.017621908         3976 
 3834000   0.64694876   -7.5781303    829.08855   0.01802053  0.017615474         3987 
 3835000   0.64479021   -7.5844582    829.64404  0.018027902  0.017609039         3975 
 3836000   0.64495163   -7.5804652    830.89564  0.018050392  0.017602605         3980 
 3837000   0.63539683   -7.5686939    830.23775  0.018031399  0.017596177         3980 
 3838000    0.6497934   -7.5807776    830.39109  0.018030031  0.017589752         3980 
 3839000   0.64152417   -7.5770826    829.15639  0.017998532   0.01758333         3979 
 3840000   0.63631066   -7.5746426     830.0261  0.018012719  0.017576905         3964 
 3841000   0.63242125    -7.584541    830.63537  0.018021248  0.017570487         3983 
 3842000   0.63859049   -7.5903538    830.87403  0.018021734  0.017564074         3985 
 3843000   0.64944823   -7.5746066     830.5152  0.018009264  0.017557661         3977 
 3844000   0.63488915   -7.5752303    829.72834   0.01798752  0.017551255         3991 
 3845000   0.63430527   -7.5859477    830.18107  0.017992654  0.017544845         3989 
 3846000   0.61717822   -7.5795446    828.56346  0.017952926  0.017538437         3985 
 3847000   0.63887881     -7.56507    831.81665   0.01801873  0.017532032         3983 
 3848000   0.62370965   -7.5808178    826.91043  0.017907797  0.017525626         3986 
 3849000   0.64195182   -7.5700485    828.70153  0.017941923  0.017519226         3979 
 3850000   0.62523447    -7.568997    828.07447   0.01792369  0.017512831         3983 
 3851000   0.64396344   -7.5736039    829.20612  0.017943524  0.017506434         3980 
 3852000   0.63945961   -7.5953945    829.00312  0.017934474  0.017500039         3985 
 3853000   0.64112751   -7.5752347    829.02554  0.017930304  0.017493645         3984 
 3854000   0.62952358   -7.5570606    829.78127  0.017941992  0.017487262         3978 
 3855000    0.6543086   -7.5595607    829.19061   0.01792457  0.017480881         3988 
 3856000   0.63966636   -7.5819715       829.88   0.01793482    0.0174745         3978 
 3857000   0.63675445   -7.5740604    830.51961  0.017943989   0.01746812         3976 
 3858000   0.63684261   -7.5681108    828.53525  0.017896476  0.017461744         3983 
 3859000   0.63389895   -7.6032398    830.19125  0.017927599   0.01745537         3970 
 3860000   0.62522464   -7.5711468    828.02917  0.017876277  0.017448997         3977 
 3861000   0.62983745     -7.58473    829.33908   0.01789992  0.017442634         3985 
 3862000   0.62251382    -7.566765    830.37844  0.017917712  0.017436267         3981 
 3863000   0.63309906   -7.5752981    829.41979  0.017892393  0.017429903         3983 
 3864000   0.65065576   -7.5827548    828.38705   0.01786549  0.017423538         3986 
 3865000   0.62544971   -7.5759689    829.17211  0.017877794  0.017417183         3972 
 3866000   0.62424178   -7.5523413    828.69195   0.01786282  0.017410826         3988 
 3867000   0.62759306   -7.5747995    828.55661  0.017855284  0.017404468         3978 
 3868000   0.63264373   -7.5828841    830.16769  0.017885378  0.017398118         3977 
 3869000   0.62497527   -7.5729057    828.24988  0.017839448  0.017391765         3980 
 3870000     0.638073   -7.5657972    830.28628  0.017878688  0.017385421         3986 
 3871000   0.62396249   -7.5804359    828.55864  0.017836878  0.017379077         3981 
 3872000   0.61532735   -7.5906594    827.85667  0.017817163  0.017372735         3982 
 3873000   0.62954266   -7.5698884    830.43992  0.017868145  0.017366395         3982 
 3874000   0.64319024    -7.584337    830.44735  0.017863693  0.017360059         3979 
 3875000   0.63300672   -7.5724292    828.36187  0.017814234  0.017353729         3978 
 3876000    0.6289161   -7.5771672    829.90602  0.017842837  0.017347397         3980 
 3877000   0.63638967   -7.5689499    828.62469  0.017810693  0.017341062         3970 
 3878000   0.62487404   -7.5936388    828.08944  0.017794599  0.017334733         3976 
 3879000       0.6352   -7.5790389    829.43975   0.01781902  0.017328412         3982 
 3880000   0.62606498   -7.5588438    829.92803  0.017824915  0.017322094         3971 
 3881000   0.62947563   -7.5810095    828.93773  0.017799058   0.01731578         3978 
 3882000   0.62955912   -7.5712813    829.00957  0.017796015  0.017309462         3976 
 3883000   0.62366854    -7.588807    829.04646  0.017792224  0.017303149         3986 
 3884000    0.6215757   -7.5881588    830.08218  0.017809865  0.017296842         3983 
 3885000   0.62009691   -7.5851793    829.37987  0.017790216  0.017290533         3978 
 3886000   0.62897407   -7.5989388    829.65251  0.017791485  0.017284232         3973 
 3887000   0.63096916   -7.5660608    828.82999  0.017769273  0.017277931         3983 
 3888000   0.62982469   -7.5820175    830.40506  0.017798462  0.017271632         3978 
 3889000   0.62188899   -7.5606928    829.60233  0.017776685  0.017265333         3971 
 3890000   0.64064341   -7.5900858    830.16927   0.01778426  0.017259044         3986 
 3891000   0.64199625   -7.5887771    828.66935  0.017747566  0.017252751         3988 
 3892000   0.63869912   -7.6061116    829.58679   0.01776265  0.017246463         3983 
 3893000   0.62741754   -7.5950399     829.8094  0.017762852  0.017240182         3990 
 3894000   0.63442943   -7.5843002    828.09645  0.017721633  0.017233896         3980 
 3895000   0.61420949   -7.5811594    829.12078  0.017738998  0.017227614         3980 
 3896000   0.63150621   -7.5724193    827.59319  0.017701771  0.017221339         3982 
 3897000    0.6113145   -7.5863468    828.57994  0.017718329  0.017215056         3974 
 3898000   0.63827501   -7.5910543    829.75629  0.017738932  0.017208779         3984 
 3899000   0.63317243   -7.5696195     828.9674  0.017717522  0.017202504         3984 
 3900000   0.60967394   -7.5963491    828.25274  0.017697708   0.01719623         3984 
 3901000     0.622121   -7.5856314    828.64002  0.017701445   0.01718996         3976 
 3902000   0.61765512   -7.5979203    829.23906  0.017709701  0.017183697         3985 
 3903000   0.62993863   -7.5907334    830.80173  0.017738529  0.017177439         3975 
 3904000   0.63174423   -7.6110125    828.83936  0.017692097  0.017171181         3984 
 3905000   0.62753702   -7.5920223    830.59872  0.017725111  0.017164923         3976 
 3906000   0.63520469   -7.5860871    828.77363  0.017681636  0.017158671         3989 
 3907000    0.6450642   -7.5957088    828.16095  0.017664042  0.017152425         3969 
 3908000   0.62326374   -7.5816412    828.38778  0.017664359  0.017146179         3982 
 3909000   0.63537623   -7.5935322    827.26451  0.017635894   0.01713993         3976 
 3910000        0.629   -7.5991276    828.24587  0.017652299   0.01713369         3976 
 3911000   0.61508211   -7.5859492    828.26022  0.017648091  0.017127452         3980 
 3912000   0.63053412   -7.5893434    830.06067  0.017681933  0.017121214         3973 
 3913000   0.62339226   -7.6156862    827.52354  0.017623382  0.017114974         3981 
 3914000   0.61887888   -7.6002941    829.80504  0.017667455  0.017108734         3978 
 3915000   0.63157331   -7.6012304    829.50192   0.01765649  0.017102506         3980 
 3916000   0.63236467   -7.5962683    829.54963  0.017652997  0.017096282         3982 
 3917000    0.6362565   -7.5907494    828.41235  0.017624295  0.017090056         3989 
 3918000   0.62425855   -7.5802773    828.72235   0.01762639  0.017083834         3980 
 3919000   0.62544316   -7.5848486    829.18834  0.017631801  0.017077607         3973 
 3920000   0.63275577    -7.582994    827.80127  0.017597816   0.01707139         3977 
 3921000   0.61906539   -7.6046589    830.75652  0.017656136  0.017065175         3981 
 3922000   0.60020067   -7.5812945    829.11698  0.017616798  0.017058965         3985 
 3923000   0.61291593   -7.5977313    830.50831  0.017641862  0.017052754         3987 
 3924000   0.62041187   -7.5965959    828.22086  0.017588788  0.017046548         3987 
 3925000   0.62853868   -7.6025044    828.38384  0.017587767  0.017040341         3979 
 3926000   0.62292965   -7.5890111    828.09746  0.017577209  0.017034136         3983 
 3927000   0.61729737   -7.5872197    827.81959  0.017566836  0.017027935         3978 
 3928000   0.62444645   -7.5904166    829.05461  0.017588565  0.017021735         3976 
 3929000   0.62617246    -7.596804    829.75609  0.017598967   0.01701554         3979 
 3930000   0.62084487   -7.5940408    829.51985  0.017589479  0.017009344         3975 
 3931000   0.61672396   -7.5985295    828.34964  0.017560198  0.017003159         3986 
 3932000    0.6385942   -7.6081226    829.08408  0.017571297  0.016996974         3983 
 3933000   0.62506241   -7.5819664    830.58526  0.017598637  0.016990793         3980 
 3934000   0.62680733   -7.5853016    830.36637  0.017589527   0.01698461         3984 
 3935000   0.61595458   -7.5985672    827.57709  0.017525987  0.016978426         3984 
 3936000   0.61125245   -7.6013579    829.57766   0.01756389  0.016972246         3978 
 3937000   0.61697567   -7.5832415    829.91424  0.017566553  0.016966073         3987 
 3938000   0.60889265     -7.60866    829.14756  0.017545869  0.016959893         3978 
 3939000   0.61324989   -7.6079816    828.34398  0.017524413  0.016953719         3986 
 3940000   0.63571091   -7.5947907    828.13767  0.017515602   0.01694755         3987 
 3941000   0.61821957   -7.5809912    829.07805  0.017531042  0.016941386         3985 
 3942000    0.6424147    -7.621035    829.96124  0.017545265   0.01693522         3979 
 3943000   0.62752355   -7.5750427    829.08317  0.017522258  0.016929066         3986 
 3944000   0.63967779   -7.6116525    829.81255  0.017533227  0.016922908         3978 
 3945000   0.62416319   -7.6118924    827.71825  0.017484543  0.016916752         3977 
 3946000   0.61325405   -7.6040667    826.45305  0.017453393  0.016910598         3985 
 3947000   0.63879769   -7.5851108    828.23958   0.01748669  0.016904445         3981 
 3948000   0.61082426    -7.603653    829.98491  0.017519101  0.016898299         3985 
 3949000    0.6285135   -7.5877841    827.89711  0.017470607  0.016892154         3980 
 3950000   0.62882495   -7.5942758    829.04327  0.017490364  0.016886006         3982 
 3951000   0.61689939   -7.6091649    826.69156  0.017436336  0.016879866         3982 
 3952000   0.62505202   -7.5988446    829.35352  0.017488055  0.016873722         3985 
 3953000   0.61585813   -7.5999654    828.37783  0.017463062  0.016867587         3982 
 3954000   0.63563513   -7.5838804    828.57499  0.017462801  0.016861454         3986 
 3955000   0.61910812   -7.6020829    828.46945  0.017456162  0.016855324         3983 
 3956000   0.61244028   -7.6057178    828.01013  0.017442074  0.016849195         3986 
 3957000   0.61579297   -7.5813042    829.57184  0.017470555  0.016843072         3985 
 3958000   0.62754827    -7.606912    829.39683  0.017462456  0.016836946         3987 
 3959000   0.60871499   -7.5854913    828.40468  0.017437162  0.016830825         3985 
 3960000   0.61372529   -7.5984126    829.44793  0.017454712  0.016824707         3978 
 3961000    0.6288825   -7.6063806     829.2076  0.017445249  0.016818592         3992 
 3962000   0.61680129   -7.5978265    827.95014  0.017414398  0.016812479         3983 
 3963000    0.6242049   -7.6119537    828.61276  0.017423937   0.01680637         3984 
 3964000   0.61096057   -7.6097202    827.76517  0.017401723  0.016800255         3984 
 3965000   0.61890987   -7.6080703    828.81392  0.017419376  0.016794152         3988 
 3966000      0.62093   -7.5905346     828.1047  0.017400082  0.016788049         3986 
 3967000   0.61733282   -7.5996458    827.90645  0.017391531  0.016781945         3983 
 3968000   0.62601974   -7.5753595    828.93936  0.017408841  0.016775848         3978 
 3969000   0.60420361   -7.6230544    829.35492   0.01741318  0.016769755         3981 
 3970000   0.60970369   -7.6108631    828.77396  0.017396599  0.016763662         3987 
 3971000   0.61726215   -7.5928658    828.24137  0.017381041   0.01675757         3988 
 3972000   0.59711453    -7.601676    828.77865  0.017387937  0.016751487         3984 
 3973000   0.60752063   -7.5965774    826.99115  0.017346068    0.0167454         3985 
 3974000   0.60824086   -7.6040004    827.55987  0.017353629  0.016739315         3984 
 3975000   0.61912083   -7.6066105    829.67634  0.017393634  0.016733233         3979 
 3976000   0.61226941   -7.6088227    827.77869  0.017349486  0.016727159         3982 
 3977000    0.6143409   -7.5901714    828.70943  0.017364626  0.016721085         3989 
 3978000   0.61622899   -7.5883935    828.16427  0.017348841  0.016715009         3988 
 3979000     0.609224   -7.6027835    828.46103  0.017350696  0.016708933         3984 
 3980000   0.61478378   -7.6167504     828.8258  0.017353974  0.016702868         3985 
 3981000   0.60863595   -7.6240788    829.00454  0.017353356  0.016696802         3984 
 3982000   0.59922313   -7.6106841    828.21362  0.017332446  0.016690736         3982 
 3983000   0.61715223   -7.6073369    828.43884  0.017332807  0.016684674         3985 
 3984000   0.60429174   -7.6021681    828.51973  0.017330148  0.016678614         3977 
 3985000   0.60089647   -7.6070077    827.31693  0.017300647   0.01667256         3989 
 3986000   0.62753825   -7.6151313    827.99196  0.017310419  0.016666503         3984 
 3987000   0.60996175    -7.600724    828.53811  0.017317492  0.016660452         3981 
 3988000    0.6163824   -7.5940017    828.04855   0.01730292  0.016654404         3982 
 3989000   0.61964351   -7.6225246    828.21275  0.017302013  0.016648355         3979 
 3990000   0.60712708   -7.6052718    828.88193  0.017311653  0.016642315         3983 
 3991000   0.61383541     -7.59597     828.1733  0.017292519  0.016636268         3983 
 3992000   0.60364033   -7.6021185    829.01596  0.017305777  0.016630232         3976 
 3993000   0.61001198   -7.6030473    828.43577  0.017289335  0.016624195         3980 
 3994000   0.61490768   -7.5928551    829.39142  0.017304945  0.016618162         3978 
 3995000   0.61852757   -7.6099987    828.85663  0.017289458  0.016612132         3984 
 3996000   0.62408542   -7.5899144    828.39945  0.017275598  0.016606109         3986 
 3997000   0.60975427   -7.6092975    827.73098  0.017257338  0.016600086         3973 
 3998000   0.62557302   -7.6137653    828.03787  0.017259419  0.016594065         3980 
 3999000   0.61867149   -7.6210704    828.40402  0.017262733  0.016588044         3974 
 4000000   0.61849164   -7.5929155    827.34515  0.017236357  0.016582031         3988 
 4001000    0.5990745   -7.6225069    827.26137  0.017230304  0.016576014         3988 
 4002000   0.60839788   -7.6059608    826.80959  0.017216591  0.016569997         3985 
 4003000   0.60700733   -7.6038264    828.11622  0.017239492  0.016563986         3980 
 4004000   0.61472766   -7.6096535    828.87036  0.017250882  0.016557981         3982 
 4005000   0.59935198   -7.6120775    825.32531  0.017172811  0.016551977         3982 
 4006000   0.60579948   -7.6181923    827.45303  0.017212786  0.016545972         3977 
 4007000     0.610054   -7.5985147     828.2654  0.017225385  0.016539971         3986 
 4008000   0.60625384   -7.5899104    828.93193  0.017234945  0.016533973         3978 
 4009000   0.61533099     -7.60978    827.78506  0.017206807  0.016527976         3983 
 4010000   0.61503779   -7.6118869     824.9533  0.017143668  0.016521982         3984 
 4011000   0.60570957   -7.6040347    826.98715  0.017181649  0.016515992         3988 
 4012000   0.61166834   -7.6242453    829.29076  0.017225215  0.016510002         3985 
 4013000   0.61265181   -7.6135924    827.15759  0.017176626  0.016504015         3987 
 4014000   0.61197308    -7.615542    828.96116   0.01720979   0.01649803         3985 
 4015000   0.60937285   -7.6030672    828.88045  0.017203828  0.016492048         3977 
 4016000   0.60009235   -7.5975522    826.85348  0.017157484  0.016486073         3983 
 4017000   0.59775674   -7.6145367    828.14004  0.017179903  0.016480093         3990 
 4018000   0.60948979   -7.5941143    827.66209  0.017165714  0.016474119         3983 
 4019000    0.6002364   -7.5985769    827.47718  0.017157609  0.016468149         3984 
 4020000   0.61131373   -7.6265847    826.38093  0.017130616  0.016462182         3974 
 4021000   0.60116827   -7.6128445    827.99504  0.017159808  0.016456213         3981 
 4022000   0.60393779   -7.6147439    828.81345  0.017172498  0.016450253         3985 
 4023000   0.60446232   -7.6185218    827.37456  0.017138424  0.016444284         3980 
 4024000   0.60602703   -7.6160686    828.74343  0.017162513  0.016438327         3985 
 4025000   0.61290542   -7.6244168    829.23182  0.017168361  0.016432368         3991 
 4026000   0.61374696   -7.6162899    828.41222  0.017147132  0.016426416         3982 
 4027000    0.5950396   -7.6083078    828.89108  0.017152783  0.016420465         3979 
 4028000   0.61665559   -7.6219773    827.61438  0.017122111  0.016414513         3986 
 4029000   0.60029604   -7.6106579    827.48209  0.017115126   0.01640857         3983 
 4030000   0.60561602   -7.6084916    828.89101  0.017140013  0.016402627         3983 
 4031000   0.60476533    -7.614237     828.2974  0.017123489  0.016396682         3986 
 4032000   0.61902768   -7.6135386     827.6594  0.017106056  0.016390745         3990 
 4033000   0.59512279   -7.6241984    827.89924   0.01710677  0.016384805         3983 
 4034000   0.60805958   -7.6347143    828.17958   0.01710832  0.016378874         3977 
 4035000   0.61264139   -7.6142896    827.75504  0.017095313  0.016372945         3977 
 4036000   0.61372636   -7.6306513     827.1925  0.017079462  0.016367017         3982 
 4037000    0.6045463   -7.5953171    825.99758  0.017050565  0.016361089         3980 
 4038000   0.60074736   -7.6077936    828.41171  0.017096164  0.016355165         3985 
 4039000   0.60126301   -7.6157747     828.0804  0.017085095  0.016349242         3984 
 4040000    0.6092991   -7.6310927    826.68331  0.017052049  0.016343324         3987 
 4041000   0.61083071   -7.6158571     828.0819   0.01707667  0.016337407         3984 
 4042000    0.6156892   -7.6140913    827.80193  0.017066673   0.01633149         3979 
 4043000   0.61012608   -7.6112938    827.55939  0.017057453  0.016325575         3975 
 4044000   0.60440339   -7.6008029    828.49668  0.017072549  0.016319665         3982 
 4045000   0.60184524   -7.6238341    828.87405  0.017076103  0.016313753         3977 
 4046000   0.59482094   -7.6196848    827.55257  0.017044665  0.016307851         3976 
 4047000   0.61653261   -7.6134557    827.15045  0.017032173  0.016301949         3990 
 4048000   0.60331737   -7.6093225    828.27044  0.017051022  0.016296047         3980 
 4049000   0.60794273   -7.6050162    827.34769  0.017027819   0.01629015         3988 
 4050000   0.60356852   -7.6098558    827.25222  0.017021651  0.016284256         3980 
 4051000   0.60906139   -7.6209683    827.97838  0.017032387  0.016278365         3988 
 4052000   0.60536674   -7.6251966      828.294  0.017034674  0.016272469         3985 
 4053000    0.5950856   -7.6121105    827.96451  0.017023697  0.016266579         3985 
 4054000   0.59875315   -7.6158665     828.0853   0.01702198  0.016260691         3980 
 4055000   0.61322296   -7.6185321    827.83812  0.017012703  0.016254808         3980 
 4056000   0.60646539   -7.6034012    827.78297  0.017007375   0.01624893         3981 
 4057000    0.5998197   -7.6270815    828.25206  0.017012819  0.016243055         3982 
 4058000   0.59498412   -7.6269569    826.83919  0.016979612   0.01623718         3984 
 4059000   0.58923887   -7.6031608    827.74276   0.01699398  0.016231307         3984 
 4060000   0.60658947   -7.6266635     828.8672  0.017012874  0.016225439         3983 
 4061000   0.60594393   -7.6276359    828.80807  0.017007471  0.016219568         3987 
 4062000   0.58058469   -7.6346607    828.82885   0.01700371  0.016213706         3980 
 4063000   0.60631971   -7.6050678    828.68591  0.016996594  0.016207848         3980 
 4064000   0.59898989   -7.6284909    827.90303  0.016976358  0.016201986         3981 
 4065000   0.59290672    -7.614199    827.63414   0.01696667  0.016196131         3976 
 4066000   0.58414377   -7.6230705    827.48392  0.016959418  0.016190279         3991 
 4067000   0.58598279   -7.6337605    827.59957  0.016957618  0.016184423         3983 
 4068000   0.60202202    -7.611202    827.56289  0.016952698  0.016178571         3976 
 4069000   0.59279412   -7.6258331    828.29381  0.016963501  0.016172728         3989 
 4070000   0.60649226   -7.6264369    827.70906   0.01694736  0.016166877         3981 
 4071000   0.60087375   -7.6251988    827.02016  0.016929095  0.016161033         3983 
 4072000   0.60716769    -7.627661     826.6304  0.016916961   0.01615519         3984 
 4073000    0.5925262   -7.6178184    825.88759   0.01689761  0.016149352         3984 
 4074000   0.59010258   -7.6136404    827.28374  0.016922021  0.016143517         3981 
 4075000   0.61361548   -7.6399656    826.47502   0.01690133  0.016137684         3984 
 4076000   0.60058725   -7.6212369    827.37978  0.016915681   0.01613185         3984 
 4077000   0.59501962   -7.6112398    827.45252  0.016913019  0.016126017         3981 
 4078000   0.59447487   -7.6420947    827.27844  0.016905314  0.016120189         3977 
 4079000   0.58882499   -7.6026994    828.35992  0.016923264  0.016114367         3975 
 4080000   0.59575086   -7.6386571    827.43916   0.01690031  0.016108543         3980 
 4081000    0.5889308   -7.6200125    826.96463  0.016886479  0.016102726         3975 
 4082000   0.59226627   -7.6192521    825.47919  0.016852017   0.01609691         3982 
 4083000   0.60275587   -7.6431692     826.6216  0.016871206  0.016091096         3976 
 4084000   0.59686608   -7.6135456    827.80993  0.016891322  0.016085289         3985 
 4085000   0.60473648   -7.6235528    827.61976  0.016883308  0.016079483         3987 
 4086000   0.60367338   -7.6241549    826.86827   0.01686385  0.016073674         3980 
 4087000   0.59525025   -7.6430317    826.79988  0.016858329   0.01606787         3974 
 4088000   0.60082433   -7.6347133    826.17991  0.016841567  0.016062068         3976 
 4089000   0.60154361    -7.638753    827.35521  0.016861401  0.016056262         3972 
 4090000   0.59312115   -7.6220933    827.25206  0.016855176  0.016050466         3970 
 4091000   0.60539288   -7.6308134    826.30298  0.016831724  0.016044677         3983 
 4092000   0.59153383   -7.6334187    828.63856  0.016875174  0.016038889         3975 
 4093000   0.59861693   -7.6267326    827.34145  0.016844642  0.016033098         3968 
 4094000   0.57577124   -7.6229372    827.46372  0.016843017  0.016027308         3964 
 4095000    0.6103092   -7.6395737    826.94694  0.016828387  0.016021529         3983 
 4096000   0.59342076   -7.6312349     826.7479  0.016820229  0.016015746         3981 
 4097000   0.60019718   -7.6383399    827.17488  0.016824808  0.016009966         3989 
 4098000   0.59215539    -7.635553    827.70813  0.016831547  0.016004188         3979 
 4099000   0.59577986    -7.615945    826.92673  0.016811554  0.015998412         3982 
 4100000    0.5937017   -7.6269372    826.97218  0.016808378  0.015992644         3985 
 4101000   0.60208443   -7.6376836    827.39572  0.016812886  0.015986883         3981 
 4102000   0.60405752   -7.6210412    826.81848   0.01679706  0.015981113         3982 
 4103000   0.60136942   -7.6327674    827.66545  0.016810168  0.015975351         3973 
 4104000   0.58081248   -7.6346959     828.2501  0.016817944  0.015969592         3979 
 4105000   0.60048785   -7.6260156    827.14483   0.01679141  0.015963834         3982 
 4106000   0.59121953   -7.6147242    826.18624  0.016767865  0.015958075         3980 
 4107000   0.60232427   -7.6500395    826.96952  0.016779675  0.015952319         3984 
 4108000   0.58846237    -7.620804    826.99847  0.016776178  0.015946571         3977 
 4109000   0.58709433   -7.6365749    828.37891  0.016800091  0.015940822         3985 
 4110000   0.59131405   -7.6200397    827.39363  0.016776027  0.015935076         3976 
 4111000   0.59503338   -7.6468455    826.39681  0.016751739  0.015929327         3982 
 4112000   0.60209347   -7.6557552     825.7197  0.016733943   0.01592358         3983 
 4113000   0.59836684   -7.6242853    827.66573  0.016769303   0.01591784         3974 
 4114000   0.59947846   -7.6451114    827.12503  0.016754275  0.015912101         3988 
 4115000   0.60031952   -7.6232992    827.95337  0.016766978  0.015906366         3986 
 4116000   0.59571455   -7.6188733    827.66227  0.016757011  0.015900633         3987 
 4117000   0.57690807   -7.6257123    826.14228  0.016722174  0.015894902         3983 
 4118000   0.59104952   -7.6373776    825.22532  0.016699557  0.015889172         3979 
 4119000   0.58858945   -7.6493579    827.11572  0.016733748  0.015883445         3977 
 4120000   0.60330904   -7.6404806    827.07602  0.016728884   0.01587772         3981 
 4121000   0.59279824   -7.6414084    826.81118  0.016719469  0.015872002         3981 
 4122000   0.58527367   -7.6405057    827.13882  0.016722037  0.015866284         3976 
 4123000   0.59229517   -7.6161779    827.48329  0.016724943  0.015860571         3979 
 4124000   0.59331933   -7.6186688    826.78986  0.016706876  0.015854855         3978 
 4125000   0.58638495   -7.6390056    825.81103  0.016683051  0.015849143         3987 
 4126000   0.58039191   -7.6415946      827.863  0.016720452  0.015843435         3983 
 4127000    0.5963823   -7.6371149    827.07353  0.016700459  0.015837732         3986 
 4128000   0.58777073   -7.6366455    827.70295   0.01670912  0.015832023         3974 
 4129000   0.57997364   -7.6328669     827.5796  0.016702583  0.015826319         3981 
 4130000    0.5971067   -7.6347273    826.70112  0.016680814  0.015820621         3983 
 4131000   0.59266215   -7.6252228    826.46565  0.016672026  0.015814927         3978 
 4132000   0.60088866   -7.6205727    827.40941  0.016687024  0.015809236         3982 
 4133000   0.59608311   -7.6332119    826.49139  0.016664477  0.015803542         3979 
 4134000   0.59156244   -7.6393055    826.86466   0.01666797  0.015797846         3983 
 4135000   0.58782038   -7.6482317    824.49346  0.016616152  0.015792157         3991 
 4136000   0.58916675   -7.6445211    826.55322  0.016653635  0.015786469         3984 
 4137000   0.59306038   -7.6242596    826.45805  0.016647693  0.015780785         3990 
 4138000   0.59012689   -7.6158499    827.61152  0.016666899  0.015775103         3971 
 4139000   0.58738798   -7.6370677     828.0706  0.016672115  0.015769426         3985 
 4140000   0.58411352   -7.6371982    826.77849  0.016642079  0.015763746         3981 
 4141000   0.58249785   -7.6441404    827.36095  0.016649782  0.015758072         3985 
 4142000   0.59223436   -7.6409213    827.01259  0.016638753    0.0157524         3977 
 4143000   0.59157953   -7.6200112    825.73544  0.016609048  0.015746736         3985 
 4144000   0.57729391   -7.6279073    825.49373   0.01660018  0.015741071         3978 
 4145000   0.60365732   -7.6402216    827.38055  0.016634108  0.015735411         3978 
 4146000   0.59404076   -7.6457126    826.68023   0.01661602  0.015729753         3982 
 4147000   0.58757769   -7.6238089    825.53033  0.016588906  0.015724099         3985 
 4148000   0.58219779   -7.6404961    825.89744  0.016592282  0.015718441         3991 
 4149000   0.58058674   -7.6295745    824.91109  0.016568472  0.015712786         3975 
 4150000   0.59439508   -7.6293457    825.93118  0.016584963  0.015707139         3984 
 4151000   0.56943402    -7.629973    826.63029  0.016595003  0.015701492         3983 
 4152000   0.59195341    -7.649196    827.33898   0.01660523  0.015695844         3982 
 4153000   0.57923657     -7.63266    825.70912  0.016568527  0.015690209         3986 
 4154000   0.58217517   -7.6450737    827.28468  0.016596146  0.015684569         3982 
 4155000   0.59183538   -7.6420341    826.64022  0.016579226  0.015678931         3988 
 4156000   0.59371815   -7.6127252    826.68998  0.016576235  0.015673299         3987 
 4157000    0.5935983   -7.6415658    826.72488  0.016572947  0.015667668         3982 
 4158000   0.58459351   -7.6534295    826.48171  0.016564087  0.015662036         3980 
 4159000   0.58816572   -7.6480944    826.54382  0.016561349  0.015656411         3990 
 4160000   0.58381179   -7.6557301    828.62813  0.016599121  0.015650782         3981 
 4161000   0.57975564   -7.6481748    825.51706  0.016532826  0.015645156         3978 
 4162000   0.59061007   -7.6444068    826.71169  0.016552773  0.015639535         3987 
 4163000   0.58808959   -7.6394063    827.33099  0.016561194  0.015633913         3985 
 4164000   0.58645559   -7.6380253    826.22654  0.016535113  0.015628294         3983 
 4165000   0.58602986   -7.6446986    824.81905  0.016502982  0.015622679         3995 
 4166000   0.57792884   -7.6387637    826.89685  0.016540584  0.015617071         3985 
 4167000   0.58249798   -7.6459442    825.82592  0.016515197  0.015611464         3987 
 4168000   0.58274765   -7.6553093    827.32125  0.016541132   0.01560586         3985 
 4169000   0.58622453    -7.630461    826.56279  0.016522004  0.015600256         3985 
 4170000   0.57381544     -7.64483    825.58016  0.016498404  0.015594652         3981 
 4171000    0.5756498   -7.6460088    826.29725  0.016508776  0.015589051         3970 
 4172000     0.579769   -7.6403486    826.66739  0.016512212  0.015583449         3982 
 4173000   0.59982207   -7.6384144     827.3865  0.016522616  0.015577857         3987 
 4174000    0.5965918   -7.6363955    825.66206  0.016484229  0.015572266         3983 
 4175000   0.58300486   -7.6397408    825.45013  0.016476051  0.015566675         3980 
 4176000   0.58377563   -7.6471817    827.06148   0.01650426  0.015561087         3982 
 4177000   0.57790346   -7.6363677     825.6911  0.016472969  0.015555501         3981 
 4178000   0.58035402    -7.636368    826.18038  0.016478785  0.015549918         3979 
 4179000    0.5770881   -7.6461514    826.77744  0.016486748  0.015544337         3975 
 4180000   0.58764339   -7.6628582    826.02039  0.016467711  0.015538761         3984 
 4181000   0.57970573   -7.6580566    827.11798  0.016485649  0.015533186         3984 
 4182000   0.58188858   -7.6401146    827.13621   0.01648207  0.015527607         3988 
 4183000    0.5888673   -7.6631859     826.2058  0.016459594  0.015522035         3987 
 4184000    0.5741347   -7.6497268     825.6565   0.01644472  0.015516465         3984 
 4185000   0.56653477   -7.6358503    827.13238  0.016470179  0.015510898         3981 
 4186000   0.57982946   -7.6412199    825.94417   0.01644259  0.015505337         3990 
 4187000   0.58635846   -7.6730485    826.62133   0.01645214  0.015499782         3978 
 4188000   0.59707227   -7.6604054    826.92779   0.01645431  0.015494218         3989 
 4189000   0.57359985   -7.6389308    825.94022  0.016430736  0.015488665         3986 
 4190000   0.59649331   -7.6451846    826.64474  0.016440826  0.015483112         3990 
 4191000   0.58410898    -7.669998    826.51398  0.016434303   0.01547756         3980 
 4192000   0.57042982   -7.6488457    826.29376  0.016426005  0.015472009         3986 
 4193000   0.57587696   -7.6337194    827.12507  0.016438609  0.015466462         3986 
 4194000   0.57148202   -7.6411136    826.28281  0.016417954  0.015460919         3988 
 4195000   0.57069151   -7.6550489    826.49807  0.016418317  0.015455377         3985 
 4196000   0.58633518   -7.6372106     825.9312  0.016403146  0.015449836         3985 
 4197000   0.58185504   -7.6410975    826.23356  0.016405241  0.015444302         3984 
 4198000   0.57940119   -7.6620493    826.81294  0.016412834  0.015438771         3984 
 4199000   0.57431258    -7.653844    826.37557  0.016400245  0.015433239         3987 
 4200000   0.58951821   -7.6465643    826.57879  0.016400373  0.015427706         3976 
 4201000   0.57565182   -7.6550318    827.42276   0.01641321  0.015422181         3985 
 4202000      0.56043   -7.6448649    827.02777  0.016401471  0.015416655         3980 
 4203000   0.58709127   -7.6571051    826.84257  0.016393897  0.015411131         3982 
 4204000   0.57656331   -7.6304443    825.25184  0.016358465   0.01540561         3982 
 4205000   0.57552536   -7.6503703    826.53827  0.016380069  0.015400087         3988 
 4206000   0.58125033    -7.663391    826.01889  0.016365884  0.015394574         3990 
 4207000   0.57908763   -7.6567483    827.15544  0.016384507  0.015389058         3987 
 4208000   0.57038629   -7.6404206    826.87418  0.016375043  0.015383548         3981 
 4209000   0.58871854   -7.6510095    826.52333  0.016364206  0.015378042         3982 
 4210000   0.57160645   -7.6699896    826.75076  0.016364821  0.015372538         3988 
 4211000   0.57679497   -7.6329057    826.01049  0.016346285  0.015367033         3972 
 4212000   0.57324368   -7.6525026    825.82182  0.016338672   0.01536153         3978 
 4213000   0.57678251   -7.6460985    826.56039  0.016349402  0.015356027         3977 
 4214000     0.571691   -7.6481245    824.99662  0.016314599   0.01535053         3987 
 4215000   0.57403284   -7.6600373    826.88558  0.016348074  0.015345038         3984 
 4216000   0.57898904    -7.651867    826.85856  0.016343662  0.015339545         3985 
 4217000   0.57452828   -7.6383396     826.3643  0.016330019   0.01533405         3985 
 4218000    0.5831487    -7.641227    826.36647  0.016326191  0.015328565         3980 
 4219000   0.58525154   -7.6530232     826.3816   0.01632262  0.015323077         3989 
 4220000   0.59537985   -7.6422615    827.00127  0.016330989  0.015317592         3990 
 4221000   0.57615274   -7.6649001    826.16605   0.01631063  0.015312114         3980 
 4222000   0.58876535   -7.6428745    825.99842  0.016303459  0.015306633         3983 
 4223000   0.56442766   -7.6605424    825.26631  0.016285151  0.015301158         3984 
 4224000   0.56509978   -7.6755527    826.81421  0.016311833  0.015295682         3987 
 4225000   0.57613845   -7.6584916    825.50852  0.016282219  0.015290212         3978 
 4226000   0.57478347   -7.6611187     824.8318  0.016265022  0.015284745         3979 
 4227000   0.57547282   -7.6458961    825.97694   0.01628375  0.015279282         3978 
 4228000   0.57219813    -7.666948    825.01655   0.01626097  0.015273815         3987 
 4229000   0.57647836   -7.6532838    827.29424  0.016302007  0.015268353         3983 
 4230000   0.56798312   -7.6589898    826.09895  0.016274605   0.01526289         3986 
 4231000   0.58601456   -7.6658112    825.15635  0.016252193  0.015257432         3989 
 4232000   0.57423567   -7.6549767    824.97959  0.016244872  0.015251978         3988 
 4233000   0.55802556   -7.6657073    825.82774  0.016257732  0.015246522         3984 
 4234000   0.58037145   -7.6598203    827.26262  0.016282133  0.015241072         3977 
 4235000   0.58253882   -7.6523908    826.47512  0.016262793  0.015235628         3976 
 4236000   0.57316488   -7.6637129    825.10886  0.016232075  0.015230185         3986 
 4237000   0.57971908   -7.6831985    825.46827  0.016235313  0.015224742         3981 
 4238000    0.5759465   -7.6445628    826.56241  0.016252997  0.015219301         3989 
 4239000   0.57022841   -7.6408812    826.12454  0.016240555  0.015213864         3986 
 4240000   0.56955627    -7.677996    827.58084  0.016265347  0.015208428         3990 
 4241000   0.57959315     -7.66116    825.57273  0.016222053  0.015202995         3985 
 4242000   0.57310613   -7.6577721    825.03861  0.016207736  0.015197559         3985 
 4243000   0.56780604   -7.6703759     825.6178  0.016215292   0.01519213         3983 
 4244000   0.56794542   -7.6536919     825.4998  0.016209154  0.015186705         3983 
 4245000   0.56976928   -7.6446112    824.83651  0.016192315  0.015181282         3987 
 4246000   0.58138358   -7.6618176    826.52528  0.016221645  0.015175856         3983 
 4247000   0.58007984   -7.6562994    825.30155  0.016193814  0.015170438         3982 
 4248000   0.56727768   -7.6649935       826.35   0.01621057  0.015165022         3984 
 4249000   0.56922985   -7.6578867    825.30523  0.016186264  0.015159607         3986 
 4250000   0.56502989   -7.6489402    824.67156  0.016170031    0.0151542         3985 
 4251000   0.56439513   -7.6573189    824.35032  0.016159929  0.015148789         3984 
 4252000   0.57489827   -7.6632087    825.07986  0.016170427   0.01514338         3981 
 4253000   0.57291172    -7.680884    825.93226  0.016183327  0.015137975         3985 
 4254000   0.56762232   -7.6559223    825.95097  0.016179889  0.015132569         3982 
 4255000   0.56217016   -7.6445284    825.10776  0.016159572  0.015127165         3982 
 4256000   0.57497067   -7.6406131    826.27046  0.016178541  0.015121768         3986 
 4257000   0.58008511   -7.6558777    824.84996  0.016146934   0.01511637         3980 
 4258000   0.57319037   -7.6612225    825.28509  0.016151657  0.015110973         3987 
 4259000   0.57263655   -7.6446196    826.43084  0.016170283  0.015105583         3984 
 4260000   0.57251387   -7.6695998    825.86211  0.016155362  0.015100197         3990 
 4261000   0.56404731   -7.6521262    824.79351  0.016130672  0.015094808         3983 
 4262000   0.58074736   -7.6619394    826.90069  0.016168088  0.015089428         3977 
 4263000   0.55572319   -7.6629062    825.60291  0.016138926  0.015084049         3989 
 4264000   0.56908254   -7.6657406    825.53856  0.016133884  0.015078673         3970 
 4265000   0.57125482   -7.6723408    825.79383  0.016135089  0.015073301         3987 
 4266000   0.56874221   -7.6619104    827.79996  0.016170495  0.015067927         3980 
 4267000   0.57880844   -7.6544035    825.85655  0.016128751  0.015062555         3987 
 4268000   0.56750183   -7.6456737    825.54031  0.016118797   0.01505718         3977 
 4269000   0.56648717   -7.6592649    825.08694  0.016106171  0.015051812         3985 
 4270000   0.57105431   -7.6497561    826.14774  0.016123102  0.015046444         3985 
 4271000   0.57787344   -7.6707889    825.75132  0.016111592  0.015041079         3978 
 4272000   0.58236918   -7.6634823    824.89602  0.016091136  0.015035716         3983 
 4273000   0.55127514   -7.6695849    824.11233  0.016072087  0.015030351         3979 
 4274000   0.57094533   -7.6702597    826.19232  0.016108882  0.015024992         3988 
 4275000   0.56348252   -7.6598939        826.4  0.016109162  0.015019636         3981 
 4276000   0.55848188   -7.6560166    826.41159   0.01610562  0.015014285         3987 
 4277000   0.56475802   -7.6526298    825.42814  0.016082693  0.015008934         3988 
 4278000   0.57086789   -7.6678832    825.08678  0.016072284  0.015003586         3991 
 4279000   0.55948799   -7.6410826    823.76463  0.016042779  0.014998236         3989 
 4280000   0.56109358   -7.6651584    825.36297  0.016070151  0.014992892         3988 
 4281000   0.57688825   -7.6701787    824.19657  0.016043692   0.01498755         3970 
 4282000   0.56533071   -7.6747953    825.54647  0.016066217  0.014982212         3979 
 4283000   0.57566318   -7.6679419    824.60291  0.016044107  0.014976876         3982 
 4284000    0.5744098     -7.66828     825.4873  0.016057565  0.014971539         3989 
 4285000     0.562128   -7.6510547    825.73656  0.016058665  0.014966209         3987 
 4286000   0.56341773   -7.6699838    824.84683  0.016037619  0.014960878         3980 
 4287000   0.55192045   -7.6608692     825.8179  0.016052754  0.014955551         3985 
 4288000   0.56391502   -7.6565768    825.22617  0.016037511  0.014950228         3989 
 4289000   0.55402679   -7.6319491    826.43721  0.016057302  0.014944903         3977 
 4290000   0.55004462    -7.675971    825.47688  0.016034904  0.014939587         3988 
 4291000   0.57361358   -7.6842786    825.65421  0.016034611   0.01493427         3979 
 4292000   0.56497458   -7.6618645    826.18007  0.016041086  0.014928956         3976 
 4293000   0.55984968   -7.6795542    825.32682  0.016020786  0.014923645         3976 
 4294000   0.56120726   -7.6555298    824.89225  0.016008622  0.014918336         3976 
 4295000   0.56922905   -7.6641598    825.26388  0.016012105   0.01491303         3981 
 4296000    0.5653597   -7.6653055    825.14006  0.016005976  0.014907726         3984 
 4297000    0.5636748   -7.6667062    824.11949  0.015982459  0.014902423         3982 
 4298000   0.57516924   -7.6776521    825.66549  0.016008715  0.014897127         3987 
 4299000   0.56118096    -7.676316    825.39399  0.015999728  0.014891824         3978 
 4300000   0.56707261   -7.6710826    824.60693  0.015980754  0.014886524         3985 
 4301000   0.55523462   -7.6626017    823.74837  0.015960404   0.01488123         3987 
 4302000   0.54105185   -7.6636814     825.2699  0.015986167  0.014875939         3987 
 4303000   0.56509044   -7.6691922    824.41451  0.015965886  0.014870647         3984 
 4304000   0.56132071    -7.669885    826.62447  0.016004966  0.014865362         3981 
 4305000   0.56702516   -7.6588299    824.72443  0.015964468   0.01486008         3989 
 4306000   0.55036028   -7.6590721    824.54084  0.015957208  0.014854797         3987 
 4307000   0.55576258   -7.6675188    825.91397  0.015980071  0.014849515         3983 
 4308000   0.56812472   -7.6695501    825.25935  0.015963698  0.014844238         3982 
 4309000   0.56738195   -7.6640146    825.90709  0.015972521  0.014838959         3984 
 4310000   0.55860759   -7.6517125    825.33654  0.015957783  0.014833687         3983 
 4311000   0.55816099   -7.6784087    824.91418  0.015945917  0.014828417         3974 
 4312000   0.56180228   -7.6751894    825.62968  0.015956047  0.014823147         3984 
 4313000   0.55983013   -7.6751843    825.28401  0.015945668  0.014817884         3987 
 4314000   0.55434444   -7.6614857    825.88314  0.015953545  0.014812619         3978 
 4315000   0.56467841   -7.6785438      823.418   0.01590224  0.014807355         3980 
 4316000   0.55837179    -7.670091    824.04663  0.015910693  0.014802099         3977 
 4317000   0.54527916   -7.6829807    824.93201  0.015924099  0.014796844         3986 
 4318000   0.56739398   -7.6647683    826.17427  0.015944385  0.014791585         3985 
 4319000   0.56227295   -7.6781686    824.66989  0.015911667  0.014786336         3986 
 4320000   0.56874815   -7.6639837     823.8969  0.015893073  0.014781083         3980 
 4321000   0.54469333   -7.6789086    825.44425  0.015919236  0.014775832         3984 
 4322000   0.56260209   -7.6844992    825.61827  0.015918908  0.014770586         3980 
 4323000   0.56718569    -7.692903    825.86307  0.015919945   0.01476534         3991 
 4324000   0.56313523   -7.7075497    825.88867  0.015916757  0.014760095         3985 
 4325000   0.56107342   -7.6632172    824.98067  0.015895581  0.014754855         3989 
 4326000   0.56182206   -7.6616465    825.51002  0.015902104  0.014749619         3989 
 4327000   0.54684927   -7.6719905    825.50841  0.015898398  0.014744383         3986 
 4328000   0.56415045   -7.6766839    824.77019   0.01588051  0.014739154         3982 
 4329000   0.55673702   -7.6890425    823.75341  0.015857269  0.014733924         3987 
 4330000   0.55892731    -7.671738    825.03013  0.015878178  0.014728697         3980 
 4331000   0.57013141   -7.6897409    825.39478  0.015881528  0.014723464         3991 
 4332000   0.56464934   -7.6816074    824.67474  0.015864011   0.01471824         3985 
 4333000   0.54292057   -7.6780593    825.57554  0.015877674  0.014713021         3982 
 4334000   0.56399521   -7.6785122    824.85754  0.015860205    0.0147078         3983 
 4335000   0.55548005   -7.6834331    826.54162   0.01588892  0.014702579         3983 
 4336000   0.55817641   -7.6899898    823.96916  0.015835816  0.014697365         3986 
 4337000   0.56631457   -7.6975657     824.3007  0.015838535  0.014692152         3981 
 4338000   0.55467694    -7.674006    824.18216  0.015832606  0.014686943         3990 
 4339000   0.55309011   -7.6668219    824.88162  0.015842391  0.014681736         3981 
 4340000   0.56384349   -7.6884867    825.78734  0.015856132  0.014676535         3983 
 4341000   0.55462127   -7.6909102    825.12257  0.015839718  0.014671331         3983 
 4342000   0.56130187   -7.6750537    824.16529  0.015817697   0.01466613         3993 
 4343000   0.56596822   -7.6677575    825.14995  0.015832949  0.014660931         3984 
 4344000   0.55932857   -7.6593415    825.84325  0.015842604  0.014655734         3980 
 4345000   0.55540625   -7.6770574    824.65516  0.015816171  0.014650546         3979 
 4346000   0.55256303   -7.6708942    825.77411  0.015833987  0.014645352         3987 
 4347000   0.54749155   -7.6715152    824.67039  0.015809186  0.014640161         3982 
 4348000   0.55139114   -7.6864998    824.34887  0.015799388  0.014634971         3988 
 4349000   0.54879485   -7.6685709    825.08989  0.015809954  0.014629785         3981 
 4350000   0.55477981   -7.6650197    824.88079  0.015802314  0.014624601         3977 
 4351000   0.56661873   -7.6729568    824.62801  0.015793841  0.014619423         3985 
 4352000   0.54654156   -7.6884912    824.03919  0.015778937  0.014614245         3985 
 4353000   0.53913832   -7.6843129    824.18567  0.015778116  0.014609065         3987 
 4354000     0.566134   -7.6849677    825.10579  0.015792103  0.014603888         3984 
 4355000   0.56338053   -7.6673169    824.51744  0.015777219  0.014598715         3983 
 4356000    0.5580884   -7.6551603    823.96759  0.015763077  0.014593546         3980 
 4357000   0.54952302   -7.6792622    825.27112  0.015784391  0.014588381         3984 
 4358000   0.56287694   -7.6922142    823.57722  0.015748379  0.014583217         3981 
 4359000   0.55633265   -7.6600154    825.24736  0.015776695  0.014578056         3984 
 4360000   0.56699688    -7.685835    825.16069   0.01577142  0.014572893         3977 
 4361000   0.53462681   -7.6778356    823.64122  0.015738768  0.014567737         3983 
 4362000   0.55396935   -7.6882125    826.09621  0.015782061  0.014562581         3983 
 4363000   0.54089034   -7.6606882    824.28389  0.015743829  0.014557424         3983 
 4364000    0.5571582   -7.6956122    825.24245  0.015758525   0.01455227         3977 
 4365000   0.56490122   -7.6753716    823.91382   0.01572955  0.014547121         3986 
 4366000   0.55861478   -7.6854693    825.13312   0.01574922  0.014541976         3981 
 4367000   0.54604978   -7.6760507    825.32965  0.015749364  0.014536832         3981 
 4368000   0.56232987   -7.6756257    823.64559  0.015713629  0.014531688         3986 
 4369000   0.56351777   -7.6911641    824.91123  0.015734173  0.014526545         3981 
 4370000   0.55094767   -7.6744845    824.99705  0.015732209  0.014521407         3983 
 4371000   0.57426679   -7.6804321    823.95345  0.015708714  0.014516269         3981 
 4372000   0.55856652   -7.6930391    825.52886  0.015735149  0.014511134         3985 
 4373000   0.54687709   -7.6903534     823.7311  0.015697292  0.014506003         3981 
 4374000   0.55602503   -7.6837062     824.8126  0.015714308  0.014500872         3982 
 4375000   0.54932678   -7.6844317      824.581  0.015706305  0.014495742         3978 
 4376000   0.54002111   -7.6860221    824.31014  0.015697557  0.014490618         3977 
 4377000   0.53988674   -7.6717562    823.48482  0.015678258  0.014485497         3986 
 4378000   0.54100418   -7.6818721    824.03437  0.015685137  0.014480373         3987 
 4379000   0.53998552   -7.6851393    823.82134  0.015677501  0.014475253         3986 
 4380000   0.55644137   -7.6954798    824.29595  0.015682952  0.014470139         3991 
 4381000   0.54912678   -7.7021814    824.15391   0.01567667  0.014465029         3984 
 4382000   0.55588928   -7.6960734    823.29149  0.015656692  0.014459917         3987 
 4383000   0.54998279   -7.6843996    824.34058  0.015673066  0.014454812         3985 
 4384000   0.54669919   -7.6729176    824.11338  0.015665172  0.014449708         3980 
 4385000   0.55437402    -7.685722    823.33394  0.015646787  0.014444601         3989 
 4386000    0.5700598   -7.6778762     825.3479  0.015681485  0.014439497         3990 
 4387000   0.54992308   -7.6880106    824.91651  0.015669716    0.0144344         3980 
 4388000   0.54262346   -7.6911148    823.85502  0.015645986    0.0144293         3977 
 4389000   0.55621004   -7.7039483    823.26884  0.015631291  0.014424206         3987 
 4390000   0.55364748   -7.6890852    826.13082  0.015682058  0.014419114         3988 
 4391000   0.55041887   -7.6876176    824.40606  0.015645754  0.014414021         3991 
 4392000   0.54355996   -7.6831432    824.11816  0.015636729  0.014408936         3985 
 4393000   0.55635701   -7.7054136    823.48856  0.015621226  0.014403847         3987 
 4394000    0.5524384   -7.6895618      823.596  0.015619709  0.014398761         3985 
 4395000   0.54926891   -7.6865957    824.48348  0.015632982  0.014393676         3987 
 4396000   0.54816917   -7.6743889    824.88914  0.015637116  0.014388597         3983 
 4397000   0.55083457   -7.6871509     825.7194  0.015649295  0.014383521         3984 
 4398000   0.54951939   -7.6942326    823.52949  0.015604242  0.014378445         3983 
 4399000   0.54976631   -7.6773535    823.66844  0.015603327  0.014373371         3982 
 4400000   0.53563355   -7.7014713    825.16927  0.015628206    0.0143683         3984 
 4401000   0.54263008   -7.6942339    824.89314  0.015619426  0.014363229         3981 
 4402000   0.54578305   -7.6884789    824.14314   0.01560168  0.014358165         3986 
 4403000   0.54521701   -7.6963551    823.83664  0.015592336  0.014353098         3989 
 4404000    0.5453379   -7.6932027    824.15416  0.015594803  0.014348038         3986 
 4405000   0.54915714   -7.6977076    823.94609  0.015587327  0.014342977         3986 
 4406000   0.54548323   -7.6930177    823.56448  0.015576571  0.014337918         3984 
 4407000   0.54461261   -7.6909119    824.06106  0.015582427  0.014332866         3987 
 4408000   0.54663384   -7.6997486    823.43359  0.015567029  0.014327814         3984 
 4409000   0.54182144   -7.6900596    825.00075  0.015593119  0.014322767         3981 
 4410000   0.54211112   -7.7011506    825.14541  0.015592317   0.01431772         3993 
 4411000   0.55042885   -7.6864721    824.47187  0.015576057  0.014312674         3983 
 4412000    0.5340225   -7.7084641    825.06021   0.01558364  0.014307629         3985 
 4413000   0.54187976   -7.7100939    823.22848  0.015545519  0.014302585         3988 
 4414000   0.54971952   -7.6961528    823.82099  0.015553183  0.014297544         3982 
 4415000   0.55137708   -7.6872403    823.59472  0.015545389  0.014292505         3986 
 4416000   0.53945667   -7.6859072    824.13875  0.015552135   0.01428747         3985 
 4417000   0.55128892   -7.6809657     824.4102  0.015553736  0.014282438         3982 
 4418000    0.5566767    -7.692786    824.34312   0.01554895  0.014277404         3988 
 4419000   0.56057824   -7.7177046    824.42169  0.015546913  0.014272373         3982 
 4420000   0.53222407   -7.7063995    823.99984  0.015535442  0.014267342         3991 
 4421000   0.55187794   -7.6840325    824.62745  0.015543758  0.014262318         3985 
 4422000   0.54395833    -7.715365    824.16556  0.015531538  0.014257297         3989 
 4423000    0.5422466   -7.6865342    823.76547  0.015520489  0.014252273         3984 
 4424000   0.54159939   -7.6817659    824.10613  0.015523398  0.014247256         3984 
 4425000   0.54304731   -7.6989231    825.97949  0.015555169  0.014242237         3980 
 4426000   0.54718665   -7.6972172    824.97701   0.01553278  0.014237223         3978 
 4427000   0.54470043   -7.6736546    822.65492  0.015485561  0.014232208         3980 
 4428000   0.54439107    -7.705714    824.76877  0.015521845    0.0142272         3983 
 4429000   0.53444931   -7.7058871    823.78918  0.015499909  0.014222191         3990 
 4430000    0.5466134   -7.7085559    823.48151  0.015490623  0.014217186         3988 
 4431000   0.55407026    -7.693457    823.73089  0.015491817  0.014212186         3991 
 4432000   0.54104815   -7.6883592    824.11679  0.015495577  0.014207184         3990 
 4433000   0.54367498   -7.6903159    824.18153  0.015493299  0.014202182         3990 
 4434000   0.54569325    -7.702643    823.33939  0.015473977  0.014197184         3990 
 4435000   0.52707257   -7.6926386    823.96753  0.015482291  0.014192187         3983 
 4436000   0.54478708   -7.7072596     824.6495  0.015491612  0.014187195         3986 
 4437000   0.52929197   -7.6871088    824.03192  0.015476522  0.014182206         3992 
 4438000   0.53894162    -7.709231    824.66944  0.015485005  0.014177216         3981 
 4439000   0.53094435   -7.6984194    823.24532  0.015454782  0.014172228         3982 
 4440000   0.53691801   -7.6927642    824.39577  0.015472894  0.014167242         3986 
 4441000   0.54510938   -7.7132287    823.53391  0.015453237  0.014162259         3989 
 4442000   0.53729399   -7.6917053    822.95686  0.015438933  0.014157278         3989 
 4443000   0.54166779     -7.71129    824.83815  0.015470743  0.014152299         3990 
 4444000   0.54348073   -7.7140829    823.39537  0.015440207  0.014147322         3989 
 4445000   0.54585904   -7.7037781    825.06468  0.015468029  0.014142347         3981 
 4446000   0.53572016   -7.6916915    824.57023  0.015455282  0.014137378         3987 
 4447000   0.55079045   -7.6761507    824.14361  0.015443813  0.014132408         3984 
 4448000   0.53823442   -7.7041436    824.43669  0.015445831  0.014127446         3979 
 4449000   0.54861163    -7.720695    824.21192  0.015438149  0.014122481         3981 
 4450000    0.5268569   -7.6891006    823.66961  0.015424524  0.014117522         3985 
 4451000   0.54789567   -7.6863363    824.29361  0.015432742  0.014112564         3980 
 4452000   0.52848397   -7.6946801    822.68926  0.015399245  0.014107606         3991 
 4453000   0.53863293   -7.7039188    824.47282  0.015429164   0.01410265         3987 
 4454000   0.54241714   -7.6955302    822.25979  0.015384295  0.014097697         3981 
 4455000   0.53554397   -7.7174919    824.67139  0.015425952  0.014092748         3982 
 4456000   0.53736202   -7.6806789    824.50652  0.015419407  0.014087802         3982 
 4457000   0.52916382   -7.7078961     824.1343  0.015408988  0.014082855         3980 
 4458000   0.56279582   -7.7101554    822.90645  0.015382579   0.01407791         3988 
 4459000   0.53145223   -7.7019461    823.98626   0.01539931  0.014072965         3978 
 4460000   0.53516407   -7.7163987    824.21946  0.015400214  0.014068023         3990 
 4461000   0.53073793   -7.7143967    824.62263  0.015404293  0.014063083         3981 
 4462000   0.54989663   -7.6972233    824.09917  0.015391065  0.014058147         3985 
 4463000   0.53637673   -7.7104691    823.76615  0.015381398  0.014053212         3987 
 4464000   0.53502219   -7.7173869    824.79216  0.015397106  0.014048283         3983 
 4465000    0.5290838   -7.7024831    823.64636  0.015372273  0.014043354         3988 
 4466000   0.53215463   -7.7009258    824.99818  0.015394055  0.014038424         3988 
 4467000   0.53362957   -7.6797189    822.94422  0.015352291  0.014033496         3989 
 4468000   0.52724263   -7.7154257     824.0391  0.015369276  0.014028571         3986 
 4469000   0.55167977   -7.7077687    823.47669   0.01535535   0.01402365         3984 
 4470000   0.52940986   -7.7092991    822.50684  0.015333834   0.01401873         3983 
 4471000   0.53318963    -7.705104    823.22384  0.015343768  0.014013811         3983 
 4472000   0.53621882   -7.7036606    823.27519  0.015341294  0.014008901         3992 
 4473000   0.53299431   -7.6983174    822.86204  0.015330167  0.014003993         3988 
 4474000   0.53810606   -7.7105587    822.65588  0.015322901  0.013999083         3984 
 4475000   0.54627875   -7.7003342    824.44662  0.015352823  0.013994175         3989 
 4476000   0.52987407   -7.6975167    823.74397  0.015336312  0.013989268         3989 
 4477000   0.53754249   -7.6958724    822.21384  0.015304405  0.013984365         3982 
 4478000   0.53182497   -7.7094165    823.86395  0.015331695  0.013979461         3987 
 4479000   0.52911947   -7.7103274    823.36045  0.015318904  0.013974563         3988 
 4480000   0.53137431   -7.7008391    824.23609  0.015331773  0.013969664         3989 
 4481000   0.53186761   -7.7037716    823.63349  0.015317144  0.013964769         3994 
 4482000    0.5243646   -7.6950988    825.27407   0.01534423  0.013959878         3982 
 4483000   0.52177816   -7.7004863    822.60635  0.015291218  0.013954985         3985 
 4484000   0.53076326   -7.7169723    823.64953  0.015307195  0.013950091         3981 
 4485000   0.53336393   -7.6992947    823.94484  0.015309269  0.013945205         3979 
 4486000   0.53980418   -7.7124812    823.46221  0.015296891  0.013940319         3995 
 4487000   0.53565441   -7.7054823     822.4045  0.015273837  0.013935435         3986 
 4488000   0.51688333   -7.7152742     824.6625  0.015312361  0.013930552         3987 
 4489000   0.54185431   -7.7014979    822.94442  0.015277055   0.01392567         3990 
 4490000   0.52856693   -7.7360449    822.62835  0.015267787  0.013920788         3979 
 4491000   0.53871707   -7.7130514     822.3996  0.015260142   0.01391591         3988 
 4492000   0.53114996   -7.6907245    823.82618   0.01528321  0.013911037         3987 
 4493000   0.53216541   -7.7080213     823.9969  0.015282975  0.013906167         3989 
 4494000   0.53364388   -7.7104544    824.19147  0.015283183  0.013901299         3988 
 4495000    0.5320366   -7.7147974     824.7106  0.015289407  0.013896432         3992 
 4496000   0.53250059   -7.7125983    823.79233  0.015268986  0.013891571         3990 
 4497000   0.53688444   -7.7130798    823.14647  0.015253622  0.013886711         3980 
 4498000   0.53568289   -7.6986753    823.15291   0.01525035  0.013881848         3986 
 4499000   0.54056929   -7.7148458    821.83802  0.015222605   0.01387699         3983 
 4500000   0.52871606   -7.7156024    823.43954   0.01524888  0.013872135         3989 
 4501000   0.53933598     -7.71928    824.71623   0.01526913  0.013867287         3988 
 4502000    0.5376779   -7.7012817    823.23237  0.015238271  0.013862436         3985 
 4503000   0.53581112   -7.7003301    823.04863  0.015231487  0.013857588         3989 
 4504000   0.51944219   -7.7109193    823.14171  0.015229827  0.013852741         3985 
 4505000   0.52905935   -7.7405935    823.24997  0.015228449  0.013847894         3987 
 4506000    0.5364931   -7.6882309    823.36897   0.01522727  0.013843053         3988 
 4507000   0.53223718   -7.7061679      823.277  0.015222191  0.013838218         3993 
 4508000   0.53761749   -7.7074393    823.51828  0.015223275   0.01383338         3984 
 4509000   0.53489555   -7.7135694    824.23262  0.015233101  0.013828543         3985 
 4510000   0.53333287   -7.7098065    825.07356  0.015245262  0.013823707         3988 
 4511000   0.53123346   -7.7219255    823.91716   0.01522052  0.013818876         3988 
 4512000   0.52965049   -7.6988791    822.70193  0.015194702  0.013814045         3990 
 4513000   0.53096571   -7.7143014    824.10535  0.015217249  0.013809219         3985 
 4514000   0.52899142   -7.7031082    821.84643  0.015172176  0.013804394         3977 
 4515000   0.52492063   -7.7202381    824.20901  0.015212422  0.013799573         3986 
 4516000   0.53154391   -7.7276286    823.42415   0.01519457  0.013794752         3986 
 4517000   0.53782684   -7.7239092    824.41252  0.015209441  0.013789938         3988 
 4518000   0.52582042   -7.6965366    823.20472  0.015183797  0.013785121         3981 
 4519000   0.54127407   -7.7074467    822.94508  0.015175649  0.013780305         3988 
 4520000   0.52633488   -7.7201188    823.35551  0.015179858  0.013775491         3983 
 4521000   0.53711205    -7.719218    823.18401  0.015173339   0.01377068         3984 
 4522000   0.53252634   -7.7207862     823.0662  0.015167813   0.01376587         3989 
 4523000   0.52944016   -7.7069612    823.31972   0.01516913  0.013761065         3990 
 4524000   0.51911411   -7.7038744    823.29358  0.015165296  0.013756262         3983 
 4525000    0.5201129   -7.7192547    822.61702  0.015149485  0.013751459         3991 
 4526000   0.53709687   -7.7052724    822.79639   0.01514944   0.01374666         3991 
 4527000   0.52456162   -7.7083147    823.81887  0.015164915  0.013741862         3983 
 4528000   0.53551542   -7.7354672     823.3714  0.015153331  0.013737067         3989 
 4529000   0.52646432   -7.6855806    823.11708  0.015145306  0.013732275         3989 
 4530000   0.52300934   -7.7049175    822.97728  0.015139391  0.013727483         3984 
 4531000   0.53315797   -7.7010178    822.06556  0.015119281  0.013722696         3986 
 4532000   0.53163289   -7.7295096    824.00927  0.015151686  0.013717912         3982 
 4533000    0.5194145   -7.7194601    823.64277  0.015141605  0.013713129         3984 
 4534000   0.53168363   -7.7132642    823.92436  0.015143441  0.013708349         3990 
 4535000   0.53526093   -7.7164091    823.20168  0.015126823   0.01370357         3987 
 4536000   0.52719609   -7.7045843      822.433  0.015109366  0.013698787         3991 
 4537000   0.53368177   -7.7160038    823.52681  0.015126126  0.013694007         3981 
 4538000   0.51569174   -7.7237169    823.04241  0.015113898  0.013689233         3986 
 4539000   0.50460675   -7.7155347    822.70916   0.01510445   0.01368446         3986 
 4540000   0.52519067   -7.7113966    822.39757  0.015095403  0.013679689         3984 
 4541000   0.52036057    -7.719266    822.62255  0.015096208  0.013674922         3987 
 4542000   0.53469904   -7.7261759    822.56941  0.015091909  0.013670156         3985 
 4543000   0.52158102   -7.7098836    823.70201  0.015109363   0.01366539         3989 
 4544000   0.52250014   -7.7069514    823.73882  0.015106712  0.013660627         3988 
 4545000   0.52646338   -7.7219995    823.13075   0.01509224  0.013655868         3992 
 4546000   0.52573197   -7.7205898    822.87677  0.015084264  0.013651106         3986 
 4547000   0.51825276   -7.7385528     824.5563  0.015111728  0.013646352         3990 
 4548000   0.52475629   -7.6986698    822.87437  0.015077587  0.013641599         3985 
 4549000   0.51699434   -7.7089327    822.08573  0.015059825  0.013636847         3988 
 4550000   0.52352859   -7.7280937    823.92464  0.015090195  0.013632095         3985 
 4551000   0.52502642   -7.7211779    823.11975  0.015072141  0.013627349         3986 
 4552000   0.51723819   -7.7151374    822.44544  0.015056485  0.013622603         3985 
 4553000   0.53477222   -7.7166915    822.92796   0.01506201  0.013617862         3981 
 4554000   0.53416579   -7.7232025    823.72713  0.015073326  0.013613123         3982 
 4555000   0.52172234   -7.7335208    824.17422  0.015078197  0.013608385         3977 
 4556000   0.51963996   -7.7259114    824.19665  0.015075297  0.013603645         3989 
 4557000   0.52327096   -7.7293003    823.30808   0.01505574  0.013598909         3990 
 4558000    0.5120148   -7.7328648    823.09762  0.015048589  0.013594179         3992 
 4559000   0.52828408   -7.7160063    823.62902  0.015055002  0.013589448         3984 
 4560000   0.52581428   -7.7185309    824.10359  0.015060373  0.013584721         3982 
 4561000   0.53118033   -7.7197367    822.48278  0.015027457  0.013579996         3973 
 4562000   0.52681642   -7.7290429    823.64664  0.015045423  0.013575274         3982 
 4563000    0.5284746   -7.7034441    823.02738  0.015030816  0.013570551         3987 
 4564000   0.52094973   -7.6967892    822.35935  0.015015326  0.013565833         3983 
 4565000   0.50513465   -7.7353249    822.68625  0.015018004  0.013561116         3981 
 4566000   0.52737349   -7.7395798    822.96075  0.015019725  0.013556398         3985 
 4567000   0.51958649   -7.7124967     823.2822  0.015022301  0.013551685         3990 
 4568000   0.51930239   -7.7256373    824.26141  0.015036876   0.01354697         3987 
 4569000    0.5230749   -7.7328405    823.19997  0.015014226  0.013542258         3989 
 4570000   0.52551707   -7.7190702    822.10546  0.014990982  0.013537545         3979 
 4571000   0.51503602   -7.7318918    822.27425   0.01499078  0.013532837         3991 
 4572000   0.52526079   -7.7169315    821.80725  0.014978989  0.013528132         3986 
 4573000   0.53018326   -7.7516888    823.43864  0.015005442   0.01352343         3984 
 4574000   0.51159204   -7.7278656    823.72057  0.015007298   0.01351873         3987 
 4575000   0.52006308   -7.7476613    823.16604  0.014993917  0.013514032         3992 
 4576000    0.5175539   -7.7293434    823.34328  0.014993868  0.013509336         3993 
 4577000   0.52273194   -7.7392034    823.10659  0.014986283  0.013504639         3984 
 4578000   0.51759918    -7.726478    822.66178  0.014974912  0.013499947         3980 
 4579000   0.50710242   -7.7168543    822.85885  0.014975228  0.013495257         3983 
 4580000   0.51275864   -7.7146145    823.93204  0.014991485  0.013490568         3983 
 4581000   0.51939006   -7.7428722    821.47153  0.014943454  0.013485884         3987 
 4582000   0.51598634   -7.7020541    821.99336  0.014949683  0.013481197         3985 
 4583000   0.52281472   -7.7323142    822.41575  0.014954101  0.013476514         3988 
 4584000   0.51551128   -7.7334148    823.34388  0.014967712  0.013471835         3988 
 4585000   0.51887049   -7.7225657    821.73356  0.014935179  0.013467159         3983 
 4586000   0.52116371    -7.746442    823.93296  0.014971888  0.013462484         3979 
 4587000   0.51752205   -7.7243155     822.0526  0.014934463   0.01345781         3989 
 4588000   0.52130898   -7.7444638    822.48837  0.014939123  0.013453139         3989 
 4589000   0.51831433   -7.7325834    822.73086  0.014940271  0.013448468         3983 
 4590000   0.53016042   -7.7303415    823.43335   0.01494977  0.013443803         3992 
 4591000   0.51206549      -7.7338    822.45519  0.014928759  0.013439139         3983 
 4592000   0.51012319   -7.7251428    822.22066  0.014921252  0.013434476         3986 
 4593000   0.51830273   -7.7346717    822.86324  0.014929662  0.013429815         3992 
 4594000   0.51332779   -7.7148017    821.81213  0.014907345  0.013425157         3987 
 4595000   0.52136196   -7.7239421    822.44266  0.014915536  0.013420496         3985 
 4596000    0.5016345   -7.7274474    822.71551  0.014917238  0.013415842         3985 
 4597000   0.50692359   -7.7255068    822.58168  0.014911567  0.013411188         3982 
 4598000   0.50465655   -7.7292418    822.50924  0.014907011  0.013406537         3989 
 4599000   0.51354521   -7.7300655     823.4629   0.01492105  0.013401886         3995 
 4600000   0.52165086   -7.7286402    821.04356  0.014873977  0.013397237         3990 
 4601000   0.50252224   -7.7335819    821.65563  0.014881831  0.013392594         3991 
 4602000   0.52033824   -7.7268957    821.27446  0.014871695  0.013387953         3985 
 4603000    0.5173147   -7.6994804    822.70509  0.014894364  0.013383314         3980 
 4604000   0.52106791   -7.7445618    822.70071   0.01489105  0.013378678         3987 
 4605000   0.51815439   -7.7404064    822.03044  0.014875686  0.013374039         3985 
 4606000   0.51621444   -7.7444491    822.82423  0.014886818  0.013369404         3983 
 4607000   0.51608852   -7.7369633     822.9725  0.014886269  0.013364774         3981 
 4608000   0.52258354   -7.7395023      821.366  0.014853986  0.013360142         3985 
 4609000   0.52183126   -7.7406229    823.34495  0.014886544  0.013355514         3990 
 4610000   0.50860686    -7.723779     823.5409  0.014886857  0.013350884         3986 
 4611000   0.50782546   -7.7329437    821.63694  0.014849218  0.013346263         3985 
 4612000   0.51136415   -7.7235363    820.72477  0.014829517  0.013341638         3986 
 4613000   0.52517072   -7.7404235    822.83698  0.014864459  0.013337018         3986 
 4614000   0.51195768   -7.7403612    822.42746  0.014853841  0.013332401         3987 
 4615000   0.50576978     -7.73624    822.04746  0.014843761  0.013327789         3985 
 4616000   0.51567232   -7.7320249    822.34717  0.014845956  0.013323175         3982 
 4617000   0.52631979   -7.7297074    821.82442  0.014833305  0.013318562         3985 
 4618000   0.51281029   -7.7283209    823.57037  0.014861599  0.013313954         3982 
 4619000   0.50539712   -7.7273872    822.66637  0.014842072  0.013309349         3985 
 4620000   0.51131765   -7.7412499    822.29016  0.014832074  0.013304741         3985 
 4621000   0.51821123   -7.7125642    821.27997  0.014810647  0.013300137         3988 
 4622000   0.52437472   -7.7417025    822.75037  0.014833953  0.013295538         3981 
 4623000   0.51420391   -7.7330728    821.64607  0.014810838  0.013290938         3990 
 4624000   0.50736514   -7.7116598    821.24739   0.01480045  0.013286339         3983 
 4625000   0.51127657   -7.7405993    821.47704  0.014801388  0.013281744         3993 
 4626000   0.50858454   -7.7371808    821.96023  0.014806893  0.013277152         3989 
 4627000   0.51621765   -7.7264744    821.87164  0.014802097   0.01327256         3986 
 4628000   0.51445332    -7.723405    822.37626  0.014807985  0.013267976         3986 
 4629000   0.51052545   -7.7274789    821.68466  0.014792336  0.013263388         3991 
 4630000   0.50969472   -7.7278527    822.70637   0.01480753  0.013258799         3989 
 4631000   0.51060565   -7.7403237    821.23519  0.014777859  0.013254216         3986 
 4632000   0.50755056   -7.7307381    821.88633  0.014786383  0.013249638         3987 
 4633000   0.49859045   -7.7229314    822.02459  0.014785679   0.01324506         3981 
 4634000   0.49992269     -7.73842    822.85916  0.014797496  0.013240484         3984 
 4635000    0.5020951   -7.7440002    821.80777    0.0147754  0.013235908         3988 
 4636000   0.50842895   -7.7291577    822.65071  0.014787365  0.013231334         3984 
 4637000   0.51280426   -7.7436477    822.59253  0.014783131  0.013226762         3986 
 4638000   0.51949105   -7.7307791    821.88029  0.014767146  0.013222197         3982 
 4639000   0.51122035   -7.7357644    821.09974  0.014749941   0.01321763         3986 
 4640000   0.51373339   -7.7369036     821.2162  0.014748854  0.013213066         3984 
 4641000   0.51457417    -7.744836    821.99036  0.014759577  0.013208508         3990 
 4642000   0.50631581   -7.7432996    822.09851  0.014758339  0.013203943         3989 
 4643000   0.50574914     -7.74404    821.97479   0.01475294  0.013199384         3991 
 4644000    0.5012194   -7.7185243    820.49026  0.014723124  0.013194829         3982 
 4645000   0.51681798   -7.7313234    822.12582  0.014749297  0.013190275         3988 
 4646000   0.51799714   -7.7590418    822.12515   0.01474611  0.013185721         3987 
 4647000   0.51188034   -7.7318974    822.27155  0.014745563  0.013181169         3983 
 4648000   0.50656895   -7.7354338    822.70459  0.014750154  0.013176618         3990 
 4649000   0.50168607   -7.7231643    822.51774  0.014743632   0.01317207         3996 
 4650000   0.51036124   -7.7489369    822.82126  0.014745901  0.013167522         3987 
 4651000    0.4977617    -7.732324    822.85684  0.014743368  0.013162976         3989 
 4652000   0.51361226   -7.7581923    822.30834  0.014730373  0.013158436         3982 
 4653000   0.50834569   -7.7362851    821.03743  0.014704446  0.013153899         3987 
 4654000   0.51332311   -7.7114482    822.61896  0.014729605  0.013149365         3986 
 4655000   0.50085855   -7.7294526    822.48531  0.014724048  0.013144833         3988 
 4656000   0.50713406   -7.7269512    822.32919  0.014718091  0.013140298         3986 
 4657000   0.50773058   -7.7429332     821.5196  0.014700444  0.013135766         3988 
 4658000   0.51344868    -7.745255    822.29074  0.014711084  0.013131235         3986 
 4659000   0.49923123   -7.7411363    822.70389  0.014715316  0.013126709         3986 
 4660000   0.51223852   -7.7426704    820.76271  0.014677445  0.013122183         3980 
 4661000    0.5087922   -7.7405657    822.39047  0.014703398  0.013117662         3989 
 4662000   0.49659626    -7.751845     822.4692  0.014701652   0.01311314         3984 
 4663000   0.49743478   -7.7442574    822.30813   0.01469562  0.013108623         3988 
 4664000   0.50747229   -7.7553869    821.79729  0.014683342  0.013104108         3987 
 4665000     0.507464   -7.7220605    820.86411  0.014663525  0.013099594         3981 
 4666000   0.49210817   -7.7336737    822.07452     0.014682  0.013095082         3981 
 4667000   0.50811741   -7.7472289    821.82026  0.014674314  0.013090572         3986 
 4668000    0.5088644   -7.7467747    822.63451  0.014685706  0.013086063         3987 
 4669000   0.50725302   -7.7577656    821.64814  0.014664956  0.013081554         3992 
 4670000    0.5107831   -7.7565081    822.32161  0.014673833  0.013077052         3990 
 4671000   0.50128456     -7.73808    822.35338  0.014671258  0.013072549         3988 
 4672000   0.50429611   -7.7428793    821.97041  0.014661287  0.013068049         3987 
 4673000    0.5017592   -7.7575648    820.72646  0.014635967  0.013063548         3989 
 4674000   0.50704593   -7.7539423    821.08555  0.014639237   0.01305905         3987 
 4675000   0.50763085   -7.7415892    822.20817  0.014656117  0.013054554         3985 
 4676000   0.49788909   -7.7527705    821.54058  0.014641085  0.013050061         3990 
 4677000   0.50383384   -7.7334123    820.71005  0.014623157  0.013045568         3990 
 4678000   0.49654951   -7.7312223    822.11608  0.014645078  0.013041079         3986 
 4679000   0.50672441    -7.750855    822.22046  0.014643807  0.013036587         3990 
 4680000   0.50289393   -7.7526175    821.07249  0.014620237  0.013032101         3988 
 4681000   0.49752838   -7.7480547    822.04033  0.014634343  0.013027614         3984 
 4682000   0.50591123   -7.7603129    822.72643  0.014643429  0.013023132         3983 
 4683000   0.49852397   -7.7391448    822.68877  0.014639632  0.013018649         3989 
 4684000   0.50859852   -7.7417064    821.50616  0.014615467  0.013014171         3983 
 4685000   0.49989019   -7.7629106    823.34825  0.014645113  0.013009694         3988 
 4686000   0.49859154   -7.7442041    822.50212  0.014626941  0.013005222         3988 
 4687000   0.50998787   -7.7473905     820.9748  0.014596665   0.01300075         3979 
 4688000   0.49850602   -7.7673306    822.09016  0.014613377  0.012996282         3988 
 4689000    0.5021781   -7.7407498    822.23065  0.014612758  0.012991814         3986 
 4690000   0.49819768    -7.746011    821.66155   0.01459953  0.012987345         3989 
 4691000   0.50133097   -7.7497049    822.14712  0.014605044  0.012982877         3977 
 4692000   0.50468789   -7.7340107    821.08366  0.014583043  0.012978416         3991 
 4693000   0.49961967   -7.7443845    821.69302  0.014590756  0.012973958         3982 
 4694000   0.50683399    -7.739395    821.56015  0.014585289    0.0129695         3987 
 4695000   0.49772936   -7.7393145    822.41272  0.014597315  0.012965046         3986 
 4696000   0.50007592   -7.7500512    821.12962  0.014571437   0.01296059         3984 
 4697000    0.4978179   -7.7463655    821.74917  0.014579327   0.01295614         3988 
 4698000   0.50037528    -7.748394    821.38671  0.014569794  0.012951688         3989 
 4699000   0.50244848   -7.7501461    822.76171  0.014591078  0.012947241         3989 
 4700000   0.49178901   -7.7447294    821.08895  0.014558315  0.012942793         3989 
 4701000    0.4905488   -7.7386674    821.73368  0.014566647  0.012938348         3989 
 4702000   0.49211035   -7.7373172    820.27406   0.01453768  0.012933905         3985 
 4703000     0.501276   -7.7701854    821.87115  0.014562888  0.012929467         3990 
 4704000   0.49747529   -7.7693462    822.20952  0.014565787  0.012925027         3990 
 4705000   0.50745079   -7.7350381    822.28563  0.014564039   0.01292059         3985 
 4706000   0.50100442   -7.7450127    821.37206  0.014544767  0.012916154         3990 
 4707000   0.50047896   -7.7460291     822.2795  0.014557742   0.01291172         3994 
 4708000   0.49283053   -7.7574318    821.30494    0.0145374  0.012907287         3990 
 4709000   0.48405081   -7.7625799    822.74708  0.014559834  0.012902854         3991 
 4710000   0.50302249   -7.7570058    821.29638  0.014531075  0.012898427         3985 
 4711000   0.51058489   -7.7655853    821.33599  0.014528692     0.012894         3986 
 4712000    0.4899231   -7.7341152    820.71189  0.014514571  0.012889576         3991 
 4713000   0.48537377   -7.7479924    820.65604  0.014510504  0.012885155         3990 
 4714000   0.50019665   -7.7526174    821.52917   0.01452286  0.012880735         3981 
 4715000   0.51493853   -7.7597016    821.68998  0.014522623  0.012876317         3984 
 4716000   0.48947964   -7.7467334    820.83234  0.014504388  0.012871902         3983 
 4717000   0.48940494   -7.7497506    821.13868  0.014506725   0.01286749         3983 
 4718000   0.50261947   -7.7436172    820.12168  0.014485687   0.01286308         3988 
 4719000   0.50875389   -7.7556417    821.46753  0.014506384  0.012858671         3987 
 4720000   0.50198375   -7.7658869    821.59192  0.014505507  0.012854264         3991 
 4721000   0.49332153   -7.7549538    820.74383  0.014487464  0.012849858         3988 
 4722000   0.48592886   -7.7485527    820.86648  0.014486561  0.012845453         3985 
 4723000   0.49189391   -7.7685701    822.08355  0.014504968  0.012841051         3988 
 4724000   0.49608343   -7.7471798    821.25018  0.014487196  0.012836654         3989 
 4725000   0.50198135   -7.7470257    820.02102  0.014462452  0.012832256         3989 
 4726000   0.49094866   -7.7652274    821.61451   0.01448749   0.01282786         3990 
 4727000   0.47927402   -7.7442784    820.39926  0.014463001  0.012823467         3988 
 4728000    0.4985008   -7.7461276    821.35938  0.014476864  0.012819077         3989 
 4729000   0.49699838   -7.7658811    821.35522   0.01447373  0.012814685         3991 
 4730000   0.50712786   -7.7607741    821.38827  0.014471252  0.012810297         3993 
 4731000   0.50156846   -7.7773471    820.72567  0.014456522  0.012805909         3987 
 4732000   0.48934271   -7.7483628    821.78684  0.014472155  0.012801523         3991 
 4733000   0.49543622   -7.7469313    820.33279  0.014443496  0.012797138         3982 
 4734000   0.50660769   -7.7484185    820.84591  0.014449477  0.012792758         3990 
 4735000   0.48703991   -7.7526685    821.22071  0.014453022  0.012788378         3986 
 4736000   0.48197535   -7.7761576    820.76453  0.014441943  0.012783999         3990 
 4737000   0.50114405   -7.7588787    820.17956  0.014428604  0.012779622         3984 
 4738000   0.48523449   -7.7574959    820.90777  0.014438367   0.01277525         3989 
 4739000   0.50351652   -7.7569346    820.82322  0.014433833  0.012770879         3984 
 4740000   0.49508285    -7.755513    819.72371  0.014411458  0.012766511         3986 
 4741000   0.49352546   -7.7554766    819.92666  0.014411985  0.012762144         3988 
 4742000   0.48807071   -7.7567442    820.52975  0.014419544  0.012757779         3982 
 4743000   0.49428724   -7.7694242    822.33223  0.014448173  0.012753414         3991 
 4744000   0.48870699   -7.7553445    821.23736  0.014425895  0.012749053         3983 
 4745000    0.4817976   -7.7614302    820.90061  0.014416941  0.012744692         3987 
 4746000   0.49502468   -7.7603456    822.05029   0.01443409  0.012740333         3986 
 4747000   0.48726632   -7.7718123    821.41642  0.014419922  0.012735977         3979 
 4748000   0.49208874   -7.7662636    821.23091  0.014413629  0.012731624         3981 
 4749000   0.48998947   -7.7395793    820.38564  0.014395761  0.012727271         3987 
 4750000   0.48289487   -7.7545228    820.37242  0.014392499  0.012722922         3984 
 4751000   0.48805357   -7.7641503    821.21563  0.014404259  0.012718571         3989 
 4752000   0.48908456   -7.7645775    820.11258  0.014381884  0.012714224         3988 
 4753000   0.49319735    -7.759289    821.43678  0.014402075  0.012709878         3987 
 4754000   0.48774297   -7.7454795    822.08315  0.014410376  0.012705536         3988 
 4755000   0.49220231   -7.7682976    821.51643  0.014397414  0.012701195         3987 
 4756000   0.48803534   -7.7618092    821.24998  0.014389718  0.012696853         3986 
 4757000   0.49114913   -7.7699366    821.13649  0.014384705  0.012692515         3985 
 4758000   0.48226981   -7.7568215     821.9344  0.014395656  0.012688177         3980 
 4759000    0.4955874    -7.764841    820.90531  0.014374611  0.012683842         3984 
 4760000   0.49955804   -7.7574113    821.74692  0.014386326  0.012679512         3985 
 4761000   0.48158469   -7.7645548    820.56958  0.014362697  0.012675184         3985 
 4762000   0.48758284   -7.7568006    821.37724  0.014373814  0.012670855         3991 
 4763000   0.49146296    -7.767847      820.864  0.014361817  0.012666529         3979 
 4764000   0.48620251   -7.7682374    820.73657  0.014356573  0.012662204         3986 
 4765000   0.48932443   -7.7765549    820.39218  0.014347537  0.012657881         3990 
 4766000   0.49235126   -7.7569888    821.34093  0.014361116  0.012653559         3984 
 4767000   0.47054124   -7.7470454    819.94748  0.014333744  0.012649242         3983 
 4768000   0.49099165   -7.7627512    821.49495  0.014357784  0.012644925         3985 
 4769000    0.4879722   -7.7563365    819.30991  0.014316592   0.01264061         3985 
 4770000   0.49015049   -7.7657973    820.43338  0.014333218  0.012636297         3987 
 4771000   0.49171461   -7.7643118    821.22424  0.014344027  0.012631985         3978 
 4772000   0.48677242   -7.7622557    821.87173  0.014352328  0.012627679         3987 
 4773000   0.48213018   -7.7569999    820.88369  0.014332071   0.01262337         3988 
 4774000   0.47961306   -7.7781506    821.35439  0.014337285  0.012619063         3992 
 4775000   0.49246176   -7.7435266    821.67273  0.014339838   0.01261476         3987 
 4776000   0.49669564   -7.7589168    820.34654  0.014313696   0.01261046         3987 
 4777000   0.49234833    -7.776792    820.73514  0.014317479  0.012606161         3991 
 4778000   0.47606066   -7.7665133    820.80659  0.014315728  0.012601864         3986 
 4779000   0.48130746   -7.7692337    820.96782  0.014315544  0.012597569         3991 
 4780000   0.48591521   -7.7623486    821.80975  0.014327227  0.012593276         3987 
 4781000   0.49547669   -7.7507806    820.63122  0.014303689  0.012588985         3985 
 4782000   0.49897835   -7.7646735    820.03826  0.014290364  0.012584695         3987 
 4783000   0.48112409   -7.7675377    820.61073   0.01429735  0.012580405         3988 
 4784000   0.48214916   -7.7656242    820.10676  0.014285583  0.012576117         3984 
 4785000   0.48990039   -7.7716622    820.97254  0.014297676  0.012571834         3987 
 4786000   0.49153797   -7.7653297    821.48124  0.014303546  0.012567551         3984 
 4787000   0.48446708   -7.7697058    821.45567  0.014300113   0.01256327         3989 
 4788000   0.49126569   -7.7713887    820.61805  0.014282548  0.012558988         3987 
 4789000   0.47976327   -7.7704771    821.65023  0.014297526  0.012554711         3987 
 4790000   0.47932378   -7.7712673    820.16238  0.014268657  0.012550434         3987 
 4791000   0.48191816   -7.7520011    821.27944  0.014285108  0.012546163         3984 
 4792000   0.48542876   -7.7726506     820.7991  0.014273774   0.01254189         3988 
 4793000   0.48281052   -7.7748793    820.11942  0.014258979  0.012537624         3984 
 4794000   0.47532399   -7.7579853    821.51516  0.014280266  0.012533357         3990 
 4795000   0.48445182   -7.7697657    821.54725  0.014277846  0.012529093         3987 
 4796000   0.48325433   -7.7712095    821.49804  0.014274014  0.012524826         3991 
 4797000   0.46918577   -7.7698285     820.5438  0.014254461  0.012520564         3988 
 4798000   0.48865313   -7.7707316    819.73944   0.01423752  0.012516304         3984 
 4799000   0.48250516   -7.7769834    820.92979  0.014255223  0.012512047         3991 
 4800000   0.48778198   -7.7723331    820.64981  0.014247393   0.01250779         3984 
 4801000   0.47018876   -7.7721424    821.49952  0.014259174  0.012503535         3989 
 4802000   0.47729841   -7.7786179    820.32323  0.014235791  0.012499284         3991 
 4803000   0.48128592   -7.7646368    820.48603  0.014235652  0.012495032         3987 
 4804000   0.47739901   -7.7720864    820.11947   0.01422633  0.012490787         3988 
 4805000   0.47375871   -7.7784741    820.92061  0.014237263  0.012486537         3990 
 4806000   0.48827429   -7.7876554    821.07316  0.014236946  0.012482294         3987 
 4807000    0.4855282   -7.7631286    820.07728   0.01421672  0.012478051         3988 
 4808000   0.46683293   -7.7757827    819.79186  0.014208816  0.012473808         3988 
 4809000    0.4826174   -7.7766151    820.83355  0.014223913  0.012469568         3984 
 4810000   0.47885647   -7.7686818    820.79372  0.014220265  0.012465328         3987 
 4811000    0.4899666   -7.7749872    821.19371  0.014224238   0.01246109         3987 
 4812000   0.49276918   -7.7667502    820.78647  0.014214229  0.012456857         3991 
 4813000   0.48906131   -7.7764754    820.19014  0.014200951  0.012452624         3984 
 4814000    0.4908571   -7.7888484    820.53947  0.014204048  0.012448393         3991 
 4815000    0.4859981   -7.7746629    821.43492  0.014216596  0.012444165         3991 
 4816000   0.47490686   -7.7791998    820.76549  0.014202061  0.012439941         3992 
 4817000   0.48513792   -7.7727555    819.91916  0.014184471  0.012435716         3985 
 4818000   0.47529422   -7.7850745    821.30999  0.014205583  0.012431493         3985 
 4819000   0.47515842   -7.7806788     820.4499  0.014187762  0.012427272         3984 
 4820000   0.48832423   -7.7792984    820.00947  0.014177204  0.012423055         3985 
 4821000   0.46799675     -7.75082    820.27592  0.014178869  0.012418832         3986 
 4822000   0.47871848   -7.7667959    819.77164  0.014167213  0.012414616         3985 
 4823000   0.48566318   -7.7670095     821.7359  0.014198215  0.012410404         3986 
 4824000   0.47825095   -7.7615709    820.01582  0.014165558  0.012406193         3990 
 4825000   0.47544332    -7.768768    820.79364  0.014176056  0.012401985         3989 
 4826000   0.47258073    -7.790051    820.36861  0.014165779  0.012397776         3990 
 4827000   0.48630634   -7.7684365    820.00074  0.014156494  0.012393569         3986 
 4828000   0.47700229   -7.7905745    820.67141  0.014165137  0.012389362         3986 
 4829000   0.47504333   -7.7919898    820.39343  0.014157407  0.012385159         3986 
 4830000   0.46735579   -7.7661264    821.38419   0.01417157  0.012380959         3984 
 4831000   0.48202105   -7.7718438    818.41946  0.014117496  0.012376761         3985 
 4832000   0.47861488   -7.7659351    820.80118  0.014155649  0.012372562         3982 
 4833000   0.48187881   -7.7588467    819.51089  0.014130473  0.012368367         3984 
 4834000   0.48939077   -7.7819137     821.6985  0.014165262  0.012364177         3987 
 4835000   0.48029114   -7.7666895    819.83486  0.014130211  0.012359984         3985 
 4836000   0.47960271   -7.7851638    820.88639  0.014145409  0.012355796         3982 
 4837000   0.47412299   -7.7751359     820.0112  0.014127407  0.012351611         3980 
 4838000   0.46892086   -7.7748042    819.60319  0.014117459  0.012347427         3985 
 4839000   0.47778874   -7.7822405    820.31692  0.014126833  0.012343243         3987 
 4840000   0.48524114   -7.7737975    819.52446   0.01411027  0.012339059         3987 
 4841000   0.48858777   -7.7790627    820.65508  0.014126817  0.012334881         3986 
 4842000   0.48430176   -7.7836821     821.0477  0.014130657  0.012330703         3985 
 4843000   0.47634922   -7.7571829    819.82501  0.014106701  0.012326526         3987 
 4844000    0.4731163   -7.7932942    818.48255  0.014080694  0.012322349         3986 
 4845000   0.47761633   -7.7904711    820.04654  0.014104688  0.012318175         3991 
 4846000   0.47211749   -7.7864736    819.66612  0.014095235  0.012314002         3988 
 4847000   0.48308079    -7.763746    819.40697  0.014087872  0.012309834         3983 
 4848000   0.47675069   -7.7909468    819.98459  0.014094895  0.012305664         3992 
 4849000   0.47719433    -7.781779    819.47508  0.014083232  0.012301497         3986 
 4850000   0.47853831   -7.7744906    819.90088  0.014087644  0.012297332         3993 
 4851000   0.48980714    -7.786197    821.13772  0.014105987  0.012293173         3984 
 4852000   0.47209193   -7.7889074    820.08494  0.014084998  0.012289014         3991 
 4853000   0.46786426   -7.7799528    820.54155  0.014089937  0.012284858         3983 
 4854000   0.47697272   -7.7967389    820.08541  0.014079203  0.012280702         3988 
 4855000   0.47923682   -7.7534823    819.91968  0.014073458   0.01227655         3988 
 4856000    0.4834352   -7.7709505    820.40483  0.014078886  0.012272399         3987 
 4857000   0.47860986    -7.776283    819.76336  0.014064981  0.012268251         3991 
 4858000     0.480803   -7.7718688    819.91501  0.014064687  0.012264105         3986 
 4859000   0.48493368    -7.773866    819.46272  0.014054036  0.012259957         3983 
 4860000   0.48108218     -7.78925    820.65231  0.014071542  0.012255812         3986 
 4861000   0.47554816   -7.7953907    820.65948   0.01406877   0.01225167         3987 
 4862000   0.47950716   -7.7923176    820.58962  0.014064679  0.012247529         3989 
 4863000   0.47685138   -7.7700389    819.86703  0.014049404  0.012243388         3990 
 4864000   0.48219914   -7.7802338    820.85183  0.014063388  0.012239251         3989 
 4865000   0.48210153   -7.7680035    819.62026  0.014039402  0.012235116         3988 
 4866000   0.46495775   -7.7776183     818.9225  0.014024567   0.01223098         3987 
 4867000   0.47044242   -7.8008502     821.3552  0.014063338  0.012226848         3995 
 4868000    0.4768086   -7.7873446    821.36006  0.014060532  0.012222717         3990 
 4869000   0.46831944   -7.7856659    820.50571  0.014043022  0.012218587         3993 
 4870000   0.47898048   -7.7839529    820.39492  0.014038243  0.012214462         3990 
 4871000   0.47959904    -7.776236    820.80668  0.014042405  0.012210336         3990 
 4872000   0.47065432   -7.7944233     821.4775  0.014050997  0.012206214         3984 
 4873000   0.46673043   -7.7702574     820.1156  0.014024824  0.012202092         3988 
 4874000   0.48045448    -7.782761     820.1568  0.014022651  0.012197972         3991 
 4875000   0.47124819   -7.7858591    820.23981  0.014021193  0.012193852         3983 
 4876000   0.47170958   -7.7771191    819.53662    0.0140063  0.012189733         3989 
 4877000   0.47073472   -7.7883587     819.3156  0.013999652  0.012185618         3989 
 4878000   0.46790079     -7.76412    820.57475  0.014018292  0.012181504         3987 
 4879000    0.4818395   -7.7908183    819.28486  0.013993388  0.012177393         3985 
 4880000   0.47977191   -7.7979563    818.82522  0.013982671  0.012173281         3987 
 4881000   0.48245741    -7.795959    821.05472  0.014017871  0.012169173         3991 
 4882000   0.46617327   -7.7927026    820.48239   0.01400523  0.012165065         3988 
 4883000   0.47279663   -7.8007725    820.59086  0.014004213   0.01216096         3993 
 4884000   0.46920465   -7.7817605    820.29833  0.013996354  0.012156855         3992 
 4885000   0.46540981   -7.7831511    820.24554  0.013992589  0.012152752         3990 
 4886000   0.46267489   -7.7840426    819.63131  0.013979249  0.012148651         3991 
 4887000   0.46419948   -7.7796748    819.91391  0.013981207  0.012144555         3993 
 4888000   0.46351586   -7.7926347    820.31541  0.013985192  0.012140459         3983 
 4889000   0.46698601   -7.8039228    819.89583   0.01397518  0.012136363         3990 
 4890000   0.47716782     -7.78629    819.32752  0.013962637  0.012132271         3989 
 4891000   0.45808757   -7.7874821    820.17737  0.013974262  0.012128181         3986 
 4892000   0.46882919   -7.7815948    820.31938  0.013973824  0.012124092         3990 
 4893000   0.46718213   -7.7819983       819.98  0.013965188  0.012120004         3987 
 4894000   0.46655445   -7.7832856    820.77026  0.013975791  0.012115919         3988 
 4895000   0.46891443    -7.778077     820.3942  0.013966534  0.012111835         3987 
 4896000   0.46932104   -7.7742051    820.96343   0.01397337  0.012107757         3981 
 4897000   0.47511848   -7.7970428    818.69064   0.01393184  0.012103677         3989 
 4898000    0.4713396   -7.7952951    820.18846  0.013954479    0.0120996         3986 
 4899000    0.4788143   -7.8024926    820.55729  0.013957905  0.012095525         3984 
 4900000   0.47891403   -7.7702856    820.10648  0.013947389  0.012091452         3987 
 4901000   0.47485026   -7.7877929    819.66403   0.01393702  0.012087379         3989 
 4902000   0.47028831   -7.7886101    819.52162  0.013931756  0.012083309         3991 
 4903000   0.46397032   -7.8096015    818.99506  0.013919965  0.012079242         3983 
 4904000   0.47073977   -7.8056897    819.81579  0.013931073  0.012075173         3987 
 4905000   0.45210992   -7.7897727    819.58852  0.013924372  0.012071107         3987 
 4906000   0.46679157   -7.7836418    818.66878  0.013905911  0.012067042         3992 
 4907000   0.45124409   -7.8050532    820.25565  0.013930026  0.012062981         3990 
 4908000   0.46635277   -7.7890311    818.89483  0.013904082  0.012058921         3990 
 4909000   0.46772096   -7.7956221    820.94588  0.013936068  0.012054861         3985 
 4910000   0.47697855    -7.800147     818.8338  0.013897383  0.012050807         3984 
 4911000   0.45699078   -7.7787466    818.77872  0.013893618  0.012046752         3991 
 4912000   0.45974237   -7.7812869    817.84534  0.013874955  0.012042699         3990 
 4913000    0.4500577   -7.7848667    820.06021  0.013909699  0.012038649         3990 
 4914000   0.46725044   -7.8008608    818.92676  0.013887647  0.012034598         3983 
 4915000   0.45992334   -7.8060461    819.25773  0.013890433   0.01203055         3992 
 4916000   0.47301914    -7.800606    819.32035  0.013888669  0.012026505         3991 
 4917000   0.46711159   -7.7983381    818.75674  0.013876292  0.012022459         3988 
 4918000   0.46608551   -7.8042187     819.7827  0.013890855  0.012018416         3989 
 4919000   0.46398217   -7.7880029    817.74469  0.013853505  0.012014378         3991 
 4920000   0.47798244    -7.786017    819.58656  0.013881886  0.012010339         3985 
 4921000   0.45848942   -7.7848486    819.67442  0.013880553  0.012006305         3987 
 4922000   0.45876529   -7.8065647     819.8866  0.013881325   0.01200227         3985 
 4923000    0.4698327   -7.8006422    820.02865   0.01388091  0.011998237         3988 
 4924000   0.45017785   -7.7989889    819.71825  0.013872838  0.011994206         3986 
 4925000   0.46908234    -7.793262    817.79753  0.013837522  0.011990175         3988 
 4926000   0.46263645   -7.8105324    819.80789  0.013868722  0.011986146         3986 
 4927000   0.46245202   -7.7978195    819.24667  0.013856415  0.011982118         3987 
 4928000   0.47638857   -7.7863435    819.12323  0.013851516  0.011978096         3987 
 4929000   0.46111397   -7.7974988    819.80221  0.013860185  0.011974071         3990 
 4930000   0.46069256   -7.7816081    819.35698  0.013849848  0.011970049         3987 
 4931000   0.47146372   -7.8084245    820.36663  0.013864102   0.01196603         3991 
 4932000   0.46567952   -7.7999202    818.59424  0.013831344  0.011962013         3995 
 4933000   0.46116284   -7.8088242    820.15899  0.013854973  0.011957997         3988 
 4934000   0.45702342   -7.7989531    818.88958  0.013830725  0.011953981         3986 
 4935000   0.46022908   -7.8052482    820.17263  0.013849588  0.011949968         3991 
 4936000   0.46726963   -7.7966593    820.21151  0.013847439  0.011945958         3984 
 4937000   0.47197496   -7.8003505    819.72135  0.013836361  0.011941951         3989 
 4938000   0.46420053   -7.8055515    819.07665  0.013822679  0.011937942         3982 
 4939000   0.46600768   -7.8042818    819.47243  0.013826558  0.011933937         3989 
 4940000   0.45825624   -7.8006447    819.92022  0.013831313  0.011929932         3986 
 4941000   0.46293776   -7.8008174     818.8192  0.013809944   0.01192593         3984 
 4942000   0.46507956    -7.800562    819.62207  0.013820688  0.011921927         3985 
 4943000   0.45651205   -7.8067801    819.62338  0.013817914  0.011917927         3987 
 4944000   0.45662876   -7.7928837    819.46767  0.013812494   0.01191393         3989 
 4945000   0.45476933    -7.789643    818.52367  0.013793793  0.011909932         3991 
 4946000   0.45855713   -7.8047675     818.8828  0.013797055  0.011905939         3988 
 4947000   0.45631712   -7.8008649    819.92406  0.013811806  0.011901948         3987 
 4948000   0.45461743   -7.8118299    820.17038  0.013813163  0.011897961         3988 
 4949000   0.46440623   -7.7883811    819.39312  0.013797284  0.011893975         3989 
 4950000   0.44852332   -7.7995232     819.7763  0.013800948  0.011889989         3980 
 4951000   0.46174634   -7.8020169    818.77516   0.01378131  0.011886006         3990 
 4952000   0.44942196   -7.7946657    818.71873  0.013777577  0.011882023         3987 
 4953000   0.45937797   -7.8030602    818.96866     0.013779  0.011878043         3990 
 4954000    0.4602139    -7.786185    818.53227  0.013768878  0.011874063         3984 
 4955000   0.46729778   -7.7903693    819.88437  0.013788839  0.011870086         3983 
 4956000   0.46456575   -7.7967383    819.95837  0.013787301   0.01186611         3991 
 4957000   0.45798258   -7.7887639    817.45876  0.013742498  0.011862135         3989 
 4958000   0.45894725   -7.8001423    818.81224  0.013762475  0.011858163         3987 
 4959000   0.45882373   -7.8148646    819.83313  0.013776856  0.011854194         3989 
 4960000    0.4535347   -7.7879871    817.80044  0.013739927  0.011850226         3989 
 4961000   0.44537139   -7.7941356    819.25958  0.013761667  0.011846258         3983 
 4962000   0.46906354   -7.8045878    820.39733  0.013778002  0.011842292         3992 
 4963000   0.45762526   -7.8077121    819.79168  0.013765056  0.011838329         3987 
 4964000   0.45592177   -7.7959563    819.25324  0.013753244  0.011834364         3986 
 4965000   0.45485879   -7.7963664    819.29576  0.013751188  0.011830403         3990 
 4966000   0.45365386   -7.8110997    819.35907  0.013749481  0.011826445         3990 
 4967000   0.45547936   -7.8052245    820.33047   0.01376301  0.011822487         3989 
 4968000   0.45586214   -7.8023541    819.95107  0.013753876  0.011818531         3982 
 4969000   0.45476827   -7.8206528    819.98962  0.013751755  0.011814577         3989 
 4970000   0.45687446   -7.8107551    819.25132  0.013736608  0.011810625         3982 
 4971000   0.45316965   -7.8082913    819.18084  0.013732663  0.011806674         3991 
 4972000    0.4596942   -7.8168259    819.31344  0.013732124  0.011802724         3987 
 4973000   0.45734163   -7.8229137    819.70824  0.013735978  0.011798779         3987 
 4974000   0.45202431   -7.8173297    818.95919  0.013720667  0.011794832         3987 
 4975000   0.45390603   -7.8159281    819.33568  0.013724216  0.011790889         3989 
 4976000   0.45041905   -7.7856319    818.73382  0.013711378  0.011786947         3984 
 4977000   0.45734457   -7.8042371    819.06832  0.013714224  0.011783008         3990 
 4978000   0.44602615   -7.8078276    818.53428  0.013702529  0.011779069         3990 
 4979000    0.4550803   -7.8116116    819.04735  0.013708364  0.011775131         3987 
 4980000   0.44953609   -7.8077749    818.15317  0.013690649  0.011771194         3990 
 4981000   0.45222623   -7.8093539     819.1106  0.013703918  0.011767262         3989 
 4982000   0.45827867   -7.8223117    818.91577  0.013697909  0.011763331         3989 
 4983000   0.44549198   -7.8096714    818.22491  0.013683606  0.011759399         3995 
 4984000   0.44907677   -7.8099106    819.43463  0.013701087   0.01175547         3988 
 4985000   0.44657338   -7.8087664    818.14792  0.013676829  0.011751542         3989 
 4986000   0.45812059   -7.8123013     819.6809  0.013699708  0.011747619         3982 
 4987000   0.45193026   -7.8056457    819.61094  0.013695791  0.011743693         3991 
 4988000    0.4489191    -7.807184    818.66647  0.013677267  0.011739773         3988 
 4989000   0.45065203   -7.8060321    818.70939  0.013675242  0.011735855         3989 
 4990000   0.45625575   -7.8072467    819.50193  0.013685737  0.011731941         3989 
 4991000   0.45988404   -7.8086988    819.34303  0.013680342  0.011728028         3990 
 4992000   0.45907904   -7.8063827    819.21238   0.01367542  0.011724116         3982 
 4993000   0.44289698   -7.8056523    818.74776  0.013664927  0.011720203         3988 
 4994000   0.45531161   -7.8073649    817.74969  0.013645536  0.011716293         3993 
 4995000   0.44704175   -7.8241566    818.83801  0.013660961  0.011712381         3980 
 4996000   0.45612232   -7.7910614    818.69147  0.013655782  0.011708475         3990 
 4997000   0.46187974   -7.8076717    819.85344  0.013672427   0.01170457         3991 
 4998000   0.45966551    -7.795992    818.40167  0.013645486  0.011700666         3991 
 4999000   0.44712005   -7.8263083     819.5876  0.013662526  0.011696763         3986 
 5000000   0.45217259    -7.802896    817.65291  0.013627549  0.011692861         3989 
 5001000   0.44825207   -7.7994374    818.79266  0.013643816  0.011688961         3989 
 5002000    0.4466826   -7.8089723    818.27632  0.013632486  0.011685063         3986 
 5003000   0.45024592   -7.8355983    819.38772  0.013648273  0.011681164         3992 
 5004000   0.45451331   -7.8062184    819.21194  0.013642618  0.011677271         3985 
 5005000   0.45552264   -7.8143716    817.57197  0.013612587  0.011673377         3991 
 5006000   0.44595938   -7.8185135    818.54516  0.013626068  0.011669486         3988 
 5007000   0.44247001   -7.8131816    819.26325  0.013635298  0.011665599         3992 
 5008000   0.44151425   -7.8081657     818.4721  0.013619411  0.011661712         3986 
 5009000   0.44786908   -7.8207957    818.07621  0.013610105  0.011657826         3989 
 5010000   0.45582829   -7.8284183    820.22101  0.013643064  0.011653941         3991 
 5011000   0.46009251   -7.8129115    817.78627  0.013599851  0.011650058         3991 
 5012000   0.45260208   -7.8225604    818.58379  0.013610398  0.011646179         3988 
Loop time of 10590.7 on 48 procs for 5000000 steps with 4000 atoms

Performance: 81580.825 tau/day, 472.111 timesteps/s
99.4% CPU use with 48 MPI tasks x no OpenMP threads

MPI task timing breakdown:
Section |  min time  |  avg time  |  max time  |%varavg| %total
---------------------------------------------------------------
Pair    | 641.35     | 681.35     | 732.04     |  74.0 |  6.43
Neigh   | 65.928     | 67.494     | 70.065     |   9.5 |  0.64
Comm    | 550.09     | 600.71     | 644.42     |  88.1 |  5.67
Output  | 41.185     | 41.191     | 41.28      |   0.2 |  0.39
Modify  | 9057.7     | 9089       | 9134.2     |  21.5 | 85.82
Other   |            | 111        |            |       |  1.05

Nlocal:        83.3333 ave          89 max          78 min
Histogram: 4 3 3 8 9 5 4 7 3 2
Nghost:        1750.40 ave        1766 max        1737 min
Histogram: 2 5 7 4 9 6 9 2 1 3
Neighs:        10432.6 ave       11240 max        9592 min
Histogram: 2 3 5 4 7 9 9 5 2 2
FullNghs:      20867.5 ave       22681 max       19300 min
Histogram: 2 5 3 8 10 8 5 4 2 1

Total # of neighbors = 1001640
Ave neighs/atom = 250.41000
Neighbor list builds = 269965
Dangerous builds = 0

#clear
#
#next RN
#
#jump SELF
Total wall time: 2:56:33
