
units lj                  # Use reduced LJ style units
atom_style atomic         # Uncharged point particles
atom_modify map hash      # Needed for indexing of clusters etc
                          # Used to be able to find where atoms are in relation to each other.

lattice fcc 1.0 spacing 1 1 1
Lattice spacing in x,y,z = 1.5874011 1.5874011 1.5874011
region box block 0 10 0 10 0 10 units lattice
create_box 2 box
Created orthogonal box = (0.0000000 0.0000000 0.0000000) to (15.874011 15.874011 15.874011)
  3 by 4 by 4 MPI processor grid
create_atoms 1 box
Created 4000 atoms
  using lattice units in orthogonal box = (0.0000000 0.0000000 0.0000000) to (15.874011 15.874011 15.874011)
  create_atoms CPU = 0.003 seconds
set type 1 type/fraction 2 0.0 78393
Setting atom values ...
  0 settings made for type/fraction
mass 1 1.0
mass 2 1.0
pair_style lj/cut  3.5
pair_modify tail  yes
pair_coeff 1  1  1.0  1.0   # Intearaction between 1 and 1 set with epsilon = 1 and sigma = 1
pair_coeff 1  2  1.5  0.8
pair_coeff 2  2  0.5  0.88

write_data data.0
System init for write_data ...
Neighbor list info ...
  update every 1 steps, delay 10 steps, check yes
  max neighbors/atom: 2000, page size: 100000
  master list distance cutoff = 3.8
  ghost atom cutoff = 3.8
  binsize = 1.9, bins = 9 9 9
  1 neighbor lists, perpetual/occasional/extra = 1 0 0
  (1) pair lj/cut, perpetual
      attributes: half, newton on
      pair build: half/bin/atomonly/newton
      stencil: half/bin/3d
      bin: standard
WARNING: Not all mixed pair coeffs generated from mixing. Use write_data with 'pair ij' option to store all pair coeffs. (../write_data.cpp:312)


#############################
#   M E L T   S Y S T E M   #
#############################

velocity all create 2.4 8172548 mom yes dist gaussian # Assign velocities
                                                    # Temperature 2.4, random number seed, zero linear momentum
                                                                                # Gaussian distribution

timestep 0.002   # simulation timestep
thermo 1000       # output thermodynamic data every 1000 steps bf 100

# Define a fix  in this case with index 1 applied to all
# particles in the simulation. This fix is for simulations
# in the anisotropic NPT ensemble. Note that we use the MTK
# correction.
fix 1 all npt temp 2.4 2.4 0.1 iso 5.68 5.68 0.5 mtk yes tchain 5 pchain 5 # Use NPT ensemble
                                                                         # Set temperature and pressure and damping
                                                                         # Numbers of thermostats in chain and in barostat
run 10000          # run for 10000 steps
Per MPI rank memory allocation (min/avg/max) = 3.642 | 3.644 | 3.648 Mbytes
Step Temp E_pair E_mol TotEng Press Volume 
       0          2.4   -8.3859253            0   -4.7868253   -2.2405722         4000 
    1000    2.3771194   -4.4871205            0  -0.92233289    5.5875552    5161.7788 
    2000    2.3836418   -4.3658861            0   -0.7913173    5.6556832    5224.7302 
    3000    2.4584735   -4.3018931            0  -0.61510473     5.850971    5249.5314 
    4000    2.3494645   -4.3413933            0  -0.81807767     5.623821    5244.0695 
    5000    2.4202134   -4.4169005            0  -0.78748795    5.6284099    5204.3077 
    6000    2.4380988   -4.3641009            0  -0.70786701    5.6781664    5232.1937 
    7000    2.4177473   -4.3548992            0  -0.72918491    5.5060565    5262.6825 
    8000    2.4219515   -4.3286096            0  -0.69659065    5.7073729    5248.6279 
    9000    2.4025211    -4.302581            0  -0.69970027    5.9897341    5218.4739 
   10000    2.3812622   -4.3678595            0  -0.79685929    5.6573319    5225.8716 
Loop time of 2.22486 on 48 procs for 10000 steps with 4000 atoms

Performance: 776679.386 tau/day, 4494.672 timesteps/s
99.5% CPU use with 48 MPI tasks x no OpenMP threads

MPI task timing breakdown:
Section |  min time  |  avg time  |  max time  |%varavg| %total
---------------------------------------------------------------
Pair    | 0.8464     | 0.90773    | 1.0161     |   3.2 | 40.80
Neigh   | 0.16637    | 0.1734     | 0.21637    |   1.8 |  7.79
Comm    | 0.61361    | 0.76174    | 0.85518    |   6.2 | 34.24
Output  | 0.00026024 | 0.00026724 | 0.00033094 |   0.0 |  0.01
Modify  | 0.29508    | 0.36738    | 0.45472    |   7.7 | 16.51
Other   |            | 0.01434    |            |       |  0.64

Nlocal:        83.3333 ave          93 max          75 min
Histogram: 1 3 5 11 6 10 6 5 0 1
Nghost:        1378.29 ave        1403 max        1352 min
Histogram: 1 5 3 4 10 6 10 2 5 2
Neighs:        7286.58 ave        8543 max        6397 min
Histogram: 3 4 4 13 8 9 4 1 1 1

Total # of neighbors = 349756
Ave neighs/atom = 87.439000
Neighbor list builds = 902
Dangerous builds = 182

# Equilibrate just above the melting temperature to avoid step fn in T

fix 1 all npt temp 1.25 1.25 0.1 iso 5.68 5.68 0.5 mtk yes tchain 5 pchain 5
run 2000
Per MPI rank memory allocation (min/avg/max) = 3.642 | 3.644 | 3.648 Mbytes
Step Temp E_pair E_mol TotEng Press Volume 
   10000    2.3812622   -4.3678595            0  -0.79685929    5.6573319    5225.8716 
   11000    1.2318226   -5.8491278            0   -4.0018558     5.692471     4339.317 
   12000    1.2429481    -5.832424            0   -3.9684679    5.6785253    4343.9362 
Loop time of 0.457104 on 48 procs for 2000 steps with 4000 atoms

Performance: 756064.417 tau/day, 4375.373 timesteps/s
99.6% CPU use with 48 MPI tasks x no OpenMP threads

MPI task timing breakdown:
Section |  min time  |  avg time  |  max time  |%varavg| %total
---------------------------------------------------------------
Pair    | 0.19125    | 0.20904    | 0.23501    |   1.6 | 45.73
Neigh   | 0.030358   | 0.031946   | 0.03617    |   0.5 |  6.99
Comm    | 0.13904    | 0.15974    | 0.18417    |   2.5 | 34.95
Output  | 5.0242e-05 | 5.2401e-05 | 6.7044e-05 |   0.0 |  0.01
Modify  | 0.041262   | 0.051791   | 0.061117   |   2.5 | 11.33
Other   |            | 0.004531   |            |       |  0.99

Nlocal:        83.3333 ave          91 max          77 min
Histogram: 1 6 7 6 7 8 5 6 1 1
Nghost:        1553.35 ave        1572 max        1533 min
Histogram: 3 0 2 8 9 9 8 4 4 1
Neighs:        8771.48 ave        9618 max        8005 min
Histogram: 2 4 5 7 8 9 7 3 0 3

Total # of neighbors = 421031
Ave neighs/atom = 105.25775
Neighbor list builds = 142
Dangerous builds = 8

#############################
# L I N E A R  Q U E N C H  #
#############################

# Define solid atoms. This closely follows ten Wolde  Ruiz-Montero and Frenkel  Faraday Discuss  1996  104  93-110
# Compute components of the per-atom q6 vector
compute q6 all orientorder/atom degrees 1 6 components 6 nnn NULL cutoff 1.3 # compute the Q6 parameter.
                                                                             # Use all neighbours within 1.3 unit cell.

# get number of connections
compute coord_number all coord/atom orientorder q6 0.5

# An atom is solid if it has 8 or more connections (of a possible 14)
variable is_solid atom c_coord_number>=8
group solid dynamic all var is_solid    # Must be dynamic to update
dynamic group solid defined

# do clustering
compute cluster solid cluster/atom 1.3 # Create a cluster where all atoms within are solid and max 1.3 units from another member

# define chunks one chunk per cluster
compute clus_chunks solid chunk/atom c_cluster nchunk every compress yes  # Says which atoms are in which chunk

# count the size of each chunk
compute size_chunks solid property/chunk clus_chunks count


# Find the maximum entry in the vector of chunk sizes
variable max_n equal max(c_size_chunks)


# Thermo style which includes this variable
# thermo_style custom step temp pe vol v_max_n

thermo ${N}  # Print the thermo information every 100 steps
thermo 1000  

# Reset the npt fix at a lower temperature (below freezing)
fix 1  all npt temp  ${temp} ${temp}  0.1  iso  5.68  5.68  0.5  mtk yes tchain  5  pchain  5
fix 1  all npt temp  0.45 ${temp}  0.1  iso  5.68  5.68  0.5  mtk yes tchain  5  pchain  5
fix 1  all npt temp  0.45 0.45  0.1  iso  5.68  5.68  0.5  mtk yes tchain  5  pchain  5

dump dmp2 all dcd ${N} traj.dcd
dump dmp2 all dcd 1000 traj.dcd


compute msd all msd com yes
variable twopoint equal c_msd[4]/6/(step*dt+1.0e-6)
fix 9 all vector 10 c_msd[4]
variable fit equal slope(f_9)/6/(10*dt)
thermo_style custom step temp pe c_msd[4] v_twopoint v_fit v_max_n

fix 1 all npt temp 1.25 ${temp} 0.1 iso 5.68 5.68 0.5 mtk yes tchain 5 pchain 5
fix 1 all npt temp 1.25 0.45 0.1 iso 5.68 5.68 0.5 mtk yes tchain 5 pchain 5
run 500000 # 5000000  # Run for this many steps
Neighbor list info ...
  update every 1 steps, delay 10 steps, check yes
  max neighbors/atom: 2000, page size: 100000
  master list distance cutoff = 3.8
  ghost atom cutoff = 3.8
  binsize = 1.9, bins = 9 9 9
  4 neighbor lists, perpetual/occasional/extra = 1 3 0
  (1) pair lj/cut, perpetual
      attributes: half, newton on
      pair build: half/bin/atomonly/newton
      stencil: half/bin/3d
      bin: standard
  (2) compute orientorder/atom, occasional
      attributes: full, newton on
      pair build: full/bin/atomonly
      stencil: full/bin/3d
      bin: standard
  (3) compute coord/atom, occasional
      attributes: full, newton on
      pair build: full/bin/atomonly
      stencil: full/bin/3d
      bin: standard
  (4) compute cluster/atom, occasional
      attributes: full, newton on
      pair build: full/bin/atomonly
      stencil: full/bin/3d
      bin: standard
Per MPI rank memory allocation (min/avg/max) = 9.728 | 9.731 | 9.735 Mbytes
Step Temp PotEng c_msd[4] v_twopoint v_fit v_max_n 
   12000    1.2429481    -5.832424 1.9721523e-34 1.3695501e-36 8.3333333e+20            6 
   13000    1.2460122   -5.8379889   0.56453125 0.0036187899  0.046795292            3 
   14000    1.2546433   -5.8521365    1.0802326 0.0064299555  0.044588584            8 
   15000    1.2686435   -5.8291631    1.5864406 0.0088135587   0.04376592            3 
   16000    1.2569243   -5.8729539    2.0758739  0.010811843  0.042731608            4 
   17000    1.2553839   -5.8461941    2.5614129  0.012555945  0.042412826            4 
   18000    1.2572664   -5.8268684    3.1709227  0.014680197  0.042643571            2 
   19000     1.257867    -5.849541    3.7182237  0.016307998   0.04333065            4 
   20000    1.2273305   -5.8465169     4.262978  0.017762408  0.043789122            3 
   21000    1.2236478   -5.8811483    4.8879881  0.019396778  0.044201052            6 
   22000    1.2298802   -5.8604006    5.3868565  0.020404759  0.044589426            3 
   23000    1.2497459   -5.8357413    6.0630394  0.021967534  0.045094093            1 
   24000    1.2137033   -5.8594402    6.5836455   0.02285988  0.045555739            3 
   25000    1.2274203   -5.8734279    7.0734664  0.023578221  0.045668702            7 
   26000    1.2106008   -5.8530051    7.6899748  0.024647355  0.045780799            3 
   27000    1.2232009   -5.8861473    8.2082262  0.025334031  0.045912579            2 
   28000    1.2092308     -5.86694    8.7629123  0.026080096  0.045930973            3 
   29000    1.2038228   -5.9090316    9.1514335  0.026297222  0.045837804            3 
   30000    1.2209363   -5.9254959    9.6269472   0.02674152  0.045576524            2 
   31000    1.2312405   -5.8916572    10.171157   0.02734182  0.045371359            2 
   32000    1.2164183   -5.9214312    10.781192  0.028076021  0.045249304            3 
   33000    1.2136983   -5.8793656    11.416428  0.028829364  0.045217103            3 
   34000    1.2295602   -5.8814027     12.12139  0.029709288  0.045327849            8 
   35000    1.2175809   -5.8921294    12.738951  0.030330836  0.045504307            2 
   36000    1.2091969   -5.9140593    13.233626  0.030633394  0.045706203            1 
   37000    1.2152928    -5.901683    13.783756  0.031044494  0.045809572            4 
   38000    1.1969419   -5.8916091    14.287805  0.031332904  0.045886383            3 
   39000    1.2166934   -5.9333806    14.882562  0.031800346  0.045932165            2 
   40000    1.2065323   -5.9427939    15.397011  0.032077107  0.045996526            5 
   41000    1.2217252   -5.9177938    15.883255  0.032283038  0.045998305            4 
   42000    1.1827819   -5.9101717    16.449285  0.032637469   0.04601557            3 
   43000    1.2206978   -5.9346038    16.793922  0.032546361  0.045962607            4 
   44000    1.1776703   -5.9183117    17.194419  0.032565188  0.045842736            2 
   45000    1.1942418   -5.8869181    17.616797  0.032623698  0.045677564            6 
   46000     1.190871   -5.8978747    18.222841  0.033012392  0.045498728            6 
   47000    1.2142513   -5.9602002    18.817652   0.03336463  0.045363564            3 
   48000    1.1819235   -5.9261897    19.378697   0.03364357  0.045278049            6 
   49000    1.2018844   -5.9270289    20.041946  0.034084942    0.0452461            3 
   50000    1.1807575   -5.9195526     20.60929  0.034348817  0.045231068            6 
   51000      1.18852   -5.9379995    20.932453  0.034203354  0.045201004            3 
   52000    1.1912499   -5.9156688     21.48847   0.03443665  0.045126119            3 
   53000    1.1704257   -5.9145136    21.850482  0.034356103  0.045026183            4 
   54000    1.1862912   -5.9531808    22.381696  0.034539654  0.044916086            4 
   55000    1.1700965   -6.0006532    22.692628  0.034382769  0.044787987            5 
   56000    1.1746147   -5.9453693    23.097324  0.034371018  0.044635693            2 
   57000    1.1551237   -5.9747799    23.469482  0.034312107  0.044478148            5 
   58000    1.1857999   -5.9511015    23.931372  0.034384156  0.044325418            4 
   59000    1.1784535   -5.9566582    24.503156  0.034608977  0.044179115            2 
   60000    1.1932299   -5.9707152    25.081989  0.034836096  0.044052028            5 
   61000    1.1784279   -5.9634756    25.587925  0.034956182  0.043951464            3 
   62000    1.1565639   -5.9619307    26.180596  0.035188973  0.043858409            3 
   63000    1.1923738   -5.9977217    26.501788  0.035055275   0.04376648            4 
   64000     1.147274   -5.9698577     27.13841  0.035336471  0.043676059            5 
   65000      1.15151   -5.9718395    27.555022  0.035326952  0.043591556            4 
   66000    1.1593147   -6.0089294    28.078635  0.035452821  0.043508731            3 
   67000    1.1454332   -5.9929733    28.646555  0.035630043  0.043441258            4 
   68000    1.1419093   -5.9720354    29.017561  0.035560736  0.043368276            3 
   69000    1.1612085   -6.0146517    29.317236  0.035407289  0.043282557            3 
   70000    1.1382055   -6.0087837    29.544252  0.035171728  0.043166417            4 
   71000     1.167072   -5.9977369    30.007554  0.035220133  0.043040306            5 
   72000    1.1518926   -5.9922042    30.542476  0.035350088   0.04291662           11 
   73000    1.1586333   -6.0008896    30.919543  0.035296282  0.042790771            3 
   74000     1.140143   -6.0198054     31.28658  0.035232635  0.042663929            2 
   75000    1.1524166   -6.0127818    31.653846   0.03517094  0.042531597            2 
   76000    1.1272572   -6.0433515     31.77907  0.034845472  0.042385789            4 
   77000    1.1472538   -5.9960225    32.530018  0.035205647   0.04223859            2 
   78000    1.1453075   -6.0319021    33.099108  0.035362295  0.042126241           15 
   79000     1.128775   -6.0071613    33.372535  0.035203096  0.042015799            2 
   80000    1.1210356   -6.0341124    33.673636  0.035076704  0.041889844           10 
   81000    1.1473488   -6.0295568    34.246783  0.035233316   0.04176103            4 
   82000    1.1378704   -6.0257292    34.625058  0.035188067  0.041638417            2 
   83000    1.1155968   -6.0286674    35.088301  0.035229217  0.041523393            4 
   84000    1.1432405   -6.0197534    35.548662   0.03526653  0.041410967            5 
   85000    1.1534356   -6.0041978     35.96709  0.035261853  0.041305613            4 
   86000    1.1348736   -6.0657996    36.447062   0.03531692  0.041209637            5 
   87000    1.1244615   -6.0533948    36.914612  0.035358823  0.041121134            8 
   88000    1.1303801   -6.0770463    37.179362  0.035207729  0.041025767            4 
   89000     1.124434   -6.0180656    37.591387  0.035197928  0.040920116            8 
   90000    1.1425387   -6.0695341    37.868055  0.035063014  0.040815502           11 
   91000    1.1237183   -6.0020493    38.292551  0.035066438  0.040705797            4 
   92000    1.1248719   -6.0208273    38.779913  0.035126733  0.040594648            6 
   93000    1.1060414    -6.083419    38.793268  0.034760993   0.04047546            4 
   94000    1.1267965   -6.0572324     39.18115  0.034735062   0.04034648            5 
   95000    1.0946911   -6.0800359    39.492226  0.034642303  0.040215351            3 
   96000    1.1182143    -6.054773    40.005673  0.034727146   0.04008527            5 
   97000    1.1199495   -6.0467945    40.154324  0.034496842  0.039966393            4 
   98000    1.1247854   -6.0587222    40.598661  0.034522671  0.039845384            3 
   99000    1.1059743   -6.0641174    41.107852  0.034602569  0.039721103            4 
  100000    1.1325228   -6.0882233    41.493909  0.034578258  0.039605999           14 
  101000    1.0957411    -6.093998    41.748305  0.034445796   0.03948844            2 
  102000    1.1135487   -6.1033867    42.414325  0.034652226  0.039386999            3 
  103000    1.0887011   -6.0673331    42.852029  0.034669926  0.039293005           10 
  104000    1.1143308   -6.0714464    43.340345  0.034727841  0.039201632            8 
  105000    1.1014401   -6.0823116    43.601898  0.034604681  0.039107483            4 
  106000    1.0947312   -6.0607916    44.038546  0.034621498  0.039012968            6 
  107000    1.0783703   -6.1262274    44.401629  0.034580708  0.038927422            4 
  108000     1.102162   -6.1109044    44.945278  0.034679998  0.038842608            4 
  109000    1.1119002   -6.0988902    45.206964  0.034561899  0.038752005            5 
  110000    1.0997672   -6.0845964    45.594404  0.034541215  0.038665114            3 
  111000    1.1024747   -6.0856017    46.006718  0.034539578  0.038576835            4 
  112000    1.0695837   -6.1211365    46.374905  0.034505137  0.038487516            6 
  113000    1.0979005   -6.1347964    46.680366  0.034425049  0.038401657            5 
  114000    1.1009192   -6.1053399    47.102748  0.034431833  0.038319142            6 
  115000    1.1140669   -6.1386109    47.427486  0.034367743  0.038234661            4 
  116000     1.084997   -6.0967394     48.05096  0.034519368  0.038155825            3 
  117000    1.0764852   -6.1535736     48.10788  0.034264872  0.038076229            5 
  118000    1.0658886   -6.1370628     48.64032  0.034350508  0.037991819            4 
  119000    1.0861005   -6.1157894    48.994912  0.034310163  0.037911765            3 
  120000    1.1135251   -6.1314692    49.253133  0.034203564  0.037828087            8 
  121000    1.0714993   -6.1026256    49.334694  0.033977062  0.037740082            4 
  122000    1.0744731   -6.1260887    49.663028  0.033922833  0.037647586            5 
  123000     1.073795   -6.0976753    49.874576  0.033790363  0.037557765            5 
  124000    1.0853509   -6.1122036    50.548131  0.033970518  0.037466104            6 
  125000    1.0848923   -6.1219106    50.435627  0.033623751  0.037375287            3 
  126000      1.06306   -6.1512572    50.906397  0.033668252  0.037281507            9 
  127000    1.0782789   -6.1357684    51.340178  0.033687781  0.037187906            8 
  128000    1.0612905    -6.134331     51.54799  0.033559889  0.037095422            7 
  129000    1.0262759   -6.1691228    52.055639  0.033627674  0.037003187            4 
  130000    1.0537432   -6.1449191    52.302708  0.033527377   0.03691289            4 
  131000    1.0705584   -6.1445206    52.456607  0.033369343  0.036818375            4 
  132000    1.0712051    -6.149642    52.680433  0.033257849    0.0367208            8 
  133000     1.078661   -6.1811281    53.063141  0.033247582  0.036620288            3 
  134000    1.0464339   -6.2011334    53.183738  0.033074464  0.036525752            7 
  135000    1.0236451   -6.1753413    53.666375  0.033127392  0.036430156            5 
  136000     1.050073   -6.1794478    54.120614  0.033162141   0.03633961           12 
  137000    1.0337797   -6.1508957     54.34725  0.033057938  0.036247526            2 
  138000    1.0605356   -6.1618232    54.655459  0.033004504  0.036153598            4 
  139000    1.0366742   -6.1912865    54.998036  0.032972443  0.036059833            5 
  140000    1.0271499   -6.1886887    55.450252  0.033006103  0.035973454            8 
  141000    1.0525994   -6.1703305    55.845914  0.033005859  0.035889817            6 
  142000    1.0495779   -6.1885285    56.388913  0.033092085  0.035808131            4 
  143000    1.0065989   -6.1954295    56.378091  0.032854365  0.035726326            4 
  144000    1.0437932   -6.2224482    56.570382  0.032737489  0.035642667            5 
  145000    1.0492369   -6.2010889    57.135995  0.032836779  0.035558895            3 
  146000    1.0173634   -6.2257309    57.270319  0.032688538  0.035476428            5 
  147000    1.0413367   -6.2107313    57.578195    0.0326407  0.035391453            3 
  148000    1.0211425   -6.2199808    57.803825  0.032547198  0.035307929            2 
  149000    1.0514685    -6.214594    58.192959  0.032546398  0.035224359            4 
  150000    1.0286795   -6.2300384    58.408765  0.032449314   0.03514021            6 
  151000    1.0265744   -6.2683255    58.476634  0.032271873  0.035055308            9 
  152000     1.029343   -6.2381351    59.157243  0.032432699  0.034973194            4 
  153000    1.0279581    -6.242965    59.353599  0.032327668  0.034892973           12 
  154000    1.0233433   -6.2489494     59.67058  0.032289275  0.034812229            3 
  155000    1.0211967   -6.2256556    59.931742  0.032221367  0.034729019            3 
  156000     1.036502   -6.2344781     60.18526  0.032150246  0.034646988           10 
  157000    1.0127573   -6.2318392    60.614641  0.032173376   0.03456671            7 
  158000    1.0070552   -6.2670659    60.821345  0.032078768   0.03448786            6 
  159000    1.0127005   -6.2641628    61.099852  0.032022983  0.034409184           12 
  160000    1.0281792   -6.2798313    61.270808  0.031911879  0.034329167            3 
  161000    1.0322181   -6.2541249    61.908323  0.032043645  0.034253673            6 
  162000    1.0100364    -6.239671    61.980338   0.03188289   0.03417979            9 
  163000    1.0074987   -6.2593276    62.332295  0.031867227  0.034105048            8 
  164000   0.99283131   -6.2807521     62.65521  0.031836997   0.03403009           10 
  165000    1.0065246   -6.2546707    63.023103   0.03182985   0.03395445            4 
  166000    1.0153656   -6.2568291    63.209374  0.031731613  0.033881029            9 
  167000    1.0114885   -6.2549182    63.530938  0.031702065    0.0338056            6 
  168000   0.98883798   -6.2860065    63.802918  0.031648273  0.033729173            7 
  169000   0.99136489   -6.2842485    63.961634  0.031539267  0.033654514            6 
  170000    1.0149182   -6.2914126    64.351739   0.03154497  0.033579395            4 
  171000   0.99440075   -6.3095311    64.492214  0.031428954  0.033506029            6 
  172000   0.98576465   -6.3210084    64.896297  0.031442004   0.03343295            6 
  173000   0.99038459   -6.3080645    65.210225  0.031411476    0.0333599            8 
  174000    1.0019687   -6.2860066    65.539411  0.031388607  0.033287042            4 
  175000    0.9899117   -6.2483197    65.913749  0.031387499   0.03321728            6 
  176000   0.98521089   -6.2601227    66.197648  0.031343583  0.033146208            5 
  177000   0.96936797   -6.2752063    66.409796  0.031266382  0.033076115            6 
  178000   0.97489555   -6.2701501    66.808469  0.031277373  0.033007707            5 
  179000   0.98316672    -6.309041    66.898828  0.031144706  0.032938062            9 
  180000    0.9908716   -6.2972679    67.279221  0.031147787  0.032867365            6 
  181000   0.97707598   -6.3331745    67.424608  0.031042637  0.032797634            6 
  182000   0.97521999   -6.3078547    67.561039  0.030934542  0.032729253            7 
  183000   0.97032789   -6.3393759    67.749071  0.030851125  0.032659398            3 
  184000   0.96621688   -6.3286596    68.168805  0.030873553  0.032586619            5 
  185000   0.95741136   -6.2944691    67.945409   0.03060604  0.032512017            8 
  186000   0.96861847    -6.292886    68.223876  0.030566253  0.032436861            7 
  187000   0.98376711   -6.3404351    68.472391  0.030513543  0.032361593            8 
  188000   0.97776375    -6.312701    68.963728  0.030569028  0.032287069            5 
  189000    0.9564618   -6.2922955    69.039813  0.030440835  0.032214081            6 
  190000   0.95206926   -6.3299505    69.295662  0.030392834   0.03214152            7 
  191000   0.97378184   -6.3571636    69.656671  0.030391218  0.032068205           16 
  192000   0.94682988   -6.3755411     70.00786  0.030385356  0.031997757            8 
  193000   0.95376506   -6.3060383    70.395847  0.030395443  0.031930473            6 
  194000   0.94326456   -6.3425801    70.884149  0.030448518  0.031864596            6 
  195000   0.94472524   -6.3373102    70.787732  0.030251168  0.031798795            5 
  196000   0.95887949   -6.3293844    71.199164  0.030271753  0.031733002           19 
  197000   0.95314788   -6.3510493    71.611687  0.030292592  0.031667303            8 
  198000   0.95435162   -6.3450912    71.395474    0.0300486  0.031599987            9 
  199000   0.94955804   -6.3740124    72.004253  0.030152535  0.031532278            6 
  200000   0.95127017   -6.4084465    71.910429  0.029962679  0.031463922            6 
  201000   0.95623467   -6.3942096    72.083213  0.029885246  0.031395228            7 
  202000   0.95631792   -6.3756714    72.630687  0.029963155  0.031327434            7 
  203000   0.95468612     -6.33303    72.881788  0.029918632  0.031260563           10 
  204000   0.93418316   -6.3995411    73.094405  0.029858826  0.031193689           20 
  205000   0.94392881   -6.3833457    73.479169  0.029869581  0.031130741            9 
  206000   0.93637078   -6.3854552    73.694734  0.029811785  0.031067109            8 
  207000   0.92226839    -6.395839    73.604045  0.029631258  0.031002792           10 
  208000   0.94651205   -6.3760929    73.711971   0.02953204   0.03093605            6 
  209000   0.92825296   -6.3944404    74.021804  0.029514276  0.030867368            9 
  210000   0.93848749   -6.3632591    74.256682  0.029466937   0.03079856            6 
  211000    0.9249608    -6.422751    74.361716  0.029368766  0.030731851            7 
  212000   0.93495186   -6.3985466    74.641516  0.029340219  0.030665395            9 
  213000   0.90170461   -6.4121086    74.882434  0.029296727  0.030598541           18 
  214000   0.92622902   -6.3614965    75.275693  0.029312965  0.030531318           11 
  215000   0.93633745    -6.404935    75.409144   0.02922835  0.030465398           12 
  216000   0.91954451   -6.4120124    75.874177  0.029272445  0.030400013            8 
  217000   0.89738117   -6.4137516    75.888876  0.029143193  0.030334584            7 
  218000   0.91138298   -6.4336595    76.015369  0.029057863  0.030268759            3 
  219000   0.91302804   -6.4672852    76.245431  0.029012721   0.03020289            9 
  220000   0.90266865   -6.4315205    76.488823  0.028973039  0.030137906            6 
  221000    0.9330689   -6.4411297    76.337292  0.028784801  0.030071427           19 
  222000   0.89454722   -6.4522282    76.720226  0.028798884  0.030004829           10 
  223000   0.89709899   -6.4428771    77.232184  0.028861055  0.029938952           16 
  224000   0.89548001   -6.4335664    77.203241  0.028721444  0.029873241           13 
  225000   0.91940486   -6.4280982    77.414039  0.028671866   0.02980844           13 
  226000   0.90433074   -6.4331999    77.675504   0.02864141  0.029743239           18 
  227000   0.91231982   -6.4379952    77.778404  0.028553012  0.029677557           11 
  228000   0.88591743   -6.4529689    77.926017  0.028481731  0.029613325           18 
  229000    0.9187304   -6.4645159    77.993418  0.028381884  0.029547092           13 
  230000   0.89604694   -6.4502168    78.148132   0.02831454  0.029480108            7 
  231000   0.90646198   -6.4455362     78.33676  0.028260014  0.029412433            9 
  232000   0.89400249   -6.4371547    78.939386  0.028354664  0.029345781            9 
  233000   0.88677113   -6.4725606    78.939369  0.028232965  0.029280189            6 
  234000   0.91017026   -6.4300984    78.876977  0.028090091  0.029214455            8 
  235000   0.90336133   -6.4924838    79.006588   0.02801652  0.029146976            9 
  236000    0.8942708   -6.4641574    78.996362  0.027894196  0.029079016           10 
  237000   0.89713026   -6.4551317     79.10618  0.027815113    0.0290093            4 
  238000   0.89490863   -6.4580576    79.734972  0.027918408  0.028940127            8 
  239000   0.88940924   -6.4487528    79.351989  0.027668057  0.028870833            6 
  240000   0.88478582   -6.5012797    79.343963  0.027549987   0.02879991           10 
  241000   0.90000323    -6.509669    79.412166  0.027459255  0.028727633           16 
  242000   0.87189511   -6.4942613    79.643673  0.027425507  0.028655182           10 
  243000   0.88146997   -6.4910997    79.426366  0.027238123  0.028582005           11 
  244000   0.87906234   -6.5083807    79.772597   0.02724474  0.028507889            9 
  245000   0.87111636   -6.4956833    80.004623  0.027212457  0.028433685            9 
  246000   0.87322351   -6.5092237    79.988068  0.027096229  0.028359985           27 
  247000   0.86655128   -6.4793424    80.263112  0.027079322  0.028286576           10 
  248000   0.88097956   -6.5158418    80.314132  0.026987276  0.028213208           13 
  249000   0.87765389   -6.4758758    80.587479  0.026970375  0.028140721           20 
  250000   0.85279086   -6.5349577     80.53349  0.026844497  0.028068071           12 
  251000   0.87026355   -6.5511789     80.96557  0.026880999  0.027994659            7 
  252000   0.86920182   -6.4955391     80.99823  0.026785129  0.027921752            6 
  253000    0.8749179   -6.5338542    80.624934  0.026556302  0.027847682            7 
  254000   0.85144841    -6.517892    80.866044  0.026530854  0.027773192            7 
  255000      0.85909   -6.5509307    80.935993  0.026449671  0.027697381           13 
  256000   0.87185545   -6.5491341    81.241565  0.026445822  0.027622241            8 
  257000   0.86546972   -6.5080217    81.412528  0.026398355  0.027548204            5 
  258000   0.85924403   -6.5264392    81.450056  0.026308157  0.027475043           16 
  259000   0.84585212   -6.5399587    81.316691  0.026163672   0.02740117           10 
  260000   0.87317053   -6.5552453     81.74087  0.026198997  0.027326736            3 
  261000   0.86855765   -6.5159774    82.008586  0.026184095  0.027254476            9 
  262000   0.84662178   -6.5563409    82.461385  0.026228176   0.02718357            6 
  263000   0.83690288   -6.5576775    82.294598  0.026075601  0.027112759           11 
  264000   0.83694974     -6.56595    82.392416  0.026007707  0.027041313           16 
  265000   0.85629553   -6.5677856    82.566224  0.025964221  0.026969719            7 
  266000   0.83904224   -6.5616433    82.820772  0.025946357  0.026898512           13 
  267000   0.84458862   -6.5289861    83.027836  0.025913807  0.026827396            8 
  268000   0.83030439   -6.5744531    82.871411  0.025768474  0.026755975           18 
  269000   0.84526012   -6.5572632    82.946223  0.025695856  0.026684787           10 
  270000   0.84560587   -6.5579715    83.097097  0.025647252  0.026612517           29 
  271000   0.82880203    -6.602372    83.095866  0.025552234  0.026541402           19 
  272000   0.84311994   -6.6060713    83.435938  0.025562481  0.026470569           19 
  273000    0.8320677     -6.58548    83.607501  0.025521215   0.02640073           26 
  274000   0.84480767   -6.5830704     83.48227  0.025389985  0.026330813           35 
  275000    0.8401339    -6.603164    83.714535  0.025368041   0.02626062           53 
  276000   0.84595001   -6.6025891    83.705943  0.025273533  0.026191159           20 
  277000   0.83135507   -6.6028419    83.904389  0.025241994  0.026121365           27 
  278000   0.83375864   -6.5920399    84.044653  0.025193241  0.026051548           21 
  279000   0.81222822   -6.6271795    84.072626  0.025111298   0.02598174           15 
  280000   0.82202636   -6.5873407    84.241838  0.025071976  0.025912239           17 
  281000   0.82940079   -6.6165946    84.492191  0.025056996  0.025843323           19 
  282000   0.82613945   -6.5970674    84.549569  0.024985097  0.025775077           10 
  283000    0.8202964   -6.6041656     84.68433  0.024936493  0.025707901            9 
  284000   0.80610917   -6.6210362    84.914542  0.024916239  0.025640688           21 
  285000   0.82483672   -6.6276026    85.081868  0.024877739  0.025573057           23 
  286000   0.81594252    -6.645153    84.936559  0.024748415  0.025505641           24 
  287000   0.80985474   -6.6147318    85.059691  0.024697936  0.025438067           12 
  288000   0.80930567   -6.5931573    85.405233  0.024712162  0.025370974           14 
  289000   0.81602151    -6.629835    85.620034  0.024688591  0.025304809           15 
  290000   0.79672774   -6.6321226    85.869398  0.024675114  0.025238772           11 
  291000   0.81289852   -6.6023041    85.787782  0.024566948  0.025173724           17 
  292000   0.81255626   -6.6232766    86.086947  0.024568192  0.025108429           18 
  293000   0.82390521   -6.6540889    86.013645  0.024463494  0.025043263           18 
  294000    0.7942748   -6.6457791     86.47173  0.024510127  0.024978858           22 
  295000   0.81033774   -6.6455309    86.256865  0.024366346  0.024914436            7 
  296000   0.80100528   -6.6690116    85.994086  0.024210047  0.024849205           15 
  297000   0.79325616   -6.6585005    86.453948  0.024257561  0.024784041           18 
  298000   0.78149762   -6.6637875    86.377121  0.024154676  0.024719039           22 
  299000    0.7998425   -6.6466386    86.463384  0.024097933  0.024654085           42 
  300000    0.7948449   -6.6605524    86.711567  0.024086546  0.024589502           33 
  301000   0.79385189   -6.6772545    86.726502  0.024010659  0.024525059           14 
  302000   0.77080073   -6.6826665    86.438534  0.023851693  0.024459922           53 
  303000   0.79833741   -6.6637713    86.418021  0.023767332   0.02439337           13 
  304000   0.77843124   -6.6752582    86.779739  0.023788306  0.024326738           37 
  305000    0.7697483   -6.6753273    86.889375  0.023740266  0.024260354           29 
  306000   0.79229964   -6.7093795    86.520583   0.02356225  0.024194081           25 
  307000   0.77347298   -6.6857182    86.771687  0.023553661  0.024127619           21 
  308000   0.76293561   -6.7053847    86.685605  0.023453898  0.024061062           13 
  309000    0.7788214   -6.7000219    86.899992  0.023435812  0.023995101           20 
  310000   0.77987229   -6.6846083    87.093773  0.023412305  0.023928667           22 
  311000   0.78176193   -6.7005723    86.796188  0.023257285  0.023861942           15 
  312000   0.78082042   -6.7400364    86.943561  0.023222105  0.023795147           22 
  313000   0.77289828   -6.7146748    87.053109  0.023177079  0.023728083           11 
  314000   0.76760918   -6.7174878    87.081447  0.023110787  0.023661108           59 
  315000   0.75724271   -6.6864842    87.234992   0.02307804  0.023594389           77 
  316000   0.76143722   -6.7211679    87.349237  0.023035136  0.023527969           24 
  317000   0.76418497   -6.7316409    87.326743  0.022956557  0.023461851           26 
  318000   0.75676389   -6.6916676    87.565426  0.022946915  0.023396527           57 
  319000   0.76943786   -6.6834713    87.837629  0.022946089  0.023331975           16 
  320000    0.7391258   -6.7381301    87.558315  0.022801644  0.023266859           21 
  321000   0.76064528   -6.7155834    87.486416  0.022711946  0.023201857           22 
  322000   0.74899183   -6.7362779    87.619552  0.022675867  0.023136951           72 
  323000   0.76168634    -6.729948     87.74133  0.022637082   0.02307128           39 
  324000   0.75270586    -6.746492    87.916439  0.022612253  0.023006071           27 
  325000   0.73342105    -6.725941    87.916775  0.022542763  0.022941305           20 
  326000   0.74846692   -6.7437638    87.940322  0.022479632  0.022876464           37 
  327000   0.73928575   -6.7732839    87.908992  0.022402903  0.022811419           26 
  328000   0.73941739   -6.7602188    87.947604  0.022344412  0.022746881           20 
  329000   0.73975772   -6.7814721     88.14929  0.022327581   0.02268285           25 
  330000   0.76084371   -6.7789548    88.185697  0.022269115   0.02261885           50 
  331000   0.74617431   -6.7642714    88.526528  0.022287645  0.022555021           35 
  332000   0.72046358    -6.762465     88.17001  0.022131027  0.022491221           40 
  333000   0.73560434   -6.7779945    88.378214   0.02211667  0.022427578           43 
  334000    0.7339922   -6.7748199    88.282671  0.022026614   0.02236394           29 
  335000   0.73473188   -6.7864465    88.386167  0.021986609  0.022300125           74 
  336000    0.7550189   -6.7891952    88.215917  0.021878948  0.022235888           33 
  337000   0.73268043   -6.8359418    88.193434  0.021808465  0.022171399           55 
  338000    0.7268145   -6.8139576    88.303979  0.021771198  0.022106865           75 
  339000   0.73134913   -6.8108085    88.165942  0.021673044   0.02204255           57 
  340000   0.73334894   -6.8225953    88.442344  0.021677045  0.021978403           23 
  341000   0.72759676   -6.8124877    88.323073  0.021584329  0.021914235           16 
  342000   0.72503473   -6.7854143    88.336989  0.021524607  0.021849994           22 
  343000   0.71395667   -6.8118242    88.479513   0.02149648  0.021786286           29 
  344000   0.72318065   -6.8130029    88.399814  0.021414684  0.021722374           29 
  345000   0.70770667    -6.798406    88.532039   0.02138455  0.021658337          115 
  346000   0.71525146   -6.8137148    88.279974  0.021262036  0.021594417           72 
  347000   0.72362678    -6.822624    88.272201  0.021198896  0.021530131           87 
  348000   0.70388746   -6.8411095    88.296992  0.021143916  0.021465548          141 
  349000   0.72352493   -6.8341415    88.399863  0.021107895  0.021401537           76 
  350000   0.71381803   -6.8244074    88.381652   0.02104325  0.021337446           47 
  351000    0.6912683   -6.8353276    88.587321  0.021032127  0.021273728           45 
  352000   0.70988634   -6.8333174    88.216937  0.020884692   0.02120958          101 
  353000   0.71813004   -6.8745522    88.278741  0.020840118   0.02114508          172 
  354000   0.70580678   -6.8686947    88.434048  0.020817808  0.021081027          136 
  355000   0.69743157    -6.879166     88.27566  0.020721986  0.021016777          396 
  356000   0.68556794   -6.8598192    88.212051  0.020648888  0.020952631          530 
  357000   0.70691106   -6.8746062    88.364517  0.020626638  0.020888511          535 
  358000   0.70871856   -6.8656222    88.403562   0.02057811  0.020824858          676 
  359000   0.71464897   -6.8937766    88.275774  0.020491127  0.020761269          717 
  360000   0.69733842   -6.9054349     88.37082  0.020456208  0.020697612          728 
  361000   0.68389855   -6.8955308    88.423701   0.02041175  0.020634109          756 
  362000   0.69063936   -6.9049318    88.366378  0.020342168  0.020570817          929 
  363000   0.68749294   -6.8876535    88.481321  0.020312516  0.020507749          928 
  364000   0.69232594   -6.8993786    88.421273  0.020242965   0.02044487          930 
  365000   0.67281933   -6.9125635    88.660802  0.020242192  0.020382048          934 
  366000   0.70193707   -6.9410616    88.523776  0.020155687  0.020319569         1111 
  367000    0.6884341   -6.9684005    88.528622  0.020101867  0.020257258         1297 
  368000   0.68993659   -6.9695429    88.611312  0.020065967   0.02019486         1369 
  369000   0.68186136   -6.9795825    88.484218  0.019982886  0.020132379         1435 
  370000   0.66624358   -6.9680543    88.322041  0.019892352  0.020070253         1362 
  371000   0.67625558    -6.992029    88.510437   0.01988105  0.020008231         1396 
  372000   0.68188521   -7.0109117    88.645923  0.019857958  0.019946134         1485 
  373000   0.68027143   -7.0177933    88.388476  0.019747202  0.019884071         1641 
  374000   0.67138593   -6.9968938    88.476225  0.019713954  0.019822208         1659 
  375000   0.67938366   -7.0173324     88.51912  0.019670916  0.019760539         1680 
  376000   0.66237176    -7.015392    88.562066  0.019628117  0.019699073         1692 
  377000   0.66594938   -7.0476475    88.430037  0.019546869  0.019637713         1780 
  378000   0.67616119   -7.0411327    88.357069  0.019479072  0.019576246         1968 
  379000   0.65300978   -7.0464301    88.572304  0.019475001  0.019514883         1931 
  380000   0.64628909   -7.0197628    88.516051  0.019411415  0.019453558         1988 
  381000   0.67405484   -7.0745844    88.203524  0.019292109  0.019392223         2078 
  382000   0.66669801   -7.0897846    88.381994   0.01928054  0.019331005         2157 
  383000    0.6481093   -7.1047723    88.287056  0.019209542  0.019269812         2287 
  384000   0.64972744   -7.0893836    88.454571   0.01919587  0.019208656         2288 
  385000   0.65060496   -7.1058601     88.38788  0.019131576  0.019147771         2423 
  386000   0.65191837   -7.1290665    88.317239  0.019066761  0.019087239         2428 
  387000   0.64648843   -7.1195809    88.356279    0.0190259  0.019026664         2473 
  388000   0.63092837   -7.1423591    88.276043  0.018959631  0.018966004         2501 
  389000   0.61884238   -7.1539944    88.214471  0.018897702  0.018905302         2618 
  390000   0.63419682   -7.1528075    88.182028  0.018842314  0.018844747         2759 
  391000   0.64336744   -7.1828011    88.168791  0.018791302  0.018784371         2851 
  392000   0.62634636   -7.1889878    88.143183  0.018737921  0.018724094         2887 
  393000   0.63125553   -7.1876181    87.976877  0.018654978    0.0186638         2949 
  394000   0.64651026   -7.2101442    88.032728  0.018619443  0.018603514         3046 
  395000   0.64238763   -7.2277913    88.056779   0.01857738  0.018543262         3063 
  396000    0.6403778   -7.1958543    88.064518  0.018532096  0.018483405         3030 
  397000   0.63913914   -7.2171061    88.192178  0.018512212  0.018423624         3158 
  398000    0.6257347   -7.2167497    88.352495  0.018499266  0.018364103         3138 
  399000     0.626949   -7.2237722    88.008376  0.018381031  0.018304773         3199 
  400000   0.63515407   -7.2494197    88.091678  0.018352433  0.018245494         3220 
  401000   0.63226212   -7.2501399    88.300307  0.018350022  0.018186547         3310 
  402000   0.61848956   -7.2664904    88.006428  0.018243455  0.018127687         3364 
  403000   0.62499402   -7.2769376    88.053083  0.018207833  0.018068916         3353 
  404000   0.63685104   -7.2769681    88.076325  0.018167559  0.018010114         3373 
  405000   0.61736351   -7.2730687    87.960877  0.018098946  0.017951427         3400 
  406000    0.6175455   -7.2925466     88.02014  0.018066531  0.017892928         3378 
  407000   0.62137759   -7.2935901    87.849629   0.01798723  0.017834501         3440 
  408000   0.61417806   -7.2633436    87.712722   0.01791518  0.017776488         3401 
  409000   0.62404205   -7.3017511     87.81805  0.017892838  0.017718532         3466 
  410000   0.62636484   -7.3036404    87.863948  0.017858526  0.017660653         3429 
  411000   0.60903177   -7.2905699    87.872635  0.017816836  0.017602949         3453 
  412000   0.60719254   -7.3125495    87.785505  0.017755968  0.017545355         3529 
  413000   0.61931611   -7.3237515    87.959785  0.017748141   0.01748785         3498 
  414000   0.60380318   -7.2828625    87.798605  0.017672827  0.017430514         3489 
  415000   0.61399934   -7.3065127    87.836825  0.017637917  0.017373415         3512 
  416000   0.60854807   -7.3001611    87.917392  0.017611657  0.017316557         3537 
  417000   0.60827415   -7.3032663    87.848113  0.017555578  0.017260004         3527 
  418000   0.59005137   -7.3113585    87.872589  0.017518459  0.017203635         3538 
  419000   0.58067571   -7.3308163    87.873978  0.017476925   0.01714745         3529 
  420000   0.59460251   -7.3099148    87.721856   0.01740513  0.017091238         3483 
  421000    0.5955336   -7.3241906    87.722514  0.017363918  0.017035259         3572 
  422000    0.5900733   -7.3187974    87.844253  0.017346811  0.016979471         3512 
  423000    0.5903154   -7.3160525    87.734318  0.017284144  0.016923915         3541 
  424000   0.58996926   -7.3175346    87.601159  0.017217209  0.016868366         3525 
  425000   0.59486907   -7.3436818    87.762216  0.017208278  0.016813131         3585 
  426000   0.58953676    -7.335484    87.603031  0.017136743  0.016757994         3594 
  427000   0.59028046   -7.3335581    87.582758  0.017092654  0.016703076         3613 
  428000   0.59589072   -7.3453078    87.679409  0.017071536  0.016648356         3531 
  429000   0.57785995   -7.3475386    87.705928  0.017036893  0.016593722         3583 
  430000   0.58620845   -7.3493377    87.694153  0.016994991  0.016539317         3614 
  431000    0.5859472   -7.3491704     87.73213  0.016962902  0.016485129         3602 
  432000   0.58918118   -7.3496189    87.681826  0.016913932  0.016431163         3594 
  433000   0.58657863   -7.3486166     87.52521  0.016844729  0.016377317         3556 
  434000   0.56943267      -7.3471    87.527887   0.01680643  0.016323734         3568 
  435000   0.58199237   -7.3765929    87.640093   0.01678929  0.016270258         3611 
  436000   0.57478045   -7.3653205    87.625641   0.01674802  0.016216996         3617 
  437000    0.5594822   -7.3655034    87.536326  0.016692663  0.016163911         3601 
  438000   0.56560962    -7.357609    87.636108  0.016673536  0.016111029         3583 
  439000   0.57081462   -7.3962737    87.632549   0.01663488  0.016058258         3607 
  440000   0.55517505   -7.3751512     87.67316  0.016604765  0.016005739         3603 
  441000   0.55920451   -7.3772171    87.441267  0.016523293  0.015953336         3582 
  442000   0.56369357   -7.3849697    87.482291  0.016493645  0.015901122         3586 
  443000   0.56478958   -7.3778552    87.601394  0.016478817  0.015849218         3554 
  444000   0.55890435   -7.3981047    87.552246  0.016432479  0.015797513         3639 
  445000   0.55759812   -7.3699963    87.595541  0.016403659  0.015745988         3601 
  446000   0.56892405   -7.4013208    87.520889  0.016352931  0.015694523         3599 
  447000   0.55123641   -7.3998854    87.611449  0.016333231  0.015643237         3629 
  448000   0.56084354   -7.3908775    87.607342  0.016296009  0.015592128         3592 
  449000   0.55453095    -7.385107    87.470762  0.016234366  0.015541311         3633 
  450000   0.56131248    -7.407539    87.528884  0.016209053  0.015490589         3621 
  451000   0.54959686    -7.394442    87.418573   0.01615273  0.015440127         3599 
  452000   0.55102801   -7.3935056    87.553283  0.016141829  0.015389746         3642 
  453000   0.53879942   -7.4019821    87.515771  0.016099296  0.015339567         3635 
  454000   0.54315686   -7.4092259    87.486963  0.016058547  0.015289564         3635 
  455000   0.54237128   -7.4022006    87.386641  0.016004879  0.015239842         3610 
  456000   0.53361007   -7.4077015    87.429802  0.015977668  0.015190263         3629 
  457000   0.53014426   -7.4052853    87.294564  0.015918046  0.015140743         3629 
  458000   0.53468097   -7.4203997    87.444144  0.015910507  0.015091581         3629 
  459000    0.5315783    -7.425607    87.361577  0.015860853  0.015042521         3625 
  460000   0.52536182   -7.4141647    87.474939  0.015846909   0.01499366         3575 
  461000   0.52958762   -7.4197287    87.397328  0.015798505  0.014945071         3607 
  462000   0.54727041   -7.4211714    87.317315  0.015749876  0.014896582         3633 
  463000   0.51797562   -7.4297153     87.47327  0.015743929   0.01484824         3651 
  464000   0.53942511     -7.40622    87.248227  0.015669581  0.014800112         3613 
  465000   0.51180386    -7.425249    87.312679  0.015647434  0.014752065         3586 
  466000   0.52500416   -7.4356306    87.208804   0.01559528   0.01470422         3630 
  467000   0.53374912   -7.4358953    87.371362  0.015590892   0.01465656         3634 
  468000   0.52554266   -7.4367429    87.188139  0.015524954  0.014609085         3619 
  469000   0.51549943   -7.4433722    87.173389   0.01548923  0.014561759         3603 
  470000   0.51286405   -7.4244626     87.26913   0.01547325  0.014514551         3650 
  471000    0.5157945   -7.4431703    87.114826  0.015413097  0.014467539         3651 
  472000   0.52036147   -7.4582508    87.215658  0.015398245  0.014420714         3677 
  473000   0.51859278   -7.4496002    87.272215  0.015375655  0.014374061         3672 
  474000   0.50865732   -7.4445129    87.134513  0.015319007  0.014327586         3663 
  475000   0.52322831   -7.4582429    87.236272  0.015304609  0.014281339         3633 
  476000   0.49874157   -7.4519023    87.039687   0.01523804   0.01423523         3677 
  477000   0.50171472   -7.4646237    87.267619  0.015245915  0.014189342         3612 
  478000   0.50525209   -7.4633608    87.324136  0.015223873  0.014143592         3655 
  479000   0.51034478   -7.4563622    87.159862  0.015163511  0.014097989         3633 
  480000    0.5048707   -7.4678826    87.110364  0.015123327  0.014052557         3635 
  481000   0.50286671   -7.4622356    87.199573  0.015107341  0.014007328         3656 
  482000   0.49212002   -7.4674582     87.01641  0.015044331   0.01396227         3630 
  483000   0.49193095   -7.4581329    87.081105  0.015024345  0.013917355         3675 
  484000   0.49293383   -7.4635207    87.105412  0.014997488  0.013872579         3685 
  485000   0.48589679   -7.4671672    87.168458  0.014977398  0.013828055         3667 
  486000     0.514387   -7.4764546      87.1471  0.014942918  0.013783638         3630 
  487000   0.48651346   -7.4719897    87.161447   0.01491469  0.013739405         3664 
  488000    0.4916321   -7.4738538    87.105478  0.014874569  0.013695388         3664 
  489000   0.48471529   -7.4747012    87.051385  0.014834933  0.013651494         3670 
  490000   0.48572413   -7.4986261    87.142102  0.014820085  0.013607841         3666 
  491000   0.48355043   -7.4757976    87.041463  0.014772821  0.013564325         3660 
  492000   0.48496843   -7.4923408    86.956769   0.01472845  0.013520915         3657 
  493000   0.48857518   -7.4874997    86.904447  0.014689731  0.013477713         3658 
  494000   0.47997984   -7.4870941    87.109966  0.014694664  0.013434704         3667 
  495000   0.47681715   -7.4966717     86.99149  0.014645032  0.013391805         3675 
  496000   0.47594123   -7.5033908    86.940836  0.014606995  0.013349067         3700 
  497000   0.48177202   -7.4875644    86.934528  0.014576547  0.013306498         3657 
  498000   0.46754277   -7.5051968    86.964445  0.014552283  0.013264115         3653 
  499000   0.46366012   -7.5044265    87.028033   0.01453374  0.013221887         3653 
  500000   0.46102406   -7.4944165    86.970968  0.014495161  0.013179828         3681 
  501000    0.4641944     -7.50406    86.882761  0.014451557  0.013137901         3671 
  502000   0.46929244   -7.5024264    86.955607  0.014434862  0.013096184         3663 
  503000   0.47506306   -7.5115678    86.863034  0.014390827  0.013054644         3677 
  504000   0.46990743   -7.4928878    86.929809  0.014373315  0.013013291         3736 
  505000   0.46313044   -7.4998262    86.714576  0.014309336  0.012972073         3680 
  506000   0.46541468   -7.5221089    86.969736  0.014323079  0.012931031         3674 
  507000   0.47276255    -7.534177    86.935894  0.014289266  0.012890137         3705 
  508000   0.45826211   -7.5209816    86.970727  0.014266851  0.012849449         3687 
  509000   0.44665762   -7.5215112    86.915949  0.014229854   0.01280893         3698 
  510000   0.44594423   -7.5090379    86.819374  0.014186172  0.012768523         3677 
  511000   0.44989137   -7.5103109    86.851472  0.014163645  0.012728287         3680 
  512000   0.45334762   -7.5210666    86.939641  0.014150332  0.012688199         3727 
Loop time of 1061.12 on 48 procs for 500000 steps with 4000 atoms

Performance: 81423.610 tau/day, 471.201 timesteps/s
99.4% CPU use with 48 MPI tasks x no OpenMP threads

MPI task timing breakdown:
Section |  min time  |  avg time  |  max time  |%varavg| %total
---------------------------------------------------------------
Pair    | 61.509     | 66.604     | 69.474     |  19.5 |  6.28
Neigh   | 6.6558     | 6.7372     | 6.8354     |   1.8 |  0.63
Comm    | 55.524     | 59.668     | 66.26      |  29.6 |  5.62
Output  | 0.92683    | 0.92735    | 0.93631    |   0.1 |  0.09
Modify  | 908.69     | 915.44     | 920.96     |  10.5 | 86.27
Other   |            | 11.74      |            |       |  1.11

Nlocal:        83.3333 ave          91 max          76 min
Histogram: 1 1 6 5 12 6 8 3 5 1
Nghost:        1724.33 ave        1742 max        1708 min
Histogram: 5 4 6 5 4 7 5 5 3 4
Neighs:        10354.5 ave       11261 max        9260 min
Histogram: 1 1 3 11 5 7 6 7 5 2
FullNghs:      20708.1 ave       22613 max       18835 min
Histogram: 1 3 3 10 9 7 8 2 4 1

Total # of neighbors = 993988
Ave neighs/atom = 248.49700
Neighbor list builds = 27025
Dangerous builds = 0

#clear
#
#next RN
#
#jump SELF
Total wall time: 0:17:44
