
units lj                  # Use reduced LJ style units
atom_style atomic         # Uncharged point particles
atom_modify map hash      # Needed for indexing of clusters etc
                          # Used to be able to find where atoms are in relation to each other.

lattice fcc 1.0 spacing 1 1 1
Lattice spacing in x,y,z = 1.5874011 1.5874011 1.5874011
region box block 0 10 0 10 0 10 units lattice
create_box 2 box
Created orthogonal box = (0.0000000 0.0000000 0.0000000) to (15.874011 15.874011 15.874011)
  3 by 4 by 4 MPI processor grid
create_atoms 1 box
Created 4000 atoms
  using lattice units in orthogonal box = (0.0000000 0.0000000 0.0000000) to (15.874011 15.874011 15.874011)
  create_atoms CPU = 0.003 seconds
set type 1 type/fraction 2 0.32 78393
Setting atom values ...
  1310 settings made for type/fraction
mass 1 1.0
mass 2 1.0
pair_style lj/cut  3.5
pair_modify tail  yes
pair_coeff 1  1  1.0  1.0   # Intearaction between 1 and 1 set with epsilon = 1 and sigma = 1
pair_coeff 1  2  1.5  0.8
pair_coeff 2  2  0.5  0.88

write_data data.0
System init for write_data ...
Neighbor list info ...
  update every 1 steps, delay 10 steps, check yes
  max neighbors/atom: 2000, page size: 100000
  master list distance cutoff = 3.8
  ghost atom cutoff = 3.8
  binsize = 1.9, bins = 9 9 9
  1 neighbor lists, perpetual/occasional/extra = 1 0 0
  (1) pair lj/cut, perpetual
      attributes: half, newton on
      pair build: half/bin/atomonly/newton
      stencil: half/bin/3d
      bin: standard
WARNING: Not all mixed pair coeffs generated from mixing. Use write_data with 'pair ij' option to store all pair coeffs. (../write_data.cpp:312)


#############################
#   M E L T   S Y S T E M   #
#############################

velocity all create 2.4 5833274 mom yes dist gaussian # Assign velocities
                                                    # Temperature 2.4, random number seed, zero linear momentum
                                                                                # Gaussian distribution

timestep 0.002   # simulation timestep
thermo 1000       # output thermodynamic data every 1000 steps bf 100

# Define a fix  in this case with index 1 applied to all
# particles in the simulation. This fix is for simulations
# in the anisotropic NPT ensemble. Note that we use the MTK
# correction.
fix 1 all npt temp 2.4 2.4 0.1 iso 5.68 5.68 0.5 mtk yes tchain 5 pchain 5 # Use NPT ensemble
                                                                         # Set temperature and pressure and damping
                                                                         # Numbers of thermostats in chain and in barostat
run 10000          # run for 10000 steps
Per MPI rank memory allocation (min/avg/max) = 3.642 | 3.644 | 3.648 Mbytes
Step Temp E_pair E_mol TotEng Press Volume 
       0          2.4   -6.3097323            0   -2.7106323   -4.0355096         4000 
    1000    2.4080068   -5.0084085            0   -1.3973013    5.6295538    4104.7867 
    2000    2.4330829    -4.973373            0   -1.3246611    5.4688765    4124.8675 
    3000    2.4008086   -5.0202807            0    -1.419968    6.1729788    4042.9343 
    4000    2.3978252   -5.0054387            0   -1.4096002    5.8021269    4079.7255 
    5000     2.413236   -5.0038386            0   -1.3848895    5.8986671    4073.3483 
    6000    2.3665768   -4.9999158            0   -1.4509381    5.7034968    4096.7442 
    7000    2.4075155   -4.9978566            0   -1.3874861    5.6252344    4108.3933 
    8000    2.3278345   -4.9902407            0   -1.4993618    5.5705437    4102.5944 
    9000    2.4040763   -5.0441098            0   -1.4388969    6.0712742    4039.1905 
   10000    2.4114065   -5.0029713            0   -1.3867657    5.7325388    4090.4458 
Loop time of 2.44836 on 48 procs for 10000 steps with 4000 atoms

Performance: 705777.156 tau/day, 4084.359 timesteps/s
99.6% CPU use with 48 MPI tasks x no OpenMP threads

MPI task timing breakdown:
Section |  min time  |  avg time  |  max time  |%varavg| %total
---------------------------------------------------------------
Pair    | 1.0662     | 1.1273     | 1.2029     |   3.1 | 46.04
Neigh   | 0.20235    | 0.21096    | 0.2215     |   1.1 |  8.62
Comm    | 0.77982    | 0.83782    | 0.91622    |   3.8 | 34.22
Output  | 0.00024262 | 0.00024666 | 0.00030956 |   0.0 |  0.01
Modify  | 0.2244     | 0.25672    | 0.31214    |   4.4 | 10.49
Other   |            | 0.01532    |            |       |  0.63

Nlocal:        83.3333 ave          92 max          74 min
Histogram: 1 3 7 7 3 5 8 9 4 1
Nghost:        1616.85 ave        1645 max        1595 min
Histogram: 2 4 4 13 8 5 6 2 1 3
Neighs:        9325.46 ave       10533 max        8105 min
Histogram: 1 5 8 3 6 8 4 7 4 2

Total # of neighbors = 447622
Ave neighs/atom = 111.90550
Neighbor list builds = 899
Dangerous builds = 159

# Equilibrate just above the melting temperature to avoid step fn in T

fix 1 all npt temp 1.25 1.25 0.1 iso 5.68 5.68 0.5 mtk yes tchain 5 pchain 5
run 2000
Per MPI rank memory allocation (min/avg/max) = 3.643 | 3.645 | 3.649 Mbytes
Step Temp E_pair E_mol TotEng Press Volume 
   10000    2.4114065   -5.0029713            0   -1.3867657    5.7325388    4090.4458 
   11000    1.2625586   -6.9546987            0   -5.0613342    5.6827203    3269.2823 
   12000    1.2851903   -6.8991202            0   -4.9718167     5.596261    3287.2597 
Loop time of 0.574937 on 48 procs for 2000 steps with 4000 atoms

Performance: 601108.847 tau/day, 3478.639 timesteps/s
99.7% CPU use with 48 MPI tasks x no OpenMP threads

MPI task timing breakdown:
Section |  min time  |  avg time  |  max time  |%varavg| %total
---------------------------------------------------------------
Pair    | 0.24751    | 0.27593    | 0.29706    |   2.0 | 47.99
Neigh   | 0.037479   | 0.040145   | 0.04361    |   0.6 |  6.98
Comm    | 0.18732    | 0.20981    | 0.24529    |   2.5 | 36.49
Output  | 5.0518e-05 | 5.2041e-05 | 6.6271e-05 |   0.0 |  0.01
Modify  | 0.037987   | 0.044367   | 0.051136   |   2.0 |  7.72
Other   |            | 0.004633   |            |       |  0.81

Nlocal:        83.3333 ave          94 max          76 min
Histogram: 2 3 10 13 2 11 3 2 1 1
Nghost:        1876.88 ave        1904 max        1846 min
Histogram: 1 2 2 7 8 9 9 5 3 2
Neighs:        11625.1 ave       13148 max       10217 min
Histogram: 3 3 6 7 11 2 6 5 2 3

Total # of neighbors = 558007
Ave neighs/atom = 139.50175
Neighbor list builds = 143
Dangerous builds = 16

#############################
# L I N E A R  Q U E N C H  #
#############################

# Define solid atoms. This closely follows ten Wolde  Ruiz-Montero and Frenkel  Faraday Discuss  1996  104  93-110
# Compute components of the per-atom q6 vector
compute q6 all orientorder/atom degrees 1 6 components 6 nnn NULL cutoff 1.3 # compute the Q6 parameter.
                                                                             # Use all neighbours within 1.3 unit cell.

# get number of connections
compute coord_number all coord/atom orientorder q6 0.5

# An atom is solid if it has 8 or more connections (of a possible 14)
variable is_solid atom c_coord_number>=8
group solid dynamic all var is_solid    # Must be dynamic to update
dynamic group solid defined

# do clustering
compute cluster solid cluster/atom 1.3 # Create a cluster where all atoms within are solid and max 1.3 units from another member

# define chunks one chunk per cluster
compute clus_chunks solid chunk/atom c_cluster nchunk every compress yes  # Says which atoms are in which chunk

# count the size of each chunk
compute size_chunks solid property/chunk clus_chunks count


# Find the maximum entry in the vector of chunk sizes
variable max_n equal max(c_size_chunks)


# Thermo style which includes this variable
# thermo_style custom step temp pe vol v_max_n

thermo ${N}  # Print the thermo information every 100 steps
thermo 1000  

# Reset the npt fix at a lower temperature (below freezing)
fix 1  all npt temp  ${temp} ${temp}  0.1  iso  5.68  5.68  0.5  mtk yes tchain  5  pchain  5
fix 1  all npt temp  0.45 ${temp}  0.1  iso  5.68  5.68  0.5  mtk yes tchain  5  pchain  5
fix 1  all npt temp  0.45 0.45  0.1  iso  5.68  5.68  0.5  mtk yes tchain  5  pchain  5

dump dmp2 all dcd ${N} traj.dcd
dump dmp2 all dcd 1000 traj.dcd


compute msd all msd com yes
variable twopoint equal c_msd[4]/6/(step*dt+1.0e-6)
fix 9 all vector 10 c_msd[4]
variable fit equal slope(f_9)/6/(10*dt)
thermo_style custom step temp pe c_msd[4] v_twopoint v_fit v_max_n

fix 1 all npt temp 1.25 ${temp} 0.1 iso 5.68 5.68 0.5 mtk yes tchain 5 pchain 5
fix 1 all npt temp 1.25 0.45 0.1 iso 5.68 5.68 0.5 mtk yes tchain 5 pchain 5
run 5000000 # 5000000  # Run for this many steps
Neighbor list info ...
  update every 1 steps, delay 10 steps, check yes
  max neighbors/atom: 2000, page size: 100000
  master list distance cutoff = 3.8
  ghost atom cutoff = 3.8
  binsize = 1.9, bins = 8 8 8
  4 neighbor lists, perpetual/occasional/extra = 1 3 0
  (1) pair lj/cut, perpetual
      attributes: half, newton on
      pair build: half/bin/atomonly/newton
      stencil: half/bin/3d
      bin: standard
  (2) compute orientorder/atom, occasional
      attributes: full, newton on
      pair build: full/bin/atomonly
      stencil: full/bin/3d
      bin: standard
  (3) compute coord/atom, occasional
      attributes: full, newton on
      pair build: full/bin/atomonly
      stencil: full/bin/3d
      bin: standard
  (4) compute cluster/atom, occasional
      attributes: full, newton on
      pair build: full/bin/atomonly
      stencil: full/bin/3d
      bin: standard
Per MPI rank memory allocation (min/avg/max) = 9.810 | 9.819 | 9.825 Mbytes
Step Temp PotEng c_msd[4] v_twopoint v_fit v_max_n 
   12000    1.2851903   -6.8991202 4.2113339e-30 2.9245373e-32 8.3333333e+20            1 
   13000    1.2620693   -6.9630834   0.49704999 0.0031862178  0.040840792            1 
   14000    1.2378678   -6.9115368   0.98065189 0.0058372134  0.040349906            5 
   15000    1.2522533   -6.9379823    1.4104447 0.0078358034  0.039148001            1 
   16000    1.2625217   -6.8770889    1.8725456 0.0097528414  0.038421865            2 
   17000    1.2798999   -6.9249579     2.338271  0.011462112  0.038567615            1 
   18000    1.2395574   -6.9640937     2.751021  0.012736208  0.038092366            1 
   19000    1.2534148   -6.9736222    3.2146168  0.014099196  0.037829965            1 
   20000    1.2511409   -6.9427917    3.6885327  0.015368886  0.037807931            1 
   21000    1.2511739   -6.9358737    4.1699371  0.016547369  0.037891878            1 
   22000    1.2503921    -6.928507    4.5883032  0.017379936  0.037829957            1 
   23000    1.2397935   -6.9765812    5.0759264  0.018391037  0.037865909            1 
   24000    1.2515468   -6.9392969      5.50468  0.019113472  0.037940014            1 
   25000    1.2344054   -6.9663784    5.9829906  0.019943301  0.037947269            1 
   26000    1.2363699   -6.9452419    6.4289093  0.020605478  0.038022908            2 
   27000    1.2307441   -6.9276753    6.8070368  0.021009372  0.037964484            1 
   28000    1.2562527   -6.9553781    7.2644309   0.02162033  0.037806718            1 
   29000    1.2275031   -6.9444102    7.7590826  0.022296214  0.037736702            1 
   30000    1.2353147    -6.904193    8.2513206  0.022920335  0.037741657            1 
   31000    1.2404748   -6.9668476    8.6192018  0.023169897  0.037744385            3 
   32000    1.2496914   -6.9276039    9.1748748  0.023892903  0.037799373            1 
   33000    1.2406538   -6.9524686    9.6255448  0.024306931  0.037850146            1 
   34000    1.2748123   -6.9287597    10.101575  0.024758763  0.037911568            1 
   35000    1.2575196   -6.9571935    10.633644  0.025318199  0.037972989            2 
   36000    1.2517097   -6.9538268    11.188577  0.025899484  0.038116174            1 
   37000    1.2469498   -6.9764386    11.696472  0.026343405  0.038265748            4 
   38000    1.2664125   -6.9007303    12.376342    0.0271411  0.038444613            2 
   39000      1.26639   -6.9216878    12.818826  0.027390653   0.03868062            1 
   40000     1.233968   -6.8901002    13.237763  0.027578672  0.038867438            2 
   41000    1.2627267   -6.9480323    13.830369  0.028110506  0.039020434            1 
   42000    1.2180997   -6.9293368    14.239039  0.028252062  0.039142556            2 
   43000     1.262818   -6.9262557    14.641943  0.028375857   0.03922561            4 
   44000    1.2618158   -6.9816296    15.167156  0.028725675  0.039299195            1 
   45000    1.2482236   -6.9229359    15.855633  0.029362283  0.039447483            1 
   46000    1.2568441   -6.9473118    16.313307  0.029553092  0.039586209            2 
   47000    1.2211186    -6.944351    16.792498  0.029773932  0.039696886            2 
   48000     1.237397   -6.9492526    17.349806   0.03012119  0.039805985            2 
   49000    1.2187605   -6.9450652    17.844488  0.030347769  0.039944185            1 
   50000    1.2477272   -6.9761617    18.172676  0.030287793   0.04002289            2 
   51000    1.2289862   -6.9535363    18.410528  0.030082562  0.040012255            1 
   52000    1.2278089   -6.9642524    18.917719  0.030316857  0.039969483            1 
   53000    1.2379467   -6.9488166    19.331167  0.030394916  0.039925268            2 
   54000    1.2701842    -6.952321    19.731667  0.030450104  0.039877998            1 
   55000    1.2075227    -6.953394    20.241103  0.030668338  0.039832582            1 
   56000    1.2464394   -6.9608713    20.825734  0.030990676  0.039782692            2 
   57000    1.2512425   -6.9543486    21.360636     0.031229  0.039778411            2 
   58000      1.26504   -6.9543838    21.792315  0.031310797   0.03979091            2 
   59000    1.2566203   -6.9320567    22.261125  0.031442267  0.039802784            2 
   60000    1.2166976   -6.9358504    22.763435  0.031615882  0.039801203            1 
   61000     1.270826   -6.9722748    23.270108  0.031789764  0.039814319            1 
   62000    1.2453585    -6.921953    23.793805   0.03198092   0.03982842            2 
   63000    1.2254642   -6.9508124    24.388137   0.03225944  0.039850321            2 
   64000    1.2060301   -6.9139838    24.702456  0.032164656  0.039857333            1 
   65000    1.2160796   -6.9664089    25.078059  0.032151357  0.039841274            2 
   66000    1.2267754   -6.9515162    25.620388  0.032348974   0.03983121            1 
   67000    1.2698739   -6.8855009    26.052244  0.032403288  0.039818075            1 
   68000    1.2484392   -6.9194127    26.368816  0.032314725  0.039794777            3 
   69000    1.2418043    -6.928925    26.663593  0.032202407  0.039744989            1 
   70000    1.2492897   -6.9656961    27.278115  0.032473946  0.039703639            2 
   71000    1.2524905   -6.9932326    27.706898  0.032519833  0.039679991            1 
   72000    1.2366287   -6.9553645    28.112262   0.03253734  0.039640684            1 
   73000    1.2265777     -6.94034    28.533185  0.032572129  0.039597638            2 
   74000       1.2595   -6.9675212    28.866481  0.032507299   0.03955027            1 
   75000    1.2196522   -6.9582583    29.401057  0.032667841  0.039496085            2 
   76000    1.2477902   -6.8945236    29.882934  0.032766375   0.03944941            1 
   77000    1.2425057   -6.9717743    30.263267  0.032752453   0.03940166            1 
   78000    1.2501937   -6.9807329    30.919982  0.033034169  0.039372712            2 
   79000    1.2385507   -6.9488277    31.549334  0.033279888  0.039360233            3 
   80000    1.2180089   -6.9637559    31.962334  0.033294098  0.039344692            1 
   81000    1.2272877   -6.9505963     32.41469  0.033348446  0.039328227            1 
   82000    1.2609482   -6.9279051    32.940267  0.033475881  0.039315464            1 
   83000    1.2476894   -6.9490388    33.464673  0.033599069  0.039314664            1 
   84000    1.2564154   -6.9941504    33.582348  0.033315821  0.039306118            3 
   85000    1.2475484   -6.9859611    34.221341  0.033550334  0.039293993            1 
   86000    1.2522677   -6.9601367    34.830605  0.033750586  0.039284745            4 
   87000     1.277897   -6.9428531    35.143359  0.033662221  0.039272368            1 
   88000    1.2349524   -6.9242207     35.67485  0.033783002  0.039257812            1 
   89000    1.2260607   -6.9434133    36.089647  0.033791804  0.039238918            1 
   90000    1.2401924    -6.945303    36.547818  0.033840572  0.039218791            1 
   91000     1.237364   -6.9361743    37.162007  0.034031141  0.039206608            1 
   92000    1.2427622   -6.9959954    37.522415  0.033987695  0.039199945            3 
   93000    1.2328749   -6.9360107    38.239054  0.034264385  0.039198112            2 
   94000     1.238367   -6.9181501    38.937254  0.034518842  0.039214283            1 
   95000    1.2429981   -6.9352297    39.376362  0.034540668  0.039235809            1 
   96000    1.2227712   -6.9548774     39.64313  0.034412439   0.03925394            2 
   97000    1.2453149   -6.9724292    40.203565  0.034539145  0.039266896            2 
   98000    1.2614188   -6.9388085    40.819912  0.034710809  0.039289228            2 
   99000    1.2171092   -6.9733242    41.336776  0.034795266  0.039312563            2 
  100000    1.2627984   -6.9554741    41.710095  0.034758412   0.03932905            1 
  101000    1.2294009   -6.9733581    42.298456  0.034899716  0.039348909            2 
  102000    1.2233682   -6.9689372     42.77372  0.034945849  0.039367635            1 
  103000    1.2170069   -6.9614984    43.102836  0.034872845   0.03938753            1 
  104000    1.2450895   -6.9528118    43.636041  0.034964776  0.039397141            1 
  105000    1.1794518   -6.9840327    43.913038  0.034851617  0.039402543            1 
  106000    1.2263165   -6.9382413    44.463021  0.034955205   0.03940699            1 
  107000    1.2396431   -6.9982685    44.606657  0.034740387  0.039403661            2 
  108000    1.2409381   -6.9518797    45.317388   0.03496712  0.039394817            1 
  109000    1.2285959   -6.9509558    45.726745  0.034959285  0.039388428            2 
  110000     1.196159   -6.9701261    46.086144  0.034913746  0.039382867            1 
  111000    1.2274201   -6.9855378    46.502614  0.034911872   0.03937104            1 
  112000    1.2301735   -6.9827027    46.990164  0.034962919  0.039356699            1 
  113000     1.221858   -6.9354318    47.442973  0.034987443  0.039341824            1 
  114000    1.2151639   -6.9996955    47.734664   0.03489376  0.039325888            1 
  115000    1.2174267   -7.0000748    48.130033  0.034876835  0.039309128            2 
  116000    1.2391146   -6.9740845    48.310571   0.03470587  0.039284864            1 
  117000    1.2405144   -6.9772376    48.614773  0.034625907  0.039254349            2 
  118000    1.2288697   -6.9661523    48.881705  0.034520978  0.039211409            1 
  119000     1.230306    -6.989003     49.22273  0.034469699  0.039166924            1 
  120000    1.2101696   -6.9798502    49.676432  0.034497522  0.039120599            3 
  121000    1.2524153   -6.9960342    49.849577  0.034331664  0.039069117            2 
  122000    1.2279066   -7.0008156    50.351441  0.034393061  0.039013843            1 
  123000    1.2409324   -7.0194318    50.667154   0.03432734  0.038961585            2 
  124000     1.219059   -6.9729322     51.31918  0.034488696  0.038916585            2 
  125000    1.2068216   -6.9324242    51.948038  0.034632025  0.038877868            1 
  126000     1.228079   -7.0058531     52.15542  0.034494325  0.038839043            1 
  127000    1.1955396   -6.9931427    52.625947  0.034531461  0.038800793            1 
  128000    1.1993907   -7.0192817    53.090511  0.034564135  0.038762905            1 
  129000    1.2510044   -6.9779874    53.759533  0.034728381  0.038731245            1 
  130000    1.2314363   -6.9749289    54.228563  0.034761899  0.038699566            3 
  131000    1.2431882   -6.9984967     54.72267  0.034810859  0.038677523            1 
  132000     1.232215   -6.9618401    55.228916   0.03486674  0.038655086            2 
  133000    1.2495538   -6.9601526    55.601661  0.034838133  0.038631673            2 
  134000    1.2464389   -6.9473648    56.505781  0.035140411  0.038612201            2 
  135000    1.2000822   -6.9928977    56.788359  0.035054542  0.038596441            1 
  136000    1.2291942   -6.9411178    57.288484  0.035103238  0.038580443            1 
  137000    1.2386061   -6.9654391    57.638419  0.035059865  0.038566326            2 
  138000     1.213762    -7.040927    57.837228  0.034925862  0.038546876            2 
  139000    1.2320414   -6.9580545    58.450789   0.03504244   0.03852537            1 
  140000    1.2639293   -6.9880272    58.626616  0.034896795   0.03850517            2 
  141000    1.2202898   -6.9360724    59.661511   0.03526094  0.038491043            2 
  142000    1.2109361   -6.9603999    59.986251  0.035203199    0.0384763            2 
  143000    1.2289637   -6.9996197    60.378233   0.03518545  0.038463356            1 
  144000     1.245266   -6.9673411    61.130374  0.035376374   0.03845406            2 
  145000    1.2266688   -6.9691781    61.448286  0.035315107   0.03844966            1 
  146000    1.2469903   -6.9515197    61.933097  0.035349941  0.038443313            1 
  147000    1.2550679   -6.9678653    62.331315  0.035335213  0.038434906            2 
  148000     1.214237   -6.9659005    62.723335  0.035317193  0.038426351            1 
  149000    1.2349767   -6.9736209    62.935731  0.035198954  0.038415626            1 
  150000    1.2266033   -6.9742297    63.361637  0.035200909  0.038398647            4 
  151000    1.2424776   -7.0135564     63.63053  0.035116186   0.03837981            1 
  152000     1.237478   -6.9662162    64.371743  0.035291526  0.038362938            2 
  153000      1.22678   -6.9866592     64.66429  0.035220201  0.038347843            2 
  154000    1.2311823   -7.0052556    65.168848  0.035264528  0.038332476            2 
  155000    1.2423651   -7.0233385    65.222091   0.03506564  0.038317135            3 
  156000    1.2188571   -6.9931145    65.633942  0.035060866   0.03829655            1 
  157000    1.2052587   -6.9808206    66.109639  0.035090042  0.038276779            2 
  158000    1.2275165   -6.9828339    66.411048  0.035026924  0.038252106            1 
  159000    1.2239487   -6.9967392    67.011223  0.035121186  0.038232676            2 
  160000    1.2226414   -6.9817578    67.764332  0.035293923  0.038215686            4 
  161000    1.2139409   -6.9832176    67.877569  0.035133317  0.038199335            2 
  162000    1.2353403   -7.0175128     68.44722  0.035209475  0.038181095            1 
  163000    1.2352404   -7.0011344    68.935235  0.035242962  0.038163467            3 
  164000    1.2586151   -7.0015589    69.126526  0.035125267  0.038146514            2 
  165000    1.2219432   -7.0000515    69.683141  0.035193505  0.038129998            2 
  166000    1.2224764   -6.9477954    69.735154  0.035007607  0.038109203            1 
  167000     1.221052   -6.9662758    70.509183  0.035184223  0.038090952            1 
  168000    1.2414489   -6.9538879    70.929252  0.035183161   0.03807161            2 
  169000    1.2368969   -6.9742722     71.44486  0.035229221  0.038053575            1 
  170000    1.2230673   -6.9926557    71.883983  0.035237246   0.03803505            1 
  171000    1.2291311    -7.004537    72.454612  0.035309265  0.038022665            1 
  172000    1.2275605   -6.9843263    73.530316  0.035625153  0.038015168            2 
  173000    1.2071168   -6.9719179    73.686818  0.035494614  0.038009181            1 
  174000    1.2215469   -6.9768075    74.091926  0.035484639  0.038000425            1 
  175000    1.2233283   -7.0237425    74.518556  0.035485027  0.037992098            1 
  176000    1.1967244   -7.0253383    74.823034  0.035427573  0.037985479            3 
  177000    1.2198728    -6.993019    75.361445  0.035480906  0.037977993            1 
  178000    1.2006586    -6.960544    76.122396  0.035637826  0.037973628            2 
  179000    1.2362465    -6.964052    76.412831  0.035573944  0.037964406            1 
  180000    1.2343268   -6.9938052    76.650226  0.035486216  0.037955354            1 
  181000    1.2454687   -6.9915989    76.958378  0.035432034  0.037944649            1 
  182000    1.2288427   -6.9816032    77.743746  0.035596953  0.037936711            2 
  183000    1.2309488    -6.965353    78.287648  0.035650113  0.037930408            4 
  184000    1.1969003   -6.9578845    78.720901  0.035652582  0.037923013            1 
  185000    1.2259965   -7.0355048     78.69826  0.035449666  0.037913724            1 
  186000    1.2035038   -7.0054023    79.191696   0.03548015  0.037901325            2 
  187000    1.2214318   -7.0311418    79.588614  0.035467297  0.037889248            3 
  188000    1.2097704   -6.9539345    80.299269  0.035593647  0.037881429            2 
  189000    1.2197434   -7.0500302    80.211753  0.035366734  0.037871917            3 
  190000    1.2230733   -7.0464622    80.916693  0.035489778  0.037864237            2 
  191000    1.2247923   -7.0114122    81.491753  0.035554866  0.037856053            2 
  192000    1.2258934    -6.985124    82.353243  0.035743595  0.037850528            3 
  193000      1.24681    -7.007822    82.695055  0.035705982   0.03784831            3 
  194000    1.2228393   -7.0288396    82.843451  0.035585675  0.037843679            1 
  195000    1.2348127   -6.9749012    83.697071  0.035767979  0.037841028            1 
  196000    1.2135945   -6.9505697    84.071104  0.035744517   0.03783561            1 
  197000    1.2074705   -6.9812048    84.541044  0.035761863  0.037830713            1 
  198000    1.2277742   -6.9592263    84.988821  0.035769706  0.037826438            2 
  199000    1.2248277   -6.9959126     85.22487  0.035688807  0.037821964            2 
  200000    1.2039551   -6.9631942    85.834672  0.035764447  0.037817141            1 
  201000    1.2238689   -6.9344466    86.640776   0.03592072  0.037812518            1 
  202000    1.2028449   -7.0359065     86.38265  0.035636407  0.037808927            1 
  203000    1.2257845   -6.9900932    87.070343  0.035743162   0.03780275            4 
  204000    1.2218046   -6.9714439    87.634741  0.035798505  0.037798027            1 
  205000    1.2419985    -6.981571    87.863179  0.035716739  0.037793838            1 
  206000    1.2175786   -7.0273767    88.195709  0.035677876  0.037789194            1 
  207000    1.2140585   -6.9709403    88.911309  0.035793602  0.037785465            1 
  208000    1.2136635     -6.95705    89.600368  0.035897583  0.037780055            1 
  209000     1.217705   -7.0559251    89.635686  0.035739907   0.03777638            2 
  210000    1.2151268   -7.0149748     90.12595  0.035764266  0.037772353            1 
  211000    1.2071057   -7.0019952    90.695108  0.035819553  0.037767579            2 
  212000     1.244091   -6.9947142    90.913391  0.035736396  0.037760786            2 
  213000    1.2146578   -7.0186742    91.280456  0.035712228  0.037753176            2 
  214000    1.2172994   -6.9878845    91.838122  0.035762509  0.037747687            1 
  215000    1.2196275   -6.9936471    92.294905  0.035773219  0.037740549            1 
  216000    1.1978012   -7.0291323    93.173213  0.035946456  0.037735428            4 
  217000    1.2073373   -7.0279932     92.67392  0.035589063  0.037729893            1 
  218000    1.2295275   -7.0231731    93.300722  0.035665414  0.037722366            2 
  219000     1.207816   -6.9612772    93.734743   0.03566771  0.037713648            2 
  220000     1.216903   -6.9767143    94.100391  0.035644087  0.037703826            1 
  221000    1.2092476   -6.9750309    94.680721  0.035701629  0.037693553            2 
  222000    1.1959333   -6.9934392    94.758934   0.03557017  0.037684693            1 
  223000    1.2273709   -6.9800577    95.686683  0.035757355  0.037678659            2 
  224000    1.2260281    -6.994035    96.320305  0.035833447  0.037673345            1 
  225000    1.2251074   -6.9854609     96.80499    0.0358537  0.037669346            1 
  226000    1.2200259   -7.0537754    97.223947  0.035849538  0.037667506            2 
  227000    1.2087165   -7.0333399    97.577001  0.035821219   0.03766496            1 
  228000    1.2047298   -7.0117599    98.065352  0.035842599   0.03766221            1 
  229000    1.2308142   -7.0346247    98.442509  0.035823329  0.037657517            1 
  230000    1.2263864    -6.998684    99.241216  0.035956962  0.037654484            1 
  231000     1.224655   -7.0595559    99.542433  0.035909969  0.037651502            4 
  232000    1.2106311   -7.0494275    99.782791   0.03584152  0.037648587            1 
  233000    1.2178752   -7.0251796    100.34529  0.035888874  0.037646562            2 
  234000     1.196651   -7.0116159     100.6999  0.035861786  0.037642879            1 
  235000    1.2074688   -7.0118393    100.87683  0.035771924  0.037635613            5 
  236000     1.220187   -7.0304042    101.21641  0.035740257  0.037628483            2 
  237000    1.2158804   -6.9726779    101.79845  0.035794109  0.037621605            2 
  238000    1.2272819   -6.9420948    102.81008  0.035997926  0.037615595            1 
  239000    1.2026842   -7.0288481    102.43074  0.035715043  0.037609283            1 
  240000    1.2359922   -7.0204892    103.02511  0.035772608   0.03760132            3 
  241000    1.1965741   -7.0360257    103.52563  0.035797245  0.037594305            1 
  242000    1.2101851   -7.0111653    104.05012  0.035829932  0.037586807            2 
  243000    1.2143897   -7.0458002    104.56127  0.035857774  0.037579329            1 
  244000    1.2114871   -7.0179826     104.8858  0.035821653  0.037572993            1 
  245000    1.2062382   -7.0547899    104.93989   0.03569384  0.037565178            1 
  246000    1.2132845    -7.066323     105.4761  0.035730387  0.037556938            1 
  247000    1.2158851   -7.0086174    105.91044  0.035732267  0.037548646            2 
  248000    1.1914577   -7.0466765    106.18004  0.035678778  0.037537076            1 
  249000    1.2415533     -7.03325    106.32457  0.035583859  0.037525811            2 
  250000    1.1749373   -7.0218451    107.22033   0.03574011  0.037514737            1 
  251000    1.2378435   -7.0200172    107.35158  0.035641295  0.037505842            2 
  252000    1.2156762   -7.0049542    108.23806  0.035793009  0.037497269            2 
  253000    1.2442341   -7.0673627    108.17059  0.035629312  0.037489291            3 
  254000    1.1895699   -7.0180062    109.61545  0.035963075  0.037482339            1 
  255000    1.2035439   -7.0068353    109.83998  0.035895417  0.037476606            1 
  256000    1.2121629   -7.0311056    109.86253  0.035762543  0.037470298            1 
  257000    1.1888117   -6.9940664    110.49573  0.035828707  0.037464851            1 
  258000    1.1994465   -7.0169466    110.31697  0.035632097   0.03745807            1 
  259000    1.2048201   -7.0025624    110.94218  0.035695682  0.037451304            1 
  260000     1.199564   -7.0047238    111.71779  0.035806984   0.03744445            4 
  261000    1.2165998   -7.0199316      111.862  0.035715837  0.037436618            1 
  262000    1.2076628   -6.9852696    112.68519  0.035841345  0.037429114            1 
  263000    1.1984347   -7.0162441    112.89404  0.035771243  0.037422522            2 
  264000    1.2218494   -7.0350327    113.11668  0.035706021  0.037415094            2 
  265000    1.1856331   -7.0242852    113.85698  0.035804082   0.03740758            2 
  266000    1.1844767   -7.0151422    114.48651    0.0358667  0.037399384            2 
  267000    1.1897824   -7.0061779    115.12953  0.035933062  0.037392233            1 
  268000     1.210127   -7.0327277    114.96543  0.035747956  0.037385209            1 
  269000     1.200205   -6.9998947    115.30443  0.035720082   0.03737648            1 
  270000    1.1882984   -6.9854988     115.7427  0.035723055  0.037367145            2 
  271000    1.2246128   -6.9969895    116.30565  0.035764345  0.037359669            1 
  272000    1.1957713   -7.0668786    116.46387  0.035681332  0.037351688            1 
  273000    1.2029087    -7.009459    116.88429  0.035678964  0.037342441            1 
  274000    1.2023638   -7.0067317    117.62422   0.03577379  0.037333742            1 
  275000    1.1813007   -7.0316724    117.87491  0.035719671  0.037324799            2 
  276000    1.2106816   -7.0466186     118.1411  0.035670623  0.037315347            2 
  277000    1.1960924   -7.0129595     118.5362  0.035660709  0.037307166       -1e+20 
  278000    1.2173018   -7.0077299    118.93226  0.035651157  0.037297648            2 
  279000    1.1857875   -6.9909745    119.45007  0.035678038  0.037288492            1 
  280000    1.2020105   -7.0342799    119.90226  0.035685196  0.037279249            2 
  281000    1.2089076   -6.9815692    120.51699  0.035740508  0.037270137            1 
  282000    1.2220396   -6.9835026    121.14066  0.035798068  0.037261361            2 
  283000    1.1907888   -7.0175273    121.18511  0.035684662  0.037253688            1 
  284000    1.2005496   -7.0285117    121.43525   0.03563241  0.037244786            1 
  285000    1.2087274   -7.0432858    121.83107  0.035623119  0.037234862            2 
  286000    1.1962184   -7.0437947    122.24704  0.035619766  0.037223953            1 
  287000    1.2142077    -7.030907    123.22366  0.035779227   0.03721565            1 
  288000     1.179358   -6.9983924    123.57729  0.035757319  0.037207988            1 
  289000    1.2138299   -7.0586666     123.2313  0.035533823  0.037201187            2 
  290000    1.2253673   -6.9913368    124.21733  0.035694634  0.037192159            3 
  291000     1.201624   -7.0249788    124.53334  0.035662468  0.037182942            3 
  292000    1.2152958   -7.0389293    124.56645  0.035549785  0.037173272            1 
  293000    1.2140525   -7.0473232    124.53003  0.035418098  0.037161664            1 
  294000    1.1929375   -7.0297627    125.69012   0.03562645  0.037150869            2 
  295000    1.1843239   -6.9993797    125.61273  0.035483822  0.037139507            1 
  296000    1.2109482   -7.0189756    126.26743  0.035548263  0.037129416            1 
  297000    1.2059245   -7.0374047    126.90782  0.035608256  0.037120097            2 
  298000    1.2017812   -7.0158102    127.53896  0.035665256  0.037110884            1 
  299000    1.1951947   -7.0003933    127.68462  0.035586573  0.037101776            1 
  300000    1.2058926   -7.0378808    127.80811  0.035502254  0.037091811            2 
  301000    1.2228387   -7.0216177    128.64745   0.03561668   0.03708324            1 
  302000    1.2192838   -7.0322909    129.07031  0.035615426  0.037075449            2 
  303000    1.2269372   -7.0691733    129.44613  0.035601246  0.037067739            1 
  304000    1.2132774    -7.052899    129.84004  0.035592115  0.037058289            1 
  305000    1.2013344   -7.0557308    130.52764  0.035663289   0.03704894            2 
  306000    1.1990392   -7.0982877    130.45963  0.035528222  0.037041109            1 
  307000    1.1939709   -7.0397097    131.20248  0.035614138  0.037032613            1 
  308000     1.207707   -7.0458121    131.55111  0.035592834   0.03702361            3 
  309000    1.1916323   -7.0031163    132.29464  0.035678165   0.03701434            1 
  310000    1.2314965   -7.0239228       132.19  0.035534947  0.037005882            1 
  311000    1.2130463   -7.0021331    132.99045  0.035635168  0.036998006            2 
  312000    1.2043896   -7.0265001    133.46966  0.035648949  0.036990667       -1e+20 
  313000    1.1992222   -7.0224279    134.11598  0.035707131  0.036983864            2 
  314000    1.2292554   -7.0303301    134.40649  0.035670512  0.036977092            2 
  315000    1.1933361   -7.0307656    134.77289  0.035654203  0.036970561            2 
  316000    1.2025972   -7.0395989    134.38837  0.035439971   0.03696121            2 
  317000    1.2049522    -7.002904    135.51834   0.03562522  0.036951096            1 
  318000    1.2206593   -7.0025122    135.39311  0.035480374  0.036940196            1 
  319000    1.1853212   -7.0521957    135.23319  0.035327375  0.036929176            1 
  320000    1.1899323   -7.0459202    135.74247  0.035349602  0.036917915            3 
  321000    1.2049054   -7.0334974    136.34094  0.035394845  0.036906042            1 
  322000    1.1872319   -7.0399307    136.54284  0.035337175  0.036894239            2 
  323000    1.1920855   -7.0430129    136.97076  0.035338173  0.036882097            1 
  324000    1.1976028   -7.0608015    137.26381  0.035304478  0.036869203            1 
  325000     1.205902   -7.0528022      137.322   0.03521077  0.036856105            1 
  326000    1.2012487   -7.0843935    138.32543  0.035359261  0.036843501            3 
  327000    1.1997512   -7.0747269    138.79421  0.035370594  0.036833341            2 
  328000    1.1845103   -7.0659885    139.79064  0.035515915  0.036824552            1 
  329000    1.1881958    -7.082889    139.86741   0.03542741  0.036815567            1 
  330000    1.1760901   -7.0589294    140.24618  0.035415702  0.036806188            2 
  331000    1.2095003    -7.043649    140.70338  0.035423812  0.036796805            2 
  332000    1.1779369   -7.0534345    141.08635  0.035413241  0.036787168            2 
  333000    1.2018002    -7.012684    141.30743   0.03536222  0.036777528            1 
  334000    1.1992697   -7.0573324    142.00459  0.035430287  0.036767739            1 
  335000    1.2024367    -7.049438    142.03015  0.035330884  0.036756718            2 
  336000    1.2169123   -6.9918502     142.3083  0.035294717  0.036744754            1 
  337000    1.2061091   -7.0352675    142.66379   0.03527789  0.036731434            1 
  338000    1.2220872   -7.0555937    142.28766  0.035080784  0.036718395            6 
  339000    1.1974128   -7.0640752    143.11633  0.035181005  0.036704768            1 
  340000    1.1897895   -7.0466325    143.53861  0.035181031  0.036691627            1 
  341000    1.1816446   -7.0870345     143.9213  0.035171383  0.036679536            1 
  342000    1.1706921   -7.0209183    145.13423  0.035364091  0.036668189            1 
  343000    1.1900471   -7.0248995    145.42916  0.035332643  0.036658319            3 
  344000    1.1949923   -7.0568986    145.86733  0.035336079  0.036647916            2 
  345000    1.1964709   -7.0414895    146.19114   0.03531187  0.036636731            1 
  346000    1.2154343   -7.0188305    146.61189  0.035311149  0.036625532            2 
  347000    1.1772442    -7.110145    146.14035  0.035096146  0.036614621            1 
  348000    1.1943975    -7.088756    146.96455  0.035192661  0.036602339            1 
  349000    1.1812744   -7.0608768    147.19055  0.035145786  0.036589379            1 
  350000    1.1746644   -7.0621063    147.98579  0.035234712  0.036576657            1 
  351000    1.1664398   -7.0575789    148.51236  0.035259344  0.036564745            1 
  352000    1.1926684   -7.0689214    148.34692  0.035120009  0.036552832            2 
  353000    1.2085503   -7.0762685    148.78664  0.035124324  0.036540639            2 
  354000     1.194424   -7.0330479    149.73639  0.035248679  0.036529259            1 
  355000    1.2074023   -7.0690935    149.51066    0.0350964   0.03651855            2 
  356000    1.1836911   -7.0700411    150.41908  0.035210459  0.036508188            1 
  357000    1.1944178   -7.0845874     150.5822  0.035149907  0.036497825            2 
  358000    1.1861371   -7.0492789    150.64613  0.035066604  0.036485346            1 
  359000    1.1801921   -7.0523713    151.06898   0.03506708  0.036473633            1 
  360000    1.2237477   -7.0687716    151.74067  0.035125156  0.036461283            1 
  361000    1.2022147   -7.1020605    151.92186   0.03506968  0.036449796            1 
  362000    1.1781893   -7.0591535    152.50136  0.035106206  0.036439361            2 
  363000    1.1907551   -7.0516523    153.08385  0.035143216  0.036428302            3 
  364000    1.1949521   -7.0393703    153.51163  0.035144603  0.036416863            3 
  365000    1.1720969   -7.0310744     153.4981  0.035045228  0.036404922            3 
  366000    1.1877746   -7.0578707    153.96217  0.035055139  0.036392565            2 
  367000    1.1582445   -7.0284745    154.82507  0.035155557  0.036379965            1 
  368000    1.1881466   -7.0849554    154.37289  0.034957629  0.036367972            1 
  369000    1.1919595   -7.0477599     155.0275  0.035010726   0.03635551            1 
  370000    1.1880083   -7.0811322    155.38078  0.034995672  0.036343822            1 
  371000    1.1871166   -7.0559284    155.50595  0.034929458  0.036332151            1 
  372000    1.2077971   -7.0316209    156.76001  0.035116489  0.036320915            1 
  373000      1.20779   -7.0788885    156.96766  0.035068735  0.036309257            3 
  374000    1.1921963   -7.0288612    157.09917  0.035004271  0.036298139            1 
  375000    1.1811857   -7.0467489    157.45213  0.034989362  0.036286631            1 
  376000    1.1844099   -7.0490422    158.43766   0.03511473  0.036275831            1 
  377000    1.2011955   -7.0768071    158.41295  0.035016124  0.036264662            1 
  378000    1.2308519   -7.0947037    158.68104  0.034982593  0.036253222            4 
  379000    1.1854592   -7.0257432    159.53557  0.035078182  0.036241535            2 
  380000    1.1825438   -7.0348827    159.28811  0.034931603   0.03622969            1 
  381000    1.2152876   -7.0565954    160.04215  0.035004845  0.036217775            2 
  382000    1.1722846   -7.0204846     160.2858  0.034966361  0.036206405            1 
  383000    1.2229871   -7.0617374    160.88308  0.035005021  0.036195693            3 
  384000    1.1943229   -7.0497341    161.11254  0.034963658   0.03618548            1 
  385000    1.1968114   -7.0269769    161.74052  0.035008772  0.036174774            2 
  386000    1.1748284    -7.065708    161.65352  0.034899293  0.036163479            3 
  387000     1.197926   -7.0725508    161.94471  0.034871815   0.03615127            1 
  388000    1.1859515   -7.0901398    162.10064  0.034815429  0.036138943            3 
  389000    1.1747982   -7.0581731    162.98164  0.034914661  0.036125965            1 
  390000    1.1917572   -7.0310597    163.42573  0.034920028  0.036113493            2 
  391000    1.1961164   -7.0804645    163.47118  0.034840405  0.036101561            1 
  392000    1.1886776   -7.0832336    163.99677  0.034863259  0.036088727            1 
  393000    1.1569834   -7.1102605    163.90568  0.034755232  0.036076284            1 
  394000    1.1841515   -7.0601216    163.89398  0.034664548  0.036063207            1 
  395000    1.1876955   -7.0916049     164.6502  0.034736329  0.036050335            2 
  396000    1.2022883   -7.0663345    164.96604  0.034715075  0.036037729            2 
  397000     1.190692   -7.0733887    165.04187   0.03464355  0.036024675            2 
  398000    1.1845573   -7.0974627     165.5202  0.034656658   0.03601164            1 
  399000    1.1882946   -7.1009551    166.32527  0.034737943  0.035999089            2 
  400000     1.172271   -7.0742766    166.73057  0.034735536  0.035986056            1 
  401000    1.1630378   -7.1391844    167.25055  0.034756973   0.03597393            1 
  402000      1.18367   -7.0938395    167.14413  0.034648452  0.035961962            2 
  403000    1.1855163   -7.0827871     168.1302  0.034766378  0.035949729            2 
  404000    1.1994218      -7.0774    168.76367  0.034810989  0.035938385            1 
  405000    1.2024246   -7.0545246    168.90486  0.034754087  0.035926571            1 
  406000    1.1998179   -7.0701561    169.16473  0.034721825  0.035914454            1 
  407000    1.2053456   -7.0471979    169.63725  0.034733261   0.03590227            2 
  408000    1.1823517   -7.1219278    169.36175  0.034591861  0.035890089            3 
  409000    1.1636341   -7.0790253    169.83864   0.03460445  0.035877795            3 
  410000    1.1922213   -7.0384976    170.76905  0.034709157  0.035864884            1 
  411000    1.1889223   -7.1166759    170.76618  0.034624124  0.035852232            3 
  412000    1.1898627   -7.1035094    171.63839  0.034716502  0.035839933            2 
  413000    1.1861505   -7.0926832    171.82647  0.034670393  0.035827935            2 
  414000    1.1952123   -7.1215449     171.7637  0.034574014  0.035816911            1 
  415000    1.1826431    -7.025929    172.77718  0.034694213  0.035805868            1 
  416000    1.1766694   -7.0716639    173.36049  0.034727662  0.035794575            2 
  417000    1.1965467   -7.0901772    173.11886  0.034596095    0.0357834            3 
  418000    1.2161859   -7.1087835    173.93464  0.034675965  0.035772161            1 
  419000     1.175755    -7.128886    175.06128   0.03481728  0.035761331            1 
  420000    1.1954329   -7.0747994    174.66014   0.03465479  0.035750599            3 
  421000    1.1716665   -7.0802601    174.92945  0.034625783  0.035740174            2 
  422000    1.2149491   -7.1046251    175.33512  0.034623839  0.035728809            2 
  423000    1.1783202   -7.1194341    175.87084  0.034647526  0.035717913            1 
  424000    1.1645039   -7.0763542     176.3396   0.03465794  0.035706933            1 
  425000    1.1869698   -7.0704182    176.96149  0.034698332  0.035696531            2 
  426000    1.1926733   -7.0746109    176.96965  0.034618477  0.035685852            1 
  427000    1.1618507   -7.0824345    177.42618    0.0346265  0.035674934            2 
  428000    1.1942144   -7.0496585    178.58176  0.034770592  0.035664779            2 
  429000    1.1680145   -7.1036582    177.97214  0.034571123  0.035653596            4 
  430000     1.185895   -7.1019785    177.75848  0.034449318  0.035642587            1 
  431000    1.1646863    -7.085053    178.86465  0.034583265  0.035631999            1 
  432000    1.1970316   -7.0800707     178.8551   0.03450137  0.035620636            4 
  433000     1.167022   -7.1062581    179.30743  0.034508743  0.035608658            1 
  434000    1.1852285   -7.0666096    180.00703  0.034563562  0.035597009            1 
  435000    1.1972649   -7.0088874    180.82897  0.034641565  0.035585751            1 
  436000    1.1675583   -7.1052756    180.44331    0.0344884  0.035575051            1 
  437000    1.1553572   -7.0621517     180.9279  0.034501888  0.035564284            1 
  438000    1.2111689   -7.0801804    181.26909  0.034488032   0.03555371            1 
  439000    1.2010236   -7.0707786    182.31237  0.034607511  0.035542577            2 
  440000    1.1748692   -7.0644971    182.31657  0.034529654   0.03553185            1 
  441000    1.1606518   -7.0816925    182.80458  0.034543572  0.035521201            1 
  442000    1.1831661   -7.0903259    183.55729  0.034607333  0.035511092            3 
  443000    1.2038011   -7.0686316     183.9617  0.034605285  0.035501098            2 
  444000    1.1575076    -7.037378    184.04708  0.034543371  0.035491635            1 
  445000    1.1827282   -7.0800438    184.20866  0.034496004  0.035482003            2 
  446000    1.1848238   -7.1306395    184.87698  0.034543531  0.035472232            1 
  447000    1.1913684   -7.0865763    184.64457  0.034422925   0.03546218            1 
  448000    1.1856707   -7.0798009    185.51349  0.034507718  0.035452282            2 
  449000    1.1886125   -7.0847733    186.33177  0.034582733  0.035442289            1 
  450000     1.196253   -7.0778891     186.1054  0.034463962  0.035432549            2 
  451000      1.17448   -7.0661629    187.11519   0.03457413  0.035422787            4 
  452000    1.1937943   -7.0544407    187.46766  0.034562621  0.035413778            2 
  453000    1.1460128   -7.0947634    187.00105  0.034400488  0.035404033            1 
  454000    1.1991459     -7.07605    188.11612   0.03452939  0.035394162            1 
  455000    1.1608875   -7.0856078    188.51622  0.034526781  0.035384889            1 
  456000    1.1380033   -7.0785054     189.0377  0.034546364  0.035375257            3 
  457000    1.1715348   -7.1286553    188.84003  0.034434724  0.035366439            2 
  458000    1.1803212   -7.1143228    189.64347  0.034505726  0.035357676            1 
  459000    1.1807077   -7.0693526    190.28967   0.03454787  0.035349739            1 
  460000    1.1739233   -7.1313957    189.86586  0.034395989  0.035341058            1 
  461000    1.2108441   -7.0659701    191.74367  0.034660822  0.035332751            2 
  462000    1.1833597    -7.091703    192.06247  0.034643302  0.035325227            4 
  463000    1.1780639   -7.0740461     192.2821  0.034608009  0.035318097            5 
  464000    1.1607547    -7.097702     193.3541  0.034725951  0.035311907            6 
  465000    1.1764418   -7.1145624    192.77008  0.034546609  0.035304717            2 
  466000    1.1591263   -7.1005175    193.71641  0.034641704  0.035297485            1 
  467000    1.1365783     -7.10195    193.91449  0.034602872  0.035290977            1 
  468000    1.1910148   -7.0702781    194.53439  0.034639314  0.035284011            1 
  469000    1.1702399   -7.0922542    194.89533   0.03462959  0.035277061            3 
  470000    1.1581647    -7.093134    195.25777  0.034620172  0.035269605            1 
  471000     1.153726   -7.0691775    195.60358  0.034607851  0.035262669            2 
  472000     1.184827   -7.0922695    195.27376    0.0344763  0.035255821            1 
  473000    1.1725092   -7.0840197    195.75356  0.034487942  0.035247498            2 
  474000    1.1624261   -7.0708378    195.66803  0.034400146  0.035239067            2 
  475000    1.1721131   -7.1048136    195.94918   0.03437705  0.035229957            2 
  476000    1.1807139   -7.1222621    196.23829  0.034355443   0.03522045            2 
  477000    1.1728089   -7.0944986    196.53541  0.034335326  0.035211457            1 
  478000    1.1854662   -7.0843051    197.19322  0.034378176  0.035202221       -1e+20 
  479000    1.1491096   -7.1124835    197.36531  0.034336344  0.035192662            1 
  480000    1.1832638   -7.0832758    197.33432  0.034259431  0.035183281            2 
  481000     1.203021   -7.1099205    198.26309  0.034349115  0.035174029            2 
  482000    1.1666476   -7.0810998    198.75515  0.034362923  0.035165007            2 
  483000    1.1951979   -7.1211495    199.36706  0.034397353  0.035156247            2 
  484000    1.1977232   -7.0818263    199.45875  0.034342071  0.035147659            1 
  485000     1.202888   -7.1517853     200.1246   0.03438567  0.035139076            1 
  486000    1.1865738   -7.1361834    200.04131  0.034300636  0.035130058            2 
  487000    1.1430321   -7.1070183    201.19192  0.034427091  0.035121824            1 
  488000    1.1724117   -7.0922779    201.97891  0.034490935  0.035114279            1 
  489000    1.1641352   -7.0878914    202.31737   0.03447808  0.035106643            1 
  490000    1.2040521   -7.0903754    202.34747  0.034412834  0.035099877            2 
  491000    1.1558279   -7.0674232    203.86192  0.034599783  0.035093866            2 
  492000    1.1831432   -7.0861685    203.60593    0.0344861  0.035087942            1 
  493000    1.1945456   -7.0893877    204.00318  0.034483296  0.035081622            1 
  494000    1.1385387   -7.1005529    205.13459  0.034604351   0.03507563            1 
  495000    1.1969305   -7.0840521    204.41854  0.034413896  0.035069678            3 
  496000    1.1892187   -7.0379387    204.93188   0.03443076  0.035062656            1 
  497000    1.2018876   -7.1186947    205.20523  0.034407315  0.035055798            1 
  498000    1.1894786   -7.1252964    205.23733  0.034343596  0.035048626            2 
  499000    1.1773247   -7.1255718    206.07037   0.03441389  0.035041685            2 
  500000    1.1544207   -7.1236976     206.5351  0.034422517  0.035034444            1 
  501000    1.1646091   -7.0793962     206.4613  0.034341534  0.035027257            1 
  502000     1.188326    -7.106123     207.0071  0.034363728  0.035019984            1 
  503000    1.1809833   -7.1498676    206.84596  0.034268714  0.035012671            1 
  504000    1.1442702   -7.1007123    207.56668  0.034319887  0.035005488            2 
  505000    1.1788031    -7.133325    208.17663   0.03435258  0.034998244            1 
  506000    1.1805856   -7.1368769    208.59366  0.034353369  0.034990778            1 
  507000    1.1590961   -7.0727846    209.56773  0.034445714  0.034983307            1 
  508000    1.1512134   -7.0938478    208.40706   0.03418751   0.03497514            2 
  509000    1.1674423    -7.079925      208.998  0.034217092  0.034966807            1 
  510000    1.1452134   -7.0730053    209.32156  0.034202869  0.034957838            3 
  511000    1.1519658   -7.1470517    209.24239  0.034123024  0.034948451            1 
  512000    1.1736492    -7.101671     209.5605  0.034108154  0.034938789            1 
  513000    1.1410008   -7.0601396    210.21473  0.034147942  0.034929094            2 
  514000    1.1865219   -7.1029897     210.3998  0.034111512  0.034919394            1 
  515000    1.1594273   -7.1453274    210.01179   0.03398249   0.03490947            1 
  516000    1.1585467   -7.1312156    210.67951  0.034024468  0.034899407            1 
  517000    1.1750704   -7.1560191    210.56613  0.033940382  0.034889377            1 
  518000    1.1635577   -7.1256026    211.87194  0.034084932    0.0348794            2 
  519000    1.1745902   -7.1405241    211.56908   0.03397063  0.034869555            1 
  520000    1.1765157   -7.1272796    211.61333  0.033912393  0.034858792            2 
  521000    1.1402044   -7.1449599    212.01041  0.033910814   0.03484798            1 
  522000    1.1873486   -7.1128872    213.15613  0.034028756  0.034837537            3 
  523000     1.183582   -7.1392126    213.03152  0.033943837  0.034827081            4 
  524000    1.1862372   -7.1499298    213.40844  0.033939002  0.034817393            5 
  525000    1.1509168   -7.1190283     214.2468  0.034007429  0.034807463            2 
  526000    1.1749191   -7.1093433    214.87009  0.034041522  0.034797586            2 
  527000    1.1438765   -7.1049486    214.80814  0.033967132  0.034787962            1 
  528000    1.1815085   -7.0544897    215.26144  0.033974344  0.034778097            2 
  529000    1.1858475   -7.1276686    215.53127  0.033952626  0.034768049            1 
  530000    1.1725422   -7.0727179    215.53303  0.033888842  0.034757896            2 
  531000    1.1672188   -7.1128957    215.30955  0.033789949  0.034747601            1 
  532000    1.1505596   -7.1329478    216.70159  0.033944485  0.034737844            2 
  533000    1.1827642   -7.1003132    217.20262  0.033959134  0.034727876            5 
  534000    1.1779115   -7.1796314    216.93473  0.033853735   0.03471805            2 
  535000    1.1623191   -7.0978476    217.70907   0.03391107  0.034707561            1 
  536000    1.1385362   -7.1386316    217.42778   0.03380407  0.034697568            1 
  537000    1.1538512   -7.1572035     218.1932    0.0338599  0.034687731            1 
  538000    1.1486305   -7.1148628     218.6827  0.033872785  0.034677813            1 
  539000    1.1972642    -7.118894     219.0193  0.033861981  0.034667663            2 
  540000    1.1772428    -7.104816    218.81035  0.033767029  0.034657891            1 
  541000    1.1752008    -7.114512    219.93122  0.033877268  0.034647732       -1e+20 
  542000    1.1920937   -7.1520885    219.43722   0.03373881  0.034637783            1 
  543000    1.1880946   -7.1286388    219.95862  0.033756694  0.034627211            2 
  544000    1.1452936   -7.1361102    220.30556  0.033747788  0.034617248            2 
  545000    1.1785629   -7.0873706    220.91319  0.033778775  0.034606689            2 
  546000    1.1530784   -7.1502945    221.04913  0.033737658  0.034596337            2 
  547000    1.1642263   -7.1119683    222.04762  0.033828096  0.034586242            1 
  548000    1.1551821    -7.078933    223.60822  0.034003683   0.03457635            1 
  549000     1.133218   -7.0664918    222.43181  0.033763177  0.034566079            1 
  550000    1.1648769   -7.0783952    222.86501  0.033767426  0.034555891            3 
  551000    1.1952813   -7.1120543    222.69917   0.03368106  0.034545343            2 
  552000    1.1759969   -7.1126804    223.51393  0.033743046  0.034534481            2 
  553000    1.1527429   -7.0779686    223.94479  0.033746955  0.034524091            1 
  554000    1.1578228   -7.1203176    223.67699  0.033645757  0.034513507            2 
  555000    1.1623002   -7.1534975    223.93802  0.033624328  0.034503102            2 
  556000    1.1249835   -7.0983044    224.45723  0.033641672  0.034492644            2 
  557000    1.1579099   -7.0905003    225.67138  0.033762924   0.03448233            1 
  558000    1.1567497   -7.1585567     225.3389  0.033652763  0.034471422            1 
  559000    1.1553554   -7.1148246    225.95814  0.033684875  0.034461358            1 
  560000    1.1475935   -7.1576454    226.15701  0.033654317  0.034451331            1 
  561000    1.1511162   -7.1400189    226.47084  0.033640944  0.034440562            1 
  562000    1.1627471    -7.126187    226.81117   0.03363155  0.034429398            1 
  563000    1.1836064    -7.124308     227.1482    0.0336217    0.0344185            2 
  564000    1.1593798   -7.1056019    227.46135  0.033608356  0.034408184            2 
  565000     1.153236   -7.1145051    228.43978  0.033693183  0.034397949            1 
  566000    1.1985276   -7.1358152    228.59976  0.033657209  0.034388248            1 
  567000    1.1688146   -7.1235752    229.76481  0.033769079  0.034378502            1 
  568000    1.1438858   -7.0887852    229.75512  0.033708204  0.034369511            1 
  569000    1.1817202   -7.1446115    230.89177  0.033815432  0.034360395            1 
  570000    1.1545418    -7.106962    231.25131  0.033808671  0.034351515            2 
  571000    1.1859546     -7.14649    231.04604  0.033719503  0.034342518            1 
  572000    1.1796202   -7.1535109    230.46642  0.033576111   0.03433349            2 
  573000    1.1488713   -7.1022652    231.34838  0.033645779   0.03432441            2 
  574000    1.1542819   -7.1263181    231.62079  0.033626712  0.034315389            2 
  575000    1.1358225   -7.1023988    231.98523  0.033621047  0.034306515            2 
  576000    1.1650416   -7.1334034    230.74749  0.033383607  0.034296974            2 
  577000    1.1608237   -7.1068872    232.30412  0.033550566  0.034286975            1 
  578000    1.1379186   -7.1719646    231.48671  0.033374669  0.034276334            3 
  579000    1.1499652    -7.147982    233.20498  0.033564332  0.034265935            2 
  580000    1.1681622   -7.1345294    233.26785  0.033515495  0.034256156            3 
  581000    1.1492366    -7.157291    233.80003  0.033534141  0.034245886            1 
  582000    1.1631152     -7.16637    234.69799  0.033605096  0.034236733            1 
  583000    1.1583683   -7.1467938    234.60789  0.033534575  0.034227565            4 
  584000    1.1571115   -7.1577685    234.45608  0.033455491  0.034218335            3 
  585000    1.1937943   -7.1070717    235.12052  0.033492952  0.034209256            2 
  586000    1.1517599   -7.1567217    236.27425  0.033599864  0.034199855            1 
  587000    1.1512729   -7.1410324    235.99102  0.033502416  0.034190388            1 
  588000      1.17209   -7.0573142    237.40819  0.033646285  0.034181432            5 
  589000    1.1704662   -7.1805601    236.28974   0.03343092  0.034172428            1 
  590000     1.139879    -7.113598    237.95901   0.03361003   0.03416337            1 
  591000    1.1444499   -7.1263764    237.78698  0.033528902  0.034154634            1 
  592000    1.1579368   -7.1143107    238.53834  0.033578032  0.034145925            5 
  593000    1.1838854   -7.1269174    238.75798  0.033552274  0.034137174            2 
  594000    1.1548464   -7.1364119     238.5742  0.033470005   0.03412825            2 
  595000    1.1460696   -7.1535911     238.7137  0.033433291  0.034119068            1 
  596000     1.162203      -7.1553    239.29323  0.033458225  0.034110082            1 
  597000    1.1493445   -7.1439351    239.53182  0.033435486  0.034101428            1 
  598000    1.1335468   -7.1952462    240.42078  0.033503453   0.03409294            1 
  599000    1.1694919   -7.1289814    239.93384  0.033379777  0.034084298       -1e+20 
  600000     1.141998   -7.1169225    241.04118  0.033477942   0.03407573            2 
  601000    1.1618199   -7.1574509    242.08522  0.033567003  0.034067583            1 
  602000    1.1643732   -7.1519531    241.05234  0.033368264  0.034059296            1 
  603000    1.1386839   -7.1468167     242.4412  0.033504865  0.034050778            3 
  604000    1.1580833   -7.1374247    243.05169  0.033533622  0.034042562            1 
  605000    1.1391114   -7.1135091    244.31604  0.033652347  0.034034962            3 
  606000    1.1650265   -7.1716037     243.0345  0.033420585  0.034026823            1 
  607000    1.1508569   -7.0990419    244.55717  0.033574571  0.034019094            1 
  608000    1.1670302   -7.1566729    244.07557   0.03345334  0.034011242            2 
  609000    1.1512777   -7.1281497    245.45217  0.033586778   0.03400336            4 
  610000    1.1417509   -7.1215996    245.53507  0.033543043  0.033996022            5 
  611000    1.1392591   -7.1250977    246.18609  0.033576936  0.033988596            2 
  612000    1.1834446   -7.1349789     244.7778  0.033330311  0.033980509            3 
  613000    1.1741263   -7.1330015     245.9717  0.033438241  0.033972057            1 
  614000    1.1690566   -7.1890193    245.59665  0.033332879  0.033963815            1 
  615000    1.1587469   -7.1516477    246.51964  0.033403745  0.033955351            1 
  616000    1.1680962   -7.1229679    247.04806  0.033421004    0.0339468            1 
  617000    1.1564851    -7.119274    248.18088  0.033519838  0.033938498            2 
  618000    1.1480569    -7.147715    247.64261  0.033393016  0.033930165            2 
  619000    1.1673775   -7.1457599    247.31944  0.033295563  0.033921797            1 
  620000    1.1572985   -7.1044724    248.28796  0.033372037  0.033914097            1 
  621000    1.1546048   -7.1437328    248.21355  0.033308313  0.033905744            1 
  622000    1.1565998   -7.1425833    249.54621  0.033433307  0.033897682            3 
  623000    1.1378382   -7.1317237    249.80569  0.033414352  0.033889672            1 
  624000    1.1554755   -7.1284716    250.68372  0.033478062  0.033881471            1 
  625000    1.1589328   -7.1582402    250.39928  0.033386571  0.033873618            1 
  626000    1.1585834   -7.0889385    251.22003  0.033442496  0.033866322            1 
  627000    1.1481876   -7.1739691    250.72038  0.033322751  0.033858957            2 
  628000    1.1325988   -7.1629085     250.9544  0.033300742  0.033851051            2 
  629000    1.1660375   -7.1458575    252.82447  0.033495558  0.033843458            1 
  630000    1.1692919   -7.1250076    252.25606  0.033367204  0.033836207            3 
  631000    1.1585485   -7.1786102    253.41753  0.033467714  0.033828954            2 
  632000    1.1391509    -7.139636    253.38249  0.033410138  0.033821847            1 
  633000    1.1573152   -7.1420811    253.81171  0.033413864  0.033814438            4 
  634000    1.1272128   -7.1168161    253.53801  0.033325185  0.033806633            2 
  635000    1.1950641   -7.1450932    253.38847  0.033253079  0.033798267            4 
  636000    1.1629351   -7.1491817     254.1088  0.033295178  0.033790399            2 
  637000    1.1447948   -7.1337585    254.88033  0.033343842  0.033782445            1 
  638000    1.1487354   -7.1395954    254.93832  0.033299153  0.033774425            2 
  639000    1.1796449   -7.1387485    255.15869  0.033275781  0.033766212            1 
  640000    1.1417638   -7.1875819    255.44984  0.033261697  0.033757972            3 
  641000    1.1603336   -7.1685339    254.96669  0.033146995  0.033749877            1 
  642000    1.1569698   -7.1872918    256.08964  0.033241126  0.033741597            1 
  643000     1.133085   -7.1856098    256.65365  0.033262526  0.033733684            1 
  644000    1.1459997   -7.1404094    256.35256  0.033171915  0.033725458            1 
  645000    1.1672804   -7.1540304    257.49337  0.033267877   0.03371706            1 
  646000    1.1439964   -7.1683046    257.57391  0.033226769  0.033709287            7 
  647000    1.1538872   -7.1570581    257.59941  0.033178697  0.033701383            2 
  648000    1.1628938   -7.1229621    258.06756  0.033187701  0.033693234            1 
  649000    1.1860115   -7.1400576    258.78785  0.033229051  0.033685354            1 
  650000    1.1570083   -7.1638184    259.06675  0.033213686  0.033677499            2 
  651000    1.1370018   -7.1437821    259.35592  0.033199682  0.033669096            1 
  652000    1.1421849   -7.1515705       259.15  0.033122443  0.033660417            4 
  653000    1.1449729   -7.1397885    260.63222  0.033260876  0.033652232            2 
  654000    1.1377797     -7.18949    259.08783   0.03301323  0.033643768            1 
  655000    1.1660745   -7.1613787    260.29829   0.03311683  0.033635111            1 
  656000    1.1365539   -7.1687497    259.12414  0.032917192  0.033626439            1 
  657000    1.1516086   -7.1325764    261.23145   0.03313438  0.033617433            2 
  658000     1.160038   -7.1708212    261.01439  0.033056534  0.033609035            3 
  659000    1.1506531   -7.1732964    260.94869  0.032998065  0.033600488            2 
  660000    1.1480639   -7.1693546    261.07915   0.03296454  0.033591649            1 
  661000    1.1500808   -7.1498412    262.39635   0.03308073  0.033583016            1 
  662000    1.1624111   -7.1470031     262.3332  0.033022809  0.033574455            1 
  663000    1.1588357   -7.1407218    263.41561  0.033109051  0.033565799            2 
  664000    1.1324256    -7.159903    262.37808  0.032928975  0.033557617            3 
  665000    1.1379334    -7.170155    262.79511  0.032931718  0.033548865            2 
  666000    1.1215696   -7.1039186    264.44322  0.033088491  0.033539981            2 
  667000    1.1446698   -7.1462503    264.25192  0.033014983  0.033531596            2 
  668000     1.160946   -7.1361471    264.49522  0.032995911  0.033523187            1 
  669000     1.126303   -7.1567575    265.66325  0.033092084   0.03351496            1 
  670000    1.1579124   -7.1721229    265.05105  0.032966548  0.033507147            1 
  671000    1.1560703   -7.1698532    265.93481  0.033027175  0.033498325            2 
  672000    1.1568252   -7.1554242    267.06001   0.03311756  0.033490109            1 
  673000    1.1478883   -7.1404573     266.9312  0.033052402  0.033482006            1 
  674000    1.1433609   -7.1383722    267.52426  0.033076688  0.033474341            2 
  675000    1.1301403   -7.1265321     268.5103   0.03314942  0.033466472            3 
  676000     1.153213   -7.1640986     268.3801  0.033084331   0.03345803            2 
  677000    1.1289606   -7.1375904    269.27732  0.033145904   0.03345001            1 
  678000    1.1241426   -7.1244288    269.79154  0.033160219  0.033442133            1 
  679000    1.1479053   -7.1518687    270.66326  0.033218368  0.033434496            1 
  680000    1.1345672   -7.1822488    268.16827  0.032863759  0.033427205            2 
  681000     1.156399   -7.1565622    268.69517  0.032879977  0.033419237            2 
  682000     1.124928   -7.2066593    269.89669  0.032978579  0.033411441            2 
  683000    1.1157312   -7.1459909    270.58425  0.033014184  0.033403582            1 
  684000     1.161092   -7.1879777    270.00519  0.032895369  0.033395547            1 
  685000    1.1553036   -7.1447686    270.59152  0.032918677  0.033387582            2 
  686000    1.1396063   -7.1762717    271.24113  0.032949603  0.033379781            2 
  687000    1.1322696   -7.1327847    272.39056  0.033041067  0.033372256            2 
  688000    1.1169674   -7.1685358    272.19496  0.032969351  0.033365045            2 
  689000    1.1357886    -7.147125    273.17733  0.033040316  0.033357938            1 
  690000    1.1213409   -7.1229764    273.58988  0.033042256  0.033350899            1 
  691000    1.1275703   -7.1907282    273.85346  0.033026225  0.033343668            2 
  692000    1.1720944   -7.1586326    274.36339  0.033039908  0.033336804            2 
  693000    1.1251567   -7.1533329    274.82381  0.033047596  0.033330147            2 
  694000    1.1264863   -7.1658228    274.12421  0.032915972  0.033323005            1 
  695000    1.1303635   -7.1592807    275.57845   0.03304298  0.033315656            4 
  696000    1.1644391   -7.1515936    275.59855  0.032997911  0.033308746            2 
  697000    1.1179744   -7.1935325     275.4227  0.032929543  0.033301318            3 
  698000    1.1342392   -7.1400949    276.65634  0.033029649  0.033294512            2 
  699000    1.1313752   -7.1814282    276.55392  0.032970186  0.033287202            5 
  700000     1.147405   -7.1936812    276.19385   0.03288022   0.03327986            2 
  701000    1.1462563   -7.1762047    277.56551  0.032996375  0.033272904            1 
  702000    1.1226087   -7.1751147    276.27612   0.03279631  0.033265438            1 
  703000    1.1176794   -7.1989661    277.31994  0.032873393  0.033257785            3 
  704000    1.1424182   -7.2141109    276.36302  0.032713426  0.033249967            2 
  705000    1.1223845   -7.1928133    277.48204  0.032799295  0.033242181            2 
  706000    1.1355209   -7.1829186      278.954  0.032926582  0.033234518            2 
  707000    1.1153559    -7.168638     279.2372   0.03291339  0.033226946            1 
  708000    1.1312834   -7.1924739    279.53952  0.032902486   0.03321943            1 
  709000    1.1205393   -7.1443861    279.59401  0.032862484   0.03321178            2 
  710000     1.145667   -7.1610725    279.23669  0.032774259  0.033204508            1 
  711000    1.1351352   -7.1547085    279.81998  0.032796529  0.033197085            4 
  712000    1.1358776   -7.1703156    280.32195  0.032809217  0.033189778            1 
  713000    1.1422045     -7.19532    281.37406  0.032886169  0.033182213            3 
  714000    1.1451011   -7.1841893    280.39119  0.032725396  0.033174663            1 
  715000    1.1413597   -7.1668278    281.38724  0.032795716  0.033166837            3 
  716000    1.1095106   -7.1433934    281.54232  0.032767961  0.033159365            2 
  717000    1.1508927   -7.1708809    282.15184  0.032793101  0.033151751            2 
  718000    1.1659756    -7.199781    280.13686  0.032513563  0.033143546            3 
  719000    1.1231993   -7.2191168    281.98243  0.032682247  0.033135077            2 
  720000    1.1414836   -7.0952585    284.11672   0.03288388  0.033127128            3 
  721000    1.1374985   -7.1649151    282.34069  0.032632997  0.033119011            2 
  722000    1.1346855   -7.1697669    282.88997  0.032651197  0.033110761            1 
  723000     1.146817   -7.2014195    283.65639  0.032694375  0.033102579            2 
  724000    1.1214722   -7.1982451    284.19112  0.032710764  0.033094175            1 
  725000    1.1326452   -7.1670331    283.96104    0.0326392  0.033085748            2 
  726000    1.1358358    -7.231261     282.8742  0.032469491  0.033076776            2 
  727000     1.138692   -7.1826479    283.76118    0.0325265  0.033067693            1 
  728000    1.1117016   -7.1543982    283.38239  0.032438461  0.033058296            2 
  729000    1.1538389     -7.19126    284.74267  0.032549459  0.033048916            2 
  730000     1.130191   -7.1425324    286.01463  0.032650072    0.0330396            2 
  731000    1.1302853   -7.1599911    285.80008  0.032580949  0.033030844            4 
  732000    1.1327882   -7.1608004    285.78006   0.03253416  0.033022554            1 
  733000    1.1472989   -7.2205232      285.468  0.032454298  0.033014063            1 
  734000    1.1302294   -7.2168641    286.16012  0.032488661  0.033005315            1 
  735000    1.1407751   -7.1275319    287.29401  0.032573017  0.032997052            4 
  736000    1.1356602   -7.1630593    287.80888  0.032587057  0.032988465            1 
  737000    1.1269299   -7.1854604    288.26612  0.032594541  0.032980108            1 
  738000    1.1409807   -7.2133173    288.06535  0.032527704  0.032971862            1 
  739000    1.1146454     -7.18221    287.51107  0.032421185  0.032963513            3 
  740000    1.1592779   -7.1668809     289.2099  0.032568683    0.0329555            2 
  741000    1.1243416   -7.1910337    289.29604  0.032534417  0.032947652            3 
  742000    1.1356561    -7.183685    290.42628  0.032617507  0.032939755            1 
  743000    1.1308301   -7.2052042    290.16798  0.032544637  0.032931712            1 
  744000    1.1287298   -7.2144398    289.63618  0.032441328  0.032923658            2 
  745000    1.1085917   -7.1672734    290.85604  0.032534233  0.032915415            1 
  746000     1.151665   -7.1736101    291.92722   0.03261028  0.032907701            1 
  747000     1.140294   -7.2081869    291.11365  0.032475865  0.032899791            1 
  748000    1.1074204   -7.2285391     290.5233  0.032366678  0.032891756            3 
  749000    1.1302579   -7.1539117     292.5078  0.032544259  0.032883724            1 
  750000    1.1312115   -7.1766744    292.76519  0.032529465  0.032876234            3 
  751000    1.1240228   -7.1977261    293.91689  0.032613947  0.032868871            2 
  752000    1.1431454   -7.1977181    293.83274  0.032561252  0.032861177            4 
  753000    1.1493918    -7.223196    292.71873  0.032394725  0.032853203            2 
  754000    1.1540235   -7.2123848    293.93928  0.032486658  0.032845254            1 
  755000    1.1257828   -7.2045599    294.12873   0.03246454  0.032837418            2 
  756000    1.1120814   -7.1703829    294.94187  0.032511229  0.032829585            1 
  757000     1.146763   -7.1699165    294.74679  0.032446807   0.03282151            2 
  758000    1.1384526   -7.2200715     295.5358  0.032490743  0.032813502            2 
  759000    1.1264797   -7.1818409    295.50354  0.032444394  0.032805299            3 
  760000    1.1205335   -7.1699493    295.25684  0.032374653  0.032797249            2 
  761000    1.1236513   -7.1789983    295.00217  0.032304224  0.032789253            3 
  762000    1.1407757   -7.1592367    295.83714  0.032353143  0.032781428            1 
  763000    1.0980876   -7.1694651    297.15457  0.032454628  0.032773533            2 
  764000    1.1436096   -7.2168422    297.24217  0.032421703  0.032765855            1 
  765000    1.1331447   -7.2078733    297.13937  0.032368123  0.032758198            2 
  766000    1.1634989   -7.1798892    298.54444  0.032478725  0.032750491            2 
  767000    1.1179122   -7.1709828    298.61205  0.032443726  0.032742759            3 
  768000    1.1190972   -7.2273249    298.38108  0.032376419  0.032734987            1 
  769000    1.1169797    -7.218589    298.50656  0.032347914  0.032726985            2 
  770000    1.1233248   -7.2192599    298.45662  0.032300499  0.032718858            3 
  771000    1.1327353   -7.1856333    298.80353  0.032296101   0.03271111            1 
  772000    1.1372796   -7.2486541    299.82866  0.032364925  0.032703372            2 
  773000    1.1222231   -7.1920209    300.33178  0.032377294  0.032695298            1 
  774000    1.1547454   -7.2021326    298.95956  0.032187721  0.032686865            3 
  775000    1.1248137   -7.1852503    299.37435  0.032190791  0.032678248            1 
  776000     1.103691    -7.172124    300.90859  0.032314067  0.032669928            1 
  777000    1.1551861    -7.171321    300.05951  0.032181415  0.032661276            2 
  778000    1.1378023   -7.2110734    300.18667  0.032153671  0.032652697            2 
  779000    1.1064665   -7.2146117    300.26069  0.032120313  0.032644258            2 
  780000    1.1177946    -7.213574    301.25112  0.032184949   0.03263555            1 
  781000    1.1312445   -7.1529916    302.26519  0.032251941  0.032627361            2 
  782000    1.1101796   -7.1776964    302.55654  0.032241745  0.032618916            2 
  783000    1.1192413   -7.2047538     301.8129  0.032121424  0.032610283            3 
  784000    1.1100253   -7.1877866    303.43823  0.032253213  0.032601941            1 
  785000    1.1580059   -7.2204289    302.61604  0.032124845  0.032593052            2 
  786000    1.1054589   -7.1797582    304.37832  0.032270814  0.032584572            2 
  787000    1.1053923   -7.1832835    304.14019  0.032204595  0.032576357            1 
  788000    1.1206447   -7.2181865    304.28142  0.032178661  0.032568339            1 
  789000    1.1091787   -7.2177925    304.50178  0.032161151  0.032560242            1 
  790000    1.1145006   -7.2120551    305.32991  0.032207797  0.032552294            2 
  791000     1.123057   -7.2366261     304.8185    0.0321132  0.032544171            1 
  792000    1.1286068   -7.1927327    306.04757  0.032201975  0.032535772            1 
  793000     1.131045   -7.1905973    305.34147  0.032087166  0.032527262            1 
  794000     1.135219   -7.2097987     305.0788  0.032019186  0.032518722            1 
  795000    1.1120044   -7.2583534    305.56623  0.032030003   0.03251044            1 
  796000    1.1152631   -7.2234549    307.30235  0.032171519  0.032502291            1 
  797000    1.1220834   -7.1747158    307.16286  0.032116568  0.032493908            3 
  798000     1.139268   -7.2359935      306.354  0.031991855  0.032485382            4 
  799000    1.1023694   -7.2081707    307.57668  0.032079337   0.03247718            1 
  800000    1.1063017   -7.1964711    307.55469  0.032036947  0.032468865            3 
  801000     1.159703   -7.1615936     309.4362  0.032192696  0.032460574            2 
  802000     1.090118   -7.2515465    307.18283  0.031918415  0.032452215            2 
  803000    1.1308897   -7.2345057     308.5107   0.03201647  0.032443745            1 
  804000     1.123491   -7.2112319    308.50945  0.031976518  0.032435277            1 
  805000    1.1565604   -7.2432429    308.29174  0.031914258  0.032426803            2 
  806000    1.1146793   -7.1630833    309.96731  0.032047902  0.032418561            1 
  807000    1.1065477   -7.1776877    309.87522  0.031998681  0.032410437            3 
  808000     1.161756   -7.2013941    310.45468  0.032018841  0.032402416            3 
  809000     1.134377   -7.1840806    311.26975  0.032063221  0.032394294            1 
  810000    1.1202984   -7.2023776    310.89766  0.031985356  0.032386115            2 
  811000    1.1350339   -7.2414801    310.50558  0.031905629  0.032377656       -1e+20 
  812000    1.1103851   -7.2046147    312.00184  0.032019894  0.032369406            1 
  813000    1.1162889   -7.1912315    313.12946   0.03209609  0.032361387            2 
  814000    1.1336423   -7.2111595    312.02732  0.031943829  0.032353529            1 
  815000    1.0983764   -7.1852316    312.18994  0.031921262  0.032345477            1 
  816000    1.1091316    -7.238893     312.6207  0.031926134   0.03233706            2 
  817000    1.1159564   -7.2374228    312.12907   0.03183691  0.032328594            2 
  818000    1.0943284   -7.2404109    312.64019   0.03185006  0.032320076            1 
  819000    1.1269316   -7.2071866    314.57649   0.03200819  0.032311743            2 
  820000    1.1316127   -7.2288144    315.24366  0.032036958  0.032303353            2 
  821000    1.1094275   -7.2505759    313.90848  0.031862412  0.032295082            1 
  822000    1.1172313   -7.2237042    313.95734  0.031828603  0.032286774            1 
  823000    1.1442072   -7.2126085    314.95163  0.031890606  0.032278479            1 
  824000    1.1113613   -7.1866631    315.09464  0.031866367  0.032270217            1 
  825000     1.142356   -7.2052009    315.18446  0.031836814  0.032261853            2 
  826000    1.1309298   -7.1946593    315.56251  0.031836411  0.032253714            1 
  827000    1.1090951   -7.2187715    316.76475   0.03191906   0.03224574            3 
  828000    1.1330306    -7.256528    316.64731  0.031868691  0.032237747            2 
  829000    1.1099419   -7.2133019    316.88066  0.031853705  0.032229698            3 
  830000    1.1208133   -7.2369547    317.48042  0.031875544  0.032222169            2 
  831000    1.1092343    -7.220284    318.24629  0.031913988  0.032214418            1 
  832000    1.1170943   -7.2376512     317.6775   0.03181866  0.032206457            1 
  833000    1.0985359   -7.1983999    319.18656  0.031931429  0.032198872            3 
  834000    1.1081348   -7.2630647    319.75578  0.031950018  0.032191423            1 
  835000    1.1001968   -7.1753933    321.12796  0.032048699  0.032184398            2 
  836000    1.1143187   -7.2310966    320.55181  0.031952932  0.032177728            1 
  837000    1.1352288   -7.2290632    320.66025  0.031925553  0.032170575            4 
  838000    1.1243689   -7.1982023    321.17168  0.031938313  0.032163686            1 
  839000    1.1098226   -7.2210501    322.85461  0.032067402  0.032156864            2 
  840000    1.1293185   -7.2365025     322.1177  0.031956121  0.032149818            1 
  841000    1.1188901   -7.2172696    322.98588  0.032004149   0.03214302            2 
  842000    1.1184309    -7.211267    321.87215  0.031855914  0.032135975            1 
  843000    1.0994846   -7.2148893    324.05774  0.032034177  0.032128841            3 
  844000    1.1126223   -7.2221044    323.37904  0.031929211  0.032122002            2 
  845000    1.1219301   -7.2416058    324.51227  0.032003183   0.03211527            1 
  846000    1.1293415   -7.1518201    324.37625  0.031951956  0.032108147            2 
  847000    1.1303472   -7.2175358     323.8818  0.031865584  0.032101122            2 
  848000    1.1061032   -7.2501092    323.98515  0.031838164  0.032093901            4 
  849000    1.1162363    -7.233212    325.06375  0.031906532  0.032086491            1 
  850000    1.1032019   -7.2021238    324.90373  0.031853307  0.032079258            1 
  851000    1.1050243    -7.199094    325.24259  0.031849059  0.032072216            2 
  852000    1.1045543   -7.2011006    325.36387  0.031823539  0.032065186            1 
  853000    1.1260191   -7.2204881    325.61645  0.031810908  0.032057876            2 
  854000    1.1173812   -7.2665025    325.40004  0.031752541  0.032050381            2 
  855000     1.123312    -7.172199     325.7305  0.031747612  0.032042947            4 
  856000     1.124359   -7.2049871    326.07309  0.031743876  0.032035949            3 
  857000    1.1202725   -7.2561554    326.66825  0.031764707  0.032028778            2 
  858000    1.1224284   -7.1944537     327.2294  0.031782187  0.032021852            1 
  859000    1.1087418   -7.2736223    326.60959  0.031685059  0.032014528            3 
  860000    1.1130008    -7.182288    329.06847   0.03188648  0.032007152            2 
  861000    1.1044109   -7.2379106    327.81578  0.031728202  0.032000324            1 
  862000    1.1027793   -7.1760465    328.46915  0.031754558   0.03199296            1 
  863000    1.0966927   -7.2414351    328.06534  0.031678769  0.031985809            1 
  864000     1.110719   -7.2506518    329.17351  0.031748988  0.031978566            2 
  865000    1.1104357   -7.1990907    329.83827  0.031776327   0.03197163            2 
  866000    1.0982916    -7.179705    331.31664  0.031881894  0.031964745            1 
  867000    1.0917453   -7.2534386    330.12389  0.031730478  0.031957679            4 
  868000    1.0835266   -7.2492201    330.27957  0.031708868  0.031950481            2 
  869000    1.1232079   -7.2625398    331.15077  0.031755924  0.031943426            1 
  870000    1.1053713   -7.2011614    331.46286  0.031749316  0.031936377            2 
  871000     1.126232   -7.2355566    332.34612  0.031797371  0.031929403            4 
  872000     1.118549   -7.2376172    332.69041  0.031793808  0.031922264            1 
  873000     1.133258   -7.2253385    333.11795  0.031798201  0.031915403            1 
  874000    1.1282351   -7.2600442    333.21702  0.031771264  0.031908705            1 
  875000    1.0967191   -7.2366576    333.47894  0.031759899  0.031901803            2 
  876000     1.102924    -7.206988     333.1716  0.031694406  0.031894997            3 
  877000    1.1214105     -7.26143    333.09284  0.031650783    0.0318876            3 
  878000    1.1032677   -7.2079398    333.88659  0.031690071  0.031880476            1 
  879000    1.1249501   -7.2562407    332.80626  0.031551599  0.031873223            2 
  880000    1.1145451   -7.2083484    334.45118  0.031671513  0.031866046            3 
  881000    1.1054309   -7.2567862    333.98794  0.031591746  0.031858945            1 
  882000    1.1266198   -7.2060253     334.9237  0.031644341  0.031851833            6 
  883000    1.1128644   -7.2319473    336.75035  0.031780894  0.031844775            2 
  884000    1.0877103   -7.2692837    335.34119  0.031612104  0.031837789            3 
  885000     1.103589   -7.2773022    335.37226  0.031579309  0.031830422            1 
  886000    1.1054784   -7.2541808    335.78619  0.031582599  0.031823259            3 
  887000    1.1274135   -7.2508414    336.16456  0.031582541  0.031815936            1 
  888000    1.1141905   -7.2654982    336.77443  0.031604207  0.031809068            1 
  889000    1.1053448   -7.2383551    338.46324  0.031726963  0.031802093            4 
  890000    1.1016459   -7.2137968    337.57717  0.031608349  0.031795294            1 
  891000    1.1178403   -7.2317424    338.16856  0.031628186  0.031788919            2 
  892000    1.0952419    -7.230938    337.69194    0.0315482  0.031782401            1 
  893000    1.1280184   -7.2400038    339.29833  0.031662778  0.031775842            2 
  894000     1.120146   -7.2408168    338.89628  0.031589884  0.031769146            1 
  895000     1.111417   -7.2465074    339.40954  0.031602378  0.031762687            2 
  896000    1.1005347   -7.1931842    341.20482  0.031734079  0.031756338            1 
  897000    1.1169306   -7.2199311    340.89295  0.031669728  0.031750077            1 
  898000      1.12363   -7.2625616    340.60717  0.031607941  0.031743585            2 
  899000    1.1108606   -7.1975999    342.16482  0.031717169  0.031737269            2 
  900000    1.1075136   -7.2829285    340.85335  0.031560496  0.031731061            2 
  901000    1.1282893   -7.2434336    341.78599  0.031611727  0.031724804            2 
  902000    1.0945411   -7.2800187    341.60312  0.031559786  0.031718367            1 
  903000    1.1098404   -7.2342157    341.85556  0.031548132  0.031711626            2 
  904000    1.1251677   -7.2255403    342.14231  0.031539667  0.031704986            1 
  905000    1.0762451   -7.2326288    342.71722  0.031557755  0.031698305            2 
  906000    1.0770998   -7.1997943    343.75122   0.03161803  0.031691827            3 
  907000    1.0976234    -7.212655    345.21768  0.031717906  0.031685641            2 
  908000     1.094404   -7.2340888    343.86681  0.031558995  0.031679041            1 
  909000    1.0872076   -7.2137325    345.21004  0.031647418  0.031672873            1 
  910000    1.1208392   -7.2037632    344.94659  0.031588515  0.031667038            2 
  911000    1.0982132   -7.2680656    344.69848  0.031531145  0.031661019            3 
  912000    1.0930099   -7.2551754    346.29179  0.031642159  0.031654733            2 
  913000    1.1312338   -7.2615835      345.912  0.031572837  0.031648621            1 
  914000    1.0917666   -7.2987917     346.3575  0.031578911  0.031642377            2 
  915000    1.1151086   -7.2787467    345.19717  0.031438722  0.031635909            1 
  916000    1.0979937   -7.2674643    346.12071   0.03148842  0.031629477            2 
  917000    1.1077467   -7.2457444    346.15452  0.031457154  0.031623307            1 
  918000    1.0883838   -7.2539708    347.31395  0.031528136  0.031616849            1 
  919000    1.0982258   -7.2459102    346.92036  0.031458139  0.031610602            2 
  920000    1.1176612   -7.2443424    347.65406  0.031490404  0.031604295            1 
  921000    1.0905055   -7.2776603    346.82726  0.031381403  0.031597877            1 
  922000    1.0849356   -7.2462673    349.06147  0.031549301   0.03159146            1 
  923000    1.1004114   -7.2424458    347.79094   0.03140041  0.031584979            2 
  924000    1.1031755   -7.2356522    349.65745  0.031534763  0.031578697            1 
  925000    1.1148773   -7.2482538    349.42411  0.031479649  0.031572375            2 
  926000    1.0844706   -7.2641588    349.05642  0.031412565  0.031565915            2 
  927000    1.1084541   -7.2292453    349.87908  0.031452632  0.031559363            3 
  928000    1.0983115   -7.2573581    349.60908  0.031394494  0.031552805            2 
  929000    1.0957943    -7.263242    350.68014  0.031456776  0.031546399            1 
  930000    1.1002131   -7.2436607    350.99746  0.031451385  0.031539964            3 
  931000    1.1297643   -7.2588231    350.77229  0.031397448  0.031533522            2 
  932000     1.090509   -7.2790533    350.67393  0.031354965  0.031526718            3 
  933000    1.0912351    -7.260185    352.58406  0.031491967  0.031520122            1 
  934000    1.0870529   -7.2596389      352.062   0.03141167  0.031513652            1 
  935000    1.0974715   -7.2897085    351.97879  0.031370659  0.031507285            2 
  936000    1.1025784   -7.2402404    353.32365  0.031456878  0.031501228            1 
  937000    1.1212326   -7.2438806    354.09611  0.031492006  0.031495159            1 
  938000    1.1004067   -7.2190082    353.70108  0.031423337  0.031489171            2 
  939000     1.084922   -7.2934172    353.91311  0.031408689   0.03148293            2 
  940000    1.0733149   -7.2879726    354.91929  0.031464476  0.031476702            2 
  941000    1.0905884   -7.2223044    356.52927  0.031573616  0.031470696            2 
  942000    1.1059886   -7.2344219    355.38592  0.031438952   0.03146468            2 
  943000     1.111223   -7.2882838    354.81639  0.031355283  0.031458498            2 
  944000    1.0725264   -7.2343422    355.46906  0.031379684  0.031452217            3 
  945000    1.0920487   -7.2233653    355.73517  0.031369945  0.031445782            2 
  946000    1.0926529   -7.2368115    356.81107   0.03143156  0.031439442            3 
  947000    1.0990729    -7.268134    355.95785  0.031323289  0.031433099            1 
  948000    1.1039263   -7.2704712    356.65959  0.031351933  0.031426724            2 
  949000    1.1237776   -7.3067187     356.0898  0.031268862  0.031420358            2 
  950000     1.074712   -7.2534288    356.91925  0.031308706  0.031413829            7 
  951000    1.1121093   -7.2989574    357.57391   0.03133315  0.031407352            2 
  952000    1.1005639   -7.3011506    357.28474  0.031274925  0.031401101            1 
  953000    1.0944771   -7.2533601     359.7027  0.031453541  0.031394976            1 
  954000    1.1156996   -7.2372939    359.99521  0.031446123  0.031389091            2 
  955000    1.0886979   -7.2636598    360.18437  0.031429701  0.031382961            1 
  956000     1.114101   -7.2574256    359.30739  0.031320379  0.031376813            2 
  957000    1.0715316    -7.229107    360.12985  0.031359269  0.031370822            2 
  958000    1.0999869   -7.2703461    359.58332  0.031278994  0.031364864            1 
  959000    1.0832027   -7.2523121    361.42647   0.03140654  0.031358791            2 
  960000    1.1013584   -7.2533105    360.47523  0.031291253  0.031352739            2 
  961000    1.0704737     -7.23062    360.36113  0.031248797   0.03134653            5 
  962000     1.093769   -7.2832921     360.5661  0.031234069  0.031340195            4 
  963000    1.1093684    -7.268666    361.43356  0.031276701  0.031333928            4 
  964000    1.0644922   -7.2391835    360.23276  0.031140453  0.031327541            2 
  965000     1.095815   -7.2627142    362.16727   0.03127524  0.031320888            1 
  966000    1.0876306   -7.2610959    361.85045  0.031215532  0.031314236            2 
  967000    1.1099156   -7.2520002    361.21421  0.031128422  0.031307607            1 
  968000    1.1177515   -7.2397588    362.63049  0.031218189  0.031301311            4 
  969000    1.0852103   -7.2700187    362.69959  0.031191915  0.031294736            2 
  970000    1.0902968   -7.2438523    363.61725  0.031238595  0.031288122            1 
  971000    1.0962131   -7.3024723    363.27595  0.031177133  0.031281354            2 
  972000    1.0978058   -7.2986021    363.21482  0.031139816  0.031274597            2 
  973000    1.0851718   -7.2373471    363.84657  0.031161919  0.031267893            3 
  974000    1.1058134   -7.2159969     364.2266   0.03116244  0.031261226            1 
  975000    1.0803852   -7.2859341    363.64157  0.031080476   0.03125461            2 
  976000    1.1152857     -7.26764    364.73476   0.03114197  0.031247713            2 
  977000    1.0925483   -7.2808405    364.37175  0.031079132  0.031241092            2 
  978000    1.1097527   -7.2459413    366.96983  0.031268732  0.031234596            1 
  979000    1.1059173   -7.2129244     366.8713  0.031228404  0.031228463            2 
  980000    1.1084956   -7.2730862    365.81249  0.031106504  0.031221938            2 
  981000    1.1219374   -7.2668961    365.49787  0.031048069  0.031215617            3 
  982000    1.0789588   -7.2424513    367.52945  0.031188854  0.031209555            1 
  983000     1.080939   -7.2126402    369.14279  0.031293896  0.031203484            2 
  984000    1.0960539   -7.2154481    367.87978   0.03115513  0.031197451            2 
  985000     1.080068   -7.2498063    367.87497  0.031123094  0.031191363            1 
  986000    1.1067419   -7.3191299    367.25828  0.031039408  0.031185064            2 
  987000    1.0792974   -7.2886936    367.10579  0.030995085   0.03117833            2 
  988000    1.0878071   -7.2934255    368.38037  0.031071219  0.031171623            1 
  989000    1.0980021   -7.2764835    367.86147  0.030996079   0.03116499            2 
  990000    1.1217571     -7.25227    368.96131   0.03105735   0.03115818            2 
  991000    1.1010973   -7.2626578    369.12289  0.031039597  0.031151533            2 
  992000    1.0942359   -7.2824957     370.0704  0.031087903  0.031144924            3 
  993000    1.0657641   -7.2347605    370.78589  0.031116641  0.031138338            1 
  994000    1.0793625   -7.2844102    368.83687  0.030921938  0.031131548            3 
  995000    1.1030254   -7.2562702    370.95091  0.031067915  0.031125202            3 
  996000    1.1006125   -7.2565324    370.28605  0.030981095  0.031118713            2 
  997000    1.0835626   -7.2760487    369.74816  0.030905062  0.031112021            2 
  998000    1.1020645   -7.3421025    369.84569  0.030882239  0.031105189            2 
  999000    1.0985813   -7.3374362    371.29601  0.030972307  0.031098559            2 
 1000000    1.1073573   -7.2867119    371.31116  0.030942597  0.031091964            1 
 1001000    1.0939621   -7.2940628    371.20458  0.030902812    0.0310855            3 
 1002000    1.1043131   -7.2511179    373.22708  0.031040177   0.03107897            1 
 1003000    1.0753591   -7.2746196    371.82914  0.030893083  0.031072455            2 
 1004000    1.0922721   -7.2431651    372.73196  0.030937247  0.031065762            3 
 1005000    1.0762466   -7.2802793    374.47702  0.031051163  0.031059045            1 
 1006000    1.0859356   -7.2961855    373.33686   0.03092585  0.031052492            3 
 1007000    1.0987911   -7.2843027    374.23305  0.030969302  0.031045757            2 
 1008000    1.0596446   -7.2759399    373.65465  0.030890762  0.031038988            1 
 1009000    1.0885761   -7.3081059    373.73187  0.030866524  0.031032265            1 
 1010000    1.1105181    -7.293184    375.36622   0.03097081  0.031025593            2 
 1011000    1.0786272   -7.2713248    374.20108  0.030844138  0.031019111            2 
 1012000    1.0888868   -7.2790581    375.28353  0.030902794  0.031012345            1 
 1013000    1.0974509   -7.2730105    374.96238  0.030845869  0.031005497            2 
 1014000    1.0953576   -7.3002327    375.53892   0.03086283  0.030999048            1 
 1015000    1.0892416   -7.2605965    377.13045  0.030963091  0.030992325            3 
 1016000    1.0946321   -7.3116243    375.75128  0.030819495  0.030985606            5 
 1017000    1.1162381   -7.2469346    376.16296  0.030822924  0.030978837            2 
 1018000    1.0729995    -7.293595     376.1731  0.030793476  0.030971978            2 
 1019000    1.1053607    -7.320486    375.25445   0.03068813  0.030965131            2 
 1020000     1.100834   -7.2597326    376.20921  0.030736047  0.030958266            1 
 1021000    1.1068587   -7.2798266    376.04132  0.030692239  0.030951413            1 
 1022000     1.086409   -7.2875357    377.13009  0.030750985    0.0309444            1 
 1023000    1.1115571   -7.2716047    378.12897  0.030802295  0.030937466            2 
 1024000    1.1141825   -7.3042987    378.07746  0.030768022  0.030930647            1 
 1025000    1.0974235   -7.3044561    378.21702  0.030749351  0.030923723            1 
 1026000    1.0800443   -7.3079413     378.8212  0.030768454   0.03091678            2 
 1027000    1.0739145   -7.3211601    378.00204  0.030672025  0.030909781            1 
 1028000    1.1025523   -7.3107308    378.53273  0.030685208  0.030902537            2 
 1029000    1.0778714   -7.3212712    379.00218  0.030693406  0.030895497            2 
 1030000    1.0631855   -7.2950434    378.85924  0.030652042  0.030888278            2 
 1031000    1.1011949   -7.3181951    378.97733  0.030631857   0.03088083            2 
 1032000     1.082971   -7.2346139    380.28438  0.030707718  0.030873837            2 
 1033000    1.0720606   -7.2535696    380.86948  0.030725192  0.030866881            2 
 1034000     1.083611   -7.2673727    380.96885  0.030703485  0.030860102            2 
 1035000     1.113667   -7.3058754    382.42024  0.030790679  0.030853302            1 
 1036000    1.1089309   -7.3018738    381.14559  0.030658429  0.030846441            3 
 1037000    1.0855287   -7.2764644    382.38371   0.03072836  0.030839595            2 
 1038000    1.0920951   -7.2516345    382.39406  0.030699587  0.030832625            2 
 1039000    1.0825407   -7.3026615    381.79695  0.030622149  0.030825524            3 
 1040000     1.084358   -7.2638037    381.71192  0.030585891  0.030818344            2 
 1041000    1.0774966   -7.2865851    382.85988  0.030648405  0.030811268            2 
 1042000    1.0688415   -7.2612259    382.85863  0.030618892   0.03080413            2 
 1043000    1.1055162   -7.2472138    383.21769  0.030618224  0.030797276            4 
 1044000    1.0926044   -7.2953279    382.55487  0.030535989  0.030790287            3 
 1045000    1.0895613   -7.3243823    383.31269    0.0305672  0.030783107            2 
 1046000    1.0765613   -7.3068097    383.78989  0.030575995  0.030776054            1 
 1047000    1.0970796   -7.3017765    383.37393  0.030513684  0.030768837            2 
 1048000    1.0897083   -7.2915453    386.26879  0.030714757   0.03076176            1 
 1049000    1.0778332   -7.3256199    385.36876  0.030613978  0.030754684            2 
 1050000     1.069021   -7.2855029    386.60577  0.030682998  0.030747942            1 
 1051000    1.0533195   -7.2963145    386.66466  0.030658473  0.030741152            1 
 1052000    1.0519814   -7.3037682    386.51415  0.030617407  0.030734082            2 
 1053000    1.0988429    -7.294618    386.08101  0.030554053  0.030727077            2 
 1054000    1.0800448   -7.2671426    387.71881  0.030654555   0.03072014            2 
 1055000    1.0881207   -7.2736107    386.91479  0.030561989   0.03071323            2 
 1056000    1.0924688   -7.3143106    387.88009  0.030609225   0.03070644            4 
 1057000    1.0842286   -7.2796608    386.57509   0.03047738  0.030699583            1 
 1058000    1.0999732   -7.3093006    386.77084  0.030463992  0.030692555            2 
 1059000    1.0825382   -7.2933653    387.20774  0.030469605  0.030685466            7 
 1060000    1.0987513   -7.3386578    386.31066  0.030370335  0.030678525            1 
 1061000    1.0929758   -7.3014606    388.44164  0.030509083  0.030671289            1 
 1062000    1.0735034   -7.3028485    389.44816  0.030559334  0.030664151            2 
 1063000    1.0951748   -7.2675269    389.04528  0.030499003  0.030656941            2 
 1064000    1.0663618   -7.2851259    389.39098  0.030497413  0.030649827            1 
 1065000    1.0914965   -7.2626761    388.90704  0.030430911  0.030642662            4 
 1066000    1.1060797   -7.3161227    389.53492  0.030451448  0.030635665            1 
 1067000    1.0770793   -7.2941907    389.76203  0.030440646  0.030628507            2 
 1068000    1.0794838   -7.2834629    390.09035  0.030437762  0.030621324            1 
 1069000    1.0737105   -7.2925767     390.0428  0.030405582  0.030613941            4 
 1070000    1.0971164   -7.3380802    388.26038  0.030238348  0.030606493            1 
 1071000    1.0912442   -7.3227594    389.27999  0.030289449  0.030599015            1 
 1072000    1.0727645   -7.3475839    390.14659   0.03032856  0.030591567            1 
 1073000    1.1029243   -7.3083917    391.11833  0.030375764   0.03058428            1 
 1074000    1.0719121   -7.2944424    391.65041  0.030388765  0.030577189            1 
 1075000    1.0576857   -7.2630791    392.56156  0.030431129  0.030570318            1 
 1076000    1.1044898   -7.3305654    392.35428  0.030386794  0.030563351            3 
 1077000    1.1100809   -7.3157813    393.52009  0.030448785  0.030556584            2 
 1078000      1.08823   -7.3087202     392.8716  0.030370408  0.030549797            2 
 1079000    1.0592675   -7.3203584     394.0649  0.030434423  0.030543004            2 
 1080000    1.0905105   -7.2957112    392.85868   0.03031317  0.030536203            2 
 1081000     1.101711   -7.2865391     393.9219  0.030367091  0.030529435            2 
 1082000    1.0701868   -7.2917714    395.09018  0.030429003  0.030522696            1 
 1083000    1.0720853   -7.3214785    395.99639  0.030470637  0.030515604            1 
 1084000    1.0899057   -7.3260098    395.17333  0.030379254  0.030508642            2 
 1085000    1.0869514   -7.3173497    395.82732  0.030401484  0.030501977            2 
 1086000    1.0933328   -7.2843583    396.19247  0.030401509  0.030495154            1 
 1087000    1.0606245   -7.2814238    395.66208  0.030332879  0.030488271            2 
 1088000    1.0838007    -7.326426    396.10563  0.030338973   0.03048144            3 
 1089000    1.0605249   -7.2858916    396.90898  0.030372588  0.030474446            1 
 1090000    1.1028962    -7.304052     397.8734  0.030418455  0.030467691            3 
 1091000    1.0839137   -7.3096176    397.34928  0.030350541  0.030460898            4 
 1092000    1.0712738   -7.3218186    396.57277   0.03026349   0.03045407            1 
 1093000    1.0720612   -7.3004391    397.64935  0.030317883  0.030447246            1 
 1094000    1.0784662   -7.2934351    398.21647  0.030333369  0.030440363            2 
 1095000    1.0624242   -7.2724142     398.5849  0.030333706  0.030433579            5 
 1096000    1.0451158   -7.2530597    399.18987  0.030352028  0.030426839            1 
 1097000    1.1054436   -7.2942197    399.08174  0.030316146  0.030420126            5 
 1098000     1.067559   -7.3544318    399.15159  0.030293837  0.030413377            2 
 1099000    1.0619863   -7.2973224    400.47037   0.03036627  0.030406759            1 
 1100000    1.0700917   -7.3100035    400.13796  0.030313482   0.03040048            1 
 1101000    1.0770747   -7.3112292    399.60056  0.030245274  0.030393854            2 
 1102000    1.0642213    -7.329907     400.4018  0.030278418  0.030387099            2 
 1103000    1.0950497   -7.3445315    400.29983  0.030243263  0.030380324            1 
 1104000    1.0777574   -7.2797231    400.21711  0.030209624  0.030373602            2 
 1105000     1.045585   -7.2748324    401.65552  0.030290763  0.030366927            1 
 1106000    1.1011039   -7.3348609    400.30214  0.030161403  0.030360425            2 
 1107000    1.0612884   -7.3135209    401.69774  0.030239216  0.030353782            2 
 1108000    1.0670687   -7.2948276    402.20332  0.030249948  0.030347225            2 
 1109000    1.0589617   -7.3319004    402.35532  0.030234094   0.03034041            6 
 1110000    1.0484685   -7.3390623    403.05201   0.03025916  0.030333446            1 
 1111000    1.0506189   -7.2928645    401.74116    0.0301336  0.030326458            2 
 1112000    1.0701359   -7.3225628    403.34919  0.030227008  0.030319546            1 
 1113000    1.0573459    -7.308887     403.1312  0.030183528  0.030312712            1 
 1114000    1.0774895   -7.3191761    403.86803  0.030211552  0.030305829            1 
 1115000    1.0874202   -7.3880083    402.49396  0.030081761  0.030298748            2 
 1116000    1.0824907   -7.3544662    402.44758  0.030051342  0.030291509            1 
 1117000    1.0579976    -7.319944    403.32094  0.030089595  0.030284187            3 
 1118000    1.0743002    -7.321215    402.89435  0.030030885  0.030276585            2 
 1119000    1.0754043   -7.2719584    404.28486  0.030107601  0.030269153            2 
 1120000    1.0649355   -7.2830232    404.55876  0.030101098  0.030261843            5 
 1121000    1.1032537   -7.3343227    403.51535  0.029996681  0.030254585            1 
 1122000    1.0571252   -7.3309894     404.0125   0.03000687  0.030247362            2 
 1123000    1.0974285   -7.2973419    405.50751  0.030091089  0.030240199            5 
 1124000    1.1024808   -7.3215005    405.07919  0.030032562   0.03023293            2 
 1125000    1.0575936   -7.3196954     406.0153  0.030075208  0.030225742            2 
 1126000    1.0654449   -7.3355875     404.3602  0.029926006  0.030218332            1 
 1127000    1.0628563   -7.3142057    405.23323  0.029964007  0.030210951            2 
 1128000    1.0775273   -7.3300291    406.26438  0.030013621  0.030203604            2 
 1129000    1.0710325   -7.3475571    405.20798  0.029909063   0.03019633            2 
 1130000    1.0742054   -7.3481291    406.69571  0.029992309  0.030188825            3 
 1131000    1.0860381   -7.3396904    407.08965  0.029994817  0.030181436            1 
 1132000    1.0442075   -7.3490732    405.95687  0.029884929  0.030173783            1 
 1133000    1.0614358   -7.3419323    405.68623  0.029838646  0.030166199            1 
 1134000    1.0791596   -7.3335065    407.23681  0.029926279  0.030158661            2 
 1135000    1.0614578   -7.2782447    407.33758  0.029907311   0.03015117            1 
 1136000     1.056432   -7.3102051    407.70606  0.029908015  0.030144149            2 
 1137000    1.0585026   -7.3048282     408.3052  0.029925623  0.030136704            2 
 1138000    1.0804069   -7.3108709    408.05059  0.029880682  0.030129328            2 
 1139000    1.0685967   -7.3486173    407.77788  0.029834495  0.030121711            1 
 1140000    1.0709552   -7.3196867    407.89747  0.029817067  0.030113963            1 
 1141000    1.0623105     -7.31976    408.89777  0.029863992  0.030106413            1 
 1142000    1.0759746   -7.3363923    407.74845  0.029753974   0.03009878            2 
 1143000    1.0587698   -7.3088414    408.26722  0.029765764  0.030091159            2 
 1144000     1.069571   -7.3523201    408.88783  0.029784953  0.030083599            2 
 1145000    1.0719996   -7.3514747    407.76974  0.029677565  0.030075871            2 
 1146000    1.0747845   -7.3209952    409.72702  0.029793995  0.030068168            1 
 1147000    1.0571439   -7.3441522    409.73612  0.029768681  0.030060465            1 
 1148000    1.0550884   -7.3209962    409.87579  0.029752888   0.03005268            2 
 1149000    1.0695099   -7.2791759    410.86278  0.029798577  0.030044947            2 
 1150000    1.0627226   -7.3372799    411.78675  0.029839619   0.03003741            2 
 1151000    1.0625142   -7.3391264    410.86169  0.029746719  0.030029826            1 
 1152000    1.0362131   -7.3448393    409.87458  0.029649492  0.030021958            3 
 1153000      1.04642   -7.3319689     410.5711  0.029674118   0.03001411            2 
 1154000    1.0719725   -7.3164891    412.25588  0.029770066  0.030006343            1 
 1155000    1.0542421   -7.3148795    411.71165  0.029705025  0.029998817            1 
 1156000    1.0707695   -7.3346834    412.53363  0.029738584  0.029991214            2 
 1157000     1.050097    -7.345997    411.61399  0.029646643  0.029983424            2 
 1158000    1.0624053   -7.3068838    412.99534  0.029720448  0.029975826            2 
 1159000    1.0308803   -7.3549463    413.40245  0.029724076  0.029968039            2 
 1160000     1.084253   -7.3573205    413.78188   0.02972571  0.029960354            2 
 1161000     1.063251   -7.3204925    415.38639  0.029815274  0.029952672            5 
 1162000     1.078803   -7.3113434    413.73353  0.029671079  0.029945112            1 
 1163000    1.0838926   -7.3347069    413.60999  0.029636715  0.029937474            4 
 1164000    1.0815035   -7.3429374    414.87419   0.02970176  0.029929715            3 
 1165000    1.0603168   -7.3272394    413.79525  0.029599088  0.029922183            2 
 1166000    1.0911105   -7.3481335    414.83639  0.029648112  0.029914363            1 
 1167000    1.0733045    -7.318716    415.26085  0.029653017  0.029906665            3 
 1168000    1.0622421   -7.3392635    415.27208   0.02962843  0.029899091            2 
 1169000    1.0491279   -7.3603679    414.86319  0.029573937  0.029891554            1 
 1170000    1.0780093   -7.3156541    417.53439  0.029738917  0.029884163            3 
 1171000     1.050519   -7.3079953    417.20423  0.029690025  0.029876988            1 
 1172000    1.0692938   -7.3007076    416.74824  0.029632269  0.029869603            2 
 1173000    1.0568161   -7.3443576    417.34434  0.029649356  0.029862128            1 
 1174000     1.039913   -7.3625168    416.66133  0.029575619  0.029854693            1 
 1175000    1.0489815    -7.320265    418.90115  0.029709301  0.029847156            2 
 1176000    1.0619129   -7.3576237    416.67021   0.02952595  0.029839812            3 
 1177000    1.0626934   -7.3485624    418.17148  0.029607157  0.029832366            1 
 1178000    1.0500513    -7.340461    419.55761   0.02968008  0.029824934            1 
 1179000    1.0535784   -7.3380929      419.605  0.029658255  0.029817626            4 
 1180000    1.0481454   -7.3517448    420.20473  0.029675476  0.029810276            2 
 1181000    1.0517884   -7.3812272    419.23077  0.029581623  0.029803072            5 
 1182000    1.0666882   -7.3516706    419.37134  0.029566507  0.029795632            2 
 1183000    1.0677688   -7.3676318    419.33771  0.029539146  0.029788123            1 
 1184000    1.0735385   -7.3619093    420.66541  0.029607645  0.029780938            2 
 1185000    1.0528139    -7.321197     420.3443  0.029560078   0.02977347            2 
 1186000     1.034279   -7.3385041    421.17967  0.029593849  0.029766129            3 
 1187000    1.0572174   -7.3341905    421.31785  0.029578619  0.029758762            2 
 1188000    1.0797166   -7.4027124    419.71827  0.029441517  0.029751174            1 
 1189000    1.0501999   -7.3386399    421.22984  0.029522697  0.029743671       -1e+20 
 1190000    1.0564008   -7.3673483    422.18075  0.029564478  0.029736197            3 
 1191000    1.0733507   -7.3111458    422.30234  0.029548162  0.029728704            2 
 1192000    1.0440234   -7.3652194    421.78587  0.029487267  0.029721402            2 
 1193000    1.0697476   -7.3614971    422.66944  0.029524269  0.029714025            1 
 1194000    1.0515306   -7.3525905    422.93467  0.029518053  0.029706843            1 
 1195000    1.0638541   -7.3282537    423.28114  0.029517513  0.029699496            4 
 1196000    1.0674283   -7.3487736    423.57242  0.029513129  0.029692002            2 
 1197000     1.052347   -7.4004068    421.00405  0.029309667  0.029684198            2 
 1198000    1.0709397   -7.3690187    422.42027  0.029383714  0.029676329            1 
 1199000    1.0665115   -7.3900968    421.00582  0.029260899  0.029668537            2 
 1200000    1.0631223   -7.3629657    423.38763  0.029401919  0.029660911            1 
 1201000    1.0455407   -7.3453451    424.64387  0.029464604   0.02965342            1 
 1202000    1.0559904   -7.4126932    422.79844  0.029312149  0.029645695            1 
 1203000    1.0514015   -7.3930435     422.4671  0.029264831   0.02963786            2 
 1204000    1.0614146   -7.3719539    424.49308   0.02938075  0.029630068            2 
 1205000    1.0793575   -7.3183797    424.70106  0.029370751  0.029622466            2 
 1206000    1.0717122   -7.3557399    424.44148   0.02932846  0.029614835            3 
 1207000    1.0679167   -7.3344402     425.6494  0.029387559  0.029607067            1 
 1208000    1.0730498    -7.342336    425.87147  0.029378551  0.029599265            3 
 1209000    1.0519009   -7.3843241    424.04114  0.029228091  0.029591283            3 
 1210000    1.0489872   -7.3212314    427.05384  0.029411421  0.029583643            2 
 1211000    1.0595106   -7.3676606    425.27713  0.029264872   0.02957621            3 
 1212000    1.0327682   -7.3517925    426.63234  0.029333907  0.029568531            1 
 1213000    1.0675053   -7.3399434    426.34688  0.029290113   0.02956091            3 
 1214000    1.0360108   -7.3417981    427.07935  0.029316265  0.029553241            1 
 1215000    1.0475816   -7.3569151    426.92385  0.029281471  0.029545738            1 
 1216000    1.0432015   -7.3321654    428.87998  0.029391446  0.029538369            2 
 1217000    1.0601485    -7.339963    428.77931  0.029360402  0.029531087            2 
 1218000    1.0436966   -7.3472946    428.41426  0.029311321  0.029523696            1 
 1219000    1.0472014   -7.3549977    428.63123  0.029302108  0.029516207            2 
 1220000    1.0946201   -7.3632724    428.73636  0.029285271  0.029508591            3 
 1221000    1.0661246   -7.3667199    427.94114  0.029207012   0.02950123            1 
 1222000    1.0409543    -7.396488    429.19718  0.029268766  0.029493806            2 
 1223000    1.0753856    -7.386574    429.49301  0.029264991  0.029486251            2 
 1224000    1.0718311   -7.3212461    430.88411  0.029335792  0.029478914            1 
 1225000    1.0578124   -7.3650959    430.17972  0.029263927  0.029471432            2 
 1226000    1.0406037   -7.3425743    430.61637  0.029269737  0.029464051            1 
 1227000    1.0496994   -7.3942475     429.6266  0.029178661  0.029456557            1 
 1228000    1.0479307   -7.3645851    430.94313   0.02924424  0.029449056            1 
 1229000    1.0198834    -7.379523     430.5052  0.029190751  0.029441565            1 
 1230000    1.0660657   -7.4081865    429.94707  0.029129206  0.029433972            1 
 1231000    1.0614146   -7.3304808    432.89261  0.029304942  0.029426437            2 
 1232000    1.0464158   -7.3627816    431.79823  0.029207132  0.029418962            2 
 1233000    1.0453428   -7.3194952    432.55264  0.029234431  0.029411574            2 
 1234000    1.0551016   -7.3194804    433.93247  0.029303922  0.029404378            2 
 1235000    1.0585516   -7.3442892    433.26061  0.029234859    0.0293972            2 
 1236000    1.0643288   -7.4065272    433.20081  0.029207175  0.029390056            2 
 1237000    1.0568482   -7.4095493    433.21097  0.029184248  0.029382885            2 
 1238000    1.0608673   -7.3734579    433.44956  0.029176734  0.029375691            2 
 1239000    1.0829381   -7.3636799    433.55113  0.029160017  0.029368548            1 
 1240000    1.0579393   -7.3897237    434.34692  0.029189981  0.029361379            1 
 1241000    1.0540222   -7.3750799    436.28038  0.029296292  0.029354301            2 
 1242000    1.0538275    -7.362842    435.76632  0.029238212  0.029347371            1 
 1243000    1.0220754   -7.3738784    434.79919  0.029149852  0.029340429            3 
 1244000    1.0686377   -7.3570535    436.72978  0.029255746  0.029333404            1 
 1245000    1.0586466   -7.3577391    435.78453  0.029168978  0.029326454            1 
 1246000    1.0528249   -7.3651357    437.56586  0.029264704  0.029319329            2 
 1247000    1.0598128   -7.3931221    437.13248  0.029212275  0.029312236            1 
 1248000    1.0402304   -7.3456213    437.49353  0.029212976  0.029305261            1 
 1249000    1.0358759   -7.3677154    436.98256  0.029155495  0.029298245            1 
 1250000    1.0296853   -7.3614519    437.95239  0.029196826  0.029291148            2 
 1251000     1.041459   -7.3549776    438.19459  0.029189621  0.029284235            2 
 1252000    1.0670179   -7.3682436    438.66396  0.029197548  0.029277308            1 
 1253000    1.0305151   -7.3739945    438.35325  0.029153581  0.029270294            1 
 1254000    1.0560753   -7.3759202    438.14397  0.029116426  0.029263174            2 
 1255000    1.0666332    -7.354966    438.70238  0.029130304  0.029256053            2 
 1256000    1.0659292   -7.3973038    437.91079   0.02905459  0.029248892            2 
 1257000    1.0400076   -7.3490192    438.81538  0.029091446  0.029241612            5 
 1258000    1.0536218   -7.4065675    436.99677  0.028947852  0.029234102            2 
 1259000    1.0669767   -7.3492885     438.1454  0.029000887  0.029226685            1 
 1260000     1.051165   -7.3213158    440.23422   0.02911602  0.029219314            3 
 1261000    1.0303569     -7.39664    438.45031   0.02897504  0.029212018            5 
 1262000    1.0319097   -7.4117252    437.64885  0.028899158  0.029204508            2 
 1263000    1.0500921   -7.3665444    440.46751  0.029062253  0.029196969            2 
 1264000    1.0469723   -7.3568952    438.89812  0.028935794  0.029189427            3 
 1265000    1.0589989   -7.3949783    438.40526  0.028880452  0.029181821            2 
 1266000    1.0199212   -7.3769616    439.51107  0.028930428  0.029174282            2 
 1267000    1.0267475   -7.3485672    440.65618  0.028982911  0.029166735            1 
 1268000    1.0505799    -7.380141    440.12913  0.028925416  0.029159269            2 
 1269000    1.0435589   -7.3575431    441.59059  0.028998594  0.029151733            3 
 1270000    1.0215958   -7.3775557    440.51621  0.028905263  0.029144371            2 
 1271000    1.0591459   -7.3800902    440.03385  0.028850895  0.029136923            1 
 1272000    1.0530478   -7.4093329    441.69332  0.028936931  0.029129419            1 
 1273000    1.0767617    -7.366383     442.0912  0.028940246  0.029121875            3 
 1274000    1.0536309   -7.3953587    441.96843    0.0289095  0.029114449            2 
 1275000    1.0556983   -7.3684464    441.15864  0.028833898  0.029106971            1 
 1276000     1.034333   -7.4042954    442.12484  0.028874401  0.029099479            2 
 1277000    1.0335017   -7.3750821     442.3357  0.028865551  0.029092035            2 
 1278000    1.0472884   -7.3652719    444.25586   0.02896817  0.029084451            2 
 1279000    1.0380344   -7.4050825    442.31406  0.028819003   0.02907683            2 
 1280000    1.0580972   -7.3735336    442.72101  0.028822983  0.029069247            1 
 1281000    1.0386589   -7.3702266    443.02578  0.028820308  0.029061656            1 
 1282000    1.0624279   -7.3843301    441.33227  0.028687745  0.029053998            1 
 1283000    1.0499905   -7.3513687     444.9705  0.028901695  0.029046237            1 
 1284000    1.0528269   -7.3774226    443.72956  0.028798647  0.029038436            1 
 1285000    1.0447017   -7.3850116    442.65328  0.028706439  0.029030684            1 
 1286000    1.0487722   -7.3840006    443.38426  0.028731484  0.029022894            2 
 1287000    1.0374869   -7.3921723    444.37761  0.028773479   0.02901519            1 
 1288000     1.042898     -7.36636    445.36255  0.028814865  0.029007326            2 
 1289000    1.0525015   -7.3815666    443.64865  0.028681707  0.028999552            1 
 1290000    1.0754361   -7.3858224    444.25212  0.028698457  0.028991796            1 
 1291000    1.0439783   -7.3748213    445.30461  0.028744165  0.028984179            1 
 1292000    1.0346912   -7.4407226    443.89607  0.028631067  0.028976383            2 
 1293000     1.028788   -7.3939117    446.16262  0.028755002  0.028968477            3 
 1294000     1.041361   -7.4076614    445.22718  0.028672538  0.028960628            1 
 1295000    1.0368747   -7.3927914    445.96622  0.028697955  0.028952739            1 
 1296000    1.0467365   -7.3621668    446.29709  0.028697087  0.028944769            1 
 1297000    1.0504106   -7.4253975    444.61053  0.028566598  0.028936559            2 
 1298000    1.0701366   -7.3880047    444.50915  0.028538081  0.028928357            2 
 1299000    1.0554709   -7.4052814    444.27539  0.028501116  0.028920118            2 
 1300000    1.0450846    -7.447948     443.4198  0.028424346  0.028911771            1 
 1301000    1.0478804   -7.3922915    444.23832  0.028454927  0.028903303            1 
 1302000     1.026826      -7.4134     445.3583  0.028504756  0.028894965            3 
 1303000    1.0348102   -7.3769203    445.62088  0.028499673  0.028886584            3 
 1304000    1.0460187   -7.3990173    444.99096  0.028437561  0.028878183            1 
 1305000    1.0436775   -7.4264183    444.88598  0.028409067  0.028869742            2 
 1306000    1.0347376   -7.3933269    446.30346   0.02847776  0.028861335            2 
 1307000    1.0465685    -7.376735    447.40135  0.028525972  0.028853022            1 
 1308000    1.0390229   -7.4038582    447.62542  0.028518439  0.028844659            1 
 1309000    1.0511853    -7.347208    447.26566   0.02847375  0.028836245            2 
 1310000    1.0321046   -7.4057678    445.69582  0.028352151  0.028828034            2 
 1311000    1.0281157   -7.4011754    449.12753  0.028548661  0.028819763            1 
 1312000    1.0714475    -7.399919      447.349  0.028413935  0.028811461            2 
 1313000    1.0476583   -7.3912157    448.49575  0.028465077  0.028803187            3 
 1314000    1.0236175   -7.4096032      448.698   0.02845624  0.028794805            3 
 1315000    1.0325418   -7.4007736    449.28759  0.028471964  0.028786572            2 
 1316000    1.0295787   -7.3318412    449.88214  0.028487977  0.028778327            1 
 1317000    1.0335785   -7.4021482    449.61543   0.02844947  0.028769967            1 
 1318000    1.0413746    -7.361349     449.9553  0.028449374   0.02876174            2 
 1319000    1.0396017   -7.3978586    448.86462  0.028358897  0.028753442            2 
 1320000    1.0338773   -7.4099747    447.81242  0.028270986   0.02874497            2 
 1321000     1.031704   -7.3687256    449.65275  0.028365679  0.028736659            2 
 1322000    1.0295784   -7.4156642    448.23807  0.028255047  0.028728147            1 
 1323000    1.0418336   -7.3566348    449.86495  0.028336165  0.028719601            3 
 1324000    1.0641946   -7.3801575    449.98677   0.02832243  0.028711097            2 
 1325000    1.0331338   -7.4087072    450.27355  0.028319091  0.028702721            1 
 1326000     1.044327   -7.4051095    450.97853  0.028342039  0.028694386            3 
 1327000    1.0409411   -7.3934694    450.13432  0.028267666   0.02868588            2 
 1328000    1.0384919   -7.3824231    451.25415  0.028316651  0.028677413            2 
 1329000    1.0564636   -7.3960828    451.41511  0.028305437  0.028668964            1 
 1330000    1.0475622   -7.3960668    451.24606  0.028273563  0.028660708            1 
 1331000    1.0350977   -7.3867375    451.59556  0.028274203   0.02865222            5 
 1332000    1.0070429   -7.3695645    452.12159  0.028285885  0.028643959            2 
 1333000    1.0190639   -7.3656102    452.74477  0.028303624  0.028635794            3 
 1334000    1.0443665   -7.4017558    452.47172   0.02826535  0.028627605            2 
 1335000    1.0589578   -7.3972272    453.50461  0.028308652  0.028619369            3 
 1336000    1.0348729   -7.3888435    453.22624    0.0282701  0.028611021            1 
 1337000    1.0226943   -7.4340459    452.73661  0.028218437  0.028602696            1 
 1338000    1.0606229   -7.4314123     452.1246   0.02815923  0.028594189            2 
 1339000    1.0309176   -7.4254317     452.3573  0.028152682  0.028585627            2 
 1340000     1.058485   -7.4047928    453.10734  0.028178317  0.028577107            3 
 1341000    1.0245216   -7.3967378    454.30405  0.028231671  0.028568644            1 
 1342000    1.0332869   -7.3930388     454.7845  0.028240468  0.028560412            3 
 1343000    1.0321443   -7.3942021    455.91274  0.028289448  0.028552121            2 
 1344000    1.0473147   -7.3758084    453.87026  0.028141757  0.028543912            5 
 1345000    1.0146968    -7.386939    454.13163  0.028137028  0.028535728            1 
 1346000    1.0300103   -7.3995873    454.75033  0.028154429  0.028527389            3 
 1347000    1.0529536   -7.3884832    456.75727  0.028257688  0.028519179            1 
 1348000     1.036195   -7.3811617    455.72243  0.028172752  0.028510977            4 
 1349000    1.0572448   -7.4182745    455.79862  0.028156574  0.028502783            2 
 1350000    1.0466725   -7.4356632    455.04684  0.028089311  0.028494416            2 
 1351000    1.0210535   -7.3897537    456.69744  0.028170333  0.028486049            3 
 1352000    1.0580586   -7.3904562    456.28365  0.028123992  0.028477715            1 
 1353000    1.0603921   -7.3822536    456.57487  0.028121143  0.028469254            1 
 1354000    1.0361319   -7.4251987    457.31735   0.02814607  0.028460925       -1e+20 
 1355000    1.0396348   -7.4275751     456.1487  0.028053426  0.028452618            2 
 1356000     1.063258   -7.4288647    456.36472  0.028046013  0.028444153            2 
 1357000    1.0341684   -7.4134294    456.77126  0.028050311  0.028435656            1 
 1358000    1.0430424    -7.379168    457.72531    0.0280882  0.028427225            1 
 1359000    1.0498466   -7.4151938    457.46306  0.028051451  0.028418733            1 
 1360000    1.0377245   -7.4409523    456.03327  0.027943215  0.028410245            1 
 1361000    1.0454827   -7.4347066    457.48812  0.028011763  0.028401648            3 
 1362000    1.0320548   -7.4383244    457.52605  0.027993517  0.028392983            2 
 1363000    1.0405003   -7.4075737    457.48645  0.027970558   0.02838451            1 
 1364000    1.0382229   -7.4510307    458.61849  0.028019214  0.028376013            1 
 1365000    1.0232295    -7.440456    456.99378  0.027899498  0.028367355            3 
 1366000    1.0299332   -7.4180079    459.38098  0.028024706   0.02835882            2 
 1367000    1.0206824   -7.4294194    459.22805  0.027994883  0.028350354            2 
 1368000    1.0439041   -7.3985055    458.70586  0.027942608  0.028341704            1 
 1369000    1.0655349   -7.4351877    457.86319  0.027870903  0.028333145            2 
 1370000    1.0175859   -7.3848727     458.4011  0.027883279  0.028324666            2 
 1371000    1.0305039   -7.3873567    460.93373  0.028016881  0.028316343            1 
 1372000    1.0401043   -7.3899303    458.60295  0.027854892  0.028307912            1 
 1373000    1.0509833    -7.377526    460.21839  0.027932653  0.028299401            1 
 1374000    1.0389261   -7.4397804    458.61146  0.027814863  0.028290914            1 
 1375000    1.0304692   -7.4187596    461.19283   0.02795108   0.02828225            2 
 1376000     1.042081   -7.4100657    460.48841  0.027888106  0.028273671            2 
 1377000    1.0197512   -7.4209452    459.02792  0.027779467  0.028265049            1 
 1378000    1.0313995   -7.4373968     459.2856  0.027774891  0.028256233            1 
 1379000      1.02933   -7.4350414    460.12769  0.027805638  0.028247549            3 
 1380000     1.021793   -7.4091518    460.16684  0.027787853  0.028238942            2 
 1381000    1.0331199   -7.4188387    460.54254  0.027790402  0.028230252            3 
 1382000    1.0387998   -7.4173397    463.02703  0.027920106  0.028221628            2 
 1383000     1.032215   -7.4357665    461.26038  0.027793467  0.028213124            5 
 1384000    1.0267127   -7.4229623    462.92956   0.02787389  0.028204597            2 
 1385000    1.0425558    -7.402009     460.6354  0.027715728  0.028196133            2 
 1386000    1.0278599   -7.4165108    462.60503  0.027814155  0.028187653            1 
 1387000    1.0182363   -7.4170428    462.44477  0.027784473  0.028179219            2 
 1388000    1.0347099   -7.3975283    463.93445  0.027853893  0.028170799            2 
 1389000    1.0490751   -7.4440498    461.87455  0.027710256  0.028162395            2 
 1390000    1.0052056    -7.416035    462.49915  0.027727767  0.028153781            2 
 1391000     1.030444   -7.4084871    462.51043  0.027708509  0.028145276            2 
 1392000    1.0205603   -7.4192512    463.05824  0.027721399  0.028136765            2 
 1393000    1.0188753   -7.3995565     464.9779  0.027816338  0.028128306            2 
 1394000    1.0537253   -7.4379429    464.98758  0.027796962  0.028119782            1 
 1395000    1.0280932   -7.3917861    465.06213  0.027781489  0.028111222            2 
 1396000    1.0489224   -7.4446015    464.69053  0.027739406  0.028102735            2 
 1397000    1.0316327   -7.4271696    464.55618  0.027711535  0.028094313            1 
 1398000    1.0095713   -7.4320094    463.24151  0.027613347  0.028085751            2 
 1399000    1.0295775   -7.4232783    464.40281  0.027662783  0.028077318            1 
 1400000    1.0380568   -7.4299297    464.74863  0.027663609  0.028068878            2 
 1401000    1.0317651   -7.4326881    465.01556  0.027659741  0.028060112            1 
 1402000    1.0312938   -7.3942653    465.62351  0.027676148  0.028051627            1 
 1403000    1.0233466   -7.4281943     465.1159  0.027626271   0.02804321            1 
 1404000     1.022279   -7.4256915    465.28766  0.027616789  0.028034771            1 
 1405000    1.0153105   -7.4234326    466.33577  0.027659298  0.028026328            1 
 1406000    1.0094566   -7.4046189    467.97801  0.027736961  0.028017901            2 
 1407000    1.0122038   -7.4218996    467.43933  0.027685343  0.028009447            1 
 1408000    1.0070478   -7.4196037    467.32932  0.027659169  0.028000971            2 
 1409000    1.0435572   -7.4181897    468.16196  0.027688784  0.027992718            2 
 1410000    1.0224378   -7.4323151    468.90292  0.027712939  0.027984448            3 
 1411000    1.0368495   -7.4411444    467.79485  0.027627856  0.027976158            1 
 1412000     1.027381   -7.4492183    468.57853   0.02765454  0.027967724            3 
 1413000    1.0299534   -7.4484785    467.46775  0.027569459  0.027959271            1 
 1414000      1.03672   -7.4290012    468.55366  0.027613959  0.027950871            3 
 1415000    1.0197293   -7.4241059    467.77126  0.027548366  0.027942575            2 
 1416000    1.0257152   -7.4420458    468.62774  0.027579316  0.027934112            1 
 1417000     1.033014   -7.4399931    468.33286  0.027542511  0.027925702            2 
 1418000    1.0318704   -7.4532044    469.55198  0.027594733  0.027917353            3 
 1419000    1.0298074   -7.4699585    468.94923  0.027539889  0.027908947            2 
 1420000    1.0279032   -7.4429235    470.69759  0.027623098  0.027900617            1 
 1421000    1.0281643   -7.4539279    469.36584   0.02752556   0.02789228            3 
 1422000    1.0105691   -7.4297961    470.56768  0.027576634  0.027883876            1 
 1423000    1.0253063    -7.434877    470.16134  0.027533458  0.027875527            2 
 1424000    1.0189839   -7.4228424    470.68896     0.027545  0.027867236            1 
 1425000    1.0369864   -7.4256925    469.97961  0.027484188  0.027859004            1 
 1426000    1.0301916   -7.4356221     469.9338  0.027462237  0.027850746            2 
 1427000    1.0236162   -7.4503614    470.30235  0.027464515  0.027842395            6 
 1428000    1.0072795   -7.3651174    472.29317  0.027561459   0.02783414            3 
 1429000    1.0223338   -7.4384887    471.88322  0.027518265   0.02782602            1 
 1430000   0.98273021   -7.4274269    472.92278  0.027559602  0.027817735            1 
 1431000     1.013496   -7.4425676    471.33526  0.027447895  0.027809437            2 
 1432000    1.0320379   -7.4613953    472.89316  0.027519388  0.027801241            2 
 1433000    1.0139379    -7.431792    473.65025  0.027544211  0.027792998            2 
 1434000   0.98730251    -7.411387    473.07113  0.027491349  0.027784676            3 
 1435000    1.0441256   -7.4243922     472.0579  0.027413351  0.027776418            1 
 1436000    1.0205373   -7.4599471    473.35282  0.027469407  0.027768319            3 
 1437000     1.014175   -7.4733617    472.35612  0.027392491  0.027760077            1 
 1438000    1.0171251    -7.462685    474.14708   0.02747723  0.027751891            4 
 1439000    1.0109919   -7.4307136    475.57101  0.027540596  0.027743665            3 
 1440000    1.0387868   -7.4366323    474.74549  0.027473697   0.02773555            4 
 1441000    1.0310548   -7.4418489    474.42485  0.027436089  0.027727377            2 
 1442000     1.017977   -7.4421085    473.41349  0.027358616  0.027719167            1 
 1443000    1.0226023   -7.4215245    475.32566  0.027450084  0.027710752            3 
 1444000    1.0257742   -7.4342516    475.32573  0.027431079  0.027702558            5 
 1445000    1.0026347   -7.4644154    474.70543  0.027376323  0.027694263            2 
 1446000    1.0364779   -7.4389552    475.58973  0.027408352  0.027685956            1 
 1447000    1.0306493   -7.4202821    475.87791  0.027406007  0.027677741            2 
 1448000    1.0362469   -7.4285242    477.59663  0.027485994  0.027669462            2 
 1449000    1.0066127   -7.4640674    475.66307  0.027355824  0.027661317            1 
 1450000     1.015783   -7.4069329    477.32332  0.027432375  0.027653132            2 
 1451000    1.0342458   -7.4664355    476.11066  0.027343824   0.02764497            1 
 1452000    1.0214955   -7.4765287    476.20017  0.027330129  0.027636828            2 
 1453000    1.0179743   -7.4539387    476.78949  0.027345119  0.027628602            1 
 1454000    1.0113117   -7.4443686    478.44494  0.027421191   0.02762046            2 
 1455000    1.0105648   -7.4640855    477.17241  0.027329462  0.027612274            2 
 1456000    1.0188836     -7.46038     477.6633  0.027338788  0.027604103            1 
 1457000    1.0185764    -7.456477    478.67699  0.027378002  0.027595914            1 
 1458000    1.0179043   -7.4631088    476.91548  0.027258543  0.027587835            3 
 1459000     1.005724   -7.4756717    476.69584  0.027227315  0.027579721            2 
 1460000    1.0317435   -7.4407094    477.81115  0.027272326  0.027571582            1 
 1461000    1.0217913   -7.4319057    479.78611  0.027366308  0.027563443            2 
 1462000    1.0545119   -7.4616608    478.67754  0.027284401  0.027555586            2 
 1463000    1.0084536   -7.4221836    480.26591  0.027356226  0.027547541            1 
 1464000    1.0057804   -7.4475054    478.93179    0.0272616  0.027539421            2 
 1465000      1.03809   -7.4549916    478.31266  0.027207774  0.027531399            1 
 1466000     1.009106   -7.4497429    478.63504   0.02720754  0.027523219            2 
 1467000       1.0296   -7.4674879    478.21837  0.027165324  0.027515014            3 
 1468000    0.9857561   -7.4589352    479.46517  0.027217596  0.027506829            1 
 1469000    1.0106527   -7.4364601     480.1556  0.027238235   0.02749865            1 
 1470000    1.0088624    -7.449437    479.87054  0.027203545  0.027490576            2 
 1471000    1.0160466   -7.4518634     480.1015  0.027198136  0.027482407            2 
 1472000    1.0114794     -7.42632    481.07476  0.027234758  0.027474324            1 
 1473000      1.00419   -7.4553757     480.8589  0.027204056  0.027466327            3 
 1474000   0.99961547   -7.4676082    481.76219  0.027236668   0.02745835            2 
 1475000    1.0136215   -7.4656614    481.60852  0.027209521  0.027450344            4 
 1476000    1.0072913    -7.442163    482.40217  0.027235895  0.027442471            1 
 1477000    1.0140088    -7.456353    480.19284  0.027092803  0.027434461            1 
 1478000   0.99689824   -7.4142453    483.84811  0.027280565  0.027426424            1 
 1479000    1.0297859   -7.4125954    480.53172   0.02707526  0.027418251            2 
 1480000    1.0258981   -7.4736486    482.72575  0.027180504  0.027410013            1 
 1481000    1.0001635   -7.4303182    483.96538  0.027231903   0.02740181            3 
 1482000    1.0260689   -7.4781997    481.77854  0.027090561  0.027393799            3 
 1483000    1.0047076   -7.4672494    482.59331  0.027118078  0.027385784            3 
 1484000    1.0046895   -7.4582851    483.90308  0.027173354  0.027377759            2 
 1485000    1.0120569   -7.4711552    483.41227  0.027127512  0.027369684            2 
 1486000    1.0052194   -7.4760438    482.13252   0.02703749  0.027361611            2 
 1487000    1.0111719   -7.4503105    484.49069  0.027151462  0.027353653            2 
 1488000    1.0096097   -7.4540327    483.62393  0.027084673  0.027345638            1 
 1489000    1.0414506   -7.4524175    484.36969  0.027108221  0.027337544            1 
 1490000    1.0050975   -7.4763437    483.69322  0.027052194  0.027329496            1 
 1491000    1.0027003   -7.4973048    482.67478  0.026977128  0.027321346            5 
 1492000    1.0003043   -7.4422534    485.46303   0.02711478  0.027313216            2 
 1493000    1.0130466   -7.4826177    484.88435   0.02706432  0.027305276            1 
 1494000    1.0148625   -7.4510198    485.86014  0.027100633  0.027297418            1 
 1495000    1.0041817   -7.4893186    485.50039  0.027062452  0.027289582            1 
 1496000    1.0242584   -7.4588571    484.42402  0.026984404  0.027281557            4 
 1497000   0.99582034   -7.4468307     486.5085  0.027082415  0.027273569            2 
 1498000    1.0341909   -7.4631289    484.77722  0.026968025  0.027265541            2 
 1499000     1.013428   -7.4887081    485.60876  0.026996262  0.027257501            1 
 1500000   0.99413251   -7.4841196     486.5486  0.027030478  0.027249473            2 
 1501000    1.0238362   -7.4815957    485.85237  0.026973816  0.027241412            1 
 1502000    1.0342409   -7.4551413    486.15305   0.02697254  0.027233498            1 
 1503000    1.0234709   -7.4441911    488.55608  0.027087829  0.027225673            1 
 1504000    1.0172936     -7.44975    488.05251  0.027041916  0.027217809            3 
 1505000    1.0184217   -7.4435957    487.09384  0.026970866  0.027209967            2 
 1506000    1.0048336   -7.4893202    487.66036  0.026984305  0.027202099            2 
 1507000    1.0107043    -7.459501    488.18559  0.026995443  0.027194196            3 
 1508000   0.98528009   -7.4705405    487.86304  0.026959717  0.027186185            2 
 1509000    0.9990504   -7.4862636    486.95635   0.02689178  0.027178237            2 
 1510000   0.99481419    -7.474926    487.68336  0.026914093  0.027170184            1 
 1511000    1.0172403   -7.4998448    488.98556  0.026968098  0.027162244            1 
 1512000    1.0031422   -7.4574438    489.35412  0.026970575  0.027154259            2 
 1513000   0.96749311   -7.4694381    487.83973  0.026869339  0.027146222            1 
 1514000    1.0024534   -7.4493481    489.00665  0.026915822  0.027138116            1 
 1515000    1.0086561   -7.5030074    488.67181  0.026879638  0.027129963            3 
 1516000   0.99119889   -7.4778816    488.69592  0.026863232  0.027121828            1 
 1517000    1.0109609   -7.4634078    489.91233  0.026912345  0.027113683            2 
 1518000    1.0137662   -7.5072099    488.01779  0.026790612  0.027105582            3 
 1519000     1.014779   -7.4810732    489.22521  0.026839215    0.0270975            1 
 1520000    1.0036156   -7.4841404    489.19164  0.026819717  0.027089452            2 
 1521000    1.0131808   -7.4640597    490.45254  0.026871167  0.027081502            1 
 1522000    1.0051492   -7.4621712    490.13995  0.026836397   0.02707355            3 
 1523000     1.002318   -7.4274298    492.71488  0.026959667  0.027065669            5 
 1524000     1.004297   -7.4469722    490.03192  0.026795271  0.027057848            1 
 1525000     1.013045   -7.4735546    490.26825  0.026790614  0.027049893            2 
 1526000    1.0119654    -7.450739    490.63293  0.026792974  0.027041942            1 
 1527000   0.99858608   -7.4841651    493.47797  0.026930691  0.027034037            1 
 1528000    1.0027311   -7.4723871    491.79336  0.026821191  0.027026164            1 
 1529000    1.0186507   -7.5173202    491.99691  0.026814743  0.027018194            1 
 1530000     1.010944   -7.4889867    490.79442  0.026731722   0.02701012            1 
 1531000     1.002295   -7.4709196    492.33598   0.02679817  0.027002178            1 
 1532000     1.001306   -7.4831117    491.92748  0.026758457  0.026994196            2 
 1533000    1.0122994   -7.4844335    491.88316  0.026738593  0.026986115            1 
 1534000    1.0025697   -7.4508893     491.7421    0.0267135  0.026977935            1 
 1535000    1.0133728   -7.4592224     492.5899  0.026742122   0.02696988            5 
 1536000    1.0159197   -7.4875375    491.71462  0.026677225  0.026961724            3 
 1537000   0.99748458   -7.4818011    492.79069  0.026718211  0.026953655            2 
 1538000    1.0226336   -7.4646126    493.24436   0.02672542  0.026945597            2 
 1539000    1.0225361   -7.4905013    492.95032  0.026692134  0.026937583            1 
 1540000    1.0031027   -7.5022132    491.94117  0.026620193  0.026929442            1 
 1541000    1.0109573    -7.478868    492.31763  0.026623277  0.026921241            2 
 1542000   0.99891101   -7.4649305    491.22943  0.026547202  0.026913071            1 
 1543000   0.99849771   -7.5126679    492.04169  0.026573865  0.026904759            1 
 1544000   0.99896053   -7.4815615     492.6451  0.026589222  0.026896449            1 
 1545000    1.0029362    -7.480721    494.05137  0.026647862  0.026888053            1 
 1546000    1.0097984   -7.4893351    493.89327  0.026622104   0.02687967            1 
 1547000   0.99082988   -7.4763163    494.17578  0.026620113  0.026871355            1 
 1548000    1.0079852   -7.4550759    492.87885  0.026533099  0.026863066            2 
 1549000   0.98963451   -7.4975558     493.2654  0.026536766  0.026854817            2 
 1550000    1.0027654   -7.5318484    492.46771  0.026476759  0.026846431            2 
 1551000    1.0190089   -7.4737478    494.21635   0.02655364  0.026838098            2 
 1552000      1.02202   -7.4960547    493.56987  0.026501818  0.026829789            1 
 1553000    1.0183439    -7.473127    494.65671  0.026543073  0.026821513            2 
 1554000     0.988203   -7.4833156    495.03374  0.026546211  0.026813252            2 
 1555000    1.0015371   -7.4576386    494.79398   0.02651629  0.026804909            1 
 1556000    1.0013938   -7.5089622    493.45814  0.026427707  0.026796479            2 
 1557000    1.0146151   -7.4929257    493.98544  0.026438955  0.026788035            3 
 1558000   0.99176872    -7.508394    494.32615  0.026440209  0.026779658            2 
 1559000    1.0105993   -7.4570386    496.12969  0.026519654  0.026771349            2 
 1560000    1.0156629   -7.4815943    494.57112  0.026419397  0.026763242            2 
 1561000    0.9919731   -7.4891582    496.40162  0.026500193  0.026754966            1 
 1562000    1.0010179   -7.4610793    495.78657  0.026450415  0.026746683            2 
 1563000    1.0050955   -7.4853189    496.47125  0.026469996  0.026738418            2 
 1564000   0.98573613    -7.476778    495.45785  0.026399075   0.02673015            2 
 1565000   0.99522833   -7.5009091    496.02447  0.026412379  0.026721891            1 
 1566000    1.0011567   -7.4666994    497.45715  0.026471751  0.026713655            4 
 1567000   0.97582847   -7.4515059    495.99938  0.026377334  0.026705436            2 
 1568000   0.98947742   -7.4768949    497.93757  0.026463519  0.026697164            2 
 1569000   0.98291019   -7.4803993     496.7095  0.026381426  0.026688837            2 
 1570000     1.002923    -7.499923    496.50068  0.026353539  0.026680662            4 
 1571000    1.0017093   -7.4681819    496.15954  0.026318669   0.02667242            1 
 1572000   0.98784148   -7.4964195    497.10519  0.026352056  0.026664101            1 
 1573000    1.0018121   -7.4823207    497.59418  0.026361209  0.026655828            3 
 1574000   0.98615328   -7.4700255    499.28248  0.026433846  0.026647697            5 
 1575000   0.99421682   -7.4766647    500.30327  0.026471072  0.026639595            1 
 1576000     1.003553    -7.466322    499.13684  0.026392599  0.026631442            2 
 1577000    1.0039378   -7.5136434    498.87507  0.026362031  0.026623305            2 
 1578000   0.99347519   -7.5039818    499.22841  0.026363985  0.026615281            2 
 1579000    1.0066112   -7.4709667    499.95605   0.02638569  0.026607276            1 
 1580000   0.99195015   -7.4773789    500.27235  0.026385673  0.026599201            3 
 1581000    1.0209348   -7.5072156    500.40597  0.026376026  0.026591156            3 
 1582000   0.99651723   -7.4764103     500.7762  0.026378856   0.02658304            2 
 1583000   0.99290932   -7.5272653    498.20933  0.026227065  0.026574852            2 
 1584000   0.98243944    -7.492082    500.14583  0.026312386  0.026566724            2 
 1585000   0.99590141    -7.488381    499.77314   0.02627619  0.026558547            1 
 1586000     1.005836   -7.5208474     499.5374  0.026247236  0.026550152            3 
 1587000   0.98369979   -7.5149366    498.10722  0.026155599  0.026541818            1 
 1588000   0.99433997   -7.4821184    499.92869  0.026234713  0.026533492            2 
 1589000    1.0227157   -7.5036979    499.72176  0.026207351  0.026525178            2 
 1590000   0.98404269   -7.4746996    500.98804  0.026257235  0.026516906            3 
 1591000   0.98070011   -7.4747913    502.04654  0.026296173  0.026508684            2 
 1592000    1.0066201   -7.4639448    501.87218  0.026270529  0.026500358            1 
 1593000   0.98764855    -7.492483    500.92487  0.026204482  0.026492047            2 
 1594000    0.9995234   -7.4903003    501.26075  0.026205602  0.026483711            3 
 1595000   0.98997969   -7.4984529    500.04699  0.026125757  0.026475204            1 
 1596000    1.0104886   -7.5142714    500.28025  0.026121567  0.026466702            2 
 1597000    1.0054642   -7.4842766    500.78347  0.026131469  0.026458206            4 
 1598000   0.98118966   -7.5060043    500.88939   0.02612064  0.026449782            1 
 1599000   0.99750285   -7.4792877    501.79471  0.026151486  0.026441458            2 
 1600000   0.98791806   -7.5336234    502.60558  0.026177374  0.026433113            1 
 1601000   0.99064508   -7.5149129    500.90088  0.026072293  0.026424748            1 
 1602000    1.0145112   -7.4977923    501.05753  0.026064166  0.026416325            3 
 1603000   0.99710122   -7.5136068     501.8799  0.026090658  0.026407994            6 
 1604000   0.97234639   -7.5104585    501.76051  0.026068189   0.02639952            2 
 1605000    1.0000618   -7.5145896    502.52331  0.026091553  0.026391121            2 
 1606000   0.98785808   -7.4863433    503.38561   0.02612005  0.026382888            1 
 1607000   0.98717102   -7.5047565     501.6472  0.026013648  0.026374582            2 
 1608000    1.0134523   -7.4935131    501.85831  0.026008412  0.026366343            1 
 1609000   0.99464245   -7.5093014    502.58484  0.026029876  0.026358039            2 
 1610000    0.9767314    -7.477262     504.5644   0.02611617  0.026349879            4 
 1611000   0.97052043   -7.4860501    506.09541  0.026179154  0.026341619            1 
 1612000   0.98419654   -7.5044823    503.33877  0.026020408  0.026333321            1 
 1613000   0.98245964   -7.5197542    504.56326  0.026067538  0.026324991            2 
 1614000    1.0026573   -7.5095313    505.09476  0.026078829  0.026316637            6 
 1615000    0.9975187   -7.5020187    504.46142  0.026030001  0.026308399            6 
 1616000   0.99957958   -7.4822876    504.09641  0.025995071  0.026300165            2 
 1617000   0.99254402   -7.5072523    503.85277  0.025966438  0.026291962            3 
 1618000    1.0002349   -7.5034642     505.5211  0.026036315  0.026283788            5 
 1619000   0.97874122   -7.4957593    505.82265  0.026035755  0.026275733            1 
 1620000   0.98524116   -7.4969633    505.05765  0.025980332  0.026267533            1 
 1621000     1.004372   -7.5426725    504.93407  0.025957952  0.026259348            2 
 1622000   0.98831731   -7.5514647    506.43002  0.026018805  0.026251172            3 
 1623000   0.99204554   -7.5210599    507.89043  0.026077759  0.026243062            1 
 1624000   0.99382726   -7.5329986    506.42632  0.025986572   0.02623501            1 
 1625000   0.97370256   -7.5316964    506.31639  0.025964943  0.026226986            1 
 1626000   0.97746963   -7.5120073    507.64239  0.026016933  0.026219066            2 
 1627000    1.0160898   -7.5209126    507.25636   0.02598117  0.026211109            7 
 1628000   0.99175703    -7.513082    508.90529  0.026049616  0.026203207            2 
 1629000   0.98189143   -7.5253955    508.35139  0.026005289  0.026195234            2 
 1630000   0.99190414   -7.5034196    508.60375  0.026002237  0.026187229            2 
 1631000     1.010914    -7.521585    508.69496  0.025990954  0.026179284            2 
 1632000   0.99139405   -7.5165316    509.22809  0.026002251  0.026171457            1 
 1633000   0.99215481   -7.4969854    508.13477  0.025930535  0.026163586            2 
 1634000   0.97683354   -7.5165952    509.68353  0.025993652  0.026155669            1 
 1635000    0.9767789   -7.5210049    508.51855  0.025918377  0.026147771            3 
 1636000   0.99132357   -7.5070829    509.97356  0.025976648   0.02613989            2 
 1637000   0.98165212   -7.5412185    509.55397   0.02593942  0.026132112            2 
 1638000    0.9839966   -7.5439748    508.61008  0.025875564  0.026124327            2 
 1639000    1.0197408    -7.546613    509.26634  0.025893143  0.026116511            3 
 1640000   0.99617596   -7.5013692    511.47491  0.025989579  0.026108755            2 
 1641000   0.97817129   -7.5110594    511.35929   0.02596787  0.026101061            1 
 1642000     0.960735   -7.5440169    510.67345  0.025917248  0.026093329            2 
 1643000    1.0056974   -7.5190149    511.72363  0.025954739  0.026085531            4 
 1644000   0.98132007    -7.522838    512.19551   0.02596287  0.026077854            3 
 1645000    0.9774255   -7.5157044     510.6746  0.025870041  0.026070155            2 
 1646000   0.99771534   -7.5490986    511.64893  0.025903652  0.026062472            2 
 1647000   0.97060376   -7.5095635    513.56405  0.025984824  0.026054707            2 
 1648000   0.97820627   -7.5259302    512.51321  0.025915919  0.026046933            1 
 1649000   0.96820452   -7.5100043    513.02648  0.025926141   0.02603914            2 
 1650000   0.99108993   -7.5370885    512.44029  0.025880823  0.026031421            1 
 1651000   0.98941467   -7.5320742    513.27841  0.025907451  0.026023679            2 
 1652000   0.96727261   -7.5339472    511.98552   0.02582655  0.026015953            2 
 1653000   0.98249324   -7.5246814    513.46444  0.025885483  0.026008247            1 
 1654000   0.98285042    -7.518682    514.02305  0.025897977   0.02600057            3 
 1655000   0.99810245   -7.5282091    512.00588  0.025780759  0.025992921            1 
 1656000   0.97980149   -7.5190706    515.27144  0.025929521  0.025985352            2 
 1657000   0.99804697    -7.526296    515.55561  0.025928164  0.025977843            1 
 1658000   0.99045029   -7.5371985    514.12236  0.025840489  0.025970238            3 
 1659000   0.97142336    -7.507762    515.33206  0.025885677  0.025962589            1 
 1660000   0.98179105   -7.5132426    515.36661  0.025871818  0.025954935            2 
 1661000    1.0086379   -7.4826383    514.86085  0.025830868  0.025947353            1 
 1662000    1.0123561   -7.5330491    515.19624  0.025832142  0.025939744            1 
 1663000    1.0049051   -7.4986597    515.41971  0.025827807  0.025932115            2 
 1664000   0.98643605   -7.5255274    515.90466  0.025836572   0.02592452            3 
 1665000   0.97955151   -7.5345975    516.13803  0.025832734  0.025916887            1 
 1666000   0.97054543    -7.562243    516.02613  0.025811631  0.025909231            1 
 1667000   0.98076451   -7.5442215    515.18713  0.025754206  0.025901623            2 
 1668000   0.98415293   -7.5190967    517.35332  0.025846988  0.025894003            2 
 1669000   0.97210965   -7.5254315     516.2195   0.02577489  0.025886419            1 
 1670000   0.99152051   -7.5270137    517.08049   0.02580242  0.025878905            2 
 1671000   0.98550683   -7.5865634    516.11768  0.025738963  0.025871335            2 
 1672000   0.97582215   -7.5289113    517.01955  0.025768518  0.025863725            2 
 1673000   0.99062048   -7.5391503    518.50267  0.025826991  0.025856264            2 
 1674000   0.97506444   -7.5451819    516.81699  0.025727648  0.025848779            2 
 1675000   0.97540985   -7.5387176    517.96619  0.025769462  0.025841331            2 
 1676000   0.96846509   -7.4911195    519.66167  0.025838389  0.025833825            2 
 1677000   0.97930885   -7.5124523    519.67386  0.025823587  0.025826367            2 
 1678000   0.97497606   -7.5071116    519.65146  0.025807085  0.025819043            4 
 1679000   0.96587272    -7.515592    520.44006  0.025830855  0.025811708            1 
 1680000   0.98629023   -7.5198334    521.14414  0.025850404  0.025804455            2 
 1681000   0.99409408   -7.5405754     520.6778  0.025811908  0.025797199            3 
 1682000    0.9638858   -7.5222667    520.56838   0.02579114  0.025789802            1 
 1683000   0.95893709   -7.5300515    519.69173  0.025732409  0.025782416            1 
 1684000   0.98169843   -7.5331476    519.98916  0.025731847  0.025775081            2 
 1685000   0.99632272   -7.5224618    521.65837  0.025799128  0.025767692            2 
 1686000   0.96591438   -7.5460873    521.23487  0.025762894  0.025760289            2 
 1687000   0.97649698   -7.5260543    521.87002  0.025778997  0.025752961            2 
 1688000   0.98493603   -7.5393024    521.06146  0.025723808   0.02574568            2 
 1689000   0.97873472   -7.5481961    520.47053  0.025679422   0.02573835            1 
 1690000   0.98718503   -7.5242097    522.53056  0.025765807  0.025730894            3 
 1691000   0.99361227   -7.5708226    522.89677  0.025768617  0.025723617            2 
 1692000   0.97542456   -7.5758834    521.59336  0.025689192  0.025716287            4 
 1693000   0.99491085   -7.5033541    523.27834  0.025756957  0.025708995            2 
 1694000   0.98632114   -7.5130256    524.38525  0.025796205  0.025701788            4 
 1695000    1.0087198   -7.5520024    522.01415  0.025664412  0.025694506            1 
 1696000   0.99133575   -7.5204549    524.32453  0.025762801  0.025687257            1 
 1697000   0.98857539   -7.5085795    525.07571  0.025784507  0.025680069            1 
 1698000   0.98760075   -7.5406843    522.24867  0.025630578  0.025672812            3 
 1699000    0.9826385   -7.5171927    525.14542  0.025757574  0.025665563            2 
 1700000   0.98361248   -7.5028144    522.72381  0.025623716  0.025658284            1 
 1701000   0.96723019   -7.5454159    523.38387  0.025640989  0.025650975            1 
 1702000   0.96203211   -7.5398018     523.7784  0.025645241  0.025643561            1 
 1703000    0.9714506   -7.5202535    523.98306  0.025640197  0.025636105            2 
 1704000    1.0066862   -7.5769343    521.77825  0.025517324  0.025628473            1 
 1705000   0.98231247   -7.5420277    522.38132  0.025531834  0.025621022            2 
 1706000    0.9758662   -7.5221102    525.33726  0.025661257  0.025613604            2 
 1707000    1.0093977   -7.5205721    523.99313  0.025580606  0.025606211            2 
 1708000   0.97062722   -7.5432074    524.39896   0.02558543  0.025598886            3 
 1709000    0.9637478    -7.519785    524.20148  0.025560829  0.025591501            1 
 1710000   0.98723954   -7.5537222    524.99508  0.025584555  0.025584117            1 
 1711000   0.96830589   -7.5346968    524.03294  0.025522742  0.025576829            2 
 1712000   0.96579988   -7.5185988    525.53707  0.025581049   0.02556968            1 
 1713000   0.99345628   -7.5180327    525.86822  0.025582225  0.025562502            1 
 1714000   0.99428449   -7.5563506    526.26088   0.02558639  0.025555293            1 
 1715000    1.0068398   -7.5040119    526.23429  0.025570179  0.025548028            2 
 1716000   0.97956762   -7.5455199    526.91821  0.025588491  0.025540845            2 
 1717000    0.9565439   -7.4896862    527.87354  0.025619954  0.025533768            3 
 1718000   0.97077641   -7.5624512    526.14236  0.025521069  0.025526627            1 
 1719000    1.0000319   -7.5373483    526.55607  0.025526278  0.025519418            2 
 1720000   0.96638009   -7.5554935    527.73542  0.025568576  0.025512326            1 
 1721000   0.97293877   -7.5657302    527.22378  0.025528945   0.02550517            3 
 1722000   0.99593509   -7.5606626    528.18658  0.025560713  0.025498024            1 
 1723000   0.97808641   -7.5419948    527.57407  0.025516254  0.025490802            1 
 1724000   0.98058922   -7.5517993    528.06293  0.025525084   0.02548368            1 
 1725000   0.99716863   -7.5252442    529.00846  0.025555964  0.025476577            2 
 1726000   0.98041026   -7.5286103    529.39453  0.025559798  0.025469515            3 
 1727000   0.96739872   -7.5523207    528.84961  0.025518704  0.025462261            4 
 1728000   0.97201028   -7.5579853    528.31209  0.025478014  0.025455006            1 
 1729000   0.98022544   -7.6026558    527.68753  0.025433176  0.025447755            1 
 1730000   0.99063962   -7.5393725    529.36637  0.025499343  0.025440598            2 
 1731000   0.98876907   -7.5687769    528.91359  0.025462815  0.025433373            1 
 1732000   0.98220311   -7.5245276    529.07094  0.025455684  0.025426257            1 
 1733000   0.98329554   -7.5426115    529.20321  0.025447356  0.025419093            2 
 1734000   0.96131722   -7.5399155    529.69168  0.025456155  0.025411906            2 
 1735000   0.96219591   -7.5233169    531.67713  0.025536846  0.025404852            1 
 1736000   0.97107887     -7.55521    530.79413  0.025479749  0.025397831            1 
 1737000   0.97537858   -7.5251021    530.63807  0.025457593   0.02539083            1 
 1738000   0.97708753   -7.5633389    531.00518  0.025460548  0.025383885            3 
 1739000   0.97480407   -7.5827821    531.00535  0.025445915  0.025376872            4 
 1740000   0.94405076    -7.597041    530.99232  0.025430667  0.025369828            1 
 1741000   0.97139753   -7.5746961    531.99201   0.02546391   0.02536287            1 
 1742000   0.94698163   -7.5775916    531.23653  0.025413152  0.025355952            1 
 1743000    0.9563305    -7.527749     532.6611  0.025466681  0.025348892            2 
 1744000   0.97876255   -7.5367791    532.61141  0.025449704  0.025341855            1 
 1745000   0.96669801   -7.5663846    531.13899  0.025364804  0.025334829            3 
 1746000    0.9850081   -7.5696427    533.72445  0.025473676   0.02532783            1 
 1747000   0.97202372   -7.5344218    533.84552  0.025464869  0.025320921            3 
 1748000   0.97258476   -7.5357393    531.32219  0.025330005  0.025313956            4 
 1749000   0.96700867    -7.536081      533.199  0.025404946   0.02530695            2 
 1750000   0.98096661   -7.5644058    533.41218   0.02540058  0.025299923            2 
 1751000   0.98052017    -7.538595    535.25785  0.025473912  0.025292925            3 
 1752000   0.97323142   -7.5433762     532.8131  0.025343089  0.025286009            2 
 1753000   0.97882886   -7.5409525    534.77852  0.025422063  0.025278996            1 
 1754000   0.98390333   -7.5674929    532.23203  0.025286584  0.025272083            1 
 1755000   0.99239621   -7.5765671    533.91496  0.025352087  0.025265229            2 
 1756000   0.97174683   -7.5480861    535.45268  0.025410624   0.02525835            1 
 1757000   0.97382502   -7.5623277    534.36836  0.025344733  0.025251404            3 
 1758000   0.98688132   -7.5834084    534.97959  0.025359291  0.025244592            1 
 1759000   0.97123307   -7.5320054    536.44073  0.025414096  0.025237736            4 
 1760000   0.95477047   -7.5447231    536.02021  0.025379745  0.025230859            2 
 1761000   0.97269826   -7.5510636    536.31227  0.025379153  0.025224032            2 
 1762000   0.96400801   -7.5437064    535.47836   0.02532531  0.025217168            2 
 1763000   0.98679293    -7.566992    535.30375  0.025302692  0.025210245            2 
 1764000   0.95864781   -7.5784975    535.39482   0.02529265  0.025203313            2 
 1765000   0.97029529   -7.5508441    534.84093  0.025252169  0.025196406            2 
 1766000   0.96387665   -7.5462973    538.38847  0.025405269  0.025189581            3 
 1767000   0.95243929   -7.5306787    537.80318  0.025363289  0.025182836            2 
 1768000   0.96775159   -7.5488326    538.45406  0.025379622  0.025175957            2 
 1769000   0.99816805    -7.573295    535.65442  0.025233391  0.025169123            1 
 1770000   0.94851341   -7.5322949    538.95397  0.025374481   0.02516238            1 
 1771000   0.97906802   -7.5550571    537.89466  0.025310308  0.025155672            2 
 1772000   0.98120298   -7.5856417    537.51002  0.025277936  0.025148892            2 
 1773000   0.95675985   -7.5766063    537.04933  0.025242025  0.025142029            1 
 1774000   0.95936397   -7.5770403    537.47327  0.025247711   0.02513519            2 
 1775000   0.97272937   -7.5733021    537.82044  0.025249786   0.02512838            2 
 1776000    0.9468148   -7.5633588    538.25483  0.025255951  0.025121575            1 
 1777000   0.95999167   -7.5939433     537.5152  0.025207053  0.025114714            1 
 1778000   0.97398813   -7.5508089    538.43395  0.025235937  0.025107919            2 
 1779000   0.97338695   -7.5383411    540.20313  0.025304625  0.025101098            2 
 1780000   0.95737851   -7.6122173    538.05896  0.025190026   0.02509427            3 
 1781000   0.95221329   -7.5912266    538.24299  0.025184493  0.025087462            2 
 1782000   0.97752039   -7.5310217    540.28127  0.025265678  0.025080721            2 
 1783000   0.95224632   -7.5716365    539.33733   0.02520739  0.025073996            3 
 1784000   0.96068615   -7.5859242    540.29534  0.025238011  0.025067264            2 
 1785000   0.97226286   -7.5860377    540.85981  0.025250224  0.025060483            1 
 1786000   0.96870609   -7.5586049    539.70998  0.025182437  0.025053772            2 
 1787000    0.9667464   -7.5721596    540.48293   0.02520439  0.025047155            4 
 1788000   0.97210655   -7.5580687    541.54061  0.025239588  0.025040496            2 
 1789000    0.9720597   -7.6260805    540.57091  0.025180311  0.025033672            4 
 1790000   0.96800347   -7.5863734    539.72358  0.025126796  0.025026807            1 
 1791000   0.96489754   -7.5946967     540.4192  0.025145133  0.025020036            2 
 1792000   0.95633082   -7.5779337    541.18783  0.025166845  0.025013176            3 
 1793000   0.94924823   -7.6275278    541.14814  0.025150964  0.025006277            3 
 1794000   0.96673355    -7.525882     541.2674  0.025142484  0.024999421            3 
 1795000   0.96733731   -7.5524573    541.60155   0.02514399  0.024992567            5 
 1796000   0.99006761   -7.5880676    540.97874  0.025101092   0.02498575            1 
 1797000   0.99011466   -7.5789349    540.47409  0.025063722  0.024978797            2 
 1798000   0.99317975   -7.5676774    540.69537  0.025060038  0.024971885            2 
 1799000   0.93555817   -7.5476726    542.77077  0.025142244  0.024965004            1 
 1800000   0.97116998    -7.601028    541.24581  0.025057676  0.024958244            2 
 1801000   0.99124489    -7.611342    541.09828  0.025036937  0.024951385            1 
 1802000   0.95575626   -7.5752643    543.08241  0.025114799  0.024944545            1 
 1803000   0.96571295   -7.6067153    541.68947  0.025036489  0.024937674            1 
 1804000   0.96345787   -7.5563536    542.57738  0.025063626  0.024930799            1 
 1805000   0.97728853   -7.5546788    543.09711  0.025073736  0.024924002            2 
 1806000    0.9660489   -7.5600604    544.68223  0.025132993  0.024917214            2 
 1807000   0.94870915   -7.5624441    544.07229  0.025090956   0.02491041            2 
 1808000   0.95331745   -7.5429153    543.90788    0.0250695   0.02490366            1 
 1809000   0.95708711   -7.5935572    541.93184  0.024964614  0.024896798            3 
 1810000   0.94772152   -7.5967433    543.69561  0.025032026  0.024889907            1 
 1811000   0.95918437   -7.5674534    543.65791  0.025016469   0.02488303            2 
 1812000   0.98729218   -7.6237324    543.68689  0.025003996  0.024876196            3 
 1813000   0.97305781   -7.5971699    542.49802  0.024935559  0.024869338            2 
 1814000   0.96720556   -7.5947595    543.58228  0.024971623  0.024862447            3 
 1815000   0.99782234   -7.6087577    543.20829  0.024940693  0.024855586            8 
 1816000   0.97250206   -7.5774658    544.25069  0.024974793  0.024848754            4 
 1817000   0.94175722   -7.5831298    544.40644  0.024968191  0.024841948            4 
 1818000   0.96085554   -7.5965812    543.20644  0.024899452  0.024835198            1 
 1819000   0.96661062   -7.5685912    546.03369  0.025015287  0.024828337            1 
 1820000   0.96965128   -7.5868247    545.13355  0.024960327  0.024821567            2 
 1821000   0.94409317   -7.5622541    545.62165  0.024968957   0.02481477            3 
 1822000   0.97530498   -7.5652334    546.52484  0.024996562  0.024808043            3 
 1823000   0.94513876   -7.5730583    545.94571  0.024956377   0.02480135            1 
 1824000   0.95366633   -7.5856463    546.10299  0.024949881  0.024794646            1 
 1825000   0.96458146   -7.5903878    545.14196  0.024892327  0.024787916            2 
 1826000   0.96872432    -7.614561    546.89649  0.024958766  0.024781106            3 
 1827000   0.95797906   -7.5896773    547.01444  0.024950485  0.024774415            1 
 1828000   0.94228876   -7.5731548     548.1982  0.024990801  0.024767726            3 
 1829000   0.96643473   -7.5926739    546.72995   0.02491024  0.024761032            1 
 1830000   0.94238129   -7.6082735    546.38863  0.024881085  0.024754295            2 
 1831000   0.94293418   -7.5881457    547.38914  0.024913032  0.024747644            1 
 1832000   0.94040912   -7.6131173     548.0753  0.024930645  0.024740968            1 
 1833000    0.9390132   -7.5281591    548.72565  0.024946611  0.024734317            3 
 1834000   0.96978419   -7.5913508    546.71497  0.024841647  0.024727654            3 
 1835000   0.95889282   -7.5821349    548.65532  0.024916227  0.024721002            4 
 1836000   0.94878435   -7.5654535    548.34715  0.024888669  0.024714436            3 
 1837000   0.95220221   -7.6053499    551.49883  0.025018093  0.024707902            2 
 1838000   0.97670001   -7.5500485    549.12481  0.024896845  0.024701353            2 
 1839000   0.96349894   -7.5860635    547.21191  0.024796625  0.024694703            2 
 1840000   0.96535784   -7.6113706    549.10888  0.024869061  0.024688024            5 
 1841000   0.96196239   -7.6006539    548.77641  0.024840504  0.024681342            2 
 1842000   0.94481788   -7.5958639    551.29388   0.02494091  0.024674704            2 
 1843000   0.97499354   -7.5784783    548.85574  0.024817134  0.024668024            3 
 1844000   0.95420494   -7.5850521    549.66661   0.02484032  0.024661356            1 
 1845000   0.95926902   -7.6107288    550.35867  0.024858115  0.024654715            1 
 1846000   0.94938611   -7.6204698    548.78956  0.024773815  0.024647986            4 
 1847000   0.97563066   -7.5928749    549.66469  0.024799887  0.024641292            1 
 1848000   0.94992905   -7.5692073    551.28731  0.024859637  0.024634597            2 
 1849000   0.95412302   -7.6150882    550.66597  0.024818189  0.024627966            3 
 1850000   0.95066552   -7.5736728    551.45619  0.024840369  0.024621326            2 
 1851000   0.93597785   -7.6156089    550.56932  0.024787022  0.024614646            3 
 1852000   0.97294534   -7.5979814    549.33069  0.024717904  0.024607941            3 
 1853000   0.96682222   -7.5731044    550.57684  0.024760606  0.024601281            2 
 1854000   0.95698961   -7.5756876    551.78524  0.024801566  0.024594593            3 
 1855000   0.96679953   -7.6285871    550.88179   0.02474761  0.024587922            2 
 1856000   0.95884242   -7.6013071    552.02324  0.024785526  0.024581196            2 
 1857000   0.94742653     -7.62309    549.99485  0.024681155  0.024574473            2 
 1858000   0.94953443   -7.5842005    551.43291   0.02473237   0.02456769            2 
 1859000   0.94501826   -7.5699587    551.27463   0.02471197  0.024560955            1 
 1860000   0.94752945   -7.5933528    550.96819  0.024684955  0.024554153            4 
 1861000   0.96421513   -7.6031958    552.88446  0.024757498  0.024547432            1 
 1862000   0.95321204   -7.6080555     551.8711   0.02469885  0.024540657            2 
 1863000   0.96615471    -7.611601    551.39231  0.024664176  0.024533994            2 
 1864000   0.93440556   -7.6040032    552.43665  0.024697633  0.024527328            3 
 1865000   0.96464669   -7.6043892    552.79223  0.024700278  0.024520524            4 
 1866000   0.95619242   -7.6035057    551.89678  0.024647051  0.024513803            6 
 1867000   0.94110318   -7.5943143    553.98768  0.024727177  0.024507149            1 
 1868000   0.95581825   -7.5817686    553.89863  0.024709967  0.024500619            3 
 1869000   0.93819085   -7.6338236    552.60715  0.024639163  0.024493931            2 
 1870000   0.94588921   -7.6325828    552.37786  0.024615769  0.024487252            4 
 1871000   0.96366775   -7.6262985    551.71965  0.024573296  0.024480556            2 
 1872000   0.92919445   -7.5801407    553.96592  0.024660164  0.024473899            3 
 1873000   0.96654546   -7.6091257    553.29771  0.024617268  0.024467191            2 
 1874000   0.94766737   -7.6101262    552.50261  0.024568775  0.024460493            2 
 1875000   0.95592852   -7.6103666    553.86677  0.024616301   0.02445381            3 
 1876000   0.94152077   -7.6126333    553.25231  0.024575884   0.02444706            3 
 1877000   0.95715299   -7.6301626    552.88887  0.024546656  0.024440315            2 
 1878000   0.94549441   -7.6192626     554.9814  0.024626437  0.024433521            2 
 1879000   0.97206612   -7.6100031    555.00334  0.024614304  0.024426771            1 
 1880000   0.98381135   -7.6151398    554.73961  0.024589522  0.024420059            2 
 1881000   0.93592661   -7.5983206    555.37793  0.024604728   0.02441338            1 
 1882000   0.94889808   -7.6017088    555.28871  0.024587704  0.024406736            2 
 1883000   0.93178724   -7.5938243    555.42179  0.024580536  0.024400149            2 
 1884000   0.94603516   -7.5587425    556.83665  0.024630071  0.024393638            2 
 1885000   0.94460708   -7.5943179    556.26868  0.024591896  0.024387132            3 
 1886000   0.94874486   -7.6651502    554.65214  0.024507429  0.024380447            3 
 1887000   0.92862595   -7.6281374    556.47639  0.024575004  0.024373849            1 
 1888000   0.94961974   -7.5985085    558.47756  0.024650316  0.024367285            2 
 1889000   0.98425343   -7.6270909    557.14558  0.024578506  0.024360804            3 
 1890000   0.94888817   -7.6276619    557.11658  0.024564223  0.024354309            1 
 1891000   0.96370586   -7.6150974    559.05013  0.024636441  0.024347801            2 
 1892000   0.95343364   -7.6049583    558.50673  0.024599486   0.02434133            1 
 1893000   0.95849259    -7.622629    557.30313  0.024533507   0.02433481            1 
 1894000   0.94151465   -7.5846529    559.13671  0.024601228  0.024328353            3 
 1895000   0.97341468   -7.5874309    557.76939  0.024528117  0.024321927            2 
 1896000   0.93651983   -7.5997704    558.86329   0.02456326  0.024315537            1 
 1897000   0.91610489   -7.6045321    558.74624   0.02454517  0.024309201            1 
 1898000   0.92653692    -7.584228    558.83944  0.024536329  0.024302805            2 
 1899000   0.95204731   -7.6062702    559.98004  0.024573462  0.024296406            3 
 1900000   0.93858246   -7.6423034    558.39703  0.024491098  0.024289963            1 
 1901000    0.9452082   -7.5969766    560.17808   0.02455629  0.024283543            2 
 1902000    0.9537883   -7.6130941    559.44727  0.024511359   0.02427712            1 
 1903000    0.9410891   -7.6502466    559.43717  0.024498037   0.02427058            1 
 1904000    0.9621376   -7.6089412    560.84604  0.024546833  0.024264026            1 
 1905000   0.95614803     -7.60444    562.12277  0.024589797   0.02425755            1 
 1906000   0.96195463   -7.6087042    559.86765  0.024478299  0.024251108            3 
 1907000   0.95006792   -7.6286127    559.39001  0.024444591  0.024244645            2 
 1908000   0.95635814   -7.6040696    561.26242  0.024513558  0.024238248            2 
 1909000   0.94833684    -7.611985    562.10364  0.024537439  0.024231888            2 
 1910000   0.95638007   -7.6599427    561.86767  0.024514296  0.024225579            2 
 1911000   0.93829246   -7.6222399    562.20312  0.024516096  0.024219141            1 
 1912000   0.94145406   -7.5948994    562.18151  0.024502332   0.02421274            2 
 1913000   0.94477078   -7.6277371    559.41081  0.024368828  0.024206328            2 
 1914000   0.93427365   -7.6312329    561.12089  0.024430551  0.024199843            1 
 1915000   0.96730656   -7.6085967    563.08316  0.024503183  0.024193388            5 
 1916000   0.95404293   -7.6245403    561.14333  0.024406025  0.024187034            1 
 1917000   0.93930266   -7.6350011    559.75023  0.024332735  0.024180647            3 
 1918000   0.95025845   -7.5772274     564.4531  0.024524379  0.024174261            1 
 1919000   0.94051191    -7.609725    562.43529  0.024423975  0.024167951            3 
 1920000   0.94592617   -7.6460472    562.28811  0.024404866  0.024161564            4 
 1921000   0.95932985   -7.6348265    561.59379  0.024362042  0.024155148            1 
 1922000   0.94211643   -7.6263761    561.80539  0.024358541  0.024148674            1 
 1923000   0.93460663   -7.6181158     561.2409  0.024321412  0.024142217            2 
 1924000   0.94258132   -7.6482694    561.44654  0.024317678  0.024135656            1 
 1925000   0.94607952   -7.6188189    561.38108  0.024302211  0.024128997            2 
 1926000   0.94283703   -7.6434266    560.05939  0.024232407  0.024122368            1 
 1927000   0.92117528   -7.6567489    562.38195  0.024320271  0.024115809            1 
 1928000   0.95196455   -7.5947876    563.91786  0.024374043  0.024109366            5 
 1929000   0.94995628   -7.6215876    563.84717  0.024358354  0.024102971            1 
 1930000    0.9441287   -7.6083816    563.64029    0.0243368  0.024096562            2 
 1931000    0.9580178    -7.604023    563.91902  0.024336226   0.02409011            2 
 1932000    0.9504879   -7.6072158    563.47563  0.024304504   0.02408365            2 
 1933000   0.94651763   -7.6372655    563.92244  0.024311193  0.024077158            2 
 1934000   0.91104434   -7.6206461    564.84619  0.024338426  0.024070792            3 
 1935000   0.93402111   -7.6488368    564.67522  0.024318485  0.024064425            2 
 1936000   0.95180353   -7.6200276    564.82965  0.024312571  0.024058092            3 
 1937000   0.93218573   -7.6204987    565.76976  0.024340465  0.024051814            1 
 1938000   0.96432223   -7.6001609    564.97169  0.024293588  0.024045468            2 
 1939000    0.9370454   -7.6577736    565.39823  0.024299391  0.024039063            4 
 1940000   0.94269373   -7.6322364     565.7068   0.02430012  0.024032624            2 
 1941000   0.93285068    -7.656896    564.17095  0.024221662  0.024026172            1 
 1942000   0.92436784   -7.6128109    566.81561  0.024322675  0.024019815            3 
 1943000   0.95301591   -7.6114993     565.9244  0.024271933  0.024013505            1 
 1944000   0.97731427   -7.6183186    566.26485  0.024274042  0.024007241            2 
 1945000   0.94293358    -7.664916    567.16761   0.02430024  0.024000951            3 
 1946000   0.92700716   -7.6920635    565.75377  0.024227208  0.023994591            1 
 1947000   0.93805194    -7.645201    567.39405   0.02428497   0.02398827            6 
 1948000   0.94600005   -7.6349516    567.50007  0.024277039   0.02398196            2 
 1949000   0.92864262   -7.6456378     566.6925  0.024230054  0.023975637            2 
 1950000   0.93119575   -7.6666218    564.79902   0.02413671  0.023969122            2 
 1951000   0.91949553   -7.6340843    568.31837  0.024274661  0.023962616            1 
 1952000   0.95062674   -7.6323753    568.54368  0.024271844  0.023956182            2 
 1953000   0.94984252   -7.6240545    566.17275   0.02415825   0.02394977            2 
 1954000   0.95028961   -7.6214222    567.36151  0.024196584  0.023943324            2 
 1955000   0.94696084   -7.6400336    567.36521  0.024184365  0.023936824            2 
 1956000   0.91850539   -7.6325581    567.04001  0.024158146  0.023930284            2 
 1957000   0.92767568   -7.6523149    567.65426  0.024171958  0.023923773            2 
 1958000    0.9228761   -7.6044019    567.36427  0.024147271  0.023917275            1 
 1959000    0.9384815   -7.6410231    566.84382  0.024112805  0.023910773            2 
 1960000   0.95270506   -7.6513417      568.222  0.024159099  0.023904243            1 
 1961000   0.92911463   -7.6311943    567.09298  0.024098801  0.023897809            1 
 1962000   0.92907672   -7.6447171    566.05245  0.024042323  0.023891292            2 
 1963000   0.95607942   -7.6562138    566.84115  0.024063557  0.023884728            4 
 1964000   0.93947792   -7.6379267    569.89748  0.024180986  0.023878139            2 
 1965000   0.95583129    -7.680883    567.46559  0.024065547  0.023871525            2 
 1966000   0.92831129   -7.6275008    568.27562  0.024087641  0.023864952            1 
 1967000   0.93869233   -7.6032682    568.14664  0.024069931  0.023858408            3 
 1968000   0.92767319   -7.6210518    568.21524  0.024060605   0.02385189            3 
 1969000   0.92665209   -7.6776906    568.12185  0.024044433  0.023845366            2 
 1970000    0.9383269   -7.6456183    566.72498  0.023973138  0.023838827            1 
 1971000   0.92887863   -7.6575094    568.13537  0.024020606  0.023832244            1 
 1972000   0.93234635   -7.6911039    566.34109  0.023932602   0.02382569            2 
 1973000   0.93006253   -7.6743599    567.67285  0.023976721  0.023819096            2 
 1974000   0.91684199   -7.6864585    568.34887  0.023993113  0.023812501            2 
 1975000   0.91705216   -7.6269968    569.04072  0.024010157     0.023806            2 
 1976000   0.92276921   -7.6430689    570.53904  0.024061194  0.023799511            3 
 1977000   0.91716533   -7.6434208    570.04643  0.024028259  0.023793014            3 
 1978000    0.9272198   -7.6094338    569.98537  0.024013539  0.023786502            3 
 1979000   0.93558364   -7.6282553    571.20076  0.024052584  0.023780065            2 
 1980000    0.9243781   -7.6049484    572.35972  0.024089214  0.023773663            1 
 1981000   0.92782146   -7.6409408    570.35907  0.023992894  0.023767321            2 
 1982000   0.93071912   -7.6429933    570.67694  0.023994153  0.023760881            2 
 1983000   0.95677506    -7.660825    571.00986  0.023996044  0.023754459            1 
 1984000   0.94253221    -7.640684    570.54228  0.023964309  0.023747999            3 
 1985000   0.94215181   -7.6842071    571.26244   0.02398247  0.023741564            2 
 1986000   0.94008478   -7.6400191     571.3114  0.023972449  0.023735062            4 
 1987000   0.93515167   -7.6578163    571.01458  0.023947936  0.023728562            2 
 1988000   0.91313515   -7.6659611    569.12553  0.023856704  0.023721987            2 
 1989000   0.92677492   -7.6240957    571.30773  0.023936137  0.023715396            2 
 1990000   0.93105407   -7.6534428     571.4745  0.023931093  0.023708869            2 
 1991000   0.91991739   -7.6345842    570.60502  0.023882681  0.023702295            2 
 1992000   0.93377627   -7.6717715    571.36526  0.023902496  0.023695733            4 
 1993000    0.9149257    -7.638339     569.3115  0.023804628  0.023689091            2 
 1994000   0.95273625   -7.6389524    572.01488   0.02390567  0.023682533            2 
 1995000   0.93164233   -7.6377595    572.01873  0.023893848  0.023676001            1 
 1996000   0.95141542    -7.639128    571.65826  0.023866828  0.023669458            2 
 1997000   0.92971859   -7.6266424    572.20748  0.023877795  0.023662933            2 
 1998000   0.91813748   -7.6334902    571.54742  0.023838314  0.023656438            1 
 1999000   0.94454595   -7.6720383    571.24921  0.023813957  0.023649851            3 
 2000000   0.93302401   -7.6214882    571.96009  0.023831671  0.023643312            1 
 2001000   0.93595968   -7.6165715    573.39133  0.023879366  0.023636835            1 
 2002000    0.9197824   -7.6464764    572.34269  0.023823788  0.023630316            3 
 2003000   0.91237332   -7.6787894    573.23565  0.023849045  0.023623704            1 
 2004000   0.91864996   -7.6676378    571.82688  0.023778563  0.023617109            4 
 2005000   0.92469239   -7.6195889    571.89312  0.023769456   0.02361051            3 
 2006000   0.92906895   -7.6446157     570.3576  0.023693819  0.023603977            3 
 2007000    0.9389255   -7.6510028    574.09194  0.023837068   0.02359732            2 
 2008000   0.93188768   -7.6670293    572.43754  0.023756538  0.023590655            2 
 2009000   0.93586916   -7.6521851    572.72431  0.023756608  0.023583998            1 
 2010000   0.92335606   -7.6459903    571.90498   0.02371082  0.023577256            1 
 2011000   0.93040129   -7.6382568    571.85666  0.023697027  0.023570536            2 
 2012000   0.92194271   -7.6437159      572.207   0.02369976  0.023563846            2 
 2013000   0.93435697   -7.6759974    571.37322   0.02365347  0.023557066            2 
 2014000   0.93248187   -7.6901516    571.51801  0.023647717  0.023550311            2 
 2015000   0.93579899   -7.6896999     572.5889  0.023680269  0.023543575            1 
 2016000   0.92416103   -7.6774772    573.12702  0.023690766  0.023536904            2 
 2017000   0.93687038   -7.6961736    572.21824  0.023641474   0.02353019            4 
 2018000   0.91093759   -7.6194312    574.60058  0.023728138  0.023523589            1 
 2019000   0.92348296   -7.6788482    573.83879  0.023684943  0.023516977            1 
 2020000    0.9124577   -7.6906595    572.97299    0.0236375  0.023510324            1 
 2021000   0.92643089   -7.6592004    574.23165  0.023677703  0.023503741            2 
 2022000   0.93490997   -7.6104822    575.93444   0.02373617  0.023497159            2 
 2023000   0.93373041   -7.6719807    575.01961  0.023686753  0.023490669            2 
 2024000   0.93229853   -7.6815008    574.87508  0.023669099  0.023484197            2 
 2025000    0.9389932   -7.6591614    576.56038  0.023726765  0.023477674            4 
 2026000   0.93877055   -7.6540888    575.66644  0.023678284  0.023471232            1 
 2027000   0.93977305   -7.6969355    575.88878  0.023675743  0.023464674            2 
 2028000   0.92710465   -7.6743234    575.19775  0.023635674  0.023458086            2 
 2029000   0.92472269   -7.6835995    576.82159  0.023690717  0.023451541            1 
 2030000   0.92030056   -7.6764409    574.07088  0.023566128  0.023445024            1 
 2031000   0.90909715    -7.651012    577.09468  0.023678593  0.023438535            2 
 2032000   0.91469557   -7.6681901    576.48477  0.023641928  0.023432025            2 
 2033000    0.9105407   -7.6679668    577.20487  0.023659816  0.023425488            2 
 2034000   0.91278005   -7.6747588    577.61368  0.023664933  0.023418958            2 
 2035000   0.92711871    -7.687479    575.73692   0.02357645  0.023412488            2 
 2036000   0.92505574   -7.6925191    576.66843  0.023602997  0.023406008            2 
 2037000   0.93434038   -7.6491942    578.16545  0.023652653   0.02339953            3 
 2038000   0.90391203   -7.6518214    577.41371  0.023610309  0.023393028            2 
 2039000   0.92549271   -7.7007195    577.00626  0.023582077  0.023386464            1 
 2040000   0.90968941   -7.6708047    577.09767  0.023574251  0.023379896            5 
 2041000   0.89317668   -7.6855698    578.07677  0.023602677  0.023373334            1 
 2042000   0.91570222   -7.6650877    576.80965  0.023539408  0.023366773            2 
 2043000   0.92821879   -7.6850087    576.32632  0.023508171  0.023360166            1 
 2044000   0.92334956   -7.6964099    577.16802  0.023530986  0.023353612            2 
 2045000   0.92508844   -7.6750183    578.30344  0.023565747    0.0233471            1 
 2046000   0.94175004   -7.6782784    578.46262  0.023560713  0.023340534            5 
 2047000   0.93150979   -7.6421473    579.13695  0.023576655  0.023334099            2 
 2048000   0.90520071   -7.6568327    577.53451  0.023499939  0.023327602            2 
 2049000   0.93004605   -7.6693316    578.15448  0.023513685  0.023321125            3 
 2050000   0.92423071   -7.7235085    579.47589   0.02355593  0.023314603            2 
 2051000   0.90959361   -7.6980096    580.49823  0.023585984  0.023308083            2 
 2052000   0.92679944   -7.6813191    578.58962  0.023496979  0.023301598            2 
 2053000    0.9360792   -7.6802215    578.75842  0.023492386  0.023295085            5 
 2054000   0.90973645   -7.6971941    579.15729  0.023497131  0.023288593            1 
 2055000   0.93294072   -7.6674881    580.25707  0.023530295  0.023282125            4 
 2056000    0.9014371   -7.7065668    578.53872  0.023449202  0.023275662            7 
 2057000   0.90694703   -7.6607811    581.10587  0.023541803   0.02326919            1 
 2058000   0.90409576   -7.7181089    580.11969  0.023490431  0.023262803            2 
 2059000    0.9162319   -7.6417183    582.57965  0.023578584  0.023256356            1 
 2060000   0.90996862   -7.6748488    579.77934  0.023453857  0.023249931            2 
 2061000   0.94065394   -7.6590868      580.472  0.023470484  0.023243474            3 
 2062000   0.93982081    -7.661833    579.54676  0.023421709  0.023237052            2 
 2063000   0.91811048   -7.6838861    582.07862  0.023512628   0.02323065            4 
 2064000   0.93630685   -7.7099669    581.91371  0.023494578  0.023224242            1 
 2065000   0.93387583   -7.6838252    581.99497   0.02348648  0.023217811            1 
 2066000   0.92394714   -7.6704981    582.55499  0.023497701  0.023211383            1 
 2067000   0.93656553   -7.6546861    582.15024  0.023470015  0.023205022            3 
 2068000   0.91225055   -7.6558397    581.85035  0.023446581  0.023198567            1 
 2069000   0.90083005    -7.701534    581.76747  0.023431911  0.023192147            2 
 2070000   0.91874605   -7.6903769    581.28243  0.023401064   0.02318572            3 
 2071000   0.91236404   -7.6439368    582.94813  0.023456789  0.023179365            2 
 2072000   0.90004706   -7.6854767    583.85757  0.023482045  0.023173075            2 
 2073000   0.92666895   -7.7076928    582.69915   0.02342415  0.023166729            4 
 2074000   0.90699506   -7.6934065    582.71053  0.023413313  0.023160393            2 
 2075000   0.92150209   -7.6928903    582.58388  0.023396943  0.023154095            2 
 2076000   0.93174985   -7.6860479     582.9014  0.023398418  0.023147787            2 
 2077000   0.94144049   -7.6808152    583.70856  0.023419538  0.023141445            2 
 2078000   0.92037526   -7.6576259      583.665   0.02340652  0.023135097            2 
 2079000   0.91897028   -7.6922924    585.07822  0.023451909  0.023128803            2 
 2080000   0.90338762    -7.691679    583.20623  0.023365634  0.023122376            2 
 2081000   0.93007182   -7.6916945    582.86351  0.023340682  0.023115925            2 
 2082000   0.92483163   -7.6833853    583.43633  0.023352399  0.023109507            1 
 2083000   0.90376548   -7.6828168    583.06011  0.023326137  0.023103072            2 
 2084000   0.93725576   -7.6814239    583.98446  0.023351906  0.023096658            1 
 2085000   0.92782712    -7.671446    585.07364  0.023384238  0.023090242            2 
 2086000   0.90564982   -7.6719328    584.77977  0.023361288  0.023083807            1 
 2087000   0.90004143    -7.686376    582.40942  0.023255447  0.023077362            1 
 2088000   0.91261457   -7.7064925    582.94898  0.023265844  0.023070886            2 
 2089000   0.90887911   -7.6858014    585.18353  0.023343846  0.023064423            3 
 2090000   0.88759066   -7.6862681    584.71809  0.023314118  0.023058007            2 
 2091000   0.92026658    -7.688209    584.64666  0.023300122   0.02305155            1 
 2092000   0.91430526   -7.6646735    584.28675  0.023274647  0.023045082            2 
 2093000   0.91887932   -7.6707052    584.33724  0.023265538  0.023038626            2 
 2094000   0.92472182   -7.7023022    583.40025  0.023217138  0.023032184            2 
 2095000   0.94078753   -7.6994794     585.2133  0.023278174  0.023025653            2 
 2096000   0.92023277   -7.6780642    585.19848  0.023266479  0.023019144            2 
 2097000   0.91634673   -7.6975027    583.97031  0.023206577  0.023012633            2 
 2098000   0.92937324   -7.6899624    582.74883  0.023146998  0.023006163            3 
 2099000   0.92240232   -7.6778463    584.70821  0.023213761  0.022999612            4 
 2100000   0.90192107   -7.6915475    584.75876  0.023204713  0.022993085            2 
 2101000   0.89512193   -7.6928978    583.69539  0.023151491  0.022986577            1 
 2102000   0.89827056   -7.6970463    583.21976  0.023121621  0.022980012            3 
 2103000   0.92629206   -7.6726138    585.17675  0.023188173  0.022973471            2 
 2104000   0.92687588   -7.6859671    586.00144  0.023209816   0.02296698            8 
 2105000   0.90459911   -7.6540589    584.84336  0.023152944  0.022960523            3 
 2106000    0.9208102   -7.7097253     584.6054  0.023132534   0.02295402            2 
 2107000   0.91754462   -7.6949678    585.91993  0.023173546  0.022947497            1 
 2108000   0.92388508   -7.7189882    582.14486  0.023013317  0.022940953            1 
 2109000   0.89465781   -7.6892002    585.65612  0.023141146  0.022934447            2 
 2110000   0.90808869   -7.7107551    585.52937  0.023125172  0.022927969            1 
 2111000   0.90562573   -7.6668877    587.23293  0.023181467  0.022921523            3 
 2112000    0.9152176   -7.7025705    585.91576   0.02311852  0.022915066            3 
 2113000   0.91264237   -7.7040327    586.31466   0.02312331  0.022908605            2 
 2114000   0.91375849   -7.6521794    587.42306  0.023156065  0.022902157            3 
 2115000   0.92255527   -7.7148002    586.25665  0.023099159  0.022895686            1 
 2116000   0.91748259    -7.702604    587.91175  0.023153424  0.022889181            3 
 2117000   0.89591358   -7.6783136     587.7162   0.02313479  0.022882746            2 
 2118000   0.91605288   -7.7067964    586.65708  0.023082195  0.022876301            1 
 2119000   0.91194304   -7.7091456    585.72094  0.023034487    0.0228698            1 
 2120000   0.90437011    -7.685869    587.29165  0.023085364  0.022863313            1 
 2121000   0.90867927   -7.6883643     586.9757  0.023062066  0.022856809            2 
 2122000   0.89185127   -7.7126114    586.17442   0.02301973  0.022850277            3 
 2123000   0.93158943   -7.7236351    586.40944  0.023018113  0.022843732            2 
 2124000   0.90622288   -7.7281554    587.50452   0.02305024  0.022837209            1 
 2125000   0.93112809    -7.689593    588.56712  0.023081064  0.022830715            3 
 2126000   0.90424022   -7.6817616    585.79588  0.022961582  0.022824241            2 
 2127000   0.91783972   -7.7315325    585.95757  0.022957122  0.022817684            1 
 2128000   0.92191279   -7.6889804    587.63923  0.023012188  0.022811137            2 
 2129000   0.89434655   -7.7089713    586.63089  0.022961911  0.022804555            1 
 2130000   0.89834295   -7.6705801    588.32043  0.023017231  0.022798055            3 
 2131000   0.90890579   -7.6973058    589.37675  0.023047738  0.022791552            2 
 2132000   0.92894396   -7.6974911    588.32864   0.02299596  0.022785032            1 
 2133000    0.9020936   -7.7455971    586.54512  0.022915499  0.022778473            2 
 2134000    0.9196332   -7.7368317    587.98515  0.022960995   0.02277192            2 
 2135000   0.92853302   -7.6933494    588.02955  0.022951973  0.022765417            1 
 2136000   0.91285206   -7.7173698    588.51595  0.022960204  0.022758947            1 
 2137000   0.92084054   -7.7211155    588.05484  0.022931479   0.02275234            3 
 2138000   0.91481841    -7.710793    588.56563  0.022940662  0.022745747            2 
 2139000   0.90858847   -7.7226868    588.17954  0.022914896  0.022739206            3 
 2140000   0.88285513   -7.6816492     588.1875  0.022904498  0.022732701            3 
 2141000   0.91646299   -7.6958667     588.8646  0.022920154  0.022726217            1 
 2142000   0.91721617   -7.7104892     589.3829  0.022929618   0.02271966            2 
 2143000   0.90322181   -7.6972961     588.8313  0.022897468  0.022713174            3 
 2144000   0.90306741   -7.7179507    589.47062  0.022911638  0.022706629            2 
 2145000   0.88946945   -7.6892883    589.51648  0.022902738  0.022700104            3 
 2146000   0.90906868   -7.7171433    589.58096   0.02289457  0.022693585            1 
 2147000   0.92086925   -7.7515594    589.52449  0.022881714  0.022687076            1 
 2148000   0.90381522   -7.6988472    591.58472   0.02295099  0.022680541            3 
 2149000   0.91372953   -7.7152159    589.50453  0.022859645  0.022674027            1 
 2150000   0.91497274   -7.7246564    590.38146  0.022883002  0.022667526            1 
 2151000   0.91382413   -7.6983242    591.55253  0.022917733  0.022661022            1 
 2152000   0.89546279    -7.701612    591.83988  0.022918211  0.022654537            2 
 2153000     0.896398   -7.6849833    592.75409  0.022942951  0.022648057            1 
 2154000   0.89807728   -7.6839397    592.86032   0.02293641   0.02264161            2 
 2155000   0.89991013   -7.7077073    590.51759  0.022835174  0.022635142            1 
 2156000   0.93175871   -7.7184807    591.68727  0.022869792  0.022628631            2 
 2157000   0.90621058   -7.7307953    591.50568  0.022852174  0.022622053            3 
 2158000   0.89695568   -7.7231352    590.77888  0.022813519  0.022615516            4 
 2159000   0.89252195   -7.6994304    591.58036  0.022833887  0.022609021            2 
 2160000   0.90594282   -7.7075869     591.9721   0.02283843   0.02260254            4 
 2161000   0.92151715   -7.7563999    590.52943  0.022772228     0.022596            4 
 2162000   0.90491746    -7.732466    592.06741  0.022820976  0.022589435            2 
 2163000   0.88820837   -7.7312361    592.09502  0.022811489  0.022582924            3 
 2164000   0.91260464   -7.7334304    590.29074  0.022731467    0.0225764            1 
 2165000   0.89900172    -7.704016    591.08957  0.022751715  0.022569876            1 
 2166000   0.92453181   -7.7401983    591.62191  0.022761693  0.022563354            2 
 2167000   0.92405652   -7.7361255     591.5043  0.022746666  0.022556815            4 
 2168000    0.9077531   -7.7371573    590.60449  0.022701587  0.022550263            1 
 2169000   0.92666561   -7.7064951    592.33311  0.022757535  0.022543742            3 
 2170000   0.89034255   -7.7193995    591.69332  0.022722478   0.02253721            5 
 2171000   0.90207771   -7.6960245    590.96237  0.022683954  0.022530649            2 
 2172000   0.91544104   -7.7470485    590.72763  0.022664504  0.022524132            1 
 2173000   0.91623495   -7.7412012    591.62186  0.022688367  0.022517589            1 
 2174000   0.90920927   -7.6990324    593.20158  0.022738484  0.022511022            3 
 2175000   0.89495676    -7.719665    591.73346   0.02267178   0.02250451            2 
 2176000   0.90011657   -7.7297173      591.678  0.022659237  0.022497981            5 
 2177000   0.90050038    -7.768609    592.28578  0.022672094  0.022491404            2 
 2178000   0.91141285     -7.73341    592.62283   0.02267458  0.022484804            2 
 2179000   0.89640443   -7.7052556    593.93067  0.022714191  0.022478271            3 
 2180000   0.91316828   -7.7262829    593.12001  0.022672783  0.022471798            1 
 2181000   0.89281511   -7.7008176    592.80359  0.022650298  0.022465214            1 
 2182000   0.92073549   -7.7513442    591.48896   0.02258971  0.022458674            1 
 2183000   0.89679935   -7.6946142    593.62295  0.022660824  0.022452081            3 
 2184000   0.90569175   -7.7308898    592.72924  0.022616348  0.022445555            3 
 2185000   0.90071788   -7.6867999     595.2103  0.022700621  0.022439044            2 
 2186000   0.93385597   -7.7224445    592.93689  0.022603572  0.022432546            1 
 2187000   0.87933951   -7.7120074    593.99579  0.022633584  0.022426013            1 
 2188000   0.88950003   -7.7302068    594.14054  0.022628753  0.022419435            1 
 2189000   0.90710245   -7.7190087    593.75185  0.022603618  0.022412809            1 
 2190000   0.89760576    -7.749131    591.56458  0.022510068  0.022406137            3 
 2191000   0.88198467   -7.7453964    591.83129  0.022509938  0.022399481            5 
 2192000   0.90127218   -7.7170506    593.60068  0.022566936  0.022392857            3 
 2193000   0.89853015   -7.7290673    593.44656  0.022550789  0.022386223            1 
 2194000   0.89680364   -7.7510205    593.66446  0.022548787   0.02237958            2 
 2195000   0.90635433   -7.7542494    594.51243  0.022570707  0.022373021            5 
 2196000   0.90676186   -7.7507482    593.02453  0.022503967  0.022366397            1 
 2197000   0.89154932   -7.7652443    595.48106  0.022586901  0.022359812            1 
 2198000   0.89559325   -7.7422477    593.32096  0.022494729  0.022353216            1 
 2199000   0.89808311   -7.7330022    594.96464  0.022546788  0.022346604            1 
 2200000    0.9054708   -7.7694406    593.94438  0.022497893  0.022340011            1 
 2201000   0.90688264    -7.720161    595.62485  0.022551297  0.022333462            2 
 2202000   0.92313815    -7.769477    593.32385  0.022453976  0.022326967            2 
 2203000   0.91459154   -7.7027188    595.11788  0.022511646  0.022320452            3 
 2204000   0.90100606   -7.7531062    596.44639  0.022551663  0.022313905            3 
 2205000   0.89302604   -7.7327263    596.07182   0.02252728  0.022307349            2 
 2206000   0.89980498   -7.7726576    594.34363  0.022451784  0.022300835            1 
 2207000   0.90955724   -7.7465973    596.22965  0.022512825  0.022294273            2 
 2208000   0.91095614   -7.6993977    595.16675  0.022462513  0.022287663            1 
 2209000   0.91754561   -7.7545763    594.23654  0.022417253  0.022281097            2 
 2210000   0.88349859   -7.7699844    595.11029  0.022440056  0.022274466            3 
 2211000   0.89839424   -7.7389384    596.05546  0.022465531   0.02226788            2 
 2212000   0.88111591   -7.7175759    596.36347  0.022466978  0.022261339            1 
 2213000   0.90733507   -7.7355441    596.48851  0.022461534   0.02225487            2 
 2214000    0.8977575   -7.7076061    597.77918  0.022499969  0.022248395            2 
 2215000    0.8949394   -7.7393095    595.15956  0.022391255  0.022241899            1 
 2216000   0.89980285    -7.743161    595.87059  0.022407889   0.02223537            2 
 2217000   0.89615248   -7.7495394    597.14735  0.022445773  0.022228881            3 
 2218000   0.90631443   -7.7305215    595.72992  0.022382398  0.022222427            1 
 2219000   0.91216296   -7.7709375    598.53345  0.022477597  0.022215965            2 
 2220000   0.89780532   -7.7426446    597.92687  0.022444702   0.02220944            1 
 2221000   0.90399522   -7.7363444     597.7627  0.022428437  0.022202985            2 
 2222000   0.91371587   -7.7599601    598.69006  0.022453122  0.022196517            4 
 2223000    0.8961901   -7.7538843    596.55431  0.022362959  0.022190097            3 
 2224000   0.91574546   -7.7939913    598.42748  0.022423092   0.02218371            2 
 2225000   0.91113666   -7.7392985     597.8608   0.02239179  0.022177291            1 
 2226000   0.88357794   -7.7565144    598.06925  0.022389535  0.022170864            2 
 2227000   0.86920934    -7.748585    597.80019  0.022369413  0.022164457            1 
 2228000   0.89611709   -7.7673472    598.73592  0.022394372  0.022158019            3 
 2229000   0.89284671   -7.7388735    598.24787  0.022366079  0.022151533            1 
 2230000   0.87251633   -7.7374597     599.6838  0.022409709  0.022145064            1 
 2231000    0.8971539   -7.7434942    599.03244  0.022375334  0.022138691            2 
 2232000   0.89061916   -7.7280863    598.43445  0.022342983   0.02213231            1 
 2233000   0.88355881   -7.7237833    599.63255  0.022377689  0.022125887            2 
 2234000   0.90027509   -7.7525987    600.12155  0.022385913  0.022119442            1 
 2235000   0.87099629   -7.7848738    597.42359  0.022275301  0.022112938            2 
 2236000   0.87235778   -7.8045391    597.56454  0.022270592  0.022106445            2 
 2237000   0.89606427   -7.7674396    599.54734  0.022334501  0.022099987            1 
 2238000   0.88000961   -7.7753677    598.79493  0.022296505  0.022093473            2 
 2239000   0.88193292   -7.7619578      598.346  0.022269838  0.022086936            2 
 2240000   0.91225047   -7.7702617    599.03471  0.022285517  0.022080415            1 
 2241000   0.90543592   -7.7395037    598.78275  0.022266204  0.022073937            2 
 2242000    0.8882505   -7.7352742    599.91515  0.022298363  0.022067443            3 
 2243000    0.8964353   -7.7719206    600.67062  0.022316489  0.022061021            3 
 2244000   0.89061732   -7.7685717    599.48887  0.022262659  0.022054564            2 
 2245000    0.9073405   -7.7485031    600.30037  0.022282864  0.022048089            5 
 2246000   0.90520615    -7.745583    600.63295  0.022285283  0.022041684            2 
 2247000    0.8897543   -7.7304629    600.84608  0.022283269  0.022035234            1 
 2248000   0.88331124   -7.7363501     601.1753  0.022285561  0.022028801            1 
 2249000   0.89657223    -7.775591    599.82406  0.022225584  0.022022346            3 
 2250000   0.88685513   -7.7458909    600.16095  0.022228183  0.022015848            2 
 2251000   0.89526329   -7.7785849    599.56104    0.0221961  0.022009376            2 
 2252000   0.90506607   -7.7756028    599.32758  0.022177604  0.022002856            2 
 2253000   0.88726215   -7.7621858    599.98435  0.022192053  0.021996356            2 
 2254000   0.89008194   -7.7656161    600.46333  0.022199916  0.021989785            2 
 2255000   0.88631623   -7.7667879    600.74661   0.02220054  0.021983331            4 
 2256000   0.88873062   -7.7392779    602.62548  0.022260102  0.021976807            1 
 2257000   0.89039161   -7.7658414    601.07174  0.022192872  0.021970327            2 
 2258000   0.90379525   -7.7580732    601.22153  0.022188571  0.021963821            5 
 2259000    0.8819442   -7.7472931    602.45359  0.022224199  0.021957286            1 
 2260000   0.90334533   -7.7434802    600.78914  0.022152992  0.021950794            3 
 2261000   0.87326511   -7.7731484    599.31854  0.022088992  0.021944272            2 
 2262000   0.88937375   -7.7342561      600.669  0.022128979  0.021937761            2 
 2263000   0.89108347   -7.7915377    600.61855  0.022117342  0.021931268            3 
 2264000   0.90152326    -7.743482    601.69048  0.022147029   0.02192476            4 
 2265000   0.87179431   -7.7559109    600.54148  0.022094977  0.021918247            3 
 2266000    0.8982311   -7.7570133    602.50474  0.022157426  0.021911734            2 
 2267000   0.88333618   -7.7031525    603.44804  0.022182328  0.021905291            2 
 2268000   0.89849566   -7.7416625    601.89607  0.022115523  0.021898774            3 
 2269000   0.89727844   -7.7555933    600.15897  0.022041978  0.021892253            1 
 2270000   0.89195775   -7.7448756    602.32963  0.022111954  0.021885718            3 
 2271000   0.88055226   -7.7526715      602.678  0.022115001   0.02187922            3 
 2272000    0.9117528   -7.7580037    602.64874  0.022104194  0.021872749            2 
 2273000   0.90475755   -7.7856163    601.57646  0.022055157  0.021866287            2 
 2274000    0.8998698   -7.7688986    602.90653    0.0220942  0.021859786            2 
 2275000    0.8686713   -7.7469778    602.23081  0.022059737  0.021853347            1 
 2276000   0.89313929   -7.7757557    601.87679  0.022037082  0.021846895            1 
 2277000    0.9038744    -7.775923    602.02174  0.022032709  0.021840389            3 
 2278000   0.88670061   -7.7496273    602.34174  0.022034743  0.021833946            1 
 2279000   0.88520983   -7.7845074    601.46379  0.021992972   0.02182752            1 
 2280000   0.88833369   -7.7540967    602.99641  0.022039342  0.021821074            2 
 2281000   0.87784557   -7.7576334    604.30201  0.022077379  0.021814584            2 
 2282000   0.86662791   -7.7570356    602.88074  0.022015803  0.021808148            2 
 2283000   0.88600383   -7.7747467    603.19006   0.02201745   0.02180164            1 
 2284000   0.88998252   -7.7793719    602.09407  0.021967822  0.021795146            2 
 2285000   0.85762249   -7.7682804     602.4206  0.021970117  0.021788633            1 
 2286000   0.90623256   -7.7844287    603.14151  0.021986786  0.021782098            2 
 2287000   0.88236582   -7.7606444    603.69559  0.021997362  0.021775591            4 
 2288000   0.88623156   -7.7601844    602.28162  0.021936248  0.021769008            3 
 2289000   0.88952545   -7.7457328    604.48944  0.022007042  0.021762445            3 
 2290000   0.88323812   -7.7708299    604.25873  0.021989037  0.021755956            1 
 2291000   0.88860453   -7.7346988    603.25757  0.021943022  0.021749443            1 
 2292000   0.87620963   -7.7317786    602.61733   0.02191017  0.021742911            2 
 2293000   0.88473759   -7.7747362    602.44983  0.021894528  0.021736313            3 
 2294000   0.89441557   -7.8046956    601.12059  0.021836697  0.021729684            1 
 2295000   0.89488468   -7.7574762    603.25988  0.021904861  0.021723095            2 
 2296000   0.87732756   -7.7909748    601.93465  0.021847221  0.021716546            1 
 2297000   0.89239747   -7.7562794    603.38587  0.021890359   0.02170996            2 
 2298000    0.8836268   -7.7453824     603.6251  0.021889509  0.021703385            2 
 2299000   0.87837269    -7.778161    602.15814  0.021826814  0.021696814            1 
 2300000    0.8776734   -7.7912132    602.55575   0.02183173  0.021690214            3 
 2301000   0.88565068   -7.7688831    602.91776  0.021835353  0.021683546            2 
 2302000   0.86809272   -7.8141053    601.37102  0.021769875  0.021676896            2 
 2303000   0.88792461   -7.7931092     603.4461  0.021835508   0.02167024            3 
 2304000   0.88843185   -7.7814993    602.31016  0.021784945  0.021663569            3 
 2305000   0.90498205   -7.7947604     602.8348  0.021794461  0.021656945            1 
 2306000   0.88107105   -7.7856603    605.22552  0.021871405  0.021650387            1 
 2307000    0.9079217   -7.8204406     603.6836  0.021806227  0.021643809            2 
 2308000   0.90011566   -7.7757318    603.06538  0.021774458  0.021637198            2 
 2309000   0.91186532   -7.7914727    604.50807  0.021817095  0.021630664            1 
 2310000   0.87683589   -7.8034734    603.31494  0.021764608  0.021624095            1 
 2311000   0.87070197   -7.7624243     604.3249  0.021791609   0.02161749            1 
 2312000    0.8775309    -7.774905    604.76426   0.02179802   0.02161094            4 
 2313000   0.89742204   -7.7505124    605.14109  0.021802172  0.021604421            1 
 2314000   0.88484262   -7.7454382    605.55048  0.021807494  0.021597884            3 
 2315000   0.88383292    -7.741631    605.36487  0.021791392  0.021591347            2 
 2316000   0.86791027   -7.8029074    603.79787    0.0217256  0.021584771            2 
 2317000   0.88621662   -7.7771459    604.96981  0.021758373  0.021578198            1 
 2318000   0.89566539   -7.7641655    604.76699  0.021741695  0.021571593            2 
 2319000   0.88986859   -7.7301739    606.20645  0.021784047  0.021565014            1 
 2320000   0.89088329   -7.7960173    603.25296  0.021668569  0.021558414            3 
 2321000   0.86291231   -7.7664982    604.87678  0.021717535  0.021551836            4 
 2322000   0.88277235   -7.7899713    605.61832  0.021734795  0.021545169            2 
 2323000   0.87802108   -7.7842476    605.24907  0.021712192   0.02153855            2 
 2324000   0.86488178   -7.7788594    604.29845  0.021668763  0.021531902            1 
 2325000   0.87487663   -7.7679366    605.10904  0.021688496   0.02152529            2 
 2326000   0.86676717   -7.7909919    605.12249  0.021679653  0.021518672            1 
 2327000   0.86715874    -7.816528    604.51071  0.021648428  0.021511999            1 
 2328000   0.87606106   -7.8050589    605.49541  0.021674378  0.021505277            2 
 2329000   0.87462366    -7.805158    604.02954  0.021612621  0.021498566            2 
 2330000   0.87975062   -7.7910931    604.16951  0.021608351  0.021491921           11 
 2331000   0.87228859   -7.7856975    605.60538  0.021650414  0.021485243            3 
 2332000   0.88095243     -7.81023    604.49246   0.02160136  0.021478525            2 
 2333000    0.8648422   -7.7950883    606.48044   0.02166311  0.021471845            3 
 2334000   0.88965101   -7.7790719     604.7181  0.021590906  0.021465213            2 
 2335000   0.87668375   -7.8085554    604.55152  0.021575714  0.021458548            2 
 2336000   0.88259728   -7.7667789    605.88965  0.021614214   0.02145189            2 
 2337000   0.86417561   -7.8015309    606.00524  0.021609087   0.02144527            1 
 2338000    0.8616996   -7.7805802    604.14761  0.021533633  0.021438655            2 
 2339000   0.89021018   -7.8140774    606.03027  0.021591502  0.021432038            4 
 2340000   0.88521536   -7.7528663    607.24269  0.021625452  0.021425413            1 
 2341000   0.88017379   -7.7739632    606.82364  0.021601297  0.021418843            2 
 2342000   0.88335459   -7.7909192    605.13137  0.021531859  0.021412193            2 
 2343000   0.86936637   -7.7664884    607.08267  0.021592071  0.021405578            2 
 2344000   0.88443775   -7.7866733    606.83566  0.021574078  0.021398996            3 
 2345000   0.88880847   -7.7943523    607.58914  0.021591654   0.02139247            4 
 2346000   0.88169633   -7.7594068    606.48902  0.021543373  0.021385935            1 
 2347000    0.8770924    -7.799931    606.23902  0.021525317  0.021379404            1 
 2348000   0.87362044   -7.7914493    606.69012  0.021532159  0.021372846            1 
 2349000   0.88696262   -7.7995996    605.13048  0.021467663   0.02136628            1 
 2350000   0.85971768   -7.8055203    607.73192  0.021550777  0.021359694            3 
 2351000   0.88150378    -7.763494    608.61007  0.021572737  0.021353142            4 
 2352000   0.87939425   -7.7720494    609.33117  0.021589115  0.021346703            2 
 2353000   0.87957971   -7.8117602     607.7781  0.021524936  0.021340174            2 
 2354000   0.87667266   -7.7689448    608.98196   0.02155841  0.021333634            2 
 2355000   0.88820682   -7.7946724    606.59039  0.021464628  0.021327049            2 
 2356000   0.85805601   -7.8015198    607.57065   0.02149019   0.02132051            2 
 2357000   0.87996404   -7.8103838    607.53195  0.021479704  0.021313981            3 
 2358000   0.88628495   -7.7772506    609.10117  0.021526052  0.021307439            2 
 2359000   0.87309897   -7.7796672    608.01204  0.021478453  0.021300896            1 
 2360000    0.8925599   -7.8024388    608.73939  0.021495035   0.02129435            2 
 2361000   0.88210035   -7.8239847    607.20805  0.021431881  0.021287793            2 
 2362000   0.88148517   -7.7758747    609.56201  0.021505857  0.021281253            2 
 2363000   0.86476528   -7.8044709    608.61655  0.021463414  0.021274796            4 
 2364000   0.86480715   -7.7544689    609.90111  0.021499616  0.021268341            1 
 2365000   0.86174098   -7.7824637    608.42822  0.021438626  0.021261921            2 
 2366000   0.86828792    -7.825214    608.02115  0.021415228  0.021255393            5 
 2367000   0.87403786   -7.7806765    609.86119  0.021470962  0.021248893            3 
 2368000   0.87792472   -7.7963797    609.36406    0.0214444  0.021242363            1 
 2369000   0.88361969   -7.7832872    609.77872  0.021449934  0.021235906            1 
 2370000   0.87190934    -7.794574    608.98634  0.021413022  0.021229435            4 
 2371000   0.87846412    -7.797596    609.67598  0.021428229  0.021222915            3 
 2372000   0.87369617    -7.837754    608.60257  0.021381484  0.021216388            3 
 2373000   0.87058712   -7.8020046    609.90219  0.021418113  0.021209864            2 
 2374000   0.86985879   -7.8000929    609.15203  0.021382759  0.021203307            2 
 2375000   0.87406786   -7.8013112    609.50168  0.021386024  0.021196821            2 
 2376000   0.89081781   -7.8398475    610.53037  0.021413102  0.021190285            1 
 2377000   0.87437665   -7.8222767    611.85553  0.021450551  0.021183759            2 
 2378000   0.89180213   -7.7930002    611.49102  0.021428757  0.021177269            2 
 2379000   0.86586855   -7.7874058    610.28381  0.021377463   0.02117085            2 
 2380000    0.8698295   -7.8106976    611.19572   0.02140041  0.021164427            3 
 2381000   0.85686165   -7.8014072     610.9483  0.021382763   0.02115797            2 
 2382000   0.86045615   -7.7890415    609.68015   0.02132942  0.021151488            5 
 2383000   0.85426835   -7.8314394    610.43624   0.02134691  0.021145027            2 
 2384000   0.86961315   -7.7768707    613.02393  0.021428409  0.021138596            2 
 2385000   0.86782277   -7.8398921    610.53331  0.021332401  0.021132164            2 
 2386000   0.87833854   -7.8217033    611.89007  0.021370846  0.021125754            1 
 2387000   0.86092858   -7.8122532    611.58034   0.02135108  0.021119338            2 
 2388000    0.8535436   -7.7836129    612.16022  0.021362375  0.021112905            2 
 2389000   0.87095412   -7.7684201     611.2652  0.021322213   0.02110651            2 
 2390000   0.85785286   -7.8162891    611.90157   0.02133548  0.021100162            4 
 2391000   0.87605824   -7.8320756    611.90134  0.021326549  0.021093777            2 
 2392000   0.86502432   -7.8042756    610.42176  0.021266087  0.021087343            2 
 2393000   0.86794489   -7.8089977     612.1862  0.021318645   0.02108088            4 
 2394000    0.8743516   -7.8111853     611.7952  0.021296129   0.02107445            1 
 2395000   0.84893888   -7.7947859    610.83254  0.021253742  0.021068007            5 
 2396000     0.874469   -7.8030648    611.90697   0.02128224  0.021061591            1 
 2397000   0.85971303   -7.8051038    613.20381  0.021318447  0.021055144            2 
 2398000   0.87326911   -7.8498317    610.88979  0.021229142  0.021048697            2 
 2399000   0.87278318   -7.8323748    613.67789  0.021317142  0.021042266            4 
 2400000   0.87042049   -7.7990105    613.22953  0.021292692   0.02103591            2 
 2401000   0.85920736   -7.8257881    611.66104  0.021229385  0.021029514            1 
 2402000   0.88985852   -7.8212917    613.54337  0.021285851  0.021023106            1 
 2403000   0.86004965   -7.8012378    612.78064  0.021250542  0.021016729            5 
 2404000   0.86187452   -7.7884356    612.88581  0.021245349  0.021010296            1 
 2405000   0.85950682   -7.8286552    611.45362  0.021186889  0.021003861            3 
 2406000   0.89048466   -7.8169176    611.84766  0.021191731  0.020997435            3 
 2407000   0.87438551   -7.7890676    613.24675  0.021231365  0.020991008            1 
 2408000   0.86741205   -7.8453627    612.24868  0.021188008  0.020984572            4 
 2409000   0.86901212   -7.7951011    613.02445  0.021206049  0.020978198            4 
 2410000   0.84934188   -7.8263679    612.78949  0.021189125  0.020971784            4 
 2411000   0.85959366   -7.8022547    613.39066  0.021201115  0.020965409            2 
 2412000   0.85361848   -7.7966131    615.13939  0.021252743  0.020959072            3 
 2413000   0.86658302   -7.8061924    614.61741  0.021225909  0.020952752            2 
 2414000   0.86567739   -7.8416323    613.15789  0.021166732   0.02094637            3 
 2415000   0.87476249   -7.8306206    612.66421  0.021140932  0.020939916            3 
 2416000    0.8948061   -7.8312176    613.68142  0.021167268  0.020933485            3 
 2417000   0.87476022    -7.814656    614.06472  0.021171725  0.020927087            2 
 2418000   0.86416179   -7.8373023    613.12227  0.021130489  0.020920677            2 
 2419000   0.87485825    -7.842666    613.71227  0.021142079  0.020914316            2 
 2420000   0.85817188    -7.815874    613.36875  0.021121513  0.020907923            4 
 2421000   0.86330288   -7.8346656    612.99783  0.021100022  0.020901555            2 
 2422000   0.88082425    -7.826179    613.32556  0.021102586  0.020895189            4 
 2423000   0.84908178   -7.8116101    614.73345  0.021142298   0.02088878            4 
 2424000    0.8698493   -7.8295016    614.20033  0.021115248  0.020882385            1 
 2425000   0.86555545   -7.8314278      614.972  0.021133058  0.020875991            1 
 2426000   0.86579213   -7.8328155    614.37672    0.0211039  0.020869588            1 
 2427000   0.87673739   -7.8108105    613.58379  0.021067978  0.020863226            2 
 2428000   0.85356202   -7.8210337     616.2406  0.021150487  0.020856848            4 
 2429000   0.86628731   -7.8156381    615.01363  0.021099685  0.020850465            2 
 2430000    0.8552204   -7.8105241     615.8598   0.02112002  0.020844142            2 
 2431000   0.87029642   -7.7991418    616.42861  0.021130831  0.020837802            1 
 2432000   0.88090057   -7.8111904    616.03842  0.021108773  0.020831474            1 
 2433000   0.85753394   -7.7972435    617.08977  0.021136107  0.020825188            1 
 2434000   0.86023505   -7.8106105    614.61734  0.021042774  0.020818885            2 
 2435000   0.85585938   -7.8223742    615.96473  0.021080244  0.020812527            3 
 2436000   0.87820215   -7.8276197    615.15996   0.02104406  0.020806173            3 
 2437000   0.86034871   -7.8087834     617.0454  0.021099897  0.020799809            2 
 2438000   0.85155893   -7.8299451    616.53335  0.021073741  0.020793481            2 
 2439000   0.87974437   -7.8601036    616.63123  0.021068444  0.020787159            2 
 2440000   0.87982545   -7.8063096    616.96007  0.021071041  0.020780864            4 
 2441000   0.85885876   -7.8142862    617.26408  0.021072787  0.020774556            2 
 2442000   0.87311571   -7.8245739    615.12381  0.020991121  0.020768235            2 
 2443000   0.88805715   -7.8488153    616.44013   0.02102743  0.020761914            2 
 2444000   0.86258657   -7.8143297     617.6866  0.021061327  0.020755599            2 
 2445000   0.84805446   -7.8353234    617.95389  0.021061823  0.020749283            3 
 2446000   0.83552885   -7.8482038    616.71806  0.021011109  0.020742964            2 
 2447000   0.84471632   -7.8448286    616.47064  0.020994096  0.020736632            2 
 2448000   0.87279546   -7.8455203    616.39551  0.020982963  0.020730306            2 
 2449000   0.86996181   -7.8410048    615.66096    0.0209494  0.020723976            1 
 2450000   0.86632267   -7.8111991      616.058  0.020954354  0.020717595            2 
 2451000   0.84946804   -7.8483232    616.96031  0.020976483  0.020711237            1 
 2452000   0.85750596   -7.8398458    616.37058  0.020947885  0.020704843            2 
 2453000   0.86912328   -7.8711569    617.54296  0.020979174  0.020698486            1 
 2454000   0.87171496    -7.862587     616.4236  0.020932613  0.020692128            1 
 2455000   0.83222323   -7.8496111    616.92366  0.020941061  0.020685749            2 
 2456000   0.85422536   -7.8539948    616.44005  0.020916125  0.020679384            2 
 2457000   0.85793249   -7.8176008    617.49697   0.02094346  0.020673035            2 
 2458000   0.86632246   -7.8277866    616.86243  0.020913427  0.020666687            1 
 2459000   0.88198781   -7.8761049    615.33103  0.020853024  0.020660309            3 
 2460000   0.85128444   -7.8165693    616.76698   0.02089319  0.020653909            3 
 2461000   0.84968503   -7.8384455    618.29373  0.020936399   0.02064754            6 
 2462000   0.87852813   -7.8066381    617.85157  0.020912929  0.020641243            2 
 2463000   0.86436736   -7.8566737    615.70469    0.0208318  0.020634899            4 
 2464000   0.86370798   -7.8472473    617.06376   0.02086931  0.020628587            1 
 2465000    0.8630025   -7.8541029    616.80878  0.020852224  0.020622236            3 
 2466000   0.85524971   -7.8434683    617.88787  0.020880234   0.02061591            3 
 2467000   0.84121768   -7.8182616    617.94261  0.020873619  0.020609578            1 
 2468000   0.86433468   -7.8864415    617.23421  0.020841242  0.020603209            1 
 2469000   0.83557401   -7.8507134    617.29369  0.020834808  0.020596854            3 
 2470000   0.85182694   -7.8692151    616.59588   0.02080283  0.020590496            1 
 2471000   0.87686976   -7.8411851    617.85968  0.020837032  0.020584192            2 
 2472000   0.84128186   -7.8508027    617.74925   0.02082488  0.020577898            4 
 2473000   0.84008424   -7.8467398    618.92576  0.020856105  0.020571606            1 
 2474000   0.86948123   -7.8400325    619.55058  0.020868721  0.020565299            1 
 2475000   0.85554093   -7.8199334    620.12987  0.020879794  0.020559009            3 
 2476000   0.83931056   -7.8626483    619.08168  0.020836082  0.020552706            2 
 2477000   0.83598238    -7.860648     618.0596  0.020793285  0.020546405            2 
 2478000   0.86772112   -7.8133276    618.50068  0.020799727  0.020540076            4 
 2479000   0.84766342   -7.8567509    618.46674  0.020790196  0.020533768            1 
 2480000     0.858643   -7.8406884    618.31267  0.020776635  0.020527448            2 
 2481000   0.83486919   -7.8142555    618.43725  0.020772445  0.020521112            2 
 2482000    0.8471474   -7.8417122    617.07975  0.020718498  0.020514755            2 
 2483000   0.85604463   -7.8641561    618.85775  0.020769826  0.020508407            3 
 2484000   0.84136703   -7.8453101    619.15352  0.020771388  0.020502094            1 
 2485000   0.83296937   -7.8671532    617.15342  0.020695956  0.020495775            1 
 2486000   0.84914932   -7.8380539     619.6069  0.020769875  0.020489431            3 
 2487000   0.84530307   -7.8565669    618.68107  0.020730501  0.020483056            1 
 2488000   0.85356675   -7.8681388    619.05044  0.020734541  0.020476673            2 
 2489000   0.85638585   -7.8402476    618.47799  0.020707044  0.020470299            2 
 2490000   0.87334523   -7.8286067    617.63085  0.020670376  0.020463955            3 
 2491000   0.85184868    -7.865011    618.53973  0.020692484  0.020457592            1 
 2492000   0.85590276   -7.8503146    618.09687  0.020669371  0.020451292            2 
 2493000   0.83835118   -7.8495959    619.79253  0.020717761  0.020444945            3 
 2494000      0.83489   -7.8126913    620.98399  0.020749264  0.020438655            1 
 2495000   0.85338641   -7.8344315    620.57149  0.020727171  0.020432383            2 
 2496000   0.83767907   -7.8096687    620.61834  0.020720431  0.020426046            2 
 2497000   0.86223542   -7.8488283    621.03503  0.020726039  0.020419748            2 
 2498000   0.85830861    -7.854096    618.73384  0.020640974  0.020413407            2 
 2499000   0.83418108   -7.8608925    619.25846  0.020650209  0.020407059            1 
 2500000   0.83603603   -7.8539334    620.41452  0.020680484  0.020400703            2 
 2501000   0.86417499   -7.8692224    618.87323  0.020620859  0.020394326            3 
 2502000    0.8532985   -7.8439095    619.31947   0.02062748  0.020387946            2 
 2503000   0.85209037   -7.8749648    617.53063  0.020559683  0.020381503            3 
 2504000   0.86473224    -7.889826    619.80572  0.020627187  0.020375033            2 
 2505000   0.85638611   -7.8879903    618.20933  0.020565846  0.020368604            2 
 2506000   0.83916976   -7.8596027    619.14918  0.020588893  0.020362205            1 
 2507000   0.83674728   -7.8408375    620.05772   0.02061088  0.020355825            2 
 2508000   0.86579939   -7.8433643    620.57453  0.020619834  0.020349459            1 
 2509000   0.85554749   -7.8824052    618.78027  0.020552022  0.020343084            5 
 2510000   0.85967834   -7.8171532     619.2917  0.020560813  0.020336706            2 
 2511000   0.83993611   -7.8345655    620.59401  0.020595845   0.02033033            1 
 2512000   0.85390079   -7.8481102    619.19963  0.020541389  0.020323954            2 
 2513000   0.84783058   -7.8499964    619.39938  0.020539839  0.020317603            2 
 2514000    0.8592737   -7.8286818     619.1302  0.020522746  0.020311242            1 
 2515000   0.85529893   -7.8205466    621.36419  0.020588608  0.020304939            5 
 2516000   0.84161694    -7.814344    620.66695  0.020557331  0.020298615            3 
 2517000   0.85147293   -7.8615391    618.91181  0.020491054  0.020292256            2 
 2518000    0.8593017   -7.8743273    620.51011  0.020535813  0.020285866            1 
 2519000   0.86299921   -7.8625254    620.30775  0.020520966  0.020279495            4 
 2520000   0.84369155   -7.8585796    620.85877  0.020531044  0.020273129            1 
 2521000   0.85333205   -7.8752364    619.72214  0.020485328  0.020266738            2 
 2522000   0.84962161    -7.890404    621.23357  0.020527147  0.020260352            1 
 2523000   0.81634464   -7.8815855    618.96649   0.02044413  0.020253963            4 
 2524000   0.86382899   -7.8538384    619.73891  0.020461533  0.020247613            3 
 2525000   0.83864263   -7.8602774    620.66591  0.020484023  0.020241297            1 
 2526000   0.82704798   -7.8419807    622.09764  0.020523147  0.020234934            1 
 2527000     0.850506   -7.8612407    620.15601  0.020450996  0.020228529            2 
 2528000   0.83749322   -7.8701997    621.77456  0.020496261  0.020222134            1 
 2529000   0.84380585   -7.8677709      620.202  0.020436338  0.020215777            3 
 2530000   0.85207443   -7.8687268    622.14923  0.020492399  0.020209469            1 
 2531000   0.83828375    -7.838148    621.41078  0.020459989  0.020203147            2 
 2532000   0.86242117   -7.8778362    621.47318  0.020453962  0.020196814            1 
 2533000   0.84226701   -7.8349185     622.0825  0.020465933  0.020190495            1 
 2534000   0.83386863   -7.8645788    622.00902   0.02045544  0.020184213            3 
 2535000   0.83511461   -7.8685561    621.01248  0.020414611  0.020177857            2 
 2536000   0.85871984   -7.8768774    622.21198  0.020445977  0.020171511            1 
 2537000   0.85433671   -7.8951339    621.20517  0.020404847  0.020165169            3 
 2538000   0.85045532   -7.8980158    620.34524  0.020368572  0.020158818            2 
 2539000   0.85068759    -7.901997     620.9432  0.020380176  0.020152437            1 
 2540000   0.83791332    -7.880777    623.12954  0.020443882  0.020146091            3 
 2541000   0.82377587   -7.8971726    623.20635  0.020438356  0.020139701            4 
 2542000   0.84078798   -7.8898405    621.55477  0.020376173  0.020133385            1 
 2543000   0.82997163   -7.8892899    623.15227   0.02042051  0.020127072            3 
 2544000   0.83840885   -7.8763862    620.67372  0.020331293  0.020120787            1 
 2545000   0.83852674   -7.8821421    622.87993  0.020395545   0.02011451            2 
 2546000   0.83921719   -7.8827646    621.70796  0.020349174  0.020108219            1 
 2547000   0.85633713   -7.8855281    622.46037  0.020365802  0.020101902            3 
 2548000   0.84685013   -7.8906975    622.92557  0.020373024   0.02009563            2 
 2549000   0.83427073   -7.8871848    622.29689  0.020344478  0.020089342            2 
 2550000    0.8415785    -7.893782    621.93881  0.020324798   0.02008304            3 
 2551000   0.82366241   -7.8987144    623.23741  0.020359252  0.020076703            2 
 2552000   0.84832192   -7.8878453    624.31818  0.020386565  0.020070418            3 
 2553000   0.82968623   -7.8785451    623.33366  0.020346444  0.020064163            5 
 2554000   0.82984544   -7.8936112    623.25397  0.020335878  0.020057912            2 
 2555000   0.85385999   -7.8569425    623.70785  0.020342722  0.020051634            1 
 2556000   0.83526599   -7.8925763    623.22441  0.020319001  0.020045375            2 
 2557000   0.86608376    -7.883311    623.94093  0.020334407   0.02003913            3 
 2558000   0.83994885   -7.8948459    624.25537  0.020336701  0.020032866            1 
 2559000    0.8231569   -7.8503041    622.23088  0.020262827  0.020026591            1 
 2560000   0.84777483   -7.8970843    623.75891  0.020304652  0.020020336            1 
 2561000   0.84202618   -7.8593715    624.54225  0.020322213  0.020014061            2 
 2562000   0.85995643   -7.8773314    625.04839  0.020330744  0.020007802            2 
 2563000   0.86197762    -7.868775    623.96671  0.020287642  0.020001558            1 
 2564000   0.82126674   -7.8541986    623.36782  0.020260264  0.019995331            1 
 2565000   0.83309175   -7.8924802    622.00871   0.02020821  0.019989065            3 
 2566000   0.85665601   -7.9022696    623.76347  0.020257322  0.019982784            1 
 2567000   0.84282518   -7.8895777    624.67346  0.020278972  0.019976486            2 
 2568000   0.84875009    -7.885745    623.62179  0.020236948  0.019970196            3 
 2569000   0.84289287   -7.8906778    624.10288  0.020244676  0.019963933            2 
 2570000   0.83328795   -7.9023611    626.11638  0.020302088  0.019957687            2 
 2571000    0.8303199   -7.8663136    624.37719  0.020237819  0.019951419            1 
 2572000   0.83035914   -7.8680551    624.73853  0.020241658  0.019945176            3 
 2573000   0.82672538   -7.8690765    625.06828  0.020244471  0.019938953            3 
 2574000   0.83751554   -7.8907271    624.30741  0.020211973  0.019932717            1 
 2575000   0.86406785   -7.8925678    623.40363  0.020174875  0.019926491            1 
 2576000   0.84418776   -7.8568168    625.73343  0.020242412  0.019920264            2 
 2577000   0.82889058   -7.8526459    626.08681  0.020245984   0.01991407            4 
 2578000   0.83997346   -7.9053443    624.12591  0.020174745  0.019907875            2 
 2579000   0.83530772   -7.8393377    626.53693  0.020244828  0.019901698            2 
 2580000   0.85928444   -7.9373155    625.90227  0.020216482  0.019895533            3 
 2581000   0.82675132   -7.8730566    626.94274  0.020242243  0.019889362            2 
 2582000   0.83288329   -7.9021633    626.31869  0.020214262  0.019883167            4 
 2583000   0.82283262   -7.9174072    625.32297  0.020174312  0.019876978            2 
 2584000   0.83117143   -7.8790471    626.26977  0.020197038  0.019870759            1 
 2585000   0.83977358   -7.8840331     624.8806  0.020144442  0.019864558            2 
 2586000   0.84210081    -7.902414     625.4307  0.020154379  0.019858323            1 
 2587000   0.83833184   -7.8957678    625.63632  0.020153212  0.019852088            3 
 2588000   0.83936037   -7.9139502    625.38168  0.020137226  0.019845884            1 
 2589000   0.83361011   -7.8936884     625.9402  0.020147425  0.019839657            2 
 2590000   0.83973212   -7.9082245    626.26712  0.020150165  0.019833458            5 
 2591000   0.83599883   -7.9066442    626.28718  0.020143033   0.01982728            2 
 2592000   0.80863023   -7.9203257    626.65787   0.02014718  0.019821091            2 
 2593000   0.82931331   -7.9117379    627.11711  0.020154168  0.019814926            2 
 2594000   0.82828809   -7.9311008    626.59975  0.020129779   0.01980875            2 
 2595000   0.85562508   -7.9301499    626.88171  0.020131076  0.019802556            1 
 2596000   0.84795436   -7.8976664    629.15794   0.02019639  0.019796362            2 
 2597000   0.83709833   -7.9395924    626.75533  0.020111518  0.019790178            1 
 2598000   0.84078865   -7.9009185     626.7851  0.020104731  0.019784038            2 
 2599000   0.85503567   -7.9277242    627.43016  0.020117678   0.01977788            2 
 2600000   0.82913729   -7.8713425    626.82622  0.020090584  0.019771752            2 
 2601000   0.81099137   -7.8953545    626.73307  0.020079875  0.019765567            1 
 2602000   0.83929471   -7.9336726    625.71556  0.020039571  0.019759409            1 
 2603000   0.84412659   -7.9076295      626.291  0.020050295  0.019753227            2 
 2604000   0.83603466   -7.9211489     627.5294  0.020082226  0.019747029            2 
 2605000   0.85289485    -7.916551    627.82009  0.020083816  0.019740869            1 
 2606000   0.84677267   -7.9495959    626.39633  0.020030581  0.019734697            2 
 2607000   0.84053174    -7.941437    627.48694  0.020057759  0.019728546            2 
 2608000   0.82445363   -7.8742077    629.16327  0.020103632  0.019722399            4 
 2609000   0.82607813   -7.8902128    628.22051  0.020065814  0.019716258            2 
 2610000   0.84747944     -7.86205    628.53219  0.020068078  0.019710175            1 
 2611000   0.82103185   -7.9018308    628.53384  0.020060444  0.019704134            2 
 2612000   0.83403651   -7.8816429    629.29189  0.020076949  0.019698044            2 
 2613000   0.82312608   -7.8743344    630.25007  0.020099824  0.019692013            1 
 2614000   0.82777456     -7.88825    629.26426  0.020060707  0.019685935            2 
 2615000   0.83744324    -7.886707    630.11013  0.020079991  0.019679872            4 
 2616000   0.84678319   -7.8932817    627.25349  0.019981316  0.019673798            2 
 2617000   0.81944986   -7.8819413    630.45092  0.020075497  0.019667722            2 
 2618000   0.82818204   -7.9120975    628.40821  0.020002808  0.019661618            5 
 2619000    0.8188167   -7.9057162    629.17604  0.020019602  0.019655531            1 
 2620000   0.82659288   -7.8932631    628.36776  0.019986252  0.019649416            2 
 2621000   0.83247477   -7.8833553    628.97875  0.019998053    0.0196433            2 
 2622000   0.82851674   -7.8880049    629.92957  0.020020645  0.019637223            1 
 2623000   0.82455343   -7.9111289    628.65383  0.019972482  0.019631111            2 
 2624000   0.84250228   -7.9242557    629.03037  0.019976828  0.019624995            2 
 2625000   0.82530241   -7.9436286    628.73634  0.019959884  0.019618917            3 
 2626000    0.8244412   -7.8738967    629.36524  0.019972241  0.019612854            1 
 2627000   0.82670352   -7.9161551    629.02353  0.019953798  0.019606762            1 
 2628000   0.83144803   -7.9183409    628.48185  0.019929029  0.019600678            1 
 2629000   0.85549983   -7.9315021    627.87008  0.019902057   0.01959459            2 
 2630000   0.81265694   -7.8892447    631.28284  0.020002625  0.019588504            1 
 2631000   0.81368435   -7.9005146    630.07298  0.019956701   0.01958246            2 
 2632000   0.81575011   -7.8879177    629.60681   0.01993436  0.019576453            1 
 2633000   0.83424134   -7.9188948    630.89652  0.019967607  0.019570471            4 
 2634000   0.81858555   -7.8875466    630.39957  0.019944304  0.019564452            2 
 2635000   0.82051849    -7.918261    631.55593  0.019973306   0.01955843            2 
 2636000   0.82224291   -7.9392977    631.91178  0.019976978  0.019552403            1 
 2637000   0.83200448   -7.9416596    629.68939  0.019899172  0.019546383            3 
 2638000   0.84469719   -7.9305336    630.53919  0.019918473  0.019540333            1 
 2639000   0.82478034   -7.9275728    629.86512   0.01988964  0.019534272            2 
 2640000   0.83066733   -7.9100137    629.98507  0.019885892  0.019528205            1 
 2641000   0.84078916   -7.9142224    630.94661  0.019908703  0.019522165            2 
 2642000   0.84068745    -7.901415    631.06065  0.019904764  0.019516126            1 
 2643000   0.83373514   -7.9409393      630.905  0.019892326  0.019510075            5 
 2644000   0.81463945   -7.9071831    631.16638   0.01989304  0.019504029            2 
 2645000   0.83770301   -7.8966638    630.86384  0.019875987  0.019498014            3 
 2646000   0.82910249    -7.905596    631.35817  0.019884044  0.019491985            3 
 2647000   0.82679326   -7.9165324    631.05723  0.019867058  0.019486002            3 
 2648000   0.82669997   -7.9263179     630.6952  0.019848162  0.019480026            2 
 2649000   0.84278232    -7.911586    632.27507   0.01989037  0.019474104            3 
 2650000   0.83537861   -7.8990532    631.97894  0.019873552  0.019468147            2 
 2651000   0.82674304   -7.9007161    630.49571   0.01981943  0.019462182            3 
 2652000   0.82158612    -7.907395    632.16732  0.019864483  0.019456225            3 
 2653000    0.8634523   -7.9223044    632.27838  0.019860484  0.019450291            2 
 2654000   0.81675175    -7.920105    632.09228  0.019847158  0.019444323            2 
 2655000   0.84779391   -7.9401839     632.4012  0.019849379  0.019438341            2 
 2656000   0.82427405   -7.9275323    632.88276  0.019857014  0.019432392            1 
 2657000   0.82149144   -7.9191257    634.90308  0.019912905  0.019426475            2 
 2658000   0.81839861   -7.9114308    632.71244  0.019836733  0.019420553            2 
 2659000   0.82712746   -7.9435289    630.93517  0.019773573  0.019414592            5 
 2660000   0.83309732   -7.9231008     633.9285  0.019859915   0.01940865            1 
 2661000   0.82556895    -7.923075    633.28498  0.019832299  0.019402721            2 
 2662000   0.81212806   -7.9256629    632.42757  0.019798008  0.019396779            2 
 2663000   0.81347982   -7.8945952    633.74622  0.019831838  0.019390822            2 
 2664000   0.82631541   -7.9058513    632.65639  0.019790303  0.019384904            2 
 2665000   0.82353222   -7.9347398    633.41435  0.019806578  0.019378984            2 
 2666000     0.814192   -7.9227147    632.27551  0.019763551   0.01937302            2 
 2667000   0.83980932   -7.9290774    632.46225  0.019761975  0.019367077            2 
 2668000     0.816303    -7.921265    633.19692  0.019777515  0.019361112            1 
 2669000   0.83239664   -7.9167391    633.61673  0.019783213  0.019355212            1 
 2670000   0.82448646   -7.9194438    633.94414  0.019786022  0.019349287            3 
 2671000   0.83465149   -7.8995348    633.16309  0.019754246  0.019343348            2 
 2672000   0.82124684   -7.9391401    632.58749  0.019728901  0.019337427            3 
 2673000   0.82842346   -7.9054194    633.08914   0.01973716  0.019331505            2 
 2674000    0.8192937   -7.8870535    635.66922  0.019810185  0.019325622            4 
 2675000   0.84225327   -7.8965378    634.28669   0.01975971   0.01931973            2 
 2676000   0.83804328   -7.9211851    632.55123  0.019698282  0.019313798            3 
 2677000    0.8205766   -7.9340087    633.48158  0.019719885   0.01930785            2 
 2678000   0.81286297   -7.9435515     633.9769  0.019727934  0.019301907            2 
 2679000   0.82376646   -7.9664171     631.6967  0.019649642  0.019295959            1 
 2680000   0.83079186   -7.9506348    633.68676   0.01970419  0.019290031            2 
 2681000    0.8325222   -7.9479382    633.66591  0.019696193  0.019284098            5 
 2682000    0.8145118   -7.9416215    633.76968  0.019692073  0.019278159            1 
 2683000   0.81628981   -7.9468109    633.45457  0.019674946  0.019272244            1 
 2684000   0.82912455   -7.9741684    632.89096  0.019650117  0.019266324            3 
 2685000      0.81727   -7.9211269    633.74716  0.019669372  0.019260415            1 
 2686000   0.81201542   -7.9151317    634.62661  0.019689334  0.019254528            2 
 2687000   0.81671537   -7.9186116    634.78354  0.019686873  0.019248688            1 
 2688000   0.81993393   -7.9559882    634.79422   0.01967988  0.019242806            2 
 2689000   0.81327968   -7.9372315    634.53155  0.019664422  0.019236916            3 
 2690000   0.80580072   -7.9435296    633.25229  0.019617481  0.019231056            5 
 2691000    0.8349262   -7.9215064    635.68208  0.019685436   0.01922517            2 
 2692000   0.85796771   -7.9525858    634.71077  0.019648055  0.019219289            3 
 2693000   0.82947388   -7.9573357    635.21908  0.019656488  0.019213403            2 
 2694000   0.81027532   -7.9233064    634.95984  0.019641173  0.019207539            2 
 2695000   0.81893179   -7.9406242    634.63576  0.019623864  0.019201671            1 
 2696000   0.81492149   -7.9549411     633.9808   0.01959634  0.019195801            2 
 2697000   0.81712874   -7.9161386    635.54618  0.019637442  0.019189943            1 
 2698000    0.8164978   -7.9405505    635.14222  0.019617687  0.019184054            2 
 2699000   0.81498924   -7.9698923    634.34393   0.01958577   0.01917816            3 
 2700000   0.81086648   -7.9574741     634.2094  0.019574364  0.019172254            1 
 2701000   0.83455742   -7.9600365    636.25475  0.019630222  0.019166319            1 
 2702000   0.81112589    -7.933163    636.68837   0.01963633  0.019160421            1 
 2703000   0.82005079   -7.9437494    635.88649  0.019604344  0.019154515            4 
 2704000   0.82286201   -7.9305647     634.9148  0.019567147  0.019148644            1 
 2705000   0.84012195   -7.9224187    634.41595  0.019544546   0.01914274            1 
 2706000    0.8267526   -7.9383007    633.87187  0.019520567  0.019136872            2 
 2707000   0.81355656   -7.9495091    636.15922  0.019583771  0.019130998            1 
 2708000    0.8118567   -7.9578899    636.27175  0.019580002  0.019125122            1 
 2709000   0.81095291   -7.9637436    635.40534  0.019546122   0.01911925            1 
 2710000   0.80904415   -7.9338303    637.04273   0.01958926   0.01911338            3 
 2711000    0.8205026   -7.9377632    635.34225  0.019529763  0.019107508            1 
 2712000   0.81766264   -7.9681651    635.18456  0.019517716   0.01910161            1 
 2713000   0.82614823   -7.9805852    633.58476  0.019461382  0.019095729            2 
 2714000   0.82331553   -7.9252453    635.18527  0.019503355  0.019089872            2 
 2715000   0.81882211   -7.9385713    635.75292  0.019513595  0.019083975            2 
 2716000   0.81728614   -7.9359575    635.79882  0.019507818  0.019078121            3 
 2717000   0.81498711   -7.9438275    636.47212  0.019521289  0.019072283            2 
 2718000   0.81535384    -7.966098    637.11327  0.019533765  0.019066432            3 
 2719000    0.8042638   -7.9510164    635.47999  0.019476523  0.019060573            4 
 2720000    0.8211378   -7.9777739    635.25064  0.019462336  0.019054678            1 
 2721000   0.80419337   -7.9312935    636.24041  0.019485496  0.019048812            2 
 2722000   0.83111259   -7.9420302    637.05727  0.019503345  0.019042952            2 
 2723000   0.82005162    -7.925257    638.49439  0.019540164  0.019037114            1 
 2724000   0.82065567   -7.9627237    636.22344  0.019463517  0.019031235            2 
 2725000   0.81703866   -7.9236419    637.88403  0.019507157  0.019025371            1 
 2726000   0.83621359   -7.9038469    638.34335  0.019514042  0.019019547            3 
 2727000   0.81741813   -7.9414199    638.58696  0.019514331  0.019013776            2 
 2728000   0.80828413   -7.9193748    638.10752  0.019492532  0.019007992       -1e+20 
 2729000   0.82345505    -7.941942    637.27229  0.019459884  0.019002195            1 
 2730000   0.82906604   -7.9425401    637.53214  0.019460688   0.01899639            1 
 2731000   0.82634778   -7.9598187    636.40531  0.019419178  0.018990582            2 
 2732000   0.81551228   -7.9426907    638.61497  0.019479471  0.018984748            7 
 2733000   0.81890824   -7.9759742    636.88942  0.019419729  0.018978889            2 
 2734000   0.80204387   -7.9682297    637.34048  0.019426374  0.018973065            1 
 2735000   0.82436481   -7.9684077    638.08446   0.01944194  0.018967265            1 
 2736000   0.80626218   -7.9515382    638.32724  0.019442228  0.018961457            2 
 2737000   0.82510476   -7.9321784    639.65871  0.019475664  0.018955699            6 
 2738000    0.8217772   -7.9654813    637.81867  0.019412548  0.018949938            1 
 2739000   0.82023222    -7.956609    636.12776  0.019354015  0.018944146            2 
 2740000   0.81322867   -7.9448616    638.58592  0.019421713  0.018938354            4 
 2741000   0.83967972   -7.9760083    637.02868  0.019367283  0.018932568            2 
 2742000   0.81420189   -7.9712077    636.91136  0.019356654  0.018926742            2 
 2743000   0.81824236   -7.9326799    637.48115  0.019366908  0.018920929            1 
 2744000   0.81674112   -7.9590093    638.02451  0.019376352   0.01891513            1 
 2745000   0.80547413   -7.9798202    637.16941  0.019343334  0.018909331            1 
 2746000   0.81584987   -7.9763834    638.42077  0.019374265  0.018903534            3 
 2747000   0.81149472   -7.9854279    638.77008  0.019377809  0.018897717            2 
 2748000    0.7993115   -7.9424076    639.45103  0.019391407  0.018891911            1 
 2749000   0.80752523    -7.934613    638.81814  0.019365167  0.018886129            7 
 2750000   0.80456457   -7.9715882    637.96322  0.019332219  0.018880331            1 
 2751000   0.80980188   -7.9478956    638.28582  0.019334964  0.018874516            2 
 2752000   0.82047856   -7.9663434    637.54762  0.019305584  0.018868677            2 
 2753000   0.82489264   -7.9647939    637.77716   0.01930552  0.018862843            1 
 2754000    0.7959817   -7.9473208    638.09739    0.0193082  0.018857026            3 
 2755000   0.79928503    -7.955781    639.57934  0.019346018   0.01885122            2 
 2756000   0.80789406   -7.9633417    639.47592  0.019335871  0.018845418            4 
 2757000   0.80173632   -7.9675964    640.03073  0.019345627  0.018839616            2 
 2758000   0.83587277   -7.9487565    637.54712   0.01926357   0.01883378            2 
 2759000    0.8237654   -7.9913045     636.9453  0.019238411  0.018827919            5 
 2760000   0.79964228   -7.9784103    637.74862  0.019255695  0.018822068            3 
 2761000   0.82244049   -7.9573565    638.46361  0.019270301  0.018816223            2 
 2762000   0.79882873   -7.9481689     638.1656  0.019254332  0.018810429            4 
 2763000   0.80215367   -7.9408057     638.0236  0.019243081  0.018804612            2 
 2764000   0.79973813   -7.9512564     638.6556  0.019255174  0.018798769            2 
 2765000   0.80597292   -7.9602355    637.76349  0.019221323  0.018792921            1 
 2766000   0.80519744   -7.9657356    638.20353  0.019227631  0.018787064            2 
 2767000   0.81997636   -7.9949356    637.29941  0.019193453  0.018781209            1 
 2768000   0.81163617   -7.9710169    638.29866  0.019216602  0.018775401            4 
 2769000   0.81123279   -7.9673844    638.20017  0.019206698  0.018769612            2 
 2770000   0.81270242   -7.9560748    639.97355  0.019253115  0.018763828            2 
 2771000   0.83731379   -7.9636694    637.73683  0.019178901  0.018758044            3 
 2772000   0.79206968   -7.9579399    639.40089  0.019222008  0.018752239            3 
 2773000    0.7948146   -7.9394398    640.12483  0.019236832  0.018746485            3 
 2774000   0.82084701   -7.9585815    637.63223  0.019155018   0.01874073            5 
 2775000   0.80943956   -7.9506052    640.35363  0.019229839  0.018734972            2 
 2776000   0.80568938   -7.9360345    640.52458  0.019228043   0.01872926            1 
 2777000   0.80533411    -7.937518    640.42796   0.01921822  0.018723548            1 
 2778000   0.81577132    -7.948121    639.88099  0.019194894  0.018717802            3 
 2779000   0.80690732   -7.9449707    640.24477  0.019198895  0.018712061            1 
 2780000   0.80522609   -7.9675874    640.18314  0.019190142  0.018706292            4 
 2781000   0.80925378   -7.9795479    639.73618  0.019169848  0.018700524            1 
 2782000   0.80117827    -7.996102    638.56029  0.019127734  0.018694716            2 
 2783000   0.81878239   -7.9849156    638.48877   0.01911872  0.018688882            2 
 2784000   0.83332932   -7.9688207    639.68399  0.019147629  0.018683061            2 
 2785000   0.80144911   -7.9863727    637.95974   0.01908916   0.01867725            2 
 2786000   0.79002239   -7.9940746    640.25418  0.019150939  0.018671415            2 
 2787000   0.80473437   -7.9895316    639.78241  0.019129961  0.018665588            2 
 2788000   0.79536964   -7.9507134    639.42303  0.019112357  0.018659745            3 
 2789000   0.79193634   -7.9506192    639.06943  0.019094939  0.018653924            2 
 2790000   0.80242776   -7.9839318    639.62836   0.01910479  0.018648123            3 
 2791000   0.78950017     -7.95967    641.33333  0.019148851  0.018642307            2 
 2792000   0.80315181   -7.9984566    639.61114   0.01909059  0.018636548            4 
 2793000    0.8066527   -7.9685881    639.91603  0.019092852  0.018630747            3 
 2794000    0.8030431   -7.9492736    640.23306  0.019095474  0.018624968            1 
 2795000     0.811596   -7.9728531    639.84174  0.019076975  0.018619185            2 
 2796000   0.80392237   -7.9562358    640.66756  0.019094765  0.018613428            2 
 2797000   0.78892304   -7.9802836    640.19884  0.019073973  0.018607661            2 
 2798000   0.80320746   -7.9722902    639.46458  0.019045288   0.01860191            1 
 2799000    0.7951985   -7.9866833     639.5744  0.019041753  0.018596163            2 
 2800000    0.8155425   -8.0237459    640.21678  0.019054071  0.018590408            1 
 2801000   0.80024097   -7.9830754    641.65287  0.019089994  0.018584699            2 
 2802000   0.78978803   -7.9717874    640.29227  0.019042716  0.018579002            3 
 2803000   0.81178472   -7.9797145    641.07907  0.019059314  0.018573278            2 
 2804000   0.81625672   -7.9767134    642.57605  0.019097006  0.018567549            3 
 2805000   0.78867684   -7.9982736    641.48492  0.019057781  0.018561813            4 
 2806000   0.80229516   -7.9980524    641.33889  0.019046653  0.018556074            2 
 2807000   0.78559852   -7.9735228    641.86447  0.019055471  0.018550363            1 
 2808000    0.8042745   -7.9651839    642.11063   0.01905599  0.018544696            2 
 2809000   0.82085067   -7.9763138    642.07523  0.019048156  0.018539001            4 
 2810000   0.80238058   -7.9918419    640.46857   0.01899373   0.01853329            2 
 2811000   0.81594975   -7.9963174    642.89875  0.019059017  0.018527573            2 
 2812000   0.79024623   -7.9996284    640.13719    0.0189704  0.018521828            2 
 2813000   0.78520271    -8.004358    642.06343   0.01902072  0.018516087            3 
 2814000   0.80971672   -7.9921925    640.83569  0.018977603  0.018510352            3 
 2815000   0.80624673   -7.9780905    642.14046  0.019009487  0.018504617            2 
 2816000    0.7988805   -7.9878623    643.18197  0.019033557   0.01849889            3 
 2817000   0.80028821   -7.9723635    640.44426  0.018945813   0.01849316            1 
 2818000   0.80267249    -7.991442    640.80201  0.018949669   0.01848742            2 
 2819000   0.81145853   -8.0028484    641.22179  0.018955356  0.018481698            2 
 2820000   0.80210152   -7.9930508    642.08008  0.018973998  0.018475993            2 
 2821000   0.79651925   -7.9943048    641.49651  0.018950033  0.018470299            4 
 2822000   0.80236631   -7.9604104     642.4734  0.018972165  0.018464613            1 
 2823000   0.79813329   -7.9670708    641.29236  0.018930581  0.018458933            1 
 2824000   0.81957746   -7.9975391    641.82155  0.018939493  0.018453271            1 
 2825000   0.81226683   -8.0065475    641.95545  0.018936739  0.018447577            3 
 2826000   0.79035188    -7.985343    641.20877   0.01890802  0.018441872            2 
 2827000   0.80564106   -7.9907399    641.98754  0.018924288  0.018436187            3 
 2828000   0.80154174   -7.9976039    645.09083  0.019009042  0.018430511            3 
 2829000   0.81468965   -7.9718242    643.06887  0.018942761  0.018424837            3 
 2830000   0.80688614   -7.9831905    643.17758  0.018939269  0.018419154            4 
 2831000   0.79182924    -8.004656    643.07302  0.018929501  0.018413491            2 
 2832000   0.79978148   -7.9684105    644.35789  0.018960625   0.01840785            3 
 2833000   0.78786352   -8.0053579    643.60553  0.018931802   0.01840219            3 
 2834000    0.8044954   -8.0039329    641.92273  0.018875639  0.018396515            2 
 2835000   0.81447322   -8.0069241    642.31303  0.018880454  0.018390816            1 
 2836000   0.80408167   -7.9865766    642.35431  0.018875009  0.018385143            1 
 2837000   0.80458791   -7.9813185    644.85073  0.018941685  0.018379477            2 
 2838000    0.8121787     -7.98783    643.61216  0.018898642  0.018373824            3 
 2839000   0.80511507    -7.999402    644.53101  0.018918957   0.01836814            1 
 2840000   0.79838152   -7.9913725    643.84038   0.01889203  0.018362461            2 
 2841000   0.79789699   -7.9755317    643.25312  0.018868154  0.018356812            3 
 2842000   0.79429199     -8.00716    643.37457  0.018865076  0.018351144            1 
 2843000   0.80303713   -7.9906733     642.3249  0.018827673  0.018345464            3 
 2844000   0.80735301   -8.0064147    641.90145  0.018808645  0.018339767            4 
 2845000   0.80636153   -8.0119166    642.28955  0.018813402  0.018334083            4 
 2846000   0.80173015    -8.019775    643.31261  0.018836748  0.018328359            3 
 2847000   0.79187931   -7.9854731    644.03713  0.018851339  0.018322656            3 
 2848000   0.80105664   -8.0308591    642.00362  0.018785218  0.018316942            2 
 2849000   0.81440353   -7.9983225    642.97186  0.018806946  0.018311226            6 
 2850000   0.81325021   -7.9940769    640.63495  0.018732016   0.01830551            1 
 2851000   0.81125318   -8.0163721    642.12114  0.018768886   0.01829979            1 
 2852000   0.79639258   -7.9862478    644.06083  0.018818982  0.018294089            2 
 2853000   0.81443015   -7.9831029     643.2819  0.018789634  0.018288394            2 
 2854000   0.80674134    -8.004088      643.357  0.018785243  0.018282676            1 
 2855000   0.80936406   -7.9994357    643.48315  0.018782345  0.018276971            3 
 2856000   0.78914465   -7.9795795    643.01624  0.018762145  0.018271256            2 
 2857000   0.78452231   -7.9985469    641.66881  0.018716276  0.018265576            5 
 2858000   0.77572465   -8.0042383    641.91559  0.018716923   0.01825987            2 
 2859000   0.80243555   -8.0188295    643.03796  0.018743091  0.018254166            2 
 2860000   0.78537164   -8.0103891    642.62422  0.018724482  0.018248452            1 
 2861000   0.79177031   -8.0225798    642.24253  0.018706819  0.018242742            6 
 2862000   0.79109001   -8.0435467    643.26976  0.018730193     0.018237            2 
 2863000   0.78250896   -7.9983999    642.62974  0.018705022  0.018231246            2 
 2864000   0.79267344   -8.0292377    643.21631  0.018715558   0.01822552            3 
 2865000    0.8085353   -7.9909031    642.82805  0.018697733  0.018219774            3 
 2866000   0.78008782   -8.0006692    643.28558  0.018704512  0.018214043            2 
 2867000   0.78739835   -8.0134198     641.3568  0.018641925  0.018208323            3 
 2868000   0.79713318   -7.9960109     644.0401  0.018713392  0.018202608            2 
 2869000   0.77623138   -8.0043319    643.04425  0.018677944  0.018196894            3 
 2870000    0.7981161   -8.0174119    642.83258   0.01866529  0.018191187            3 
 2871000   0.78004943    -8.030351    641.65837  0.018624706  0.018185461            1 
 2872000    0.7884576   -8.0236051    643.21775  0.018663468  0.018179771            2 
 2873000   0.81112877   -7.9814721     644.3916   0.01869102  0.018174082            2 
 2874000   0.78921215   -8.0002675    644.09171  0.018675821  0.018168417            1 
 2875000   0.79237941   -7.9766193    645.46403  0.018709102  0.018162728            1 
 2876000    0.7914583   -7.9929674    644.22181  0.018666603  0.018157045            2 
 2877000   0.81071643   -8.0029069    644.92688  0.018680538   0.01815135            3 
 2878000   0.79128229   -7.9963971    642.63724   0.01860775  0.018145654            1 
 2879000   0.79469662   -8.0267036    644.40446  0.018652439   0.01813996            3 
 2880000    0.7924256   -7.9884326    643.59426  0.018622519  0.018134263            2 
 2881000   0.79481012   -8.0071714    642.20636   0.01857591  0.018128546            4 
 2882000   0.79392191    -8.026783    642.01441  0.018563914  0.018122809            3 
 2883000   0.78018805   -8.0351141    642.61189  0.018574745  0.018117082            2 
 2884000   0.78721916   -8.0008965    642.43879  0.018563303  0.018111342            4 
 2885000   0.78070536   -8.0303792    643.09567  0.018575843  0.018105599            3 
 2886000   0.79749911   -7.9899724    645.49101  0.018638572  0.018099861            4 
 2887000   0.79195101   -8.0045285    643.91963  0.018586758  0.018094133            3 
 2888000   0.79721796   -8.0253095    643.70881  0.018574239  0.018088409            2 
 2889000   0.78521645   -8.0454131    644.22071  0.018582575  0.018082678            4 
 2890000   0.78121159   -8.0126461    644.25645  0.018577176  0.018076967            2 
 2891000   0.79425079   -8.0194962    644.67888  0.018582926  0.018071296            2 
 2892000   0.80234975   -8.0129238    644.53757  0.018572429  0.018065575            1 
 2893000   0.78392967   -8.0157499    643.16682  0.018526524  0.018059856            2 
 2894000   0.79812185   -8.0270129    643.85364    0.0185399  0.018054101            1 
 2895000   0.80179569    -8.005694    644.98043   0.01856593  0.018048365            2 
 2896000   0.78332293   -8.0087268    643.03005  0.018503397  0.018042632            3 
 2897000   0.78234656   -8.0108999    642.80819  0.018490628  0.018036898            2 
 2898000   0.78663704   -8.0356122    642.64989  0.018479695  0.018031145            1 
 2899000   0.79186469   -8.0267509    643.67384  0.018502755    0.0180254            1 
 2900000    0.7836374   -8.0412699    643.56191  0.018493158  0.018019662            3 
 2901000    0.7927837   -8.0313347    644.67522  0.018518764  0.018013939            3 
 2902000   0.78508232    -7.989671    643.36899  0.018474873  0.018008224            3 
 2903000   0.78584986   -8.0084702    643.82084   0.01848148  0.018002498            2 
 2904000   0.78726223   -8.0343093    643.35873  0.018461855   0.01799674            2 
 2905000   0.80511875   -8.0422572    643.58498   0.01846199  0.017991033            2 
 2906000   0.79110908   -8.0018624    644.00566  0.018467701  0.017985343            2 
 2907000   0.78050163    -8.001592    643.86675  0.018457366  0.017979677            3 
 2908000   0.79724536   -8.0145163     644.4834   0.01846869  0.017973989            3 
 2909000   0.78985896   -8.0020867    644.60318  0.018465772  0.017968284            1 
 2910000   0.78815606   -8.0304595    643.98359  0.018441683  0.017962573            3 
 2911000    0.7859424   -8.0022871     644.7524  0.018457357  0.017956889            3 
 2912000   0.78415186   -8.0237315    644.47901  0.018443195  0.017951202            1 
 2913000   0.77959171   -7.9777812    646.27172  0.018488149  0.017945526            2 
 2914000   0.77227772   -8.0206554    643.64995  0.018406828  0.017939856            2 
 2915000   0.78873937   -7.9953095    646.83359  0.018491526  0.017934193            5 
 2916000   0.79679087   -8.0224213    644.97889  0.018432181  0.017928533            3 
 2917000   0.79791608   -8.0041323      644.185  0.018403183  0.017922844            1 
 2918000   0.78823704   -8.0384624    644.89212   0.01841707  0.017917143            3 
 2919000   0.77180021   -8.0313479     645.4314  0.018426156  0.017911435            2 
 2920000   0.79120448   -8.0198651    643.93339  0.018377094  0.017905702            2 
 2921000   0.78632781     -7.99819    643.43841  0.018356682  0.017899981            2 
 2922000   0.78550787   -8.0190384     643.8945  0.018363407  0.017894238            3 
 2923000   0.78684027   -8.0430944     642.6324  0.018321143  0.017888489            3 
 2924000   0.80095896    -8.037506    643.73731  0.018346366  0.017882767            2 
 2925000   0.80041916   -8.0139794    643.82723  0.018342656  0.017877076            2 
 2926000   0.79204185    -8.035976    643.49947  0.018327052  0.017871398            5 
 2927000   0.78529251   -8.0179156    644.94041  0.018361816   0.01786573            2 
 2928000   0.80522297   -8.0266944    644.18528  0.018334053  0.017860055            2 
 2929000   0.79184507   -7.9900797    645.63577  0.018369061  0.017854393            3 
 2930000   0.76598437   -7.9908197    645.24071  0.018351556    0.0178487            1 
 2931000   0.79993463   -8.0324621    643.73776  0.018302563   0.01784299            1 
 2932000   0.77784111   -8.0243858     644.8844  0.018328911  0.017837257            2 
 2933000   0.79627778   -7.9996254    644.22564  0.018303945  0.017831558            3 
 2934000   0.77142276   -8.0271043    645.75081  0.018341025  0.017825856            4 
 2935000   0.78950001   -8.0641432    645.00416  0.018313576   0.01782015            2 
 2936000   0.78329906   -8.0334151    644.41742  0.018290685   0.01781441            1 
 2937000   0.77750729   -8.0237553    644.56595  0.018288672  0.017808709            2 
 2938000     0.767675   -8.0194004    645.07807  0.018296973  0.017803005            1 
 2939000   0.78337551   -8.0514349    645.40644  0.018300058  0.017797307            1 
 2940000   0.78180136   -8.0091231    646.14994  0.018314907  0.017791646            2 
 2941000   0.77734213    -8.047281    644.27909   0.01825567  0.017785991            1 
 2942000   0.77223868   -8.0183477    646.53892  0.018313475  0.017780291            2 
 2943000   0.79715857    -8.018579    645.96595  0.018291028  0.017774614            2 
 2944000   0.79144966   -8.0361574    645.02275  0.018258117  0.017768931            1 
 2945000   0.78207205    -8.035963    643.78358  0.018216853  0.017763245            4 
 2946000   0.77481487   -8.0341655    644.64278  0.018234973  0.017757553            1 
 2947000   0.78715707   -8.0289947    646.07808  0.018269372  0.017751883            2 
 2948000   0.77899331   -8.0413111    645.03337  0.018233643   0.01774623            2 
 2949000   0.76860563   -8.0282986    644.89667  0.018223598  0.017740542            2 
 2950000   0.79349672    -8.054388    645.72121  0.018240712  0.017734871            2 
 2951000     0.780707    -8.078276    643.26967  0.018165302  0.017729185            1 
 2952000   0.76966434   -8.0919439    643.99387  0.018179592  0.017723484            3 
 2953000   0.81060688   -8.0461917    644.94686  0.018200329  0.017717787            5 
 2954000    0.7674377   -8.0339125    645.60217  0.018212654  0.017712115            2 
 2955000   0.77861662   -8.0286969    646.59755  0.018234561  0.017706487            1 
 2956000   0.77354831   -8.0511911    646.09363  0.018214187  0.017700846            1 
 2957000   0.79591258   -8.0429264    645.40074    0.0181885  0.017695219            1 
 2958000   0.75662098   -8.0095672    645.90321  0.018196507  0.017689583            3 
 2959000   0.78570318   -8.0344747    645.51962  0.018179554  0.017683926            2 
 2960000   0.77326954   -8.0405641    645.62387  0.018176348  0.017678235            2 
 2961000   0.78511833    -8.044198    645.77364  0.018174424  0.017672548            4 
 2962000   0.78025226   -8.0256701    644.80077  0.018140918  0.017666885            2 
 2963000   0.79091148   -8.0550422    645.03512  0.018141386  0.017661196            3 
 2964000   0.77745875    -8.051418    644.90216  0.018131527  0.017655517            1 
 2965000   0.76756302   -8.0799283    642.85444   0.01806786  0.017649795            1 
 2966000   0.77152084    -8.085631    643.47617  0.018079236  0.017644062            1 
 2967000   0.77608749   -8.0397313    643.83167  0.018083127  0.017638322            1 
 2968000   0.77344895   -8.0735908    644.57814  0.018097994  0.017632602            1 
 2969000   0.77346299   -8.0603204    644.91582  0.018101376  0.017626875            3 
 2970000   0.76514638   -8.0766037    643.95599   0.01806835  0.017621151            1 
 2971000   0.77501393   -8.0687015    644.01278  0.018063861  0.017615429            1 
 2972000   0.77611025   -8.0526143    645.50872  0.018099728  0.017609729            2 
 2973000   0.76090503   -8.0634949    644.86554  0.018075612  0.017604009            1 
 2974000   0.77871426   -8.0450164    646.24179  0.018108098  0.017598307            8 
 2975000   0.77774273   -8.0361951     646.4308  0.018107305   0.01759263            3 
 2976000   0.77568646   -8.0763535    645.37336  0.018071611  0.017586959            1 
 2977000   0.77375266   -8.0467755    646.60346  0.018099974  0.017581276            2 
 2978000   0.77042427   -8.0517607    645.80082  0.018071436  0.017575595            2 
 2979000   0.77991976   -8.0580716    646.51302  0.018085292  0.017569921            2 
 2980000   0.77619915   -8.0696665    644.78144  0.018030801  0.017564232            5 
 2981000   0.77785525   -8.0768257    644.77042  0.018024444  0.017558527            3 
 2982000    0.7756389    -8.071654    645.67099  0.018043567  0.017552847            2 
 2983000    0.7692586   -8.0621618    646.12394  0.018050172  0.017547168            1 
 2984000   0.77758132   -8.0862447    644.32189  0.017993797   0.01754149            3 
 2985000   0.77878321   -8.0537428    645.90482   0.01803196  0.017535823            3 
 2986000   0.77370447   -8.0484209    646.33139  0.018037826  0.017530182            3 
 2987000   0.77039069   -8.0420966    647.17814  0.018055411  0.017524543            3 
 2988000   0.78664054   -8.0169079    646.43599   0.01802867  0.017518924            2 
 2989000   0.78940425   -8.0759608     645.3293  0.017991784  0.017513299            3 
 2990000   0.76646377   -8.0492214    646.53938  0.018019492   0.01750766            5 
 2991000   0.77276911   -8.0461685    646.85381  0.018022228  0.017502036            4 
 2992000   0.74721079   -8.0514488    645.93177  0.017990524   0.01749642            4 
 2993000   0.78815666   -8.0752873    646.23794  0.017993038  0.017490784            5 
 2994000   0.77723408   -8.0477851     647.6862  0.018027338  0.017485129            2 
 2995000    0.7796637    -8.072456    646.60477  0.017991229  0.017479486            2 
 2996000   0.78379648    -8.021528       647.24  0.018002893  0.017473865            2 
 2997000   0.76663454   -8.0314737    649.16116  0.018050305   0.01746826            2 
 2998000   0.76334246   -8.0388723    647.86024  0.018008123  0.017462654            1 
 2999000   0.78508866   -8.0609555    646.60553  0.017967254  0.017457037            3 
 3000000   0.78298887   -8.0463538    646.05771  0.017946048  0.017451408            5 
 3001000   0.78374394   -8.0783813    644.78865  0.017904827  0.017445778            4 
 3002000   0.76852233   -8.0394507    648.03464   0.01798897  0.017440148            1 
 3003000   0.78646934   -8.0677366    647.33545  0.017963577  0.017434519            1 
 3004000   0.78051217   -8.0490569    646.77987  0.017942184  0.017428895            1 
 3005000   0.76949506   -8.0524473    646.68844  0.017933678  0.017423286            1 
 3006000   0.76569596   -8.0711514    647.39219  0.017947222  0.017417682            2 
 3007000   0.77580419   -8.0576889    647.16591  0.017934983   0.01741206            4 
 3008000   0.76740195   -8.0354051    648.25656  0.017959235  0.017406494            3 
 3009000   0.76194761   -8.0876578    646.78527   0.01791252  0.017400925            3 
 3010000   0.78745746   -8.0955563    646.00454  0.017884954   0.01739533            2 
 3011000   0.77595915   -8.0619533    646.46903   0.01789187  0.017389731            2 
 3012000   0.76955512   -8.0769355    646.85805  0.017896692  0.017384124            3 
 3013000   0.77610474   -8.0849025    647.37352  0.017905009  0.017378496            4 
 3014000   0.76854992   -8.0774437    647.24779  0.017895593  0.017372881            2 
 3015000   0.77155644   -8.0637482    647.18407  0.017887896   0.01736729            3 
 3016000   0.78155596     -8.08854    647.75832  0.017897832  0.017361706            2 
 3017000   0.77303191   -8.0424391     646.8957  0.017868073   0.01735613            1 
 3018000   0.77218625   -8.0429008    646.64857  0.017855328  0.017350567            2 
 3019000   0.77170737   -8.0496865     647.8833  0.017883496  0.017345017            2 
 3020000   0.75039576   -8.0550685    647.08077   0.01785543  0.017339442            2 
 3021000   0.77859547   -8.0596077    648.46915  0.017887817  0.017333885            1 
 3022000   0.76684009   -8.0513131    646.29069  0.017821826  0.017328343            2 
 3023000   0.76174002   -8.0746948    647.68885  0.017854473  0.017322757            2 
 3024000   0.76064374   -8.0678472    646.17442  0.017806835   0.01731717            2 
 3025000   0.75872781   -8.0764705    647.42565  0.017835417  0.017311576            2 
 3026000   0.76165327   -8.0322513    647.15293  0.017822013  0.017305988            2 
 3027000   0.76004591   -8.0733986    648.47998  0.017852659  0.017300447            2 
 3028000   0.76460784   -8.0351134    647.67146  0.017824512  0.017294899            2 
 3029000   0.77989062   -8.0846841    648.38916  0.017838372  0.017289361            1 
 3030000   0.76603714   -8.0555875    650.28932  0.017884745  0.017283822            4 
 3031000   0.77485313   -8.0837422    648.68942  0.017834857  0.017278276            2 
 3032000   0.77538152    -8.061803    647.99965  0.017810017  0.017272757            3 
 3033000   0.78539954   -8.0658205    648.54585  0.017819152  0.017267217            2 
 3034000   0.75305749    -8.058152    648.71658  0.017817968  0.017261693            3 
 3035000   0.77047279      -8.0803    647.30551  0.017773353  0.017256123            5 
 3036000   0.77297074   -8.0719523    648.36695  0.017796633  0.017250558            1 
 3037000   0.78144224   -8.0949341    647.90778  0.017778174  0.017245018            3 
 3038000   0.76818682    -8.088725    647.84895  0.017770709  0.017239478            3 
 3039000   0.76641799   -8.0867963    647.53135  0.017756152  0.017233906            2 
 3040000    0.7649743   -8.0829063    647.84987  0.017759042  0.017228339            3 
 3041000   0.77433657   -8.1000277    646.72528  0.017722385  0.017222771            1 
 3042000    0.7712469   -8.0677899    648.64676  0.017769197  0.017217215            3 
 3043000   0.76552784   -8.0928426    648.81329  0.017767918  0.017211649            3 
 3044000   0.76881293   -8.0918457    648.93637   0.01776545  0.017206111            1 
 3045000   0.74095173   -8.0968108    648.30226  0.017742262  0.017200577            3 
 3046000   0.77162962   -8.0917327    647.30288  0.017709096  0.017195055            3 
 3047000   0.76993402   -8.0382546    649.34688  0.017759186  0.017189563            2 
 3048000   0.75971555   -8.0758857    649.60661  0.017760461  0.017184084            3 
 3049000   0.76594676   -8.0382487    649.53417  0.017752656  0.017178599            3 
 3050000   0.75351917   -8.0758113    648.55977  0.017720212  0.017173104            4 
 3051000   0.75606062   -8.0849667     650.4894  0.017767109    0.0171676            1 
 3052000   0.76056914   -8.0539835    648.89552  0.017717768  0.017162083            3 
 3053000   0.76610533   -8.0729165    649.26752  0.017722118  0.017156581            3 
 3054000   0.77420089   -8.0751079    649.31273  0.017717549  0.017151075            2 
 3055000   0.75511954   -8.0699152    649.78268  0.017724568  0.017145573            2 
 3056000   0.76615852   -8.0831876    649.45609  0.017709863  0.017140048            2 
 3057000   0.76060775   -8.0719385    649.66613  0.017709795  0.017134542            2 
 3058000   0.76505841   -8.0641812    648.47024  0.017671415  0.017129052            2 
 3059000   0.75584515   -8.0719568    650.00523  0.017707454  0.017123551            2 
 3060000   0.75847921    -8.083877     650.1046  0.017704374  0.017118073            2 
 3061000   0.76807381   -8.0719793    648.81532   0.01766349   0.01711259            4 
 3062000   0.76139896   -8.0735815    648.65336  0.017653314  0.017107092            3 
 3063000   0.74109709   -8.0955669    648.85216  0.017652959  0.017101556            4 
 3064000   0.76250773   -8.0799942    648.58651  0.017639973  0.017096015            3 
 3065000   0.74947896   -8.0968196    648.17798   0.01762311  0.017090468            3 
 3066000   0.75562039   -8.0589399      648.049  0.017613856  0.017084936            4 
 3067000   0.75922822   -8.1198262    649.92379  0.017659053  0.017079399            1 
 3068000   0.77682294   -8.0736957    648.57685  0.017616712  0.017073881            3 
 3069000   0.77008928   -8.1034832    648.99439  0.017622309  0.017068383            2 
 3070000   0.78296261   -8.0706257    649.23813  0.017623185   0.01706288            3 
 3071000   0.74649033   -8.1070621    648.58594  0.017599749  0.017057382            4 
 3072000    0.7618907     -8.11119    648.91069  0.017602829  0.017051853            3 
 3073000    0.7557261    -8.114156    649.66423  0.017617535  0.017046321            4 
 3074000   0.76353751   -8.0805194    647.95233  0.017565396  0.017040798            5 
 3075000   0.75590457   -8.0933822    648.44862  0.017573133  0.017035268            3 
 3076000   0.75442988    -8.071331    648.56017  0.017570442  0.017029725            2 
 3077000   0.75208235   -8.0870442    649.49723   0.01759011  0.017024171            1 
 3078000   0.75682554   -8.0968808    648.08511  0.017546164  0.017018625            2 
 3079000   0.76097484   -8.0922861    648.16081  0.017542514  0.017013074            3 
 3080000   0.75536936   -8.0860019    647.76197  0.017526027  0.017007541            2 
 3081000   0.74737629   -8.1076269    648.36862  0.017536747  0.017001988           10 
 3082000   0.78103887    -8.086487    647.92932  0.017519179  0.016996435            1 
 3083000   0.74894148   -8.0836522    647.76435  0.017509038  0.016990897            2 
 3084000   0.77339105   -8.1098872    648.47012  0.017522431  0.016985315            3 
 3085000   0.74409138   -8.1415825    648.22426   0.01751011  0.016979743            4 
 3086000    0.7581657   -8.0947326    648.35862  0.017508064  0.016974181            3 
 3087000   0.76401297   -8.0836196    647.74368  0.017485792  0.016968622            2 
 3088000   0.76638811   -8.1038972    647.35471  0.017469633  0.016963061            1 
 3089000   0.75083823   -8.0881363     649.6529  0.017525977  0.016957518            1 
 3090000    0.7506539   -8.0834149    648.06905   0.01747759  0.016951991            2 
 3091000   0.74678805   -8.1076043     646.8013  0.017437757  0.016946461            1 
 3092000   0.77629858   -8.0766719    650.29631  0.017526313  0.016940936            4 
 3093000   0.74123899   -8.1008469    649.21018  0.017491383  0.016935415            2 
 3094000   0.75013754   -8.0993018    648.46568  0.017465678  0.016929856            2 
 3095000   0.76847785   -8.0976232    648.21592   0.01745331  0.016924293            3 
 3096000   0.75011967   -8.1137013    648.16563  0.017446319  0.016918752            2 
 3097000   0.76133841    -8.098218    648.74404  0.017456249  0.016913217            3 
 3098000   0.77162593   -8.0811539    648.76966  0.017451304  0.016907716            3 
 3099000   0.75787021   -8.0988869    648.13845  0.017428699  0.016902218            1 
 3100000   0.76115683   -8.1029836     648.8968  0.017443462  0.016896703            1 
 3101000   0.76344027   -8.1287244    646.47075  0.017372642   0.01689117            1 
 3102000   0.76202857   -8.0676198    650.04258  0.017462996   0.01688563            3 
 3103000   0.74853964   -8.0973487    649.26529  0.017436494  0.016880117            2 
 3104000   0.76714523   -8.1013989    648.12256  0.017400198  0.016874581            3 
 3105000   0.73731282   -8.0807457    648.23114  0.017397508  0.016869062            2 
 3106000   0.76565112   -8.0952057    649.21057  0.017418184  0.016863571            4 
 3107000   0.74394413   -8.1000292    649.12483  0.017410279  0.016858067            5 
 3108000   0.75697082   -8.0915561    649.38017  0.017411523  0.016852552            2 
 3109000   0.74856209   -8.1154536    648.77738  0.017389766  0.016847027            3 
 3110000   0.74742968   -8.1003144    648.54247   0.01737788  0.016841516            2 
 3111000   0.76051356   -8.0943366     648.5731  0.017373114  0.016835986            1 
 3112000   0.73981551   -8.0993654    649.55208  0.017393747  0.016830444            2 
 3113000   0.76758594   -8.0994138    649.72614  0.017392819  0.016824935            2 
 3114000   0.76838751   -8.1097985    648.67151  0.017359011  0.016819406            2 
 3115000   0.74914504   -8.0919716    648.17637  0.017340192  0.016813871            3 
 3116000   0.75688053   -8.0959957    647.50834  0.017316761  0.016808347            2 
 3117000   0.75459509   -8.1068325    647.73654  0.017317307  0.016802809            2 
 3118000   0.75489624   -8.1352315    649.54118  0.017359984  0.016797281            2 
 3119000   0.74346515   -8.1200874    648.07119  0.017315143   0.01679175            3 
 3120000   0.73214887   -8.1355066    648.34628  0.017316941  0.016786215            2 
 3121000   0.73595541   -8.1506469    648.56624  0.017317266  0.016780672            2 
 3122000   0.75211953   -8.1090974     647.1816   0.01727476  0.016775142            2 
 3123000   0.73616362   -8.1446321    648.26229  0.017298065  0.016769615            1 
 3124000   0.75850643   -8.1383677    649.51619  0.017325976  0.016764105            3 
 3125000   0.77074556   -8.1124405    649.08589  0.017308957  0.016758599            3 
 3126000   0.77031169     -8.13467    648.95421   0.01729991    0.0167531            2 
 3127000   0.73548986   -8.1300663    649.84531  0.017318125  0.016747598            3 
 3128000   0.74625835   -8.1295312    649.03809  0.017291083  0.016742106            1 
 3129000    0.7527006   -8.1434235    650.08687  0.017313489   0.01673661            5 
 3130000   0.75547191   -8.1411868    650.27347  0.017312925  0.016731116            2 
 3131000   0.72872439   -8.1186053    649.86444  0.017296509  0.016725628            4 
 3132000   0.75312285   -8.1265066    649.67652  0.017285987  0.016720133            2 
 3133000   0.74778319   -8.1553654    649.24083   0.01726888  0.016714632            5 
 3134000   0.74594836   -8.1337033    647.60927  0.017219987  0.016709137            4 
 3135000   0.73937744   -8.1231669    648.60119  0.017240861   0.01670366            3 
 3136000   0.73289272   -8.1244953    649.78274  0.017266761  0.016698172            6 
 3137000   0.76480967   -8.1290177    649.58126  0.017255904  0.016692705            2 
 3138000    0.7651818    -8.125633    649.59419  0.017250749  0.016687236            3 
 3139000   0.73415925   -8.0930873    650.54021  0.017270368  0.016681762            1 
 3140000   0.75676431    -8.139148    649.54362  0.017238419  0.016676312            1 
 3141000   0.75473882   -8.1280811    650.61156  0.017261264  0.016670874            3 
 3142000   0.75417905   -8.1190973    650.03845   0.01724057  0.016665436            2 
 3143000   0.76188645   -8.1222476    648.99718  0.017207476  0.016659992            3 
 3144000    0.7376904   -8.1430106    648.17603  0.017180238  0.016654533            1 
 3145000   0.73211094   -8.1367791    650.54726  0.017237606  0.016649053            2 
 3146000   0.74766633   -8.1169893    649.32803  0.017199831  0.016643618            2 
 3147000    0.7449392   -8.1260476    649.67135  0.017203457  0.016638156            1 
 3148000   0.74496579   -8.1528255    650.17712  0.017211381  0.016632697            3 
 3149000   0.74673234   -8.1443709    648.97678   0.01717415  0.016627252            2 
 3150000   0.74457426   -8.1388502    649.50669  0.017182717  0.016621818            2 
 3151000   0.73919954   -8.1217377    650.64848   0.01720746  0.016616378            1 
 3152000   0.76836394   -8.1508572    650.11401   0.01718787  0.016610914            2 
 3153000   0.76822795   -8.1524538     649.7507  0.017172817  0.016605429            5 
 3154000   0.74614674   -8.1651809     649.8785  0.017170749  0.016599955            3 
 3155000   0.76153745   -8.1426663    650.61225  0.017184687  0.016594498            4 
 3156000   0.74245338   -8.1379169    648.20119  0.017115578  0.016589038            1 
 3157000   0.74746928   -8.1292752    649.58209  0.017146608   0.01658359            2 
 3158000    0.7370582   -8.1300491    651.54113  0.017192873   0.01657815            1 
 3159000   0.74565437   -8.1483767     649.1746  0.017125003  0.016572715            3 
 3160000   0.74550935   -8.1509144    650.18547  0.017146241  0.016567292            4 
 3161000   0.75082134   -8.1426184    650.55524  0.017150565  0.016561861            5 
 3162000   0.74541726   -8.1485846    650.27044  0.017137636  0.016556428            2 
 3163000   0.74043013   -8.1635027    649.30944  0.017106898  0.016550986            1 
 3164000   0.74640638   -8.1166071    650.93247  0.017144239  0.016545559            2 
 3165000   0.74989627   -8.1545541    649.45793  0.017099998  0.016540121            3 
 3166000    0.7319038    -8.172103    649.79259  0.017103406  0.016534667            1 
 3167000    0.7214176   -8.1617767    648.30478  0.017058856  0.016529217            1 
 3168000   0.74201656   -8.1342024    651.39534  0.017134768  0.016523762            2 
 3169000   0.73118084   -8.1584919    650.53009  0.017106608  0.016518311            3 
 3170000    0.7406028   -8.1504692    649.96176  0.017086271  0.016512879            2 
 3171000   0.74000128   -8.1383039    650.70959  0.017100536  0.016507464            2 
 3172000   0.73694874   -8.1609286    649.95693  0.017075371  0.016502032            2 
 3173000   0.72812867   -8.1550328    648.80538  0.017039746  0.016496591            1 
 3174000   0.73535601   -8.1457456    650.60983  0.017081753  0.016491138            1 
 3175000   0.73968238   -8.1532761    649.49364  0.017047077  0.016485687            4 
 3176000   0.73857715   -8.1675294    649.69616  0.017047023  0.016480228            2 
 3177000    0.7487293   -8.1512185    650.91044  0.017073508  0.016474772           11 
 3178000   0.73227382   -8.1599491    649.60732  0.017033966  0.016469329            1 
 3179000   0.74758081   -8.1301662    650.78079  0.017059369  0.016463899            1 
 3180000    0.7454651   -8.1559895    648.09303   0.01698357  0.016458453            1 
 3181000   0.73768437   -8.1765005    650.50346  0.017041377  0.016453012            3 
 3182000   0.74621876   -8.1606224    648.62668  0.016986871  0.016447569            2 
 3183000   0.74994461   -8.1391698    650.06699  0.017019243  0.016442132            2 
 3184000   0.73615561   -8.1772556    648.92529  0.016984016  0.016436689            3 
 3185000   0.76399509    -8.149784    651.58866  0.017048369  0.016431245            3 
 3186000   0.73160625   -8.1258212    650.28138  0.017008825  0.016425812            2 
 3187000   0.72642871   -8.1602395    650.69347  0.017014263  0.016420372            2 
 3188000   0.76168364   -8.1570904    649.89124  0.016987956  0.016414925            2 
 3189000   0.74255017    -8.195004    649.46115   0.01697139  0.016409471            2 
 3190000   0.74657026   -8.1674554    648.91615  0.016951833  0.016404019            2 
 3191000   0.73845434   -8.1531084    651.05639  0.017002413  0.016398573            2 
 3192000   0.74277976   -8.1551769    650.45442  0.016981371  0.016393113            3 
 3193000    0.7441732   -8.1413272    652.46731  0.017028586  0.016387665            1 
 3194000   0.72512505   -8.1243451    650.76432  0.016978823  0.016382235            1 
 3195000   0.75917991   -8.1543875    650.40994  0.016964266  0.016376826            2 
 3196000   0.73822239   -8.1413957    650.53528  0.016962226  0.016371429            1 
 3197000    0.7146066   -8.1314422    650.37348  0.016952703  0.016366027            2 
 3198000    0.7333433   -8.1334055    650.30637  0.016945653  0.016360631            3 
 3199000   0.75938773   -8.1385955     650.7525  0.016951977  0.016355245            2 
 3200000   0.75096404    -8.154974    649.86297  0.016923515  0.016349854            2 
 3201000   0.73266932   -8.1210552    650.71994  0.016940538  0.016344483            4 
 3202000   0.73187499   -8.1413616    652.05321  0.016969946  0.016339121            1 
 3203000   0.73014144   -8.1257585    651.07215  0.016939124  0.016333739            2 
 3204000   0.75069826   -8.1481168    649.87339  0.016902658  0.016328333            2 
 3205000   0.74580746   -8.1658132    649.71544  0.016893277  0.016322921            2 
 3206000   0.73406781   -8.1232703     651.4534  0.016933183  0.016317524            1 
 3207000    0.7463005   -8.1153114    650.28755  0.016897608  0.016312118            3 
 3208000   0.74813796   -8.1577065    649.46287  0.016870918  0.016306729            2 
 3209000   0.73284089   -8.1341439    650.85736  0.016901874  0.016301316            1 
 3210000   0.75637823   -8.1487868    650.43552  0.016885657  0.016295921            2 
 3211000   0.73388459   -8.1561463    651.33738  0.016903804  0.016290521            3 
 3212000   0.72435639   -8.1389762     650.6694  0.016881211  0.016285134            1 
 3213000   0.74200235   -8.1707143    650.33791  0.016867359  0.016279742            2 
 3214000   0.74606077   -8.1666392    650.29362  0.016860963  0.016274347            1 
 3215000   0.72890112   -8.1336226    650.09601  0.016850596  0.016268941            4 
 3216000   0.73640291   -8.1537727    650.95243  0.016867548  0.016263546            1 
 3217000   0.73499202   -8.1487801    650.23925  0.016843831  0.016258147            5 
 3218000   0.73293871   -8.1522542    651.00836  0.016858514  0.016252763            2 
 3219000   0.74261248   -8.1466784    650.79671  0.016847797  0.016247355            1 
 3220000   0.74759489   -8.1933422    650.68644  0.016839711  0.016241941            2 
 3221000   0.72734816   -8.1428876     649.9502  0.016815435  0.016236523            1 
 3222000   0.73366522   -8.1588713    650.80747  0.016832388  0.016231141            1 
 3223000    0.7305496   -8.1618347    651.39969  0.016842478  0.016225762            2 
 3224000   0.74636291   -8.1418772    651.81323  0.016847943  0.016220409            3 
 3225000   0.73746796   -8.1303583    651.36716  0.016831193  0.016215062            2 
 3226000   0.71582348   -8.1566101    650.96757  0.016815653  0.016209708            2 
 3227000   0.74335827   -8.1739494    652.38062  0.016846933  0.016204348            2 
 3228000   0.72948977   -8.1626367     652.3902  0.016841961  0.016199003            2 
 3229000   0.72617738   -8.1324639    650.73036  0.016793908  0.016193677            2 
 3230000   0.73935625   -8.1846173    650.95799  0.016794582  0.016188349            2 
 3231000   0.73838565   -8.1617959    652.80143   0.01683693  0.016183003            2 
 3232000    0.7368327   -8.1727956    651.23044  0.016791214  0.016177665            2 
 3233000   0.72410861   -8.1511517    652.42869  0.016816906  0.016172299            2 
 3234000   0.74409239   -8.1653528    650.44743  0.016760653  0.016166962            2 
 3235000   0.74645814   -8.1499433    651.47897  0.016782044  0.016161614            1 
 3236000   0.72883231   -8.1611179    651.71032  0.016782816  0.016156269            3 
 3237000   0.73759969   -8.1907504    650.75926  0.016753148  0.016150916            2 
 3238000    0.7236031   -8.1553883    652.50868  0.016792997  0.016145559            2 
 3239000   0.73250797   -8.1567535    651.39956  0.016759276  0.016140214            3 
 3240000   0.72203583   -8.1692078    651.48629  0.016756335  0.016134865            2 
 3241000   0.75201717    -8.153703    652.50366  0.016777323  0.016129532            3 
 3242000     0.721237   -8.1335698    651.58845  0.016748623   0.01612421            2 
 3243000   0.73314501   -8.1763486    651.67304  0.016745633  0.016118879            3 
 3244000   0.72102071   -8.1290627    649.89493  0.016694794   0.01611356            2 
 3245000   0.71539231   -8.1675196    652.45736  0.016755453  0.016108237            2 
 3246000   0.72611974   -8.1657442    651.48617  0.016725359  0.016102925            3 
 3247000   0.72764214   -8.1476937    650.92385  0.016705776  0.016097621            5 
 3248000   0.73007227   -8.1199522    653.13621  0.016757395  0.016092343            3 
 3249000   0.73343513   -8.1524627    651.59816  0.016712787  0.016087066            3 
 3250000   0.72452283   -8.1568486    651.63169  0.016708505  0.016081764            3 
 3251000   0.73452138   -8.1594069    651.34753  0.016696081  0.016076459            2 
 3252000   0.74659424   -8.1428576    651.76329  0.016701601  0.016071183            4 
 3253000   0.73081803   -8.1702248    652.67982  0.016719946  0.016065893            2 
 3254000   0.74671204   -8.1784868    653.19042  0.016727884  0.016060587            3 
 3255000   0.73965268   -8.1695775    652.95043  0.016716601  0.016055288            3 
 3256000   0.73074931   -8.1742296    651.71553  0.016679861  0.016049969            2 
 3257000   0.73374767   -8.1679704    652.49635  0.016694718  0.016044672            2 
 3258000   0.72583512   -8.1595112    652.06441  0.016678545  0.016039372           10 
 3259000   0.71880951    -8.140649    651.79129  0.016666444  0.016034057            2 
 3260000   0.70571916   -8.1556926    653.59076   0.01670733  0.016028748            2 
 3261000   0.72169799    -8.176982    651.52534  0.016649426  0.016023435            3 
 3262000   0.73968401   -8.1920452    651.51124  0.016643962  0.016018126            1 
 3263000   0.73781091   -8.1805514    650.74771  0.016619361  0.016012823            2 
 3264000    0.7265214   -8.1541738    651.65699  0.016637484  0.016007515            2 
 3265000   0.73560426   -8.1524921    651.15111  0.016619477  0.016002202            2 
 3266000   0.73101549    -8.165501    650.09912  0.016587546  0.015996895            3 
 3267000   0.72589012   -8.1937629    650.95042  0.016604184  0.015991578            2 
 3268000   0.73542627   -8.1769393    651.93424   0.01662419  0.015986262            3 
 3269000   0.73626165   -8.1699722     651.8502  0.016616962  0.015980951            3 
 3270000   0.70162992   -8.1609787    651.98514   0.01661532  0.015975651            2 
 3271000   0.72393374   -8.1741885    652.35016  0.016619539  0.015970351            2 
 3272000   0.74401841    -8.170015    651.39005  0.016590007  0.015965053            3 
 3273000   0.74301458   -8.1772834    651.57883  0.016589745  0.015959735            2 
 3274000   0.72088248   -8.1851528    652.54355  0.016609233  0.015954421            2 
 3275000   0.73737943   -8.1835455    650.54435  0.016553291  0.015949107            5 
 3276000   0.72467985    -8.178111    651.28033   0.01656696  0.015943809            2 
 3277000   0.73180727    -8.170198    651.40838  0.016565161   0.01593852            2 
 3278000   0.73004162   -8.1711266    653.24882  0.016606895  0.015933231            6 
 3279000   0.72624102   -8.1906887     651.5624  0.016558971  0.015927937            5 
 3280000   0.72919367   -8.2139291    651.16081   0.01654372  0.015922648            4 
 3281000   0.73156776   -8.1583016     653.6288  0.016601361  0.015917378            3 
 3282000   0.71881624   -8.1584411    652.77815  0.016574704  0.015912133            2 
 3283000   0.73669608   -8.1592185    651.82225  0.016545392  0.015906879            1 
 3284000   0.73666405   -8.2070248    651.42788  0.016530346  0.015901633            2 
 3285000   0.72105991   -8.1565354    651.82021  0.016535266  0.015896372            2 
 3286000   0.71288735   -8.1914854    652.10857  0.016537547  0.015891119            2 
 3287000   0.72880518      -8.1638    653.65719  0.016571777  0.015885866            1 
 3288000   0.72588158   -8.1679879    651.46394   0.01651115  0.015880618            3 
 3289000   0.73652873    -8.179422    651.99048  0.016519471  0.015875375            3 
 3290000   0.72698864   -8.1750484     652.5977   0.01652983  0.015870139            4 
 3291000    0.7257801   -8.1644598    652.88435  0.016532066  0.015864885            3 
 3292000   0.73398751      -8.1904    651.89797  0.016502075  0.015859619            2 
 3293000   0.71080878   -8.1752202    654.41413  0.016560738  0.015854365            3 
 3294000   0.70631162   -8.1764613    652.77842   0.01651433   0.01584911            6 
 3295000   0.71676309   -8.1824688    651.07799  0.016466312  0.015843862            1 
 3296000   0.71323884   -8.1763681     651.9508  0.016483384  0.015838604            2 
 3297000   0.73744074   -8.1895768    652.19609  0.016484584  0.015833346            2 
 3298000   0.72606248   -8.1758009    652.01621  0.016475041  0.015828083            2 
 3299000   0.73586236   -8.1933456    651.73901  0.016463045  0.015822804            2 
 3300000   0.72896848   -8.1976286    651.76065  0.016458602  0.015817529            2 
 3301000   0.70473292   -8.2160287    651.65064  0.016450839  0.015812255            3 
 3302000   0.73504228   -8.1986706    652.31234  0.016462556  0.015806973            2 
 3303000    0.7267316   -8.1900653    652.25299  0.016456075  0.015801719            3 
 3304000   0.71766566   -8.1737406    653.00605  0.016470088  0.015796496            2 
 3305000    0.7204665   -8.2142912    651.48788  0.016426825  0.015791243            4 
 3306000   0.71417381    -8.157412    653.22076  0.016465536  0.015785994            1 
 3307000   0.74502724   -8.1977327    651.28985    0.0164119  0.015780735            4 
 3308000    0.7101392   -8.1843449    652.32802  0.016433092  0.015775484            1 
 3309000   0.72791067   -8.2044412    651.46671  0.016406435  0.015770233       -1e+20 
 3310000   0.71916549   -8.1808018     651.5952  0.016404713  0.015764992            2 
 3311000   0.72917021   -8.1795568    652.00399  0.016410047   0.01575975            5 
 3312000   0.73829578   -8.1891713    652.48186  0.016417116   0.01575453            1 
 3313000   0.72160029   -8.2293572    651.17852  0.016379377  0.015749289            1 
 3314000   0.71235733    -8.202145    651.25516  0.016376362  0.015744029            4 
 3315000   0.72259458   -8.2030075    652.73359  0.016408587  0.015738775            2 
 3316000   0.72440357   -8.1917272    653.34957  0.016419119  0.015733532            3 
 3317000   0.73009104   -8.2006622    652.20144  0.016385324  0.015728276            5 
 3318000   0.74015248   -8.2241683     651.6018  0.016365326  0.015723027            2 
 3319000   0.71955973   -8.2144951    652.01038  0.016370653  0.015717768            3 
 3320000   0.70211663   -8.2141303    651.21132  0.016345666  0.015712516            3 
 3321000   0.72487416   -8.2317131    652.24639  0.016366717  0.015707259            3 
 3322000   0.73173682   -8.2121246    649.87116  0.016302206  0.015701988            3 
 3323000   0.72311828   -8.2076961    651.54962  0.016339393  0.015696716            4 
 3324000   0.71608456   -8.2199525    650.99114  0.016320476  0.015691458            2 
 3325000   0.74256044   -8.2163559     651.8165  0.016336253  0.015686198            2 
 3326000   0.72323764    -8.212547     651.8087  0.016331146  0.015680942            1 
 3327000    0.7301662   -8.2346337    651.94481  0.016329647  0.015675698            1 
 3328000   0.71917829   -8.1880512    652.39775  0.016336081   0.01567044            2 
 3329000   0.73594514   -8.2159536    651.03746  0.016297123  0.015665178            2 
 3330000   0.71542036   -8.2130374    651.38986  0.016301048  0.015659922            4 
 3331000   0.70364338   -8.2215103    652.41778   0.01632187   0.01565466            3 
 3332000   0.72562498   -8.2105308    652.47741  0.016318463  0.015649388            3 
 3333000   0.72456055   -8.2200074    651.08958  0.016278867  0.015644124            3 
 3334000   0.74218965    -8.215022    651.31165  0.016279535  0.015638841            2 
 3335000   0.71803448   -8.2259059    651.69757  0.016284297  0.015633569            1 
 3336000   0.71483002    -8.226031    651.17238  0.016266296  0.015628309            1 
 3337000   0.72520063    -8.210307    651.88239  0.016279153  0.015623052            3 
 3338000   0.72489633   -8.2225455    651.66047  0.016268736  0.015617791            3 
 3339000   0.71618641   -8.2155881    651.13714  0.016250802  0.015612527            1 
 3340000   0.70132446   -8.2437368     650.8904   0.01623978  0.015607275            4 
 3341000   0.71354945   -8.2081833    652.76017  0.016281557  0.015602027            1 
 3342000   0.71561926   -8.2496892    651.20903  0.016238007  0.015596771            1 
 3343000   0.72036161   -8.2398417    650.83815  0.016223905  0.015591519            2 
 3344000   0.71756903   -8.2166618     650.3435  0.016206726  0.015586263            1 
 3345000   0.71868701   -8.2438248    652.35701  0.016252043  0.015581008            2 
 3346000   0.71721323   -8.2131232    650.93807  0.016211847  0.015575772            1 
 3347000   0.72276703   -8.2041256    651.67466  0.016225343  0.015570551            2 
 3348000   0.71624196   -8.2182678    653.43968  0.016264429  0.015565339            2 
 3349000   0.72157702   -8.1975959    653.00746  0.016248817  0.015560115            2 
 3350000   0.72782781   -8.2170396    652.70321  0.016236398  0.015554899            3 
 3351000    0.7337254   -8.2407873    651.74904  0.016207825  0.015549698            3 
 3352000   0.70038204   -8.1998728    651.32353  0.016192411  0.015544489            1 
 3353000    0.6988942   -8.2174129     653.0821  0.016231288  0.015539267            1 
 3354000   0.71275785    -8.233791     649.9934  0.016149707  0.015534041            1 
 3355000   0.71197596   -8.1946687    651.37101  0.016179111  0.015528826            3 
 3356000   0.70808458   -8.2081654    651.23246   0.01617085  0.015523609            2 
 3357000   0.71778661   -8.2131074    651.16125  0.016164265  0.015518401            2 
 3358000   0.69312723   -8.2152954    652.34091  0.016188726  0.015513167            4 
 3359000   0.72015248   -8.2262773    651.49043  0.016162807  0.015507943            3 
 3360000   0.68975831   -8.2294809    651.66949  0.016162438  0.015502717            3 
 3361000   0.71794825   -8.2391715    652.80512  0.016185786  0.015497498            1 
 3362000   0.71048123   -8.2100343     652.6497  0.016177119  0.015492265            2 
 3363000   0.70703814    -8.215216    652.11836  0.016159143  0.015487059            8 
 3364000   0.72597902   -8.2307635    652.68203  0.016168302  0.015481846            2 
 3365000   0.71126282   -8.2241497    652.59052  0.016161231  0.015476638            3 
 3366000   0.70252411   -8.2233488    653.22349  0.016172101  0.015471441            3 
 3367000   0.71651253   -8.1982145    652.81201  0.016157113   0.01546626            2 
 3368000   0.72567839   -8.2255401    653.11652  0.016159851   0.01546109            2 
 3369000   0.71877926   -8.2100223    653.59652  0.016166927  0.015455938            4 
 3370000   0.72108607   -8.2140733    653.61031  0.016162471  0.015450772            3 
 3371000   0.69643811   -8.2322041    651.81414  0.016113274  0.015445606            2 
 3372000   0.70263345   -8.2144309    652.41233  0.016123278   0.01544044            3 
 3373000   0.70112414   -8.2276681    653.26408  0.016139541  0.015435277            8 
 3374000   0.70126052   -8.2145758    652.02219  0.016104085  0.015430117            3 
 3375000   0.70568516   -8.2056866    654.12991  0.016151356  0.015424958            3 
 3376000   0.69313647   -8.2245138    653.12125  0.016121674  0.015419791            2 
 3377000   0.72165064   -8.2019775    652.18031  0.016093681  0.015414628            3 
 3378000   0.70311841   -8.2081732    651.01929  0.016060274  0.015409471            3 
 3379000   0.71158839   -8.2260475    651.77506   0.01607416  0.015404319            3 
 3380000   0.71438932   -8.2095992    653.34433  0.016108095  0.015399166            4 
 3381000    0.7129955   -8.2216073     653.7952  0.016114444   0.01539401            1 
 3382000   0.71115271   -8.2202329    651.49941   0.01605311  0.015388844            1 
 3383000   0.71172216   -8.2049119    653.99951  0.016109949   0.01538368            3 
 3384000   0.71257878   -8.2350865    653.33799  0.016088899  0.015378514            2 
 3385000   0.72265973   -8.2189887    652.72678  0.016069099  0.015373336            3 
 3386000   0.69042706   -8.2330553    652.55458  0.016060115  0.015368179            1 
 3387000   0.71724044   -8.2366581    651.46324  0.016028522  0.015363031            3 
 3388000    0.6978734   -8.2207133    653.67528    0.0160782   0.01535789            1 
 3389000   0.71306932   -8.2238269    652.93761  0.016055316  0.015352752            1 
 3390000   0.69977623   -8.2109753    654.05927  0.016078153  0.015347639            2 
 3391000   0.70800658   -8.1824397    655.09216  0.016098795  0.015342527            1 
 3392000   0.69892554   -8.2290757    652.44472  0.016029007  0.015337407            3 
 3393000   0.70268928   -8.2373363    654.22409  0.016067985  0.015332285            2 
 3394000   0.71830161   -8.2316668    652.59259  0.016023193  0.015327172            2 
 3395000   0.71846585   -8.1924357    654.05953   0.01605448  0.015322048            2 
 3396000     0.725134   -8.2025606    652.23684  0.016005027  0.015316922            6 
 3397000   0.70712902   -8.2279857    654.29818  0.016050883  0.015311798            1 
 3398000   0.71079437   -8.2178042    653.37505   0.01602352  0.015306659            2 
 3399000    0.7160668   -8.2155717    652.83234    0.0160055  0.015301519            3 
 3400000   0.71712138   -8.2317058    653.75162  0.016023324  0.015296381            2 
 3401000   0.69725896   -8.1897025    653.23507  0.016005956  0.015291253            1 
 3402000   0.70240229    -8.204867    653.68615    0.0160123  0.015286116            2 
 3403000   0.71006158   -8.2546092    652.45205  0.015977374  0.015280982            2 
 3404000   0.70736098    -8.223292    652.68362   0.01597835  0.015275856            3 
 3405000   0.70807242   -8.2169385    651.30164  0.015939835  0.015270732            1 
 3406000    0.7236698   -8.2489535    653.22159  0.015982129  0.015265599            2 
 3407000   0.72376103   -8.2189685    653.30067  0.015979373  0.015260466            2 
 3408000   0.71001698   -8.2411012    653.03309  0.015968141  0.015255337            2 
 3409000   0.71923448   -8.2511909    652.52283  0.015950983  0.015250209            3 
 3410000   0.70932397   -8.2256745    653.16424  0.015961981  0.015245061            6 
 3411000   0.70544897   -8.2394751    653.09721  0.015955663  0.015239939            1 
 3412000   0.69902073   -8.2169056    653.73823  0.015966643  0.015234814            2 
 3413000   0.70693308   -8.2069862    653.81231  0.015963774    0.0152297            1 
 3414000   0.71789431   -8.2054388    653.38147  0.015948581  0.015224592            2 
 3415000   0.71500108   -8.2516078    652.28706  0.015917205  0.015219481            2 
 3416000   0.69413554   -8.2423173    652.22602  0.015911056  0.015214366            2 
 3417000   0.70184578   -8.2302448    653.93087  0.015947977  0.015209248            2 
 3418000   0.70304134   -8.2463623     653.4247  0.015930971   0.01520413            1 
 3419000   0.69134432   -8.2508265    652.97052  0.015915241  0.015199016            1 
 3420000   0.70777944   -8.2571055    652.14335  0.015890432  0.015193897            2 
 3421000   0.70944201   -8.2615035    652.67403  0.015898715  0.015188758            2 
 3422000   0.68803112   -8.2664949    653.12713  0.015905103  0.015183644            1 
 3423000   0.71333358   -8.2650352    653.09311  0.015899628   0.01517852            2 
 3424000   0.71285283   -8.2424819    652.41335   0.01587844  0.015173403            2 
 3425000   0.69414753   -8.2290466    653.18171  0.015892499  0.015168301            3 
 3426000   0.70305025   -8.2769777    653.06359  0.015884987  0.015163207            2 
 3427000    0.7068853   -8.2566983    652.80979   0.01587418  0.015158099            2 
 3428000   0.70623221   -8.2632983    653.16949  0.015878294  0.015153007            2 
 3429000   0.71185046   -8.2312898    651.95473  0.015844142  0.015147926            1 
 3430000   0.71672553   -8.2464373    654.40551  0.015899065  0.015142824            1 
 3431000    0.6867221   -8.3045956    650.21069  0.015792546  0.015137705            3 
 3432000   0.71564361   -8.2604291    652.48523  0.015843173  0.015132579            6 
 3433000   0.71254156   -8.2426235    652.10628  0.015829359  0.015127459            2 
 3434000   0.70169636   -8.2618696     651.9208  0.015820248  0.015122345            3 
 3435000   0.69919376   -8.2442344    652.15974  0.015821439  0.015117239            2 
 3436000   0.71220807   -8.2591888     653.0368  0.015838106  0.015112147           11 
 3437000   0.69333586    -8.261479    652.54345  0.015821537  0.015107062            3 
 3438000   0.68717482   -8.2448992    653.13706  0.015831323  0.015101963            3 
 3439000   0.69742088   -8.2518655     652.3751  0.015808256   0.01509687            2 
 3440000    0.7205508   -8.2496009    652.50822  0.015806885  0.015091772            2 
 3441000    0.7029357   -8.2590534    651.89055  0.015787333  0.015086686            2 
 3442000   0.70091179   -8.2785397    651.56303  0.015774817  0.015081581            2 
 3443000   0.71591363   -8.2444121    652.05819   0.01578222  0.015076488            2 
 3444000   0.69844612   -8.2563341    652.53407  0.015789152  0.015071388            2 
 3445000    0.6907688   -8.2601408    652.10886  0.015774283  0.015066297            2 
 3446000   0.71511518   -8.2840938    650.60121  0.015733246  0.015061191            2 
 3447000    0.6960493    -8.258933    653.03177  0.015787443  0.015056088            1 
 3448000   0.70282666   -8.2733363     652.3874   0.01576729  0.015050987            5 
 3449000   0.71396008   -8.2336966    653.02923  0.015778226  0.015045905            1 
 3450000   0.71004419   -8.2258241    652.50487  0.015760987  0.015040829            1 
 3451000   0.68773802   -8.2687357    653.13905  0.015771734  0.015035738            2 
 3452000   0.69329601    -8.261566    654.07812  0.015789835  0.015030648            2 
 3453000   0.69089787   -8.2699603    653.01002  0.015759485  0.015025571            1 
 3454000   0.67900649   -8.2621036    652.37255  0.015739542  0.015020489            3 
 3455000   0.71589164   -8.2597262     652.4228  0.015736199  0.015015403            1 
 3456000   0.70838565   -8.2442439    652.82791  0.015741414  0.015010318            3 
 3457000   0.69859965   -8.2551475    654.07409    0.0157669   0.01500523            4 
 3458000   0.69556911   -8.2679533    651.26373  0.015694615  0.015000147            1 
 3459000   0.70623025   -8.2695218     651.5135  0.015696095  0.014995061            1 
 3460000   0.69200912   -8.2691904    652.51102  0.015715583  0.014989978            5 
 3461000   0.69206319   -8.2536987    652.73468  0.015716428  0.014984897            2 
 3462000   0.68903678   -8.2815107    651.86423  0.015690936  0.014979814            2 
 3463000   0.69490201   -8.2498907     651.8342  0.015685682  0.014974737            2 
 3464000   0.71066759   -8.2636506     652.3351  0.015693204  0.014969642            2 
 3465000   0.69402656   -8.2965825    651.89251   0.01567803  0.014964555            2 
 3466000   0.70153153   -8.2631473    651.67797  0.015668349  0.014959467            1 
 3467000   0.70391077   -8.2690892     653.0042  0.015695707  0.014954382            2 
 3468000   0.71349097   -8.2646068    651.32709  0.015650882  0.014949291            4 
 3469000   0.69296038   -8.2671031    651.67991  0.015654845  0.014944212            3 
 3470000   0.68266429   -8.2507544    652.76067  0.015676289  0.014939127            1 
 3471000   0.70880017   -8.2919224    652.08227  0.015655485  0.014934042            5 
 3472000     0.686473   -8.2887068    652.88844  0.015670326  0.014928962            3 
 3473000   0.69648067   -8.2763325    651.58175   0.01563446  0.014923881            3 
 3474000   0.68663542   -8.2853632    651.18278  0.015620389  0.014918806            3 
 3475000   0.68304383   -8.2718737    650.88399  0.015608729  0.014913728            3 
 3476000   0.70544785   -8.2661413    652.48733  0.015642677   0.01490866            2 
 3477000   0.69910144   -8.2419928    651.02072  0.015603028  0.014903581            3 
 3478000   0.68729626   -8.2563159    652.42628  0.015632219  0.014898512            3 
 3479000   0.70273396   -8.2616568    653.08138  0.015643417  0.014893452            1 
 3480000   0.69932555   -8.2659214     651.6683  0.015605084   0.01488838            3 
 3481000   0.69904841   -8.2945514    649.99371  0.015560512  0.014883288            2 
 3482000   0.70467282   -8.2864309    650.87762  0.015577198  0.014878195            2 
 3483000   0.70306475   -8.2865105    651.76222   0.01559389  0.014873104            2 
 3484000   0.70920095   -8.2568158    653.18227   0.01562338  0.014868026            3 
 3485000   0.69447238   -8.2460949     652.4465  0.015601303  0.014862955            5 
 3486000   0.68132154   -8.2689652    652.34482  0.015594397  0.014857887            2 
 3487000   0.70716347   -8.2816256    651.65747  0.015573499  0.014852829            5 
 3488000   0.70472817   -8.2694447    651.10582  0.015555854  0.014847762            3 
 3489000   0.70184123   -8.2923774    651.83028  0.015568699  0.014842698            2 
 3490000   0.70432795   -8.2782943    651.94906  0.015567074  0.014837646            1 
 3491000   0.70652362   -8.2631223    652.58058   0.01557769  0.014832598            2 
 3492000   0.68678351   -8.2871778    651.14383  0.015538942  0.014827544            2 
 3493000   0.68874715   -8.2620443    651.38144  0.015540162   0.01482249            5 
 3494000   0.68459921   -8.2845896    649.97847  0.015502253   0.01481742            1 
 3495000   0.69576562   -8.2793574    650.35235  0.015506732  0.014812357            3 
 3496000   0.70312182   -8.2889203    650.32266  0.015501589  0.014807294            1 
 3497000   0.68211734   -8.2589738    651.58656  0.015527275  0.014802233            3 
 3498000   0.70161333   -8.2989738    652.00757  0.015532866  0.014797157            2 
 3499000   0.67822552   -8.2808275    651.50392  0.015516431  0.014792072            3 
 3500000   0.68799656   -8.2962529    651.65446  0.015515582  0.014786995            2 
 3501000   0.68463749    -8.266466    652.27368   0.01552589  0.014781926            2 
 3502000    0.6905395   -8.2907911    650.42067  0.015477362  0.014776851            1 
 3503000   0.69366212    -8.288007     652.0235  0.015511074  0.014771788            2 
 3504000    0.6833842   -8.3100035    651.97962  0.015505603  0.014766723            2 
 3505000   0.70693952   -8.2801837    652.00674  0.015501825  0.014761664            1 
 3506000   0.69865016   -8.2698939    652.09693  0.015499547  0.014756625            4 
 3507000   0.68425498   -8.3228162    652.60111  0.015507107  0.014751567            1 
 3508000   0.68548952   -8.2999834    652.14113   0.01549176  0.014746507            2 
 3509000   0.69541132   -8.2783834    651.03295  0.015461028  0.014741451            3 
 3510000   0.67994951   -8.3035197    650.46704  0.015443187  0.014736384            1 
 3511000   0.68157641   -8.3203386    651.24012  0.015457137  0.014731317            1 
 3512000     0.686328   -8.2867789    651.47185  0.015458235  0.014726268            2 
 3513000   0.69438873   -8.2934079    650.96523  0.015441817  0.014721218            5 
 3514000   0.69832932   -8.3295321    650.57973   0.01542828  0.014716169            2 
 3515000   0.68928625   -8.2851306    652.16812  0.015461549  0.014711121            1 
 3516000   0.69368277   -8.3103823     651.4691  0.015440584  0.014706069            2 
 3517000   0.67684412   -8.2879463     650.3619  0.015409959  0.014701019            2 
 3518000   0.69461765   -8.3111557    651.33994  0.015428746  0.014695978            1 
 3519000   0.67439279   -8.3084271    652.23716  0.015445609  0.014690945            1 
 3520000   0.68846955   -8.2848224    653.73424  0.015476663  0.014685921            2 
 3521000   0.67982247   -8.2912082    652.17738   0.01543542  0.014680897            1 
 3522000   0.70588948   -8.3122591    651.32621  0.015410898  0.014675868            2 
 3523000   0.67901748   -8.2984174    652.28202  0.015429133  0.014670833            2 
 3524000   0.68639018   -8.3101895    650.97083  0.015393748   0.01466581            2 
 3525000   0.69331354   -8.3050747    650.33476  0.015374344   0.01466079            1 
 3526000    0.6871993   -8.2919126    651.09373  0.015387921   0.01465577            1 
 3527000   0.69059988   -8.2984481    652.05029  0.015406159  0.014650753            1 
 3528000   0.67253602    -8.303392    650.28753  0.015360155  0.014645723            1 
 3529000   0.69856833   -8.2589781    651.56133  0.015385882  0.014640703            1 
 3530000   0.67345441   -8.3142336    650.01721  0.015345071  0.014635664            3 
 3531000   0.67980743   -8.2943016    652.63024  0.015402394  0.014630629            2 
 3532000   0.69412234   -8.3094147    651.80875  0.015378651  0.014625599            1 
 3533000   0.70350757   -8.2944691    650.08373   0.01533361   0.01462059            2 
 3534000   0.67672846   -8.3016535    650.04147  0.015328275  0.014615568            5 
 3535000   0.70440477   -8.3292533    650.47905  0.015334254  0.014610531            1 
 3536000   0.68957712   -8.3147748     651.4729  0.015353339  0.014605511            2 
 3537000   0.67630187   -8.3022866    650.53494    0.0153269  0.014600482            1 
 3538000   0.69655192   -8.3188898    651.44368  0.015343972  0.014595463            2 
 3539000    0.6782537   -8.3341488    649.91031   0.01530353  0.014590446            2 
 3540000   0.68634946   -8.2835733    652.12625  0.015351371  0.014585451            1 
 3541000   0.68009699   -8.3298621    652.43245  0.015354242  0.014580458            3 
 3542000   0.66808782   -8.3056031    651.52121  0.015328468  0.014575459            2 
 3543000   0.68074443   -8.2769115    652.08915    0.0153375  0.014570481            2 
 3544000   0.68927354   -8.2931908    651.85424  0.015327649  0.014565495            1 
 3545000   0.68866171   -8.2849388    651.54987   0.01531617  0.014560507            2 
 3546000   0.68248466   -8.2932829    651.83867  0.015318638  0.014555522            2 
 3547000   0.69097186   -8.2911369    651.46686  0.015305584  0.014550537            4 
 3548000   0.68318039   -8.2962628    652.10246  0.015316198  0.014545554            5 
 3549000   0.69421823   -8.3109137    651.04621  0.015287081  0.014540571            3 
 3550000    0.6789652   -8.2741546    651.91249   0.01530311  0.014535592            1 
 3551000   0.67087717   -8.2992332    652.27046  0.015307201  0.014530615            1 
 3552000   0.68831767   -8.2911356    651.15608  0.015276747   0.01452564            2 
 3553000   0.68619022    -8.276807    651.52939  0.015281203  0.014520667            4 
 3554000   0.69934097   -8.2868043    650.51657  0.015253155  0.014515697            1 
 3555000   0.68580573   -8.2960451    652.18367  0.015287944  0.014510733            1 
 3556000   0.68686126   -8.2904188    651.72991  0.015273011  0.014505768            3 
 3557000     0.688113   -8.2711815    651.54843  0.015264465  0.014500811            4 
 3558000   0.68903578   -8.2540419    653.31964  0.015301659  0.014495869            3 
 3559000   0.68102359   -8.2888084     652.6061  0.015280652  0.014490921            5 
 3560000   0.67205428    -8.309782    652.13553  0.015265345  0.014485972            2 
 3561000   0.68302369   -8.2764685    653.94473  0.015303396  0.014481017            1 
 3562000   0.69333007   -8.2895598    651.00668  0.015230364  0.014476072            1 
 3563000   0.69587482   -8.2914668    651.96556  0.015248516  0.014471121            3 
 3564000   0.66067195   -8.3041341    651.76461  0.015239539  0.014466155            4 
 3565000   0.67460875   -8.3227955     652.0074   0.01524094  0.014461207            2 
 3566000   0.68415719   -8.2882553    652.72708  0.015253484  0.014456269            3 
 3567000    0.6788675   -8.2917704     651.7387  0.015226117  0.014451322            1 
 3568000   0.68695837   -8.2886704    652.20054  0.015232636  0.014446375            2 
 3569000   0.67283045   -8.2950502    651.79043  0.015218792  0.014441427            1 
 3570000   0.68353088   -8.2880255    651.98187  0.015218998  0.014436483            2 
 3571000   0.66769604   -8.3058234    651.88823  0.015212551  0.014431537            2 
 3572000   0.67817595   -8.3133789    651.95541  0.015209859  0.014426592            2 
 3573000   0.67897086   -8.3103063    651.87406  0.015203705  0.014421644            2 
 3574000   0.67688529   -8.2991388    651.45596  0.015189703  0.014416707            2 
 3575000   0.67744766    -8.291292    651.47434  0.015185882  0.014411758            3 
 3576000   0.67422189   -8.3157444    650.66469  0.015162768  0.014406816            2 
 3577000    0.6910785   -8.3106288    651.67335  0.015182028  0.014401878            9 
 3578000   0.67788881   -8.3318775    651.12257  0.015164956  0.014396937            1 
 3579000   0.67785121   -8.3168303    650.37573   0.01514333     0.014392            2 
 3580000   0.68773076   -8.3314829    650.57721   0.01514379  0.014387051            1 
 3581000   0.67374027   -8.3180206    651.83865  0.015168916   0.01438212            2 
 3582000   0.67787644   -8.3075654    651.67691  0.015160918  0.014377192            2 
 3583000   0.69157666   -8.2790377    652.10737  0.015166699  0.014372281            5 
 3584000   0.66593173    -8.295272    652.48158  0.015171168  0.014367363            2 
 3585000   0.68016954    -8.307633    652.56343  0.015168838  0.014362438            3 
 3586000   0.67858664   -8.3015619    652.11876  0.015154275  0.014357507            2 
 3587000   0.67600022   -8.3234563     651.8464  0.015143723   0.01435258            2 
 3588000   0.68602113   -8.3252315    650.76187  0.015114313  0.014347641            2 
 3589000   0.66710965   -8.3013295    651.30387  0.015122687  0.014342709            3 
 3590000   0.68904851   -8.3368143    652.41718  0.015144317  0.014337781            4 
 3591000   0.68323411   -8.3059319    651.47145  0.015118153  0.014332856            5 
 3592000   0.68545353   -8.3065522    651.46013  0.015113681  0.014327942            6 
 3593000   0.67645485   -8.2927811    651.57735  0.015112194  0.014323034            2 
 3594000    0.6810409   -8.3040363    653.12767  0.015143936  0.014318123            3 
 3595000   0.67335369   -8.3040543    650.65112  0.015082316  0.014313221            3 
 3596000   0.67495817   -8.3128926    653.16984  0.015136491  0.014308307            2 
 3597000   0.68890347    -8.329169    652.19264  0.015109643  0.014303401            3 
 3598000   0.67786533   -8.3041264    651.23678  0.015083305  0.014298486            2 
 3599000   0.66484324   -8.3207424    651.94599  0.015095536  0.014293585            1 
 3600000    0.6813831   -8.3307447    650.75585  0.015063793  0.014288681            3 
 3601000   0.69341908   -8.3221158    651.36288  0.015073657  0.014283776            1 
 3602000   0.67057565   -8.3157877    652.47616  0.015095229  0.014278878            4 
 3603000   0.68094613   -8.2637681    651.99029  0.015079801  0.014273997            3 
 3604000   0.66335937    -8.321476    652.48413  0.015087036  0.014269132            1 
 3605000   0.66888451   -8.3136396    652.21088  0.015076534  0.014264263            2 
 3606000   0.66721938   -8.3040839    651.59812  0.015058193  0.014259387            2 
 3607000   0.67764601    -8.329046    652.35433  0.015071489   0.01425451            3 
 3608000   0.67999318   -8.2870055    653.01669   0.01508261  0.014249629            3 
 3609000   0.67110329   -8.3070442    651.41528  0.015041454  0.014244743            1 
 3610000   0.68328239   -8.3004615    651.47684  0.015038708  0.014239858            3 
 3611000   0.66428439   -8.2827621    651.29165   0.01503027   0.01423498            1 
 3612000   0.67043833   -8.3174983    651.65939  0.015034593    0.0142301            4 
 3613000   0.67802126   -8.3243382    651.24464  0.015020865  0.014225234            5 
 3614000    0.6696708   -8.3295029    651.89143  0.015031623  0.014220359            3 
 3615000   0.65638833   -8.3155806    652.39157  0.015038994  0.014215491            5 
 3616000   0.67184335   -8.3045849    652.60066  0.015039654   0.01421062            5 
 3617000   0.66145149   -8.3039612    651.65823  0.015013783  0.014205743            2 
 3618000   0.67082015   -8.3241239    651.48723  0.015005694  0.014200878            4 
 3619000   0.67711288   -8.3189739    652.42681  0.015023183  0.014196008            2 
 3620000   0.67170935   -8.3163325    652.41638  0.015018793  0.014191145            1 
 3621000   0.67319093   -8.3090762    652.91973   0.01502623  0.014186287            1 
 3622000   0.67417947   -8.3081379    653.07757  0.015025713  0.014181435            4 
 3623000   0.66942675    -8.295888    652.65627  0.015011875  0.014176589            4 
 3624000   0.66640506   -8.3272156    651.33772  0.014977413  0.014171738            2 
 3625000   0.65965766   -8.3144133    653.63397  0.015026068   0.01416689            2 
 3626000   0.66536144   -8.3171771    652.15671  0.014987974  0.014162065            5 
 3627000   0.66750929   -8.3121294    652.31929  0.014987577  0.014157224            2 
 3628000   0.67242588   -8.3273514    653.02876  0.014999742  0.014152389            3 
 3629000   0.66548693    -8.332221    654.00412  0.015018006  0.014147555            3 
 3630000   0.65793469    -8.304691    652.80049  0.014986237  0.014142718            4 
 3631000   0.66081562   -8.3081358     651.4198  0.014950422  0.014137883            1 
 3632000   0.66561679   -8.3264297    651.58996   0.01495021  0.014133032            2 
 3633000   0.67699552   -8.3514076     651.0453  0.014933602  0.014128183            1 
 3634000   0.67650417   -8.3297951    651.15788  0.014932074  0.014123331            3 
 3635000   0.67118326   -8.3510259    650.74273  0.014918449  0.014118473            2 
 3636000   0.65556594    -8.340527    650.61287  0.014911369  0.014113634            5 
 3637000   0.67107356   -8.3428914    651.52592   0.01492819  0.014108793            2 
 3638000   0.66578149   -8.3525116    652.10979  0.014937461  0.014103945            2 
 3639000   0.66207498   -8.3577028    651.70827  0.014924161  0.014099093            2 
 3640000   0.66838853   -8.3360493     653.4227  0.014959311  0.014094248            3 
 3641000   0.67700183   -8.3413518    651.12785  0.014902679  0.014089401            2 
 3642000   0.65503983   -8.3595792    650.97054  0.014894988  0.014084551            2 
 3643000   0.67933791   -8.3316347    651.66173   0.01490671  0.014079709            3 
 3644000   0.67838908   -8.3579399    651.14677  0.014890843   0.01407486            4 
 3645000   0.66889339   -8.3408465     650.8539  0.014880062   0.01407001            1 
 3646000   0.67520813   -8.3506799    651.27584  0.014885625   0.01406517            4 
 3647000   0.67094679   -8.3269533    651.44497  0.014885407  0.014060336            1 
 3648000     0.666566   -8.3485894    651.94945  0.014892851  0.014055503            2 
 3649000   0.67489795   -8.3500388    653.20737  0.014917497  0.014050679            2 
 3650000   0.66819721   -8.3081822    652.53944  0.014898161  0.014045849            3 
 3651000   0.66763263   -8.3412021    652.40215  0.014890947   0.01404103            2 
 3652000   0.67055517   -8.3414197     649.9481  0.014830871  0.014036211            2 
 3653000   0.66787457   -8.3541453    650.20058  0.014832571  0.014031384            2 
 3654000   0.68058686   -8.3436525    652.22953  0.014874784  0.014026551            2 
 3655000   0.68546169   -8.3742773    651.30864  0.014849718  0.014021722            2 
 3656000   0.67230414   -8.3467876     652.5945  0.014874966  0.014016899            3 
 3657000   0.65522085   -8.3666931    650.43891  0.014821778  0.014012072            2 
 3658000   0.67505858   -8.3444961    650.85943  0.014827306  0.014007246            1 
 3659000   0.66578501   -8.3427639    651.03535  0.014827261  0.014002421            2 
 3660000   0.66244895   -8.3628783    651.92329  0.014843426  0.013997603            4 
 3661000   0.65636813   -8.3521704    650.92669  0.014816687  0.013992791            1 
 3662000   0.65978805   -8.3403032    650.18748  0.014795819   0.01398797            3 
 3663000   0.66374424   -8.3278928    651.19471  0.014814694   0.01398314            2 
 3664000   0.66216375   -8.3717632    651.73964  0.014823045  0.013978308            2 
 3665000    0.6687474   -8.3690778    652.19723  0.014829405  0.013973475            1 
 3666000   0.67070816   -8.3661395    650.68979  0.014791094  0.013968647            2 
 3667000    0.6545782   -8.3442004    651.20134  0.014798685  0.013963818            2 
 3668000   0.66456177   -8.3633296    650.93412   0.01478858  0.013958996            2 
 3669000    0.6546012    -8.360668    651.13406   0.01478909  0.013954173            1 
 3670000   0.66882169   -8.3553081    650.77555   0.01477692  0.013949352            3 
 3671000   0.66298057   -8.3605655    651.44075  0.014787995  0.013944532            1 
 3672000   0.65937337   -8.3656026    650.34706  0.014759147  0.013939708            3 
 3673000    0.6696341   -8.3447592    650.63348  0.014761627  0.013934896            1 
 3674000   0.67587334    -8.377504    651.84381  0.014785062  0.013930091            1 
 3675000   0.66524989   -8.3425611    651.68993  0.014777549   0.01392528            5 
 3676000   0.65623534   -8.3694952    651.41152  0.014767218  0.013920476            1 
 3677000   0.66080877    -8.359396    651.08742  0.014755857  0.013915678            2 
 3678000   0.64924121   -8.3585078    650.70688  0.014743223  0.013910867            2 
 3679000   0.68555971   -8.3617036     650.2264  0.014728332  0.013906057            2 
 3680000   0.65285649   -8.3621561     650.6103  0.014733023  0.013901251            1 
 3681000   0.66618385   -8.3518957    650.95799  0.014736892  0.013896463            1 
 3682000   0.66297289   -8.3613848    651.40156  0.014742929  0.013891672            3 
 3683000   0.65665768   -8.3508487    650.33097  0.014714702  0.013886872            2 
 3684000   0.66644315    -8.355562    652.76316  0.014765725  0.013882095            3 
 3685000      0.66552    -8.352392     650.1692  0.014703057  0.013877306            2 
 3686000   0.65395645   -8.3491413    652.09464  0.014742599  0.013872522            2 
 3687000   0.67883797   -8.3550098    652.01439  0.014736787   0.01386775            3 
 3688000   0.67532188   -8.3561941    652.51012  0.014743992  0.013862973            3 
 3689000    0.6523301   -8.3686072    651.15848  0.014709462  0.013858193            4 
 3690000   0.66353729   -8.3452603    652.20371  0.014729081  0.013853426            4 
 3691000   0.66439279   -8.3713748    651.13185  0.014700891   0.01384866            7 
 3692000   0.68187608   -8.3551368     651.1649  0.014697655  0.013843887            3 
 3693000   0.66003409   -8.3483369    651.18156  0.014694051  0.013839123            3 
 3694000   0.66099929   -8.3889095    650.15748  0.014666971   0.01383435            1 
 3695000   0.67280615   -8.3694131     650.6364  0.014673802  0.013829579            5 
 3696000   0.65634144   -8.3468289    651.06965  0.014679601   0.01382481            3 
 3697000   0.65745584   -8.3783121    651.25896  0.014679897  0.013820053            2 
 3698000   0.68284119   -8.3517491    652.58241  0.014705751  0.013815285            4 
 3699000   0.66013504   -8.3449031    651.70139  0.014681927  0.013810519            2 
 3700000   0.65591179   -8.3525188    650.44081  0.014649568  0.013805747            1 
 3701000   0.66269003   -8.3568505    650.27526  0.014641882  0.013800977            1 
 3702000   0.66178744    -8.362764    652.03806  0.014677608  0.013796215            1 
 3703000   0.65099411   -8.3826353    652.45405  0.014683006  0.013791461            2 
 3704000   0.64796914   -8.3432061    651.85809  0.014665634  0.013786714            2 
 3705000   0.66818088   -8.3671781    651.51468  0.014653951  0.013781962            2 
 3706000   0.66642992   -8.3819313    651.99513  0.014660801  0.013777205            3 
 3707000   0.66210514   -8.3861795    651.18675  0.014638674  0.013772449            2 
 3708000   0.66528966   -8.3708385    650.88874  0.014628028  0.013767707            1 
 3709000   0.67454314   -8.3755977    650.43098  0.014613799  0.013762961            1 
 3710000   0.64942134   -8.3692773    651.37568   0.01463108  0.013758216            3 
 3711000   0.66429004   -8.3581005    651.43413   0.01462845  0.013753467            3 
 3712000   0.65190234   -8.3896979    650.66959  0.014607345  0.013748705            2 
 3713000   0.66105968   -8.3693947    651.04646  0.014611869  0.013743952            3 
 3714000   0.66316996   -8.3642713     651.4966  0.014618035  0.013739212            4 
 3715000   0.65316545    -8.396105    650.97084  0.014602307  0.013734476            1 
 3716000   0.63525583   -8.3710119    651.44774  0.014609072  0.013729736            3 
 3717000   0.65282464     -8.37033    651.51779  0.014606712  0.013724992            2 
 3718000   0.65653999   -8.3648304      650.267  0.014574749  0.013720262            2 
 3719000   0.65048032   -8.3639449     650.2007  0.014569344  0.013715528            1 
 3720000   0.65303046    -8.394485    650.38355  0.014569524   0.01371079            4 
 3721000   0.65540708   -8.3649448    651.77919  0.014596864  0.013706059            2 
 3722000   0.65884582   -8.3659345     650.7105  0.014569015  0.013701328            4 
 3723000     0.642393   -8.4111456    650.28955   0.01455568  0.013696592            1 
 3724000   0.65810698   -8.3840528    650.72885  0.014561602  0.013691862            1 
 3725000   0.66382342   -8.3767143    650.82375  0.014559815  0.013687127            2 
 3726000     0.658117   -8.3563504    650.80495  0.014555487  0.013682397            2 
 3727000   0.65819302   -8.3667569    651.75957  0.014572927  0.013677673            2 
 3728000   0.64103338   -8.3819833    651.81579  0.014570274   0.01367295            2 
 3729000   0.65922758   -8.3727567     651.4498  0.014558188  0.013668239            1 
 3730000    0.6512504   -8.3624235    651.89774  0.014564293   0.01366353            2 
 3731000    0.6537048   -8.3860856    650.21981  0.014522912  0.013658819            3 
 3732000   0.64481587    -8.380534    650.28491  0.014520474  0.013654106            2 
 3733000   0.64536005     -8.38278    650.41206  0.014519423  0.013649395            4 
 3734000   0.64911891   -8.3841283    650.92133    0.0145269  0.013644676            4 
 3735000   0.65517463   -8.3801784     651.1889   0.01452898  0.013639962            4 
 3736000   0.65471344   -8.3636327    651.27041  0.014526909  0.013635245            1 
 3737000   0.64944474   -8.3828255    649.58891  0.014485525  0.013630527            2 
 3738000   0.66440333   -8.3681652    651.45743  0.014523306  0.013625818            1 
 3739000   0.66482971   -8.3881043    650.80314  0.014504839  0.013621113            3 
 3740000   0.65047026   -8.3904698    651.07902  0.014507108  0.013616406            4 
 3741000    0.6576991   -8.3932922    651.49712  0.014512544  0.013611699            3 
 3742000   0.66443266   -8.3914275    650.91833  0.014495776  0.013606992            2 
 3743000   0.64992549   -8.3813032    652.04288   0.01451694  0.013602286            3 
 3744000   0.64669136   -8.4109809    651.01711  0.014490231  0.013597578            1 
 3745000   0.64809022   -8.3953123    650.58553  0.014476759   0.01359288            4 
 3746000   0.66221491   -8.3921036    651.27472  0.014488226  0.013588176            4 
 3747000   0.66897492   -8.3997767    651.14314  0.014481433  0.013583477            2 
 3748000   0.65177974   -8.3954685    651.00264  0.014474445   0.01357878            2 
 3749000   0.64766801   -8.3861783    651.42473  0.014479966  0.013574084            4 
 3750000   0.64454133   -8.4061293    651.97495  0.014488332  0.013569399            2 
 3751000   0.66724931   -8.3776726    650.66221  0.014455306  0.013564713            2 
 3752000   0.64468382   -8.3749913    651.77893  0.014476256  0.013560036            1 
 3753000   0.63990737   -8.3634603     651.3088  0.014461959  0.013555354            2 
 3754000   0.64101374   -8.4004353    651.60631  0.014464711  0.013550664            3 
 3755000   0.65762358   -8.3825414    651.93934   0.01446825  0.013545985            2 
 3756000   0.64926245   -8.3994155    650.99867  0.014443527  0.013541309            2 
 3757000   0.66363078   -8.3848094     651.5393  0.014451675  0.013536638            1 
 3758000   0.62902609   -8.4048564    650.88998   0.01443343  0.013531961            3 
 3759000   0.64832461   -8.3793674    652.19366  0.014458492  0.013527291            3 
 3760000   0.63942617   -8.3779695    651.09091  0.014430206   0.01352262            2 
 3761000   0.65502036   -8.3693376    650.26142   0.01440799  0.013517954            2 
 3762000    0.6540948   -8.4088131    650.52753  0.014410055  0.013513289            2 
 3763000   0.64161701   -8.4015381    651.38599  0.014425237  0.013508612            2 
 3764000   0.64560055   -8.4023684    651.72509  0.014428912   0.01350394            1 
 3765000    0.6432744   -8.3850979    651.42748  0.014418492  0.013499275            1 
 3766000   0.64757883   -8.3944194    650.44537  0.014392932  0.013494612            2 
 3767000   0.63003689   -8.4046399    651.77254  0.014418471  0.013489954            3 
 3768000   0.64448729    -8.398152    651.34515  0.014405192  0.013485287            1 
 3769000   0.65872453   -8.4170234    649.64695  0.014363822  0.013480615            2 
 3770000   0.65120538   -8.4053866    649.30647  0.014352486  0.013475949            4 
 3771000   0.64631444   -8.4078733      652.481  0.014418832  0.013471289            2 
 3772000   0.64126341   -8.3908658    650.81348   0.01437817  0.013466631            5 
 3773000   0.64845232   -8.3879473     649.1531  0.014337687  0.013461971            2 
 3774000   0.64237619   -8.4039327    650.47394  0.014363053  0.013457316            1 
 3775000   0.63414283   -8.3955302    651.58676  0.014383814  0.013452663            2 
 3776000   0.64675588   -8.3912071    651.32245  0.014374171  0.013448014            1 
 3777000   0.63809108   -8.3968683    649.65318  0.014333536  0.013443362            1 
 3778000   0.63442907    -8.410625    651.81691  0.014377468  0.013438717            1 
 3779000   0.64724031   -8.4063831    650.95557   0.01435467  0.013434065            2 
 3780000   0.63719033   -8.3939329     651.5984  0.014365044  0.013429419            2 
 3781000   0.64348378   -8.4016933    650.75126  0.014342574  0.013424779            2 
 3782000   0.65884571   -8.4170528    650.32119  0.014329305  0.013420124            2 
 3783000   0.65138469   -8.4239419    650.74855  0.014334932  0.013415481            2 
 3784000   0.64358261    -8.406565    649.59549   0.01430575  0.013410833            2 
 3785000    0.6272769   -8.4084744     651.3046  0.014339599  0.013406189            4 
 3786000    0.6571458   -8.4152939    649.56544  0.014297531   0.01340154            2 
 3787000   0.63766919   -8.3998272    649.53663  0.014293122    0.0133969            3 
 3788000   0.63545796    -8.417492    649.92891  0.014297978  0.013392261            2 
 3789000   0.65148548   -8.3859902    650.99579  0.014317669  0.013387631            1 
 3790000   0.65733603    -8.410414    650.89608  0.014311699  0.013383013            2 
 3791000   0.64228305   -8.4168154     651.8584  0.014329078  0.013378399            3 
 3792000   0.64964335   -8.4104544    650.49807  0.014295404  0.013373781            2 
 3793000   0.63723155   -8.3930792    650.60112  0.014293899  0.013369171            2 
 3794000    0.6289589   -8.3994546    651.92165  0.014319137  0.013364555            1 
 3795000   0.64105917   -8.3969118    650.59468  0.014286225  0.013359943            3 
 3796000   0.64144028   -8.3933298    652.00472  0.014313416  0.013355327            2 
 3797000   0.64667546   -8.4062672    651.26274  0.014293362  0.013350711            2 
 3798000   0.63687614   -8.3977616    651.12368  0.014286547  0.013346094            2 
 3799000   0.64056705   -8.3893931    650.90143  0.014277912  0.013341474            2 
 3800000    0.6511892   -8.4127704    650.08948  0.014256348  0.013336863            1 
 3801000   0.64448749    -8.416324    650.53983  0.014262471  0.013332252            3 
 3802000   0.64079537   -8.3999961    650.20801  0.014251447  0.013327639            2 
 3803000   0.65619729    -8.427436    650.14847  0.014246395  0.013323025            1 
 3804000   0.62764986   -8.4201985    650.41972  0.014248592  0.013318411            2 
 3805000   0.63774483   -8.4191877    649.37088  0.014221876  0.013313794            3 
 3806000   0.63677185   -8.4245658    650.52263  0.014243358  0.013309179            1 
 3807000   0.62603356    -8.410851    650.42692  0.014237521  0.013304573            1 
 3808000   0.64664478   -8.4170508      650.526  0.014235951  0.013299959            1 
 3809000   0.64133987   -8.4080578    650.16791  0.014224379  0.013295362            2 
 3810000   0.63653287   -8.4154684     649.6763  0.014209893  0.013290756            1 
 3811000   0.64510721   -8.4297777    650.48364  0.014223818  0.013286155            2 
 3812000   0.62865192   -8.4247067    650.81331  0.014227293  0.013281556            2 
 3813000   0.65379426   -8.4144649    650.46877  0.014216032  0.013276965            1 
 3814000    0.6465491   -8.4189409    650.91563  0.014222068  0.013272371            2 
 3815000   0.63789134   -8.4196861    651.43421  0.014229668  0.013267787            3 
 3816000   0.64270599   -8.4350015    649.86771   0.01419173  0.013263196            1 
 3817000   0.62278004   -8.4189711    650.55634  0.014203047  0.013258605            1 
 3818000   0.63708863   -8.4168564    651.18368  0.014213019  0.013254019            2 
 3819000   0.63125366   -8.4321029    651.23437  0.014210403  0.013249428            1 
 3820000   0.64173514   -8.3954423    651.34836   0.01420917  0.013244843            3 
 3821000   0.63208682     -8.41955     649.5935  0.014167179   0.01324026            1 
 3822000   0.63770129   -8.4485666    650.13293  0.014175234  0.013235678            1 
 3823000   0.64447963   -8.4216008    649.96601  0.014167888  0.013231095            2 
 3824000   0.62660281   -8.4014139    649.98474  0.014164591   0.01322652            2 
 3825000   0.64700603   -8.4106698     651.5076  0.014194065  0.013221958            1 
 3826000   0.63860448    -8.396529      650.481  0.014167995  0.013217397            3 
 3827000   0.63932975    -8.402755    650.50973  0.014164919  0.013212838            3 
 3828000   0.63595025   -8.4089548    650.04509  0.014151104  0.013208277            3 
 3829000   0.64887819   -8.4166636    650.40013  0.014155135  0.013203711            2 
 3830000   0.64190897   -8.4034118    651.21999  0.014169277   0.01319914            2 
 3831000   0.64618909   -8.4043666    650.15692  0.014142455  0.013194575            2 
 3832000   0.63537299   -8.4305397    649.53328  0.014125202  0.013190013            3 
 3833000   0.63400285   -8.4108097    651.03319  0.014154126   0.01318545            3 
 3834000   0.64834751   -8.4013879    649.77722  0.014123136  0.013180892            2 
 3835000   0.65155197   -8.4125124    650.27852  0.014130346  0.013176337            3 
 3836000   0.64454842   -8.4359795    651.13719  0.014145316  0.013171786            2 
 3837000   0.64213127   -8.4185319    650.64558  0.014130953  0.013167242            6 
 3838000   0.63539253   -8.3964811    651.69536  0.014150064  0.013162694            3 
 3839000   0.65559054   -8.4009675    650.07651  0.014111238  0.013158156            3 
 3840000   0.63613992   -8.4183939    650.76999  0.014122613   0.01315361            3 
 3841000   0.64498548   -8.4391967    650.21528  0.014106901  0.013149075            4 
 3842000   0.63582616   -8.4181211    650.81927   0.01411633  0.013144544            2 
 3843000    0.6412935   -8.4293809    650.50584   0.01410586  0.013140007            3 
 3844000   0.62274194   -8.3959414    650.15997  0.014094692  0.013135477            3 
 3845000   0.63071746   -8.3993891    650.77157  0.014104282  0.013130947            2 
 3846000   0.64235984    -8.418915    650.46882  0.014094055  0.013126413            1 
 3847000   0.63666488   -8.4164625     651.6779  0.014116582  0.013121886            2 
 3848000   0.63326158   -8.4026258    650.33984  0.014083936  0.013117356            2 
 3849000   0.65065417   -8.3991245    653.01734  0.014138247  0.013112843            2 
 3850000   0.63943392   -8.4148687    651.15517  0.014094268  0.013108326            1 
 3851000   0.64361468   -8.4052386    651.16534  0.014090828  0.013103809            2 
 3852000   0.62940325   -8.4506597    649.48327   0.01405078  0.013099285            2 
 3853000   0.63111315   -8.4018076     651.0881  0.014081843  0.013094763            2 
 3854000   0.62989073   -8.4392059    650.04822  0.014055705  0.013090235            7 
 3855000   0.64249572   -8.4118083    650.98723  0.014072357  0.013085719            3 
 3856000   0.64508473   -8.4037037    651.55299  0.014080934  0.013081197            5 
 3857000   0.63176447   -8.4155996      651.163  0.014068857  0.013076675           10 
 3858000   0.63819264   -8.4131045    651.13483  0.014064602  0.013072151            2 
 3859000   0.63292657   -8.4182863    650.93671  0.014056679  0.013067636            4 
 3860000   0.62995354    -8.422346    650.81536  0.014050418  0.013063114            2 
 3861000   0.63241976   -8.4366275    651.23352  0.014055804  0.013058593            3 
 3862000   0.64719411      -8.4115    650.88835  0.014044717  0.013054085            7 
 3863000   0.62954536   -8.4118751    651.03679  0.014044283  0.013049572            5 
 3864000   0.63003984   -8.4136129    651.49766  0.014050588  0.013045066            3 
 3865000   0.63700689   -8.4555773    650.81804  0.014032299  0.013040557            2 
 3866000   0.62667925   -8.4102628    650.71136   0.01402637  0.013036051            1 
 3867000   0.62354209   -8.4007208    652.48155   0.01406089  0.013031552            2 
 3868000   0.63166984    -8.435296    650.45053  0.014013498  0.013027055            2 
 3869000   0.62182613   -8.4453937    649.88606  0.013997718  0.013022544            3 
 3870000   0.63491179   -8.4171742     648.9087  0.013973056  0.013018039            5 
 3871000    0.6339475    -8.432802    650.55522  0.014004891  0.013013535            4 
 3872000   0.62804759   -8.4346116    650.59916   0.01400222  0.013009032            5 
 3873000   0.62744008   -8.4352515    650.05067  0.013986803  0.013004534            1 
 3874000   0.62613043   -8.4196407    650.40856  0.013990891  0.013000035            1 
 3875000   0.63265703   -8.4399929    650.51281  0.013989523  0.012995544            1 
 3876000   0.61705124   -8.4340017    649.32799   0.01396044  0.012991047            3 
 3877000   0.62635366   -8.4423934     650.2608  0.013976889  0.012986546            1 
 3878000   0.62256308   -8.4459981    649.64817   0.01396012  0.012982047            2 
 3879000   0.63083027    -8.446515    649.50652  0.013953478  0.012977554            3 
 3880000   0.62310872   -8.4403464    650.12072  0.013963074   0.01297306            1 
 3881000   0.62131374   -8.4491629    649.80136  0.013952619   0.01296857            2 
 3882000   0.62528351   -8.4526372    650.04309  0.013954214  0.012964079            2 
 3883000   0.63577829   -8.4215287    649.55359  0.013940115  0.012959591            2 
 3884000   0.64363733   -8.4339142    648.72738  0.013918799  0.012955103            2 
 3885000   0.61620616   -8.4337929    649.44106  0.013930525  0.012950622            2 
 3886000   0.61490452   -8.4306537    650.95575  0.013959422  0.012946143            1 
 3887000   0.64323245   -8.4197823    650.27722  0.013941283  0.012941663            2 
 3888000   0.63046844   -8.4434641    648.88949  0.013907954  0.012937187            3 
 3889000   0.61948046   -8.4483082    649.84842  0.013924925  0.012932711            2 
 3890000   0.63083985   -8.4658268    648.95471    0.0139022  0.012928234            2 
 3891000   0.63594188   -8.4254477     650.1457  0.013924135  0.012923758            2 
 3892000    0.6282836   -8.4132241    649.85012  0.013914228  0.012919279            3 
 3893000   0.63779352   -8.4681393    649.91997  0.013912149    0.0129148            2 
 3894000   0.62267098   -8.4581381    649.16038  0.013892321  0.012910318            4 
 3895000   0.64543801   -8.4502583    649.81174   0.01390269  0.012905841            2 
 3896000   0.62087511   -8.4378885     647.8925   0.01385807  0.012901362            2 
 3897000    0.6175892   -8.4547834    650.42249  0.013908615  0.012896886            3 
 3898000   0.63763648   -8.4591592    649.10108  0.013876798   0.01289241            3 
 3899000   0.62658623   -8.4630191    650.19903  0.013896705  0.012887942            2 
 3900000   0.62809558   -8.4309017     650.2059  0.013893288  0.012883472            2 
 3901000   0.62840949   -8.4677661    650.03416  0.013886058  0.012879005            2 
 3902000   0.61957353   -8.4503768    648.71682  0.013854366  0.012874537            2 
 3903000   0.63066944   -8.4347015    649.70322  0.013871877  0.012870072            1 
 3904000   0.61140047   -8.4362499    649.57282   0.01386554  0.012865612            2 
 3905000   0.63363034   -8.4398419    649.03619  0.013850538  0.012861156            2 
 3906000   0.63979041   -8.4655086    649.06236   0.01384755  0.012856692            5 
 3907000   0.61613204   -8.4641045    649.60784   0.01385564  0.012852233            2 
 3908000   0.63555694   -8.4443062    649.93715  0.013859117  0.012847773            2 
 3909000   0.61239871    -8.478688    650.38284  0.013865073  0.012843305            1 
 3910000   0.63210253   -8.4302376    649.45309  0.013841711  0.012838843            1 
 3911000   0.62077368   -8.4591745    649.22177  0.013833243  0.012834389            5 
 3912000   0.61719069   -8.4498027    649.86783   0.01384347  0.012829939            2 
 3913000   0.61734817   -8.4452707    649.62387  0.013834736  0.012825486            1 
 3914000   0.61602169   -8.4380859    648.70175  0.013811569  0.012821035            2 
 3915000   0.62002473   -8.4313544    649.08876  0.013816278  0.012816583            3 
 3916000   0.64221919   -8.4440721    649.10316  0.013813057   0.01281213            1 
 3917000   0.61346156   -8.4447913    649.38226  0.013815468  0.012807681            2 
 3918000   0.63107705   -8.4292593    650.00954  0.013825284  0.012803226            2 
 3919000   0.63627888   -8.4468276    649.68826  0.013814924  0.012798786            1 
 3920000   0.62778097   -8.4491156    649.74407  0.013812587  0.012794331            2 
 3921000   0.62473993   -8.4404413    649.34383  0.013800557  0.012789891            1 
 3922000   0.63239268   -8.4530668     649.6793  0.013804167  0.012785446            2 
 3923000   0.61133456   -8.4643789    648.99879  0.013786192  0.012781003            3 
 3924000   0.62315985    -8.428954    649.98569  0.013803638  0.012776557            1 
 3925000   0.60918317   -8.4671617    648.56611  0.013769981  0.012772123            3 
 3926000   0.62157043   -8.4493621    649.56693  0.013787717  0.012767679            1 
 3927000   0.63333239   -8.4364474    649.58739   0.01378464  0.012763246            3 
 3928000   0.62907784    -8.452412    649.44539  0.013778118  0.012758816            1 
 3929000   0.61605249   -8.4639146    649.00365  0.013765242  0.012754382            3 
 3930000   0.62279513   -8.4545841    650.50239   0.01379352   0.01274995            1 
 3931000   0.62223164   -8.4324431    649.74171  0.013773885  0.012745521            1 
 3932000   0.61446864   -8.4674865    650.05549  0.013777032  0.012741099            2 
 3933000   0.62441608   -8.4608412    649.00603  0.013751293  0.012736667            2 
 3934000    0.6283468    -8.449893     649.2518  0.013753004  0.012732246            2 
 3935000   0.61554985   -8.4489904    647.76118  0.013717941  0.012727821            2 
 3936000   0.62450889   -8.4527824    648.76727  0.013735757  0.012723396            2 
 3937000   0.61391438   -8.4512984    648.62848   0.01372933  0.012718974            2 
 3938000   0.62352794   -8.4627059    648.75012  0.013728418  0.012714551            2 
 3939000   0.62621419   -8.4592089    649.98891  0.013751141  0.012710137            1 
 3940000     0.610376   -8.4394091    650.09551  0.013749905  0.012705717            1 
 3941000    0.6198457   -8.4583153    649.18525  0.013727168  0.012701307            1 
 3942000   0.62523149   -8.4552233    650.46002  0.013750635  0.012696904            1 
 3943000   0.63536683   -8.4701458     648.9829  0.013715929  0.012692495            2 
 3944000   0.61373514   -8.4495847    650.24399  0.013739097   0.01268808            1 
 3945000   0.62572918   -8.4477316    649.47734   0.01371942  0.012683672            1 
 3946000   0.61870478   -8.4594719    648.78965   0.01370142  0.012679259            2 
 3947000   0.62355991    -8.473656    649.48431  0.013712615   0.01267485            3 
 3948000   0.63111236   -8.4529428    648.32934  0.013684763  0.012670442            1 
 3949000   0.61144335   -8.4726732    648.93165  0.013694008  0.012666037            2 
 3950000   0.61034309   -8.4627224    648.65261  0.013684654  0.012661633            2 
 3951000   0.62553007   -8.4546485    649.13583  0.013691383  0.012657235            2 
 3952000   0.63387249   -8.4668227    649.62496  0.013698232  0.012652841            2 
 3953000   0.61959295   -8.4758701    649.48467  0.013691809  0.012648448            1 
 3954000   0.61379529   -8.4605033    649.32346  0.013684949  0.012644061            1 
 3955000   0.60630794   -8.4565005     651.1651  0.013720293  0.012639677            2 
 3956000   0.62277671   -8.4496944    650.51733  0.013703179  0.012635298            2 
 3957000   0.61554255   -8.4722479    649.12299  0.013670352  0.012630911            1 
 3958000   0.61538284   -8.4543103    649.36227  0.013671936  0.012626525            1 
 3959000   0.63298333   -8.4631528    650.66228  0.013695847  0.012622144            2 
 3960000   0.62192567   -8.4781998    648.55373  0.013648016  0.012617768            1 
 3961000   0.61182602   -8.4397091    650.25483  0.013680359  0.012613383            1 
 3962000   0.61492512    -8.467931    649.11653  0.013652964  0.012609007            1 
 3963000   0.61684535   -8.4611308    649.30269  0.013653434  0.012604638            2 
 3964000   0.61652312   -8.4740356    647.61031  0.013614411  0.012600266            4 
 3965000   0.60779155     -8.46131    649.24728  0.013645382  0.012595892            2 
 3966000   0.62399684   -8.4411589    650.72157  0.013672919  0.012591521            3 
 3967000   0.61515645   -8.4593586    650.05494  0.013655469  0.012587153            1 
 3968000   0.62841359   -8.4902578    649.44315  0.013639179  0.012582778            3 
 3969000   0.61815609   -8.4535462    648.39166  0.013613665    0.0125784            1 
 3970000   0.63182699   -8.4764304    649.37922  0.013630966  0.012574026            2 
 3971000   0.60917514   -8.4850961    649.35417  0.013627008  0.012569653            3 
 3972000    0.6285408   -8.4702173    649.04617  0.013617115  0.012565282            2 
 3973000   0.61011409   -8.4943557    647.50852  0.013581435  0.012560911            2 
 3974000   0.61451857   -8.4592284    649.03476  0.013610023  0.012556538            2 
 3975000   0.62426732   -8.4575843    648.71455  0.013599886  0.012552173            1 
 3976000   0.62437016   -8.4871633    648.61667  0.013594414  0.012547817            1 
 3977000   0.61260621   -8.5029992    649.74233  0.013614582  0.012543457            2 
 3978000   0.62311936   -8.4741265    648.76103  0.013590603  0.012539088            1 
 3979000   0.61070925   -8.4672037    647.97746  0.013570777  0.012534723            2 
 3980000   0.62260498   -8.4832112    649.30484   0.01359516  0.012530355            2 
 3981000   0.60766778    -8.493395    649.20061  0.013589563  0.012525991            2 
 3982000   0.61675709   -8.4889184    648.93529  0.013580598  0.012521632            3 
 3983000   0.62017033   -8.4760901    649.30692  0.013584964  0.012517279            1 
 3984000   0.61310235   -8.4737897    648.66553  0.013568138  0.012512914            2 
 3985000   0.61244781   -8.4879619    647.89281  0.013548574  0.012508553            1 
 3986000   0.62544749    -8.484764    648.43825  0.013556578  0.012504199            2 
 3987000   0.63283727   -8.4987436    648.74401  0.013559569  0.012499842            2 
 3988000   0.61108583   -8.4603238    648.69727  0.013555192   0.01249549            2 
 3989000   0.61089157   -8.4742116    649.01446   0.01355842  0.012491135            2 
 3990000   0.61733855   -8.4664328    647.50331  0.013523461  0.012486783            1 
 3991000   0.60589347   -8.4819047    648.14633  0.013533499  0.012482433            2 
 3992000   0.60778003   -8.4733877    648.63032  0.013540212  0.012478081            1 
 3993000   0.60682557   -8.4965714    648.39777  0.013531968  0.012473732            2 
 3994000   0.60492525   -8.4744911    649.24344  0.013546224  0.012469384            5 
 3995000   0.61204125   -8.4802847    648.94451  0.013536598  0.012465044            2 
 3996000   0.61553389   -8.4814385    649.16948  0.013537902  0.012460707            1 
 3997000   0.62194595   -8.4594121    650.30112  0.013558109  0.012456371            3 
 3998000   0.60729577   -8.4753759    647.57441  0.013497883  0.012452038            1 
 3999000   0.61500211   -8.4867835    648.64577  0.013516833  0.012447703            2 
 4000000    0.6063611   -8.4839036    649.04235  0.013521716  0.012443376            2 
 4001000    0.6249289    -8.490704    648.74068  0.013512053  0.012439047            2 
 4002000   0.60442601   -8.5110155    647.97474  0.013492727  0.012434714            1 
 4003000   0.61925195   -8.4861291    648.72231  0.013504919   0.01243038            3 
 4004000   0.61070865   -8.4915612    648.07349  0.013488043  0.012426055            1 
 4005000   0.60606965   -8.4710953    648.08068  0.013484825  0.012421723            1 
 4006000   0.59391859   -8.4887829    647.36015   0.01346647  0.012417397            1 
 4007000   0.61005371    -8.504261    649.33982   0.01350428  0.012413075            2 
 4008000   0.61702637   -8.4921933    648.83436  0.013490402  0.012408759            1 
 4009000   0.59130999   -8.4663336    649.36824  0.013498134  0.012404448            1 
 4010000   0.61274592   -8.4932507    648.58171  0.013478423  0.012400136            3 
 4011000   0.61395833   -8.4772217    648.98493   0.01348344   0.01239582            2 
 4012000   0.62250298   -8.4673058    649.94964  0.013500117  0.012391507            2 
 4013000   0.59100515   -8.4866661      647.809  0.013452301  0.012387194            2 
 4014000   0.60010004   -8.5002337    649.25329  0.013478934  0.012382884            1 
 4015000   0.61360812   -8.4930642     648.6807  0.013463692  0.012378569            2 
 4016000   0.59811643   -8.4590638     648.2678  0.013451772  0.012374255            1 
 4017000   0.61397414   -8.5023264     649.0609  0.013464876  0.012369948            1 
 4018000   0.61239257   -8.4971756    648.66789  0.013453374  0.012365648            2 
 4019000   0.62521808   -8.4865847    648.30531  0.013442509   0.01236134            1 
 4020000   0.61543731   -8.4907991    648.82918  0.013450024  0.012357039            1 
 4021000   0.59901384   -8.4883744     648.4175  0.013438148  0.012352735            2 
 4022000   0.61417763   -8.5078974    648.03156   0.01342681  0.012348433            1 
 4023000      0.60978    -8.517488    647.07913  0.013403744  0.012344132            1 
 4024000   0.61035022   -8.5043171    646.38567  0.013386052  0.012339827            2 
 4025000   0.62101552    -8.508972    648.56708   0.01342789   0.01233553            2 
 4026000   0.60784735    -8.494911    648.77981  0.013428958  0.012331236            1 
 4027000   0.60044425   -8.5107108    647.81832  0.013405726  0.012326938            2 
 4028000   0.60395134   -8.4873451        647.8  0.013402019  0.012322644            5 
 4029000   0.61359105   -8.4889173    648.62045  0.013415663  0.012318346            1 
 4030000   0.60471029    -8.477359    647.65304  0.013392329  0.012314051            4 
 4031000   0.60968113   -8.5095955    647.95157  0.013395178  0.012309759            4 
 4032000   0.61060894   -8.5205087    648.58329  0.013404912   0.01230547            3 
 4033000   0.59395559   -8.4872474    648.59415  0.013401813  0.012301175            1 
 4034000    0.6162684   -8.5079598    648.94939  0.013405829  0.012296884            3 
 4035000   0.60732613   -8.5109596     648.0714  0.013384374  0.012292593            2 
 4036000   0.59491703     -8.50228     648.2397  0.013384533  0.012288308            4 
 4037000   0.60700696   -8.5074029    647.59621  0.013367934  0.012284024            1 
 4038000    0.6178517   -8.5301159    648.26528  0.013378432  0.012279731            2 
 4039000   0.61494507   -8.5172296    648.79762  0.013386103  0.012275445            3 
 4040000    0.5962181   -8.5042783    648.36949  0.013373958   0.01227116            1 
 4041000   0.60756764    -8.503753    647.42248  0.013351119  0.012266881            2 
 4042000   0.59884425   -8.5277768    647.04819    0.0133401  0.012262603            3 
 4043000   0.60054263   -8.4980131    647.52195  0.013346565  0.012258321            4 
 4044000   0.61803624   -8.5164227    647.24203  0.013337497  0.012254047            2 
 4045000   0.61816386   -8.5132493    646.83427  0.013325799  0.012249766            4 
 4046000   0.61200577   -8.5230814     646.7368  0.013320498  0.012245488            2 
 4047000   0.60002933   -8.5059022    647.04816  0.013323618  0.012241211            5 
 4048000   0.60827729    -8.511319    647.50054  0.013329639  0.012236938            2 
 4049000    0.5984555   -8.5440082    646.37995  0.013303284  0.012232661            2 
 4050000   0.59881171   -8.5054849    648.05676  0.013334501  0.012228386            2 
 4051000   0.59789699   -8.4873194     647.0727  0.013310966  0.012224119            1 
 4052000   0.59198601   -8.4863556    648.23524   0.01333159  0.012219849            4 
 4053000   0.59533939   -8.5243729    647.91514  0.013321719  0.012215589            1 
 4054000   0.61296974   -8.5273132    648.85186  0.013337688  0.012211325            4 
 4055000   0.62395213   -8.5169097    646.50517  0.013286173  0.012207064            2 
 4056000   0.60305053   -8.5086844    647.76387  0.013308758  0.012202802            3 
 4057000   0.60316988   -8.5244139    646.55041  0.013280552  0.012198539            2 
 4058000   0.61744696   -8.5145089    645.78494   0.01326156  0.012194282            6 
 4059000   0.60996087   -8.5084289    648.30029  0.013309935  0.012190027            2 
 4060000   0.60057032   -8.5113857    647.14306  0.013282903  0.012185772            2 
 4061000   0.59751618   -8.5223835    647.06295  0.013277989  0.012181524            2 
 4062000   0.59205842   -8.5234844     647.2548  0.013278656  0.012177274            3 
 4063000   0.60045694    -8.520784    648.64215  0.013303843  0.012173021            1 
 4064000   0.61340072   -8.4993525    648.11009  0.013289659  0.012168772            3 
 4065000   0.59483049   -8.5182005    647.06531  0.013264972  0.012164526            2 
 4066000   0.59262382   -8.5174167    645.69511  0.013233627  0.012160278            3 
 4067000   0.59370142   -8.5173929    646.75957  0.013252184  0.012156032            3 
 4068000   0.59664907   -8.5246603    648.52778  0.013285148  0.012151795            2 
 4069000   0.59651559   -8.5247567    645.58834  0.013221683  0.012147554            4 
 4070000   0.59685207   -8.5230738    646.81927  0.013243638  0.012143319            1 
 4071000   0.60836509   -8.5019226    647.49346  0.013254185  0.012139085            3 
 4072000   0.58315445   -8.5113367    646.34297  0.013227386  0.012134852            1 
 4073000    0.6105936   -8.5273477    647.28182  0.013243347  0.012130617            1 
 4074000   0.60593221   -8.5277147    647.24385  0.013239319  0.012126385            2 
 4075000   0.60257165    -8.519671    647.31505  0.013237527  0.012122152            3 
 4076000   0.60189934   -8.5553694    646.11378  0.013209719  0.012117916            2 
 4077000   0.59755559   -8.5394203    647.16344  0.013227934  0.012113686            6 
 4078000   0.59580026    -8.535825    647.96728  0.013241117  0.012109459            2 
 4079000   0.59439765   -8.5377566    648.00633  0.013238668  0.012105239            1 
 4080000   0.58643078   -8.5226667    647.56665  0.013226443  0.012101017            3 
 4081000   0.60632319   -8.5224647    648.19768  0.013236088  0.012096801            1 
 4082000   0.57988108   -8.5239358     647.9214  0.013227205  0.012092591            2 
 4083000   0.60902924   -8.5313711    647.06508  0.013206488  0.012088378            4 
 4084000   0.60996947   -8.5383801    647.81191  0.013218493  0.012084161            2 
 4085000   0.60631881   -8.5183494    645.98059  0.013177899  0.012079954            2 
 4086000   0.58070874   -8.5288851    647.79115    0.0132116  0.012075746            3 
 4087000   0.59778376   -8.5345733    646.17427  0.013175399   0.01207153            1 
 4088000   0.60400202   -8.5312635    646.34425  0.013175641  0.012067317            2 
 4089000   0.59541761   -8.5132797    647.55794  0.013197154  0.012063113            2 
 4090000   0.60403289   -8.5311501    647.76026  0.013198049  0.012058907            2 
 4091000   0.59164743   -8.5340418    647.62568  0.013192082  0.012054702            2 
 4092000   0.59947344   -8.5087042    648.43163  0.013205271    0.0120505            2 
 4093000    0.6057636   -8.5227436    647.43894  0.013181834  0.012046297            4 
 4094000   0.59940709   -8.5497585    647.13638  0.013172455  0.012042098            2 
 4095000   0.60091422   -8.5419274    647.50697   0.01317678  0.012037902            2 
 4096000   0.58501391   -8.5384361    646.24427  0.013147873  0.012033702            2 
 4097000   0.58703231   -8.5217167    647.65454  0.013173349  0.012029508            1 
 4098000   0.58675272   -8.5435332    646.38328  0.013144283  0.012025311            4 
 4099000   0.58354807   -8.5151035    647.12719    0.0131562  0.012021114            2 
 4100000   0.58540992   -8.5267304    647.15695  0.013153597  0.012016925            1 
 4101000   0.60244033     -8.51139    647.57039   0.01315879  0.012012735            2 
 4102000   0.60381481   -8.5326594    647.71935  0.013158609  0.012008551            1 
 4103000   0.59749394   -8.5174385    647.19441   0.01314474  0.012004366            2 
 4104000   0.59934005   -8.5177911    645.45807   0.01310628  0.012000186            2 
 4105000   0.58481465   -8.5403376    646.13844  0.013116899  0.011996004            1 
 4106000   0.59676358   -8.5298201    646.55809  0.013122221  0.011991824            5 
 4107000   0.59663255   -8.5158462    645.96047    0.0131069  0.011987643            1 
 4108000   0.57793918   -8.5221041    646.72438  0.013119206  0.011983468            1 
 4109000   0.59015953   -8.5219359    646.88007  0.013119171  0.011979288            1 
 4110000   0.59093306    -8.519615    646.46495  0.013107562  0.011975106            1 
 4111000   0.59741617   -8.5244793    645.53872  0.013085598  0.011970931            1 
 4112000    0.6015728   -8.5295369    646.72775  0.013106512   0.01196675            1 
 4113000   0.59502627   -8.5201046    647.51357  0.013119247  0.011962576            1 
 4114000   0.59600119   -8.5310096    646.17564  0.013088957  0.011958404            4 
 4115000   0.60071379   -8.5378172    647.33694  0.013109294  0.011954231            2 
 4116000   0.58643836   -8.5253178    646.91619  0.013097591   0.01195006            2 
 4117000   0.60377637    -8.526185    646.23488  0.013080619  0.011945892            3 
 4118000   0.58006161   -8.5403725    646.05639   0.01307383  0.011941728            2 
 4119000   0.60767261   -8.5405373    648.03871  0.013110761  0.011937564            2 
 4120000   0.59177773   -8.5482726    646.75737  0.013081662  0.011933406            2 
 4121000   0.58667572   -8.5053422    647.95136  0.013102632  0.011929251            1 
 4122000   0.58577677   -8.5400517    646.64165  0.013072975    0.0119251            1 
 4123000    0.6013993   -8.5419447    645.48887  0.013046505  0.011920943            2 
 4124000   0.58979868   -8.5467865    647.07416  0.013075375  0.011916789            2 
 4125000   0.59859703   -8.5294006    647.01205  0.013070951  0.011912635            1 
 4126000   0.58698063   -8.5320329    647.76719  0.013083034  0.011908482            2 
 4127000   0.58800222   -8.5360336    646.58098  0.013055912  0.011904335            2 
 4128000   0.58612547   -8.5278436    647.66433  0.013074619  0.011900185            6 
 4129000   0.58207429    -8.548263     647.0921  0.013059904   0.01189604            3 
 4130000   0.59491386   -8.5261074    645.83069  0.013031289   0.01189189            2 
 4131000   0.59160888   -8.5537557    646.32168  0.013038039  0.011887742            1 
 4132000   0.59351819   -8.5240766    646.01741  0.013028747  0.011883601            1 
 4133000   0.58874922   -8.5635423    647.11572   0.01304774  0.011879458            1 
 4134000   0.59353111   -8.5273772    646.41651  0.013030489  0.011875316            2 
 4135000   0.57745331   -8.5352929    646.29235  0.013024836   0.01187118            3 
 4136000   0.59720644   -8.5527457    647.62132  0.013048463  0.011867045            2 
 4137000   0.59108395   -8.5376707    646.15376  0.013015747  0.011862915            3 
 4138000   0.59375502   -8.5485994    646.92341  0.013028102   0.01185879            4 
 4139000    0.5936211   -8.5310907    646.26847  0.013011768  0.011854659            3 
 4140000   0.59685516   -8.5252139    646.90761   0.01302149  0.011850531            3 
 4141000   0.58764334   -8.5214589    646.76034  0.013015382  0.011846406            1 
 4142000   0.60298382   -8.5316417    646.09958  0.012998945   0.01184228            2 
 4143000   0.59088162   -8.5393578    646.41195  0.013002091   0.01183816            1 
 4144000   0.58270035   -8.5510979    645.76716  0.012985987  0.011834034            1 
 4145000   0.59352566   -8.5641097    645.65273  0.012980553   0.01182991            1 
 4146000   0.58252368   -8.5275242    646.09881  0.012986389  0.011825788            1 
 4147000   0.59434291   -8.5355299     646.9814  0.013000993  0.011821667            1 
 4148000   0.57585606   -8.5220121    647.58116  0.013009908  0.011817547            2 
 4149000   0.59155384   -8.5303296    647.87206  0.013012615  0.011813435            1 
 4150000   0.60676312   -8.5304215    646.51109   0.01298215  0.011809325            4 
 4151000   0.58792315   -8.5456424    646.20079  0.012972794   0.01180521            2 
 4152000   0.59913911   -8.5519135    645.76008  0.012960824    0.0118011            2 
 4153000   0.59307482   -8.5361124    646.86569  0.012979888  0.011796986            4 
 4154000   0.60596147   -8.5291086    646.26749  0.012964763  0.011792878            1 
 4155000   0.58320978   -8.5445349    646.45562  0.012965416  0.011788773            3 
 4156000   0.58190626   -8.5511595    646.56353   0.01296446  0.011784672            3 
 4157000   0.59266626   -8.5591828     646.9592  0.012969273  0.011780567            3 
 4158000   0.57346884   -8.5396835    646.20974  0.012951133  0.011776468            3 
 4159000   0.57903993   -8.5477194     646.8801  0.012961451  0.011772371            5 
 4160000   0.60325682   -8.5452856     645.8412  0.012937524  0.011768276            1 
 4161000    0.5947633   -8.5292392    645.95586  0.012936711  0.011764183            2 
 4162000    0.5924888   -8.5561208    646.66243   0.01294775  0.011760091            1 
 4163000   0.59151405   -8.5379515      647.489  0.012961186     0.011756            1 
 4164000   0.59317114   -8.5495213    647.03049  0.012948897  0.011751911            1 
 4165000   0.59422091   -8.5379285    647.06166  0.012946412  0.011747823            1 
 4166000   0.58999627   -8.5489823     647.7762  0.012957597  0.011743746            2 
 4167000   0.58392537   -8.5299491    647.19053  0.012942775  0.011739664            3 
 4168000   0.58928478   -8.5444782    647.80235  0.012951902  0.011735584            2 
 4169000   0.58913544   -8.5534417    646.92177  0.012931194  0.011731504            1 
 4170000   0.58485013   -8.5364164    646.14965  0.012912663  0.011727417            2 
 4171000   0.58086786   -8.5502831    646.31972  0.012912965   0.01172334            1 
 4172000   0.58539008   -8.5515866     645.6215  0.012895923  0.011719254            2 
 4173000   0.58470994    -8.529851    646.95883  0.012919539  0.011715173            2 
 4174000   0.58774836   -8.5447819    645.96021  0.012896506  0.011711098            2 
 4175000   0.58764436   -8.5294432    646.49045  0.012904001   0.01170703            1 
 4176000   0.58768188   -8.5428507    647.16724  0.012914416  0.011702959            1 
 4177000   0.58164531   -8.5376207    647.34826  0.012914936   0.01169889            6 
 4178000   0.56784457   -8.5393405    646.72765  0.012899467  0.011694823            3 
 4179000   0.59278331   -8.5626373    647.78082  0.012917381  0.011690755            1 
 4180000   0.58801768   -8.5220124    647.62786  0.012911241  0.011686685            3 
 4181000   0.58950066   -8.5395621    646.24849   0.01288066  0.011682625            3 
 4182000   0.59043018   -8.5534378    646.02174  0.012873062  0.011678564            2 
 4183000   0.58937372   -8.5528785    646.24289   0.01287439    0.0116745            1 
 4184000   0.58103786   -8.5365886    645.94591  0.012865398   0.01167044            3 
 4185000   0.57509601   -8.5656877    645.74013  0.012858226  0.011666378            3 
 4186000   0.56523258   -8.5292519    646.56898  0.012871655   0.01166232            2 
 4187000   0.58265187   -8.5533498    646.33681   0.01286396  0.011658263            3 
 4188000     0.572014   -8.5471157    645.99837  0.012854154  0.011654211            6 
 4189000   0.58724564   -8.5611269    645.55311  0.012842228  0.011650158            3 
 4190000    0.5886264   -8.5648277    646.52642  0.012858521  0.011646108            3 
 4191000   0.56937383   -8.5240054    646.70399  0.012858983  0.011642059            3 
 4192000   0.57565052    -8.536281    647.36744  0.012869105  0.011638021            1 
 4193000   0.58968606   -8.5504082    646.66029  0.012851981  0.011633982            1 
 4194000    0.5747622   -8.5452067    646.58083  0.012847338  0.011629946            4 
 4195000   0.59384997   -8.5298374    646.18639   0.01283644   0.01162591            2 
 4196000   0.57772838   -8.5638284    646.96204  0.012848785  0.011621872            2 
 4197000    0.5844458   -8.5347186    646.01371  0.012826894  0.011617836            4 
 4198000   0.56816922   -8.5622007      645.992  0.012823408    0.0116138            2 
 4199000   0.57529403    -8.551661    645.70893  0.012814736  0.011609767            6 
 4200000   0.56686533   -8.5620377    645.70745  0.012811656   0.01160573            2 
 4201000   0.57220291   -8.5590421    645.67668  0.012807996  0.011601695            3 
 4202000   0.57637368   -8.5367797    646.82178  0.012827657  0.011597663            2 
 4203000   0.58426277   -8.5454632    645.46997  0.012797803  0.011593631            2 
 4204000   0.57822232   -8.5519584    646.34382   0.01281208  0.011589601            4 
 4205000   0.58243509   -8.5300417    646.60993  0.012814307  0.011585579            2 
 4206000   0.57596528   -8.5393119    646.27082  0.012804542  0.011581555            2 
 4207000   0.57234249   -8.5683415    645.84379  0.012793039  0.011577528            1 
 4208000   0.57350221   -8.5823668    645.56213  0.012784421  0.011573504            2 
 4209000   0.58337763    -8.563169    645.55178  0.012781179  0.011569483            2 
 4210000   0.58517759   -8.5550616    646.23351  0.012791637  0.011565464            3 
 4211000   0.56918691   -8.5467591    645.94762  0.012782942  0.011561447            1 
 4212000   0.57830748   -8.5770318     645.6192  0.012773409  0.011557429            2 
 4213000   0.57880927    -8.555469    645.54203  0.012768851  0.011553412            4 
 4214000   0.58011644   -8.5574655    647.19158  0.012798441  0.011549391            2 
 4215000    0.5849037   -8.5385617    646.37973  0.012779354  0.011545376            2 
 4216000   0.57170612   -8.5413127    646.78864  0.012784405  0.011541367            4 
 4217000    0.5688326   -8.5711007    646.24799   0.01277069  0.011537357            5 
 4218000   0.59243446   -8.5669126    646.83926  0.012779344  0.011533348            2 
 4219000   0.57612816   -8.5587682    646.46255  0.012768874  0.011529345            2 
 4220000   0.57254632   -8.5628028    644.95038  0.012735987  0.011525345            3 
 4221000   0.56606321   -8.5601006    644.96168  0.012733193  0.011521342            3 
 4222000    0.5837516   -8.5709664     644.7934  0.012726855  0.011517343            1 
 4223000   0.57057365   -8.5412046    644.83698  0.012724702  0.011513343            3 
 4224000    0.5823177   -8.5607026    645.49966  0.012734763   0.01150934            3 
 4225000   0.56885839   -8.5492918    645.21744  0.012726182  0.011505345            4 
 4226000   0.58049952   -8.5591722    645.04635  0.012719797   0.01150135            2 
 4227000    0.5696142   -8.5699964    646.38345  0.012743148  0.011497358            3 
 4228000   0.58387903   -8.5672734     646.3244   0.01273897  0.011493365            4 
 4229000   0.58092405   -8.5530938    645.87066  0.012727017  0.011489372            4 
 4230000   0.58538673   -8.5400923    645.33909  0.012713536   0.01148538            1 
 4231000   0.57429649   -8.5530582    646.44194  0.012732253   0.01148139            2 
 4232000    0.5794675   -8.5550515    645.02938  0.012701429  0.011477405            4 
 4233000   0.58580545    -8.553783    646.23195  0.012722103  0.011473422            3 
 4234000   0.57627306   -8.5632895    645.76133  0.012709836  0.011469439            2 
 4235000   0.58868415   -8.5489366    646.90689  0.012729376  0.011465458            1 
 4236000   0.56450296    -8.558647     645.2887  0.012694537  0.011461478            2 
 4237000   0.57542512   -8.5639804    645.06542  0.012687149  0.011457497            3 
 4238000   0.57763816   -8.5531668    645.21354  0.012687068   0.01145351            3 
 4239000   0.57216102   -8.5541311    645.53794  0.012690453  0.011449533            2 
 4240000   0.57248724   -8.5719981    646.22301  0.012700924  0.011445557            4 
 4241000   0.57759636   -8.5520404     645.6409  0.012686491   0.01144158            2 
 4242000   0.59060704    -8.563584    646.16085  0.012693715  0.011437608            2 
 4243000   0.57446751   -8.5497349    645.79339  0.012683506  0.011433638            3 
 4244000   0.56655259   -8.5480115     646.2346  0.012689181  0.011429671            2 
 4245000   0.58197623   -8.5824201     644.3352  0.012648905  0.011425711            2 
 4246000   0.57003395   -8.5400059    646.05578  0.012679694  0.011421747            3 
 4247000   0.56469666   -8.5320578     645.5478  0.012666741  0.011417783            3 
 4248000   0.57405072   -8.5508449    645.25124  0.012657942  0.011413821            2 
 4249000    0.5660705   -8.5703597    646.77273  0.012684803  0.011409863            4 
 4250000   0.56480156   -8.5755698    644.75255  0.012642207  0.011405904            4 
 4251000   0.57366252   -8.5682814    645.71261  0.012658053   0.01140195            3 
 4252000   0.56268069   -8.5590667    645.70545  0.012654936  0.011397996            3 
 4253000   0.57803822   -8.5721989    646.34252  0.012664443  0.011394042            4 
 4254000   0.55712959   -8.5609196    645.61545  0.012647223  0.011390086            2 
 4255000   0.57368828   -8.5723807    644.47571  0.012621929  0.011386128            2 
 4256000    0.5639315   -8.5494966     645.7707   0.01264432  0.011382177            3 
 4257000   0.55475189   -8.5576182    644.91981  0.012624693  0.011378225            2 
 4258000   0.57386233   -8.5740792    645.74047  0.012637789  0.011374278            1 
 4259000   0.56180484   -8.5621106    645.19965   0.01262424   0.01137033            2 
 4260000   0.56300223   -8.5667803    645.51823  0.012627508  0.011366381            2 
 4261000   0.56034812   -8.5553998    645.19524  0.012618228  0.011362437            3 
 4262000   0.57892004   -8.5599347    645.09446  0.012613297  0.011358493            2 
 4263000   0.55760027   -8.5830444    645.36382  0.012615604  0.011354549            3 
 4264000   0.56669262   -8.5713093    644.94464  0.012604453  0.011350606            2 
 4265000   0.58382307   -8.5786641    646.27455  0.012627482  0.011346664            1 
 4266000   0.57309826   -8.5768679    645.82522  0.012615745  0.011342728            2 
 4267000   0.56068024   -8.5673655    645.01943  0.012597052  0.011338793            2 
 4268000   0.56183486   -8.5828977    645.74086  0.012608186  0.011334858            3 
 4269000   0.56099162   -8.5749787     644.6991  0.012584897  0.011330923            2 
 4270000   0.56782819   -8.5617912    645.81154   0.01260366  0.011326992            3 
 4271000   0.55743472   -8.5608583    645.89126  0.012602264  0.011323063            2 
 4272000   0.56848969   -8.5716629    645.25466  0.012586896  0.011319135            4 
 4273000   0.56936487   -8.5772057    644.93982  0.012577811  0.011315217            2 
 4274000   0.56000416   -8.5589469    645.36529  0.012583164  0.011311294            5 
 4275000   0.56949815   -8.5595969    643.99642  0.012553536  0.011307371            2 
 4276000   0.57436457   -8.5690788    644.21171  0.012554796  0.011303447            3 
 4277000   0.57330082   -8.5636059    645.69774  0.012580815  0.011299527            2 
 4278000   0.56629488   -8.5819512    645.53594  0.012574722  0.011295609            3 
 4279000   0.55805828   -8.5817875     644.6652  0.012554826   0.01129169            3 
 4280000   0.56075011   -8.5562162    645.79362  0.012573863  0.011287778            2 
 4281000   0.55885278   -8.5787582    645.81732  0.012571388  0.011283867            5 
 4282000   0.55576072   -8.5773693    645.56953  0.012563629  0.011279955            3 
 4283000   0.55154205   -8.5814486    646.02224  0.012569504  0.011276043            2 
 4284000   0.57314311   -8.5616656      645.171  0.012550012  0.011272138            4 
 4285000   0.56682239   -8.5677489    644.38972  0.012531889  0.011268224            3 
 4286000   0.57295745   -8.5789363    645.22804  0.012545264  0.011264311            2 
 4287000     0.575497   -8.5750883     646.0668  0.012558642   0.01126041            6 
 4288000   0.56280095   -8.5854829    644.78903  0.012530881  0.011256501            2 
 4289000   0.55303324   -8.5832937    644.59499   0.01252419  0.011252593            1 
 4290000   0.55897969   -8.5707091    646.79539  0.012564013  0.011248691            2 
 4291000   0.57691419   -8.5628788    645.62514  0.012538358  0.011244792            3 
 4292000   0.57901501   -8.5707573    646.05358  0.012543755  0.011240895            6 
 4293000   0.56433863   -8.5723456    644.45578  0.012509818  0.011236999            1 
 4294000   0.56313552   -8.5802025    644.68138  0.012511283  0.011233103            4 
 4295000   0.55819728   -8.5859876    645.02662  0.012515068  0.011229214            2 
 4296000   0.56324758   -8.5715494    645.48729  0.012521091  0.011225324            5 
 4297000   0.55720071   -8.5707592        645.7  0.012522302  0.011221441            3 
 4298000   0.56241493   -8.5846223     644.5385  0.012496869  0.011217557            3 
 4299000   0.55053107    -8.584418    645.78777  0.012518178  0.011213673            4 
 4300000   0.54789878   -8.5685481    646.03905  0.012520137  0.011209785            2 
 4301000    0.5725706   -8.5763733    645.93772  0.012515262  0.011205899            3 
 4302000   0.56453365   -8.5951825    644.81686  0.012490641  0.011202016            1 
 4303000   0.56233747   -8.5819756     644.6249  0.012484021  0.011198137            7 
 4304000   0.56300052   -8.5916215    644.24927  0.012473847  0.011194258            3 
 4305000   0.56607307   -8.5688698    645.03692  0.012486197  0.011190382            2 
 4306000   0.56588553   -8.5708948     645.7491   0.01249708  0.011186508            2 
 4307000   0.57201504   -8.6060641    645.14902  0.012482568  0.011182631            2 
 4308000    0.5543622   -8.5788105    644.75657  0.012472079  0.011178757            1 
 4309000   0.57058387   -8.5731292    644.57749  0.012465721  0.011174885            6 
 4310000    0.5584417   -8.5667439     644.5146  0.012461613  0.011171018            6 
 4311000   0.57121533   -8.5882321    645.41137  0.012476057  0.011167154            2 
 4312000   0.56257784   -8.5810916    644.25378  0.012450792  0.011163295            1 
 4313000    0.5619331   -8.5639874    644.34979   0.01244976  0.011159435            3 
 4314000   0.56135588    -8.595885    644.52168  0.012450195  0.011155576            3 
 4315000   0.56198924   -8.5821959    644.29787  0.012442987  0.011151717            2 
 4316000   0.57252204   -8.5826464    644.12793  0.012436823  0.011147863            2 
 4317000   0.55013475   -8.5888295    644.79788  0.012446874  0.011144005            4 
 4318000   0.55514111   -8.5721127    644.56574  0.012439512  0.011140152            1 
 4319000    0.5591141   -8.5927566    645.03858  0.012445755  0.011136299            2 
 4320000   0.56104668   -8.5891684    643.68394  0.012416743  0.011132447            4 
 4321000   0.55654922   -8.5927622    645.44491  0.012447831  0.011128593            2 
 4322000   0.55010753   -8.5960504    644.62899  0.012429219  0.011124747            2 
 4323000   0.55697241   -8.5831786    645.19127  0.012437182  0.011120899            3 
 4324000   0.55078004   -8.5821204    645.74332  0.012444945  0.011117056            1 
 4325000   0.57439644   -8.5781209    644.99873  0.012427721  0.011113209            2 
 4326000   0.56088568   -8.5785513    645.08475  0.012426505   0.01110937            3 
 4327000   0.55909251   -8.5756442    645.26929  0.012427188  0.011105534            2 
 4328000   0.55082229   -8.5853316    645.27157   0.01242436    0.0111017            2 
 4329000   0.56024108   -8.5867865    644.70145  0.012410515  0.011097868            1 
 4330000   0.56844408   -8.5906518    645.40795  0.012421246  0.011094034            2 
 4331000    0.5602321   -8.5796963    645.80323  0.012425984  0.011090202            3 
 4332000   0.54775991    -8.599839    644.38933  0.012395917  0.011086369            2 
 4333000   0.57865714   -8.5960206      644.761  0.012400204  0.011082538            2 
 4334000   0.55204183   -8.5755299     644.4822  0.012391982  0.011078709            3 
 4335000    0.5674073   -8.5863252    644.96274  0.012398361  0.011074885            2 
 4336000   0.54910859   -8.5943181    645.71873  0.012410031  0.011071055            1 
 4337000   0.56783358   -8.5875007    645.44023  0.012401818  0.011067229            2 
 4338000   0.56164263   -8.5970103    645.64987  0.012402987  0.011063405            3 
 4339000   0.55968554   -8.5774044    644.63428  0.012380623   0.01105958            2 
 4340000    0.5610565   -8.6022475    644.14253  0.012368328  0.011055756            5 
 4341000   0.54591929   -8.5922879    645.27946  0.012387304  0.011051934            2 
 4342000   0.54225454   -8.5868099    644.39771  0.012367529  0.011048116            1 
 4343000   0.54470474     -8.60961    644.65015  0.012369525    0.0110443            1 
 4344000   0.56361493   -8.6002158    645.94654  0.012391547  0.011040479            2 
 4345000   0.55636319   -8.6051727    644.71461  0.012365067  0.011036669            3 
 4346000   0.54869961    -8.580289    644.18747  0.012352114  0.011032856            2 
 4347000   0.56282946   -8.5810965    644.51291  0.012355512  0.011029048            2 
 4348000   0.55863694   -8.5948199    645.28328  0.012367435  0.011025245            2 
 4349000   0.56243026   -8.5900842    645.51551  0.012369041  0.011021441            2 
 4350000   0.54314984   -8.5822622    645.74617  0.012370616  0.011017636            3 
 4351000    0.5708998   -8.5669177    645.33353   0.01235987  0.011013839            1 
 4352000   0.55230403   -8.5846764    645.04821  0.012351567   0.01101004            3 
 4353000   0.55304346   -8.6045933    645.06614  0.012349072   0.01100624            2 
 4354000   0.55809195   -8.5977783    643.89676  0.012323855  0.011002434            1 
 4355000   0.55352633   -8.5855611    643.58113  0.012314985  0.010998637            2 
 4356000   0.55842818   -8.6061074    644.37248  0.012327297  0.010994839            5 
 4357000    0.5561327   -8.5837904     643.1936   0.01230192  0.010991043            2 
 4358000   0.54503042   -8.5887863    644.49623  0.012324006  0.010987245            2 
 4359000   0.54830807   -8.5961733    644.52225  0.012321676  0.010983449            1 
 4360000   0.55728141   -8.5911331    644.55508  0.012319478  0.010979652            2 
 4361000   0.55500628   -8.6196195     643.5957   0.01229832  0.010975855            1 
 4362000   0.55360511   -8.6153932    643.88507  0.012301029  0.010972064            4 
 4363000   0.55962649   -8.5974972    644.10438  0.012302399  0.010968272            5 
 4364000   0.55773152   -8.6024181    644.24511  0.012302267  0.010964484            2 
 4365000   0.54545813   -8.6046914    643.71097  0.012289251  0.010960696            5 
 4366000   0.54287581   -8.6049928    643.30555  0.012278698  0.010956907            2 
 4367000   0.56213943   -8.5829441    645.29382  0.012313828  0.010953121            1 
 4368000   0.56849258    -8.636412    644.28756  0.012291811  0.010949339            3 
 4369000   0.54517228   -8.5914761    644.92556  0.012301167  0.010945555            2 
 4370000   0.54904344   -8.6026686    645.26002   0.01230473  0.010941774            5 
 4371000    0.5494394   -8.5850945    645.08835  0.012298642  0.010937997            2 
 4372000   0.55553206   -8.5915817      644.396  0.012282632   0.01093422            1 
 4373000   0.54288152   -8.6140035    644.17562  0.012275623  0.010930444            1 
 4374000   0.54874708   -8.5795767    644.33273   0.01227581   0.01092667            2 
 4375000   0.54281099   -8.6112507    644.76843  0.012281303  0.010922897            3 
 4376000   0.54898273   -8.6078972    645.05533   0.01228396  0.010919126            2 
 4377000   0.55391429   -8.6023784    644.27281  0.012266256  0.010915358            1 
 4378000   0.55243858   -8.6121243    645.35776  0.012284105  0.010911593            1 
 4379000   0.54989142   -8.6032163    644.91565  0.012272887  0.010907825            1 
 4380000   0.55052605    -8.622305    644.81241   0.01226812  0.010904063            2 
 4381000   0.55733213   -8.5950573    644.46062  0.012258629  0.010900303            4 
 4382000   0.56805544   -8.6054466     645.2878  0.012271562  0.010896545            1 
 4383000   0.56361292    -8.604788    644.23491  0.012248743  0.010892792            1 
 4384000   0.53613105   -8.5777621    643.49547  0.012231894  0.010889032            2 
 4385000   0.55412984   -8.6147415    644.63587  0.012250777  0.010885278            1 
 4386000   0.55072939   -8.6172461     644.8844  0.012252706  0.010881523            2 
 4387000   0.54992291   -8.5875633    643.01118   0.01221433  0.010877771            1 
 4388000    0.5434133   -8.5993927    644.40884  0.012238089  0.010874025            4 
 4389000   0.56163499   -8.6082014    643.62095  0.012220342  0.010870277            1 
 4390000   0.54285006    -8.592282     644.4153  0.012232637  0.010866529            4 
 4391000    0.5575978    -8.595127    644.19243  0.012225621  0.010862789            1 
 4392000   0.55788483   -8.5993536    644.40797  0.012226927  0.010859048            3 
 4393000   0.54185894   -8.5970599    644.26954  0.012221518  0.010855309            4 
 4394000   0.54275623   -8.6241463     644.1823  0.012217082  0.010851571            3 
 4395000    0.5488821   -8.6187982    643.05427  0.012192914   0.01084783            2 
 4396000   0.55828284   -8.6090612    643.52183  0.012199003  0.010844091            1 
 4397000   0.54704051   -8.6151656    643.80144  0.012201528  0.010840358            1 
 4398000   0.55141311   -8.5942461    644.12267  0.012204841  0.010836622            4 
 4399000   0.53972453   -8.6147514    644.02283  0.012200175   0.01083289            2 
 4400000   0.55496549    -8.608439    645.27084  0.012221039  0.010829159            2 
 4401000   0.54595178   -8.6228243    643.76842  0.012189813  0.010825426            1 
 4402000   0.54379769   -8.6078138    644.39709  0.012198945  0.010821698            1 
 4403000   0.57164984   -8.6077955    644.52094  0.012198519  0.010817974            2 
 4404000   0.54779888   -8.6094584    643.58316  0.012178004   0.01081425            1 
 4405000   0.56210485   -8.6181189    645.31945  0.012208086  0.010810526            2 
 4406000   0.55088556   -8.6195963    643.95003  0.012179415  0.010806806            2 
 4407000   0.54129811   -8.6136365    643.51143  0.012168358  0.010803081            1 
 4408000   0.53855831   -8.6313511     645.1108  0.012195833  0.010799363            2 
 4409000   0.55346645   -8.6062167    643.39032  0.012160549  0.010795645            1 
 4410000   0.54660588   -8.5903203    643.93498  0.012168083  0.010791927            1 
 4411000   0.54185437   -8.5870471    643.22067   0.01215183  0.010788209            1 
 4412000   0.55473982   -8.6246535    644.15379  0.012166701  0.010784494            1 
 4413000   0.54299767   -8.6326882    644.85366  0.012177159   0.01078078            2 
 4414000   0.54546005   -8.6186937    643.44985  0.012147898  0.010777066            2 
 4415000   0.54618427   -8.6145297    643.65097  0.012148942   0.01077336            1 
 4416000   0.54581722   -8.6083249    645.17458  0.012174943  0.010769651            1 
 4417000   0.53443183    -8.593713    644.67781  0.012162814  0.010765942            1 
 4418000   0.55116882   -8.6124887    644.48625  0.012156448  0.010762241            1 
 4419000   0.53226085   -8.6236295     644.0308  0.012145108  0.010758539            2 
 4420000   0.54587129   -8.5982785    644.76144  0.012156136  0.010754837            1 
 4421000     0.555633   -8.6050939    643.51342  0.012129862  0.010751136            1 
 4422000   0.54334631   -8.6010951    643.98161  0.012135942  0.010747438            1 
 4423000   0.54949409   -8.6208741    644.30357  0.012139264  0.010743736            1 
 4424000   0.54638686   -8.6217006    644.65852  0.012143206  0.010740046            1 
 4425000   0.53542125   -8.6150193    644.25627  0.012132886   0.01073635            2 
 4426000   0.54717568   -8.5988697    642.82056  0.012103113  0.010732658            3 
 4427000   0.54985667    -8.620244    644.28556  0.012127957  0.010728968            1 
 4428000   0.54460151   -8.6091838     644.8698  0.012136213  0.010725278            2 
 4429000   0.53584987   -8.6127754    642.85993  0.012095656  0.010721585            1 
 4430000   0.54571945    -8.612197    644.81928  0.012129783  0.010717899            1 
 4431000   0.53188967   -8.6341198    643.64146  0.012104895  0.010714211            2 
 4432000   0.54258401   -8.6091379    643.21293  0.012094106  0.010710527            2 
 4433000   0.55171383   -8.6147156     644.3165  0.012112123  0.010706847            1 
 4434000   0.54367864   -8.6120133    644.86511  0.012119702  0.010703166            2 
 4435000    0.5420272   -8.6254566    643.71413  0.012095343  0.010699488            2 
 4436000   0.54336228   -8.6203874    643.92386  0.012096556   0.01069581            2 
 4437000   0.54745174   -8.6113927     644.6725   0.01210789  0.010692135            3 
 4438000   0.53662917   -8.6140357    643.83043   0.01208935  0.010688462            3 
 4439000   0.55673712   -8.6320131    644.17864  0.012093164  0.010684788            4 
 4440000   0.53764776   -8.5925025    643.52818  0.012078232  0.010681114            1 
 4441000   0.53509047   -8.6132066    643.05067  0.012066552  0.010677444            4 
 4442000    0.5470297   -8.6210067    644.26538  0.012086623  0.010673776            2 
 4443000   0.55074598   -8.6242226    643.14362  0.012062863  0.010670109            2 
 4444000   0.54462244   -8.6113402    643.67169  0.012070051  0.010666447            3 
 4445000    0.5418613   -8.6062784    643.90249  0.012071663  0.010662785            4 
 4446000    0.5453835   -8.6081097    645.05019  0.012090459  0.010659122            2 
 4447000   0.53972328   -8.6174513    643.71728  0.012062763  0.010655464            1 
 4448000    0.5547286   -8.6165723    642.57413  0.012038634  0.010651805            2 
 4449000   0.53888815    -8.623385    644.18301  0.012066064  0.010648145            2 
 4450000   0.54832942   -8.6068458     644.5602  0.012070416  0.010644489            2 
 4451000   0.54736199   -8.6170007    644.98023  0.012075568  0.010640834            1 
 4452000   0.54331566   -8.6119642    643.62483  0.012047485  0.010637187            1 
 4453000   0.54729847   -8.6060862    643.27248  0.012038185  0.010633536            2 
 4454000   0.54338848    -8.638637    643.35366  0.012037002  0.010629885            1 
 4455000   0.54930094   -8.6221659    642.38264  0.012016136  0.010626236            3 
 4456000   0.53567517   -8.6386045    644.26037  0.012048556  0.010622586            2 
 4457000   0.54107869   -8.6098303    643.83266  0.012037855   0.01061894            3 
 4458000   0.53282929   -8.6479411    644.47699    0.0120472  0.010615294            6 
 4459000   0.53872229   -8.6236359    643.89975   0.01203371  0.010611648            2 
 4460000   0.53464655   -8.6185568    642.70877  0.012008759  0.010608002            1 
 4461000   0.54882823   -8.6157341    643.70796  0.012024732   0.01060436            3 
 4462000   0.52509317   -8.6216521    643.93449  0.012026268  0.010600723            4 
 4463000   0.54477012   -8.6111626    644.09092  0.012026494  0.010597083            2 
 4464000   0.54176319   -8.6470288    642.87597  0.012001119  0.010593445            6 
 4465000   0.52720027   -8.6205171    643.09881  0.012002591  0.010589809            3 
 4466000   0.54113261     -8.61029    642.91331  0.011996442  0.010586175            4 
 4467000   0.53554507   -8.6575397     643.7998  0.012010294  0.010582541            4 
 4468000   0.53132873   -8.6339382    643.93591  0.012010145  0.010578904            2 
 4469000   0.54216953   -8.6273024    643.10815  0.011992022  0.010575277            2 
 4470000   0.52767473   -8.6473295    643.08846  0.011988972  0.010571647            2 
 4471000   0.54157967   -8.6258988    644.28828  0.012008654  0.010568019            2 
 4472000   0.53847127    -8.629036    643.53071  0.011991851  0.010564396            2 
 4473000    0.5484403   -8.6377591    645.14854  0.012019311  0.010560771            3 
 4474000    0.5248571    -8.637681    644.11959  0.011997459  0.010557149            2 
 4475000   0.52005173   -8.6185579    643.72246  0.011987383  0.010553526            3 
 4476000   0.52817345   -8.6269779    644.31789   0.01199579  0.010549904            2 
 4477000   0.52376691   -8.6365634    644.70548  0.012000325  0.010546286            3 
 4478000   0.52864788   -8.6164296    643.33621  0.011972164  0.010542669            2 
 4479000   0.53332331    -8.627006     643.2336  0.011967582  0.010539059            3 
 4480000   0.52747802   -8.6332822    643.80803  0.011975596   0.01053545            1 
 4481000   0.53826999   -8.6402877    644.73271   0.01199012  0.010531837            2 
 4482000   0.51931347   -8.6271543    642.79553  0.011951427  0.010528229            1 
 4483000    0.5327444   -8.6285691    643.94463  0.011970121  0.010524623            2 
 4484000   0.54580816     -8.63806    642.66653  0.011943698  0.010521014            2 
 4485000   0.54081943   -8.6491778    643.04654  0.011948096  0.010517404            3 
 4486000   0.52242557   -8.6388429     644.2887  0.011968508  0.010513796            1 
 4487000   0.54046547   -8.6335647    642.99724  0.011941855   0.01051019            1 
 4488000   0.52717913   -8.6246059    642.82934  0.011936077  0.010506586            2 
 4489000   0.53993458   -8.6345667    643.26365   0.01194148  0.010502983            2 
 4490000   0.52817865   -8.6398708    642.39784  0.011922751   0.01049938            2 
 4491000   0.52507192   -8.6450893    643.84234    0.0119469   0.01049578            2 
 4492000   0.52550343   -8.6313902    643.52624  0.011938376  0.010492182            3 
 4493000   0.53600932   -8.6284317    642.72145  0.011920793  0.010488587            1 
 4494000   0.53302669    -8.653303     642.6601  0.011917002   0.01048499            1 
 4495000   0.52832536   -8.6310563    643.10186  0.011922541  0.010481393            3 
 4496000   0.54563047   -8.6501874     642.6179  0.011910919  0.010477799            1 
 4497000   0.52413858   -8.6498675    642.29898   0.01190236  0.010474208            2 
 4498000   0.52989469   -8.6451929    643.77553   0.01192707  0.010470615            3 
 4499000   0.52431018   -8.6451637    643.65268  0.011922143  0.010467026            1 
 4500000   0.53062445   -8.6447501    643.63639  0.011919192  0.010463437            1 
 4501000   0.54652769   -8.6399546    642.00019  0.011886251   0.01045985            4 
 4502000   0.52584596   -8.6360154    643.79689  0.011916868  0.010456263            2 
 4503000   0.53291429   -8.6497929    644.17745  0.011921265  0.010452681            2 
 4504000   0.53110071   -8.6547298     642.3949  0.011885637  0.010449101            3 
 4505000    0.5362403   -8.6423589    643.33133  0.011900321  0.010445517            2 
 4506000   0.53192468    -8.624083    643.95927  0.011909293  0.010441939            3 
 4507000   0.52176605   -8.6466554    642.70723    0.0118835  0.010438366            1 
 4508000   0.54135325   -8.6374262    642.85793   0.01188365  0.010434788            4 
 4509000   0.52985093   -8.6583568    642.21889  0.011869204  0.010431213            2 
 4510000   0.53818042   -8.6511887     643.1569  0.011883904  0.010427637            2 
 4511000   0.53330603   -8.6351245     643.7416  0.011892071  0.010424065            1 
 4512000   0.52410231   -8.6359319    643.62103  0.011887209  0.010420496            2 
 4513000   0.53551141   -8.6294157    643.28813  0.011878428  0.010416926            2 
 4514000   0.52995638   -8.6359923    643.44788  0.011878745  0.010413361            3 
 4515000   0.52240022   -8.6547174    642.05034   0.01185032  0.010409792            2 
 4516000   0.52502999   -8.6526347    642.25346  0.011851444  0.010406225            3 
 4517000   0.52595199   -8.6492308    642.27534  0.011849224  0.010402661            1 
 4518000   0.52905629   -8.6552429    642.89232  0.011857981  0.010399099            1 
 4519000     0.526547   -8.6471282    642.43139  0.011846857   0.01039554            2 
 4520000   0.52458145    -8.629972    643.41613  0.011862392   0.01039198            4 
 4521000   0.54599471    -8.640531    643.18111  0.011855436  0.010388422            2 
 4522000   0.52545221   -8.6265951    643.46754  0.011858093  0.010384869            2 
 4523000   0.52529197    -8.656974    642.98355  0.011846554  0.010381316            1 
 4524000    0.5315794   -8.6465536    643.71914  0.011857485  0.010377763            2 
 4525000   0.52619952   -8.6423279    644.11149   0.01186209  0.010374215            2 
 4526000   0.52594242   -8.6515292    642.29671  0.011826055  0.010370666            2 
 4527000   0.52829256   -8.6375703    643.24533  0.011840905  0.010367118            2 
 4528000   0.52920468   -8.6685602    642.77978  0.011829722  0.010363572            1 
 4529000   0.52774946   -8.6428869    642.28478  0.011818002  0.010360026            2 
 4530000   0.51059712   -8.6492693    642.48015  0.011818987  0.010356479            3 
 4531000   0.52818371   -8.6368791     642.4335  0.011815521  0.010352937            1 
 4532000   0.52377765   -8.6620664    643.92873  0.011840408  0.010349396            3 
 4533000   0.53676036    -8.656526     643.0142  0.011820983  0.010345856            2 
 4534000   0.52244643   -8.6363022    641.95107  0.011798836   0.01034232            2 
 4535000   0.53524361   -8.6319902    643.67656  0.011827941  0.010338788            2 
 4536000   0.53450049   -8.6434379    643.46246    0.0118214  0.010335254            1 
 4537000   0.52890079   -8.6345748    642.49367  0.011801001  0.010331721            6 
 4538000   0.51858224   -8.6644885    643.22574  0.011811843  0.010328188            3 
 4539000   0.51962444    -8.655227     643.6975  0.011817902  0.010324656            3 
 4540000   0.52323707   -8.6459904    642.38965  0.011791293  0.010321125            3 
 4541000   0.52207288   -8.6341795    643.80179  0.011814611  0.010317598            1 
 4542000   0.52584527   -8.6322201    643.22237  0.011801379  0.010314072            3 
 4543000   0.52711909   -8.6571475    642.37748  0.011783283  0.010310548            7 
 4544000   0.51585288   -8.6380722    643.55867  0.011802352  0.010307026            2 
 4545000   0.52539299   -8.6421041    643.01998  0.011789879  0.010303503            2 
 4546000    0.5220869   -8.6576763     643.1556  0.011789771  0.010299984            2 
 4547000   0.52139387   -8.6372429    642.71638  0.011779129  0.010296463            2 
 4548000    0.5270031   -8.6538234    642.59876  0.011774384  0.010292941            2 
 4549000   0.52165649    -8.644787    642.15232  0.011763617  0.010289422            2 
 4550000   0.51055644   -8.6533975     642.9132  0.011774967  0.010285909            3 
 4551000   0.53082438   -8.6497298      643.058  0.011775031  0.010282391            3 
 4552000   0.51036211   -8.6561128    642.71275  0.011766124  0.010278881            3 
 4553000   0.52832493   -8.6345054    643.56816  0.011779196  0.010275375            2 
 4554000   0.52330507   -8.6435727    642.08335  0.011749439  0.010271868            2 
 4555000   0.51060458   -8.6542381    642.63887  0.011757023  0.010268359            4 
 4556000   0.53765413   -8.6649362    642.71473   0.01175583   0.01026485            3 
 4557000   0.52321007    -8.655711    642.75777  0.011754037  0.010261345            3 
 4558000   0.53131647   -8.6881345    642.19029  0.011741083   0.01025784            2 
 4559000   0.52383281   -8.6686076    642.14218  0.011737628  0.010254336            2 
 4560000    0.5227094   -8.6567199    642.43818  0.011740464  0.010250835            3 
 4561000   0.51789763   -8.6360216    642.45076   0.01173812  0.010247338            2 
 4562000     0.515871   -8.6380249    642.93748  0.011744437  0.010243841            2 
 4563000   0.52850371   -8.6626784    642.51838   0.01173421  0.010240348            3 
 4564000   0.52961945    -8.665272    643.03492   0.01174107  0.010236856            4 
 4565000   0.52756499   -8.6474898    643.04914  0.011738758  0.010233366            3 
 4566000   0.52818276   -8.6503684    641.85534  0.011714399  0.010229873            3 
 4567000   0.51011422   -8.6603813    642.39866  0.011721748  0.010226381            2 
 4568000     0.527344   -8.6463915     641.9593  0.011711167  0.010222889            2 
 4569000   0.52586131   -8.6603629    642.30675   0.01171494    0.0102194            3 
 4570000   0.52548321   -8.6412628    643.35519  0.011731495  0.010215912            2 
 4571000   0.51221978   -8.6694465    643.18016  0.011725738  0.010212425            5 
 4572000   0.51851494   -8.6482365    640.84388   0.01168059  0.010208941            3 
 4573000   0.52583111   -8.6549746    643.02362  0.011717757  0.010205457            3 
 4574000   0.51740442   -8.6360994    643.13702  0.011717261  0.010201975            4 
 4575000   0.52906305   -8.6509296    642.75917  0.011707817  0.010198497            5 
 4576000   0.52145069   -8.6565472    642.38469  0.011698439  0.010195016            3 
 4577000   0.52384318   -8.6470747    642.95622  0.011706289  0.010191538            3 
 4578000   0.52594927   -8.6474039    642.48305  0.011695119  0.010188065            1 
 4579000   0.51079582   -8.6542881    642.27023  0.011688692   0.01018459            2 
 4580000   0.51502929   -8.6556187    642.49625  0.011690252  0.010181117            2 
 4581000   0.51434091   -8.6617247    641.66917  0.011672655  0.010177648            3 
 4582000   0.52506724   -8.6673721     641.9627  0.011675446  0.010174177            2 
 4583000   0.52407139   -8.6529193    643.67326  0.011704001   0.01017071            3 
 4584000   0.52463398   -8.6625602     642.2477  0.011675533  0.010167245            4 
 4585000   0.51780744   -8.6645602    641.74168  0.011663789  0.010163781            1 
 4586000    0.5247717    -8.664566    642.33003  0.011671937  0.010160316            2 
 4587000   0.52621184   -8.6629088    642.56404  0.011673644  0.010156855            4 
 4588000   0.51941548    -8.658168    642.35159   0.01166724  0.010153391            2 
 4589000   0.51671095   -8.6671778    642.55819   0.01166845  0.010149934            3 
 4590000   0.51631504   -8.6445631     643.9732  0.011691598  0.010146478            4 
 4591000   0.51851082   -8.6643841    642.65704  0.011665161  0.010143023            5 
 4592000   0.51944224   -8.6634833      642.099  0.011652494  0.010139568            1 
 4593000   0.51754654   -8.6565651    641.42067  0.011637649  0.010136118            3 
 4594000   0.51625157   -8.6619383    643.15253  0.011666531  0.010132667            2 
 4595000   0.52566565   -8.6684687    641.90369  0.011641344  0.010129218            3 
 4596000   0.52670665   -8.6718904    641.86754  0.011638155  0.010125769            2 
 4597000   0.52520407   -8.6622127    642.88627  0.011654091  0.010122328            2 
 4598000   0.52578306   -8.6621918    643.55952  0.011663758  0.010118885            4 
 4599000   0.51345837   -8.6686434    642.34684  0.011639248  0.010115443            5 
 4600000   0.51404691   -8.6551125    642.09361  0.011632131  0.010112003            4 
 4601000   0.51545712   -8.6595745    643.27578  0.011651014  0.010108565            3 
 4602000   0.52581095   -8.6650969    642.34584  0.011631643  0.010105128            6 
 4603000   0.51388961   -8.6629428    642.94686  0.011639997  0.010101695            2 
 4604000   0.51300264   -8.6631665    642.66799  0.011632421  0.010098258            3 
 4605000   0.52015317   -8.6637081    641.60063   0.01161058  0.010094823            4 
 4606000   0.51624934   -8.6528219    642.29306  0.011620587  0.010091385            4 
 4607000   0.51091892   -8.6552946    642.53095  0.011622367  0.010087952            2 
 4608000   0.52019287   -8.6565686     641.6333  0.011603611  0.010084518            2 
 4609000   0.51139329   -8.6628494    642.60968  0.011618747  0.010081092            1 
 4610000   0.51256354   -8.6721053     641.5901  0.011597797  0.010077666            4 
 4611000   0.50788979   -8.6661093    642.52649  0.011612204  0.010074239            3 
 4612000   0.51679827   -8.6684615    642.18855   0.01160358  0.010070813            1 
 4613000   0.52116843   -8.6547756    641.60056  0.011590443  0.010067391            2 
 4614000   0.52075296   -8.6620472    641.91878  0.011593678  0.010063968            4 
 4615000   0.50815157    -8.677363    643.16078  0.011613593  0.010060546            2 
 4616000    0.5120663   -8.6654207    642.32965  0.011596073  0.010057124            3 
 4617000   0.50828737   -8.6962666     641.9447  0.011586613  0.010053702            3 
 4618000   0.51836186   -8.6678257    642.98028  0.011602791  0.010050284            4 
 4619000   0.50981342   -8.6568489    642.52284  0.011592026  0.010046866            4 
 4620000   0.51831431   -8.6587625    642.40052  0.011587311  0.010043454            4 
 4621000   0.50113947   -8.6742259    642.29467  0.011582894  0.010040039            7 
 4622000   0.51012855   -8.6700359    642.65066  0.011586807  0.010036627            4 
 4623000   0.51290564    -8.663702    641.91064  0.011570961  0.010033218            2 
 4624000   0.51385036   -8.6696949    642.50005  0.011579081  0.010029806            1 
 4625000   0.50210119   -8.6922532    641.77926   0.01156359  0.010026395            2 
 4626000    0.5064233   -8.6671064      642.725  0.011578127  0.010022988            4 
 4627000   0.51425894   -8.6777518    641.08804  0.011546143  0.010019581            5 
 4628000   0.50652031    -8.650934     641.7688  0.011555906  0.010016175            4 
 4629000    0.5054446   -8.6560113    642.80305  0.011572029  0.010012775            2 
 4630000   0.50490578   -8.6576982    642.47988  0.011563713  0.010009375            3 
 4631000   0.50752103   -8.6826095    641.99803  0.011552545  0.010005977            4 
 4632000   0.49606489     -8.67486    642.26263  0.011554811  0.010002579            2 
 4633000   0.51270276    -8.676974     642.9745  0.011565122 0.0099991831            2 
 4634000   0.50071257   -8.6839378     641.9589  0.011544362 0.0099957868            1 
 4635000   0.51126115   -8.6671816    641.67573   0.01153678 0.0099923942            4 
 4636000   0.50920647   -8.6757824    641.57495   0.01153248 0.0099890034            3 
 4637000   0.51889118   -8.6801497    642.23874  0.011541923 0.0099856113            1 
 4638000   0.51264319    -8.680566    642.20009   0.01153874 0.0099822182            3 
 4639000   0.51118353   -8.6675839    641.71764  0.011527586  0.009978829            2 
 4640000   0.51341833   -8.6758089    642.08449   0.01153169 0.0099754426            2 
 4641000   0.49663902   -8.6972328    642.67098  0.011539736 0.0099720556            2 
 4642000    0.5208509   -8.6745663    643.17558  0.011546309 0.0099686706            3 
 4643000   0.50475171   -8.6833037     641.5541  0.011514719  0.009965287            4 
 4644000    0.5086525   -8.6678985    642.19185  0.011523684 0.0099619058            4 
 4645000   0.51230071   -8.6669893    642.02775  0.011518259 0.0099585245            1 
 4646000   0.51135596    -8.679531    641.68296  0.011509595 0.0099551487            2 
 4647000   0.50553229   -8.6766345    642.73896  0.011526056   0.00995177            3 
 4648000   0.50724243   -8.6769293    641.93179  0.011509104 0.0099483942            3 
 4649000   0.50867512   -8.6647678    642.12175  0.011510034 0.0099450195            3 
 4650000   0.50891413   -8.6895845    642.13823  0.011507854  0.009941645            2 
 4651000   0.51119031   -8.6806011     641.4892   0.01149375 0.0099382741            3 
 4652000   0.50703072   -8.6812517    641.78887  0.011496648 0.0099349076            2 
 4653000   0.50908054   -8.6791524    642.57885  0.011508325 0.0099315397            5 
 4654000   0.50789976   -8.6826508      642.271   0.01150034 0.0099281752            4 
 4655000   0.50880699   -8.6629341    641.79188  0.011489292   0.00992481            2 
 4656000   0.51472017   -8.6812142    642.01978  0.011490904 0.0099214469            4 
 4657000   0.51002758   -8.6775077    642.24767  0.011492514 0.0099180841            4 
 4658000   0.51027973   -8.6874525    642.20456  0.011489276 0.0099147274            2 
 4659000   0.49274803   -8.6931047    642.83522   0.01149809 0.0099113662            1 
 4660000   0.52219594   -8.6653913    641.41857  0.011470289 0.0099080073            3 
 4661000   0.51050804   -8.6553038    642.85928  0.011493586 0.0099046518            5 
 4662000   0.50571345   -8.6856549    641.16717  0.011460875  0.009901299            6 
 4663000   0.51863877   -8.6780435    642.14549  0.011475901 0.0098979436            3 
 4664000   0.50697559   -8.6715089    642.14645  0.011473457  0.009894591            2 
 4665000   0.49952567   -8.6867877    642.26512  0.011473118 0.0098912377            3 
 4666000   0.51239325   -8.6913133    641.73719   0.01146123 0.0098878885            2 
 4667000   0.50110268   -8.6743404    642.03272  0.011464051 0.0098845345            6 
 4668000   0.50116343   -8.6807103    642.17767  0.011464183 0.0098811873            4 
 4669000   0.50409617   -8.6677197    641.09007  0.011442316 0.0098778422            4 
 4670000   0.51010129   -8.6995391    641.58882  0.011448765 0.0098744975            2 
 4671000   0.50285664   -8.6703119    642.00108  0.011453669 0.0098711548            2 
 4672000   0.50570811   -8.6732359    641.93548  0.011450048 0.0098678163            3 
 4673000   0.49905727   -8.6943484    641.67804  0.011443007 0.0098644761            4 
 4674000   0.50342148   -8.6758106    642.52107  0.011455589 0.0098611366            2 
 4675000   0.50337169   -8.6815707    642.18895  0.011447218 0.0098578032            3 
 4676000   0.49766843   -8.6798547    641.37693  0.011430299 0.0098544685            2 
 4677000   0.49876261   -8.6915879    640.56396   0.01141337 0.0098511341            1 
 4678000   0.49472543   -8.6889323    641.56659  0.011428791 0.0098478011            3 
 4679000   0.51023989   -8.6726158    640.66254  0.011410247 0.0098444706            3 
 4680000   0.50007661   -8.6909343     641.3185  0.011419489 0.0098411424            3 
 4681000   0.50209058   -8.6755812    641.34916  0.011417595 0.0098378141            2 
 4682000   0.50238367   -8.6935447    641.26203  0.011413606 0.0098344883            2 
 4683000   0.50867338   -8.7069464    642.01753  0.011424613 0.0098311599            4 
 4684000   0.50255335   -8.6982465    640.92171  0.011402678 0.0098278347            4 
 4685000   0.50398907    -8.682369    641.40207  0.011408788 0.0098245121            3 
 4686000   0.50073727   -8.6754413    643.37089  0.011441366 0.0098211905            2 
 4687000   0.49536197    -8.678203    642.43273  0.011422245 0.0098178722            3 
 4688000   0.49614314   -8.6651174    642.27922  0.011417079 0.0098145569            2 
 4689000    0.4920644   -8.6911347    641.80453  0.011406208 0.0098112412            2 
 4690000   0.49711283   -8.6678412    642.07669  0.011408612 0.0098079257            5 
 4691000   0.50909234   -8.6886345    641.59603  0.011397641 0.0098046102            4 
 4692000    0.5050617   -8.6797097    642.13438  0.011404774 0.0098012968            4 
 4693000   0.49500386   -8.6864025    640.40388  0.011371615 0.0097979854            2 
 4694000   0.50344627   -8.6897037    643.10097  0.011417075 0.0097946767            3 
 4695000   0.50175504   -8.6824306    641.12322  0.011379539 0.0097913664            1 
 4696000    0.5100791   -8.6548211    641.87003  0.011390368 0.0097880609            3 
 4697000   0.50177534   -8.6932312    642.70299  0.011402721 0.0097847572            2 
 4698000   0.51602936   -8.6898381    642.37462   0.01139447 0.0097814549            3 
 4699000   0.49527419   -8.7009564    642.28236  0.011390409 0.0097781529            2 
 4700000    0.4974466   -8.6903102    641.82866  0.011379941 0.0097748511            3 
 4701000   0.50119979   -8.6863132    641.15201  0.011365525  0.009771551            1 
 4702000   0.49043505   -8.6866514    641.35076   0.01136663 0.0097682515            1 
 4703000   0.50018209   -8.6826891    641.49106    0.0113667 0.0097649531            4 
 4704000   0.50812372   -8.6968728    642.23405  0.011377446 0.0097616575            4 
 4705000   0.50440034   -8.6765599    641.94682   0.01136994 0.0097583643            1 
 4706000   0.50801214   -8.6876139    639.87813  0.011330892 0.0097550685            2 
 4707000   0.50694345    -8.698641    641.40139  0.011355453 0.0097517747            2 
 4708000   0.48810198   -8.7035049    642.18603  0.011366929 0.0097484855            1 
 4709000   0.50323611   -8.6902293    641.72841  0.011356417 0.0097451951            5 
 4710000    0.5116695   -8.7069927    641.10646  0.011343002 0.0097419056            4 
 4711000    0.4798868    -8.691098    640.79624  0.011335107 0.0097386177            1 
 4712000   0.50047954   -8.6930229    641.45468  0.011344346 0.0097353318            1 
 4713000   0.50916202   -8.6749948    641.29542  0.011339123 0.0097320477            1 
 4714000   0.48735235   -8.6850839     641.6748  0.011343424 0.0097287642            1 
 4715000   0.50129981   -8.6904603    643.00594  0.011364545 0.0097254824            3 
 4716000   0.49250527   -8.6999348    641.28685  0.011331758 0.0097222023            2 
 4717000   0.50124114   -8.7036461    641.93057  0.011340728 0.0097189225            2 
 4718000   0.48540665   -8.6860122    640.89719  0.011320072 0.0097156452            5 
 4719000   0.49808127   -8.7005169     641.1467  0.011322079 0.0097123682            3 
 4720000   0.49832948   -8.7152721    641.07233  0.011318367 0.0097090939            2 
 4721000   0.49893567   -8.6837249    641.66263   0.01132639 0.0097058194            3 
 4722000   0.49540404   -8.6929101    641.81922  0.011326755 0.0097025478            3 
 4723000   0.49228053   -8.7007294     641.9791  0.011327177 0.0096992765            2 
 4724000   0.50580077   -8.6793347    641.14149  0.011310004 0.0096960101            5 
 4725000   0.49021749   -8.7031298     642.4046  0.011329887  0.009692745            4 
 4726000   0.49490715   -8.7024761    641.85162  0.011317739 0.0096894807            6 
 4727000    0.4906772   -8.6946576    641.22539  0.011304305 0.0096862158            3 
 4728000   0.49425698    -8.692658    641.77795  0.011311653 0.0096829519            2 
 4729000   0.49601967   -8.6868256    641.89755  0.011311369 0.0096796936            6 
 4730000    0.4975404   -8.6858792    642.13617  0.011313181 0.0096764348            5 
 4731000   0.50528979   -8.7017816     640.8142  0.011287504 0.0096731788            1 
 4732000   0.49623563   -8.7066935    641.58546  0.011298701  0.009669921            1 
 4733000   0.48800169   -8.6768807    641.10926   0.01128793 0.0096666669            3 
 4734000   0.48745166    -8.703334     641.3469  0.011289729 0.0096634116            3 
 4735000   0.49409619   -8.7076164    641.72918  0.011294072 0.0096601581            2 
 4736000   0.48336523   -8.6954114    642.14994  0.011299091 0.0096569083            2 
 4737000   0.48796981   -8.6910124    641.64226  0.011287775 0.0096536545            3 
 4738000    0.4959297   -8.6765855     641.8638  0.011289289 0.0096504084            3 
 4739000   0.50171757    -8.701153     641.6475  0.011283103 0.0096471603            3 
 4740000   0.49778002   -8.6867155       641.06  0.011270394 0.0096439122            4 
 4741000   0.48881995    -8.690219    640.70613  0.011261796 0.0096406636            2 
 4742000   0.49642024   -8.7038883    640.87089  0.011262317 0.0096374211            3 
 4743000   0.48334359   -8.7028253    641.05427  0.011263164 0.0096341779            3 
 4744000   0.49220889   -8.7019242    641.40767  0.011266998 0.0096309317            6 
 4745000   0.48861644   -8.6945637    642.03087  0.011275568 0.0096276907            4 
 4746000   0.49150527   -8.7152839    642.32381  0.011278336 0.0096244522            2 
 4747000   0.49918302   -8.7011822    641.82179  0.011267148 0.0096212159            3 
 4748000   0.50795197   -8.7001034    641.36325  0.011256727 0.0096179798            1 
 4749000   0.49698506   -8.6828926    641.20274   0.01125154 0.0096147468            2 
 4750000    0.4980631   -8.7041459    641.55457  0.011255343 0.0096115157            2 
 4751000   0.48313849   -8.6977138    640.83259  0.011240311 0.0096082856            4 
 4752000   0.50303777   -8.7020414    641.64344  0.011252165 0.0096050541            4 
 4753000   0.48126228   -8.6881735    641.97459  0.011255603 0.0096018251            1 
 4754000   0.49448167   -8.6908053    641.99497  0.011253593 0.0095985992            1 
 4755000   0.49575374   -8.6855115    640.19542  0.011219688 0.0095953728            2 
 4756000   0.49689066   -8.7120216     641.3299  0.011237207  0.009592147            2 
 4757000   0.48769236   -8.7046193    641.23828   0.01123324 0.0095889222            3 
 4758000   0.48720138   -8.6953421    641.71744  0.011239271 0.0095856977            2 
 4759000   0.48588058   -8.7010532    641.26264  0.011228946 0.0095824741            2 
 4760000   0.47803131   -8.7224985    640.82142  0.011218862 0.0095792522            3 
 4761000   0.49913807   -8.7008453    641.04187  0.011220365 0.0095760299            4 
 4762000   0.50198652   -8.7076809    641.26574  0.011221926 0.0095728082            3 
 4763000   0.48757997   -8.7281507    640.66648  0.011209085 0.0095695881            6 
 4764000   0.48129211   -8.7053721    640.38963   0.01120189 0.0095663704            3 
 4765000   0.47718359   -8.7052341    640.83513   0.01120733 0.0095631562            5 
 4766000   0.48480802   -8.7102057     642.2007  0.011228856 0.0095599399            4 
 4767000   0.48930198   -8.7083537    640.95681  0.011204755 0.0095567274            3 
 4768000   0.47863612   -8.7085524    640.43897  0.011193354 0.0095535118            4 
 4769000   0.49746641   -8.7043062    639.61644  0.011176635 0.0095502985            4 
 4770000   0.47597311   -8.7115666    640.91433  0.011196966 0.0095470888            7 
 4771000   0.49515249   -8.7135794    640.79565  0.011192546 0.0095438796            3 
 4772000   0.48530217   -8.7223538     640.8582  0.011191293 0.0095406709            5 
 4773000   0.49210328   -8.6974541    640.56072  0.011183755 0.0095374666            4 
 4774000   0.49223366   -8.7007904    641.43035  0.011196592 0.0095342625            4 
 4775000    0.4863435    -8.696088    640.17002  0.011172252 0.0095310606            4 
 4776000   0.48356548   -8.6971442    641.10175   0.01118617 0.0095278601            6 
 4777000   0.48352653   -8.6978153    641.29494  0.011187198 0.0095246603            4 
 4778000    0.4857445   -8.7196352    640.97281  0.011179238 0.0095214614            2 
 4779000   0.49491024   -8.7159251    640.97611  0.011176957 0.0095182646            4 
 4780000   0.47626177   -8.7022779    641.00507  0.011175123 0.0095150711            3 
 4781000   0.49271241   -8.7231621    640.30412  0.011160568 0.0095118772            2 
 4782000   0.47933012   -8.7161222    642.54075  0.011197211 0.0095086854            3 
 4783000   0.48592965   -8.7154724    640.90144  0.011166309 0.0095054935            2 
 4784000   0.48464805    -8.707517    641.11126  0.011167629  0.009502303            5 
 4785000   0.48676542    -8.712269    641.17979  0.011166489 0.0094991158            3 
 4786000   0.47925223   -8.7052873    641.31844   0.01116657   0.00949593            2 
 4787000   0.49048553   -8.7171043    641.50545  0.011167493 0.0094927436            2 
 4788000   0.48272911   -8.7140708     640.5996  0.011149394 0.0094895594            2 
 4789000   0.48510488   -8.7085526    640.98556  0.011153782 0.0094863762            3 
 4790000   0.48921091   -8.7030303    641.00491   0.01115179 0.0094831921            3 
 4791000    0.4890777   -8.7052692    641.04072  0.011150086 0.0094800123            6 
 4792000   0.47355384   -8.7323454    641.08442  0.011148519 0.0094768352           10 
 4793000   0.49181385   -8.7072864    640.41342  0.011134526 0.0094736556            2 
 4794000   0.48466038   -8.7201993    641.53742  0.011151742 0.0094704805            4 
 4795000   0.48986089   -8.7063808    640.63438  0.011133722 0.0094673065            5 
 4796000   0.49166233   -8.7104159    640.79537  0.011134198 0.0094641341            5 
 4797000   0.47542086   -8.7053468    641.23014   0.01113943 0.0094609645            6 
 4798000   0.48295355   -8.7013992     640.9325  0.011131939 0.0094577972            2 
 4799000   0.47866636   -8.7244365    639.70172  0.011108247 0.0094546291            3 
 4800000   0.48667366   -8.7191871    640.62489   0.01112196 0.0094514611            6 
 4801000   0.47002014   -8.7108025    640.37366  0.011115283 0.0094482941            6 
 4802000   0.47869595   -8.7026694    641.42497  0.011131212 0.0094451287            2 
 4803000   0.47628508   -8.7117728    640.80624  0.011118159 0.0094419629            6 
 4804000   0.48506611   -8.7062134    640.35036  0.011107937 0.0094387999            5 
 4805000    0.4802358   -8.7134032    639.69412  0.011094244  0.009435637            6 
 4806000   0.49496628   -8.7250034    640.98863  0.011114382 0.0094324737            4 
 4807000   0.49234052   -8.7408469    641.02696  0.011112734 0.0094293142            2 
 4808000   0.48632483   -8.7285734    639.97689  0.011092223 0.0094261549            4 
 4809000   0.47690136   -8.7169157    641.53109  0.011116848 0.0094229978            1 
 4810000    0.4772028   -8.7087527    640.00292  0.011088062 0.0094198406            3 
 4811000   0.48023914    -8.709256    639.91973  0.011084316 0.0094166889            4 
 4812000   0.48467543   -8.6986631    640.63174  0.011094343 0.0094135368            4 
 4813000   0.47440737   -8.7241068     640.3371  0.011086936  0.009410384            2 
 4814000   0.48198344   -8.7164227     641.2257  0.011100016 0.0094072305            2 
 4815000   0.49256627   -8.7033646    640.83499  0.011090948 0.0094040813            8 
 4816000   0.47573138   -8.7291559    640.77735  0.011087648 0.0094009338            3 
 4817000   0.48205752   -8.7236755    640.19271  0.011075232 0.0093977855            6 
 4818000   0.47148608   -8.7429548    641.33262  0.011092649 0.0093946386            7 
 4819000   0.48132711   -8.7166243     640.7037  0.011079472  0.009391494            6 
 4820000    0.4775603   -8.7051376    640.58532  0.011075126 0.0093883518            5 
 4821000   0.49025879   -8.7145683    640.40717   0.01106975  0.009385209            2 
 4822000   0.47429627   -8.7191627    640.66729   0.01107195 0.0093820711            4 
 4823000   0.47480511   -8.7132905    640.39665  0.011064978 0.0093789298            3 
 4824000    0.4793264   -8.7280128    640.68687  0.011067698 0.0093757905            6 
 4825000   0.48301618   -8.7121457    639.86896  0.011051277 0.0093726515            5 
 4826000   0.49026804   -8.7307203    639.42683  0.011041353 0.0093695153           10 
 4827000   0.47796983   -8.7181785     640.0362  0.011049586 0.0093663813            5 
 4828000   0.47154959   -8.7370244    639.96122  0.011046003 0.0093632462            5 
 4829000   0.48220902   -8.7229484    639.89953  0.011042651 0.0093601126            3 
 4830000   0.47571087   -8.7315264    640.61638  0.011052733 0.0093569827            4 
 4831000   0.47832517   -8.7314828    641.00148  0.011057088 0.0093538537            3 
 4832000   0.48709357   -8.7240411    640.19193  0.011040838 0.0093507227            3 
 4833000   0.48489767   -8.7227492    640.85904  0.011050056  0.009347596            2 
 4834000   0.47767648   -8.7261845     640.5449  0.011042354 0.0093444675            5 
 4835000   0.48814301   -8.7279697    640.17744  0.011033737 0.0093413424            3 
 4836000   0.47036011   -8.7175577    640.77911  0.011041824 0.0093382163            3 
 4837000   0.47980865   -8.7207314    639.57403  0.011018779 0.0093350925            3 
 4838000   0.47907193   -8.7326165    640.05756  0.011024831 0.0093319744            4 
 4839000   0.49099492   -8.7218288    641.18646  0.011041993 0.0093288579            5 
 4840000    0.4838306   -8.7193262    641.21689  0.011040236 0.0093257423            6 
 4841000   0.48540722    -8.726159    639.95644  0.011016258 0.0093226251            5 
 4842000   0.47878795   -8.7288338    639.47531  0.011005702 0.0093195088            3 
 4843000   0.48321056   -8.7319604    639.93786  0.011011389 0.0093163941            3 
 4844000   0.47004125   -8.7151241     640.0224   0.01101057 0.0093132801            5 
 4845000   0.47600622   -8.7341004    639.25641  0.010995122 0.0093101673            4 
 4846000   0.46300528   -8.7129565    640.23887  0.011009748 0.0093070545            6 
 4847000   0.47902044   -8.7284048    639.68905  0.010998024 0.0093039448            6 
 4848000   0.48173868   -8.7275546    640.40078  0.011007989 0.0093008365            2 
 4849000   0.48134911   -8.7371215    640.58033  0.011008805 0.0092977292            4 
 4850000   0.47259936   -8.7134539    639.98831  0.010996363  0.009294623            5 
 4851000   0.48318002   -8.7274084    640.30167  0.010999479 0.0092915188            3 
 4852000   0.46994576   -8.7280127    639.88226  0.010990009 0.0092884149            3 
 4853000   0.47345908   -8.7256259    639.76999  0.010985816 0.0092853135            6 
 4854000   0.47774922   -8.7073006    639.50848  0.010979063 0.0092822133            2 
 4855000   0.47276324   -8.7327632     640.8762  0.011000278 0.0092791133            5 
 4856000   0.48355932   -8.7315735    639.92724  0.010981728 0.0092760143            4 
 4857000   0.49113458   -8.7438815    640.16355  0.010983521 0.0092729178            1 
 4858000    0.4605345   -8.7265762    640.30435  0.010983676 0.0092698199            5 
 4859000   0.47824933   -8.7249976    640.76889  0.010989382 0.0092667272            2 
 4860000   0.47833985   -8.7161174    639.22504  0.010960649 0.0092636344            4 
 4861000   0.47295199   -8.7478629    640.24992  0.010975964 0.0092605421            2 
 4862000   0.47259107   -8.7227051    639.66399  0.010963664  0.009257451            5 
 4863000   0.47356889   -8.7336994     640.5534   0.01097665 0.0092543644            3 
 4864000   0.47161981    -8.733808    640.93835  0.010980989 0.0092512764            5 
 4865000   0.47885652   -8.7342467    640.51392  0.010971461 0.0092481872            4 
 4866000   0.47339945   -8.7253771     640.5723  0.010970206 0.0092451023            3 
 4867000   0.47917791   -8.7316829    638.57804  0.010933807  0.009242018            6 
 4868000   0.46624971   -8.7181696    640.27091   0.01096054 0.0092389376            4 
 4869000   0.46565129   -8.7370376    640.49611  0.010962143 0.0092358544            5 
 4870000   0.47898004   -8.7267606    640.35825  0.010957533 0.0092327755            4 
 4871000   0.46438166    -8.730793    639.63678  0.010942941  0.009229699            5 
 4872000   0.46497916   -8.7251868    640.26739  0.010951481 0.0092266197            8 
 4873000     0.471367    -8.723193    639.68142  0.010939213 0.0092235447            4 
 4874000   0.46650252   -8.7400193    640.28251  0.010947246 0.0092204672            3 
 4875000    0.4718772   -8.7382102    640.68928  0.010951953 0.0092173944            2 
 4876000   0.48124793   -8.7324711    640.32548   0.01094349  0.009214321            2 
 4877000   0.47268449   -8.7365962      639.272  0.010923245 0.0092112508            6 
 4878000   0.46917755   -8.7247913    639.70761  0.010928448 0.0092081821            4 
 4879000   0.47391512   -8.7426538    640.01273  0.010931419 0.0092051148            2 
 4880000   0.46974368   -8.7383208    640.48637  0.010937267 0.0092020494           12 
 4881000    0.4825145    -8.736742    640.66013  0.010937993 0.0091989844            7 
 4882000   0.47035238   -8.7273263    639.89887  0.010922758 0.0091959206            7 
 4883000    0.4671022   -8.7462819    638.88232  0.010903173 0.0091928571            7 
 4884000   0.47123879    -8.749309    640.42789  0.010927312 0.0091897983            4 
 4885000   0.48008828   -8.7344133     639.0457  0.010901496 0.0091867401            4 
 4886000   0.47087261   -8.7335722    640.37836  0.010921994 0.0091836827            3 
 4887000   0.47219428   -8.7365174    639.32582  0.010901811 0.0091806284            3 
 4888000      0.46743   -8.7345995    639.08441  0.010895465 0.0091775729            3 
 4889000    0.4793079   -8.7272698    639.55208  0.010901208 0.0091745201            3 
 4890000   0.47205096   -8.7256959    640.07371  0.010907868 0.0091714692            5 
 4891000   0.47497625   -8.7323544    640.22668  0.010908244 0.0091684179            2 
 4892000   0.47042695   -8.7206889    639.78015  0.010898408 0.0091653693            5 
 4893000   0.47396182   -8.7352226    640.12064   0.01090198 0.0091623207            3 
 4894000   0.47498437   -8.7351838    640.03562  0.010898304 0.0091592739            2 
 4895000   0.47668262   -8.7468901    640.64412  0.010906437 0.0091562292            4 
 4896000   0.46153709   -8.7380591    640.58703  0.010903238 0.0091531847            3 
 4897000   0.46639428   -8.7413214    640.27323  0.010895671 0.0091501413            5 
 4898000   0.47041944   -8.7462963    638.86981  0.010869569 0.0091470984            4 
 4899000   0.46820545   -8.7398315    640.08298  0.010887987 0.0091440585            7 
 4900000   0.47102143   -8.7340781    641.17235  0.010904292 0.0091410193            3 
 4901000   0.47010181   -8.7415245    640.25704  0.010886503 0.0091379802            3 
 4902000   0.45808726   -8.7331913    640.02582  0.010880352 0.0091349431            4 
 4903000   0.46028865   -8.7411159    640.58103  0.010887569 0.0091319081            3 
 4904000   0.47353706   -8.7474657    639.12272  0.010860568 0.0091288747            3 
 4905000   0.46775961   -8.7520058    639.52266  0.010865149 0.0091258402            3 
 4906000    0.4681044   -8.7302903    639.70224  0.010865984 0.0091228058            4 
 4907000    0.4635451    -8.746209    640.22652  0.010872674 0.0091197765            2 
 4908000   0.46678954   -8.7485154    639.49632   0.01085806  0.009116746            3 
 4909000   0.46883646   -8.7355758    639.93702   0.01086333 0.0091137169            2 
 4910000   0.45720519   -8.7460352    639.83192  0.010859333 0.0091106887            3 
 4911000   0.45595511   -8.7435862    641.14043  0.010879326  0.009107662            5 
 4912000   0.46160989   -8.7280107    640.13443  0.010860044 0.0091046357            2 
 4913000   0.46300857   -8.7234803     639.4382  0.010846024  0.009101612            3 
 4914000   0.47306974   -8.7499061    639.93626  0.010852263 0.0090985908            2 
 4915000   0.47875576   -8.7446389    640.01336  0.010851363 0.0090955716            2 
 4916000   0.47450087   -8.7580899     640.1088  0.010850773 0.0090925527            7 
 4917000   0.46517345   -8.7406929    639.64805  0.010840757  0.009089536            3 
 4918000   0.46102375   -8.7449279    640.28938   0.01084942 0.0090865182            6 
 4919000   0.47205264   -8.7587999     639.4539  0.010833061 0.0090835038            2 
 4920000   0.46023382   -8.7291326    640.03156  0.010840643 0.0090804922            2 
 4921000   0.46760693   -8.7501099    640.19687  0.010841239 0.0090774786            5 
 4922000    0.4667423   -8.7448144    640.57235  0.010845394 0.0090744672            3 
 4923000   0.46998352   -8.7452458    638.76321  0.010812567 0.0090714556            3 
 4924000   0.46770049   -8.7471921     639.3919  0.010821011 0.0090684501            2 
 4925000   0.47442872   -8.7494109    640.32869  0.010834665 0.0090654428            3 
 4926000   0.47928406   -8.7391274    639.61745  0.010820433 0.0090624363            3 
 4927000   0.45811386   -8.7385965    640.35973  0.010830792 0.0090594317            3 
 4928000   0.46340453   -8.7414506    639.17367  0.010808538 0.0090564248            4 
 4929000   0.46889757   -8.7380133      639.321  0.010808835 0.0090534218            3 
 4930000   0.46132656   -8.7431197    639.51543  0.010809929   0.00905042            2 
 4931000   0.45782355   -8.7391575    640.10028  0.010817621 0.0090474196            3 
 4932000   0.46852337   -8.7487835    640.20487  0.010817195 0.0090444207            2 
 4933000   0.45333388   -8.7577616    640.33999  0.010817285  0.009041424            4 
 4934000   0.46399907   -8.7413934    639.80637   0.01080608  0.009038426            2 
 4935000   0.47370475   -8.7526902    639.34662  0.010796127 0.0090354319            2 
 4936000   0.46525406   -8.7363171    640.31887  0.010810354 0.0090324379            3 
 4937000   0.46441286    -8.746215    639.89375  0.010800988 0.0090294431            3 
 4938000   0.45742619   -8.7471585    640.98029  0.010817137 0.0090264536            2 
 4939000    0.4571976   -8.7491638    639.46682  0.010789411  0.009023466            4 
 4940000   0.47449094   -8.7387779     640.6844  0.010807767 0.0090204788            5 
 4941000   0.46973281   -8.7559169    640.52664  0.010802918 0.0090174925            3 
 4942000   0.47857158   -8.7402596    639.83263   0.01078903 0.0090145063            2 
 4943000    0.4679704   -8.7396943    639.67684  0.010784221 0.0090115219            5 
 4944000   0.46514123   -8.7467191    640.37853  0.010793867 0.0090085372            4 
 4945000   0.45894419   -8.7386253    639.17533  0.010771408 0.0090055539            2 
 4946000    0.4614681   -8.7455599    639.18426   0.01076938 0.0090025735            5 
 4947000   0.46211384   -8.7505087    639.83536  0.010778171 0.0089995919            4 
 4948000    0.4598811   -8.7702346    640.02221   0.01077914 0.0089966132            1 
 4949000   0.45854294   -8.7465592    638.27138  0.010747481 0.0089936338            3 
 4950000   0.45396102   -8.7444679    639.99667  0.010774355 0.0089906573            5 
 4951000     0.456197   -8.7410113    640.34546  0.010778049 0.0089876821            3 
 4952000   0.46363499   -8.7398303    639.95617  0.010769322 0.0089847122            4 
 4953000   0.45180289   -8.7507985    639.63888  0.010761809 0.0089817408            3 
 4954000   0.45817178   -8.7506514    639.75818  0.010761643 0.0089787678            5 
 4955000   0.45273624   -8.7490397    638.89547  0.010744962 0.0089757955            6 
 4956000   0.47069895   -8.7587189    639.31328   0.01074982 0.0089728261            4 
 4957000   0.45887031   -8.7606086    639.67481  0.010753729 0.0089698554            3 
 4958000   0.45753767   -8.7572829    639.18253  0.010743286 0.0089668869            2 
 4959000   0.45841772   -8.7493289     639.3828  0.010744485 0.0089639191            4 
 4960000   0.46091578   -8.7519482    640.52621  0.010761529 0.0089609513            2 
 4961000   0.46588006   -8.7511457    639.19411  0.010736984 0.0089579861            4 
 4962000     0.459197   -8.7518906    639.13709  0.010733862 0.0089550219            1 
 4963000    0.4557926   -8.7505471    639.33026  0.010734943 0.0089520601            2 
 4964000   0.45571607   -8.7705154    640.60263   0.01075414 0.0089490991            2 
 4965000   0.44997169   -8.7698011     638.6273   0.01071882 0.0089461369            2 
 4966000   0.45866963   -8.7589136    638.53453  0.010715105 0.0089431778            1 
 4967000   0.45982489    -8.747455    640.08007  0.010738878 0.0089402196            3 
 4968000   0.45764563   -8.7647048    639.30796  0.010723765 0.0089372621            1 
 4969000   0.45604701   -8.7670204    639.20008  0.010719797 0.0089343048            5 
 4970000   0.46225432   -8.7622998     637.8922  0.010695711 0.0089313501            2 
 4971000   0.45306037     -8.75418    639.17079  0.010714994 0.0089283976            3 
 4972000   0.45156139   -8.7681217    638.52166  0.010701959 0.0089254445            2 
 4973000   0.45739303    -8.746354    638.97788  0.010707452 0.0089224935            6 
 4974000   0.45544049   -8.7566935    639.64133  0.010716414  0.008919543            2 
 4975000   0.46363824    -8.740803    639.98576   0.01072003  0.008916594            2 
 4976000   0.45622379   -8.7494364    638.80513  0.010698103 0.0089136465            1 
 4977000   0.46291258   -8.7614634    639.39583  0.010705844 0.0089107006            6 
 4978000   0.45142255   -8.7436097    639.02018  0.010697405  0.008907754            2 
 4979000   0.46700787   -8.7645131    639.22259  0.010698644 0.0089048101            5 
 4980000   0.45831241   -8.7476623    639.29093  0.010697639 0.0089018682            3 
 4981000   0.43661882    -8.752122    639.28958  0.010695469 0.0088989262            4 
 4982000   0.46066793   -8.7491444    639.45205   0.01069604 0.0088959889            3 
 4983000   0.46250026   -8.7546371    640.12516   0.01070515 0.0088930505            2 
 4984000   0.45015193   -8.7682029    638.83727  0.010681469  0.008890114            3 
 4985000   0.45556565   -8.7670649    639.45994  0.010689735 0.0088871796            3 
 4986000   0.44729334   -8.7525303    639.71203  0.010691804 0.0088842437            2 
 4987000   0.45926986   -8.7645485     639.3973  0.010684401 0.0088813061            4 
 4988000   0.46214322   -8.7646875    638.51717  0.010667555 0.0088783725            3 
 4989000   0.45918811    -8.755568    638.64216  0.010667505 0.0088754414            2 
 4990000   0.45784701   -8.7799362      639.927  0.010686824 0.0088725123            4 
 4991000   0.45438568   -8.7619049    639.29733  0.010674169 0.0088695837            2 
 4992000   0.46762078    -8.766743    638.64976  0.010661221 0.0088666557            1 
 4993000   0.45190521    -8.756265    638.74886  0.010660739 0.0088637303            5 
 4994000   0.45014797   -8.7625169    639.07608  0.010664065 0.0088608051            2 
 4995000    0.4518018   -8.7638297    637.95124  0.010643164 0.0088578802            2 
 4996000   0.45819641   -8.7600072    638.83247  0.010655732 0.0088549579            2 
 4997000   0.45357042   -8.7647653    639.34306  0.010662115 0.0088520392            6 
 4998000   0.45269055   -8.7696282    638.97683  0.010653875 0.0088491216            6 
 4999000    0.4586125   -8.7508709     639.0338  0.010652694 0.0088462027            4 
 5000000   0.44536149   -8.7777249    639.10391  0.010651732 0.0088432844            3 
 5001000   0.45213223   -8.7562799    639.34633  0.010653641 0.0088403689            3 
 5002000   0.43985542   -8.7591064    639.52396  0.010654471 0.0088374555            2 
 5003000   0.45139661   -8.7593978    639.13363   0.01064584 0.0088345432            3 
 5004000   0.45061217   -8.7462852    638.28325  0.010629551 0.0088316323            2 
 5005000    0.4603877   -8.7596006    638.27415  0.010627275 0.0088287205            1 
 5006000   0.46524562   -8.7679086    639.12774  0.010639362 0.0088258089            2 
 5007000     0.456539   -8.7668729    638.64346  0.010629177 0.0088228992            2 
 5008000   0.44458787   -8.7613113    638.94884  0.010632136 0.0088199915            4 
 5009000   0.45247959   -8.7715666    638.66226  0.010625245 0.0088170853            3 
 5010000   0.45245087   -8.7686575    638.53988  0.010621089   0.00881418            2 
 5011000   0.44658475   -8.7706012    638.59741  0.010619926  0.008811274            2 
 5012000   0.45282951   -8.7737699    640.09916  0.010642777 0.0088083716            4 
Loop time of 12167 on 48 procs for 5000000 steps with 4000 atoms

Performance: 71011.738 tau/day, 410.948 timesteps/s
99.4% CPU use with 48 MPI tasks x no OpenMP threads

MPI task timing breakdown:
Section |  min time  |  avg time  |  max time  |%varavg| %total
---------------------------------------------------------------
Pair    | 788.34     | 849.39     | 901.18     |  92.9 |  6.98
Neigh   | 79.395     | 82.612     | 85.298     |  16.5 |  0.68
Comm    | 761.65     | 809.64     | 883.81     | 117.5 |  6.65
Output  | 13.595     | 13.6       | 13.677     |   0.3 |  0.11
Modify  | 10268      | 10304      | 10346      |  19.3 | 84.68
Other   |            | 108.2      |            |       |  0.89

Nlocal:        83.3333 ave          92 max          77 min
Histogram: 4 1 7 5 17 4 6 2 1 1
Nghost:        2086.31 ave        2105 max        2064 min
Histogram: 5 1 1 3 9 8 4 12 3 2
Neighs:        13621.1 ave       15138 max       11886 min
Histogram: 1 1 2 8 11 7 6 7 4 1
FullNghs:      27240.5 ave       30348 max       25101 min
Histogram: 4 4 5 10 11 9 2 2 0 1

Total # of neighbors = 1307546
Ave neighs/atom = 326.88650
Neighbor list builds = 267621
Dangerous builds = 1

#clear
#
#next RN
#
#jump SELF
Total wall time: 3:22:50
