
units lj                  # Use reduced LJ style units
atom_style atomic         # Uncharged point particles
atom_modify map hash      # Needed for indexing of clusters etc
                          # Used to be able to find where atoms are in relation to each other.

lattice fcc 1.0 spacing 1 1 1
Lattice spacing in x,y,z = 1.5874011 1.5874011 1.5874011
region box block 0 10 0 10 0 10 units lattice
create_box 2 box
Created orthogonal box = (0.0000000 0.0000000 0.0000000) to (15.874011 15.874011 15.874011)
  3 by 4 by 4 MPI processor grid
create_atoms 1 box
Created 4000 atoms
  using lattice units in orthogonal box = (0.0000000 0.0000000 0.0000000) to (15.874011 15.874011 15.874011)
  create_atoms CPU = 0.002 seconds
set type 1 type/fraction 2 0.91 78393
Setting atom values ...
  3634 settings made for type/fraction
mass 1 1.0
mass 2 1.0
pair_style lj/cut  3.5
pair_modify tail  yes
pair_coeff 1  1  1.0  1.0   # Intearaction between 1 and 1 set with epsilon = 1 and sigma = 1
pair_coeff 1  2  1.5  0.8
pair_coeff 2  2  0.5  0.88

write_data data.0
System init for write_data ...
Neighbor list info ...
  update every 1 steps, delay 10 steps, check yes
  max neighbors/atom: 2000, page size: 100000
  master list distance cutoff = 3.8
  ghost atom cutoff = 3.8
  binsize = 1.9, bins = 9 9 9
  1 neighbor lists, perpetual/occasional/extra = 1 0 0
  (1) pair lj/cut, perpetual
      attributes: half, newton on
      pair build: half/bin/atomonly/newton
      stencil: half/bin/3d
      bin: standard
WARNING: Not all mixed pair coeffs generated from mixing. Use write_data with 'pair ij' option to store all pair coeffs. (../write_data.cpp:312)


#############################
#   M E L T   S Y S T E M   #
#############################

velocity all create 2.4 1741580 mom yes dist gaussian # Assign velocities
                                                    # Temperature 2.4, random number seed, zero linear momentum
                                                                                # Gaussian distribution

timestep 0.002   # simulation timestep
thermo 1000       # output thermodynamic data every 1000 steps bf 100

# Define a fix  in this case with index 1 applied to all
# particles in the simulation. This fix is for simulations
# in the anisotropic NPT ensemble. Note that we use the MTK
# correction.
fix 1 all npt temp 2.4 2.4 0.1 iso 5.68 5.68 0.5 mtk yes tchain 5 pchain 5 # Use NPT ensemble
                                                                         # Set temperature and pressure and damping
                                                                         # Numbers of thermostats in chain and in barostat
run 10000          # run for 10000 steps
Per MPI rank memory allocation (min/avg/max) = 3.642 | 3.644 | 3.648 Mbytes
Step Temp E_pair E_mol TotEng Press Volume 
       0          2.4    -3.140535            0     0.458565   -2.4974117         4000 
    1000    2.4208404   -2.1592422            0    1.4711106     5.703243    4021.0326 
    2000    2.3924776   -2.0911724            0    1.4966468    5.7083491    4083.2171 
    3000    2.4274544   -2.1615896            0    1.4786817    5.7755278     4009.789 
    4000    2.4325195   -2.2456664            0    1.4022006    5.3683397    4000.1539 
    5000    2.3895999   -2.1290517            0    1.4544522    5.9729168    3997.2075 
    6000    2.4189091   -2.2166769            0    1.4107797     5.579203    3994.1451 
    7000    2.4024234   -2.1913222            0     1.411412    5.5931458    4001.3083 
    8000    2.3967621   -2.1774273            0    1.4168171    5.7596574    3990.1039 
    9000    2.4319212   -2.0711812            0    1.5757886     5.947458    4064.4415 
   10000    2.3473033   -2.1578923            0    1.3621824     5.586454    4029.5402 
Loop time of 2.46789 on 48 procs for 10000 steps with 4000 atoms

Performance: 700193.294 tau/day, 4052.045 timesteps/s
99.6% CPU use with 48 MPI tasks x no OpenMP threads

MPI task timing breakdown:
Section |  min time  |  avg time  |  max time  |%varavg| %total
---------------------------------------------------------------
Pair    | 1.07       | 1.1467     | 1.3117     |   3.7 | 46.47
Neigh   | 0.20383    | 0.21399    | 0.24189    |   1.2 |  8.67
Comm    | 0.66288    | 0.84891    | 0.94953    |   5.3 | 34.40
Output  | 0.00024095 | 0.00024748 | 0.00030762 |   0.0 |  0.01
Modify  | 0.21486    | 0.24305    | 0.28547    |   3.8 |  9.85
Other   |            | 0.01497    |            |       |  0.61

Nlocal:        83.3333 ave          92 max          75 min
Histogram: 2 3 7 1 12 9 4 8 1 1
Nghost:        1634.85 ave        1661 max        1599 min
Histogram: 2 1 2 6 5 5 10 10 5 2
Neighs:        9470.48 ave       10809 max        8099 min
Histogram: 3 3 1 6 11 8 8 3 3 2

Total # of neighbors = 454583
Ave neighs/atom = 113.64575
Neighbor list builds = 907
Dangerous builds = 212

# Equilibrate just above the melting temperature to avoid step fn in T

fix 1 all npt temp 1.25 1.25 0.1 iso 5.68 5.68 0.5 mtk yes tchain 5 pchain 5
run 2000
Per MPI rank memory allocation (min/avg/max) = 3.643 | 3.645 | 3.649 Mbytes
Step Temp E_pair E_mol TotEng Press Volume 
   10000    2.3473033   -2.1578923            0    1.3621824     5.586454    4029.5402 
   11000    1.2440722   -3.1986619            0   -1.3330201    5.7928693    3130.9866 
   12000    1.2433045   -3.2161846            0   -1.3516941    5.9713848    3104.9072 
Loop time of 0.995077 on 48 procs for 2000 steps with 4000 atoms

Performance: 347309.759 tau/day, 2009.894 timesteps/s
98.8% CPU use with 48 MPI tasks x no OpenMP threads

MPI task timing breakdown:
Section |  min time  |  avg time  |  max time  |%varavg| %total
---------------------------------------------------------------
Pair    | 0.26855    | 0.28781    | 0.32215    |   2.0 | 28.92
Neigh   | 0.039145   | 0.041518   | 0.04636    |   0.6 |  4.17
Comm    | 0.2346     | 0.31964    | 0.39058    |   6.5 | 32.12
Output  | 5.1994e-05 | 5.4151e-05 | 6.8958e-05 |   0.0 |  0.01
Modify  | 0.28708    | 0.34138    | 0.44003    |   6.5 | 34.31
Other   |            | 0.004667   |            |       |  0.47

Nlocal:        83.3333 ave          90 max          74 min
Histogram: 2 3 2 5 3 7 10 4 8 4
Nghost:        1945.17 ave        1970 max        1921 min
Histogram: 4 0 8 6 8 6 5 5 1 5
Neighs:        12301.8 ave       13930 max       10272 min
Histogram: 2 1 2 6 6 12 6 7 4 2

Total # of neighbors = 590486
Ave neighs/atom = 147.62150
Neighbor list builds = 145
Dangerous builds = 14

#############################
# L I N E A R  Q U E N C H  #
#############################

# Define solid atoms. This closely follows ten Wolde  Ruiz-Montero and Frenkel  Faraday Discuss  1996  104  93-110
# Compute components of the per-atom q6 vector
compute q6 all orientorder/atom degrees 1 6 components 6 nnn NULL cutoff 1.3 # compute the Q6 parameter.
                                                                             # Use all neighbours within 1.3 unit cell.

# get number of connections
compute coord_number all coord/atom orientorder q6 0.5

# An atom is solid if it has 8 or more connections (of a possible 14)
variable is_solid atom c_coord_number>=8
group solid dynamic all var is_solid    # Must be dynamic to update
dynamic group solid defined

# do clustering
compute cluster solid cluster/atom 1.3 # Create a cluster where all atoms within are solid and max 1.3 units from another member

# define chunks one chunk per cluster
compute clus_chunks solid chunk/atom c_cluster nchunk every compress yes  # Says which atoms are in which chunk

# count the size of each chunk
compute size_chunks solid property/chunk clus_chunks count


# Find the maximum entry in the vector of chunk sizes
variable max_n equal max(c_size_chunks)


# Thermo style which includes this variable
# thermo_style custom step temp pe vol v_max_n

thermo ${N}  # Print the thermo information every 100 steps
thermo 1000  

# Reset the npt fix at a lower temperature (below freezing)
fix 1  all npt temp  ${temp} ${temp}  0.1  iso  5.68  5.68  0.5  mtk yes tchain  5  pchain  5
fix 1  all npt temp  0.45 ${temp}  0.1  iso  5.68  5.68  0.5  mtk yes tchain  5  pchain  5
fix 1  all npt temp  0.45 0.45  0.1  iso  5.68  5.68  0.5  mtk yes tchain  5  pchain  5

dump dmp2 all dcd ${N} traj.dcd
dump dmp2 all dcd 1000 traj.dcd


compute msd all msd com yes
variable twopoint equal c_msd[4]/6/(step*dt+1.0e-6)
fix 9 all vector 10 c_msd[4]
variable fit equal slope(f_9)/6/(10*dt)
thermo_style custom step temp pe c_msd[4] v_twopoint v_fit v_max_n

fix 1 all npt temp 1.25 ${temp} 0.1 iso 5.68 5.68 0.5 mtk yes tchain 5 pchain 5
fix 1 all npt temp 1.25 0.45 0.1 iso 5.68 5.68 0.5 mtk yes tchain 5 pchain 5
run 2000000 # 5000000  # Run for this many steps
Neighbor list info ...
  update every 1 steps, delay 10 steps, check yes
  max neighbors/atom: 2000, page size: 100000
  master list distance cutoff = 3.8
  ghost atom cutoff = 3.8
  binsize = 1.9, bins = 8 8 8
  4 neighbor lists, perpetual/occasional/extra = 1 3 0
  (1) pair lj/cut, perpetual
      attributes: half, newton on
      pair build: half/bin/atomonly/newton
      stencil: half/bin/3d
      bin: standard
  (2) compute orientorder/atom, occasional
      attributes: full, newton on
      pair build: full/bin/atomonly
      stencil: full/bin/3d
      bin: standard
  (3) compute coord/atom, occasional
      attributes: full, newton on
      pair build: full/bin/atomonly
      stencil: full/bin/3d
      bin: standard
  (4) compute cluster/atom, occasional
      attributes: full, newton on
      pair build: full/bin/atomonly
      stencil: full/bin/3d
      bin: standard
Per MPI rank memory allocation (min/avg/max) = 9.822 | 9.828 | 9.832 Mbytes
Step Temp PotEng c_msd[4] v_twopoint v_fit v_max_n 
   12000    1.2433045   -3.2161846 6.6960486e-30 4.6500335e-32 8.3333333e+20            4 
   13000    1.2218573   -3.2238996    1.0148983 0.0065057582  0.086678377            2 
   14000    1.2630672   -3.2450741    2.0848864  0.012410038  0.088604542            1 
   15000    1.2649182   -3.2367343    3.1894207  0.017719003  0.089523063            1 
   16000    1.2492718   -3.2214244     4.359085  0.022703567  0.091058669            2 
   17000    1.2843955   -3.2452805    5.4940682  0.026931706  0.092697127            2 
   18000    1.2224096   -3.2202154    6.6526593  0.030799348  0.093088537            2 
   19000    1.2405281   -3.1978123    7.8824094   0.03457197  0.094137051            2 
   20000    1.2571639   -3.2337043    8.9943469  0.037476444  0.094675861            1 
   21000    1.2633704   -3.2230346     10.20638  0.040501506  0.095345781            1 
   22000     1.252766    -3.246516    11.346841  0.042980456   0.09575098            2 
   23000    1.2394489   -3.2768853    12.428065   0.04502922  0.095632684            1 
   24000    1.2712622   -3.2248564    13.630518  0.047328186  0.095732031            1 
   25000    1.2853698    -3.221416    14.814724  0.049382413   0.09605296            3 
   26000    1.2299982    -3.241757    16.008421  0.051309041  0.096280415            2 
   27000    1.2391264   -3.2387409     17.16609  0.052981758  0.096382479            2 
   28000    1.2567718   -3.2271109    18.567213  0.055259563  0.096695018            2 
   29000    1.2562985     -3.22987     19.68141  0.056555774  0.096979328            2 
   30000    1.2491764   -3.2483235    20.687994  0.057466648  0.097051312            1 
   31000    1.2297458   -3.2729862    21.600101  0.058064786  0.096923228            2 
   32000    1.2480428   -3.2552221    22.832308  0.059459134  0.096716198            1 
   33000      1.22759   -3.2362648    23.838012  0.060196998  0.096529948            1 
   34000    1.2434373   -3.1907027    25.239539  0.061861615  0.096442798            2 
   35000    1.2105313   -3.2514813    26.363034  0.062769128  0.096355938            1 
   36000    1.2341393   -3.2402894    27.445801  0.063531947  0.096247729            1 
   37000    1.2594301    -3.222609    28.447634  0.064071247  0.096110884            1 
   38000    1.2206238   -3.2434409    29.393823  0.064460138  0.095892191            2 
   39000    1.2433872   -3.2364762    30.531799  0.065238887   0.09559009            2 
   40000    1.2536047   -3.2370747    31.462728  0.065547348   0.09530974            2 
   41000    1.2273864     -3.23681    32.737775  0.066540193  0.095102211            1 
   42000    1.2538961   -3.2742216    33.746336  0.066957015  0.094980213            1 
   43000    1.2391034   -3.2389248    34.563698  0.066983911  0.094767483            1 
   44000    1.2549951   -3.2241448     35.75481  0.067717443   0.09450087            1 
   45000    1.2308431   -3.2382555    36.825826  0.068195973  0.094255638            2 
   46000    1.2153536   -3.2209648    37.933637  0.068720357   0.09399116            1 
   47000    1.2026439   -3.2370886    38.909511  0.068988494  0.093766185            1 
   48000    1.2504379   -3.2510407    40.135183  0.069679137  0.093536394            3 
   49000    1.2484701   -3.2408351    41.083818  0.069870438  0.093308992            1 
   50000    1.2460586   -3.2358579    42.356342  0.070593902  0.093102778            2 
   51000    1.2522804   -3.2608968    43.184747  0.070563311  0.092941639            2 
   52000    1.2347595   -3.2262354    44.256877  0.070924482  0.092748828            2 
   53000    1.2508183     -3.23218    45.360793  0.071322001  0.092586258            3 
   54000     1.251671    -3.229736    46.392762  0.071593767  0.092450431            2 
   55000    1.2401364   -3.2310215     47.27291   0.07162562  0.092296195            1 
   56000    1.2300111   -3.2355125     48.31633    0.0718993   0.09210489            1 
   57000    1.2307448    -3.229876    49.048027  0.071707641  0.091888772            2 
   58000    1.2262397   -3.2499872    49.842206  0.071612364  0.091648208            3 
   59000    1.2785157   -3.2477117    51.021777  0.072064656  0.091411917            2 
   60000    1.1989973   -3.2239218    52.244479  0.072561776  0.091198109            1 
   61000    1.2308249   -3.2307973    53.056089  0.072480996  0.090983547            3 
   62000    1.2467276   -3.2707721    54.004235  0.072586337  0.090760678            2 
   63000    1.2023139   -3.2250633    55.007602  0.072761378  0.090560482            2 
   64000    1.2374212   -3.2560553    56.106114  0.073054836  0.090361358            2 
   65000    1.2205356   -3.2161302     57.44655  0.073649423  0.090217214            3 
   66000    1.2338849   -3.2433995    58.381438  0.073713936  0.090086895            3 
   67000     1.245323   -3.2564285    59.282091  0.073733943  0.089987159            5 
   68000    1.2379263    -3.200949    61.136648  0.074922363  0.089914031            1 
   69000    1.2302748   -3.2438032    61.926442  0.074790388  0.089837885            1 
   70000     1.207602    -3.253625    62.700904  0.074643933  0.089768536            2 
   71000    1.2306526   -3.2522345    63.616406  0.074667143  0.089683333            2 
   72000    1.2444206   -3.2333309    65.122168  0.075372879  0.089623098            1 
   73000    1.2422926   -3.2385588    66.386286  0.075783431  0.089592796            4 
   74000    1.2261992   -3.2567714    67.184161  0.075657838  0.089575561            1 
   75000    1.2007991   -3.2310261    68.576735  0.076196372  0.089572707            1 
   76000    1.2356885   -3.2664094    69.482514  0.076186967   0.08956942            1 
   77000    1.2309855   -3.2449984    70.725835  0.076543111  0.089541753            2 
   78000    1.1959088   -3.2710829    71.567199  0.076460683  0.089513947            5 
   79000    1.2376262   -3.2617495    72.653092  0.076638282   0.08948875            2 
   80000    1.2132451   -3.2455107    73.506715  0.076569494  0.089452177            1 
   81000    1.1994537   -3.2268355    74.519006  0.076665644  0.089405319            2 
   82000    1.2133455   -3.2405952    75.556489  0.076785049  0.089356597            2 
   83000     1.233439   -3.2415702    76.571205  0.076878719  0.089301712            1 
   84000    1.2346877   -3.2790097    77.481956   0.07686702  0.089249504            2 
   85000     1.219716   -3.2751093    78.361052   0.07682456  0.089191001            2 
   86000     1.203911   -3.2727976    79.388268  0.076926615  0.089137903            1 
   87000    1.2288696   -3.2866872    80.578832  0.077182789  0.089109394            2 
   88000    1.2151459   -3.2680515    81.542253  0.077218042  0.089051676            2 
   89000    1.2057266   -3.2534175    82.406641  0.077159776  0.088989348            2 
   90000     1.203407   -3.2496777    83.354845  0.077180412  0.088926175            1 
   91000    1.2301851    -3.256549    84.562825  0.077438484  0.088863487            1 
   92000     1.239823   -3.2325863    85.664067  0.077594263  0.088790999            1 
   93000    1.2021613   -3.2589614    86.188645  0.077229968  0.088690288            2 
   94000    1.2145497   -3.2278475    86.530283  0.076711243  0.088578512            1 
   95000    1.2050234   -3.2274474    87.412265  0.076677425  0.088454135            1 
   96000    1.2020599   -3.2410475    88.429753  0.076761938  0.088320593            1 
   97000    1.2209234   -3.2734376    89.816435  0.077161886  0.088188227            3 
   98000    1.1929056   -3.2626606    90.661993  0.077093531  0.088074493            1 
   99000     1.203527   -3.2546591    91.742169  0.077224048  0.087976295            1 
  100000    1.2208506   -3.2599601    93.033751  0.077528126  0.087898014            2 
  101000    1.2333091    -3.256685    94.169308  0.077697448  0.087825825            2 
  102000    1.2075364   -3.2689089    95.736718  0.078216272  0.087777141            2 
  103000     1.194028   -3.2429836    96.544464  0.078110408  0.087735711            2 
  104000    1.1898444   -3.2723373    97.781201  0.078350321  0.087706154            1 
  105000    1.2296456   -3.2772314    98.897529  0.078490102  0.087679194            3 
  106000    1.2060384   -3.2965857    99.634828  0.078329267  0.087648868            1 
  107000    1.2468977    -3.234276    101.68859  0.079196724  0.087627395            1 
  108000    1.2274617   -3.2784944    101.91219  0.078635952  0.087620755            2 
  109000    1.2322906   -3.2675671     103.7157  0.079293351  0.087612848            3 
  110000    1.2159118   -3.2589499    104.63177  0.079266493   0.08762263            3 
  111000    1.2027328   -3.2826592    105.36082  0.079099715  0.087636137            1 
  112000    1.2279468   -3.2699562    106.96112  0.079584164  0.087652104            3 
  113000    1.1984611   -3.2781629    108.02448  0.079664071  0.087667515            2 
  114000    1.2137161   -3.2698823    109.49823  0.080042564  0.087680807            2 
  115000    1.1859841   -3.2220638    110.12139   0.07979811   0.08769202            2 
  116000     1.238659   -3.2543225    111.01892  0.079754971  0.087705928            1 
  117000    1.2095842   -3.2854869    112.03094  0.079794115  0.087710681            2 
  118000    1.1924053   -3.2927516    112.79757  0.079659301   0.08770525            1 
  119000    1.2033305   -3.2899931    113.84231  0.079721509  0.087703597            2 
  120000    1.1984435   -3.2426552    115.57878  0.080263039  0.087710853            2 
  121000    1.2208554   -3.2488203    116.64228  0.080332148  0.087723817            2 
  122000    1.2079823   -3.2816784    117.33832  0.080149123  0.087744834            1 
  123000    1.1909255   -3.2752337    118.71745  0.080431873   0.08777187            2 
  124000    1.1944574   -3.2588662     120.0735  0.080694555  0.087790544            1 
  125000    1.1976128   -3.2899851    121.22289  0.080815263  0.087801338            4 
  126000     1.224458   -3.3080029    121.61695   0.08043449  0.087812602            1 
  127000    1.2112869   -3.2599505    122.52148  0.080394674  0.087818581            2 
  128000    1.2199874   -3.2835208    123.96303  0.080705098  0.087828237            1 
  129000    1.1919783   -3.2983153    124.69156  0.080550103  0.087833929            2 
  130000    1.2025209   -3.2687007    126.46944  0.081070155  0.087835328            3 
  131000    1.2005651   -3.2485299    126.68181  0.080586395  0.087840049            2 
  132000    1.2240454   -3.2471434    127.94634  0.080774205  0.087833048            1 
  133000    1.1715809   -3.2558502    128.93304  0.080785112   0.08783048            3 
  134000    1.2040874   -3.2920219    129.22144  0.080361589  0.087833477            1 
  135000    1.2224428   -3.3001551    130.89906  0.080801888  0.087838043            3 
  136000    1.1886683   -3.2890467    132.73598  0.081333318  0.087843163            1 
  137000    1.1919411   -3.2866918     134.0508  0.081539413  0.087852677            2 
  138000    1.2018558   -3.2816038    134.20926   0.08104424  0.087850283            5 
  139000    1.2191424   -3.2950403    135.53315  0.081254883  0.087848641            2 
  140000    1.2029083   -3.2778389    136.37145  0.081173483  0.087844231            1 
  141000    1.1843716   -3.2992823    136.53739  0.080695854  0.087830833            1 
  142000    1.2042083   -3.2732996     137.6004  0.080751406   0.08781236            1 
  143000    1.1761959   -3.2884373    139.10783   0.08106517  0.087789123            2 
  144000    1.1883572   -3.2883892    139.46906  0.080711264  0.087769582            2 
  145000     1.206087    -3.277629    141.24939  0.081177812  0.087747735            1 
  146000    1.2144243   -3.2788845    141.98285   0.08104044  0.087731068            2 
  147000    1.1814257   -3.2919727    143.27296  0.081220499  0.087714973            3 
  148000    1.1840294   -3.2995334    144.08125  0.081126831  0.087703954            3 
  149000    1.2002464   -3.2842971    145.51966  0.081386837  0.087689357            2 
  150000    1.1945123   -3.2846884    146.01877  0.081121539  0.087672645            2 
  151000    1.1966244   -3.2875848    146.47313  0.080835058   0.08765629            4 
  152000    1.1764525    -3.299912    147.51097  0.080872241  0.087633621            2 
  153000    1.2011307    -3.291631      148.399  0.080827341  0.087598511            1 
  154000    1.2147895   -3.2954918    150.40113  0.081385892  0.087577458            4 
  155000    1.1970529   -3.2823924    151.91361  0.081673986  0.087564048            1 
  156000    1.1961141   -3.2884379    151.97705  0.081184322  0.087552848            1 
  157000    1.1947454   -3.2866653    153.25102   0.08134343  0.087532539            3 
  158000    1.2017756   -3.3217824    153.55483  0.080988832  0.087509954            2 
  159000    1.2121614   -3.2842217    155.37728  0.081434634  0.087486311            2 
  160000    1.2123608     -3.28159    156.31962  0.081416469  0.087459061            2 
  161000    1.2082986    -3.280819    157.25619  0.081395544  0.087441871            1 
  162000     1.196469    -3.291831    158.13413  0.081344719  0.087432369            1 
  163000    1.1851151   -3.3377301    158.35766  0.080959949  0.087416927            2 
  164000    1.2099964   -3.3485461    159.50299  0.081048269  0.087399164            1 
  165000    1.1728408   -3.3081446    160.94271  0.081284197   0.08738096            2 
  166000    1.1782985   -3.3010969    161.89704  0.081273614  0.087357324            4 
  167000    1.1956121   -3.2857279    164.09735  0.081884902  0.087336705            2 
  168000    1.1950351   -3.2936797    163.50674  0.081104534  0.087315378            3 
  169000    1.1994618   -3.2744465    163.80801  0.080773183  0.087283396            1 
  170000    1.1800699   -3.3086952    165.33038  0.081044303  0.087242915            2 
  171000    1.1825683   -3.2930774    166.72212  0.081248596  0.087204485            2 
  172000     1.178652   -3.2930111    167.61394  0.081208303  0.087170666            2 
  173000    1.1946943   -3.2757559    168.17682  0.081010028  0.087131074            1 
  174000    1.1909186   -3.3438036     168.6632  0.080777393  0.087097292            1 
  175000    1.1718739   -3.2849616    170.41073  0.081147966  0.087064188            3 
  176000    1.1610612   -3.3046505    171.16992  0.081046365  0.087028655            2 
  177000    1.1972241    -3.277984    172.16679  0.081057812  0.086993541            4 
  178000    1.1894409   -3.3367978    172.51477   0.08076534  0.086954693            1 
  179000    1.1605973    -3.303381    173.43088  0.080740631  0.086908802            2 
  180000    1.1921384   -3.3245152    174.39795  0.080739791  0.086863562            1 
  181000    1.2016567   -3.2870592    176.02435  0.081042519  0.086819045            2 
  182000    1.1748922    -3.310672    175.85583  0.080520071  0.086771714            5 
  183000    1.1845275   -3.2949571    177.73279  0.080934788  0.086726433            1 
  184000     1.188262   -3.2948939    177.69568  0.080478117   0.08667535            1 
  185000    1.1758242   -3.3339301    179.31523  0.080772626  0.086621308            3 
  186000    1.1865058   -3.3060191    181.23839  0.081199997  0.086570848            1 
  187000    1.2111233   -3.3252886    180.48722  0.080431026  0.086525337            3 
  188000    1.1949965   -3.2933117    181.86961  0.080615961  0.086478077            2 
  189000    1.1705524   -3.3284475    183.09139  0.080728128  0.086433863            3 
  190000    1.1919452   -3.2905961    184.36309  0.080861005  0.086397487            1 
  191000    1.1762077   -3.3166918    185.56041   0.08096004  0.086365911            2 
  192000    1.1625499   -3.2967868    186.46328  0.080930244  0.086329849            1 
  193000    1.1917376    -3.300976    188.28569  0.081297792  0.086295503            3 
  194000    1.1553661   -3.2873017     188.5572  0.080995362  0.086265344            7 
  195000    1.1653164   -3.3159124    189.58541  0.081019407   0.08623957            1 
  196000    1.1841981   -3.3286718    190.39566  0.080950534  0.086209727            2 
  197000    1.1566943   -3.2873841    191.73655  0.081106833  0.086172069            1 
  198000    1.1778207   -3.2873123    193.34304  0.081373333   0.08614421            1 
  199000    1.1602894   -3.3008411    194.40181  0.081407793   0.08611676            3 
  200000    1.1721055   -3.3000742    195.19009  0.081329206  0.086091246            1 
  201000    1.1984626   -3.3180614    195.83735  0.081192933  0.086070859            2 
  202000    1.1714493   -3.3543779    195.89136  0.080813268  0.086045164            1 
  203000    1.1717019    -3.330133    198.12852  0.081333546   0.08602714            1 
  204000    1.1509992    -3.331494    199.95998     0.081683  0.086010926            1 
  205000    1.1586272   -3.3099069    200.40891  0.081467036    0.0859969            1 
  206000    1.1669862   -3.3410611    202.07265    0.0817446  0.085984399            2 
  207000     1.157575    -3.314841    202.44573  0.081499892   0.08597653            2 
  208000    1.1549439    -3.320632    204.20935  0.081814644  0.085968125            2 
  209000    1.1683124   -3.3473953    205.13397  0.081791855  0.085955521            4 
  210000    1.1731263   -3.2974542    206.56904  0.081971839  0.085947569            1 
  211000    1.1666284   -3.3217916    207.52306  0.081960132  0.085937262            1 
  212000    1.1554824   -3.3124056    208.80498   0.08207743  0.085933477            1 
  213000    1.1557249   -3.3274302     209.0157   0.08177453  0.085928376            3 
  214000     1.167946   -3.3380799    209.89232  0.081733771  0.085920584            1 
  215000    1.1652395   -3.3429588    210.67209  0.081655847  0.085910858            2 
  216000    1.1534116    -3.312096    213.24813  0.082271654  0.085907057            1 
  217000    1.1691723   -3.3489171    213.82291  0.082113251  0.085902207            2 
  218000    1.1623528   -3.3342617    214.90094  0.082148677  0.085900539            1 
  219000    1.1773485   -3.3240198     215.7851  0.082110006   0.08589706            2 
  220000      1.19493   -3.3191971    217.25449  0.082293367  0.085893091            1 
  221000    1.1811503   -3.3296368    217.74768  0.082106967  0.085887041            2 
  222000    1.1582706   -3.3166326    217.89289  0.081791626  0.085877171            5 
  223000    1.1688612   -3.3287328    219.85692  0.082158791  0.085867252            2 
  224000    1.1601639   -3.3147838    220.90333  0.082181298  0.085856373            1 
  225000    1.1749348   -3.3543244    221.24889  0.081944034  0.085850398            2 
  226000    1.1739262   -3.3208248    223.09886  0.082263591  0.085846152            3 
  227000    1.1523467   -3.3235836    224.49382  0.082413295   0.08584178            2 
  228000     1.152746   -3.3422176    222.85316   0.08145218  0.085834344            3 
  229000    1.1508863   -3.3188496    224.86617  0.081829029  0.085818972            1 
  230000     1.156694   -3.3267293    225.48258  0.081696586  0.085801222            2 
  231000    1.1596225   -3.3248561      226.682  0.081775614  0.085786588            2 
  232000    1.1641761   -3.3348644    227.78421  0.081819042  0.085772987            1 
  233000    1.1374645   -3.3389693    229.05477  0.081922305  0.085760997            2 
  234000    1.1601809    -3.345094    229.26216   0.08164607  0.085747948            3 
  235000    1.1615424   -3.3236223    230.86064  0.081865474  0.085731622            1 
  236000    1.1656661   -3.3273573    231.59869  0.081779199  0.085712838            2 
  237000    1.1292192   -3.3436368    232.00244  0.081576105  0.085689727            3 
  238000    1.1529147   -3.3252986    232.82446   0.08152117  0.085665013            2 
  239000    1.1362101   -3.3270362    233.55856  0.081436039  0.085641432            2 
  240000    1.1345084   -3.2977556    235.09757    0.0816311  0.085618534            1 
  241000    1.1398443   -3.3423244    236.88801  0.081911484  0.085599474            3 
  242000    1.1518093    -3.368405    237.30231  0.081715671  0.085583073            3 
  243000    1.1412953   -3.3277015    238.20355  0.081688461   0.08556683            3 
  244000    1.1801834   -3.3029738    240.11361  0.082006013  0.085552363            3 
  245000    1.1746386   -3.3392396    239.41292  0.081432967  0.085537248            1 
  246000    1.1537199    -3.327341    241.01305  0.081643986   0.08551965            2 
  247000    1.1597198   -3.3846294     241.3554  0.081428948  0.085499975            1 
  248000    1.1438125   -3.3431873    242.17039  0.081374459  0.085473479            2 
  249000    1.1664058   -3.3408457    243.02785  0.081334621  0.085449001            1 
  250000     1.162156   -3.3159665    245.31053  0.081770177  0.085422162            2 
  251000    1.1389967   -3.3203486    245.37965  0.081467346  0.085394549            2 
  252000    1.1467679   -3.3140328    247.57836   0.08187115  0.085370696            2 
  253000    1.1428198   -3.3400799    246.20634  0.081095631  0.085345939            1 
  254000    1.1769251   -3.3642068    247.66343  0.081254406  0.085320296            1 
  255000    1.1429201   -3.3457722    248.17531  0.081103044  0.085291699            1 
  256000    1.1609251   -3.3622524    249.50264  0.081218308  0.085268548            1 
  257000    1.1341081    -3.348285    251.08653  0.081415865  0.085243486            3 
  258000    1.1587837   -3.3319858    251.55725   0.08125234  0.085217218            4 
  259000    1.1520058    -3.323248    253.03202  0.081413133  0.085190925            2 
  260000    1.1566641   -3.3336916    253.63575  0.081293511  0.085164263            7 
  261000    1.1417401   -3.3283787    254.66195  0.081309689  0.085138473            3 
  262000    1.1572384   -3.3500546    255.39528  0.081232594  0.085111626            3 
  263000    1.1719794   -3.3448253    256.33399  0.081221163  0.085085319            1 
  264000    1.1787218   -3.3480901    257.65709  0.081331153  0.085059051            2 
  265000    1.1631045   -3.3571223    259.09667  0.081476941  0.085035607            6 
  266000    1.1321882   -3.3382872    259.20888  0.081205788  0.085012445            2 
  267000    1.1536344   -3.3462413    259.66576  0.081044245  0.084989151            3 
  268000    1.1535937   -3.3577203    261.11613  0.081192825  0.084966832            2 
  269000    1.1277618   -3.3431813    262.08291  0.081190494  0.084943127            2 
  270000    1.1611844   -3.3201455    263.01765  0.081178286  0.084918419            4 
  271000     1.158519   -3.3433604    264.32878  0.081281912  0.084894061            2 
  272000    1.1372213   -3.3555998    265.15377  0.081235837  0.084867436            2 
  273000     1.155758   -3.3575408    266.61989  0.081385803   0.08484475            2 
  274000    1.1432323    -3.362513    267.38303  0.081320874  0.084818571            2 
  275000     1.139921   -3.3283795    268.12085  0.081248743  0.084793224            2 
  276000    1.1479705   -3.3440212    269.42142  0.081347047  0.084763791            3 
  277000    1.1272736   -3.3579521    269.08311  0.080951599   0.08473244            3 
  278000    1.1268136   -3.3812895    268.77467  0.080567946  0.084697282            1 
  279000    1.1284908   -3.3491861    269.39153   0.08046342  0.084665509            2 
  280000    1.1369432   -3.3879334    270.44297  0.080488979  0.084633263            2 
  281000    1.1163746   -3.3679369    273.39453  0.081077855  0.084604827            2 
  282000    1.1442984    -3.314029    273.76342  0.080899355  0.084574674            2 
  283000    1.1493233   -3.3506836    275.03847   0.08098895  0.084543539            4 
  284000       1.1504   -3.3441457    276.31365   0.08107795  0.084513696            4 
  285000    1.1337642   -3.3318482    276.60318  0.080878123  0.084486333            2 
  286000    1.1500789   -3.3534557     277.9022  0.080973833  0.084459057            1 
  287000    1.1415569   -3.3749755    277.85551  0.080678139  0.084431889            2 
  288000    1.1182087   -3.3641155    278.74598  0.080655665  0.084398969            2 
  289000    1.1432025   -3.3509624    281.12032  0.081061223   0.08436763            3 
  290000    1.1400116   -3.3687107    281.04766  0.080760823  0.084336897            3 
  291000    1.1256008   -3.3421318    283.04906  0.081056433  0.084308533            3 
  292000    1.1507911    -3.371488    283.21701  0.080826772  0.084277057            1 
  293000    1.1412148    -3.351903    284.10802   0.08080433  0.084247533            2 
  294000    1.1423499   -3.3849279    284.68039  0.080691722  0.084214287            3 
  295000    1.1758764   -3.3787864    284.77559  0.080445082  0.084178469            2 
  296000    1.1002764   -3.3481497    285.91741  0.080494765  0.084142512            1 
  297000     1.121836   -3.3799795    286.66141  0.080432494  0.084111965            3 
  298000    1.1373941   -3.3530989    286.61383   0.08014928  0.084077342            2 
  299000     1.135236   -3.3743716    287.85553  0.080227295  0.084043012            5 
  300000    1.1268561   -3.3701118    288.33647  0.080093465  0.084009052            2 
  301000    1.1351145   -3.3819375    289.83577  0.080242462  0.083972559            2 
  302000    1.1335363   -3.4034185    289.94224  0.080006137  0.083934172            2 
  303000    1.1228801   -3.3690721    290.18676  0.079809338  0.083895705            1 
  304000    1.1510774   -3.3576497    292.36439  0.080143746  0.083855581            2 
  305000    1.1553888   -3.3709562    293.20253   0.08010998  0.083816222            1 
  306000    1.1114526   -3.3751421    292.82977  0.079746669  0.083774086            2 
  307000    1.1384334    -3.406822    295.23629  0.080140143  0.083732571            2 
  308000    1.1359829   -3.3845082    295.45719  0.079939716  0.083695323            3 
  309000     1.140539    -3.348572    295.76667  0.079764473  0.083657035            2 
  310000    1.1169927   -3.4003736    296.86655  0.079802835  0.083619138            2 
  311000    1.1486737   -3.3841946    297.12546  0.079615611  0.083579748            4 
  312000    1.0856267   -3.3864919    299.02605  0.079868068  0.083541684            2 
  313000     1.126404   -3.3815786    299.90444  0.079846761  0.083502821            1 
  314000    1.1303617   -3.3811901    299.53222   0.07949369  0.083462367            2 
  315000    1.1534928   -3.3741054     301.2663   0.07970008  0.083422443            1 
  316000    1.1266061    -3.389542    300.98484  0.079373639  0.083381634            1 
  317000    1.1141512   -3.3710089    302.45095  0.079508662  0.083339192            2 
  318000    1.1071836   -3.3805203    303.25288  0.079468784  0.083299387            1 
  319000     1.108734   -3.4218063     304.8033  0.079624687  0.083258958            2 
  320000    1.1704424   -3.3917118    304.43686  0.079280431  0.083218407            3 
  321000    1.1540942   -3.4050681    305.10086  0.079205831  0.083174959            1 
  322000    1.1308052    -3.361224     307.4218  0.079560508  0.083132636            3 
  323000    1.1391016   -3.3798649    307.68177  0.079381261  0.083093818            3 
  324000    1.1176964    -3.363788    309.51733  0.079608367  0.083054648            2 
  325000    1.1096376   -3.3778292    309.20527  0.079283402  0.083015159            2 
  326000    1.1067845   -3.4346219    310.64754  0.079408881  0.082978195            2 
  327000    1.0972127   -3.3806324    311.74144  0.079444812  0.082936852            2 
  328000    1.1153585   -3.3727788    313.22285  0.079578975  0.082896398            2 
  329000    1.0947327   -3.3857095    313.01093  0.079283418  0.082856247            2 
  330000    1.1391817   -3.3816989    313.58582  0.079188338  0.082815247            1 
  331000    1.1434149   -3.4094235    314.40387  0.079155052  0.082775352            3 
  332000    1.1011823    -3.393762    316.39397  0.079416156  0.082738139            2 
  333000    1.1086227   -3.3833698    317.51747  0.079458827  0.082702523            2 
  334000    1.1289012   -3.3978676     317.3656  0.079183034  0.082665548            3 
  335000    1.1278002   -3.3809208    319.21141  0.079405824  0.082628297            1 
  336000    1.0945821   -3.3739909    318.88697  0.079089029  0.082594512            2 
  337000    1.1413531   -3.3859158    322.18772  0.079670555  0.082559171            1 
  338000    1.1597488   -3.3596106    320.50293   0.07901946  0.082522123            2 
  339000    1.1193521   -3.4228436    320.49205  0.078783689  0.082482969            2 
  340000    1.1072347   -3.3872845    321.28368  0.078745999  0.082440906            3 
  341000    1.1013187   -3.3627962     323.1009  0.078959164  0.082401375            2 
  342000    1.1090419   -3.3848222    325.02013  0.079195939  0.082363665            1 
  343000    1.1332386   -3.3973346    326.62217  0.079354268  0.082327478            4 
  344000    1.1086836   -3.3883398    327.74931  0.079396636  0.082295452            3 
  345000     1.108967   -3.3838249    329.98922  0.079707541  0.082264193            1 
  346000    1.1089398    -3.405305    330.32365   0.07955772  0.082231978            1 
  347000     1.115498   -3.3896091    331.91505  0.079710626  0.082204717            1 
  348000    1.1785186   -3.4303475    331.60751  0.079407928  0.082178738            2 
  349000    1.0985286   -3.3740849    333.30781  0.079586393  0.082150044            1 
  350000    1.1344291   -3.4141726    333.21235  0.079336273  0.082123551            4 
  351000    1.1184319   -3.3914906     335.4671  0.079645559   0.08209689            2 
  352000    1.1242837   -3.3740493    336.89569  0.079757502  0.082069413            1 
  353000    1.1094753   -3.4151397    334.11531  0.078875191   0.08204083            2 
  354000      1.11535   -3.3953845     336.6924  0.079259038   0.08201246            2 
  355000    1.0839771   -3.4035206    336.46941  0.078983429  0.081979505            1 
  356000    1.1278585   -3.4315547    336.30869  0.078723944  0.081946923            2 
  357000    1.1025218   -3.3806772    340.11578  0.079392105  0.081916949            1 
  358000    1.1082492    -3.410447    339.59751    0.0790497  0.081884869            3 
  359000    1.1098863   -3.4020561    341.54732  0.079282107  0.081854711            2 
  360000    1.1224064   -3.4017215    340.74226  0.078875523  0.081821984            2 
  361000    1.1012504   -3.4070628     342.5654  0.079077886  0.081785642            1 
  362000    1.1192634   -3.4069693    340.48293  0.078380048  0.081750522            3 
  363000    1.1148758   -3.3967527    342.70295  0.078673772   0.08171375            4 
  364000    1.1148345   -3.3983039    343.86169  0.078722915  0.081677864            2 
  365000    1.1094854   -3.3946465    344.17711  0.078579249  0.081642192            2 
  366000    1.1175817   -3.3995634    344.11161  0.078349638  0.081604006            3 
  367000     1.099031   -3.4245748    345.70733  0.078498486  0.081566074            3 
  368000    1.1085693    -3.412631    346.64367  0.078497207  0.081526494            2 
  369000    1.1166594   -3.3888582    347.28023  0.078428237  0.081487548            2 
  370000    1.1223376    -3.412812    349.29888   0.07867092  0.081448494            2 
  371000     1.097608   -3.4219546    350.12808  0.078645121  0.081408728            2 
  372000    1.1115885   -3.4146025    349.18171   0.07822171  0.081368099            1 
  373000     1.111523   -3.4118004    349.88358  0.078168808  0.081327797            1 
  374000    1.0894348   -3.4157552    351.31839    0.0782795  0.081288785            3 
  375000    1.1025956   -3.3944681    352.22161  0.078271469  0.081247563            1 
  376000    1.1024744   -3.3736091    353.88675  0.078432347  0.081209515            1 
  377000    1.1277979    -3.415676     354.8542  0.078438152  0.081172604            2 
  378000    1.0819518   -3.3967212    355.57833  0.078390284  0.081134829            4 
  379000    1.1006106   -3.3999116    353.49924  0.077726307   0.08109616            4 
  380000    1.0791651   -3.3841054    356.22264  0.078118999  0.081056722            4 
  381000    1.0937504   -3.4337777    356.92784  0.078068205  0.081017022            1 
  382000    1.1000462   -3.4474619    357.58786  0.078007824  0.080979129            2 
  383000    1.1064462   -3.3931678     359.7053   0.07826486  0.080939698            3 
  384000    1.1031396    -3.407731    358.99186   0.07790622   0.08090104            2 
  385000    1.1055303   -3.4297058    361.33281  0.078210564  0.080862621            3 
  386000    1.1040021   -3.4392761    360.89597  0.077913639  0.080824888            4 
  387000     1.088082   -3.4034731    362.54569  0.078067548  0.080789389            2 
  388000    1.0801853   -3.3994789    363.61522  0.078096053  0.080755186            1 
  389000    1.1249297   -3.4214431     363.2572  0.077818594  0.080718833            1 
  390000    1.1074342   -3.4274236    362.99292   0.07756259  0.080682489            2 
  391000    1.1085867   -3.4208108     367.0003  0.078218308  0.080648605            1 
  392000    1.0974155   -3.4277511    366.75327  0.077966256  0.080613791            3 
  393000    1.0894099   -3.4370219    367.41583  0.077908361  0.080580516            3 
  394000    1.0798591   -3.4299002    367.06414   0.07763624  0.080547496            2 
  395000    1.1021017   -3.3993056     370.1341  0.078087363  0.080512656            4 
  396000    1.0900087   -3.4073129    370.93859  0.078059468  0.080480647            1 
  397000     1.092083   -3.4252693    371.95885  0.078077006  0.080449456            3 
  398000    1.0869801   -3.4185727    372.06057   0.07790213  0.080417558            3 
  399000    1.1071353   -3.4030884    373.28908  0.077963467  0.080384232            1 
  400000    1.0845685   -3.4143218    373.35679  0.077782666  0.080350475            3 
  401000    1.1011476   -3.3995572    374.38022  0.077801375  0.080317806            4 
  402000    1.0757989   -3.4104399    376.21531  0.077988247  0.080286083            1 
  403000    1.0810147   -3.4221781    375.81775  0.077712521  0.080253115            2 
  404000    1.1252153   -3.4268648    376.77652  0.077717929  0.080220324            4 
  405000    1.0832521   -3.4070667    377.59412  0.077694264  0.080187444            3 
  406000    1.0634057   -3.4328936    378.51584  0.077692085  0.080154177            1 
  407000    1.0805012   -3.4467258    378.97031  0.077594249   0.08012199            1 
  408000    1.0903138   -3.4491139    380.05431  0.077625472   0.08009104            2 
  409000     1.095573   -3.4102352    382.02534  0.077837274  0.080059715            2 
  410000    1.0896534   -3.4046275    381.79044  0.077599682  0.080027408            2 
  411000      1.08022   -3.4486311     381.6652  0.077385482  0.079995626            3 
  412000    1.0989976   -3.4353141    383.23496  0.077515161  0.079962183            2 
  413000    1.0977615   -3.4248634     383.5819  0.077397477  0.079928297            2 
  414000    1.1006016   -3.4650815    383.25006  0.077143733  0.079891626            2 
  415000    1.0722156   -3.4231113    385.72583  0.077454985  0.079857277            1 
  416000     1.079467   -3.4085061    385.53293  0.077230154  0.079822267            2 
  417000    1.0958991   -3.4616313    386.30775   0.07719979  0.079786963            2 
  418000    1.0793024   -3.4476084    386.18626   0.07699088  0.079752173            3 
  419000    1.0934854   -3.4339885    390.12509   0.07759051  0.079716993            2 
  420000    1.0805429   -3.4317622    389.01524  0.077185563  0.079682947            1 
  421000    1.0724388   -3.4371344    391.44962  0.077484089  0.079648343            3 
  422000     1.080177   -3.4370606    389.22632  0.076861437   0.07961415            3 
  423000    1.0981796   -3.4529991    391.13231  0.077055222  0.079578889            2 
  424000    1.0920415   -3.4751769    390.71103   0.07679069  0.079542663            1 
  425000    1.0861351   -3.4545911    392.71101  0.077002158  0.079505521            3 
  426000    1.0718199   -3.4385626    392.98544  0.076875085  0.079471139            2 
  427000    1.0760265   -3.4527599    394.79653  0.077048502  0.079436447            1 
  428000    1.0856212    -3.451723    396.03915  0.077110427   0.07940286            2 
  429000    1.0817115    -3.441344    397.86562  0.077285475  0.079368598            3 
  430000    1.0763845    -3.447574    396.38156  0.076818132  0.079335637            2 
  431000    1.0680035   -3.4206962    398.22486    0.0769963  0.079303211            3 
  432000     1.070938   -3.4442374    398.90615  0.076949488  0.079270494            2 
  433000    1.0741503   -3.4319044    401.32136  0.077236596  0.079238596            3 
  434000    1.0847697    -3.445335    400.92927  0.076983346  0.079206191            2 
  435000    1.0597095   -3.4339644     402.8947  0.077182893   0.07917482            1 
  436000    1.0686021   -3.4399408    404.04409  0.077225551  0.079144477            3 
  437000    1.0838796   -3.4445213    402.60706  0.076774802   0.07911271            3 
  438000     1.097115   -3.4074114    406.94603  0.077425045  0.079082771            3 
  439000    1.0506738   -3.4072738    405.15573  0.076908833  0.079052024            4 
  440000    1.0825647   -3.4319953    405.18152  0.076738925  0.079020447            3 
  441000    1.0706883   -3.4492166    407.36908  0.076978284  0.078989661            3 
  442000    1.0900528   -3.4355827    408.26428  0.076972904  0.078957859            7 
  443000    1.0632045    -3.433813    408.32581  0.076810725   0.07892563            3 
  444000    1.0908066   -3.4019397    409.81578  0.076917375  0.078891697            2 
  445000    1.0807468   -3.4604467    409.59068  0.076702375  0.078859146            2 
  446000    1.0621753   -3.4480689    410.16056  0.076636877  0.078826689            5 
  447000    1.0700871   -3.4301791    411.35209  0.076687563  0.078792147            3 
  448000    1.0803475   -3.4591804    410.77818  0.076409632  0.078759281            2 
  449000    1.0656436   -3.4299042    411.94093  0.076455258  0.078725277            3 
  450000    1.0952945   -3.4420499    414.05967  0.076677716  0.078691331            2 
  451000    1.0633088     -3.44362    414.10582  0.076516227  0.078657399            6 
  452000    1.0617134   -3.4340128    414.31776  0.076386018  0.078623464            1 
  453000    1.0623283   -3.4660383    415.36796  0.076410589  0.078589584            1 
  454000    1.1032293   -3.4633111    415.88642  0.076337448  0.078554749            4 
  455000    1.0749045    -3.427651    414.48058  0.075912194  0.078520003            2 
  456000    1.0665897   -3.4781302    415.23244  0.075883122   0.07848403            3 
  457000    1.0751088   -3.4566303    415.18607   0.07570862  0.078447284            2 
  458000    1.0743493   -3.4545579    418.05657  0.076065606  0.078410154            6 
  459000     1.059078   -3.4367497    418.87129  0.076047802  0.078372602            2 
  460000    1.1051628    -3.424225    418.17202  0.075755801  0.078335701            1 
  461000    1.0818478   -3.4536009    418.43922  0.075639773   0.07829685            2 
  462000    1.0829563   -3.4729856    418.52089   0.07549078  0.078258105            2 
  463000    1.0613591   -3.4716995    418.57995  0.075338364  0.078218047            1 
  464000    1.0515274    -3.432546    423.19817  0.076005418  0.078178371            2 
  465000    1.1053638   -3.4525864    423.04336  0.075814221  0.078138775            3 
  466000    1.0782236   -3.4295375    423.54684  0.075741567  0.078099684            3 
  467000    1.0521474    -3.455129    423.78598  0.075622052  0.078061532            3 
  468000    1.0625505   -3.4587308     426.1126  0.075874751  0.078024029            3 
  469000    1.0628764   -3.4625718      424.662  0.075455223  0.077985161            3 
  470000    1.0632713   -3.4664615    425.18499   0.07538741   0.07794649            2 
  471000    1.0677937   -3.4578863    428.24496  0.075768746  0.077906345            2 
  472000    1.0385389   -3.4587055    426.60411  0.075318523   0.07786748            4 
  473000     1.060825   -3.4665145    427.17988  0.075260726  0.077827495            1 
  474000    1.0611075    -3.461506    428.66143  0.075362417  0.077787755            1 
  475000    1.0808753   -3.4767552    430.47319  0.075521612  0.077748701            3 
  476000    1.0875568   -3.4624193    429.34077    0.0751647  0.077709848            2 
  477000     1.062546   -3.4659533    430.46013  0.075202679  0.077669825            5 
  478000    1.0331963   -3.4615111    431.56392  0.075237782  0.077629576            4 
  479000     1.067031   -3.4626957    431.72157  0.075108136  0.077590728            3 
  480000    1.0694947   -3.4494753    433.56346  0.075271434  0.077550756            1 
  481000    1.0711855   -3.4636551    434.65365   0.07530382  0.077513236            4 
  482000    1.0797129   -3.4507522    433.67971  0.074979202  0.077474277            3 
  483000     1.077056   -3.4562341    433.73361  0.074833267  0.077435826            4 
  484000    1.0471465   -3.4558791    435.90361  0.075052274   0.07739514            4 
  485000    1.0668515   -3.4747898    435.03204  0.074747773   0.07735356            3 
  486000    1.0608802   -3.4638735      435.191  0.074621228  0.077312131            2 
  487000    1.0577605   -3.4703718    436.08103    0.0746203   0.07726931            2 
  488000    1.0599669   -3.4968523    437.74346  0.074751273  0.077227768            2 
  489000     1.064159   -3.5097641     436.9229  0.074458572  0.077187166            1 
  490000    1.0800249   -3.4743516    439.94623  0.074820788  0.077148052            3 
  491000    1.0500849   -3.4746482    440.60686  0.074780526  0.077109737            1 
  492000    1.0591769   -3.5038723    441.35123  0.074754613  0.077070571            3 
  493000    1.0475648    -3.479765    442.48702  0.074794965   0.07703151            6 
  494000    1.0787451   -3.4668893    443.34737  0.074788693  0.076992562            2 
  495000    1.0729351   -3.4720738    442.86047  0.074555634   0.07695316            2 
  496000    1.0410327   -3.4701818    444.68619  0.074712061  0.076913508            2 
  497000     1.038029   -3.4691279    445.14784  0.074639141  0.076873942            2 
  498000    1.0722168   -3.5098669    443.69417  0.074246012  0.076833927            2 
  499000    1.0450438   -3.4772872    445.57243  0.074410893  0.076794209            1 
  500000    1.0433966   -3.4827457     445.9122  0.074318699  0.076752934            2 
  501000     1.047122   -3.4649963    447.65301  0.074459914  0.076713856            3 
  502000    1.0422842   -3.4879689    448.29266  0.074417772  0.076673716            4 
  503000    1.0898343   -3.4746259    448.66234   0.07433107  0.076632774            1 
  504000    1.0522392    -3.469407    447.86979  0.074052545  0.076591678            2 
  505000    1.0616439   -3.4903036    447.63159  0.073866599  0.076548736            3 
  506000    1.0509547   -3.5356509    448.42783  0.073851751  0.076506637            5 
  507000    1.0370023   -3.4993935    451.58282  0.074224658   0.07646398            1 
  508000    1.0494415   -3.4784555    451.11455  0.074001731  0.076423274            4 
  509000    1.0439416   -3.4770413    451.50023  0.073919488  0.076380169            2 
  510000    1.0383466   -3.4993194    452.84377   0.07399408  0.076337563            6 
  511000    1.0540949   -3.4823797    450.61509  0.073485826  0.076294722            2 
  512000    1.0583424   -3.4551352    455.03846   0.07406225  0.076253035            3 
  513000    1.0484423   -3.4818785    455.09586  0.073927202  0.076211825            1 
  514000    1.0574835   -3.4829763    454.15565  0.073630943  0.076169264            6 
  515000    1.0583622   -3.5260397    454.77757  0.073588603  0.076128263            4 
  516000    1.0341615   -3.5092518    456.68053  0.073753315  0.076085624            5 
  517000    1.0415949   -3.4941734     458.1151  0.073841892  0.076044445            2 
  518000    1.0261051   -3.4798714    459.09737  0.073857363   0.07600557            2 
  519000    1.0265884   -3.4951859    458.95258  0.073691807   0.07596622            2 
  520000    1.0356949    -3.495718    459.76234  0.073679862  0.075925661            1 
  521000    1.0542677   -3.4900125    461.03067   0.07374131   0.07588691            1 
  522000    1.0582037   -3.4965651    462.74499  0.073873721  0.075848669            1 
  523000    1.0491889   -3.5044277    462.46081  0.073687191   0.07581047            6 
  524000    1.0693393   -3.4974688    464.91955  0.073937588  0.075772963            1 
  525000    1.0493699   -3.4908964    465.87581  0.073948541  0.075735589            1 
  526000    1.0425305   -3.4887511    465.09333  0.073683987  0.075697432            2 
  527000    1.0185736   -3.4994546    465.22392  0.073564819   0.07565867            3 
  528000    1.0362909   -3.4751751    465.32099  0.073440813  0.075620006            3 
  529000    1.0613072   -3.4934128    467.16389  0.073592295  0.075583602            4 
  530000    1.0431435   -3.5052375    468.19369  0.073615361  0.075545361            5 
  531000    1.0324763   -3.4890356    468.49319  0.073523728   0.07550821            2 
  532000    1.0416806    -3.510486     468.9509  0.073457221  0.075469706            3 
  533000    1.0191499   -3.4823676    471.80756  0.073766035  0.075432543            5 
  534000    1.0529217   -3.4926492    471.60673  0.073596556  0.075395446            3 
  535000    1.0214553   -3.4465862    472.74932  0.073636965  0.075359767            2 
  536000    1.0464818    -3.505172    471.74862  0.073344002  0.075322964            8 
  537000    1.0394543   -3.4959899    472.68002  0.073351959  0.075286075            3 
  538000    1.0435334   -3.5363423    473.74436  0.073380476  0.075250689            1 
  539000    1.0219154    -3.503501    475.70983  0.073548211  0.075213784            2 
  540000    1.0406248   -3.5011904    477.06083  0.073620499  0.075177707            2 
  541000    1.0359662   -3.4945514    477.31684   0.07352385  0.075142148            2 
  542000     1.036457   -3.5042868    475.61737  0.073126903  0.075107255            3 
  543000    1.0452132   -3.4984617    477.40184   0.07326609  0.075071424            2 
  544000     1.039541   -3.4980689    477.27324   0.07311171  0.075034429            4 
  545000    1.0206602   -3.5019172    476.84845  0.072912607  0.074995972            3 
  546000    1.0433351   -3.5022304    477.84155  0.072930639  0.074958807            1 
  547000    1.0389253    -3.513347    480.46955  0.073197677  0.074923418            3 
  548000     1.025414   -3.5175343    480.12093   0.07301109  0.074885295            2 
  549000    1.0462709   -3.5291267    480.29563  0.072904619  0.074847933            1 
  550000    1.0259213   -3.5108449     481.1705   0.07290462   0.07481043            2 
  551000    1.0261809   -3.5110454    480.02194  0.072598599  0.074771918            3 
  552000    1.0503827   -3.5441101    480.40115  0.072524328  0.074733433            2 
  553000    1.0437798   -3.5370806    480.11125  0.072349495  0.074693659            2 
  554000    1.0428818   -3.4896925    483.21388  0.072685601  0.074654396            2 
  555000    1.0544994   -3.4932605    485.37903  0.072879735  0.074615812            1 
  556000    1.0201172   -3.5359025    483.24547  0.072428878  0.074576454            4 
  557000    1.0345035   -3.4989095    485.21137  0.072592964  0.074537178            8 
  558000    1.0319109    -3.527696    484.78718  0.072399518  0.074499164            6 
  559000    1.0053466   -3.5172522     487.2622  0.072638968  0.074462024            4 
  560000    1.0371193   -3.5240583    489.30693  0.072813531  0.074424711            6 
  561000    1.0335149   -3.5156443    488.67923  0.072590497  0.074387691            2 
  562000    1.0205763   -3.4883926    490.46104  0.072725539  0.074350961            6 
  563000    1.0144312   -3.4844988    491.20627  0.072706672  0.074314641            4 
  564000    1.0302507   -3.5206445    490.63627  0.072493539  0.074278277            2 
  565000    1.0246169   -3.5230671    492.00484  0.072567085   0.07424022            2 
  566000    1.0359428   -3.4789613    489.99434  0.072142865  0.074203013            1 
  567000     1.033382   -3.5038255    491.27174  0.072203372  0.074163772            2 
  568000    1.0300604   -3.5419374    490.15088  0.071911808  0.074124516            2 
  569000    1.0335739   -3.5272656    490.51219   0.07183834  0.074085351            4 
  570000    1.0234736   -3.5549639    493.14684  0.072097491  0.074045581            3 
  571000      1.03065    -3.518436    495.38668  0.072298115  0.074007182            2 
  572000    1.0352684   -3.5152857    495.00688  0.072116387  0.073967592            2 
  573000    1.0346043   -3.5044787    496.64316  0.072228499  0.073928094            2 
  574000     1.032334   -3.5053806    496.82815  0.072129523  0.073888396            2 
  575000    1.0247868   -3.4883131    497.28514  0.072070311   0.07385028            3 
  576000     1.017062   -3.5398119    498.88179  0.072176185  0.073812855            4 
  577000    1.0275217   -3.4760809    500.67924  0.072310693  0.073776266            2 
  578000   0.99235476   -3.4972281    500.83477  0.072208012  0.073739806            2 
  579000   0.99884031   -3.4998247    500.90796  0.072093834  0.073703249            2 
  580000    1.0275939   -3.5224606    500.55516  0.071918845   0.07366482            2 
  581000    1.0170761   -3.5245095    502.51115   0.07207561  0.073627479            3 
  582000    1.0218763   -3.5277209    501.48631  0.071805027  0.073588133            3 
  583000    1.0049331   -3.5439664    500.42711  0.071530461      0.07355            3 
  584000    1.0144609   -3.4967879    503.05536  0.071783013  0.073511609            4 
  585000    1.0103938   -3.5204186    502.36832  0.071562439   0.07347298            3 
  586000    1.0231346   -3.5293531    504.31882  0.071717694  0.073434323            4 
  587000    1.0384837   -3.5270403    504.84463  0.071670164  0.073395281            2 
  588000    1.0029105   -3.5168214    504.72202  0.071530899  0.073356642            3 
  589000    1.0050735   -3.5640299    505.05178  0.071456109  0.073317105            4 
  590000    1.0390774    -3.544601    506.18326  0.071494811  0.073278826            6 
  591000    1.0462581   -3.5357024    506.24307  0.071382272  0.073241547            3 
  592000    1.0165249   -3.5365293    506.56305  0.071306735   0.07320369            3 
  593000    1.0139091   -3.5481461    509.88773  0.071653701  0.073166737            3 
  594000    1.0284829   -3.5401114     511.6579  0.071781412  0.073129517            1 
  595000    1.0005987   -3.4990227    510.21414  0.071458563  0.073093367            3 
  596000    1.0252744   -3.5372834    510.02398  0.071312078  0.073055072            2 
  597000    1.0409911   -3.5169101    513.28387  0.071647665  0.073019281            2 
  598000   0.99646501   -3.5419833    510.80456  0.071182353  0.072982124            2 
  599000     1.019237   -3.5371735    510.75655  0.071056837  0.072944365            3 
  600000     1.019073   -3.5438173    514.11266  0.071404536  0.072907328            3 
  601000    1.0165283   -3.5503187    514.28238  0.071309259  0.072870931            1 
  602000    1.0034961   -3.5401184    516.88888  0.071551617   0.07283504            3 
  603000    1.0142336   -3.5528383    512.59262  0.070839223  0.072799138            2 
  604000   0.99611662   -3.5500433    515.58345  0.071134582  0.072762381            3 
  605000       1.0118   -3.5354316    517.48556  0.071279003  0.072726009            3 
  606000    1.0133182   -3.5308615    517.90385  0.071218901  0.072689658            2 
  607000    1.0135382   -3.5670944    516.17157  0.070863752  0.072652324           10 
  608000    1.0046422   -3.5312928    517.91096  0.070985603  0.072615354            7 
  609000    1.0123788   -3.5411144    518.51278  0.070951394  0.072577844            2 
  610000    1.0067002   -3.5514699    519.07234  0.070911522  0.072539977            2 
  611000    1.0112537    -3.553962    520.25934  0.070957357  0.072502952            7 
  612000    1.0027009   -3.5106379    519.12847  0.070687428  0.072466609            2 
  613000   0.99987948   -3.5525361    523.46715  0.071161929  0.072431261            2 
  614000    1.0033465    -3.555821    522.09235   0.07085944  0.072395781            3 
  615000    1.0048073   -3.5315465    524.61489  0.071086028  0.072360518            2 
  616000   0.98371365   -3.5361736    524.36579   0.07093693  0.072325397            2 
  617000    1.0242697   -3.5414633    524.24892  0.070806175  0.072290179            2 
  618000    1.0339498   -3.5303688     524.7662  0.070761354  0.072254979            1 
  619000    1.0008228   -3.5620968    525.67446  0.070769314  0.072219712            1 
  620000    1.0190236   -3.5504167    528.11863  0.070983687  0.072184504            3 
  621000    1.0128531   -3.5492578     528.1466  0.070873134  0.072150883            2 
  622000    1.0050887   -3.5434098    527.97314  0.070735952  0.072116278            2 
  623000   0.99361518   -3.5384043    531.21679  0.071056286  0.072080718            4 
  624000   0.99593647   -3.5369114    530.84404  0.070892633     0.072047            3 
  625000    1.0151238   -3.5578547    529.55412  0.070607216  0.072012505            3 
  626000    1.0050635   -3.5595292    529.94405  0.070546333   0.07197771            3 
  627000   0.99832723   -3.5129448    534.71405   0.07106779  0.071943082            3 
  628000    1.0016562   -3.5376263    531.38451  0.070512806  0.071908559            2 
  629000    1.0074997   -3.5648861    533.46703  0.070676607  0.071874658            3 
  630000    1.0239178   -3.5686236    531.93812  0.070362185  0.071839721            2 
  631000   0.99760373   -3.5592701    532.40153  0.070311877  0.071804277            3 
  632000   0.99757428   -3.5645234    533.49178   0.07034438  0.071769051            5 
  633000   0.98515265   -3.5490827    535.04793  0.070438116  0.071734215            2 
  634000   0.99738797   -3.5618703    534.82466  0.070297669  0.071699074            4 
  635000   0.98413294   -3.5506913    536.72029  0.070435734  0.071665331            2 
  636000    1.0054586    -3.560198    536.41931  0.070285549  0.071630099            4 
  637000   0.97187846   -3.5855182    536.86124  0.070233024  0.071593925            4 
  638000    1.0246373   -3.5437975    537.07275  0.070150568  0.071558708            3 
  639000    1.0004393   -3.5413669    539.73067  0.070387412  0.071524118            3 
  640000   0.99346322   -3.5735307    539.17107  0.070204566  0.071488493            3 
  641000    1.0102334   -3.5735721    538.37341  0.069991343  0.071453907            2 
  642000    1.0097108   -3.5484745    540.87752  0.070207362   0.07141962            3 
  643000    1.0211848   -3.5676257    541.65967  0.070199542  0.071385049            4 
  644000    1.0040192   -3.5786985    539.59486  0.069823352  0.071349536            3 
  645000   0.99805618   -3.5852234    539.99412  0.069766682  0.071313917            4 
  646000   0.99647259   -3.5587032    542.43541  0.069973607  0.071278396            4 
  647000    1.0132791   -3.5632898    542.19037  0.069833896  0.071242905            2 
  648000   0.98162548   -3.5626797    542.72604  0.069795015  0.071207471            2 
  649000   0.98472164   -3.6031633    542.14795  0.069613245  0.071171734            5 
  650000   0.99523977   -3.5786853    545.01924  0.069874262  0.071136762            2 
  651000    1.0088788   -3.5607652    543.83923  0.069615876  0.071101951            6 
  652000   0.99915415    -3.579331     546.4894  0.069847827  0.071066331            5 
  653000    1.0314315   -3.5861648    545.12302  0.069566491   0.07103074            2 
  654000    1.0068406   -3.6142402    544.71502  0.069408132  0.070995486            2 
  655000    1.0000271   -3.5439172    546.99909   0.06959276  0.070960398            1 
  656000   0.99275716   -3.5870775    550.81729  0.069971709  0.070925115            3 
  657000    1.0045718   -3.5734676    550.50752  0.069825916  0.070890923            4 
  658000   0.98232689   -3.5771337    550.04556  0.069661292  0.070856075            2 
  659000    1.0084881   -3.5595241    550.50631  0.069613848  0.070821535            2 
  660000   0.97456936   -3.5471217    551.23841   0.06960081  0.070786552            3 
  661000   0.99049949   -3.5290607    552.35632   0.06963645  0.070751914            2 
  662000   0.99860384   -3.5547295    552.23232   0.06951565  0.070716989            2 
  663000    1.0112341   -3.5678117    549.51006  0.069068635  0.070681613            2 
  664000   0.96535047   -3.5950542     553.9047  0.069516152  0.070646161            4 
  665000   0.98489096   -3.5950693    553.43766   0.06935309  0.070611591            1 
  666000    1.0071198   -3.5736895    553.43777  0.069248971  0.070575878            3 
  667000   0.99194623    -3.585864    553.24379  0.069120913  0.070539091            2 
  668000   0.99037033   -3.5756172    554.38081  0.069159283  0.070503104            2 
  669000     1.002839   -3.5803463    553.89648  0.068995576  0.070467192            6 
  670000   0.99321329   -3.5831877    554.19817  0.068930121  0.070430834            3 
  671000   0.97610393   -3.5847929    557.42209  0.069227781  0.070395508            1 
  672000   0.98588109   -3.5722775    557.33208  0.069113602   0.07036112            2 
  673000    1.0015231   -3.5867648    557.76129  0.069064053  0.070326943            2 
  674000    1.0098493   -3.6025131    556.96584  0.068863235  0.070293765            2 
  675000   0.98630533    -3.586136    560.05458  0.069142541  0.070259746            4 
  676000   0.96893627   -3.5748391    561.13789  0.069173803  0.070225436            2 
  677000   0.96581215   -3.5964286    557.72566  0.068651607  0.070190252            3 
  678000    1.0066157   -3.5950204    560.00617  0.068830651  0.070154932            4 
  679000    0.9699888    -3.551774    563.80616   0.06919565   0.07012006            2 
  680000   0.98766588   -3.5580153    562.66065  0.068953511  0.070085685            3 
  681000   0.98786396   -3.6068201    561.36277  0.068693437  0.070051399            3 
  682000   0.97222804   -3.5665715    562.79462  0.068767671  0.070017028            3 
  683000     0.979135    -3.585625    567.08804   0.06919083  0.069982643            4 
  684000   0.99070418   -3.5606734    563.64212  0.068669849  0.069949003            2 
  685000   0.98073666   -3.5728637    566.92626  0.068969131  0.069915781            4 
  686000   0.98463233   -3.5809657    565.73992   0.06872448  0.069882328            3 
  687000   0.97423649    -3.582161    566.37654  0.068701667  0.069849211            2 
  688000   0.98903829    -3.597564     567.0829  0.068687367  0.069816132            3 
  689000    1.0035506   -3.6074495    569.34429  0.068861186  0.069782858            1 
  690000   0.96387141   -3.5855983    570.41076  0.068890188  0.069749257            5 
  691000   0.96465029   -3.5813505    569.15024  0.068638476  0.069714975            3 
  692000   0.98927595   -3.5744314    570.05608  0.068648372  0.069680797            2 
  693000   0.99025657   -3.5961826    569.27497  0.068455384  0.069645877            5 
  694000   0.98470454   -3.5666199    568.92111  0.068314254  0.069612314            2 
  695000   0.97848547   -3.6033876    570.42932  0.068396801  0.069578014            4 
  696000   0.96929914   -3.5654908    569.27145  0.068159896  0.069542875            2 
  697000   0.99556816   -3.5697621    572.26252  0.068419718  0.069509159            2 
  698000   0.99360477    -3.596079    571.75224  0.068260774  0.069474694            2 
  699000   0.98341344   -3.6018299    574.54674  0.068496273  0.069440105            8 
  700000   0.96150649   -3.5882422    575.29724  0.068487766  0.069406142            3 
  701000   0.98455257   -3.5930083    572.35501  0.068040301  0.069372106            2 
  702000   0.94809747   -3.5644037    575.02469  0.068260291  0.069337994            3 
  703000   0.96180266   -3.6010758    573.23713  0.067951295   0.06930297            5 
  704000   0.97256968   -3.5879954     573.7211  0.067912062   0.06926683            6 
  705000   0.96791031   -3.5927297    576.34718  0.068126145  0.069231335            2 
  706000   0.98634654   -3.5958278    575.60136  0.067941615  0.069195697            3 
  707000   0.98342065   -3.5708701    575.08994  0.067785235  0.069159928            3 
  708000   0.96023387   -3.6218924    576.23619   0.06782441  0.069123477            3 
  709000   0.96768125   -3.6026019    576.00191  0.067701212  0.069087565            3 
  710000   0.98451126   -3.6062857    574.39822  0.067417631  0.069051369            5 
  711000   0.96073577   -3.6165947    578.57688  0.067812574  0.069014232            4 
  712000   0.96426612   -3.5804722     579.3217  0.067804506  0.068978469            3 
  713000   0.95855637   -3.5975828     576.7836  0.067412763  0.068941829            1 
  714000   0.95830134   -3.5924582    580.18045  0.067714805  0.068905904            2 
  715000   0.95217645   -3.6025547    579.12231  0.067496773  0.068870158            3 
  716000   0.96021622   -3.6106297    578.51724   0.06733208  0.068834364            4 
  717000   0.97004411   -3.6008858    583.81678  0.067854112  0.068798958            4 
  718000   0.98061544   -3.5902309    582.31176   0.06758493  0.068763713            2 
  719000   0.98994415   -3.5995471    585.26769  0.067833529  0.068729145            3 
  720000   0.97962191   -3.6109863    584.79652  0.067684782  0.068694275            1 
  721000   0.94939504   -3.5821478    585.14129  0.067630755  0.068658808            5 
  722000   0.96514699   -3.6080188     583.1544  0.067307757  0.068624308            4 
  723000   0.97301763   -3.5976395    585.18994  0.067449279  0.068589949            6 
  724000   0.96850222   -3.6107229    586.38281  0.067493418  0.068555519            6 
  725000    0.9595776   -3.6149418    584.24891  0.067155047  0.068519985            1 
  726000   0.97827562   -3.6233273    587.95198  0.067487601  0.068485552            4 
  727000   0.96275387    -3.611089    588.02707  0.067403378  0.068450263            2 
  728000   0.97326878   -3.6127151    586.84664  0.067175668  0.068415428            3 
  729000   0.97287719   -3.6133672     589.7866  0.067419593  0.068381722            2 
  730000   0.98117563   -3.6010653    589.55117  0.067300362  0.068347021            2 
  731000   0.96041393   -3.6060923    592.28315  0.067519739  0.068313697            2 
  732000   0.95729589   -3.5858247    593.46638  0.067562202  0.068280795            4 
  733000   0.95324894     -3.59303    593.46648  0.067470041  0.068247239            4 
  734000   0.96850591   -3.6059115    592.75786  0.067297667  0.068214195            3 
  735000   0.97882343   -3.6372796     592.8453   0.06721602  0.068181093            4 
  736000   0.95308865    -3.634862    593.92344  0.067246766  0.068147585            2 
  737000   0.97251377   -3.6229301    592.39671  0.066982893  0.068114805            3 
  738000   0.98054939   -3.5964333    596.35317  0.067338885  0.068081719            3 
  739000   0.94354523   -3.6123873    594.97796  0.067092689  0.068048687            2 
  740000    0.9551689   -3.6044976    597.72994   0.06731193  0.068016406            3 
  741000   0.95415024   -3.5903269    597.76591  0.067225136   0.06798469            2 
  742000   0.95473561   -3.6243288    594.93287   0.06681636  0.067952219            4 
  743000   0.94801804   -3.6100407    600.80449  0.067384981  0.067919725            4 
  744000   0.95763287   -3.6163418    597.92176  0.066971523  0.067887683            2 
  745000   0.96551044   -3.6540579    597.27061  0.066808793  0.067855018            5 
  746000   0.96029409   -3.6453392    599.83789  0.067006019   0.06782224            1 
  747000   0.95338744   -3.6142051    600.34194   0.06697255  0.067791068            6 
  748000   0.97660131   -3.6041242    603.25294  0.067207324  0.067759855            1 
  749000   0.95049107   -3.6270923    603.28823  0.067121521  0.067729074            3 
  750000   0.94885082   -3.6267873    603.84415  0.067093794   0.06769873            3 
  751000   0.93790606   -3.6062403     604.7138  0.067100954   0.06766818            2 
  752000   0.97611513   -3.6153533    604.90762  0.067033203  0.067637533            3 
  753000   0.95471167    -3.601889    603.19705  0.066754874  0.067606252            3 
  754000   0.96679628   -3.6310231    606.39406  0.067019679  0.067576096            3 
  755000   0.95366521   -3.6247728    607.00613  0.066998469  0.067545661            2 
  756000    0.9428768   -3.6214568    608.89512  0.067118069  0.067515521            2 
  757000   0.94462761    -3.613168    610.22231  0.067175508   0.06748625           10 
  758000   0.96888758   -3.6422105    606.07114  0.066630512  0.067456552            4 
  759000   0.95317824   -3.6347426    608.29849  0.066787274  0.067425868            3 
  760000   0.95672456   -3.6410291    608.23565  0.066692505  0.067395413            3 
  761000   0.94246905   -3.6203766    612.30818   0.06705083  0.067365929            2 
  762000   0.95780758   -3.6472951    613.18932    0.0670592  0.067335801            4 
  763000   0.96495881   -3.6285211    611.61733  0.066799621  0.067306689            4 
  764000   0.92754335    -3.624985    613.84936  0.066955646   0.06727808            2 
  765000   0.94758668   -3.6545819     612.9549  0.066770687  0.067248568            5 
  766000   0.95105976   -3.6337174    613.28588  0.066719525  0.067218691            1 
  767000    0.9333709   -3.6317145    613.14974  0.066617746  0.067189451            6 
  768000   0.96155045   -3.6127925    615.39877   0.06677504  0.067160745            3 
  769000   0.95128843   -3.6438603    615.89834  0.066742343  0.067131683            3 
  770000    0.9373643   -3.6524207    616.26982  0.066695868   0.06710242            4 
  771000   0.94197435   -3.6134403    618.88993  0.066892556  0.067074282            4 
  772000   0.95686146   -3.6326906    622.32616   0.06717683  0.067046734            1 
  773000   0.94229315   -3.6339106    620.30377  0.066871902   0.06701868            2 
  774000   0.94369669   -3.6272172    620.34436  0.066789875  0.066991016            6 
  775000   0.93388514   -3.6362633    622.41018  0.066925825  0.066962994            3 
  776000   0.94633397   -3.6380267     620.3895  0.066622584  0.066935578            1 
  777000   0.93914662   -3.6396377     622.5423  0.066767729   0.06690735            4 
  778000   0.94763139   -3.6467082    623.45364  0.066779525  0.066878533            3 
  779000    0.9688901   -3.6587393    621.01837  0.066433287  0.066849535            5 
  780000    0.9696395   -3.6440569    623.61866  0.066625925  0.066821049            3 
  781000   0.93317875   -3.6540914    621.89184  0.066356364  0.066792457            2 
  782000   0.95098627   -3.6610159    622.64544  0.066351816  0.066763158            3 
  783000     0.939581   -3.6255751    624.79349  0.066495689  0.066734368            2 
  784000   0.95757098   -3.6472225    623.16984  0.066238291  0.066704796            2 
  785000    0.9479631    -3.623207    625.43242    0.0663941  0.066676058            3 
  786000   0.93913978   -3.6280144    628.42804  0.066627231  0.066647938            5 
  787000   0.93202328   -3.6628159    626.39363  0.066327152  0.066619134            2 
  788000   0.95477205    -3.655137    628.32141   0.06644685  0.066590127            3 
  789000    0.9192799   -3.6735901    625.73757  0.066089731   0.06656126            7 
  790000   0.94042997   -3.6503292    626.57307  0.066094206  0.066531439            3 
  791000   0.94033949   -3.6281544    629.13582  0.066280639  0.066502751            2 
  792000   0.94858634   -3.6736071    627.18331   0.06599151  0.066474191            3 
  793000   0.92174561   -3.6423375    629.20481  0.066120725  0.066445931            5 
  794000   0.93384875   -3.6393908    629.83449  0.066103535  0.066417825            2 
  795000   0.93580002   -3.6597391    628.94456  0.065927103   0.06638956            2 
  796000   0.94213228   -3.6446709    633.43268  0.066314142  0.066360101            2 
  797000   0.93225923   -3.6574882     629.4179  0.065811157     0.066331            3 
  798000   0.94520471   -3.6622234     632.6727  0.066068578  0.066301934            3 
  799000   0.92579624   -3.6452587     633.3986  0.066061598  0.066272811            7 
  800000   0.93646118   -3.6506858    634.24662  0.066067356  0.066243924            2 
  801000    0.9171699   -3.6415854    635.11702  0.066075429  0.066215167            2 
  802000   0.94323242   -3.6411867    634.01478   0.06587851  0.066187468            4 
  803000   0.91917462   -3.6165163    636.90118  0.066096013  0.066159633            2 
  804000   0.93403022   -3.6526273    635.96517  0.065916788  0.066131168            3 
  805000   0.91154907   -3.6424386    637.98083  0.066043564  0.066102862            2 
  806000   0.92580519    -3.645476    638.12984  0.065977031  0.066074994            2 
  807000   0.92213986   -3.6713609    637.20688  0.065799967  0.066046197            3 
  808000    0.9341634   -3.6628696    637.04804   0.06570215  0.066017957            4 
  809000   0.93503252   -3.6571651    638.19385  0.065738963   0.06599069            2 
  810000   0.93359495    -3.651143    640.19865  0.065864058  0.065963118            5 
  811000   0.93600078   -3.6375823    640.07434  0.065770072  0.065935942            4 
  812000   0.93415495    -3.645496    641.88875  0.065875282  0.065909473            5 
  813000   0.92258428   -3.6625921    639.66229  0.065566041  0.065882608            3 
  814000   0.94878985   -3.6871924    642.41594  0.065767398  0.065855824            2 
  815000   0.93088122   -3.6692726    643.89417   0.06583785  0.065828723            3 
  816000   0.93544293   -3.6449168    644.10075  0.065778263  0.065802148            4 
  817000   0.94317358   -3.6653749     643.3651  0.065622715  0.065775408            2 
  818000   0.91939781   -3.6469171    644.70285  0.065678774  0.065747756            4 
  819000   0.93885018   -3.6633119    641.96679  0.065320186  0.065719614            3 
  820000   0.95568292   -3.6550626    645.23515  0.065572678   0.06569175            4 
  821000   0.94037242   -3.6549172    644.94682  0.065463542  0.065663126            4 
  822000   0.91030277   -3.6602021    643.19511  0.065206317  0.065634374            2 
  823000   0.93861275   -3.6730367    645.73012  0.065383771  0.065605712            1 
  824000   0.94200947    -3.677011    646.91236  0.065423985  0.065577684            6 
  825000   0.93212689    -3.707057    643.65138   0.06501529  0.065548997            4 
  826000   0.92827317   -3.6900567    644.35187  0.065007251  0.065519667            7 
  827000    0.9102816   -3.6498145    647.60032  0.065255977  0.065490476            3 
  828000   0.90273044   -3.6427534    648.03202  0.065220613  0.065461708            3 
  829000    0.9159302   -3.6441073    648.30651  0.065169532  0.065432762            4 
  830000   0.93308605   -3.6675367    651.09911  0.065371396  0.065404074            3 
  831000    0.9155511   -3.6742796    646.08743  0.064790156  0.065375349            2 
  832000   0.93193207   -3.6739559    648.69371  0.064973328  0.065346277            3 
  833000      0.90895   -3.6797947    649.83682  0.065009686  0.065317238            5 
  834000    0.9253449   -3.6738693    650.24105  0.064972127  0.065287767            5 
  835000   0.90519404   -3.6588962    651.33128  0.065003122    0.0652584            5 
  836000   0.91584402   -3.7253022     650.6121  0.064853678  0.065228564            3 
  837000   0.92818141   -3.6827284      651.117  0.064826463  0.065198866            7 
  838000    0.9234535   -3.6755938    649.42123  0.064580472   0.06516881            3 
  839000   0.92050562   -3.7049965    651.59812  0.064719718  0.065138597            3 
  840000   0.91888011   -3.6874294    652.85142  0.064767006  0.065108585            2 
  841000   0.94014781   -3.7239484    652.73709  0.064678665  0.065079081            4 
  842000   0.92197109   -3.6843405    652.38529  0.064567032  0.065049942            2 
  843000   0.92003969    -3.662184    656.42514  0.064889792  0.065020891            5 
  844000   0.92263428   -3.6648101    655.77422  0.064748639  0.064991375            3 
  845000   0.90808966   -3.6728022    655.62012  0.064656816  0.064963067            4 
  846000   0.92107091   -3.6593785    656.77905  0.064694548  0.064933924            4 
  847000   0.95058609   -3.7007554    656.52837  0.064593503  0.064903953            1 
  848000   0.91066639   -3.6751294    659.04807  0.064764944  0.064874611            7 
  849000   0.91659287   -3.6738417    657.11023  0.064498452  0.064845379            2 
  850000   0.89553584   -3.6680182    659.30239  0.064637489  0.064815794            7 
  851000    0.9383827   -3.6939719    655.88137  0.064226534  0.064786279            5 
  852000   0.92627913   -3.6548435    659.10431  0.064466384  0.064757176            3 
  853000    0.9083638   -3.7016482    659.77566  0.064456395  0.064728438            3 
  854000   0.91851526   -3.6631601    662.55268  0.064651901   0.06469994            7 
  855000   0.90251618   -3.6878589    659.81577   0.06430953  0.064671626            5 
  856000   0.93149752   -3.6912294    660.79603  0.064329832  0.064642056            2 
  857000   0.91846141   -3.7041519    663.07642  0.064476509  0.064612908            3 
  858000   0.90701264   -3.6940488    660.83248  0.064183418  0.064584367            2 
  859000    0.9135197   -3.7005027    660.29665  0.064056718  0.064555215            2 
  860000   0.90653499   -3.7121359    662.34955  0.064181158  0.064525882            3 
  861000   0.89645305    -3.689318    663.11274  0.064180482  0.064496744            6 
  862000   0.89908007   -3.6728638    663.70352   0.06416314  0.064468009            2 
  863000   0.90152503   -3.6712422    666.09979  0.064320181  0.064439452            3 
  864000   0.92217155   -3.7060442    665.01777  0.064141374  0.064411154            3 
  865000   0.89309933   -3.6861766    666.18331  0.064179509  0.064382548            5 
  866000   0.91240851   -3.6850797    666.14733  0.064101937  0.064354648            3 
  867000   0.90387927    -3.714018    667.32537  0.064141231  0.064326264            5 
  868000   0.90397674   -3.6743503    669.76518  0.064301573   0.06429822            3 
  869000   0.91130778   -3.7123029    667.61297   0.06402119  0.064270172            2 
  870000   0.90965398   -3.6956882    669.01687  0.064082076  0.064242426            3 
  871000   0.88802134    -3.680031    671.14466  0.064212079  0.064214726            2 
  872000   0.92857013   -3.7067973    672.56035  0.064273734  0.064187479            1 
  873000   0.92716511   -3.7049988    670.02732  0.063958316  0.064159901            2 
  874000   0.91984996   -3.7109846    670.77057  0.063956004  0.064132408            2 
  875000    0.9030777   -3.7001774    669.03231  0.063717363  0.064104415            2 
  876000   0.90606637   -3.7357114    673.39551  0.064059694  0.064077059            5 
  877000    0.8937793   -3.7030835    673.79779  0.064024876  0.064049524            3 
  878000   0.90233771   -3.6868537    675.49887  0.064113409  0.064022782            2 
  879000   0.91574453   -3.7107896    676.11707  0.064099077  0.063995948            3 
  880000   0.90678096   -3.6929716     677.3284  0.064140947   0.06396901            4 
  881000   0.86958787   -3.7070327    675.79132  0.063922751   0.06394239            3 
  882000    0.8857242   -3.6976757    677.60447  0.064021586  0.063915922            3 
  883000   0.90008546   -3.7055716    677.80501  0.063968008  0.063888722            3 
  884000   0.88744936    -3.719672    677.97771  0.063911926  0.063861367            2 
  885000   0.89322669   -3.7184951    675.82996  0.063637473  0.063834256            9 
  886000   0.88551189   -3.6741356    677.49308  0.063722073  0.063807304            4 
  887000   0.90088531   -3.7205755    677.99513    0.0636974  0.063780079            1 
  888000   0.91419633   -3.6987012    678.46402  0.063669672  0.063753163            2 
  889000   0.89336762   -3.7214675    679.44374  0.063689889   0.06372583            3 
  890000   0.89055362   -3.7142109    679.27522  0.063602549  0.063699133            3 
  891000   0.90040318   -3.6842881    684.99596  0.064066214  0.063672711            4 
  892000   0.89176117   -3.7279147    684.27466  0.063927005  0.063646555            5 
  893000   0.89590563   -3.7362089    683.37799  0.063771742  0.063619956            5 
  894000   0.88097446   -3.7203123    681.62354   0.06353687  0.063592702            3 
  895000     0.895187   -3.7203351    682.39345  0.063537565  0.063565549            3 
  896000    0.8866341   -3.7163269    682.62762  0.063488432  0.063539233            4 
  897000   0.90496245   -3.7070741    684.12123  0.063556413  0.063512691            2 
  898000   0.88998217   -3.6802862    686.44048  0.063700861  0.063485426            5 
  899000   0.90927861   -3.7312766    684.53482  0.063453358  0.063457999            6 
  900000   0.90450389   -3.6880267    685.92136  0.063511237  0.063430952            3 
  901000   0.89679217   -3.7331201    685.75024  0.063424921  0.063404108            4 
  902000   0.88460764   -3.7001835    687.13459  0.063482501  0.063376894            6 
  903000   0.88749972    -3.733445    685.65037  0.063275228  0.063349965            5 
  904000   0.90994208   -3.7166578    686.11857  0.063248393  0.063322867            6 
  905000   0.91104614   -3.7026292    689.59511  0.063498629  0.063295634            2 
  906000   0.88689698   -3.7301818    689.07806  0.063380984  0.063268273            3 
  907000   0.88293652    -3.711689    690.26981    0.0634206  0.063240441            3 
  908000    0.8955973   -3.7523053     686.9839  0.063049184  0.063212795            2 
  909000   0.88956264   -3.7385926    688.23112  0.063094162  0.063185298            4 
  910000   0.89208496   -3.6996024    690.94551  0.063273398  0.063157674            3 
  911000   0.88352969   -3.7464571    690.52517  0.063165493    0.0631303            2 
  912000   0.88334782   -3.7348246    691.86887  0.063219012  0.063102472            3 
  913000   0.89275818   -3.7288882    690.53116  0.063027671  0.063075321            3 
  914000    0.8855443   -3.6921275     687.9082  0.062719566  0.063047567            4 
  915000    0.8852667   -3.7310284    690.73547  0.062908513  0.063019578            3 
  916000   0.87927387   -3.7139468    690.36399   0.06280604  0.062991356            2 
  917000   0.90197248   -3.7457269    691.74874   0.06286339  0.062962819            4 
  918000   0.89670719   -3.7110053    691.91822  0.062810296  0.062934628            4 
  919000   0.89586593   -3.7290466     690.3539    0.0626001  0.062906767            3 
  920000   0.90648956   -3.7232118    691.99024  0.062680275  0.062878942            3 
  921000   0.89194136     -3.72207     693.6655  0.062763798   0.06285092           10 
  922000   0.89522769   -3.7199424    696.14054  0.062919427  0.062823226            3 
  923000   0.87995089   -3.6993839    697.15211  0.062942589  0.062795815            6 
  924000   0.87530744   -3.7379235    694.10203  0.062599389  0.062768165            7 
  925000   0.88327826   -3.7466419    696.07669  0.062709611  0.062740847            4 
  926000   0.87815434   -3.7453631    697.13036  0.062736713  0.062713397            6 
  927000   0.86322614   -3.7309644    698.38011  0.062781383  0.062685872            2 
  928000   0.87907597   -3.7458829    695.43455  0.062449224  0.062658419            6 
  929000   0.86832647   -3.7595498    698.73608  0.062678156  0.062630975            3 
  930000   0.88442967   -3.7518663    698.61376  0.062599799  0.062602868            4 
  931000   0.87937305   -3.7365691    699.36154  0.062599493  0.062575069            3 
  932000   0.89606582   -3.7344684     699.4525  0.062540459  0.062547762            1 
  933000   0.90634214   -3.7729321    697.92186  0.062336715  0.062520581            3 
  934000   0.89612544   -3.7183862    701.19138  0.062561686  0.062492581            5 
  935000    0.8941485   -3.7317298     699.1788  0.062315401  0.062465302            4 
  936000   0.87188594   -3.7429228    701.22948  0.062431399  0.062437278            3 
  937000   0.89651311   -3.7615276    698.66229  0.062136454  0.062408548            3 
  938000   0.88544761   -3.7453476    700.79348  0.062259548  0.062380577            3 
  939000   0.89368224   -3.7307863    701.86582  0.062288411  0.062352768           10 
  940000   0.86893647   -3.7149552    702.36192  0.062266127   0.06232494            2 
  941000   0.87366754   -3.7404426    703.57566  0.062307444  0.062297067            3 
  942000   0.86895213   -3.7564669     701.2171  0.062032652   0.06226891            5 
  943000   0.88122121   -3.7333632    700.93438  0.061941886  0.062240687            7 
  944000   0.87395484   -3.7563349    701.70904  0.061944654  0.062212362            2 
  945000   0.87661711    -3.784314    703.09822  0.062001606   0.06218365            6 
  946000   0.86393076   -3.7497706     703.4487   0.06196694  0.062155368            3 
  947000   0.86704112   -3.7392774    703.16078  0.061876168  0.062127237            3 
  948000   0.86750531   -3.7645493    701.74242  0.061686219  0.062099097            5 
  949000   0.86279608   -3.7390689    707.24125  0.062104079  0.062070886            3 
  950000   0.87768937   -3.7374329    706.05554  0.061934696  0.062042307            7 
  951000   0.88216198   -3.7385588    709.27633  0.062151799  0.062014097            4 
  952000   0.84908843   -3.7268127    707.37196  0.061919814  0.061986418            3 
  953000   0.89333304   -3.7329985    707.49064  0.061865219  0.061958884            3 
  954000   0.85948741   -3.7612803    711.46962   0.06214794  0.061931198            3 
  955000   0.86272998   -3.7772346     708.8648  0.061855567  0.061904064            5 
  956000   0.86336633   -3.7818301    709.21913  0.061821751  0.061876954            3 
  957000   0.88447991   -3.7425125    710.55536  0.061873508  0.061849759            1 
  958000   0.85306303   -3.7355223    710.73917  0.061824911  0.061822589            4 
  959000   0.87889934   -3.7602357    713.19544  0.061973882  0.061795298            4 
  960000   0.85420192   -3.7507787    711.76899  0.061785502  0.061768462            4 
  961000   0.87899166   -3.7632684    710.73634  0.061631663  0.061741234            2 
  962000   0.88168327   -3.7533648    713.18727  0.061779909   0.06171395            3 
  963000    0.8681587     -3.76577    711.32764  0.061554832  0.061687055            8 
  964000   0.86283672   -3.7710741    713.00378  0.061635873  0.061659744            4 
  965000   0.85278342   -3.7860996    709.03626  0.061229383  0.061632068            1 
  966000   0.87664205   -3.7583406    713.86817   0.06158283  0.061604206            2 
  967000   0.87636679   -3.7324231    714.65425  0.061586888   0.06157582            5 
  968000   0.85693681   -3.7526237    713.78722  0.061448625  0.061547888            3 
  969000   0.84407759   -3.7613004    714.25413  0.061425363  0.061518985            4 
  970000   0.88398797   -3.7566288    713.55403  0.061301892  0.061490457            5 
  971000   0.86307187   -3.7401609     712.3662  0.061136817  0.061462082            2 
  972000   0.85199583   -3.7671193    714.44863  0.061252455  0.061433736            3 
  973000   0.87299797   -3.7364599    715.70962    0.0612975  0.061405415            4 
  974000   0.86402388   -3.7533989    714.36153  0.061119227  0.061377073            2 
  975000   0.83875912   -3.7908706    717.56103  0.061330003   0.06134903            4 
  976000   0.87473913   -3.7377123    716.97986  0.061217543  0.061321423            3 
  977000   0.88291569   -3.7818964    717.41658  0.061192134  0.061293994            6 
  978000   0.85727536   -3.7803091    718.70435  0.061239293  0.061266392            4 
  979000   0.86685865   -3.7438635    716.73718  0.061009293  0.061239006            3 
  980000   0.86839692    -3.801403    718.14932  0.061067119  0.061211652            3 
  981000   0.84299628   -3.7936966    721.62717  0.061300303  0.061184602            4 
  982000     0.864736   -3.7816744    716.88414  0.060835381  0.061157558            3 
  983000   0.86587216   -3.7594603     721.4394  0.061159664  0.061130498            5 
  984000   0.85635357   -3.7653413    719.58459   0.06094043  0.061103687            3 
  985000   0.85997999   -3.7419126    722.66401  0.061139087  0.061076862            3 
  986000   0.86650294    -3.795532    722.75375  0.061084664  0.061049495            2 
  987000   0.86120538   -3.7776585    723.67148   0.06110026  0.061022208            6 
  988000   0.85624442   -3.7585584    722.89924  0.060973283  0.060994905            5 
  989000   0.86448613   -3.7705229    725.40724  0.061122956  0.060968419            5 
  990000   0.86544186   -3.7710708    723.87543  0.060932275  0.060941493            3 
  991000   0.86483528   -3.7827587    727.51667  0.061176982   0.06091446            4 
  992000   0.84925378    -3.762385    726.08553  0.060995088  0.060887474            4 
  993000   0.87140644    -3.792056    726.05158  0.060930814  0.060860328            2 
  994000   0.84850915   -3.8045734    724.77703  0.060762661  0.060833085            6 
  995000   0.84991762   -3.7761831    724.57143  0.060684374  0.060806241            4 
  996000     0.876087   -3.7638516    728.81494  0.060978492  0.060779064            2 
  997000   0.85529172   -3.7885911    727.43131  0.060801681   0.06075276            2 
  998000    0.8526808   -3.7903146    729.63958  0.060925148  0.060726236            6 
  999000   0.85523236     -3.78932    727.43959  0.060680646  0.060700263            5 
 1000000   0.86999554   -3.7811086    731.35327  0.060946106  0.060673387            2 
 1001000   0.86667429   -3.7722119     733.6375  0.061075383  0.060646637            9 
 1002000   0.85499371   -3.8072205    732.27862  0.060901416   0.06062018            3 
 1003000   0.85857212   -3.7810474    732.85717  0.060888765  0.060593493            3 
 1004000   0.85059821   -3.7778795    734.67978  0.060979398  0.060567438            6 
 1005000   0.86685903   -3.7982933    733.24129  0.060799443  0.060541236            5 
 1006000   0.87516401   -3.7667818    734.97523   0.06088264  0.060515203            3 
 1007000   0.87417516   -3.8022356    734.31994  0.060767953  0.060489698            2 
 1008000   0.84953459   -3.7794434    734.64889  0.060734862  0.060464025            3 
 1009000   0.84591758   -3.7873484    735.07601  0.060709945  0.060438291            5 
 1010000   0.83707794   -3.7875033    735.76242   0.06070647  0.060412383            5 
 1011000   0.84758424   -3.7753031    738.26694  0.060852864  0.060386955            1 
 1012000   0.85491508   -3.8057559    738.08491  0.060777743  0.060361578            3 
 1013000   0.84731789   -3.7860442    738.13227  0.060721641  0.060336063            3 
 1014000   0.85420002   -3.7678092    739.68102  0.060789038  0.060310743            6 
 1015000   0.83832943   -3.8097784    735.76296  0.060407468  0.060285436            5 
 1016000   0.83646827   -3.7882041    736.46201  0.060405349  0.060259396            1 
 1017000   0.82860189   -3.7970585    738.67749   0.06052749  0.060233593            4 
 1018000   0.85180573     -3.79846    739.14582   0.06050637  0.060207908            4 
 1019000   0.84505766   -3.7936469    738.88066  0.060425307  0.060182262            2 
 1020000   0.85508984   -3.8090421    737.14345  0.060224138  0.060155706            4 
 1021000   0.84341749   -3.7734635    739.11092  0.060325736  0.060129637            5 
 1022000   0.84248331   -3.7765314    741.02314   0.06042263  0.060104035            8 
 1023000   0.85519874   -3.8028526    740.06155  0.060285235  0.060078698            3 
 1024000   0.83782042   -3.7968939    739.28437  0.060163116  0.060052882            5 
 1025000   0.85215816   -3.7772453    741.40781  0.060277058   0.06002723            4 
 1026000   0.85476406   -3.8150366    743.19437  0.060363415  0.060001484            6 
 1027000   0.82250954   -3.8092592    743.36206  0.060318246  0.059975749            5 
 1028000   0.83790559   -3.8043849    741.12696  0.060078385   0.05994975            2 
 1029000   0.83758951   -3.7893799    747.08001  0.060502106  0.059924295            5 
 1030000   0.86720072   -3.8011052    746.12631  0.060366206   0.05989924            5 
 1031000    0.8352666    -3.786497    746.06803  0.060302945  0.059873841            2 
 1032000   0.84078062   -3.7931974    746.01253  0.060240029   0.05984845            2 
 1033000   0.83974623   -3.7931447    746.30935  0.060205659  0.059823128            3 
 1034000   0.82531571   -3.8045159    746.99464  0.060202662  0.059797323            6 
 1035000   0.83116631   -3.7937711    744.89885  0.059975753   0.05977132            3 
 1036000   0.83744373    -3.792887    746.48412  0.060045376  0.059745602            5 
 1037000   0.84142613   -3.7971554    745.02608  0.059870306  0.059720138            2 
 1038000   0.83132821   -3.7924076    747.66422  0.060024423  0.059694332            3 
 1039000   0.83348841   -3.8297229    747.16893  0.059926927  0.059668014            3 
 1040000   0.84281315    -3.799253    750.27775  0.060118409  0.059642387            4 
 1041000   0.82083011   -3.8347372    749.16309  0.059971429  0.059616527            2 
 1042000   0.83942902   -3.8191377    749.81182  0.059965757  0.059590658            4 
 1043000   0.82625022   -3.8016677    749.00926   0.05984414  0.059564777            5 
 1044000     0.833643   -3.8279166    749.46079   0.05982286  0.059538682            4 
 1045000   0.84398316   -3.8068412    748.60069  0.059697025  0.059512685            3 
 1046000   0.84961268   -3.8185625    747.36247  0.059541306  0.059486423            7 
 1047000   0.83606349    -3.794933    751.22943  0.059792218  0.059460304            3 
 1048000    0.8504002   -3.7936675    749.47485  0.059595647  0.059434244            5 
 1049000   0.83755665   -3.8021509    750.83353  0.059646769  0.059408175            8 
 1050000   0.83725147   -3.8078231    751.67962  0.059657113  0.059382216           10 
 1051000    0.8377011   -3.8108372    748.76819  0.059369504  0.059356239            6 
 1052000   0.83763444   -3.8183911    749.96257  0.059407681  0.059329964            5 
 1053000   0.84050505   -3.8111124    751.83574  0.059499505  0.059304125            5 
 1054000   0.84564012   -3.7984166    751.63056  0.059426831  0.059278269            6 
 1055000   0.83400873   -3.8268481    751.94051  0.059394985  0.059252486            8 
 1056000   0.81933126   -3.8292055    753.73366  0.059480245  0.059226407            3 
 1057000   0.83647438   -3.8233495    752.84344  0.059353787  0.059200101            6 
 1058000   0.84270396   -3.8159503    754.62388  0.059437924  0.059173754            6 
 1059000   0.83038301   -3.8250021    754.52154  0.059373744  0.059147593            3 
 1060000   0.81859309   -3.8054909    753.65216  0.059249384  0.059121064            7 
 1061000   0.82915509   -3.8303948    754.84258  0.059287039  0.059094585            4 
 1062000   0.82285512   -3.8368201    752.88705  0.059077766  0.059067776            5 
 1063000   0.83438181   -3.8271606    754.25636  0.059129536  0.059041261            3 
 1064000   0.82445902   -3.8206037    756.35624  0.059238427  0.059014408            5 
 1065000   0.82761683   -3.8349249    756.08514  0.059161592  0.058987458            7 
 1066000   0.83916804   -3.8287812    753.48441  0.058902784  0.058960045            7 
 1067000   0.83431961   -3.8456817    754.25316  0.058907619  0.058932539            3 
 1068000   0.83361556   -3.8146639    755.77034  0.058970845   0.05890525            2 
 1069000   0.84314825   -3.8431734    752.65671  0.058672958  0.058876992            4 
 1070000   0.83954011   -3.8562438    753.76172  0.058704184  0.058849209            2 
 1071000   0.81291435   -3.8247675    755.87639  0.058813912  0.058821277            5 
 1072000   0.84111422   -3.8323302    756.73331  0.058825661  0.058793999            3 
 1073000   0.81211741   -3.8481903    757.65508  0.058842426  0.058766734            4 
 1074000   0.80622024   -3.8586913    756.52108   0.05869965  0.058738915            5 
 1075000   0.82881238   -3.8099367    756.48854  0.058642523  0.058711605            3 
 1076000   0.83386376   -3.8348214    758.23552  0.058723321  0.058684462            3 
 1077000   0.84320703   -3.8137548    758.30149    0.0586739  0.058657224            5 
 1078000   0.83381733   -3.8245904    761.30349  0.058851538  0.058630036            6 
 1079000    0.8163815   -3.8289782     761.0061  0.058774027  0.058603358            4 
 1080000   0.82934994   -3.8334974    761.80154  0.058780983  0.058576036            5 
 1081000    0.8249924   -3.8616508    760.98873  0.058663947  0.058548792            3 
 1082000   0.83854101    -3.827343     762.8282  0.058751402  0.058521953            4 
 1083000   0.81723552   -3.8154382    764.05878  0.058791842  0.058495109            6 
 1084000   0.83081647    -3.799325    764.85317  0.058798675   0.05846827            5 
 1085000   0.83946951   -3.8592177    761.95305  0.058521739  0.058441309            5 
 1086000   0.80650386   -3.8242398    761.87874   0.05846215  0.058413964            7 
 1087000   0.81795337   -3.8528265    765.08265   0.05865399   0.05838702            3 
 1088000   0.80146047   -3.8617949    762.53676  0.058405083  0.058359896            5 
 1089000   0.83496902   -3.8327946    763.75446  0.058444633  0.058333177            9 
 1090000   0.81688488   -3.8613821    762.35685  0.058284163  0.058306296            5 
 1091000   0.83073597   -3.8371511    764.69364   0.05840923  0.058279228            3 
 1092000   0.82835342   -3.8412385    762.47126  0.058186146   0.05825191            7 
 1093000   0.82380914   -3.8394336    765.53728  0.058366673  0.058224707            5 
 1094000   0.82367857   -3.8484143    765.60712  0.058318641  0.058197512            6 
 1095000   0.81209818   -3.8344177    765.92417  0.058289511  0.058170802            7 
 1096000   0.84802247   -3.8385058    766.12956  0.058251943  0.058144209            2 
 1097000   0.80612587   -3.8372736    769.80904  0.058478353  0.058117304            3 
 1098000   0.83213325   -3.8289402    765.43396  0.058093045  0.058090386            4 
 1099000   0.81090813   -3.8556498    765.17025  0.058020189  0.058063642            3 
 1100000   0.83861556   -3.8209892    769.29562  0.058279972  0.058036983            8 
 1101000   0.80131884   -3.8691962    767.46125  0.058088196  0.058010326            5 
 1102000   0.80178932   -3.8356072    768.52909  0.058116234  0.057983574            3 
 1103000    0.7991199   -3.8527515     771.0103  0.058251005   0.05795688            3 
 1104000   0.80486639   -3.8499531    769.72309  0.058101078  0.057930137            5 
 1105000   0.81992537   -3.8537352    767.85207  0.057907396  0.057903329            3 
 1106000   0.82248096   -3.8447827    770.46876  0.058052197  0.057876583            3 
 1107000   0.83245714   -3.8597338    774.29503  0.058287792  0.057850036            5 
 1108000   0.80085307   -3.8509231    771.47164  0.058022837  0.057823599            6 
 1109000   0.79923251   -3.8481919    770.67513  0.057910665  0.057796847            4 
 1110000   0.79803369   -3.8338614    772.73301  0.058012989   0.05777057            3 
 1111000   0.79128053   -3.8603752    769.83905  0.057743703  0.057744226            4 
 1112000   0.80486532    -3.889497    772.24438  0.057872031   0.05771764           10 
 1113000   0.81021462   -3.8596044    773.91087  0.057944809  0.057691115            4 
 1114000   0.82802086   -3.8509425    771.83425  0.057737452  0.057664574            4 
 1115000   0.80486165    -3.848378    773.80481  0.057832945  0.057638408            4 
 1116000   0.82426284   -3.8540298    773.12606  0.057730441  0.057611749            3 
 1117000   0.82033511   -3.8409804    771.68282  0.057571084  0.057585072            9 
 1118000   0.79309887   -3.8444535    773.87651  0.057683103  0.057558368           10 
 1119000   0.80362469   -3.8542493    772.94247  0.057561995  0.057531794            4 
 1120000   0.81676563   -3.8711913    773.00039   0.05751491  0.057505232           10 
 1121000   0.81062135   -3.8651676    775.54905  0.057653067   0.05747875            4 
 1122000   0.80337226   -3.8558159    777.17456  0.057722412  0.057452408            4 
 1123000    0.8048665   -3.8862693    775.92189  0.057578056  0.057426025            3 
 1124000   0.79720113   -3.8668583    776.61701  0.057578367  0.057399383            4 
 1125000   0.82424099   -3.8747422    778.63138  0.057676399  0.057372985            4 
 1126000     0.788407   -3.8440906    778.76475  0.057635046  0.057346311            3 
 1127000   0.81201966   -3.8665362     778.7432  0.057582313  0.057319584            4 
 1128000   0.82501967   -3.8683831    776.60866  0.057373571  0.057293486            5 
 1129000   0.80202103   -3.8594752    777.69622  0.057403028  0.057266684            4 
 1130000   0.81076886    -3.862545    778.06676  0.057379555   0.05724031            4 
 1131000   0.78594484   -3.8628652    782.25324  0.057637286  0.057214185            5 
 1132000   0.81963419   -3.8614023    780.08589  0.057426818  0.057188286            2 
 1133000   0.79814481   -3.8785944    782.66628  0.057565923  0.057162271            4 
 1134000   0.78953742    -3.876636    778.47418  0.057207097  0.057136454            5 
 1135000   0.80007265   -3.8792289    779.44906  0.057228272  0.057110425            3 
 1136000   0.78934057   -3.8968643     782.8702  0.057428858   0.05708447            4 
 1137000   0.79992363   -3.8971454    782.68672  0.057364902  0.057059008            3 
 1138000   0.79421202   -3.8931504    781.58116  0.057233536  0.057033312            5 
 1139000   0.79686722   -3.8712915     781.4631  0.057174649  0.057008022           10 
 1140000   0.80387028   -3.8768749    783.22068  0.057252974  0.056982498            7 
 1141000   0.78265734   -3.8641002    783.07724   0.05719232  0.056957235            4 
 1142000   0.80596489   -3.8787172    784.64909  0.057256939  0.056932011            5 
 1143000   0.80243779   -3.8836062    785.25746    0.0572512  0.056906984            4 
 1144000   0.80395691   -3.8747201    785.88838  0.057247114  0.056881958            4 
 1145000    0.8058041   -3.8929271    785.43048   0.05716379  0.056856978            6 
 1146000   0.78329202   -3.8879567    787.87101  0.057291377  0.056832171            6 
 1147000   0.79280069   -3.8740194    787.28476  0.057198835  0.056807273            7 
 1148000   0.79941008   -3.8584528    788.50594  0.057237656  0.056782589            3 
 1149000    0.8023893   -3.8894419    787.74168  0.057132411  0.056757777            5 
 1150000   0.79484293   -3.8727376    788.59202  0.057144349  0.056732538            8 
 1151000   0.79002991    -3.865871    790.06622  0.057201435  0.056707997            4 
 1152000    0.7928378   -3.8880897    790.29535  0.057168356  0.056683155            4 
 1153000   0.78001778    -3.872994    788.80136  0.057010795   0.05665824            2 
 1154000    0.7859447   -3.9044012    791.81632   0.05717911   0.05663348            3 
 1155000   0.80875325   -3.8821048    790.91486  0.057064564  0.056608755            4 
 1156000   0.79380619   -3.8923435    789.50581  0.056913625  0.056583656            4 
 1157000   0.77421321   -3.8786548    789.42679  0.056858743  0.056558793            4 
 1158000    0.7816495   -3.8836261     792.0641  0.056999431  0.056533867           10 
 1159000   0.79908048   -3.8871764    790.30172  0.056823535  0.056508411            6 
 1160000   0.79278078   -3.8778469    789.76353  0.056735885  0.056483057            3 
 1161000   0.80314216   -3.8480676    792.70291  0.056897998  0.056457697            9 
 1162000   0.79542741   -3.8825527    793.98805  0.056941197  0.056432731            8 
 1163000   0.80074041   -3.8922409    793.61199   0.05686529  0.056407829            5 
 1164000   0.80675055   -3.8965823    794.19798  0.056858389  0.056382532            8 
 1165000   0.78577154   -3.8997649     793.7635  0.056778505  0.056356939            7 
 1166000   0.76752056   -3.8869131    795.37134  0.056844721  0.056331813            3 
 1167000   0.79373484   -3.8745338    796.18441  0.056854071  0.056306716            5 
 1168000   0.78711119   -3.8767767     795.2436   0.05673827  0.056281744            4 
 1169000   0.79893384   -3.8992981    793.26487  0.056548679  0.056256624            7 
 1170000   0.77971583   -3.8827139    795.15847  0.056635219  0.056231403            3 
 1171000   0.79747018   -3.8924659    794.30787  0.056526322  0.056206246            3 
 1172000    0.7978933     -3.86596    794.40473  0.056484978  0.056181116            7 
 1173000   0.79516049   -3.9007737    796.81353  0.056607952  0.056156162            4 
 1174000   0.77250266   -3.8802729    798.38249  0.056671102   0.05613118            4 
 1175000   0.79594175   -3.8782801     799.6521  0.056712915  0.056106569            4 
 1176000   0.78407081   -3.8899545    797.65438  0.056523128   0.05608221            5 
 1177000   0.80448872   -3.8945113    797.96403  0.056497029  0.056057579            6 
 1178000   0.79225796   -3.9048947     796.9381  0.056376493  0.056032604            3 
 1179000   0.78161375   -3.8876224    798.59553  0.056445825  0.056007751            6 
 1180000   0.78474749   -3.8860032    798.36977  0.056382046  0.055982646            2 
 1181000   0.78488796   -3.9127544    798.96188  0.056376085  0.055957599            4 
 1182000   0.78955072   -3.9106106    800.10943  0.056409295  0.055932774            2 
 1183000   0.78990028   -3.8987694    798.43648  0.056243764  0.055907465            2 
 1184000   0.78407411   -3.9054031    799.82134  0.056293732  0.055882427            6 
 1185000   0.79192075   -3.8956159    798.19419    0.0561318  0.055857094            5 
 1186000   0.77726699   -3.8997086    797.73308  0.056052071  0.055831864            6 
 1187000   0.78446749   -3.8827903    802.96412  0.056372095  0.055806579            6 
 1188000   0.78198404   -3.9161517    801.84893  0.056246417  0.055781763            5 
 1189000   0.80156626   -3.9164565    803.34979  0.056304303  0.055756513           12 
 1190000   0.76375345   -3.9181037    800.03786   0.05602506  0.055731622            3 
 1191000   0.75756015   -3.8827335    802.74697  0.056167574  0.055706745            6 
 1192000    0.7608527   -3.9057649    801.60989   0.05604096  0.055681644            4 
 1193000   0.79475772   -3.9123271    800.75195  0.055934056  0.055656571            4 
 1194000   0.77614227   -3.9146044    801.35147  0.055929053  0.055631534            6 
 1195000   0.77500381    -3.903058    805.15434  0.056147444  0.055606368            4 
 1196000   0.77051724    -3.899825    802.51316  0.055916468  0.055581125            3 
 1197000   0.78703339   -3.9151063    801.92327  0.055828688  0.055555929            4 
 1198000   0.75829786   -3.9217564    802.80839  0.055843656  0.055530723            2 
 1199000   0.78128851   -3.9271229    804.48739  0.055913774  0.055505713            7 
 1200000   0.75618792   -3.9358009    804.99091  0.055902147  0.055480475            3 
 1201000   0.79006282   -3.8981621    802.04131  0.055650938  0.055455103            2 
 1202000   0.76670496   -3.9027394      804.566  0.055779672  0.055429857           11 
 1203000   0.79284919   -3.8990342    806.55831  0.055871315  0.055404271            5 
 1204000   0.78050291   -3.9166991    806.48345   0.05581973  0.055379048            3 
 1205000   0.76189894   -3.9211305    807.66713  0.055855265  0.055353598            2 
 1206000   0.78214166   -3.9101895    807.12525  0.055771507  0.055328289            3 
 1207000   0.77739515    -3.904977    808.54299  0.055823183  0.055303309            6 
 1208000   0.78158318   -3.9267533    807.84946  0.055729129  0.055278377            5 
 1209000   0.74292285    -3.920378    808.15887  0.055704361  0.055253394            9 
 1210000   0.77765368   -3.9048101    811.41688  0.055882705  0.055228808            5 
 1211000   0.76573532   -3.9107483    809.62404  0.055713187  0.055204262            4 
 1212000    0.7840777   -3.9497163    808.77146  0.055608599  0.055179188            6 
 1213000   0.75904468   -3.9240786    807.32159  0.055463148  0.055154178            7 
 1214000   0.76572968   -3.9530755    809.56669  0.055571574  0.055129342            2 
 1215000   0.75377265   -3.9493798    809.19808  0.055500554  0.055104157            6 
 1216000   0.75893713   -3.9200268    810.60965  0.055551648  0.055078722            4 
 1217000   0.78227505   -3.9358578    810.62612  0.055507129  0.055053684           13 
 1218000   0.77988353   -3.9305619    809.81225  0.055405874  0.055028702            7 
 1219000   0.77007749   -3.9582778    812.16615  0.055521339  0.055003713            4 
 1220000   0.78175011   -3.9143555    812.34453  0.055488014  0.054978496            3 
 1221000   0.77697559   -3.9439609    810.00707  0.055283038  0.054953508            9 
 1222000   0.76737694   -3.9271004    811.57968  0.055345041  0.054928753            4 
 1223000   0.76392244   -3.9363378     808.5221  0.055091448  0.054903632            3 
 1224000   0.75586447   -3.9057735    812.13249  0.055292245  0.054878717            3 
 1225000   0.75336312   -3.9494223    811.56063  0.055208206  0.054853787           11 
 1226000   0.75067002   -3.9290801    813.43253  0.055290411  0.054828821            9 
 1227000   0.76850012   -3.9327679    811.63624  0.055123352  0.054803625           11 
 1228000    0.7442742   -3.9451088    812.82951   0.05515944  0.054778504            4 
 1229000   0.75637476   -3.9467276     811.4997   0.05502439  0.054752986            4 
 1230000   0.76469616   -3.9497851    811.69523  0.054992902  0.054727355            6 
 1231000   0.76059742   -3.9483684    813.44782  0.055066871  0.054701902            4 
 1232000   0.76567614   -3.9134359    815.07316  0.055132113   0.05467676            3 
 1233000   0.75575068   -3.9145771    815.96763  0.055147853  0.054651383            3 
 1234000   0.75882524   -3.9308171    816.60054  0.055145903     0.054626            3 
 1235000   0.76567899   -3.9287565    813.98404  0.054924699  0.054600457            6 
 1236000   0.76057352   -3.9371625    811.93852  0.054742349  0.054574802            4 
 1237000   0.77158836   -3.9292261     817.6789  0.055084809  0.054549346            7 
 1238000    0.7542652   -3.9568301    815.33664  0.054882649  0.054524024            4 
 1239000   0.75808505   -3.9306486    814.69624  0.054795281  0.054498711            2 
 1240000   0.75445767      -3.9467    813.45973  0.054667993  0.054473374            5 
 1241000   0.76913149   -3.9309573    816.03716  0.054797016  0.054448314            7 
 1242000   0.75481662   -3.9553589    814.62051  0.054657844   0.05442272           10 
 1243000   0.74667722   -3.9421933    816.81552   0.05476103  0.054397141            6 
 1244000   0.74883461   -3.9431709    817.35479  0.054753134  0.054371841            2 
 1245000   0.75234756   -3.9622908    814.56786  0.054522614  0.054346076            4 
 1246000   0.73895932   -3.9292884    815.81529  0.054562286  0.054320317            8 
 1247000    0.7545589   -3.9338301    816.16959  0.054542207  0.054294674            2 
 1248000   0.75213176   -3.9672098    813.66424  0.054331212  0.054268701            5 
 1249000   0.75614753   -3.9407976    816.31186  0.054464362   0.05424273            4 
 1250000   0.75922067   -3.9488509    819.01588  0.054601059  0.054216941            5 
 1251000   0.77328836   -3.9295801     817.5984  0.054462989   0.05419098            5 
 1252000   0.76359203   -3.9660667    814.16066  0.054190672  0.054164853            4 
 1253000   0.74385078   -3.9628624    816.23948  0.054285679   0.05413848            6 
 1254000   0.74242874   -3.9362159    815.44643  0.054189688  0.054112218            2 
 1255000   0.77423965   -3.9555236    816.76852  0.054234297  0.054086138            5 
 1256000   0.75012222   -3.9589373    817.92213  0.054267657  0.054060072           12 
 1257000   0.76007175    -3.933055      818.565  0.054267104   0.05403401            3 
 1258000   0.74822074   -3.9499778    818.27153  0.054204527  0.054007912            9 
 1259000   0.75510193   -3.9550084    817.81415  0.054131199  0.053981687            6 
 1260000    0.7600159   -3.9517651    818.19927  0.054113708  0.053955767            4 
 1261000   0.75173545    -3.960524    818.27939  0.054076089  0.053929778            5 
 1262000   0.74963761   -3.9615449    819.13406  0.054089676  0.053903573            6 
 1263000   0.75275733   -3.9420983    818.77512  0.054023167  0.053877495            2 
 1264000   0.75339515   -3.9699421    820.63136  0.054102806  0.053851402            4 
 1265000   0.74387777   -3.9566304    819.06262  0.053956694  0.053825035           12 
 1266000   0.74335915   -3.9851553    819.86042  0.053966589  0.053799084           11 
 1267000   0.74869363   -3.9596351    821.35569  0.054022342  0.053772922            5 
 1268000   0.74863324   -3.9539468    823.29047  0.054106892  0.053746758            6 
 1269000   0.75007201   -3.9757275    821.96087  0.053976942    0.0537209            6 
 1270000   0.76092476    -3.973482    821.94007  0.053933076  0.053695003            5 
 1271000   0.74237046   -3.9583439    824.43523  0.054054237  0.053668976            8 
 1272000   0.74174885   -3.9806926    822.66438  0.053895727  0.053643256            6 
 1273000   0.75579021   -3.9499852     822.2315  0.053825052  0.053617395            4 
 1274000    0.7409134   -3.9838029    823.96337  0.053896086  0.053591602            4 
 1275000   0.75434548   -3.9551375    825.54715   0.05395733  0.053565775            9 
 1276000   0.75257121   -3.9500797    824.34535  0.053836557  0.053540153            4 
 1277000   0.75183326   -3.9492006     824.3791    0.0537966   0.05351444            4 
 1278000    0.7384002   -3.9450751    824.33698  0.053751759  0.053488683            6 
 1279000   0.73688579   -3.9596082    825.39861  0.053778903   0.05346305            7 
 1280000    0.7719848   -3.9806604    824.31791  0.053666531  0.053437457            7 
 1281000   0.73609411   -3.9534522    825.55705  0.053705247  0.053411525            4 
 1282000   0.73935089   -3.9931086    822.82433  0.053485721  0.053385542            7 
 1283000   0.73152011   -3.9618169    827.17546  0.053726647  0.053359751           13 
 1284000   0.75206401   -3.9449789    827.54966   0.05370909  0.053334012            6 
 1285000   0.72482788   -3.9536259    827.28557  0.053650167  0.053308236            7 
 1286000   0.73922903   -3.9663353    827.18576   0.05360198  0.053282259            6 
 1287000   0.72035067   -3.9670619    829.97478   0.05374092  0.053256657           13 
 1288000   0.74061552   -3.9798767    826.33206  0.053463513  0.053231123            3 
 1289000   0.75130433   -3.9876639    825.52475  0.053369844  0.053205373            6 
 1290000   0.72689328   -3.9662999    828.27374  0.053506056  0.053179608            6 
 1291000   0.72740318   -3.9588558    831.15383  0.053650518  0.053153748            6 
 1292000   0.73951424   -3.9948876     827.9846   0.05340458  0.053127987            4 
 1293000   0.73304974   -3.9981125     827.3119  0.053319921  0.053102122            6 
 1294000    0.7592536   -3.9863557     825.4168  0.053156672  0.053076039            3 
 1295000   0.74650532   -3.9623928    832.75079  0.053587567  0.053050345            4 
 1296000   0.74036496     -3.95888     828.7649  0.053289924  0.053024743            5 
 1297000   0.72285312   -4.0122822    824.22764  0.052957314  0.052998731            9 
 1298000   0.73894703   -3.9577187    829.25993  0.053239595  0.052972594            5 
 1299000   0.74541015   -3.9687396    828.36631  0.053141282  0.052946775            9 
 1300000    0.7256208   -3.9605183    830.07387  0.053209863  0.052920974            4 
 1301000   0.73438217   -3.9829939    829.52053  0.053133521  0.052895058            4 
 1302000    0.7589783   -3.9865669    830.46261  0.053153009  0.052869025            8 
 1303000   0.74093432   -4.0018573    829.32659  0.053039562  0.052843116            3 
 1304000    0.7382848   -3.9885266    829.29914  0.052997133  0.052817224            8 
 1305000   0.72461547    -4.001886    827.99139  0.052873014  0.052791259            4 
 1306000   0.73165536   -3.9783619    830.82278  0.053013194   0.05276552            3 
 1307000   0.72476395   -4.0106717    830.90078  0.052977606  0.052739311            4 
 1308000   0.73202569   -3.9844863    832.89581  0.053064208  0.052713583            7 
 1309000   0.74226158   -4.0017933    830.63193  0.052879547  0.052687784            6 
 1310000   0.72861984   -3.9790809    830.66255  0.052841129  0.052661817           11 
 1311000   0.72563331   -4.0011003    831.51681  0.052855124  0.052635943            9 
 1312000   0.73384475   -3.9998979     831.7847  0.052831853   0.05260997            8 
 1313000   0.73077037   -4.0014251     834.9975  0.052995525   0.05258406            4 
 1314000   0.72946434   -3.9747515     833.2629  0.052845187  0.052558264            6 
 1315000    0.7246302   -3.9915339     834.1208  0.052859366  0.052532648            2 
 1316000   0.74292743   -4.0108653    832.94351   0.05274465   0.05250698            5 
 1317000   0.72761017   -3.9947671    832.43899  0.052672677  0.052481289            8 
 1318000   0.71614924   -3.9798229    834.24022    0.0527466  0.052455523            4 
 1319000   0.71497404   -3.9790861    834.38974  0.052716056   0.05242995            9 
 1320000   0.72333605   -4.0208429    835.31428  0.052734487   0.05240405            7 
 1321000   0.72950337   -3.9892476    833.76897  0.052597083  0.052378033            5 
 1322000   0.73703001    -3.999129    833.92786  0.052567313  0.052352176           14 
 1323000   0.71780583   -4.0038399    834.17505   0.05254315  0.052326216            7 
 1324000   0.72551747   -4.0237377      831.369   0.05232685  0.052300092            4 
 1325000   0.71305106   -3.9942638    834.65218  0.052493848  0.052274129            5 
 1326000   0.72363127   -4.0107438    835.19363  0.052488288  0.052248424            3 
 1327000   0.70769525   -4.0095461    835.42339  0.052463162  0.052222587            4 
 1328000   0.73253302   -3.9823174     836.4574  0.052488542  0.052196822           11 
 1329000   0.72264671   -3.9955494    837.40922  0.052508729  0.052170866           25 
 1330000    0.7219705   -3.9825098    833.91975  0.052250611  0.052144827            4 
 1331000   0.73822089    -4.010713    833.85391  0.052207232  0.052118896            3 
 1332000   0.72139861   -3.9806256    836.36806  0.052325329  0.052092768            4 
 1333000   0.73003932   -4.0101247    831.55059  0.051984908  0.052066613            5 
 1334000   0.73233529   -4.0027121    836.87821  0.052278748  0.052040383           10 
 1335000   0.70298185   -4.0140664    834.67429  0.052102015  0.052014134            5 
 1336000   0.71193564   -3.9872555     836.4543  0.052174046  0.051987918           10 
 1337000   0.72336477    -3.998779    838.22208  0.052245206  0.051961639            9 
 1338000   0.70634109   -4.0047526     837.4825  0.052160096  0.051935538            5 
 1339000   0.72604949   -3.9940239    840.30555  0.052296835   0.05190975            7 
 1340000   0.70898567   -4.0064341    841.52484  0.052333634  0.051883896           16 
 1341000   0.72840757   -4.0116706    838.90342  0.052131706   0.05185822            5 
 1342000     0.722739   -4.0101558    836.24743  0.051927933   0.05183223            4 
 1343000   0.72104214   -4.0182425    837.89216  0.051991323   0.05180613            8 
 1344000   0.71602628   -4.0169249    837.70355  0.051940944   0.05177988            4 
 1345000   0.73029111   -4.0170135    838.28397  0.051938288  0.051753956            6 
 1346000   0.73396433   -3.9993612    837.39753   0.05184482  0.051728044            6 
 1347000   0.71605821   -4.0073032    838.02951  0.051845429  0.051701984            6 
 1348000   0.70655036   -4.0128918    838.81848  0.051855742  0.051675766            4 
 1349000   0.72493288   -4.0109703    840.42134  0.051916317  0.051649575            6 
 1350000   0.71168837   -4.0222296    841.96165  0.051972941  0.051623495            4 
 1351000   0.71158335   -4.0085168    840.68476  0.051855709  0.051597412           13 
 1352000   0.71429164    -3.990966    842.04176  0.051900996  0.051571511            5 
 1353000   0.70543091   -4.0122326    840.46547   0.05176555    0.0515457            4 
 1354000    0.7119295   -4.0153884    842.19986  0.051834063  0.051519542            5 
 1355000   0.73096588    -4.017331    840.23227  0.051674802   0.05149335            4 
 1356000   0.71837041   -4.0346765    842.66189  0.051786006  0.051467471            5 
 1357000   0.70641128   -4.0392275    842.21299  0.051720277  0.051441499            9 
 1358000    0.7082602   -4.0393274    841.81794  0.051657949  0.051415417            8 
 1359000   0.71558612   -4.0285623    840.64639  0.051548098  0.051389224            5 
 1360000   0.72482295   -4.0163908    843.24649  0.051669516  0.051363281           11 
 1361000   0.72423859   -4.0310071    839.37902  0.051394748  0.051337063            4 
 1362000    0.7114724   -4.0320506    841.15015  0.051465379    0.0513109            3 
 1363000   0.70844291     -4.01875     842.8506  0.051531585  0.051284753            6 
 1364000   0.70606301   -4.0385719    843.30181  0.051521372  0.051258539            6 
 1365000   0.71903469   -4.0381514    843.82469  0.051515549  0.051232724            4 
 1366000   0.72068793   -4.0173217    844.15552  0.051498019  0.051206849            5 
 1367000   0.71864888   -4.0232204    843.95648  0.051448213  0.051180639            5 
 1368000   0.70507615   -4.0371995    842.73666  0.051336297  0.051154524            5 
 1369000   0.71702511    -4.032784    843.13185  0.051322854  0.051128491            7 
 1370000     0.703146   -4.0135292    844.72005  0.051381998  0.051102531            5 
 1371000   0.69642069    -4.020341    844.61733  0.051338277  0.051076426           10 
 1372000   0.71704514   -4.0462273    844.02488  0.051264873  0.051050268           15 
 1373000    0.7048542   -4.0388757    843.13853  0.051173739  0.051024056           13 
 1374000   0.70824944   -4.0384476    846.42657  0.051335915  0.050997746            5 
 1375000   0.69909764    -4.047416    843.56078  0.051124896  0.050971365            9 
 1376000   0.69812664   -4.0328523    844.26879  0.051130619  0.050945203            5 
 1377000   0.70739468    -4.042345    845.88271  0.051191159  0.050919052            4 
 1378000    0.6967042   -4.0422524    846.87294  0.051213893  0.050892872            4 
 1379000   0.71284895   -4.0392185    846.81573  0.051173298  0.050866841           10 
 1380000   0.69475172   -4.0523549    844.98691   0.05102578  0.050840795            4 
 1381000    0.7045365   -4.0483564    844.52846  0.050961167  0.050814893            8 
 1382000   0.71005361   -4.0236309    846.04091  0.051015491  0.050788676            6 
 1383000   0.71570928   -4.0288588    848.32993   0.05111653  0.050762879            7 
 1384000   0.69356229   -4.0340158     846.0246  0.050940788   0.05073708            3 
 1385000   0.71078825   -4.0314901    847.40412  0.050987011   0.05071124            4 
 1386000    0.6856404   -4.0871279    847.36587  0.050947924  0.050685188            9 
 1387000   0.68998148   -4.0465729    849.58255  0.051044373  0.050659119            6 
 1388000   0.71248479   -4.0318943    847.50514  0.050882874  0.050633167            6 
 1389000   0.69965769    -4.046791    849.02963  0.050937703   0.05060735            5 
 1390000   0.69475141   -4.0763287    848.92205  0.050894607  0.050581709            7 
 1391000   0.70755325   -4.0264278    850.38144  0.050945449  0.050556126            4 
 1392000   0.68988927   -4.0426766    851.12742   0.05095351  0.050530343           10 
 1393000   0.69408346   -4.0473458    850.96525  0.050907229  0.050504629            9 
 1394000   0.69343152   -4.0716644    850.08806  0.050818273  0.050478747           10 
 1395000   0.69213793   -4.0481974    850.13605   0.05078471  0.050453141           20 
 1396000   0.70015771   -4.0614268    851.30778  0.050818277  0.050427611            9 
 1397000   0.70372863   -4.0767532     851.3145  0.050782301  0.050401986            4 
 1398000   0.68866795   -4.0411251    850.58853  0.050702702  0.050376512            6 
 1399000   0.71445262   -4.0589978    849.01101  0.050572493  0.050351082            6 
 1400000   0.69289001   -4.0368838    852.21498  0.050727082  0.050325742            8 
 1401000   0.68487832   -4.0776244    851.45584   0.05064572  0.050300293            6 
 1402000   0.69515422   -4.0434554    853.89621  0.050754649  0.050274818           14 
 1403000   0.71026258   -4.0514792    854.43448  0.050750444  0.050249672            5 
 1404000   0.69250182    -4.072409    851.26405  0.050526119  0.050224359            7 
 1405000   0.67364656   -4.0423383    854.33882  0.050672528  0.050198983            8 
 1406000   0.68991825   -4.0628855    854.05086  0.050619421   0.05017371            7 
 1407000   0.68604712   -4.0452499    852.50698  0.050492003  0.050148256            8 
 1408000     0.695915   -4.0400808    853.02206  0.050486628  0.050122775           11 
 1409000   0.68312973   -4.0488472    855.44053  0.050593833  0.050097251            9 
 1410000    0.6912904   -4.0661465    853.99877   0.05047274  0.050071711            6 
 1411000   0.68232854   -4.0552939    852.83896  0.050368471  0.050046182            7 
 1412000   0.69479258   -4.0640555    853.48609  0.050370992  0.050020623            6 
 1413000   0.68610313   -4.0674577    851.15637  0.050197946  0.049994987            8 
 1414000   0.70693472   -4.0555423    852.04845  0.050215019  0.049969406           14 
 1415000   0.70800691   -4.0806239    853.10838  0.050241954  0.049943766            6 
 1416000   0.67722983   -4.0313922    855.59441  0.050352778  0.049918409            4 
 1417000   0.68468512   -4.0679319    855.59033  0.050317004  0.049893038            9 
 1418000    0.6771581   -4.0476619    856.56029  0.050338522  0.049867468            3 
 1419000    0.6977109   -4.0589192    855.75164  0.050255558  0.049842035            5 
 1420000   0.68348928   -4.0688815     853.6959  0.050099525   0.04981638           13 
 1421000   0.68873713   -4.0642469    852.40436  0.049988527  0.049790778           10 
 1422000   0.68602117    -4.081044     854.3254  0.050065952  0.049765149            7 
 1423000   0.69260526   -4.0869314    854.25722  0.050026775  0.049739232           11 
 1424000   0.68186952   -4.0746207    853.42724  0.049943073  0.049713279            4 
 1425000   0.69103982   -4.0736293    854.43718  0.049967087  0.049687493            7 
 1426000   0.68463042   -4.0821552    855.83866  0.050013947  0.049661706            8 
 1427000   0.66503177   -4.0797036    855.99654  0.049988118  0.049635981           10 
 1428000   0.66637112   -4.0614916    857.90659  0.050064577  0.049610325            7 
 1429000   0.67099497   -4.0814066    856.38413  0.049940758  0.049584701            7 
 1430000   0.69362275   -4.0585567    856.85794  0.049933446  0.049559113            5 
 1431000   0.68190007   -4.0892424     855.8204  0.049838132  0.049533579           12 
 1432000   0.68388267    -4.073451     855.4823  0.049783653  0.049507972           11 
 1433000   0.68605564   -4.0938619    858.20229  0.049907088  0.049482204            9 
 1434000   0.69448247   -4.0693698    857.22612  0.049815558  0.049456581            7 
 1435000   0.68406401   -4.0732883    855.62893  0.049688091   0.04943113            8 
 1436000   0.69526591   -4.0702289    856.28044  0.049691297  0.049405575            7 
 1437000   0.67426053   -4.0868463    856.67777  0.049679759  0.049379879            8 
 1438000   0.68554878   -4.0623954    856.43263  0.049631005  0.049354234            6 
 1439000   0.67845901   -4.1056215    854.78249  0.049500955  0.049328533            6 
 1440000   0.67868203   -4.0704118    854.99591   0.04947893  0.049302839            4 
 1441000   0.68865134   -4.1063024    857.41626  0.049584563  0.049277094           11 
 1442000   0.65941135   -4.0884035    857.90116  0.049578199  0.049251188           18 
 1443000   0.67038702   -4.0989736    854.90558  0.049370847  0.049225327            5 
 1444000   0.66605755   -4.0962346    858.11346  0.049521783   0.04919969            4 
 1445000   0.68552741   -4.1054929    855.52186  0.049338054  0.049174097           20 
 1446000   0.66957119   -4.0747434    857.80126  0.049435296  0.049148397            7 
 1447000   0.67678372    -4.062899    861.56026  0.049617615  0.049122735            5 
 1448000   0.68071395   -4.1025208     857.3019  0.049338277  0.049097031           10 
 1449000   0.67329529   -4.0922442    858.77335  0.049388851  0.049071193            6 
 1450000   0.67750901   -4.0540066     859.4972  0.049396391  0.049045485            3 
 1451000   0.68175998   -4.0769185    859.05102  0.049336723   0.04901996            6 
 1452000   0.68343207     -4.09554    858.47044  0.049269424  0.048994364            4 
 1453000   0.68371373   -4.0792518    860.00714  0.049323648  0.048968835            7 
 1454000   0.66791676    -4.075298    858.36825  0.049195796  0.048943161            3 
 1455000   0.68008217   -4.0743297    860.69085  0.049295009  0.048917758            9 
 1456000   0.67537436   -4.0986927    859.08434  0.049169204  0.048892231           11 
 1457000   0.65423585   -4.0979612    860.69771  0.049227735  0.048866738           14 
 1458000    0.6781013   -4.0838682    859.92888  0.049150028  0.048840861            6 
 1459000   0.66537937   -4.0829942    860.27409  0.049136057  0.048815316            5 
 1460000   0.66619241   -4.0829639    858.88235  0.049022965  0.048789601           11 
 1461000   0.67856064    -4.115819    859.23902  0.049009755  0.048763963           10 
 1462000   0.66532882   -4.0964552     860.0003  0.049019625  0.048738029           12 
 1463000   0.67076768   -4.0875536    861.06589  0.049046815  0.048712603            5 
 1464000   0.66808937   -4.1100871    861.59901  0.049043659  0.048686653            8 
 1465000   0.67613389   -4.1101451    860.89679  0.048970238  0.048660866            6 
 1466000   0.66009396    -4.093825    862.57578  0.049032275  0.048635173            6 
 1467000   0.66146398   -4.1133163    859.50316   0.04882431  0.048609239            5 
 1468000   0.66496152    -4.092063    862.87231  0.048982306  0.048583527            9 
 1469000   0.67108428   -4.0996971    859.56748  0.048761486  0.048557822            7 
 1470000   0.65625822   -4.1134514    859.11275  0.048702537  0.048532097            7 
 1471000     0.666159   -4.0946083    861.70203  0.048816113   0.04850631            5 
 1472000   0.66469334    -4.139676    860.58586  0.048719761  0.048480425            7 
 1473000   0.66476669   -4.1013257    858.12064  0.048547219  0.048454442            5 
 1474000   0.67133895   -4.1004634    862.22002  0.048746044  0.048428606            6 
 1475000   0.64951755   -4.1318255    861.05505  0.048647178  0.048402611            6 
 1476000   0.67643279   -4.1025606    859.79284  0.048542956  0.048376687            4 
 1477000   0.66966216   -4.1254787    862.54208  0.048665204  0.048350569            9 
 1478000    0.6668436   -4.0872777    859.37564  0.048453746  0.048324616            5 
 1479000   0.65438614   -4.1075012    859.87268   0.04844899  0.048298671            6 
 1480000   0.66137133   -4.0932534    860.34771  0.048443002  0.048272883            7 
 1481000   0.65400982   -4.1094717     861.4072  0.048469908  0.048246906           10 
 1482000   0.64999041   -4.1311837    859.39808  0.048324229  0.048220981            7 
 1483000   0.66796714   -4.1226132    860.41433  0.048348749  0.048194883           16 
 1484000   0.67305902   -4.1168266    861.08164  0.048353641  0.048168827            9 
 1485000   0.66456951   -4.1206804    861.88163  0.048365972   0.04814268            6 
 1486000   0.64646212   -4.1332702    859.81239  0.048217384  0.048116554            3 
 1487000   0.64744173   -4.1354439    862.63361  0.048343063  0.048090209            6 
 1488000   0.66008239   -4.1202595    862.26738  0.048290064  0.048064028            9 
 1489000   0.66187393   -4.1197665    861.81265  0.048232183  0.048037874            7 
 1490000   0.65379243   -4.1168815    861.93164  0.048206468  0.048011819            7 
 1491000   0.66541477   -4.1118112    863.40387   0.04825642  0.047985824            4 
 1492000   0.66664012   -4.1181487     860.5675  0.048065656  0.047959831            4 
 1493000   0.65011177   -4.1271494    862.35536  0.048133253  0.047933738            6 
 1494000   0.65673677   -4.1145335    863.88937    0.0481866  0.047907897            4 
 1495000   0.65087835    -4.109059     863.1787  0.048114754  0.047881722            5 
 1496000   0.66108645   -4.1342713    862.21169  0.048028726  0.047855755            2 
 1497000   0.64954617   -4.1270789    863.31168  0.048057876  0.047829714           12 
 1498000   0.67157505   -4.1290473     863.3005  0.048025172  0.047803704           10 
 1499000   0.65619923   -4.1304972    862.59736  0.047954045  0.047777866            5 
 1500000   0.65508467    -4.105973    863.93363  0.047996313  0.047752051            7 
 1501000   0.66202614   -4.1381739    864.00491  0.047968294  0.047726047            5 
 1502000   0.65515654   -4.1406913    862.73126  0.047865694   0.04770002            9 
 1503000   0.65926257   -4.1016819    866.77679   0.04805815  0.047674203            9 
 1504000    0.6525931   -4.1328443    865.60932  0.047961509  0.047648427            8 
 1505000   0.65247657   -4.1282548     863.4917  0.047812387  0.047622492            6 
 1506000   0.65571421    -4.131622    866.68436  0.047957302  0.047596479            2 
 1507000    0.6507626   -4.1158469    864.28824  0.047792979  0.047570631            9 
 1508000   0.64094926   -4.1323089    865.89405  0.047850025  0.047544639            5 
 1509000   0.65790417   -4.1381118    866.37454   0.04784485  0.047518722            7 
 1510000    0.6493406   -4.1267105    865.90828  0.047787432  0.047492821            5 
 1511000   0.65125313   -4.1296247    864.01099  0.047651169  0.047466863            5 
 1512000   0.66041102   -4.1594684    864.78459   0.04766229  0.047440814            9 
 1513000    0.6485936   -4.1389061    864.63384  0.047622485  0.047414724           11 
 1514000   0.66006174   -4.1311957    866.63604  0.047701235  0.047388642            4 
 1515000   0.64715786   -4.1478174     863.8463  0.047516298  0.047362439            6 
 1516000   0.63531685   -4.1448692    862.83087  0.047429138  0.047336212           12 
 1517000   0.65313294   -4.1149842    866.72475  0.047611775  0.047310127           12 
 1518000   0.65502594   -4.1280103    863.78271  0.047418902  0.047284226            7 
 1519000   0.64456585   -4.1621274    866.37136  0.047529699  0.047258342           12 
 1520000    0.6373536   -4.1404046    866.26274  0.047492475  0.047232357            4 
 1521000   0.65382227   -4.1441485    866.84762  0.047493295  0.047206204            7 
 1522000   0.64127342   -4.1378308    867.27507  0.047485495  0.047180084            9 
 1523000   0.64598087   -4.1524615    866.69185  0.047422404   0.04715381           12 
 1524000   0.64692699   -4.1522572    863.76817  0.047231418   0.04712766           16 
 1525000   0.63410773   -4.1394927    862.38516  0.047124872  0.047101383            9 
 1526000   0.64503922   -4.1479507     864.7391  0.047222537  0.047075114            7 
 1527000   0.64774849   -4.1448556    867.10797  0.047320889  0.047048933            6 
 1528000   0.62289435    -4.140791    866.52045  0.047257878  0.047022614            6 
 1529000   0.64918613   -4.1402176    866.17159  0.047207956  0.046996502            7 
 1530000    0.6304768   -4.1457212    865.88871  0.047161695  0.046970279            9 
 1531000   0.65111817   -4.1479857    864.46559  0.047053428  0.046944073           12 
 1532000   0.64653288   -4.1412099    869.17009  0.047278617  0.046917816           10 
 1533000   0.64299838   -4.1641517    865.13296  0.047028319  0.046891761           12 
 1534000   0.65315248   -4.1319782    864.78585  0.046978805  0.046865485            7 
 1535000   0.63749195   -4.1581046    866.22246  0.047026192  0.046839065            9 
 1536000   0.64195687   -4.1489273    865.81946  0.046973712  0.046812686           14 
 1537000    0.6481533   -4.1568252    864.71011  0.046883003  0.046786329           13 
 1538000   0.63825824   -4.1576621    863.84295  0.046805535  0.046759742           12 
 1539000   0.63613527    -4.162799    863.73388  0.046769216  0.046733051           12 
 1540000   0.63164437   -4.1622177     865.6275  0.046841315  0.046706352            9 
 1541000    0.6329044   -4.1651254    868.66464  0.046975159  0.046679937            8 
 1542000   0.63754983   -4.1540095    868.16858  0.046917887  0.046653658           14 
 1543000   0.63076788   -4.1643457    864.00858   0.04666281  0.046627254            7 
 1544000   0.64063764    -4.147024    866.60368  0.046772651  0.046601004           12 
 1545000   0.62731388   -4.1664736    865.04849  0.046658495  0.046574777            6 
 1546000   0.63929864   -4.1702266    867.02627  0.046734922  0.046548421           12 
 1547000    0.6382738   -4.1517334    866.57279  0.046680284    0.0465222           11 
 1548000   0.62913378   -4.1711906     868.1615  0.046735654  0.046495927           12 
 1549000   0.64014961   -4.1679517    865.76518  0.046576565  0.046469841           18 
 1550000    0.6332972   -4.1648685    869.70621  0.046758398  0.046443774           14 
 1551000   0.64135449   -4.1628148    867.53063   0.04661136  0.046417631            6 
 1552000   0.64779398   -4.1595354    866.84168  0.046544334  0.046391588           17 
 1553000      0.64889   -4.1375691    867.97228  0.046575031  0.046365587            6 
 1554000   0.63497265   -4.1691696    869.06781  0.046603808  0.046339742           13 
 1555000   0.62322692   -4.1811567    867.36637  0.046482656  0.046313702            9 
 1556000   0.63752636   -4.1494859    870.57283  0.046624509  0.046287755            6 
 1557000   0.64409442   -4.1834547    869.65214  0.046545287  0.046261859            7 
 1558000    0.6439995   -4.1608529    868.92264  0.046476393  0.046235899            8 
 1559000   0.63814805   -4.1653051    870.86233  0.046550264  0.046210166           16 
 1560000   0.60871546   -4.1696165    868.97607  0.046419662  0.046184607           11 
 1561000    0.6275209   -4.1851848    868.52642   0.04636592  0.046158903           10 
 1562000   0.62370341   -4.1703442    872.91721  0.046570487  0.046133132            8 
 1563000   0.64301596   -4.1630189    873.04353  0.046547427  0.046107531            8 
 1564000   0.62237249    -4.157622     870.8309  0.046399771   0.04608199           13 
 1565000   0.62897031   -4.1958789    870.41893  0.046348186  0.046056399           25 
 1566000   0.62367091   -4.1751537     871.5133  0.046376825  0.046030867            3 
 1567000   0.61764291   -4.1941736    870.74332  0.046306282   0.04600503            8 
 1568000   0.62180301   -4.1590285    872.83251  0.046387782  0.045979341            6 
 1569000   0.62172866   -4.1771309    873.36017  0.046386242  0.045953734           11 
 1570000   0.62334083   -4.1918077     873.2787  0.046352373  0.045928204            6 
 1571000   0.63256657   -4.1859315    871.94452  0.046252097  0.045902613           10 
 1572000   0.61233747   -4.1969195    871.30196  0.046188611  0.045876938           12 
 1573000   0.62643501    -4.201659    871.28623  0.046158415  0.045851135            7 
 1574000   0.62700102   -4.1669348    871.91526  0.046162392  0.045825388            7 
 1575000     0.639569   -4.1679015    873.13759  0.046197756  0.045799639            9 
 1576000   0.62577734   -4.1976811    871.20644  0.046066331  0.045773892            9 
 1577000   0.61845777   -4.2057553    873.17934  0.046141373  0.045748015            5 
 1578000   0.60262764   -4.1845749    872.86737  0.046095658  0.045722329            8 
 1579000   0.62460681   -4.1881648    871.56117  0.045997528  0.045696722            5 
 1580000   0.62681623   -4.2203808    872.91178  0.046039651  0.045671142           10 
 1581000   0.62226327   -4.1934428    871.43192  0.045932528  0.045645656           12 
 1582000   0.63898387   -4.1815493    872.18462  0.045943142  0.045620254            6 
 1583000      0.62902   -4.1962544    871.22871  0.045863798  0.045594773           23 
 1584000   0.62644066   -4.1946345    874.99308  0.046032885  0.045569314            7 
 1585000    0.6367184   -4.1891889     873.1159  0.045905147  0.045543881           13 
 1586000   0.62419002   -4.1926573    874.99769  0.045975078  0.045518326           10 
 1587000   0.62013128   -4.1741179    872.75344  0.045828263  0.045492939            4 
 1588000   0.62004803   -4.1892867    871.60583  0.045739181  0.045467449            7 
 1589000   0.60764009   -4.2025835    876.04856   0.04594339   0.04544178            7 
 1590000   0.62623173    -4.200792    872.41749  0.045724187  0.045416345           11 
 1591000   0.62338168   -4.1877794    876.70256  0.045919891  0.045390906           10 
 1592000   0.61982505    -4.214181    872.74072  0.045683664  0.045365379            8 
 1593000   0.61972607   -4.2050774    875.04898  0.045775736  0.045339839           20 
 1594000   0.61482643   -4.1779869    872.40816  0.045608959  0.045314327            8 
 1595000   0.61201124   -4.1926486    873.37833  0.045631052  0.045288904           14 
 1596000   0.62447384   -4.2102906    871.85049  0.045522687  0.045263312           10 
 1597000   0.60433274   -4.1940449    874.50868  0.045632889  0.045237719           11 
 1598000   0.61296276   -4.1847219    875.80854  0.045672118    0.0452122           25 
 1599000   0.61306936   -4.1768894     876.8139  0.045695951  0.045186976            9 
 1600000    0.6178441   -4.2047131    875.91605  0.045620628   0.04516158            5 
 1601000   0.62574305   -4.2143273    874.97957  0.045543388  0.045136385            6 
 1602000   0.62052327   -4.2047483    874.98379  0.045515178  0.045111102            7 
 1603000   0.62040109   -4.1904199    875.70844  0.045524456  0.045085904           14 
 1604000   0.60847161   -4.2032828     873.0831  0.045359679  0.045060726            9 
 1605000   0.62083692   -4.2152866    876.27108  0.045496941  0.045035365           11 
 1606000   0.59637834   -4.2146587    875.13927  0.045409883  0.045010039            8 
 1607000    0.6076759   -4.2139902    874.21316  0.045333601  0.044984721           17 
 1608000   0.61804115   -4.2169943    878.57336  0.045531372  0.044959494           11 
 1609000    0.5890543   -4.2168595    874.43115  0.045288541  0.044934205           13 
 1610000   0.61606491   -4.2099867    873.19774   0.04519657  0.044908975           11 
 1611000   0.61325164   -4.2087496    876.15879  0.045321684  0.044883756           11 
 1612000   0.59692387   -4.2277843    875.31705  0.045250054  0.044858493           19 
 1613000   0.61791055   -4.2048334    875.25493  0.045218792  0.044833363            9 
 1614000   0.61563311   -4.2000934    876.16771  0.045237903  0.044808146           17 
 1615000   0.58766706   -4.2263523    876.99582  0.045252622  0.044782915            6 
 1616000    0.5945394    -4.209635    877.55742   0.04525358  0.044757779            7 
 1617000    0.5965894   -4.2304559    876.36103  0.045163937  0.044732558            7 
 1618000   0.60547769   -4.1860377    878.95856  0.045269806  0.044707423            7 
 1619000   0.59350235   -4.2165616    878.84015   0.04523575  0.044682341           13 
 1620000   0.59466271   -4.2113194    876.58077  0.045091603  0.044657279            9 
 1621000   0.59549178   -4.2125109    876.61994    0.0450658  0.044632021            8 
 1622000   0.60952657    -4.197717    876.72246  0.045043283  0.044606841           15 
 1623000   0.60007166   -4.2113839    875.95374   0.04497606  0.044581725           16 
 1624000   0.59947317   -4.2323632    874.50031  0.044873785  0.044556422            8 
 1625000    0.6052114   -4.2311577    876.25436  0.044936121  0.044531012            6 
 1626000   0.60797824   -4.2037523    878.66977  0.045032276  0.044505654           15 
 1627000   0.59333813   -4.2110294    875.84087  0.044859705  0.044480368            8 
 1628000   0.60698635   -4.2196839    876.02813  0.044841735  0.044455136           10 
 1629000   0.59916198   -4.2118031    875.98366  0.044811933  0.044429869           17 
 1630000   0.61309036   -4.2140704    877.01789  0.044837315  0.044404623           11 
 1631000   0.59125801   -4.2347916     876.6812  0.044792622  0.044379453           10 
 1632000    0.5937354   -4.2361481    877.18626  0.044790965  0.044354313            5 
 1633000   0.58306537   -4.2232454    876.80992  0.044744332  0.044329128           13 
 1634000   0.60122172   -4.2518765    875.31552  0.044640735  0.044303862           10 
 1635000   0.59424757   -4.2404483    876.40764  0.044669095  0.044278495           14 
 1636000   0.59999991    -4.236018    878.60202  0.044753566  0.044253185            5 
 1637000   0.60485371   -4.2352894    876.28614  0.044608336  0.044228006           14 
 1638000   0.59520251   -4.2452737    875.50134  0.044541175   0.04420263           11 
 1639000   0.60248109   -4.2355741    878.56939  0.044669991  0.044177518            9 
 1640000   0.59529049   -4.2418583    879.31053  0.044680413  0.044152356           11 
 1641000    0.5998891   -4.2184297    879.59346  0.044667553  0.044127228           33 
 1642000   0.60268984   -4.2315741    877.80475  0.044549571  0.044102086            7 
 1643000    0.6007043   -4.2285061    878.33075  0.044549135  0.044076973            6 
 1644000   0.57863049   -4.2509396     877.3432  0.044471979  0.044051688            7 
 1645000   0.60468871   -4.2628186    876.24977  0.044389553  0.044026384           31 
 1646000    0.6057103    -4.246198    878.25828  0.044464271  0.044001155           12 
 1647000   0.59561735   -4.2453888     875.5728  0.044301396  0.043975775           10 
 1648000    0.5975325   -4.2382544    877.58344  0.044376185  0.043950552            4 
 1649000   0.60412366   -4.2464793    879.28178  0.044435101  0.043925308            9 
 1650000   0.58875481   -4.2238787    878.45698  0.044366514   0.04390004            5 
 1651000   0.59342452   -4.2505918    879.24377  0.044379354  0.043874846            3 
 1652000   0.59767017   -4.2094812     876.5805  0.044218145   0.04384961            5 
 1653000   0.58426308    -4.268012     874.2617  0.044074496  0.043824262            7 
 1654000    0.5903067   -4.2227784    874.79561  0.044074749  0.043798914            5 
 1655000   0.58251962   -4.2459555    877.76695  0.044197731  0.043773519           17 
 1656000   0.59030643   -4.2483231    876.97115  0.044130996  0.043748338           36 
 1657000   0.59366709   -4.2441846    876.65466  0.044088446  0.043723076           10 
 1658000     0.594388   -4.2522164    877.00867  0.044079648  0.043697692           10 
 1659000   0.59874842   -4.2677958    876.68657  0.044036898  0.043672136            5 
 1660000   0.59561476   -4.2407028    876.60139  0.044006094  0.043646707           10 
 1661000    0.5946689    -4.256585    877.80704  0.044040088  0.043621478            8 
 1662000   0.60366263   -4.2314251    879.07928  0.044077381  0.043596173           25 
 1663000   0.59549756    -4.246797    875.88685  0.043890903  0.043570935            9 
 1664000   0.58295195   -4.2584636    878.31586  0.043986171  0.043545587           20 
 1665000    0.5967584   -4.2578046    876.67709  0.043877732  0.043520191           15 
 1666000   0.58499674   -4.2466256    877.52433  0.043893774  0.043494852           21 
 1667000   0.58888447   -4.2808067    875.71788  0.043777139   0.04346958           10 
 1668000   0.60195399   -4.2439888    874.75408  0.043702742  0.043444037            9 
 1669000   0.59257311   -4.2652556    877.82914  0.043830095  0.043418441            8 
 1670000    0.5889523    -4.270556     875.6632  0.043695769  0.043392944           11 
 1671000   0.58663499   -4.2731432    875.16112   0.04364458  0.043367359           14 
 1672000   0.58994551   -4.2275226    878.60012  0.043789878  0.043342008            6 
 1673000   0.58041694   -4.2565464     876.6989  0.043669003  0.043316647           11 
 1674000   0.58881094   -4.2532953    875.13893   0.04356526   0.04329115           20 
 1675000   0.58699891   -4.2531085      877.237  0.043643632  0.043265864           11 
 1676000   0.57840208   -4.2651248    876.88996  0.043600336  0.043240541           15 
 1677000   0.58473926   -4.2709688     876.6283  0.043561335  0.043215214           13 
 1678000   0.59030908   -4.2632712    877.73464  0.043590318  0.043189999            9 
 1679000    0.5822385   -4.2529059    876.93288  0.043524562  0.043164738           11 
 1680000   0.57783163   -4.2668402    876.41893  0.043473161  0.043139487           10 
 1681000   0.59541628   -4.2728804    878.15508  0.043533367  0.043114286            7 
 1682000   0.58198377   -4.2820771    878.98053  0.043548381   0.04308905            6 
 1683000   0.58421018   -4.2618309    881.56393  0.043650422  0.043063896            8 
 1684000   0.57227106    -4.265235    877.17387  0.043407258  0.043038779           22 
 1685000   0.57181337   -4.2768589    876.40345  0.043343395  0.043013616           11 
 1686000   0.59181049   -4.2914305    877.50494   0.04337213  0.042988398           12 
 1687000    0.5660527   -4.2698606    874.94747  0.043220089  0.042963132            6 
 1688000   0.57499022   -4.2551567    875.73118  0.043233175  0.042937871           11 
 1689000   0.58326081   -4.2573372    877.49892  0.043294796  0.042912656            6 
 1690000    0.5753538   -4.2645313    877.89099   0.04328851  0.042887421           12 
 1691000   0.57556569   -4.2536683    879.60889   0.04334757  0.042862205            8 
 1692000   0.58613805   -4.2630891    880.41374  0.043361591  0.042837089            9 
 1693000    0.5891316   -4.2444701    879.45309  0.043288693  0.042812159            8 
 1694000   0.56951325   -4.2730286    878.45367  0.043213974  0.042787104            8 
 1695000   0.58974564    -4.259756    877.16364  0.043125056  0.042761945           11 
 1696000   0.57271756   -4.2804804    878.02235  0.043141821  0.042736766           10 
 1697000   0.57321651   -4.2592645    878.37116  0.043133528  0.042711719            7 
 1698000   0.57137362   -4.2550857    877.85579  0.043082832  0.042686672           13 
 1699000   0.57989118   -4.2789665    878.14436  0.043071629  0.042661559           21 
 1700000   0.57810114   -4.2643699    878.75358  0.043076156  0.042636416           20 
 1701000   0.57964827   -4.2894819    881.15029  0.043168248  0.042611158           18 
 1702000   0.58323431   -4.2684667    879.95551  0.043084387  0.042586078           12 
 1703000   0.56520151   -4.2897962    878.00152  0.042963472  0.042560964           11 
 1704000   0.55870609     -4.27657    879.66358  0.043019541  0.042535913           13 
 1705000   0.57997968   -4.2707099    879.22395  0.042972823  0.042510748           25 
 1706000   0.57964438   -4.2739724    877.81227  0.042878677   0.04248557           11 
 1707000   0.57480671   -4.2565095    879.29174  0.042925783  0.042460442            8 
 1708000   0.57218517   -4.2852222    876.44573  0.042761794  0.042435259           16 
 1709000    0.5692944   -4.2802775      882.305  0.043022479  0.042410097            5 
 1710000   0.57056463   -4.2739477    878.64699  0.042819054  0.042385096           16 
 1711000   0.56719403   -4.2761143    880.24221  0.042871723  0.042359992           12 
 1712000   0.57377536   -4.2904145    879.33894  0.042802713  0.042334918           13 
 1713000   0.56285473   -4.2853855    878.29442  0.042726913  0.042309813           13 
 1714000   0.56866116   -4.2972243    880.49057   0.04280876  0.042284798           11 
 1715000   0.56724144   -4.2780403    877.98537  0.042662069  0.042259894           13 
 1716000   0.58562038   -4.2968013    881.07886  0.042787435  0.042235003           17 
 1717000   0.57924706   -4.2906351    879.00908   0.04266206   0.04220999           23 
 1718000   0.57617726   -4.2893889     879.6805  0.042669795  0.042184987            8 
 1719000   0.56969712   -4.2802308    880.08172  0.042664423  0.042160068           12 
 1720000   0.56379632   -4.2849731    879.06959  0.042590581  0.042135216            9 
 1721000    0.5574412   -4.2893979     880.4489  0.042632621  0.042110433           40 
 1722000    0.5644726   -4.3079515    880.26141  0.042598791  0.042085626           22 
 1723000   0.56080468   -4.2848743    881.85238  0.042651015  0.042060901           14 
 1724000   0.55917718   -4.3199115    880.76764  0.042573842   0.04203608            9 
 1725000   0.57642032    -4.291087    880.60775  0.042541437  0.042011423           16 
 1726000   0.55979349   -4.2953716    881.84167  0.042576365  0.041986625            6 
 1727000    0.5588521   -4.2968602    882.24174  0.042571016  0.041961876            9 
 1728000   0.55936751   -4.2889463    878.77182  0.042379042  0.041937158           13 
 1729000   0.57214485    -4.300834    878.83292  0.042357476  0.041912429           29 
 1730000   0.57406647    -4.294724    880.90903  0.042432997   0.04188774            8 
 1731000   0.56631073    -4.298174    881.71546  0.042447307  0.041863097           10 
 1732000    0.5589319   -4.3047562    881.20186  0.042398088  0.041838373           16 
 1733000   0.55769807   -4.2946393    882.32113  0.042427444  0.041813803           14 
 1734000   0.54947497    -4.304359    880.15477  0.042298864  0.041788974           21 
 1735000   0.55766401   -4.3130481    879.50365  0.042243211  0.041764214           10 
 1736000   0.56800017   -4.3108685    883.55806  0.042413501  0.041739571            9 
 1737000   0.56144646   -4.3156204    881.27838  0.042279715  0.041714912           16 
 1738000   0.56901004   -4.3106345    881.81452  0.042281095  0.041690175           16 
 1739000   0.56398785   -4.2974533    881.70036  0.042251311  0.041665528           10 
 1740000   0.56737822    -4.311762    884.51959  0.042362049  0.041640965            7 
 1741000   0.56114547   -4.2941557    883.17944  0.042273571  0.041616371            4 
 1742000   0.57083657   -4.3052266     882.1603   0.04220055  0.041591766           11 
 1743000   0.55460664   -4.2949163     883.1768  0.042224938  0.041567328            5 
 1744000   0.56182732   -4.3310754    882.77987   0.04218176   0.04154273           11 
 1745000   0.55633356   -4.3244292    879.63646  0.042007472  0.041518008           25 
 1746000     0.561606   -4.3095741    881.56688  0.042075548  0.041493319           15 
 1747000   0.56243362   -4.3172774    880.57394  0.042004099  0.041468637           11 
 1748000   0.55843901   -4.3043479    881.60224  0.042029092  0.041443996           15 
 1749000   0.56568545   -4.3097447    880.72653  0.041963338   0.04141943           10 
 1750000   0.54719764   -4.3165047    878.44763  0.041830839  0.041394689           13 
 1751000   0.56435464   -4.3257848    879.80604  0.041871599  0.041369974           13 
 1752000   0.55410018   -4.3320458    880.71787  0.041891071  0.041345194           15 
 1753000    0.5523881   -4.3139717     879.6212  0.041815041  0.041320473           10 
 1754000   0.54598635    -4.326312    881.10287  0.041861596   0.04129587           19 
 1755000   0.55641343   -4.3261475    881.66272  0.041864327  0.041271221           17 
 1756000   0.55561421   -4.3183006    882.62935  0.041886359  0.041246578           21 
 1757000   0.56059275   -4.3059157     881.8194  0.041824103  0.041221935           12 
 1758000   0.55353182   -4.3372437     879.0626  0.041669634   0.04119725            6 
 1759000   0.54836696    -4.311326    880.08775  0.041694511  0.041172596           13 
 1760000   0.55549347   -4.3093787    884.26182  0.041868458  0.041148096           10 
 1761000    0.5629162   -4.3261556    882.36529  0.041754935  0.041123632           10 
 1762000   0.56382564   -4.3109622    883.30788  0.041775817  0.041099076           12 
 1763000   0.53768928   -4.3273773    881.29145  0.041656809   0.04107444            9 
 1764000   0.54600487   -4.3171367    882.63096  0.041696474  0.041049853           15 
 1765000   0.53737535   -4.3353414    879.56173  0.041527938  0.041025178            8 
 1766000   0.53911405   -4.3231881     883.0999   0.04167138  0.041000656           10 
 1767000   0.55071183   -4.3231201    881.29567  0.041562708  0.040976109           18 
 1768000   0.54350088   -4.3466968    883.78719  0.041656636  0.040951586           20 
 1769000   0.55509517   -4.3400375    881.87793  0.041543147  0.040926929           11 
 1770000   0.54705577   -4.3276205    881.24534  0.041489893  0.040902384           19 
 1771000    0.5481262   -4.3172846    881.93991  0.041499149  0.040877934            5 
 1772000   0.55720138   -4.3271004     881.8549  0.041471732  0.040853409           27 
 1773000   0.53725903   -4.3410369    881.46633  0.041430078  0.040828933           14 
 1774000   0.53775878   -4.3335069    881.76565  0.041420784  0.040804508            5 
 1775000   0.55624842   -4.3142544    883.22044  0.041465749  0.040780133           19 
 1776000   0.54047293   -4.3399759    881.19234  0.041347238  0.040755782           14 
 1777000   0.53268803   -4.3374137    881.79969  0.041352452  0.040731357           11 
 1778000   0.54346143   -4.3304154    884.56207  0.041458665  0.040706936           17 
 1779000    0.5428308   -4.3460302    880.05973  0.041224458  0.040682426           10 
 1780000   0.52994703   -4.3426602    880.87367  0.041239404  0.040657898           13 
 1781000   0.54766735   -4.3469832    881.92271  0.041265333  0.040633439           15 
 1782000   0.54482219   -4.3298119    882.59207  0.041273479  0.040608988           12 
 1783000   0.54719401   -4.3310687    880.48973  0.041152072  0.040584481            9 
 1784000   0.53611564   -4.3138679    882.58263  0.041226767  0.040560048           15 
 1785000   0.54354593   -4.3366336    884.11641  0.041275276  0.040535655           19 
 1786000   0.54007157   -4.3544025    881.50319  0.041130235  0.040511345            6 
 1787000   0.53469157   -4.3443161    883.83179  0.041215808  0.040487001           12 
 1788000   0.53752428   -4.3498811     883.5068   0.04117761  0.040462757           26 
 1789000   0.54435888   -4.3278303    883.73762  0.041165344   0.04043845           15 
 1790000   0.54276499   -4.3567395    883.21085  0.041117823  0.040414248            8 
 1791000   0.54346864   -4.3380604    883.37204  0.041102366  0.040389985            9 
 1792000   0.54673158   -4.3594411    883.12816  0.041068088  0.040365718           27 
 1793000   0.53196511   -4.3518683    883.55134  0.041064851  0.040341555           13 
 1794000   0.52839578   -4.3610747    884.29322  0.041076422  0.040317409            9 
 1795000   0.53467339   -4.3549039    883.03992  0.040995354   0.04029327            8 
 1796000   0.53816501   -4.3615009    880.79806  0.040868507  0.040268999           30 
 1797000   0.54466565   -4.3766471    883.35863  0.040964507  0.040244711           29 
 1798000   0.52193232   -4.3641906     881.3957  0.040850746  0.040220359            7 
 1799000    0.5339615    -4.365959    882.01711  0.040856824  0.040196055           19 
 1800000   0.52064246   -4.3683611       881.42  0.040806482   0.04017178            8 
 1801000    0.5352311   -4.3545449    881.23638  0.040775328  0.040147473            9 
 1802000   0.53592382   -4.3656498    882.39243  0.040806161  0.040123209           19 
 1803000   0.54005618   -4.3570525    884.06251  0.040860719  0.040099054           16 
 1804000   0.52117536   -4.3507255     884.2582  0.040847108  0.040074958           11 
 1805000   0.53176182   -4.3652693    882.14071  0.040726718  0.040050824            8 
 1806000   0.52353314   -4.3790915     882.2809  0.040710636  0.040026525           12 
 1807000   0.52286557   -4.3891232    882.09098  0.040679348  0.040002177           12 
 1808000   0.53373603   -4.3675533     881.8205  0.040644381  0.039977884           11 
 1809000   0.54206364   -4.3335121    882.87931  0.040670689  0.039953785            7 
 1810000     0.522497   -4.3635602    881.92591  0.040604324  0.039929671           17 
 1811000   0.52387798   -4.3874028    880.00897  0.040493695   0.03990548           13 
 1812000   0.53585234   -4.3764332    882.95022  0.040606614  0.039881213           17 
 1813000    0.5155707   -4.3749886    882.49894  0.040563474  0.039856962           13 
 1814000   0.52686939   -4.3631845    885.02831  0.040657309  0.039832809           12 
 1815000   0.52450946   -4.3765735    882.26124  0.040507862  0.039808699           11 
 1816000   0.53655207     -4.38525    884.29993  0.040579109  0.039784603            8 
 1817000   0.53698785   -4.3742531    883.16684  0.040504808  0.039760492           11 
 1818000   0.52529796   -4.3900066     882.4677  0.040450481  0.039736342           32 
 1819000   0.52700819    -4.363501    882.71779  0.040439701   0.03971229           52 
 1820000   0.53362697    -4.381574    882.26818  0.040396895  0.039688205           18 
 1821000   0.52292726   -4.3808509    883.96485  0.040452354  0.039663962           16 
 1822000   0.52496011   -4.3684769    880.62213  0.040277265  0.039639797           21 
 1823000   0.53033319   -4.3849001    883.37772  0.040381135  0.039615598            9 
 1824000   0.51838561   -4.3910099    882.70863  0.040328428  0.039591414           22 
 1825000   0.51848654   -4.3897564    883.67657  0.040350528  0.039567288            7 
 1826000    0.5181677   -4.3658484    883.92284   0.04033967  0.039543169           11 
 1827000   0.51249739   -4.3550861    881.20001  0.040193396  0.039519109            9 
 1828000   0.51875482   -4.3745362    881.80344  0.040198917  0.039495119           14 
 1829000   0.52752522   -4.3843969    883.15292  0.040238424  0.039470971           25 
 1830000     0.513058   -4.3987029    881.65647  0.040148291  0.039446895           23 
 1831000   0.52405736   -4.3808562    883.57746  0.040213793  0.039422802           11 
 1832000   0.52171301   -4.3809857    883.69649  0.040197257  0.039398788           15 
 1833000   0.52763208     -4.38147    881.30578  0.040066639  0.039374918           17 
 1834000   0.52221869   -4.3800078    885.36637  0.040229297  0.039350937           10 
 1835000   0.52726771   -4.3762547    881.21404  0.040018803  0.039326923           27 
 1836000   0.52878826   -4.3853301    883.73184  0.040111286  0.039302872            9 
 1837000   0.52255356   -4.3907309     881.4871   0.03998762  0.039278809           31 
 1838000   0.51750382   -4.3904445    884.48648  0.040101853  0.039254819            9 
 1839000   0.51405633   -4.3834367    880.33349  0.039891857  0.039230782           25 
 1840000    0.5195688   -4.3900029    881.39267  0.039918146  0.039206665           19 
 1841000   0.51749424   -4.3751805    882.44565  0.039944127  0.039182612           19 
 1842000   0.52432476   -4.3907729    881.59604  0.039884005  0.039158589           13 
 1843000   0.52053427   -4.3952078    882.85846  0.039919446   0.03913466           15 
 1844000   0.51106646   -4.3875151     880.9426  0.039811217  0.039110771           25 
 1845000   0.52180159   -4.3806722    881.74542    0.0398259  0.039086879           28 
 1846000   0.51111651   -4.3927954    883.14748  0.039867618  0.039062931           32 
 1847000   0.52390152    -4.373765    882.61551  0.039822031  0.039039016           15 
 1848000   0.51463393   -4.3994857    882.04564  0.039774785  0.039015169           19 
 1849000   0.51323443   -4.3977161    883.68456  0.039827139  0.038991265           22 
 1850000   0.52043901   -4.3943427    883.01467  0.039775436  0.038967338           26 
 1851000   0.50307662   -4.3889891    880.26957  0.039630361   0.03894329           30 
 1852000   0.52205733   -4.4028933    882.02056   0.03968775  0.038919333           21 
 1853000   0.51864048   -4.3989905     883.2262  0.039720552   0.03889537           17 
 1854000   0.51171513   -4.4093532    880.77808   0.03958909  0.038871389           34 
 1855000   0.51134661    -4.408247    880.52296  0.039556287  0.038847271           37 
 1856000   0.51066586   -4.4033268    881.94079  0.039598635  0.038823213           16 
 1857000   0.49414187   -4.3961476    881.85937  0.039573657  0.038799201           17 
 1858000   0.51233215   -4.4095537    883.32689  0.039618178  0.038775289           22 
 1859000   0.52361945   -4.4138651    882.91508  0.039578406  0.038751359           28 
 1860000   0.50660657   -4.4067852    882.03776  0.039517821  0.038727405           38 
 1861000   0.51415164    -4.400804    882.42271  0.039513824  0.038703461           25 
 1862000   0.50023078   -4.4095274    882.83266   0.03951095  0.038679606           19 
 1863000    0.5036548   -4.4052071    881.39962  0.039425641  0.038655718           43 
 1864000   0.51145404   -4.4100278    881.40991   0.03940495  0.038631894           18 
 1865000    0.5074974   -4.4054506    880.96111  0.039363767  0.038607997           27 
 1866000   0.51197945   -4.4041625     881.6277  0.039372441  0.038584208           11 
 1867000   0.50968299   -4.4064538    882.68805  0.039398681  0.038560439           23 
 1868000   0.49040476   -4.4119836    882.96182  0.039389803  0.038536649           11 
 1869000   0.51480847    -4.421136    880.97713  0.039280236  0.038512839           22 
 1870000   0.51017111   -4.4239463    880.80886  0.039251732     0.038489           17 
 1871000   0.51232319   -4.4153956     883.3074  0.039342036  0.038465224           12 
 1872000   0.50073042   -4.4010014    879.08906  0.039133238   0.03844146           14 
 1873000   0.51069655   -4.4272971    882.19046  0.039250332  0.038417702           13 
 1874000   0.51102693   -4.4220294    882.75761  0.039254607   0.03839396            8 
 1875000   0.49029418   -4.4223578    884.20888  0.039298172  0.038370282            8 
 1876000   0.50142078   -4.4216827    883.19266  0.039232083  0.038346628           10 
 1877000   0.50533672   -4.4228369    881.89269  0.039153467  0.038322904           42 
 1878000   0.52218502   -4.4299343    881.82784  0.039129741  0.038299107           42 
 1879000   0.50614673   -4.4497727      880.338  0.039042842  0.038275315           27 
 1880000   0.50477656   -4.4286203    883.76393  0.039173933  0.038251559           39 
 1881000   0.50649155   -4.4369196    881.00331  0.039030804  0.038227843           19 
 1882000    0.5055992   -4.4222572      882.425  0.039073016  0.038204164           16 
 1883000   0.52079318   -4.4129937    881.21269  0.038998614  0.038180504           17 
 1884000   0.49680449   -4.4068467    884.70488  0.039132382  0.038156912           61 
 1885000    0.5066806   -4.4220268    881.32072  0.038962013  0.038133381           32 
 1886000    0.4924616    -4.416632    881.39654  0.038944704  0.038109815           13 
 1887000   0.50440959   -4.4120906    886.02009   0.03912825  0.038086331           15 
 1888000   0.49261829   -4.4262094      882.542  0.038954008  0.038062879           26 
 1889000   0.50097639   -4.4254182     881.9117  0.038905581  0.038039373            9 
 1890000    0.4969134   -4.4471703    882.99706  0.038932851  0.038015859           15 
 1891000   0.50607767   -4.4221096     884.1368  0.038962489  0.037992489           17 
 1892000   0.50272085   -4.4131862    883.12452   0.03889731  0.037969068           20 
 1893000    0.4984647   -4.4399085    883.83202  0.038907907  0.037945673           23 
 1894000   0.49538634   -4.4221173    883.26761  0.038862531  0.037922273           22 
 1895000   0.49829621   -4.4311635    881.81277  0.038778046  0.037898887           32 
 1896000   0.49657276   -4.4170031      880.759  0.038711278  0.037875559           17 
 1897000   0.49575964   -4.4283218    882.94607  0.038786947   0.03785214           10 
 1898000   0.50227256   -4.4367197    882.34638  0.038740182  0.037828629           24 
 1899000   0.49657322   -4.4371112     882.2873  0.038717189  0.037805135           13 
 1900000   0.48982962   -4.4432581    880.63251  0.038624233  0.037781633           20 
 1901000   0.49972706   -4.4321359    882.77373  0.038697779  0.037758211           12 
 1902000   0.49674081   -4.4213289    883.44151  0.038706691  0.037734856           36 
 1903000   0.49014597    -4.442284     883.8696  0.038705097  0.037711447           10 
 1904000    0.4860475   -4.4430159    880.97003  0.038557862  0.037688011           30 
 1905000   0.49317526    -4.444654    881.92439   0.03857937  0.037664678           53 
 1906000   0.49365558   -4.4358429    880.72551  0.038506712   0.03764131           12 
 1907000   0.49408572   -4.4459576    880.89226  0.038493806  0.037617919           15 
 1908000   0.47983534   -4.4396717     881.3338  0.038492916  0.037594545           16 
 1909000   0.49796546   -4.4275359    882.59573  0.038527839   0.03757115           12 
 1910000   0.49768305   -4.4269688    881.29135  0.038450757  0.037547806           12 
 1911000   0.48702334   -4.4651229    880.82983  0.038410511  0.037524528           12 
 1912000   0.49455509   -4.4564313    882.43009  0.038460168  0.037501171           12 
 1913000   0.48954288    -4.444585    881.43146  0.038396561  0.037477854           12 
 1914000    0.4847358   -4.4421055    881.87293  0.038395721  0.037454592           17 
 1915000    0.4874619   -4.4635359    882.49403  0.038402699   0.03743136           13 
 1916000   0.49487412   -4.4561149    880.67381  0.038303488  0.037407948           40 
 1917000   0.48989489   -4.4482481    883.10051  0.038388998  0.037384529           13 
 1918000   0.48763586   -4.4552482    880.96139  0.038276042  0.037361143           12 
 1919000   0.48184716   -4.4621048    882.18506  0.038309235  0.037337707           26 
 1920000   0.49591927   -4.4606039    881.13529  0.038243719    0.0373143           34 
 1921000   0.49103728   -4.4529887    881.08793  0.038221756  0.037290915           20 
 1922000   0.50459175     -4.47227    883.50646  0.038306732  0.037267618           23 
 1923000   0.47897496   -4.4424976    881.19042  0.038186446  0.037244386           14 
 1924000   0.48546525    -4.431055    882.86585  0.038239166  0.037221216           24 
 1925000    0.4798361   -4.4531711    882.17448  0.038189372  0.037198021           22 
 1926000   0.48813467   -4.4367818    879.49603  0.038053653  0.037174865           20 
 1927000   0.48494779    -4.470466    882.17516  0.038149765   0.03715167           25 
 1928000   0.48840538    -4.473089    880.32447  0.038049986  0.037128387           20 
 1929000   0.48171796   -4.4503688    881.77064  0.038092735  0.037105237           15 
 1930000   0.48558833    -4.471889    881.49699  0.038061182  0.037082002            9 
 1931000   0.49128792   -4.4782035    881.89961  0.038058847  0.037058734           48 
 1932000   0.48756468   -4.4769181     881.4869  0.038021346  0.037035523           51 
 1933000   0.47420542   -4.4510151    881.04541  0.037982644  0.037012256           27 
 1934000   0.48147717   -4.4529823    883.76451  0.038080167  0.036989101           11 
 1935000   0.48719193   -4.4815452    881.26813  0.037952977  0.036965948           14 
 1936000   0.47654658   -4.4520174     880.5353   0.03790183  0.036942764           31 
 1937000   0.48019725   -4.4607218    881.07893   0.03790565  0.036919588           22 
 1938000   0.47533735   -4.4702963    883.25284  0.037979568    0.0368964           32 
 1939000   0.48043792    -4.461083    880.12695  0.037825638  0.036873244           15 
 1940000   0.47809061    -4.472473    881.42694  0.037861982  0.036850106           57 
 1941000   0.48161071   -4.4796782     879.7656  0.037771149  0.036826983           32 
 1942000   0.48220096   -4.4707066    878.86819  0.037713191  0.036803874           56 
 1943000   0.47796666     -4.46764    881.36022  0.037800662  0.036780749           31 
 1944000   0.48500609   -4.4701815    882.32788  0.037822697   0.03675772           35 
 1945000   0.48915396   -4.4645108    881.68318  0.037775629  0.036734611           55 
 1946000    0.4822277   -4.4545207    880.93496  0.037724176  0.036711546           80 
 1947000    0.4912692    -4.458903    878.86647  0.037616267  0.036688442          127 
 1948000   0.47897384   -4.4644434    881.34455  0.037702967  0.036665375          123 
 1949000   0.47688503    -4.458452    878.38002  0.037556868  0.036642304           79 
 1950000   0.47354476   -4.4625276    880.48586  0.037627601  0.036619171           73 
 1951000   0.47651693   -4.4801333    880.24116  0.037597862  0.036596077          109 
 1952000    0.4799435   -4.4808565    880.58421  0.037593247  0.036572942           87 
 1953000   0.47081909   -4.4740059    883.29036  0.037689468  0.036549938           98 
 1954000   0.47421078   -4.4761069      882.374  0.037631098  0.036526993           18 
 1955000   0.47301709   -4.4798695    882.37201  0.037611765  0.036504001           39 
 1956000   0.46734645   -4.4702091    881.52883  0.037556613  0.036481055           25 
 1957000   0.46919221    -4.475107    882.10846  0.037562105  0.036458096           24 
 1958000   0.47660746   -4.4846184    880.31526  0.037466601  0.036435118           24 
 1959000   0.47196003   -4.4897728    879.98083   0.03743325   0.03641213           27 
 1960000   0.46195524   -4.4875257    880.90896  0.037453612  0.036389116           45 
 1961000   0.46478092   -4.4838622    880.01877  0.037396684   0.03636618           31 
 1962000   0.47512362   -4.4611596    881.83753  0.037454873  0.036343244           48 
 1963000   0.46292661   -4.4853793    880.46052  0.037377336  0.036320382           40 
 1964000   0.46764112   -4.4941582    880.69403  0.037368212  0.036297461           72 
 1965000   0.47284688   -4.4865757    881.19647  0.037370503  0.036274514           30 
 1966000     0.474843   -4.5000167    881.32142  0.037356791  0.036251596           32 
 1967000   0.46450541   -4.4934255    879.78276  0.037272613  0.036228617           23 
 1968000   0.46522126   -4.4998874    880.26582  0.037274129  0.036205626           51 
 1969000   0.47261681   -4.4839427    880.12164  0.037249096  0.036182734           46 
 1970000   0.46623378   -4.4890608    879.04419   0.03718461  0.036159785           62 
 1971000    0.4624037    -4.498031    878.41287  0.037139053    0.0361369           70 
 1972000   0.46521933   -4.4857748    880.96109  0.037227903  0.036114027           42 
 1973000   0.47137168   -4.4884135    879.32339  0.037139863   0.03609109           64 
 1974000   0.46323535   -4.4920819    880.22963  0.037159306  0.036068205           58 
 1975000   0.46778428   -4.5104525    880.95183  0.037170963  0.036045353           39 
 1976000   0.46774315   -4.4905155     880.7727  0.037144598  0.036022552           14 
 1977000   0.47105822   -4.4921193    879.95879  0.037091502  0.035999728           31 
 1978000   0.45772048   -4.5034043    880.63259  0.037101137  0.035976887           28 
 1979000    0.4568218    -4.496084    878.71805  0.037001771  0.035954062           19 
 1980000   0.47681281   -4.4830831    878.73003  0.036983587  0.035931272           34 
 1981000   0.46951034   -4.5154379    880.04274  0.037020139   0.03590847           32 
 1982000   0.46653499   -4.5028313    880.08157  0.037003093  0.035885723           37 
 1983000   0.47296953   -4.4935601    881.45014  0.037041946  0.035862933           70 
 1984000   0.45626113   -4.5119105    878.92867  0.036917367  0.035840114           34 
 1985000   0.46539014   -4.4988508    878.17202  0.036867004  0.035817313           40 
 1986000    0.4564477   -4.4960789    878.85889  0.036877261   0.03579453           27 
 1987000   0.46472166   -4.5158731    879.35872  0.036879665  0.035771746           27 
 1988000   0.46268518   -4.5156139    878.23417  0.036813974  0.035749035           13 
 1989000   0.45760082   -4.5147362    879.06167  0.036830135   0.03572626           30 
 1990000   0.45803862   -4.5044332    879.62291   0.03683513  0.035703458           47 
 1991000   0.45343722   -4.5464698     877.9047  0.036744714  0.035680594           27 
 1992000   0.45337871   -4.5168551    879.16898  0.036779157  0.035657703           52 
 1993000   0.44703946   -4.5221798    877.41071  0.036687185  0.035634881           42 
 1994000   0.45367739   -4.5206808    877.66592  0.036679452   0.03561204           51 
 1995000   0.44624834   -4.5323649    877.61462  0.036658923  0.035589166           17 
 1996000   0.46250048   -4.5157534    877.43005  0.036632851  0.035566354           33 
 1997000   0.45371663   -4.5072504    876.57207  0.036578704  0.035543454           39 
 1998000   0.46120144    -4.515026     876.1966  0.036544736  0.035520583           15 
 1999000    0.4588802    -4.526855    877.47587  0.036579784  0.035497748           36 
 2000000   0.46394585   -4.5399375    876.64846  0.036527019  0.035474942           32 
 2001000   0.45425877   -4.5310659     877.9797  0.036564205  0.035452145           66 
 2002000   0.45614934   -4.5264522    876.83215  0.036498175  0.035429386           49 
 2003000   0.44750519   -4.5289767    875.85312  0.036439221  0.035406614           97 
 2004000   0.45522625    -4.531472    877.46329  0.036487994  0.035383865           42 
 2005000   0.44873506   -4.5333122    880.49001  0.036595595   0.03536116           23 
 2006000   0.45306882   -4.5261442    877.37487  0.036447942  0.035338512           17 
 2007000   0.44598002   -4.5304659    878.65222  0.036482819  0.035315819           49 
 2008000   0.45320465   -4.5383803    877.75792  0.036427536  0.035293159           37 
 2009000   0.44420097   -4.5361426    876.35724  0.036351304  0.035270507           42 
 2010000   0.45121128   -4.5343764    875.22461  0.036286261  0.035247876           19 
 2011000   0.44974165   -4.5221724    877.39733  0.036358252  0.035225217           22 
 2012000   0.43740634   -4.5412293    876.85266  0.036317622  0.035202525           13 
Loop time of 4960.21 on 48 procs for 2000000 steps with 4000 atoms

Performance: 69674.414 tau/day, 403.208 timesteps/s
99.4% CPU use with 48 MPI tasks x no OpenMP threads

MPI task timing breakdown:
Section |  min time  |  avg time  |  max time  |%varavg| %total
---------------------------------------------------------------
Pair    | 327.09     | 349.28     | 366.3      |  55.0 |  7.04
Neigh   | 33.17      | 34.615     | 35.779     |  12.2 |  0.70
Comm    | 313.56     | 338.07     | 368.75     |  72.7 |  6.82
Output  | 4.2066     | 4.2088     | 4.245      |   0.3 |  0.08
Modify  | 4172.3     | 4187.3     | 4202.7     |  10.1 | 84.42
Other   |            | 46.72      |            |       |  0.94

Nlocal:        83.3333 ave          91 max          78 min
Histogram: 5 4 6 10 4 6 10 1 1 1
Nghost:        2260.31 ave        2283 max        2241 min
Histogram: 2 7 4 8 7 7 5 3 2 3
Neighs:        15111.3 ave       17104 max       13500 min
Histogram: 2 6 6 4 10 8 7 0 4 1
FullNghs:      30222.0 ave       33430 max       27853 min
Histogram: 4 3 7 11 5 6 8 3 0 1

Total # of neighbors = 1450655
Ave neighs/atom = 362.66375
Neighbor list builds = 108210
Dangerous builds = 0

#clear
#
#next RN
#
#jump SELF
Total wall time: 1:22:44
