
units lj                  # Use reduced LJ style units
atom_style atomic         # Uncharged point particles
atom_modify map hash      # Needed for indexing of clusters etc
                          # Used to be able to find where atoms are in relation to each other.

lattice fcc 1.0 spacing 1 1 1
Lattice spacing in x,y,z = 1.5874011 1.5874011 1.5874011
region box block 0 10 0 10 0 10 units lattice
create_box 2 box
Created orthogonal box = (0.0000000 0.0000000 0.0000000) to (15.874011 15.874011 15.874011)
  3 by 4 by 4 MPI processor grid
create_atoms 1 box
Created 4000 atoms
  using lattice units in orthogonal box = (0.0000000 0.0000000 0.0000000) to (15.874011 15.874011 15.874011)
  create_atoms CPU = 0.016 seconds
set type 1 type/fraction 2 0.34 78393
Setting atom values ...
  1376 settings made for type/fraction
mass 1 1.0
mass 2 1.0
pair_style lj/cut  3.5
pair_modify tail  yes
pair_coeff 1  1  1.0  1.0   # Intearaction between 1 and 1 set with epsilon = 1 and sigma = 1
pair_coeff 1  2  1.5  0.8
pair_coeff 2  2  0.5  0.88

write_data data.0
System init for write_data ...
Neighbor list info ...
  update every 1 steps, delay 10 steps, check yes
  max neighbors/atom: 2000, page size: 100000
  master list distance cutoff = 3.8
  ghost atom cutoff = 3.8
  binsize = 1.9, bins = 9 9 9
  1 neighbor lists, perpetual/occasional/extra = 1 0 0
  (1) pair lj/cut, perpetual
      attributes: half, newton on
      pair build: half/bin/atomonly/newton
      stencil: half/bin/3d
      bin: standard
WARNING: Not all mixed pair coeffs generated from mixing. Use write_data with 'pair ij' option to store all pair coeffs. (../write_data.cpp:312)


#############################
#   M E L T   S Y S T E M   #
#############################

velocity all create 2.4 9580093 mom yes dist gaussian # Assign velocities
                                                    # Temperature 2.4, random number seed, zero linear momentum
                                                                                # Gaussian distribution

timestep 0.002   # simulation timestep
thermo 1000       # output thermodynamic data every 1000 steps bf 100

# Define a fix  in this case with index 1 applied to all
# particles in the simulation. This fix is for simulations
# in the anisotropic NPT ensemble. Note that we use the MTK
# correction.
fix 1 all npt temp 2.4 2.4 0.1 iso 5.68 5.68 0.5 mtk yes tchain 5 pchain 5 # Use NPT ensemble
                                                                         # Set temperature and pressure and damping
                                                                         # Numbers of thermostats in chain and in barostat
run 10000          # run for 10000 steps
Per MPI rank memory allocation (min/avg/max) = 3.642 | 3.644 | 3.648 Mbytes
Step Temp E_pair E_mol TotEng Press Volume 
       0          2.4   -6.2108987            0   -2.6117987   -4.0679274         4000 
    1000    2.3500375   -5.0327142            0   -1.5085391    5.6964137    4028.3362 
    2000    2.4116142   -5.0385025            0   -1.4219856    5.6249413    4039.2062 
    3000    2.3811672      -5.0613            0   -1.4904422    5.4733553    4037.0762 
    4000    2.4042577   -5.0558601            0   -1.4503751    5.8597405    4010.2222 
    5000    2.3988099   -5.0940191            0   -1.4967038    5.9608233    3983.7875 
    6000    2.4073564   -5.0679874            0   -1.4578556    5.6449398    4025.2939 
    7000    2.3627711   -5.0338394            0   -1.4905688     5.692308    4028.9759 
    8000    2.3989034   -5.0197141            0   -1.4222586    5.5214551    4060.0374 
    9000    2.4051144   -4.9990543            0   -1.3922847    5.8721927    4041.2538 
   10000    2.4188745   -4.9630314            0   -1.3356266    5.7927928    4061.7544 
Loop time of 2.46732 on 48 procs for 10000 steps with 4000 atoms

Performance: 700353.626 tau/day, 4052.972 timesteps/s
99.6% CPU use with 48 MPI tasks x no OpenMP threads

MPI task timing breakdown:
Section |  min time  |  avg time  |  max time  |%varavg| %total
---------------------------------------------------------------
Pair    | 1.0553     | 1.1369     | 1.2403     |   3.4 | 46.08
Neigh   | 0.20164    | 0.21308    | 0.226      |   1.1 |  8.64
Comm    | 0.7396     | 0.84552    | 0.9324     |   4.6 | 34.27
Output  | 0.00024414 | 0.00024861 | 0.00031555 |   0.0 |  0.01
Modify  | 0.22816    | 0.25637    | 0.29372    |   2.8 | 10.39
Other   |            | 0.0152     |            |       |  0.62

Nlocal:        83.3333 ave          93 max          73 min
Histogram: 1 1 1 7 11 12 4 5 5 1
Nghost:        1634.29 ave        1661 max        1610 min
Histogram: 2 2 6 9 7 11 5 2 2 2
Neighs:        9399.54 ave       10849 max        7783 min
Histogram: 1 1 0 9 11 12 3 10 0 1

Total # of neighbors = 451178
Ave neighs/atom = 112.79450
Neighbor list builds = 904
Dangerous builds = 197

# Equilibrate just above the melting temperature to avoid step fn in T

fix 1 all npt temp 1.25 1.25 0.1 iso 5.68 5.68 0.5 mtk yes tchain 5 pchain 5
run 2000
Per MPI rank memory allocation (min/avg/max) = 3.643 | 3.645 | 3.649 Mbytes
Step Temp E_pair E_mol TotEng Press Volume 
   10000    2.4188745   -4.9630314            0   -1.3356266    5.7927928    4061.7544 
   11000    1.2442764   -6.9329753            0   -5.0670272    5.9303251    3230.4828 
   12000    1.2238628   -6.9568415            0   -5.1215063    5.5449194    3235.3165 
Loop time of 0.584734 on 48 procs for 2000 steps with 4000 atoms

Performance: 591038.396 tau/day, 3420.361 timesteps/s
99.6% CPU use with 48 MPI tasks x no OpenMP threads

MPI task timing breakdown:
Section |  min time  |  avg time  |  max time  |%varavg| %total
---------------------------------------------------------------
Pair    | 0.25231    | 0.28       | 0.31268    |   2.7 | 47.89
Neigh   | 0.038363   | 0.04064    | 0.043594   |   0.6 |  6.95
Comm    | 0.18001    | 0.21342    | 0.24638    |   3.3 | 36.50
Output  | 5.2471e-05 | 5.4384e-05 | 6.8507e-05 |   0.0 |  0.01
Modify  | 0.039634   | 0.045841   | 0.051232   |   1.6 |  7.84
Other   |            | 0.004776   |            |       |  0.82

Nlocal:        83.3333 ave          92 max          73 min
Histogram: 1 2 2 6 10 9 7 5 3 3
Nghost:        1894.75 ave        1915 max        1875 min
Histogram: 3 4 5 9 7 4 0 7 6 3
Neighs:        11807.7 ave       13332 max       10322 min
Histogram: 4 2 5 9 5 5 8 4 3 3

Total # of neighbors = 566768
Ave neighs/atom = 141.69200
Neighbor list builds = 144
Dangerous builds = 13

#############################
# L I N E A R  Q U E N C H  #
#############################

# Define solid atoms. This closely follows ten Wolde  Ruiz-Montero and Frenkel  Faraday Discuss  1996  104  93-110
# Compute components of the per-atom q6 vector
compute q6 all orientorder/atom degrees 1 6 components 6 nnn NULL cutoff 1.3 # compute the Q6 parameter.
                                                                             # Use all neighbours within 1.3 unit cell.

# get number of connections
compute coord_number all coord/atom orientorder q6 0.5

# An atom is solid if it has 8 or more connections (of a possible 14)
variable is_solid atom c_coord_number>=8
group solid dynamic all var is_solid    # Must be dynamic to update
dynamic group solid defined

# do clustering
compute cluster solid cluster/atom 1.3 # Create a cluster where all atoms within are solid and max 1.3 units from another member

# define chunks one chunk per cluster
compute clus_chunks solid chunk/atom c_cluster nchunk every compress yes  # Says which atoms are in which chunk

# count the size of each chunk
compute size_chunks solid property/chunk clus_chunks count


# Find the maximum entry in the vector of chunk sizes
variable max_n equal max(c_size_chunks)


# Thermo style which includes this variable
# thermo_style custom step temp pe vol v_max_n

thermo ${N}  # Print the thermo information every 100 steps
thermo 1000  

# Reset the npt fix at a lower temperature (below freezing)
fix 1  all npt temp  ${temp} ${temp}  0.1  iso  5.68  5.68  0.5  mtk yes tchain  5  pchain  5
fix 1  all npt temp  0.45 ${temp}  0.1  iso  5.68  5.68  0.5  mtk yes tchain  5  pchain  5
fix 1  all npt temp  0.45 0.45  0.1  iso  5.68  5.68  0.5  mtk yes tchain  5  pchain  5

dump dmp2 all dcd ${N} traj.dcd
dump dmp2 all dcd 1000 traj.dcd


compute msd all msd com yes
variable twopoint equal c_msd[4]/6/(step*dt+1.0e-6)
fix 9 all vector 10 c_msd[4]
variable fit equal slope(f_9)/6/(10*dt)
thermo_style custom step temp pe c_msd[4] v_twopoint v_fit v_max_n

fix 1 all npt temp 1.25 ${temp} 0.1 iso 5.68 5.68 0.5 mtk yes tchain 5 pchain 5
fix 1 all npt temp 1.25 0.45 0.1 iso 5.68 5.68 0.5 mtk yes tchain 5 pchain 5
run 5000000 # 5000000  # Run for this many steps
Neighbor list info ...
  update every 1 steps, delay 10 steps, check yes
  max neighbors/atom: 2000, page size: 100000
  master list distance cutoff = 3.8
  ghost atom cutoff = 3.8
  binsize = 1.9, bins = 8 8 8
  4 neighbor lists, perpetual/occasional/extra = 1 3 0
  (1) pair lj/cut, perpetual
      attributes: half, newton on
      pair build: half/bin/atomonly/newton
      stencil: half/bin/3d
      bin: standard
  (2) compute orientorder/atom, occasional
      attributes: full, newton on
      pair build: full/bin/atomonly
      stencil: full/bin/3d
      bin: standard
  (3) compute coord/atom, occasional
      attributes: full, newton on
      pair build: full/bin/atomonly
      stencil: full/bin/3d
      bin: standard
  (4) compute cluster/atom, occasional
      attributes: full, newton on
      pair build: full/bin/atomonly
      stencil: full/bin/3d
      bin: standard
Per MPI rank memory allocation (min/avg/max) = 9.815 | 9.820 | 9.824 Mbytes
Step Temp PotEng c_msd[4] v_twopoint v_fit v_max_n 
   12000    1.2238628   -6.9568415 7.667728e-31 5.3248109e-33 8.3333333e+20            2 
   13000    1.2832571   -6.9904025    0.5045392 0.0032342255  0.041689237            3 
   14000    1.2440526   -7.0106189   0.95252703 0.0056698036  0.038772308            1 
   15000    1.2462006   -6.9734169    1.4432357 0.0080179757  0.038664876            2 
   16000    1.2606357   -6.9901309    1.9256559  0.010029458  0.039509478            3 
   17000    1.2586271    -6.979106    2.3731404  0.011633041  0.039326229            1 
   18000    1.2482255   -7.0011057     2.798141  0.012954356  0.038964969            2 
   19000    1.2666528   -6.9659316    3.3013237   0.01447949  0.038708551            2 
   20000    1.2525487   -6.9923222    3.7541862  0.015642442  0.038780205            1 
   21000    1.2649668   -7.0030808    4.2141932  0.016722988  0.038891801            1 
   22000    1.2712325   -6.9643668    4.6735706  0.017702918  0.038771925            1 
   23000    1.2530983   -6.9855913    5.1112852  0.018519149  0.038665278            2 
   24000    1.2739074   -6.9759567    5.6436058  0.019595853  0.038628827            1 
   25000    1.2431514   -6.9350548    6.1774599  0.020591533  0.038729096            2 
   26000    1.2567687   -6.9453307    6.6404859  0.021283608  0.038912132            1 
   27000    1.2473394   -6.9765446    7.0386671  0.021724281  0.038998083            1 
   28000    1.2635608   -7.0124365    7.5090537  0.022348374  0.038954073            1 
   29000    1.2283217    -6.944051      7.92621  0.022776465  0.038895827            2 
   30000    1.2235241    -6.975862    8.2489448  0.022913735  0.038678778            1 
   31000    1.2397328   -6.9806257     8.650358   0.02325365   0.03841963            1 
   32000    1.2745141   -7.0091102    9.0856449  0.023660533  0.038228384            2 
   33000    1.2323798   -7.0177355    9.5181952  0.024035846  0.038027754            1 
   34000    1.2316844   -6.9933239      9.90283  0.024271642  0.037856075            1 
   35000    1.2309075   -6.9467312    10.330287  0.024595922  0.037654392            2 
   36000    1.2802872   -7.0056401     10.71019  0.024792106   0.03748305            3 
   37000    1.2512244   -6.9750921    11.307379  0.025467069  0.037390052            1 
   38000    1.2249677   -6.9827109    11.784287  0.025842735  0.037356598            1 
   39000    1.2406238    -6.944898    12.255856  0.026187725  0.037336243            1 
   40000    1.2592188   -6.9804574    12.785855  0.026637198  0.037350153            2 
   41000    1.2509474   -6.9725271    13.323972  0.027081243  0.037405434            1 
   42000    1.2533288   -7.0189799    13.794293  0.027369629   0.03750976            1 
   43000    1.2586255     -6.95327    14.396818   0.02790081  0.037617987            2 
   44000    1.2516118   -6.9382679    14.814909  0.028058539  0.037727858            1 
   45000    1.2372958   -7.0339555    15.268897  0.028275735  0.037824711            1 
   46000    1.2312736   -7.0178601    15.687899  0.028420106  0.037874282            2 
   47000    1.2446302   -7.0013751     16.14749  0.028630301  0.037916304            2 
   48000    1.2361748   -6.9646901    16.621082  0.028856046  0.037954046            1 
   49000    1.2386546   -6.9960207    16.952882  0.028831431  0.037976013            1 
   50000    1.2146948    -7.010177    17.384388   0.02897398  0.037979088            1 
   51000    1.2569758   -7.0136534    18.007886  0.029424651  0.038021613            3 
   52000    1.2561508   -7.0409239    18.440428  0.029551968  0.038046756            2 
   53000    1.2609297   -6.9928869    18.796601  0.029554404  0.038075247            1 
   54000    1.2324221   -7.0212603    19.282207  0.029756492  0.038083026            1 
   55000     1.236222     -7.01474    19.667431  0.029799137  0.038090485            1 
   56000     1.237817   -6.9623741    20.073046  0.029870604  0.038085948            1 
   57000    1.2727821   -6.9978698     20.42303  0.029858231  0.038057105            2 
   58000     1.258831   -6.9922183    20.925388  0.030065212  0.038017224            1 
   59000      1.24115   -6.9763424    21.431737  0.030270815  0.037983932            1 
   60000    1.2537932    -6.974799    21.920959  0.030445776  0.037967935            1 
   61000    1.2088899   -7.0130275    22.467177  0.030692865  0.037974159       -1e+20 
   62000    1.2224457   -7.0416214    22.872938  0.030743196  0.037987648            2 
   63000    1.2546444   -6.9885588    23.531389  0.031126175  0.038011154            2 
   64000    1.2453638   -7.0032624    23.840315  0.031042077  0.038034097            1 
   65000     1.242785   -6.9870398    24.267151  0.031111732  0.038045058            1 
   66000    1.2452816   -6.9729305    24.864182  0.031394169   0.03805192            1 
   67000    1.2435962   -6.9511072    25.283815  0.031447531  0.038067909            1 
   68000     1.230945   -6.9881743     25.62362  0.031401494  0.038078694            2 
   69000    1.2223145   -6.9598773    26.359529  0.031835179  0.038096803            1 
   70000    1.2542745   -7.0096688    26.784388  0.031886176  0.038131321            1 
   71000    1.2240595   -6.9600692    27.275375  0.032013351  0.038167481            1 
   72000     1.270305   -6.9736148    27.653802  0.032006715  0.038190174            1 
   73000    1.2511876   -7.0030684    27.966845  0.031925622  0.038202997            1 
   74000    1.2365158   -6.9566817    28.313345  0.031884397  0.038198032            1 
   75000    1.2504889   -7.0302641    28.574607  0.031749563  0.038176817            3 
   76000    1.2486717    -7.034413    29.073173  0.031878478  0.038135753            1 
   77000    1.2613439    -7.001045    29.471064  0.031895091  0.038095609            2 
   78000    1.2591413   -6.9745441    29.772659  0.031808396  0.038044386            1 
   79000    1.2370292   -6.9941974    30.335672  0.031999654  0.038008168            3 
   80000     1.254532   -6.9609686    30.906006  0.032193757  0.037979979            1 
   81000    1.2476128   -6.9992972    31.309509  0.032211429  0.037967464            3 
   82000    1.2591615   -7.0272291    31.708087  0.032223665   0.03794332            2 
   83000    1.2372956   -7.0219959    32.236858  0.032366323  0.037923569            2 
   84000    1.2329108   -7.0132787    32.742737  0.032482874   0.03790899            1 
   85000    1.2473416   -7.0540254    33.175902  0.032525393  0.037902133            2 
   86000    1.2581786   -7.0486609    33.695197  0.032650385   0.03789476            2 
   87000    1.2231476   -7.0686369    33.948462  0.032517684  0.037884979            3 
   88000    1.2554224   -7.0177166     34.65296  0.032815303   0.03788249            2 
   89000    1.2590497   -7.0316008    35.296604  0.033049254  0.037896114            1 
   90000     1.259709   -7.0544141      35.6466  0.033006111  0.037910946            1 
   91000     1.243082   -6.9906415     36.22549  0.033173526  0.037920255            2 
   92000    1.2192893    -6.978962    36.853613  0.033381896   0.03793423            2 
   93000    1.2159547   -6.9801074    37.066271  0.033213504  0.037948098            2 
   94000    1.2321554   -7.0755195    37.334093    0.0330976  0.037954214            1 
   95000    1.2659942   -7.0125596    37.935346  0.033276619  0.037958745            1 
   96000    1.2250028   -7.0138978    38.356349  0.033295442  0.037960342            2 
   97000    1.2285823   -7.0320627    38.953808  0.033465471  0.037961214            1 
   98000    1.2664724   -7.0160805    39.234355  0.033362546  0.037966747            2 
   99000     1.217559   -6.9875281    39.811647  0.033511487  0.037967729            1 
  100000    1.2472239   -6.9933709     40.43342  0.033694517  0.037973671            1 
  101000    1.2092832   -7.0041026    40.854353  0.033708212   0.03799281            1 
  102000    1.2391457   -7.0016422    41.343302  0.033777207  0.038008533            2 
  103000    1.2481753   -6.9922432    41.959713  0.033947988  0.038023787            1 
  104000    1.2327345   -6.9700614    42.331962  0.033919841  0.038044315            1 
  105000    1.2324113    -7.004361    42.709521  0.033896445   0.03805084            1 
  106000    1.2493482   -7.0494692    42.949401  0.033765252  0.038052275            2 
  107000    1.2279949   -6.9926541    43.576779  0.033938301  0.038052126            1 
  108000    1.2385051   -7.0000983     43.79652  0.033793611   0.03805316            1 
  109000    1.2094418   -7.0229439    44.416896  0.033957872  0.038058427            3 
  110000    1.2331468   -7.0200564    45.077482  0.034149608  0.038065687            1 
  111000    1.2450249   -6.9975567    45.388471  0.034075428  0.038071783            3 
  112000    1.2331323   -7.0406082    45.885594  0.034141067   0.03807454            1 
  113000    1.2484793   -6.9974227    46.377258  0.034201517  0.038079433            2 
  114000    1.2283795   -7.0366658     46.69259   0.03413201  0.038082951            1 
  115000    1.2096007   -7.0159151    47.135351  0.034156052  0.038083923            1 
  116000    1.2726064   -7.0045045    47.741913  0.034297351  0.038086338            2 
  117000    1.2456324   -7.0150679    48.135377  0.034284456  0.038088636            2 
  118000    1.2488448   -7.0088516    48.394212  0.034176703  0.038089022            1 
  119000    1.2461563   -7.0226244    48.825081  0.034191233  0.038086505            3 
  120000    1.2292127   -6.9706246      49.2728  0.034217222  0.038082593            3 
  121000    1.2229105   -7.0203028    49.604343   0.03416277  0.038074383            3 
  122000     1.224331   -7.0363067    49.847499  0.034048838  0.038062382            1 
  123000    1.2223165   -6.9922076    50.623783  0.034297956  0.038049815            1 
  124000    1.2166461   -6.9806761    50.944706  0.034237033  0.038038349            2 
  125000    1.2468774   -7.0295369    51.472658  0.034315105  0.038030505            2 
  126000    1.2029971   -6.9992725    52.032956   0.03441333  0.038023621            2 
  127000    1.2059776   -6.9845205    52.372707  0.034365293  0.038017305            1 
  128000    1.2072517   -7.0007197    52.686198   0.03430091   0.03800667            1 
  129000    1.2155981   -7.0207701    53.252052   0.03440055  0.037997531            2 
  130000    1.2370682   -7.0149789    53.554538  0.034329832  0.037986876            1 
  131000    1.2618749   -6.9726504    54.061857  0.034390494  0.037977523            1 
  132000    1.2358106   -7.0826602    54.072343   0.03413658  0.037963805            3 
  133000    1.2327633   -6.9857625    54.758392  0.034309769  0.037945197            3 
  134000    1.2223173   -7.0382355    55.043551  0.034231064  0.037932237            1 
  135000    1.1974807   -7.0341172    55.894118  0.034502542  0.037919675            1 
  136000      1.22188   -6.9921434    56.323187  0.034511757  0.037905983            6 
  137000    1.2370009   -7.0192903    56.420894  0.034319278  0.037894084            1 
  138000    1.2256893   -7.0942888    56.876551  0.034345743  0.037877268            2 
  139000     1.239251   -7.0426767    57.051407  0.034203481  0.037859771            2 
  140000    1.2327174   -7.0226482    57.202289  0.034048982   0.03782933            2 
  141000    1.2346197   -6.9581727    57.681281  0.034090592  0.037798365            3 
  142000    1.2315931   -7.0337227    58.111687  0.034103102   0.03776937            1 
  143000    1.2300058   -6.9984632    58.755931  0.034240053  0.037743855            2 
  144000    1.2207319   -7.0760078    59.011207  0.034150004  0.037719543            2 
  145000    1.2375546   -7.0549901    59.448665  0.034165899  0.037696678            1 
  146000    1.2583256   -7.0184894    60.271536  0.034401561  0.037676505            2 
  147000    1.2289503   -6.9679905    60.542289  0.034321025  0.037659022            1 
  148000    1.2141336   -7.0453868    60.705753  0.034181167  0.037637346            2 
  149000    1.2300315   -7.0402318    61.148611  0.034199447  0.037614064            2 
  150000    1.2299098   -7.0496086    61.522442  0.034179134  0.037590666            3 
  151000    1.2661509   -7.0249714    62.031694  0.034233827  0.037565612       -1e+20 
  152000    1.2444123   -6.9810338    62.502739  0.034266853  0.037545012            1 
  153000     1.234081   -7.0189168    63.088418  0.034361883  0.037524341            1 
  154000    1.2128244   -7.0169536    63.489018  0.034355529    0.0375001            4 
  155000    1.2191241   -7.0145723    63.327921  0.034047269  0.037474091            2 
  156000    1.1957229   -7.0615276    63.930141  0.034150716  0.037447302            1 
  157000    1.2176268   -6.9959864    64.570828  0.034273263  0.037421757            2 
  158000    1.2498153   -7.0141566    65.028272  0.034297612  0.037397572            2 
  159000    1.2147978   -6.9826243    65.465813  0.034311222  0.037374732            1 
  160000    1.2329036   -7.0142377    66.078647  0.034415962  0.037353278            2 
  161000    1.2424117   -7.0356172    66.288707  0.034310925  0.037333091            2 
  162000    1.2404591   -7.0484127    66.702999  0.034312242  0.037310671            2 
  163000    1.2354838   -7.0246599    67.142731  0.034326549  0.037286805            3 
  164000    1.2139719    -7.014877    67.347069  0.034221072  0.037265428            1 
  165000    1.2002012   -7.0082516    67.558499  0.034120454  0.037237071            1 
  166000    1.2231873   -7.0068048    68.548207  0.034411751  0.037213544            1 
  167000    1.2179956   -6.9791502    68.742015  0.034302403  0.037192987            2 
  168000    1.2269937   -7.0292097    69.134558  0.034292935  0.037174222            2 
  169000    1.2216898    -6.992302    69.695915  0.034366822  0.037152622            1 
  170000    1.2202957   -7.0570039    69.904109   0.03426672  0.037131587            1 
  171000    1.2478081   -7.0200701    70.555869  0.034383952  0.037113123            1 
  172000    1.2228568   -7.0395615    70.799586  0.034302125  0.037094698            1 
  173000    1.2348213   -7.0470234    70.982537  0.034191973  0.037074229            1 
  174000    1.2433274   -7.0626352     71.14628  0.034073889  0.037051928            1 
  175000     1.207465   -7.0483874    71.659844  0.034123735  0.037026746            2 
  176000    1.2236506   -7.0348538    72.019045  0.034099926  0.037001594            2 
  177000    1.2094754   -7.0449021    72.483208  0.034125804  0.036976072            2 
  178000     1.242978   -7.0616199    72.736576  0.034052704  0.036946885            2 
  179000    1.2141875   -7.0024809    73.040781  0.034004088  0.036918038            2 
  180000    1.2257769   -7.0619471    73.506304  0.034030696  0.036888911            2 
  181000    1.2256243   -7.0454457    73.932787  0.034039036  0.036861994            1 
  182000    1.2542035   -7.0065666    74.301783  0.034020963  0.036835881            4 
  183000     1.215237   -7.0292398    74.891965  0.034103809  0.036809654            1 
  184000    1.2407968   -7.0265441    75.200125  0.034058028   0.03678413            1 
  185000    1.2485059   -7.0633512    75.646193  0.034074862  0.036758551            1 
  186000     1.203589   -7.0389709    75.746767  0.033936723  0.036731517            1 
  187000    1.1889648   -6.9984819    76.330718  0.034015471  0.036699679            3 
  188000    1.2224759   -7.0545324    76.392294  0.033861832  0.036666911            1 
  189000    1.2277445   -7.0899748    76.495317  0.033728094  0.036633512            1 
  190000    1.2134192   -7.0415613     77.13562  0.033831412  0.036601201            1 
  191000    1.2199237    -7.022908    77.491345  0.033809487   0.03657029            2 
  192000    1.1933482   -7.0627991    77.609542  0.033684697  0.036535814            2 
  193000    1.2228989   -7.0218695    78.590294  0.033933633  0.036506209            2 
  194000    1.2046255    -7.032973    78.703564  0.033807373  0.036478147            3 
  195000    1.2153309   -7.0409292    79.260358  0.033871948  0.036451521            1 
  196000    1.2629712   -7.0408642    79.853506  0.033951321  0.036428739            2 
  197000    1.2405409   -7.0374916    80.113349  0.033888895  0.036404259            3 
  198000    1.2264665   -7.0981102    80.658746  0.033947284  0.036381884            3 
  199000    1.2087867   -7.0785362    81.236881  0.034018794  0.036360194            1 
  200000    1.2290999   -7.0332266    81.854577  0.034106074  0.036339874            1 
  201000     1.239135   -7.0358135    82.425557  0.034173116    0.0363219            1 
  202000    1.1855595   -7.0684297    82.723404  0.034126817  0.036305438            1 
  203000     1.154455   -7.0584787    83.257787  0.034178073  0.036290379            1 
  204000     1.191841    -7.008888     83.72585  0.034201736  0.036275443            1 
  205000      1.21455   -7.0638192    83.846642  0.034084001   0.03626117            1 
  206000    1.2316011   -7.0667068    84.635269  0.034237568  0.036247107            2 
  207000     1.203271   -7.0484917    84.808545  0.034141926  0.036231416            1 
  208000    1.2060081     -7.02653    85.277659  0.034165729  0.036217245            2 
  209000    1.1983608     -7.00778    85.751993  0.034191385   0.03620355            2 
  210000    1.2332003   -7.0377168     86.16132     0.034191  0.036189656            2 
  211000     1.216138   -7.0273587    86.734798   0.03425545  0.036176944            3 
  212000    1.2040712   -7.0256587    86.810275  0.034123536  0.036162639            1 
  213000    1.2261918   -7.0691986    87.183893  0.034109504  0.036147402            1 
  214000     1.217124   -7.0380528    87.447132  0.034052622  0.036129342            2 
  215000    1.2245665   -7.0407893    87.689998  0.033988371  0.036109884            1 
  216000    1.2275392   -7.0754914    88.165039   0.03401429  0.036091016            3 
  217000    1.1938692   -7.0495976    88.766195  0.034088401  0.036072748            2 
  218000    1.2345258   -7.0050894    89.083639  0.034053379  0.036055273            1 
  219000    1.2479223   -7.0345589    89.718145  0.034139324  0.036039071            1 
  220000      1.22395    -7.075684    89.955282   0.03407397  0.036024214            1 
  221000    1.2091428   -7.0315625    90.419215  0.034094726  0.036009907            1 
  222000    1.2012821   -7.0314433    90.827131  0.034094268  0.035997242            2 
  223000    1.2237502   -7.0481019    91.328049  0.034128568  0.035983693            1 
  224000    1.2057932   -7.0578765    91.626709  0.034087317  0.035970352            1 
  225000    1.2069102   -7.0926424    91.839646  0.034014684  0.035958107            1 
  226000    1.2203709   -7.0537912    92.575883   0.03413565  0.035946936            1 
  227000    1.2124351   -7.0311674    93.205056  0.034216247  0.035936553            2 
  228000    1.2258367   -7.0779482    93.602363   0.03421139   0.03592676            1 
  229000    1.2260012   -7.0401925    94.314646  0.034321196  0.035917716            2 
  230000    1.2125592   -7.0832351    94.327716  0.034176709  0.035909271            4 
  231000    1.2237652   -7.0740628    94.676475  0.034154572  0.035899995            1 
  232000    1.2133687   -7.0447162     95.58434  0.034333455  0.035891434            1 
  233000    1.2081684   -7.1275107    95.277006  0.034076182  0.035882684            1 
  234000    1.2129796   -7.0384906    96.132146  0.034235095  0.035873473            2 
  235000    1.2105698   -7.0487128    96.684814  0.034285395  0.035864774            1 
  236000    1.2146644   -7.0631689    96.920929  0.034223492  0.035857375            1 
  237000    1.1938759   -7.0912159    97.300724  0.034212632  0.035847424            1 
  238000    1.2111991   -7.0794801    97.891085   0.03427559  0.035837786            1 
  239000    1.2165791   -7.0777057    98.421711  0.034317193  0.035829453            3 
  240000    1.2179025   -7.0698042    98.439701  0.034180452  0.035819978            1 
  241000    1.2117105   -7.0897613    99.170482  0.034291315  0.035810696            2 
  242000     1.208387   -7.0792485    99.492524  0.034260511  0.035801735            1 
  243000    1.2080226    -7.013717    100.33718  0.034409183  0.035795419            1 
  244000    1.1852622   -7.0876395    100.69647  0.034390869  0.035791243            2 
  245000    1.1991381   -6.9991383    101.44018  0.034503463  0.035787155            1 
  246000    1.2245559   -7.0894523    101.28987  0.034312286  0.035783225            2 
  247000    1.2086748    -7.058418    101.89141  0.034376319  0.035779762            1 
  248000    1.2308337   -7.0223278    102.28987  0.034371595  0.035774039            1 
  249000    1.2208206   -7.0109363    102.42254   0.03427796  0.035767554            1 
  250000    1.2166052   -7.0272543    102.83055  0.034276849  0.035758997            1 
  251000    1.2264192   -7.0630013    103.07088  0.034220081  0.035750591            1 
  252000    1.2132258   -7.0886164    103.64903  0.034275473  0.035740691            1 
  253000     1.214345    -7.091219    104.09447  0.034286715  0.035733948            1 
  254000    1.2234671   -7.1062458    104.41474  0.034256804  0.035725032            1 
  255000    1.2121312   -7.0579023    104.93937  0.034293912  0.035717599            2 
  256000    1.2275371   -7.0632452    105.88615  0.034468149  0.035712248            1 
  257000    1.2141984   -7.0467977    106.20836   0.03443851  0.035709358            3 
  258000    1.2466233   -7.0902465    106.14009  0.034282975   0.03570574            1 
  259000    1.2217224   -7.0613926    107.06884  0.034449433  0.035701572            2 
  260000    1.2016804   -7.0607765    107.78401  0.034546157  0.035697097            1 
  261000     1.228366   -7.1015242    108.25561   0.03456437  0.035695428            1 
  262000    1.1993636   -7.0750198    108.88208  0.034631704  0.035695891            1 
  263000    1.1878657    -7.014514    109.13155  0.034579072  0.035694829            1 
  264000    1.2360439   -7.1214173     108.9791  0.034399969  0.035691606            1 
  265000    1.2278777     -7.06141    109.24798  0.034354712  0.035686696            1 
  266000    1.2132191   -7.0727314    109.44302  0.034286661  0.035680172            1 
  267000    1.2398069   -7.0722903    110.13405  0.034373923  0.035674667            2 
  268000    1.1973639   -7.0999321     110.4292  0.034337437  0.035668694            1 
  269000    1.2044452   -7.0724203    111.24661  0.034463013  0.035664476            1 
  270000    1.1885812   -7.0834482    111.22255  0.034327946  0.035659239            1 
  271000    1.1903046   -7.0800943    111.28112  0.034219287  0.035652893            2 
  272000    1.1957536   -7.0810769    112.39984  0.034436225  0.035647258            4 
  273000    1.2159122    -7.095591    112.94399  0.034476188   0.03564437            1 
  274000    1.1899279   -7.0706874    113.68861  0.034576828   0.03564282            2 
  275000    1.2101656    -7.091371    113.67448  0.034446811  0.035642065            1 
  276000    1.2181956     -7.06752    114.31458  0.034515273  0.035640675            2 
  277000     1.236622   -7.0525135    114.91692  0.034571878  0.035641348            3 
  278000    1.1795642   -7.0791625    115.06429  0.034491694  0.035639774            1 
  279000    1.2093306   -7.0775132    115.23256  0.034418327  0.035636396            1 
  280000    1.2244175   -7.0876302    116.06186  0.034542222   0.03563287            2 
  281000    1.1980727   -7.0972181    115.90164  0.034371779  0.035628402            2 
  282000    1.2202344   -7.0685781     116.0419  0.034291341  0.035622679            4 
  283000     1.188828   -7.0433327    116.74689  0.034377766    0.0356164            1 
  284000    1.2095489   -7.1028442    116.73242  0.034252471   0.03560994            1 
  285000    1.1904872   -7.0763286    117.93279  0.034483272  0.035603653            2 
  286000    1.2026377    -7.039849    118.00077  0.034382508  0.035597522            1 
  287000    1.2229398   -7.1278468    117.64781  0.034160222  0.035590051            4 
  288000    1.1853925   -7.0962926    118.28201  0.034225118  0.035582428            2 
  289000    1.1959453   -7.0933552    118.56373  0.034187926  0.035573948            1 
  290000    1.2022803   -7.0748603    119.40508  0.034311806  0.035566141       -1e+20 
  291000    1.1833838   -7.0395096    119.62611  0.034257191  0.035556923            4 
  292000     1.210355   -7.0562671    119.89595  0.034216879  0.035548065            1 
  293000    1.2309921   -7.0946709    119.64658  0.034029175  0.035538514            2 
  294000    1.1893151   -7.0920284     120.6302  0.034192235  0.035528689            2 
  295000     1.203838   -7.1143403    120.43492  0.034021165  0.035517145            2 
  296000    1.1963053   -7.0424104    121.35592  0.034165517  0.035506191            2 
  297000    1.1776328    -7.129695    121.53363  0.034100345  0.035495745            2 
  298000    1.2048186    -7.093509    121.55956  0.033993165  0.035485288            2 
  299000    1.1819155   -7.0545202    122.82215  0.034231368  0.035475109            2 
  300000    1.1861197   -7.1008622    122.45629  0.034015636  0.035464722            1 
  301000    1.2187267   -7.0834324    123.14611  0.034093606  0.035453061            1 
  302000    1.2254405   -7.0459503    123.51825  0.034083403  0.035441568            1 
  303000    1.2487925   -7.0928386    123.32009  0.033916416  0.035430258            1 
  304000    1.2081755   -7.0808927    123.71676  0.033913585  0.035416862            1 
  305000    1.1979142   -7.0840533    124.17393  0.033927302   0.03540366            1 
  306000     1.239689   -7.0737312    124.57112  0.033924598  0.035391281            1 
  307000    1.2197905   -7.0707073    125.26085  0.034001317  0.035380316            1 
  308000    1.2244663   -7.0981615    125.63957   0.03399339  0.035368393            1 
  309000    1.1806269   -7.0662825    126.41032  0.034091242  0.035356117            2 
  310000    1.2040244   -7.0534895    126.24029  0.033935561  0.035344826            1 
  311000    1.1835412   -7.1192445     126.7069  0.033951472  0.035333145            2 
  312000     1.188955   -7.0822933    127.46029  0.034043882  0.035321037            1 
  313000    1.1978254   -7.0782353    128.00339  0.034079709  0.035309718            1 
  314000    1.2073891    -7.075022     127.9958  0.033969162  0.035299006            2 
  315000    1.2015727   -7.0869125    128.36054  0.033957816  0.035288257            2 
  316000    1.1795445   -7.0816461    128.71894  0.033944867  0.035277795            2 
  317000    1.1791424   -7.1189248    128.88225  0.033880719  0.035266428            1 
  318000    1.1876866    -7.062576    129.48141  0.033931188  0.035254133            1 
  319000    1.2120681   -7.0618478    130.08446  0.033982355  0.035243752            1 
  320000    1.2098785   -7.0322513    130.49347  0.033982674    0.0352334            1 
  321000    1.1853555   -7.1202859     130.6974   0.03392975  0.035221784            4 
  322000    1.2013985   -7.1077852    131.18915  0.033951642  0.035211642            2 
  323000     1.204698   -7.0650129    131.75078  0.033991428  0.035201809            2 
  324000    1.2011237   -7.1125706    132.08395   0.03397221  0.035191816            2 
  325000    1.1833701   -7.1383208    131.97404  0.033839497  0.035182612            1 
  326000     1.201285   -7.1068994    133.00464  0.033999141  0.035173488            1 
  327000    1.2236324   -7.0935963    133.19453   0.03394356   0.03516323            2 
  328000    1.1927087   -7.0725163    133.63769  0.033952664  0.035153653            1 
  329000    1.1723555   -7.0800751    134.19308  0.033990143   0.03514311            1 
  330000      1.19541   -7.1165474    133.94836  0.033825343  0.035132405            1 
  331000     1.198261   -7.1027003    134.61013  0.033889761  0.035121403            2 
  332000     1.205808   -7.1008295    135.36776  0.033977851  0.035111974            1 
  333000    1.1904412    -7.067462    135.40761  0.033885788  0.035101487            4 
  334000    1.1896136   -7.0901764    136.07335  0.033950437  0.035091682            1 
  335000    1.1681672   -7.0951165    135.99546  0.033829716   0.03508272            3 
  336000     1.208744    -7.073899    136.01491  0.033733856  0.035072538            2 
  337000    1.2095845    -7.105972    136.89553  0.033851516  0.035063292            1 
  338000    1.1779861    -7.080251    137.57989  0.033920092  0.035054652            2 
  339000    1.2072547   -7.1328933    137.72504  0.033855713  0.035044251            3 
  340000    1.2283245   -7.1202287    137.95043   0.03381138  0.035034322            1 
  341000    1.1624487   -7.1379933    138.35038  0.033809966   0.03502455            1 
  342000    1.2080099   -7.0750019    139.23753  0.033927274  0.035015332            1 
  343000    1.1938967   -7.1036143    139.62188  0.033921739  0.035006147            1 
  344000    1.1987604   -7.0996294    139.85616  0.033879884  0.034997101            1 
  345000    1.1705137   -7.1050638    140.25614  0.033878294  0.034987502            2 
  346000    1.1591761   -7.0764424    140.37139  0.033808137  0.034976968            2 
  347000    1.1871853   -7.1394399     140.8341   0.03382183  0.034967541            3 
  348000     1.193604   -7.0869156     141.3983  0.033859747  0.034957566            2 
  349000    1.1831517   -7.1483567    141.44164  0.033773075  0.034947615            4 
  350000    1.2143452   -7.1097659    141.95134  0.033797939  0.034937423            2 
  351000    1.1982171   -7.0791757    142.42797  0.033814809  0.034927859            1 
  352000     1.193919    -7.110872     142.9171   0.03383454  0.034919087            3 
  353000    1.2002353   -7.0768388    143.53316  0.033884126  0.034909344            1 
  354000    1.1882032   -7.0933608    142.84082  0.033625427  0.034898961            1 
  355000    1.2055843   -7.1383646    143.48848  0.033682743  0.034888292            1 
  356000    1.2066722   -7.0669147     144.5583  0.033838554  0.034878368            2 
  357000    1.1866352   -7.0824108    145.65457  0.033999666  0.034869519            4 
  358000     1.208137   -7.0720635     145.7397  0.033924511  0.034861359            1 
  359000    1.2125847   -7.0813853    146.00394  0.033891351  0.034853667            2 
  360000    1.1746074   -7.1253203    146.66586  0.033950432  0.034846846            2 
  361000    1.1838919   -7.0906528    146.25919   0.03376251  0.034839257            2 
  362000    1.1899597    -7.082852    147.23427  0.033893709  0.034831021       -1e+20 
  363000     1.177618   -7.1159465    147.12389  0.033774998  0.034823153            1 
  364000    1.1944328   -7.0861901    148.27434   0.03394559  0.034815494            1 
  365000    1.1858984   -7.0514123    148.73865  0.033958596  0.034809448            2 
  366000    1.1916218   -7.0615396    149.26165  0.033984894  0.034803159            2 
  367000    1.1825013   -7.0499907    149.68474  0.033988361  0.034796549            1 
  368000    1.1838668    -7.072066    150.13798  0.033998636  0.034790036            2 
  369000    1.1775313   -7.0785317    150.32311  0.033948308  0.034785302            2 
  370000    1.2121503   -7.0659319    150.68246   0.03393749  0.034779244            2 
  371000    1.2070766   -7.1055655    150.41942  0.033786931  0.034772697            1 
  372000    1.1824752   -7.0917878    151.18341  0.033867251  0.034765448            3 
  373000    1.1876816   -7.1190498    151.24818  0.033790924  0.034757189            1 
  374000    1.1950373   -7.1486533    151.04159  0.033654544  0.034748882            2 
  375000    1.1869816   -7.0874154    152.42312  0.033871805  0.034740581            1 
  376000    1.2003126   -7.0767427     151.8629  0.033657557  0.034732112            1 
  377000    1.1503472   -7.0855049    152.72565  0.033758986  0.034722165            1 
  378000    1.2187181    -7.075895    153.00363  0.033730959  0.034713142            2 
  379000    1.1986287   -7.1296126    153.29504  0.033706033  0.034704537       -1e+20 
  380000     1.188762   -7.1243938    153.43535  0.033648103  0.034694618            1 
  381000    1.1835527   -7.1066119    153.75567   0.03362985  0.034683962            1 
  382000    1.2070844   -7.1308446    153.92051  0.033577773  0.034672578            2 
  383000    1.1855148   -7.1224026    153.90709  0.033487183  0.034660498            1 
  384000    1.1774578   -7.0962864    154.85768  0.033606267  0.034649782            3 
  385000    1.2151152   -7.1006958    155.12825  0.033577544  0.034639047            2 
  386000    1.1937862   -7.1452258    155.37762  0.033544392  0.034627888            1 
  387000    1.1601694   -7.1156162    156.28808  0.033653765  0.034617364            4 
  388000    1.2032809   -7.1298612    155.91869  0.033487692  0.034607578            2 
  389000    1.1740721   -7.1247584    156.76788  0.033583521  0.034598315            1 
  390000    1.1876415    -7.101745    157.30128  0.033611385  0.034588414            2 
  391000    1.1886839   -7.1014093    158.37582  0.033754436  0.034579515            1 
  392000    1.1814101   -7.1320172    158.08731  0.033606996  0.034570442            1 
  393000    1.1708187   -7.1046863    158.63753  0.033638153  0.034561972            1 
  394000    1.1922488   -7.1350123    159.03365  0.033636559  0.034553285            3 
  395000    1.1944166   -7.1193321    159.26293  0.033599773  0.034543475            1 
  396000    1.1460964   -7.0971294    159.63666  0.033593573  0.034533789            2 
  397000    1.1571806    -7.120231    159.76149  0.033535157  0.034524312            1 
  398000    1.1752004   -7.1240882    160.43859   0.03359267  0.034515168            1 
  399000    1.2063829   -7.0885537    161.24919  0.033677775    0.0345062            1 
  400000    1.1793935   -7.1478995    161.42727  0.033630681  0.034497877            2 
  401000    1.1923647   -7.1488737     161.5217  0.033566438  0.034489121            1 
  402000    1.1649689   -7.0763609      161.734  0.033526948  0.034479795            1 
  403000    1.1871045   -7.1260246    162.52702  0.033607739  0.034471278            1 
  404000    1.1889363   -7.1490986    162.31044  0.033479876  0.034462936            1 
  405000    1.1732318   -7.1226723    163.22604  0.033585605  0.034453992            1 
  406000    1.1858623   -7.1447337    162.77619  0.033410548  0.034444022            3 
  407000    1.1815056   -7.1158861    163.22406  0.033420161  0.034434418            1 
  408000    1.2029251   -7.1692366    162.98532  0.033289485  0.034425008            2 
  409000    1.1944728    -7.163201    163.86378  0.033387079  0.034414855            1 
  410000    1.2175002   -7.1048268    164.65089  0.033465628  0.034404357            1 
  411000    1.1842526   -7.1117475    164.58355   0.03337055  0.034394003            2 
  412000    1.1744391   -7.1477083    165.07918  0.033389802  0.034383476            1 
  413000    1.1595877   -7.1521559    165.16022  0.033325307  0.034372301            2 
  414000    1.1816806   -7.1120923    166.01199  0.033416262  0.034361686            1 
  415000    1.2013662    -7.106231    166.18258  0.033369997  0.034352072            1 
  416000    1.1850983   -7.1200477     166.6601  0.033385436  0.034342347            1 
  417000    1.1644506    -7.113858    167.35582  0.033444409  0.034332401            1 
  418000     1.196971    -7.105658    167.56399  0.033405899  0.034322804            3 
  419000    1.1951049   -7.1414118     167.3639  0.033286377  0.034312132            2 
  420000    1.2031081   -7.1291406    168.06222  0.033345678  0.034301307            2 
  421000    1.1886975   -7.1326446    168.27398  0.033308388  0.034291079            2 
  422000    1.1945334   -7.0864259    169.23471  0.033419177  0.034281512            1 
  423000     1.187281   -7.0860605    169.51715  0.033395814  0.034271918            1 
  424000    1.2078763   -7.1171862      169.612  0.033335692  0.034262537            1 
  425000     1.181619   -7.0991671    170.48251  0.033427944  0.034253709            3 
  426000    1.1900742   -7.1259884    170.05855  0.033266539  0.034244822            3 
  427000    1.1907625   -7.1264919    171.76487  0.033521638  0.034236471            1 
  428000    1.2056142    -7.089976    171.54956  0.033401394  0.034228556            1 
  429000    1.2059959   -7.1139371    172.08191  0.033426944   0.03422047            4 
  430000    1.2247267   -7.0915121    172.74225   0.03347718  0.034212519            2 
  431000    1.1942444    -7.132869    172.86077  0.033422422  0.034204656            2 
  432000    1.1784808   -7.1066989    173.15258  0.033401347  0.034196959            1 
  433000    1.1914592   -7.1091456    173.21112  0.033335474   0.03418952            2 
  434000    1.1781689   -7.1086085    174.74506  0.033553199  0.034181196            2 
  435000    1.1759242   -7.1362971    174.29525  0.033389895  0.034174042            2 
  436000    1.1764655   -7.1350454    174.68655  0.033388102  0.034166507            1 
  437000    1.1544069   -7.1316028    175.19592  0.033408834  0.034159189            1 
  438000    1.1943135   -7.1428379    175.75168  0.033438295  0.034151574            2 
  439000    1.1615425   -7.1492441    175.89952  0.033390191  0.034143943            2 
  440000    1.1997826   -7.1009619    176.23507  0.033377855   0.03413553            2 
  441000    1.1922674   -7.1143815    176.72199  0.033394178  0.034128185            1 
  442000    1.2011159   -7.1292265    177.59714  0.033483623  0.034121255            1 
  443000    1.1972135   -7.1625739    177.60334  0.033409206   0.03411367            1 
  444000    1.1513715   -7.1312526    178.07487  0.033422461  0.034106873            1 
  445000    1.1978719   -7.1587913    177.94238  0.033322543  0.034099664            3 
  446000    1.1823734   -7.1532967    178.28588  0.033312011  0.034092279            1 
  447000    1.1732356   -7.1203196    179.10042  0.033389341  0.034084624            2 
  448000    1.1877093   -7.1330001     179.7421   0.03343417  0.034076937            1 
  449000    1.1650377   -7.1318553    179.38956  0.033294277  0.034069144            1 
  450000    1.1795061   -7.1298676    179.79627  0.033295606  0.034061617            3 
  451000    1.1957523   -7.1202962    179.79399  0.033221358  0.034053608            1 
  452000    1.1914044    -7.144741    180.81345  0.033335814  0.034046261            2 
  453000    1.1736021   -7.1202473    180.64492  0.033231221  0.034038029            2 
  454000    1.2011327   -7.1698769    181.22044  0.033263663  0.034030514            2 
  455000     1.170619   -7.1345739    181.73567  0.033284922  0.034023239            1 
  456000    1.1750664   -7.1013731     182.5065  0.033352796  0.034016028            1 
  457000    1.1805604   -7.1585118    182.45983  0.033271304  0.034009334            3 
  458000    1.1699718   -7.1750406    183.52478  0.033392427   0.03400307            4 
  459000    1.1696655   -7.1238906    183.85654  0.033379908  0.033996273            4 
  460000    1.1663422   -7.1089783    184.24851  0.033378354  0.033990471            1 
  461000    1.1954375   -7.1627139     184.3396  0.033322416  0.033984593            1 
  462000    1.1792191   -7.1142265    184.76734  0.033327441  0.033978069            1 
  463000    1.2092515   -7.1443736    185.27947  0.033347637  0.033971768            1 
  464000    1.1825947   -7.1238661    185.54198  0.033322913  0.033965356            4 
  465000    1.1770804   -7.1470346    186.07098  0.033346053  0.033958492            2 
  466000    1.1852629   -7.1118287     186.5845  0.033366327  0.033951457            1 
  467000    1.1761771   -7.1666819    186.36047  0.033254902  0.033944966            2 
  468000    1.1839621   -7.1244818    186.56211  0.033219749  0.033938014            1 
  469000    1.1740094   -7.1617379    187.41388  0.033300263   0.03393113            1 
  470000    1.1720972   -7.0951884     187.0867    0.0331714  0.033923411            2 
  471000    1.1619734   -7.1005843    188.56281  0.033362139  0.033916056            2 
  472000    1.1834423   -7.1111186    188.26174  0.033238301  0.033909047            3 
  473000     1.182679   -7.1400174    189.53115  0.033391675  0.033902228            3 
  474000    1.1914853   -7.1414972    189.37637  0.033294018  0.033895283            1 
  475000    1.2050444   -7.1374626    188.90175  0.033140657  0.033888241            2 
  476000    1.1842646   -7.1133097    189.12495  0.033110111  0.033880929            2 
  477000    1.1940865   -7.1788267    189.56425  0.033117444  0.033873283            1 
  478000    1.1809061   -7.1944974    190.39701  0.033193342    0.0338657            2 
  479000    1.1961793   -7.1523052    190.74316  0.033184266   0.03385825            1 
  480000    1.1775206   -7.1652527    191.41315   0.03323145  0.033850609            3 
  481000    1.1808356   -7.1107927    192.14826   0.03328972  0.033843821            2 
  482000    1.1792998   -7.1602565    191.77029  0.033155306   0.03383627            1 
  483000    1.1471197   -7.1691513    192.01485  0.033128856  0.033828219            2 
  484000    1.1638951   -7.1911957    193.16074  0.033257703  0.033820602            1 
  485000    1.1608679   -7.1266583    193.22742  0.033200588  0.033813118            2 
  486000    1.1862559   -7.1823645    193.04755  0.033101432  0.033805652            2 
  487000    1.1625145   -7.1829841     193.1581  0.033052379   0.03379808            2 
  488000    1.1844771   -7.1508131    193.83207  0.033099739  0.033790555            1 
  489000    1.1760938   -7.1323443    194.33096  0.033117068  0.033782842            1 
  490000     1.168602    -7.154649    194.81438  0.033131698  0.033775554            2 
  491000    1.1640601   -7.1359782    195.04889  0.033104021  0.033768104            2 
  492000    1.1936009   -7.1075515    195.78833  0.033161979  0.033761051            3 
  493000    1.1749065   -7.1659672    196.21373  0.033166621  0.033754178            2 
  494000    1.1924695   -7.1563526    196.50505  0.033148625  0.033747279            4 
  495000    1.1832012   -7.1279986    196.89967  0.033148092  0.033740558            1 
  496000    1.1963382   -7.1280016    198.07308  0.033278408  0.033733698            3 
  497000    1.1501958   -7.1106856    198.51288   0.03328519  0.033727392            1 
  498000    1.1811111   -7.1821138    197.94177  0.033122787  0.033721326            1 
  499000     1.203819   -7.1438319    199.00749  0.033234383  0.033715281            1 
  500000    1.1567589    -7.145755    199.69861  0.033283101    0.0337094            2 
  501000    1.1691894   -7.1576184    199.77769  0.033229821  0.033703742            2 
  502000    1.1754401   -7.0746273     201.1606  0.033393193  0.033698475            2 
  503000    1.1707095   -7.1631044    200.12629  0.033155449  0.033692841            2 
  504000    1.1549178   -7.1153606     200.8497  0.033209276  0.033686558            2 
  505000    1.1675755   -7.1888791    200.20234   0.03303669  0.033680241            2 
  506000     1.161544   -7.1193729     202.1418  0.033290811  0.033673895            2 
  507000    1.1813348   -7.1732923    201.79499  0.033168145  0.033667678            2 
  508000    1.1766128   -7.1475883    202.15087  0.033161231  0.033661615            2 
  509000    1.1715008   -7.1280777    202.89082  0.033217227  0.033655596            2 
  510000    1.1690422   -7.1344056    202.15307  0.033031548   0.03364998            3 
  511000    1.2040642   -7.1009605    203.20064  0.033137743  0.033644142            3 
  512000    1.1935716   -7.1134714    203.70321  0.033154819   0.03363799            1 
  513000    1.1566781    -7.152411    203.92425  0.033126097     0.033632            3 
  514000    1.1707257    -7.154937    204.28134  0.033119542  0.033625808            1 
  515000    1.1996358   -7.1644605    204.88161  0.033152364  0.033619641            1 
  516000    1.1734882   -7.1673714    204.61726  0.033045424  0.033613229            1 
  517000     1.180638   -7.1722031    205.81455  0.033174492  0.033607163            2 
  518000    1.1649266    -7.096377     206.4897  0.033219063  0.033601202            1 
  519000    1.1490883   -7.1606072    205.59603  0.033011566   0.03359485            1 
  520000     1.181115   -7.1369314    206.37154  0.033072362  0.033588016            2 
  521000    1.1516456    -7.191729    206.17671  0.032977721  0.033580571            2 
  522000    1.1539677    -7.106951    206.76532  0.033008512  0.033574036            1 
  523000    1.1716668    -7.159423    207.21728  0.033017412  0.033566957            3 
  524000    1.1645486   -7.1613231    206.38098  0.032821403  0.033558996            2 
  525000    1.1776994   -7.1299186    207.62915  0.032957007  0.033551293            1 
  526000     1.172016   -7.1784821    207.58804   0.03288784  0.033543894            1 
  527000    1.1442231   -7.1874032    207.88206  0.032871926  0.033535766            1 
  528000    1.1920271   -7.1678822    207.48538  0.032747062  0.033527209            1 
  529000    1.1667596   -7.1724459    208.60175   0.03286102  0.033518879            2 
  530000    1.1526448   -7.1280499    208.21956  0.032738924  0.033510136            1 
  531000    1.1865901   -7.1981612    208.14265  0.032665199  0.033501236            5 
  532000    1.1603047   -7.1955417    209.36873  0.032795854  0.033492639            4 
  533000    1.1822059   -7.1150662    209.97455  0.032829042  0.033483503            1 
  534000    1.1637553   -7.1491081    209.77628  0.032736622  0.033474282            1 
  535000    1.1507145   -7.1496204    210.14192  0.032732386  0.033465237            1 
  536000    1.1519555   -7.1848852    210.02381  0.032652955  0.033455428            2 
  537000    1.1585631   -7.1718717    210.40425  0.032651188  0.033445469            2 
  538000    1.1753295   -7.1312728    210.51314  0.032607364  0.033436204            2 
  539000    1.1711459   -7.1778348    210.36873   0.03252454  0.033426348            1 
  540000    1.1575177   -7.1662992    210.96308  0.032556031  0.033416249            3 
  541000    1.1622186   -7.1704357    211.44479  0.032570054  0.033406226            1 
  542000    1.1692097   -7.1562986    211.64156  0.032540215  0.033395759            1 
  543000    1.1685403   -7.1771645    212.63599  0.032632903   0.03338505            2 
  544000    1.1889559   -7.1878667     211.8131   0.03244686  0.033374142            1 
  545000    1.1834276   -7.1297073    213.00406  0.032569428  0.033363324            1 
  546000    1.1742614   -7.1336906    213.11316  0.032526428  0.033353446       -1e+20 
  547000    1.1762707    -7.151145    214.07223  0.032613076  0.033343086            1 
  548000    1.1398097   -7.1639628    213.69466  0.032496146   0.03333316            1 
  549000    1.1745191   -7.1315834    214.46814  0.032554362   0.03332397            3 
  550000    1.1479867   -7.1164139    215.52265  0.032654948  0.033315001            1 
  551000    1.1649776   -7.1556155    215.60802  0.032608594   0.03330542            1 
  552000    1.1600311   -7.1401213    215.14059  0.032478954  0.033295838            2 
  553000    1.1574055   -7.1430263    216.35603   0.03260338  0.033286106            1 
  554000    1.1756739   -7.1951991    215.70571  0.032446708  0.033276558            2 
  555000    1.1704724   -7.1236741    217.47574  0.032654015  0.033267374            1 
  556000    1.1634811   -7.1720942     216.7159    0.0324814  0.033258016            1 
  557000    1.1741951   -7.1708864    216.68057  0.032417799  0.033248006            2 
  558000    1.1499504    -7.176304    216.59612   0.03234709  0.033237571            2 
  559000    1.1633882   -7.1312274    217.64454  0.032445519  0.033226738            1 
  560000     1.170088   -7.1084796    218.41225  0.032501822  0.033215993            4 
  561000    1.1384556   -7.1705437    218.50808  0.032458123  0.033205339            3 
  562000    1.1644755   -7.1516775    218.57101  0.032409698   0.03319531            3 
  563000    1.1867404   -7.1838499    218.74855  0.032378411  0.033185098            4 
  564000     1.168376   -7.1388718    218.41372   0.03227153  0.033173805            3 
  565000     1.144138   -7.1273705    219.27348  0.032341221  0.033162182            1 
  566000    1.1579327   -7.1924564    218.62084  0.032187992  0.033150988            2 
  567000    1.1472258   -7.1778072    219.61019  0.032276631  0.033139546            1 
  568000    1.1718785    -7.172606    219.44508  0.032195581   0.03312788            1 
  569000    1.1836464    -7.166458    220.99948  0.032366648  0.033116976            4 
  570000    1.1542133   -7.1577096    221.23544  0.032344362  0.033106405            3 
  571000    1.1671093   -7.1813796    221.10647  0.032268896  0.033095584            3 
  572000    1.1460084    -7.232834    220.95605  0.032190567  0.033084458            4 
  573000    1.1742472   -7.1551508    221.39343  0.032197997  0.033073464            2 
  574000     1.144249   -7.2164588    221.71045  0.032187928  0.033063104            1 
  575000    1.1621602   -7.1454521    223.07047  0.032329053  0.033052929            1 
  576000    1.1746836   -7.1718512    223.46187  0.032329553  0.033043581            1 
  577000     1.179367    -7.201381    224.06267  0.032360294   0.03303368            1 
  578000    1.1511654   -7.2104059    223.25078  0.032187252  0.033023181            1 
  579000    1.1625398   -7.1940391    224.57748  0.032322608   0.03301264            1 
  580000    1.1640164   -7.1690149    224.58572  0.032268063  0.033002505            2 
  581000    1.1420398   -7.1944341    224.82085  0.032246249  0.032992518            2 
  582000    1.1650099   -7.1672708    224.70151  0.032173756  0.032982245            1 
  583000    1.1320606    -7.170791    225.11095  0.032177094  0.032972083            1 
  584000     1.171686    -7.133391     225.9639  0.032243707  0.032961779            1 
  585000    1.1443903   -7.1579244    226.63061  0.032283563  0.032951712            1 
  586000    1.1831185   -7.1510575    226.08498  0.032150879  0.032941292            4 
  587000    1.1563492   -7.1441537    225.81779  0.032058175  0.032930982            3 
  588000     1.148632   -7.2003254    226.04565  0.032035948  0.032919708            2 
  589000    1.1579908   -7.1881158     227.3708  0.032169043  0.032908006            1 
  590000    1.1446177   -7.1386921    227.74487  0.032167354  0.032897594            2 
  591000    1.1691866   -7.1825991    227.00084  0.032008015  0.032887018            1 
  592000     1.137332   -7.1922901    228.23364  0.032127482  0.032876205            1 
  593000    1.1556306   -7.1651839    228.76031  0.032147317  0.032865343            1 
  594000    1.1874156   -7.1292014    229.77623  0.032235723  0.032855316            1 
  595000     1.166325   -7.2234272    229.28147   0.03211225  0.032845035            1 
  596000    1.1740081   -7.1750946    229.94966  0.032151797  0.032834926            1 
  597000    1.1473304   -7.1616005    230.45273  0.032168164  0.032825684            1 
  598000    1.1435507   -7.1656755    230.54417  0.032127114  0.032816363            1 
  599000    1.1524599   -7.1910784    230.56343   0.03207616   0.03280648            2 
  600000    1.1690792   -7.1733386    230.62548  0.032031317  0.032796862            2 
  601000    1.1594683   -7.1855818    230.89338  0.032015167  0.032786992            3 
  602000    1.1345693   -7.2012545    231.91837  0.032103872  0.032776846            2 
  603000    1.1598926   -7.1740061     232.0808  0.032073079  0.032766903            3 
  604000    1.1470712   -7.1882076    232.62659  0.032095281  0.032756693            2 
  605000    1.1341671   -7.2107748    232.38868   0.03200946  0.032746821            1 
  606000    1.1450467   -7.2037611    233.20507  0.032068903  0.032736716            1 
  607000    1.1870567   -7.1814586    233.54538  0.032062793  0.032726948            1 
  608000    1.1574663   -7.1758574    233.79868  0.032044775  0.032717825            2 
  609000    1.1323813   -7.1862166    234.86855  0.032138554  0.032708297            1 
  610000    1.1669067   -7.1638943    235.23093  0.032135372  0.032699056            1 
  611000    1.1502418   -7.2162899    234.78774  0.032022332    0.0326894            4 
  612000    1.1574717   -7.1624904    235.96912  0.032130872  0.032680214            3 
  613000    1.1540455   -7.1702001    235.07239  0.031956552  0.032671117            1 
  614000    1.1770613   -7.2044859    236.34902  0.032077771  0.032661947            2 
  615000    1.1582469    -7.199495    236.55501  0.032053525  0.032652577            1 
  616000    1.1446256   -7.1481652     237.7077  0.032157427  0.032644025            2 
  617000    1.1534907   -7.1794763    237.25896    0.0320447  0.032635244            1 
  618000     1.161884   -7.1884999    237.85682  0.032073466  0.032626386            1 
  619000    1.1376309    -7.204759    238.05664  0.032048552  0.032616968            2 
  620000    1.1600637   -7.2061795    237.69449  0.031948184  0.032607493            1 
  621000    1.1716799   -7.1746675     238.6406  0.032023698  0.032598083            2 
  622000    1.1590614   -7.1674854    238.92761  0.032010666  0.032588631            1 
  623000    1.1548962   -7.1672311    238.46286  0.031897119  0.032579121            2 
  624000    1.1583585   -7.2360552    238.58729  0.031862619  0.032569787            1 
  625000    1.1432336   -7.1717761    239.58942  0.031945255  0.032560129            1 
  626000    1.1431282   -7.2031832    240.04391  0.031954728  0.032550392            2 
  627000     1.162714   -7.1952836    240.29708  0.031937411  0.032540806            3 
  628000    1.1409679   -7.1878289    240.76491  0.031948635  0.032531389            1 
  629000    1.1573754   -7.1475271    241.24348  0.031961245   0.03252237            1 
  630000    1.1323961   -7.2426175    241.09055  0.031890284  0.032512965            2 
  631000    1.1443785   -7.1749411    241.33368  0.031871854  0.032503461            1 
  632000    1.1418184   -7.2321268    241.19623    0.0318033  0.032494532            1 
  633000    1.1401742   -7.1919189    242.35248  0.031905276  0.032485853            1 
  634000     1.138813   -7.1357026    243.26123  0.031974399   0.03247752            3 
  635000    1.1426322   -7.2166793    242.86837   0.03187249  0.032469048            3 
  636000    1.1677703   -7.1743991    244.73677  0.032067187  0.032460875            1 
  637000    1.1576654   -7.1916592    244.58105  0.031996474  0.032452845            3 
  638000    1.1344875   -7.2114522    244.90095  0.031988107  0.032444628            1 
  639000    1.1491148   -7.2246074    244.67856  0.031909045  0.032436428            1 
  640000    1.1761713   -7.2126523    245.64552  0.031985093  0.032428132            2 
  641000    1.1719288   -7.2369034     245.1382  0.031869241  0.032420075            1 
  642000    1.1604494   -7.1803582    246.07868  0.031941677  0.032412035            1 
  643000    1.1372346   -7.1927385    246.44034  0.031938873  0.032403679            1 
  644000    1.1541063   -7.1990091    246.37069  0.031880266  0.032395223            2 
  645000     1.124542   -7.2096948    246.96432  0.031907534  0.032387479            1 
  646000     1.156189   -7.2256757    248.09916  0.032004536  0.032379829            1 
  647000    1.1660778   -7.2382245    247.14776   0.03183253  0.032372154            2 
  648000    1.1351799   -7.1778698    248.69466  0.031982338  0.032364722            1 
  649000    1.1391362   -7.2345406    249.16558  0.031993526  0.032357168            3 
  650000    1.1467478   -7.1853303    249.65349  0.032006858  0.032349692            2 
  651000    1.1260342   -7.1616282    250.18549  0.032025792  0.032342768            1 
  652000     1.142678    -7.179135    250.05249  0.031959674  0.032335644            1 
  653000    1.1478907   -7.2192282     250.9638  0.032027029  0.032328665            1 
  654000    1.1855987   -7.2017213    251.22957  0.032011922  0.032321497            3 
  655000    1.1469813   -7.1951472    250.60272  0.031883298  0.032314205            1 
  656000     1.136791   -7.2175047    250.99688  0.031884766  0.032307284            2 
  657000    1.1437381   -7.2051898     252.6721   0.03204872  0.032300072            2 
  658000    1.1472639   -7.1997833    251.68454  0.031874942  0.032293117            1 
  659000    1.1391439   -7.2110451    251.78198  0.031838895  0.032285928            1 
  660000    1.1447896   -7.1975001    253.47547  0.032004479  0.032278909            1 
  661000    1.1401199   -7.2117415    252.78929  0.031869553   0.03227146            2 
  662000    1.1482127   -7.2114389    253.28279  0.031883534  0.032263842            2 
  663000    1.1535127   -7.2142295    253.87452  0.031909819  0.032256775            1 
  664000     1.126366   -7.2142871    253.52801  0.031818275  0.032249524            1 
  665000    1.1350141   -7.2665209    253.36571  0.031750089  0.032241834            2 
  666000    1.1384881   -7.2189166     254.1309   0.03179816  0.032234312            3 
  667000    1.1220515    -7.193158    254.82246  0.031836889  0.032226635            1 
  668000    1.1369267   -7.2341772    254.64892   0.03176758  0.032218893            2 
  669000    1.1113726   -7.2634988    255.31511  0.031803078   0.03221102            1 
  670000    1.1368128   -7.2179932    256.21526   0.03186757  0.032203452            2 
  671000    1.1370165   -7.1990389    256.28273  0.031828456  0.032196342            2 
  672000    1.1272284   -7.2283106    255.73268  0.031712881  0.032188755            2 
  673000    1.1573041   -7.2584392    256.33172  0.031739935  0.032180857            1 
  674000    1.1659416   -7.2108668    256.68191  0.031736141  0.032173168            1 
  675000    1.1541755   -7.2556959    257.40526  0.031778427  0.032165398            1 
  676000    1.1451687   -7.2131402    258.78691  0.031901739  0.032158294            1 
  677000    1.1418247   -7.2312557    258.70632  0.031844697  0.032151532            2 
  678000    1.1358444   -7.2091917    259.41865  0.031885282  0.032144929            3 
  679000    1.1475151   -7.1957662    259.81281  0.031886697  0.032138226            2 
  680000    1.1667682   -7.2288198     259.3497  0.031783051  0.032131392            3 
  681000     1.140138   -7.1946666    260.78603  0.031912142  0.032124832            3 
  682000    1.1439199    -7.216769    260.90171  0.031879486   0.03211825       -1e+20 
  683000    1.1304234    -7.239149    260.85897  0.031827596  0.032111069            1 
  684000    1.1403331   -7.2281068    261.10062  0.031810504  0.032104333            2 
  685000    1.1389882   -7.2168769     262.3087  0.031911035  0.032097759            2 
  686000    1.1225027   -7.1722628    262.37742  0.031872865  0.032091744            2 
  687000    1.1336011   -7.2255094    262.07721  0.031790054  0.032085397            2 
  688000    1.1420752   -7.1911393    263.77411  0.031949383  0.032079483            1 
  689000    1.1441917   -7.1970183    264.04751   0.03193608  0.032073409            1 
  690000    1.1479511   -7.2184274    263.00527  0.031763922  0.032067289            1 
  691000    1.1654885   -7.1971682    263.65365  0.031796147  0.032060595            1 
  692000     1.149089   -7.2020793    262.86599  0.031655346  0.032053297            2 
  693000     1.158648   -7.1785385    264.04651  0.031751625  0.032045863            1 
  694000    1.1613983   -7.2277445    263.36211  0.031623692  0.032038715            3 
  695000      1.14705   -7.2077246    263.78422  0.031628803   0.03203073            1 
  696000    1.1342083   -7.2538665    263.82088  0.031587749  0.032022767            3 
  697000    1.1590052   -7.2343255    263.16274  0.031463742  0.032014566            2 
  698000    1.1411061    -7.221964    264.49883   0.03157818  0.032006029            1 
  699000    1.1405615   -7.1787098    264.92999  0.031584405   0.03199766            1 
  700000    1.1388269    -7.215077     264.5927  0.031499131  0.031988997            1 
  701000    1.1448665   -7.2270358    265.42887  0.031553598   0.03198056            2 
  702000      1.13709   -7.1699112     265.5321  0.031520904  0.031972299            1 
  703000    1.1385596   -7.2045432    266.31251  0.031568576  0.031964373            3 
  704000    1.1322331   -7.2110557    267.05474  0.031611593  0.031956891            2 
  705000    1.1045254   -7.2271966    266.60102  0.031513123   0.03194959            3 
  706000    1.1463038   -7.2420635     267.9207  0.031624256  0.031942051            3 
  707000    1.1526719   -7.2026211    268.96105  0.031702151  0.031934815            1 
  708000    1.1389674   -7.2388042    268.91936  0.031652467  0.031927877            4 
  709000    1.1394719   -7.1854248    269.71565  0.031701416  0.031920771            1 
  710000    1.1211805   -7.2001015    269.28637  0.031606381  0.031914072            1 
  711000    1.1614624   -7.2164166    269.79501  0.031621543  0.031907452            3 
  712000    1.1082555   -7.2311191     269.9476  0.031594991  0.031900554            1 
  713000    1.1423696   -7.1949353    271.08822   0.03168399  0.031893856            2 
  714000     1.108853   -7.1801908    271.10941  0.031642088  0.031886918            2 
  715000    1.1170281   -7.2444417    270.16217  0.031487432  0.031879708            2 
  716000    1.1341148   -7.2099342    271.09308  0.031551802  0.031872152            1 
  717000    1.1453172   -7.1743388     271.5576  0.031561785  0.031865221            1 
  718000    1.1405873   -7.2466873    270.93081   0.03144508  0.031858213            1 
  719000    1.1395711     -7.21756    272.68744  0.031604942  0.031851151            3 
  720000     1.120921   -7.2284369    271.96973  0.031477978  0.031843599            1 
  721000    1.1383834   -7.2393859    272.00379  0.031438256  0.031835947            3 
  722000        1.145   -7.2266331    272.51008  0.031453149  0.031828828            6 
  723000    1.1228445   -7.2214368    272.21719  0.031375887  0.031821363            1 
  724000    1.1197102   -7.2060429    273.40318  0.031469059  0.031813836            1 
  725000    1.1262868   -7.2369687    273.39068  0.031424216  0.031806089            1 
  726000    1.1180571   -7.2274633    273.96527  0.031446886  0.031798205            2 
  727000     1.156873    -7.245143    273.89617  0.031395709  0.031790454            1 
  728000    1.1248073   -7.2098734    274.05744  0.031371044  0.031782599            2 
  729000    1.1368541   -7.2194619     274.5619  0.031385677  0.031774575            1 
  730000    1.1485878   -7.1869343      274.333  0.031316553  0.031766938            1 
  731000    1.1349983   -7.2308631    275.87022  0.031448953  0.031759021            2 
  732000    1.1394168   -7.2039658    276.42823  0.031469516  0.031751225            1 
  733000    1.1122438   -7.2822855    275.77762  0.031352617  0.031743838            2 
  734000    1.1261742     -7.22598     275.8022  0.031312693  0.031735795            2 
  735000    1.1545232   -7.2499156    276.04256  0.031297342  0.031728126            1 
  736000    1.1239616   -7.2376563    277.41545  0.031410264  0.031720476            1 
  737000    1.1338585   -7.2442946    277.06845  0.031328409   0.03171304            2 
  738000    1.1136202    -7.195311    278.95622  0.031499122  0.031705625            3 
  739000    1.1420455    -7.259969    277.39083  0.031279976  0.031698578            1 
  740000    1.1204871   -7.2192868    278.60742   0.03137471  0.031691255            1 
  741000    1.1559813   -7.2251251     278.9233  0.031367893  0.031683778            1 
  742000    1.1097583   -7.2583183    278.59161  0.031288366  0.031676245            1 
  743000     1.151046   -7.2687481    279.29259  0.031324876  0.031668797            2 
  744000    1.1152031   -7.2449302     279.3578  0.031290076  0.031661226            2 
  745000    1.1213244   -7.2478047    279.40586  0.031253452  0.031653204            1 
  746000    1.1217457   -7.2644019    279.72099  0.031246759  0.031645387            2 
  747000    1.1260307   -7.2242202    279.66736  0.031198947  0.031637768            2 
  748000    1.1243748   -7.2752857    280.17414  0.031213697  0.031629897            2 
  749000    1.1236779   -7.2489478    280.05037  0.031158252  0.031621511            1 
  750000     1.168999   -7.2456548    280.98409  0.031220454  0.031613447            1 
  751000    1.1329316    -7.208843    281.89174  0.031279598  0.031605761            1 
  752000    1.1191962   -7.2431857    281.70868  0.031217717  0.031597842            2 
  753000    1.1273996   -7.2683691    280.88566  0.031085177  0.031589731            2 
  754000    1.1274363    -7.284141    281.65029  0.031128459  0.031581508            4 
  755000    1.1475553   -7.2585222    282.34684   0.03116411  0.031573064            1 
  756000    1.1153605   -7.2614387    282.02271   0.03108716  0.031564627            2 
  757000    1.1252526   -7.2461213    282.95015  0.031148189  0.031556186            2 
  758000     1.145116   -7.2556169    283.19979  0.031134542   0.03154823            2 
  759000    1.1394444   -7.2382752    283.40648  0.031116215  0.031539799            1 
  760000    1.1172785   -7.2372697    283.80374  0.031118831   0.03153166            1 
  761000    1.1423477   -7.2436736    284.69417  0.031175446  0.031523678            4 
  762000    1.1293248   -7.2747971    284.23979  0.031084842  0.031515552            2 
  763000    1.1272253   -7.2402591    285.06215  0.031133917  0.031507142            1 
  764000    1.1460698   -7.2925434    284.64911  0.031048114  0.031498469            2 
  765000    1.1055065    -7.231392    284.69466   0.03101249  0.031490243            1 
  766000    1.1441078   -7.2043356    286.12669  0.031127795    0.0314819            1 
  767000    1.1250479    -7.227506    286.35203  0.031111694  0.031473617            1 
  768000    1.1131273   -7.2435275    286.49318    0.0310865  0.031465164            1 
  769000     1.108592   -7.2698942    285.76802  0.030967493  0.031456928            1 
  770000    1.1112979   -7.2589688    286.01693  0.030954213  0.031448372            2 
  771000     1.118534   -7.2302108    287.37372  0.031060713  0.031439639            1 
  772000    1.1083029   -7.2538621    287.28574  0.031010983  0.031431092            1 
  773000    1.1189502   -7.2099622    286.96559  0.030936351  0.031422268            3 
  774000    1.1002719   -7.2436849    287.15205  0.030916456  0.031413427            2 
  775000    1.1395411   -7.2669523    287.20903  0.030882691   0.03140454            1 
  776000     1.128795   -7.2277033     288.4966  0.030981164  0.031395761            2 
  777000     1.147131   -7.2111454    289.15044  0.031011416  0.031387117            3 
  778000      1.14193     -7.20326    289.45917  0.031004624   0.03137862            2 
  779000    1.1207218    -7.241373    289.11899  0.030928432   0.03137018            4 
  780000    1.1111127   -7.2445732    289.56389  0.030936313  0.031361476            2 
  781000    1.1172186   -7.3130968    289.21466  0.030859439  0.031352946            4 
  782000    1.1120893   -7.2436723     289.2422  0.030822911  0.031343855            1 
  783000    1.1269695   -7.2931726    288.39269  0.030693135  0.031334715            2 
  784000    1.1310268   -7.2780834    289.18336  0.030738027  0.031325705            1 
  785000    1.1432132   -7.2980299    289.74173  0.030758146  0.031316867            1 
  786000    1.1286814   -7.2374866     290.1281  0.030759977  0.031307699            2 
  787000    1.1299634   -7.2314573     291.6706  0.030884223  0.031298752            2 
  788000    1.1325884   -7.2040167    291.61274  0.030838911  0.031290004            2 
  789000    1.1299155   -7.2995483    290.95765  0.030730634  0.031281495            3 
  790000      1.13076   -7.2468567    292.76261  0.030882131  0.031273044            1 
  791000    1.1160545   -7.2413823    293.35883  0.030905903  0.031264832            4 
  792000    1.1430126   -7.2428294    293.47043  0.030878622  0.031256838            2 
  793000    1.1257683   -7.2815898    294.28865  0.030925667  0.031248369            2 
  794000    1.1139911   -7.2701586    293.29876  0.030782826  0.031239903            2 
  795000    1.1395699   -7.2190882    294.28672  0.030847665  0.031231537            2 
  796000    1.1125734   -7.2768078    293.71114  0.030748654  0.031223332            1 
  797000    1.1212309   -7.2378261    294.96043  0.030840697  0.031215097            1 
  798000    1.1367488   -7.2938555    294.42534  0.030746172  0.031207129            2 
  799000    1.1190653   -7.2607145    295.13793  0.030782012  0.031198768            1 
  800000    1.1211553   -7.2939579    295.90253   0.03082318    0.0311907            1 
  801000    1.1420135   -7.2487944    296.00141  0.030794987  0.031182341            4 
  802000     1.121042   -7.2575122    296.37875  0.030795797  0.031174335            2 
  803000     1.120596   -7.2554678    297.03598  0.030825652  0.031166287            1 
  804000    1.1158965   -7.2457293    297.47102  0.030832402  0.031158529            1 
  805000    1.1077349   -7.2742187     298.2454  0.030874265  0.031150687            1 
  806000    1.1288065   -7.2590692     298.7008  0.030883043   0.03114292            1 
  807000    1.1533056    -7.295642    298.08161  0.030780835  0.031135368            2 
  808000    1.1103039   -7.2730198    299.17676  0.030855689  0.031127905            2 
  809000    1.1150612   -7.2381118    299.35716  0.030836131  0.031120493            1 
  810000    1.1441229   -7.2448857    298.70877  0.030731355  0.031112635            2 
  811000    1.1294594   -7.2502236    299.13553  0.030737313  0.031105204            2 
  812000    1.1166021   -7.2711077    298.53725  0.030638059  0.031097268            6 
  813000    1.1308888     -7.28346    298.79158  0.030626443  0.031089116            1 
  814000    1.0991544   -7.2799496    299.97096  0.030709557  0.031081121            1 
  815000    1.1148497   -7.2548156    299.96679  0.030671451  0.031073257            3 
  816000     1.123733   -7.2417984    301.21498  0.030761333  0.031065474            3 
  817000    1.1235545   -7.2800139     301.4862  0.030751347  0.031057685            1 
  818000    1.1259284   -7.2702517    300.90475  0.030654518  0.031049875            2 
  819000    1.1225142   -7.2447114    302.26116  0.030755104  0.031042235            3 
  820000    1.0920435   -7.2582684    301.53671  0.030643974  0.031034547            1 
  821000    1.1281345    -7.280309    302.41197   0.03069549  0.031026862            2 
  822000    1.1386645   -7.2493244    302.66131  0.030683425  0.031019168            1 
  823000     1.124973   -7.2985168    301.75713   0.03055459  0.031011086            3 
  824000    1.1222123   -7.2478249    303.87672  0.030731868  0.031003481            1 
  825000    1.1184358   -7.2515384    303.70662  0.030677437  0.030995693            1 
  826000    1.0948405    -7.285103    303.66575  0.030636173  0.030987987            2 
  827000    1.0768125   -7.2760283    304.38728  0.030671834  0.030980191            1 
  828000    1.1029749   -7.2669638    304.87784  0.030684163  0.030972207            1 
  829000    1.1183244   -7.2636783    305.20766  0.030680304  0.030964445            2 
  830000    1.1329304   -7.2659619    305.08072  0.030630595  0.030956294            2 
  831000     1.106916    -7.235346    305.85074  0.030670952  0.030948614            2 
  832000    1.1158804   -7.2936676    305.60581  0.030609556  0.030941127            2 
  833000    1.1206828   -7.2449356    306.61906  0.030674176   0.03093326            3 
  834000    1.1203062   -7.2475864      306.545  0.030629996  0.030925604            1 
  835000    1.1235372   -7.2759529    307.25093  0.030663765  0.030917966       -1e+20 
  836000    1.1342683   -7.2539143    306.68375  0.030570549  0.030909925            1 
  837000    1.1147052   -7.2716408    307.39235  0.030604575  0.030902159            1 
  838000    1.1091155   -7.2451185    307.78456  0.030607057  0.030894615            1 
  839000     1.129713   -7.2940047    308.20317  0.030612154  0.030886811            1 
  840000    1.1085095   -7.2479899    307.82839  0.030538531  0.030879243            3 
  841000    1.1118143   -7.2606216    308.58951  0.030577637  0.030872037            1 
  842000    1.0985156   -7.2697805    309.70866  0.030652085  0.030864892            1 
  843000     1.100243   -7.2716183    308.83523  0.030529382   0.03085762            1 
  844000    1.1303806   -7.2953045    309.87257  0.030595633  0.030850264            3 
  845000    1.1250969   -7.2308724    310.71873  0.030642872  0.030843231            1 
  846000    1.1216133    -7.259877    310.79709   0.03061437  0.030835866            1 
  847000    1.1087021   -7.3114427    311.03319  0.030601455  0.030828634            2 
  848000    1.0905195   -7.2252032    312.11831  0.030672003  0.030821626            1 
  849000    1.1156089   -7.2740489    311.80719  0.030605339  0.030814526            3 
  850000     1.112747   -7.2822356    312.01205  0.030589416  0.030807399            1 
  851000    1.1189217   -7.2913318    312.62041  0.030613044  0.030800222            2 
  852000    1.0977785   -7.2922498    311.99347  0.030515793  0.030792983            1 
  853000    1.1039857    -7.299506    311.95779  0.030476533  0.030785372            2 
  854000    1.1324751   -7.2724996    313.46635  0.030588051  0.030777985            3 
  855000    1.1518339    -7.263933    312.51701  0.030459748  0.030770627            1 
  856000    1.1171562   -7.2929124    314.24487  0.030592374  0.030763355            2 
  857000    1.1199201   -7.3122747    313.21928   0.03045695  0.030756283            2 
  858000     1.114389   -7.3055813    314.27211  0.030523709  0.030749235            1 
  859000    1.1192234   -7.2841689    314.30263  0.030491136  0.030742195            1 
  860000    1.0944612   -7.3103939    314.78243  0.030502173  0.030734793            1 
  861000      1.12485   -7.2824709    315.28047   0.03051495  0.030727599            2 
  862000    1.1046278   -7.3002385    315.34387  0.030485679  0.030720387            4 
  863000    1.1267218    -7.252834    316.30469  0.030543133  0.030713156            3 
  864000    1.1107599   -7.2962067    316.01679  0.030480014  0.030705819            3 
  865000     1.094726   -7.3071467    316.07184  0.030450081  0.030698302            1 
  866000    1.1026722   -7.2804738    316.27783  0.030434741  0.030691112            5 
  867000    1.0786798   -7.2659504    316.16553  0.030388844  0.030683862            1 
  868000    1.0915042   -7.2804229    316.74817  0.030409771  0.030676368            2 
  869000    1.1086572   -7.2766391    317.34242  0.030431763   0.03066877            4 
  870000    1.0845384   -7.2869522    316.67816  0.030333157  0.030660991            1 
  871000    1.1076383   -7.2774537    318.55888   0.03047827  0.030653435            2 
  872000    1.0982392   -7.2674527    318.32136  0.030420619  0.030646111            2 
  873000    1.1092796   -7.2605796    318.67222  0.030419265  0.030638983            1 
  874000    1.0996139   -7.2740836    320.03178  0.030514091  0.030631831            1 
  875000    1.1170286   -7.3003771    318.41136  0.030324891  0.030624376            2 
  876000    1.0877885   -7.2788651    319.64665  0.030407786  0.030617219            1 
  877000    1.0903935   -7.3010206    319.85461  0.030392874  0.030610098            1 
  878000    1.1258252   -7.2954319    321.07426  0.030474019  0.030603033            1 
  879000    1.1260683   -7.2903233    321.27532  0.030458411  0.030596181            1 
  880000    1.1086981   -7.2822172    321.09579  0.030406798  0.030589088            2 
  881000    1.1126222   -7.2896283    321.66948  0.030426549  0.030582245            1 
  882000    1.1085844   -7.3332265    321.25411  0.030352807  0.030575386            2 
  883000    1.1122738   -7.2832855    322.59967   0.03044542  0.030568673            3 
  884000    1.1240299   -7.2792264    322.41441  0.030393515  0.030562028            2 
  885000    1.1279911   -7.2924486    322.16092  0.030335303   0.03055522            1 
  886000    1.1181925   -7.2449167    323.02587  0.030382418  0.030548121            1 
  887000    1.0935075   -7.3072038    323.78938  0.030419896  0.030541145            1 
  888000    1.0934319   -7.2751705    324.24273  0.030428184  0.030534399            1 
  889000    1.1191423   -7.2855727    322.76511  0.030255447   0.03052785            3 
  890000    1.0937281   -7.2961784    324.69873  0.030402503  0.030521217            1 
  891000    1.1107891   -7.3331006    323.97392  0.030300591  0.030514285            1 
  892000    1.1388491   -7.2975175     324.7543  0.030339528  0.030507231            4 
  893000    1.0975655   -7.2516319    325.83733  0.030406619  0.030500332       -1e+20 
  894000    1.0996061   -7.3086889    324.93726  0.030288708  0.030493754            1 
  895000    1.1307727    -7.263566    326.99583  0.030446539  0.030487492            1 
  896000    1.1057072   -7.3010483    326.11015  0.030330185  0.030480738            1 
  897000    1.0929016   -7.3084373    326.68875  0.030350126  0.030474215            3 
  898000    1.1184952   -7.2573757    327.31374  0.030374327  0.030467743            5 
  899000    1.0975545   -7.2874272    327.99385  0.030403583  0.030461082            1 
  900000    1.1116451   -7.3209512    327.20194  0.030296476  0.030454345            3 
  901000    1.0987543   -7.3059151    328.90559  0.030420421  0.030447917            1 
  902000     1.118274   -7.2912597    327.31839  0.030240058  0.030441585            1 
  903000    1.1041587    -7.304955    328.35686  0.030302405  0.030435155            2 
  904000    1.0981807   -7.3089619    329.17032  0.030343872  0.030428868       -1e+20 
  905000    1.0941236   -7.2501198    329.87221  0.030374974  0.030422604            1 
  906000    1.1005721   -7.2847079    330.92064  0.030437881  0.030416388            2 
  907000    1.1207394   -7.2960056    328.99391  0.030227298  0.030409936            1 
  908000    1.0971107   -7.3200442    329.97542  0.030284088  0.030403258            2 
  909000    1.0928753   -7.3695763     329.8882  0.030242776  0.030396435            1 
  910000    1.0940789   -7.3061448    330.99527  0.030310922  0.030390044            1 
  911000    1.1236356   -7.2797868    330.60302  0.030241769  0.030383601            2 
  912000    1.0885139    -7.272631     331.9546  0.030332109  0.030377231            1 
  913000    1.0795595    -7.305505    331.91305  0.030295094  0.030370856            2 
  914000    1.0870171   -7.3480188    331.14321  0.030191758  0.030364365            1 
  915000    1.0878401   -7.3751737      330.886  0.030135337  0.030357692            1 
  916000    1.0641079   -7.3036851    332.01592  0.030205233  0.030351035            1 
  917000    1.1168706    -7.240265    333.17839  0.030277934  0.030344542            1 
  918000    1.1103291   -7.2851052     333.8589  0.030306727  0.030338249            1 
  919000    1.1127621   -7.2740613    333.21871  0.030215697  0.030331916            1 
  920000    1.1084345   -7.3097552    334.73676  0.030320359  0.030325421            2 
  921000    1.1202449   -7.2539251    333.56125  0.030181076  0.030318926            2 
  922000      1.10579   -7.3007443    333.84577  0.030174057  0.030312272            1 
  923000    1.0983073   -7.3147235    334.81467  0.030228844  0.030305482            1 
  924000    1.1117241    -7.279275    333.85806  0.030109854  0.030298418            2 
  925000    1.0698634   -7.2599818    335.70819  0.030243981  0.030291683            2 
  926000    1.1025895   -7.2685879    334.28631  0.030083362  0.030284887            1 
  927000    1.1283748   -7.3140267    335.15087   0.03012863  0.030277966            1 
  928000    1.1152613   -7.2955461     336.7001  0.030235282  0.030271145            2 
  929000    1.1068332   -7.2944668    335.93152  0.030133793  0.030264691            3 
  930000    1.1094155   -7.3152513    336.55614   0.03015736  0.030258352            1 
  931000    1.0797052   -7.3195803    336.26058  0.030098513  0.030251764            5 
  932000    1.0794519    -7.338132    335.81724  0.030026577  0.030244796            2 
  933000    1.1044123    -7.305708    336.96642  0.030097037  0.030237958            1 
  934000    1.0898547   -7.3166664    337.86492  0.030144979  0.030231124            4 
  935000    1.1123176   -7.3175181    337.74588  0.030102128  0.030224874            1 
  936000     1.085974   -7.3464724    337.72367   0.03006799  0.030218419            2 
  937000    1.0803287   -7.2573672     339.2745  0.030173826  0.030212198            1 
  938000    1.1207416   -7.3381482    338.39552  0.030063568  0.030205483            2 
  939000    1.1074213   -7.3246635    337.90395  0.029987926  0.030198684            1 
  940000    1.1082604   -7.3407659    339.56665  0.030103426  0.030191756            2 
  941000    1.0995964   -7.3198298    340.15639  0.030123662  0.030185354            1 
  942000    1.0908609   -7.2888476    341.18624  0.030182789   0.03017905            1 
  943000    1.0964353   -7.3424156    340.58511  0.030097659  0.030172787            2 
  944000    1.1318305   -7.2953946    340.72864  0.030078446   0.03016624            2 
  945000    1.1194935   -7.2804119    341.22596  0.030090472  0.030159697            1 
  946000    1.1129379   -7.2843274    341.82781  0.030111682  0.030153367            1 
  947000    1.0961567   -7.3401317    340.91326  0.029999407  0.030146754            2 
  948000    1.0757256   -7.2773589    342.31106  0.030090634  0.030140229            2 
  949000    1.1154967   -7.3028852    341.24429  0.029965252  0.030133593            1 
  950000    1.0737321   -7.3377496    341.01547  0.029913638  0.030126814            1 
  951000    1.0916767   -7.2896244    341.85251   0.02995553  0.030120208            1 
  952000      1.09998   -7.3373327    341.96166  0.029933619  0.030113698            1 
  953000    1.1048696    -7.271946    343.02091  0.029994833  0.030106945            1 
  954000     1.083286    -7.314679    343.17976  0.029977267  0.030100358            1 
  955000    1.1074026   -7.3166182    343.12799   0.02994136  0.030093844            3 
  956000    1.0997445   -7.2611541    344.47205  0.030027201  0.030087301            1 
  957000    1.0840233   -7.2945533    344.89904  0.030033006  0.030081145            2 
  958000    1.1026048   -7.3224761    345.18132  0.030026211  0.030074937            1 
  959000    1.0927905   -7.3602143    344.54383  0.029939506  0.030068591            1 
  960000    1.0804007   -7.2653881    346.11213  0.030044456  0.030062227            1 
  961000    1.1022946   -7.3076932    345.57768  0.029966847  0.030055992            3 
  962000    1.1163753   -7.3081187    346.60808  0.030024955  0.030049841            2 
  963000     1.087227   -7.3162876    347.06682  0.030033473  0.030043795            4 
  964000    1.0991153   -7.2710936     347.5972  0.030048167  0.030037447            3 
  965000    1.1069322   -7.2634745    347.11381  0.029975286  0.030031328            3 
  966000    1.1080727   -7.2993091    347.78532  0.030002185  0.030025578            2 
  967000    1.0964765   -7.3172761    347.37459  0.029935763  0.030019324            2 
  968000    1.1004616   -7.3094999    348.95486   0.03004088   0.03001313            2 
  969000    1.0979425   -7.2719922    348.16826  0.029942231  0.030006997            2 
  970000    1.1051171   -7.3190168    348.74019  0.029960498  0.030000901            2 
  971000    1.1030862   -7.3525033    348.88081  0.029941711  0.029994599            1 
  972000    1.0828018   -7.3221396    349.22926  0.029940781  0.029988502            1 
  973000    1.0925507    -7.340995    349.82892  0.029961367  0.029982348            1 
  974000    1.0912528   -7.3384946    349.30632  0.029885893  0.029976243            2 
  975000    1.0863888   -7.3290896    349.67456  0.029886715   0.02996987            2 
  976000       1.0977   -7.3215833    350.98814   0.02996825  0.029963737            4 
  977000    1.0791194   -7.2995766    350.89497  0.029929629  0.029957668            1 
  978000    1.1058042    -7.278662    351.47373  0.029948341  0.029951856            1 
  979000    1.0894362   -7.3162902    352.46004  0.030001706  0.029945977            1 
  980000    1.0929821   -7.3419107    352.34137  0.029961001   0.02993992            1 
  981000    1.0995966    -7.337138    351.58561   0.02986626  0.029933784            2 
  982000    1.1027362   -7.3004425    352.30013  0.029896481  0.029927687            1 
  983000    1.1072191    -7.324044     351.9727   0.02983831  0.029921509            1 
  984000     1.092517    -7.312821    353.09859  0.029903336  0.029915319            2 
  985000    1.0872385   -7.3262374      352.878  0.029854314  0.029909178            3 
  986000    1.0775516   -7.3094624    352.42196  0.029785494  0.029903077            2 
  987000    1.1061571   -7.3659407    353.75342  0.029867732  0.029896926            1 
  988000    1.0875511   -7.3171844     354.6025  0.029909118  0.029890624            2 
  989000    1.0647888   -7.3536563    351.24949  0.029596351  0.029883995            2 
  990000    1.1257198   -7.3015871    354.43683   0.02983475  0.029877395            1 
  991000    1.0871691   -7.3133413    353.14128  0.029695702   0.02987097       -1e+20 
  992000    1.0849866   -7.3647611    353.72059  0.029714431  0.029864492            2 
  993000     1.120815   -7.3461958    354.58179   0.02975678  0.029858152            1 
  994000     1.087651   -7.3134982     355.8454   0.02983278  0.029851939            2 
  995000    1.0842441   -7.3044971     356.3839  0.029847898  0.029846018            1 
  996000    1.0913323   -7.2917974    357.31764  0.029896054  0.029840359            3 
  997000     1.103589   -7.3496799    357.55913  0.029886253  0.029834504            1 
  998000    1.0984567   -7.3353332    357.48009  0.029849707  0.029828662            1 
  999000    1.0862517   -7.3402178    357.73785  0.029841329  0.029822894            1 
 1000000    1.0801387   -7.3713845    358.45396  0.029871163  0.029817045            3 
 1001000    1.0820887   -7.3144351    358.11427  0.029813042  0.029811028            2 
 1002000    1.1175565   -7.3559896    358.14149  0.029785553  0.029804959            3 
 1003000    1.0681462   -7.3287702    359.34733  0.029856043     0.029799            1 
 1004000    1.1190065   -7.3078911    358.91137  0.029790121  0.029793044            1 
 1005000    1.0763955   -7.3467519    358.74181  0.029746419  0.029786972            1 
 1006000    1.0869428   -7.3428938     359.3847  0.029770104   0.02978075            1 
 1007000    1.0582696   -7.3131064    359.69558  0.029766268  0.029774864            1 
 1008000    1.0764421   -7.3586426    360.23646  0.029781454  0.029768845            1 
 1009000      1.08823   -7.3308938    360.00662  0.029732955  0.029763097            1 
 1010000    1.0843273   -7.3306365     361.3068  0.029810792  0.029757434            3 
 1011000    1.1042883   -7.3029284    360.95972  0.029752697  0.029751744            2 
 1012000    1.0978632   -7.3050342    361.52799  0.029770091  0.029745957            2 
 1013000    1.1211806   -7.3401488    360.10482  0.029623628  0.029739983            2 
 1014000    1.0831527   -7.3185131    362.33386  0.029777602   0.02973406            2 
 1015000    1.0812684   -7.3137043    362.25204  0.029741546  0.029728301            1 
 1016000    1.0644464   -7.2926629    361.85336  0.029679574  0.029722515            1 
 1017000    1.1000987   -7.3025754    362.38293  0.029693783  0.029716689            1 
 1018000    1.0824682   -7.3121088    362.84831   0.02970271  0.029711102            2 
 1019000    1.0810057   -7.3258224    364.45693  0.029805113  0.029705315            1 
 1020000    1.1061593   -7.3391563    365.21539  0.029837859  0.029699559            1 
 1021000     1.109365   -7.3280056    363.42887   0.02966282  0.029693624            2 
 1022000    1.0951498   -7.3554135    364.79011  0.029744791   0.02968763            1 
 1023000    1.0991042   -7.3609064    363.81326   0.02963614  0.029681564            4 
 1024000    1.0990747   -7.3258289    365.48963  0.029743622  0.029675653            5 
 1025000    1.0907204   -7.3451093    364.43975  0.029629248  0.029669567            1 
 1026000     1.064937   -7.3382755    365.50758  0.029687101  0.029663559            2 
 1027000    1.0859117   -7.3753062    364.09224  0.029543349  0.029657473            1 
 1028000    1.0786024   -7.3730501    364.88258  0.029578679  0.029651221            2 
 1029000    1.1128973    -7.329686    365.10444  0.029567901  0.029644851            3 
 1030000    1.0766452   -7.3576317    365.09601  0.029538512  0.029638764            1 
 1031000    1.0875842   -7.3586069    365.75193  0.029562878  0.029632589            3 
 1032000    1.0852161   -7.3483582    366.42777  0.029588806  0.029626551            1 
 1033000    1.1003252   -7.3362399    366.46232  0.029562949  0.029620394            1 
 1034000    1.0872268   -7.3433523    366.56803  0.029542878  0.029614312            2 
 1035000    1.1174405   -7.3200609    367.92428  0.029623533  0.029608002            2 
 1036000    1.0874015   -7.3426381    366.92936   0.02951491  0.029601737            1 
 1037000    1.0445637   -7.3490235    367.74173   0.02955173  0.029595452            2 
 1038000    1.0836127   -7.3409797    367.73486  0.029522709  0.029589462            3 
 1039000    1.0958225   -7.3269275    369.62544  0.029645929  0.029583447            2 
 1040000    1.0733376    -7.320592    368.01413  0.029488311  0.029577305            2 
 1041000    1.0692131   -7.3390986    369.01927  0.029540447  0.029570956            1 
 1042000    1.0786986   -7.3551641    368.80377  0.029494863  0.029564535            1 
 1043000    1.0904558   -7.3361579    369.86008  0.029550981  0.029558049            5 
 1044000    1.0791494   -7.3109575     368.8252   0.02944007  0.029551551            2 
 1045000     1.070393   -7.3227645    369.67637  0.029479774  0.029545228            1 
 1046000    1.0716986   -7.3117775    370.97136  0.029554761   0.02953887            2 
 1047000    1.1282082   -7.3587838    369.79618  0.029432997  0.029532301            2 
 1048000    1.0759316   -7.3072853    370.40059  0.029452973  0.029525802       -1e+20 
 1049000    1.0966238   -7.3342541    369.45819  0.029350031  0.029519462            3 
 1050000    1.0738522   -7.3878075    371.30203  0.029468415  0.029512884            1 
 1051000    1.0834515   -7.3609288    369.28537  0.029280477  0.029506351            2 
 1052000    1.0730581   -7.3783953    370.48999  0.029348066  0.029499559            1 
 1053000     1.078417   -7.3576838    370.69802  0.029336659   0.02949276            2 
 1054000    1.1010061   -7.3729766      371.683  0.029386702  0.029486039            6 
 1055000    1.0890948   -7.3583495    371.62912  0.029354591  0.029479277            1 
 1056000    1.0743006   -7.3096022    373.02855  0.029437228  0.029472773            2 
 1057000    1.0835481   -7.3482025    372.88587  0.029398129  0.029466404            3 
 1058000    1.0813772   -7.3465268    372.63416  0.029350517  0.029460111            1 
 1059000    1.0722471   -7.3313934    374.51347  0.029470685  0.029453838            1 
 1060000    1.0751724   -7.3413474    373.36332  0.029352462  0.029447288            3 
 1061000    1.0743532   -7.3387341    373.46125  0.029332489  0.029440631            2 
 1062000    1.0888153   -7.3571662    373.75921  0.029328249  0.029433981            2 
 1063000    1.0623819    -7.389152    373.74908  0.029299865  0.029427243            1 
 1064000    1.0782522   -7.3619499    372.98214   0.02921226  0.029420366            2 
 1065000     1.053835   -7.3644675    373.44571  0.029221104  0.029413491            3 
 1066000    1.0512463   -7.3394524    373.26792  0.029179794  0.029406503            3 
 1067000    1.0779594   -7.4030738    374.77258  0.029269961  0.029399489            1 
 1068000    1.0690274   -7.3443879     374.9328  0.029255056  0.029392567            1 
 1069000    1.0651025   -7.3906717    374.96976   0.02923057  0.029385672            1 
 1070000    1.0957092   -7.3595211    375.19332  0.029220663  0.029378709            1 
 1071000    1.0817113   -7.2830612    376.23182  0.029274185  0.029371986            1 
 1072000    1.0993505    -7.362823    376.44448  0.029263408  0.029365157            4 
 1073000    1.0835683    -7.371568    375.82809  0.029188264  0.029358306            1 
 1074000    1.0783006   -7.3637913    376.19555  0.029189599  0.029351463            2 
 1075000    1.0832271     -7.40528    375.93428  0.029142192  0.029344492            2 
 1076000    1.0705767    -7.334027    376.83055  0.029184522   0.02933752            2 
 1077000    1.0702079   -7.3584629    377.55456  0.029213445  0.029330704            1 
 1078000    1.0780119    -7.333418    377.28728  0.029165683  0.029324071            1 
 1079000    1.0741487   -7.3724049    377.69085  0.029169822  0.029317382            2 
 1080000    1.0602531   -7.3234353    378.66779  0.029218194  0.029310714            1 
 1081000    1.0692741   -7.3102808     379.2233  0.029233988  0.029304021            1 
 1082000    1.0829948   -7.3489481    378.40588  0.029144014  0.029297316            1 
 1083000    1.0843184   -7.3784424    377.32917  0.029034254  0.029290355            2 
 1084000    1.0920275   -7.3384018    379.96465  0.029210074  0.029283695            2 
 1085000    1.0662818   -7.3836683    378.15994  0.029044542  0.029277053            1 
 1086000    1.0598589   -7.3590298    379.63466  0.029130959  0.029270331            1 
 1087000    1.0936415   -7.3246723    380.22271  0.029149242  0.029263604            1 
 1088000    1.0692625   -7.3562041    380.33358  0.029130942   0.02925697            2 
 1089000    1.0628991   -7.3835915     379.9456  0.029074502  0.029250004            1 
 1090000    1.0695827   -7.3807226    380.07916   0.02905804  0.029243178            2 
 1091000    1.0831907   -7.3969246    380.08435  0.029031802  0.029236193            1 
 1092000    1.0779611   -7.4119157     380.1482  0.029010089  0.029229165            4 
 1093000     1.050306    -7.388906    381.92906  0.029119324  0.029222158            1 
 1094000     1.083062   -7.4000451     381.7863  0.029081833  0.029215376            2 
 1095000    1.0683982   -7.3739083    380.46595  0.028954791  0.029208526            2 
 1096000    1.0780023   -7.3728562     382.2393  0.029063207  0.029201654            1 
 1097000    1.1050973   -7.3459583    382.09194   0.02902552  0.029194766            2 
 1098000    1.0771562   -7.3410402    382.59979  0.029037628  0.029187887            2 
 1099000    1.0763029   -7.3410198    383.50143  0.029079575  0.029180965            1 
 1100000    1.0675743   -7.3554472    382.77852  0.028998373  0.029174151            2 
 1101000    1.0704071   -7.4028823    383.75196  0.029045713  0.029167218            3 
 1102000    1.0422435   -7.3646638     383.5869  0.029006874  0.029160157            1 
 1103000    1.0826543   -7.3815483     383.6932  0.028988607  0.029153293            2 
 1104000    1.0820409   -7.3719677    384.77407  0.029043936  0.029146405            2 
 1105000    1.0615416   -7.3771498    384.25285  0.028978345  0.029139559            1 
 1106000    1.0555031   -7.3464118    385.10748  0.029016537  0.029132559            1 
 1107000    1.0573842   -7.3487068    384.70127  0.028959746  0.029125796            3 
 1108000    1.0680378   -7.3832594    384.71082  0.028934327  0.029118863            3 
 1109000    1.0588824   -7.4067478    385.37447  0.028958105  0.029112118            5 
 1110000    1.0723517    -7.375624    386.36498   0.02900638  0.029105473            1 
 1111000    1.0969597   -7.3547601     386.1019  0.028960539  0.029098792            2 
 1112000    1.0651318   -7.3654408    386.05317  0.028930843  0.029092207            2 
 1113000    1.0933105   -7.3704476    386.91015  0.028969014  0.029085367            2 
 1114000    1.0872314    -7.331217    388.26968  0.029044709   0.02907874            1 
 1115000    1.0823144   -7.3713026    388.40865  0.029029047  0.029072132            1 
 1116000    1.0735518   -7.3363866    387.52362  0.028936949  0.029065491            2 
 1117000     1.054981   -7.3713099    388.15229  0.028957944  0.029058856            3 
 1118000    1.0556828   -7.3477127    388.79884  0.028980235  0.029052375            2 
 1119000    1.0755867   -7.3759445    387.97134  0.028892712  0.029045636            2 
 1120000    1.0788558   -7.3442383    389.02231  0.028945112  0.029038857            4 
 1121000    1.0613577   -7.4061488    387.22218  0.028785473  0.029032045            1 
 1122000    1.0608323    -7.356401    389.74777  0.028947398    0.0290253            2 
 1123000    1.0828209   -7.3707267    389.59555  0.028910326   0.02901869            3 
 1124000     1.068224   -7.4001233    389.82419  0.028901556  0.029012264            5 
 1125000    1.0766887   -7.3818113    390.71663  0.028941973   0.02900571            1 
 1126000    1.0998315   -7.3924541    390.82206  0.028924072  0.028999242            2 
 1127000    1.0620674   -7.3966496    391.59028  0.028955212  0.028992688            1 
 1128000    1.0642195   -7.4251588    391.09652  0.028893064  0.028986158            3 
 1129000    1.0724557   -7.3594161    392.17732  0.028947248  0.028979694            1 
 1130000     1.062741    -7.369083    392.70383   0.02896046  0.028973376            2 
 1131000    1.0431499   -7.3738283    393.45391   0.02899012  0.028967084            1 
 1132000    1.0461524   -7.3500582    392.99814  0.028930958  0.028960836            1 
 1133000    1.0582618   -7.3570259    393.19355  0.028919796  0.028954531            2 
 1134000    1.0670087   -7.3702251    393.23603  0.028897416  0.028948001            1 
 1135000    1.0327199   -7.3702124    393.59032  0.028897968  0.028941661            2 
 1136000    1.0719373   -7.3512177    394.19592  0.028916954  0.028935402            2 
 1137000    1.0716945   -7.3689671    394.30126  0.028899242  0.028929164            3 
 1138000    1.0647799   -7.4018876    393.02111  0.028780105  0.028922924            3 
 1139000    1.0622965   -7.3755475    394.84184  0.028888048  0.028916832            1 
 1140000    1.0797486   -7.4075271    395.07706  0.028879902  0.028910598            2 
 1141000    1.0688815   -7.3764728    395.13259  0.028858647  0.028904313            2 
 1142000    1.0853072   -7.4184077    395.85881   0.02888637   0.02889809            2 
 1143000    1.0681549   -7.3661599     395.4445  0.028830891   0.02889171            2 
 1144000     1.074367   -7.3584917    396.77121  0.028902331  0.028885315            1 
 1145000    1.0636811   -7.4034471    394.98243  0.028746901  0.028878727            2 
 1146000    1.0678749   -7.3940662    396.28796  0.028816751  0.028872054            1 
 1147000    1.0893788   -7.4010017    395.46187  0.028731609  0.028865315            1 
 1148000    1.1100627   -7.4322369     396.1232  0.028754588  0.028858688            1 
 1149000    1.0708176   -7.3641516    396.77767  0.028777029  0.028852125            1 
 1150000    1.0837309   -7.4042206    395.88014  0.028686967  0.028845481            1 
 1151000    1.0707013   -7.3992561    395.27026  0.028617888  0.028838742            1 
 1152000    1.0820981   -7.3927699    397.27918  0.028738367  0.028832026            1 
 1153000    1.0645959   -7.4002094    398.86777  0.028828257  0.028825513            1 
 1154000    1.0512287   -7.3727598      398.739  0.028793978  0.028819091            4 
 1155000    1.0670633   -7.4079661    399.13302  0.028797476  0.028812482            1 
 1156000    1.0758009   -7.3959694    396.94535  0.028614861  0.028805946            1 
 1157000    1.0709072     -7.41177    397.97042   0.02866396  0.028799274            1 
 1158000    1.0658326   -7.3546303    400.02007  0.028786706  0.028792728            1 
 1159000    1.0698286   -7.3692293    398.27446  0.028636358   0.02878628            1 
 1160000      1.08153   -7.3652874    400.24988  0.028753584  0.028779773            2 
 1161000    1.0838909   -7.4088265    400.06886  0.028715824  0.028773379            3 
 1162000    1.0554746    -7.408608    400.31967  0.028709099  0.028766706            1 
 1163000    1.0433127   -7.3891335    400.82327  0.028720498  0.028760172            1 
 1164000    1.0615186   -7.3965649    401.07862  0.028714105  0.028753779            1 
 1165000    1.0919728   -7.4402236     401.2204  0.028699599  0.028747217            2 
 1166000    1.0594551   -7.3798718    400.89294  0.028651582  0.028740598            2 
 1167000    1.0557883   -7.3778845     402.1174  0.028714467  0.028734325            4 
 1168000    1.0639643   -7.4090115    401.54191  0.028648823  0.028728115            2 
 1169000      1.05288   -7.3997069     403.0495  0.028731786  0.028722014            1 
 1170000    1.0510702   -7.3833586    402.92762  0.028698549  0.028716004            1 
 1171000    1.0626892   -7.3796103    402.46228  0.028640925  0.028709843            2 
 1172000     1.087714   -7.3999109    402.64036   0.02862915   0.02870354            1 
 1173000    1.0610528   -7.3743093    404.08667  0.028707493  0.028697395            2 
 1174000    1.0622032   -7.4018737    403.40472  0.028634634  0.028691349            1 
 1175000    1.0503529   -7.3848685    404.52673  0.028689839  0.028685172            1 
 1176000    1.0475195   -7.3984895    404.92762  0.028693851  0.028678988            1 
 1177000    1.0571235    -7.404544    404.53745  0.028641847  0.028672646            2 
 1178000    1.0672805   -7.3880341    404.89665  0.028642944   0.02866651            1 
 1179000    1.0774203   -7.3840345    405.55596   0.02866525  0.028660391            1 
 1180000    1.0824234   -7.3807699    406.42543  0.028702361  0.028654235            6 
 1181000    1.0515704    -7.399688    406.42997  0.028678378  0.028648302            2 
 1182000    1.0666456    -7.403501    406.82757  0.028682147  0.028642184            2 
 1183000    1.0557207   -7.4199423    405.70033  0.028578496  0.028635938            3 
 1184000    1.0712031   -7.3867768    406.98089  0.028644488  0.028629795            1 
 1185000    1.0703248    -7.399672    407.67734  0.028669293  0.028623688            1 
 1186000    1.0661181   -7.4282426    406.71055  0.028577189  0.028617566            1 
 1187000     1.057909   -7.3969022    408.16561  0.028655266  0.028611538            4 
 1188000    1.0585517   -7.4136448    407.92493  0.028614263  0.028605439            4 
 1189000    1.0870402   -7.3870585    408.48556   0.02862949  0.028599423            2 
 1190000    1.0525203   -7.3829334     408.7575  0.028624474  0.028593349            2 
 1191000    1.0746596   -7.3905628    408.23672  0.028564002  0.028587167            2 
 1192000    1.0518981    -7.387609    408.79836  0.028579303  0.028581057            1 
 1193000    1.0700152   -7.3855262    409.44069  0.028600216  0.028574986            2 
 1194000    1.0553906   -7.4275379    409.31745  0.028567661  0.028569008            2 
 1195000    1.0417852   -7.4224869    410.35454  0.028616077  0.028563021            1 
 1196000    1.0480147   -7.4304144    409.55481  0.028536428  0.028556997            1 
 1197000    1.0398957   -7.4289841     410.3192  0.028565803  0.028550917            3 
 1198000    1.0812271   -7.4259836    410.00287  0.028519955  0.028544767            4 
 1199000    1.0734045    -7.388223    410.82401  0.028553239  0.028538625            3 
 1200000     1.071955    -7.370676    412.63011  0.028654869  0.028532592            1 
 1201000    1.0694474    -7.400509    412.55636  0.028625893  0.028526514            1 
 1202000    1.0468731   -7.4106501    410.68263  0.028472174   0.02852043            1 
 1203000    1.0958022    -7.393045    412.91244  0.028602967  0.028514327            2 
 1204000    1.0520695   -7.3866482    411.39078  0.028473891  0.028508431            1 
 1205000    1.0664931   -7.4337748    412.49482  0.028526612  0.028502599            1 
 1206000    1.0518926   -7.3949267    412.82923  0.028526066  0.028496537            3 
 1207000    1.0383123   -7.4177846     412.6819  0.028492261   0.02849049            1 
 1208000     1.076647   -7.3901233    412.65353  0.028466717   0.02848449            1 
 1209000    1.0551077   -7.3788679    414.09221  0.028542336  0.028478523            3 
 1210000    1.0659098   -7.4302319    413.74821  0.028495056  0.028472512            2 
 1211000    1.0337952   -7.4073307    413.96224  0.028486254  0.028466411            1 
 1212000    1.0564593   -7.3970424    415.03786  0.028536706  0.028460506            2 
 1213000    1.0595235   -7.4125737    415.49074  0.028544293  0.028454719            2 
 1214000     1.066409   -7.4419239    413.80312  0.028404937  0.028448743            1 
 1215000    1.0690299   -7.3794081    416.11379   0.02854004  0.028442983            1 
 1216000    1.0702798   -7.4197354    414.87693  0.028431807  0.028437266            1 
 1217000     1.102366    -7.389057    416.45543  0.028516532  0.028431506            2 
 1218000    1.0618669   -7.3926892    416.81192  0.028517509  0.028425539            1 
 1219000    1.0750797   -7.3831575    417.83771   0.02856424   0.02841978            1 
 1220000    1.0535235   -7.4218807    416.80963  0.028470603  0.028414015            2 
 1221000    1.0614178    -7.395666    417.07741  0.028465562  0.028408177            1 
 1222000    1.0686401   -7.3953474    418.39955   0.02853243  0.028402436            6 
 1223000    1.0734019   -7.4171486     418.4454  0.028512224  0.028396651            3 
 1224000    1.0604955   -7.4267449    417.32991  0.028412984   0.02839073            2 
 1225000    1.0305383   -7.4443562    416.97616  0.028365725  0.028384727            2 
 1226000    1.0607706   -7.3858509    418.70445  0.028460063   0.02837882            1 
 1227000    1.0470137   -7.4112901    417.55756  0.028358976  0.028372804            4 
 1228000    1.0827391    -7.441773    418.56012  0.028403917  0.028366828            2 
 1229000    1.0717277   -7.3585938    418.57144  0.028381573  0.028360922            1 
 1230000    1.0796476   -7.4170147    418.12871  0.028328503  0.028354792            2 
 1231000    1.0553428   -7.4005933    418.73364  0.028346442  0.028348506            3 
 1232000    1.0536275   -7.4168051    417.55159  0.028243478  0.028342278            2 
 1233000    1.0605996   -7.4105276    419.00833  0.028319028  0.028336196            3 
 1234000    1.0407279   -7.3993384    419.43049  0.028324587  0.028329977            2 
 1235000    1.0451069   -7.3907787     419.8706   0.02833135  0.028323868            2 
 1236000     1.071105    -7.427443    419.32487  0.028271634  0.028317719            2 
 1237000    1.0457623    -7.356303    421.11266  0.028369217  0.028311475            2 
 1238000    1.0586781   -7.4012164     419.6275  0.028246331  0.028305337            1 
 1239000    1.0270144   -7.3855613    420.40288  0.028275685  0.028299106            2 
 1240000    1.0714148   -7.4424683    420.34466  0.028248969  0.028293017            2 
 1241000    1.0530967   -7.4247019    420.42681  0.028231723  0.028286803            3 
 1242000    1.0569963   -7.4587538    419.44783  0.028143306  0.028280517            2 
 1243000    1.0534926   -7.4816308    420.04298  0.028160565  0.028273917            2 
 1244000    1.0730746   -7.4150778     421.2103  0.028216124  0.028267613            1 
 1245000    1.0814394   -7.4049949    422.98715  0.028312393  0.028261426            2 
 1246000    1.0427214   -7.4139244    422.04757   0.02822683  0.028255194            1 
 1247000    1.0670652   -7.3809768    422.19406  0.028213984  0.028249011            1 
 1248000    1.0798102   -7.4111934    422.87362  0.028236753  0.028242894            1 
 1249000    1.0634097   -7.4282755    422.43673  0.028184997  0.028236656            1 
 1250000    1.0606842   -7.4716078    422.95815   0.02819721  0.028230408            1 
 1251000     1.051357   -7.3777067    424.31759  0.028265227  0.028224214            1 
 1252000    1.0157437   -7.4297206    423.85907  0.028212132   0.02821791            1 
 1253000    1.0440139   -7.3751275     423.2842  0.028151384  0.028211494            2 
 1254000    1.0705522   -7.3969751    423.28359  0.028128893  0.028205217            2 
 1255000    1.0637306   -7.4355375    425.11906  0.028228357  0.028198907            2 
 1256000    1.0553875   -7.4550541    423.24746  0.028081705  0.028192477            2 
 1257000    1.0399398   -7.4507632    423.34045   0.02806553  0.028185845            2 
 1258000    1.0444842   -7.4306193    424.34023  0.028109448   0.02817928            3 
 1259000    1.0498299   -7.4408637    424.52359  0.028099258  0.028172755            1 
 1260000    1.0279278   -7.3858588    425.13924  0.028117674  0.028166149            1 
 1261000    1.0610701   -7.4292785    424.91102  0.028080295  0.028159697            1 
 1262000    1.0525896   -7.4227565    424.63477  0.028039803  0.028153084            1 
 1263000    1.0840232   -7.4176002    425.82567  0.028096178   0.02814654            3 
 1264000    1.0674552   -7.3939972    425.59185  0.028058534  0.028140082            2 
 1265000    1.0492146   -7.4276238    425.93493  0.028058955  0.028133612       -1e+20 
 1266000    1.0571101   -7.4186618    427.34256  0.028129447  0.028127074            1 
 1267000    1.0473662    -7.432055    425.18128  0.027965093  0.028120433            2 
 1268000    1.0512664    -7.430462    426.61805  0.028037464  0.028113798            2 
 1269000    1.0286207   -7.4476012    425.63871  0.027951058  0.028107174            2 
 1270000    1.0613406    -7.419542    427.03737  0.028020825  0.028100591            3 
 1271000    1.0402026   -7.4217812    427.41469  0.028023517  0.028093936            2 
 1272000    1.0514308   -7.4468227    426.45581  0.027938667  0.028087211            1 
 1273000    1.0346698   -7.4011885    427.28244  0.027970833  0.028080354            1 
 1274000    1.0494673   -7.3975587    428.24797  0.028012034  0.028073663            6 
 1275000    1.0499331   -7.4092982    428.59486  0.028012736  0.028066949            3 
 1276000    1.0713194   -7.4107116    428.13442  0.027960712  0.028060437            1 
 1277000    1.0743012   -7.4457466    427.71313  0.027911324  0.028053864            2 
 1278000    1.0666398   -7.4502545    427.78761  0.027894341   0.02804719            4 
 1279000    1.0540388   -7.4522494     428.6707  0.027930069  0.028040691            2 
 1280000    1.0581094   -7.4085573    430.28835  0.028013565  0.028034248            2 
 1281000    1.0343809   -7.4183331    429.49608  0.027940156  0.028027901            1 
 1282000    1.0592356   -7.3959446    429.74791  0.027934732  0.028021405            1 
 1283000     1.043529   -7.3979468    430.01815  0.027930511   0.02801493            4 
 1284000    1.0341758   -7.4158036     431.4258  0.028000117   0.02800856            1 
 1285000    1.0523928   -7.4139503    430.76655  0.027935574  0.028002197            1 
 1286000    1.0618472   -7.4427591    430.74163  0.027912236   0.02799581            1 
 1287000    1.0391469   -7.4696805    430.27456  0.027860306  0.027989266            2 
 1288000    1.0538027   -7.4214585    431.57492  0.027922808  0.027982892            2 
 1289000    1.0445737   -7.4550483    431.34499  0.027886281  0.027976249            2 
 1290000    1.0429419   -7.4432908    432.14784  0.027916527  0.027969692            2 
 1291000      1.02613   -7.4467303    433.13611  0.027958696  0.027963307            1 
 1292000    1.0617776   -7.4703548    432.26159   0.02788065  0.027956899            1 
 1293000    1.0612554   -7.4031339    432.84366  0.027896601  0.027950336            1 
 1294000    1.0534969   -7.4782789     432.3546  0.027843547  0.027943941            1 
 1295000    1.0288234   -7.4404333    433.16646   0.02787429  0.027937471            4 
 1296000     1.031969   -7.4370584    432.85807  0.027832952  0.027930979            2 
 1297000    1.0553086   -7.4618052    432.21004  0.027769856  0.027924474            1 
 1298000    1.0313361   -7.4610486    434.45819  0.027892796  0.027918083            3 
 1299000    1.0551071   -7.4432883    435.22688  0.027920636  0.027911798            2 
 1300000    1.0466918   -7.4430885    434.95356  0.027881639  0.027905515            1 
 1301000    1.0484505    -7.496924    434.25562  0.027815502  0.027899085            3 
 1302000    1.0552608   -7.3953891    435.21854  0.027855769  0.027892647            4 
 1303000    1.0545203   -7.4458578    435.46466  0.027850132    0.0278862            2 
 1304000    1.0517304   -7.4765263    433.77603  0.027720861  0.027879615            2 
 1305000    1.0447486   -7.4174718    437.60576  0.027944174   0.02787306            1 
 1306000    1.0321416   -7.4357755    436.89562  0.027877464  0.027866596            3 
 1307000    1.0277211   -7.4765493    435.38623  0.027759897  0.027860072            1 
 1308000    1.0607826   -7.4956173     435.5494   0.02774907  0.027853568            2 
 1309000    1.0388954   -7.4413674    435.57993  0.027729815  0.027846942            1 
 1310000     1.045363   -7.4053183      435.864  0.027726718  0.027840301            2 
 1311000    1.0385978    -7.460172    435.10342  0.027657222  0.027833584            2 
 1312000    1.0459339   -7.4554723    436.57134  0.027729379  0.027826771            1 
 1313000    1.0590736   -7.4639906    435.38839   0.02763318   0.02781973            1 
 1314000    1.0485807   -7.4483167    436.51334  0.027683494  0.027812824            2 
 1315000    1.0186122   -7.4630372    436.01058  0.027630582  0.027805988            5 
 1316000    1.0497783   -7.4585854    437.46757  0.027701847  0.027798994            4 
 1317000     1.043138    -7.404256    437.91614  0.027709196  0.027792247            2 
 1318000    1.0372512   -7.4319398    438.56656  0.027729297  0.027785588            2 
 1319000    1.0256832   -7.4548613    437.83047  0.027661768  0.027778892            2 
 1320000    1.0458315   -7.4709516    436.71548  0.027570422  0.027772139            2 
 1321000    1.0506336   -7.4483748     438.2576  0.027646833  0.027765348            1 
 1322000    1.0466035   -7.4829599    437.67684  0.027589312  0.027758494            1 
 1323000    1.0295659   -7.4596321    436.83163   0.02751522  0.027751608            2 
 1324000    1.0531298   -7.4322204      439.994  0.027693479  0.027744827            1 
 1325000    1.0234615   -7.4403186    439.84337  0.027663105   0.02773809            1 
 1326000    1.0454255   -7.4366547    440.25157  0.027667896  0.027731316            1 
 1327000    1.0509947   -7.4204395    439.51966  0.027601084   0.02772465            3 
 1328000    1.0205335   -7.4709398    441.28286  0.027690942  0.027717876            1 
 1329000    1.0296423   -7.4533394    440.60924  0.027627868  0.027711144            2 
 1330000     1.023247   -7.4847569     439.1459  0.027515407  0.027704297            2 
 1331000    1.0254587   -7.4217288    441.37475  0.027634282  0.027697577            1 
 1332000    1.0312555   -7.4325597    441.71275  0.027634682  0.027690891            2 
 1333000    1.0613016   -7.4545084    442.62881  0.027671218   0.02768424            1 
 1334000    1.0183349   -7.4018152    441.87756  0.027603546  0.027677601            2 
 1335000    1.0422704   -7.4527761    441.60642  0.027565944  0.027671076            2 
 1336000    1.0144506   -7.4395488    441.37971   0.02753117  0.027664458            2 
 1337000    1.0378602    -7.440996    442.95167  0.027608556   0.02765787            2 
 1338000    1.0121498   -7.4543037    441.92568  0.027524021  0.027651271            1 
 1339000    1.0361058   -7.4773964    443.43645  0.027597489  0.027644635            4 
 1340000    1.0200167   -7.4777608    441.61397  0.027463555  0.027638189            1 
 1341000    1.0650808   -7.4600503    441.81601  0.027455631  0.027631555            1 
 1342000    1.0482915   -7.4576047    444.64709  0.027610972  0.027624932            2 
 1343000    1.0458328   -7.4479411    444.15582  0.027559929  0.027618435            1 
 1344000    1.0285305   -7.4127129    444.42455  0.027556085  0.027611995            1 
 1345000    1.0145429   -7.4617598    445.10306  0.027577637  0.027605669            2 
 1346000    1.0520974   -7.4569347      445.084  0.027555968  0.027599179            5 
 1347000    1.0311649   -7.4810576    445.01823  0.027531442  0.027592689            1 
 1348000    1.0371104   -7.4303312    445.01022  0.027510523  0.027586247            3 
 1349000    1.0398079   -7.4858916    444.33667  0.027448522  0.027579672            1 
 1350000    1.0398839   -7.4252563    446.02918  0.027532665  0.027572977            2 
 1351000    1.0491782    -7.430173    445.49506   0.02747934   0.02756651            2 
 1352000    1.0331978   -7.4764743    445.69881  0.027471574   0.02756002            1 
 1353000    1.0511275   -7.4346623    445.80877  0.027458042  0.027553665            1 
 1354000    1.0142735   -7.4861581    446.68111  0.027491452  0.027547274            2 
 1355000    1.0406446   -7.4953039    445.16102  0.027377676  0.027540668            3 
 1356000    1.0229277   -7.4453667    446.28437  0.027426522  0.027533967            1 
 1357000    1.0254533   -7.4407047    447.33711   0.02747096  0.027527522            2 
 1358000    1.0423778   -7.4371426    448.78775  0.027539749  0.027521175            1 
 1359000    1.0256312   -7.4745348    448.86188   0.02752403    0.0275148            1 
 1360000    1.0127376   -7.4772452    448.51943  0.027482808  0.027508435            5 
 1361000    1.0408227   -7.4666109    448.67619  0.027472213  0.027502102            2 
 1362000     1.050716   -7.4444795    449.09128   0.02747744  0.027495718            1 
 1363000      1.03318    -7.458956    448.55971  0.027424781  0.027489327            1 
 1364000    1.0324057   -7.4664373    449.22105  0.027445079  0.027482826            1 
 1365000    1.0235065   -7.4596517    449.55983  0.027445655  0.027476508            2 
 1366000    1.0328992   -7.4758817    449.87717  0.027444923  0.027470047            2 
 1367000    1.0170547    -7.435194    450.75677  0.027478467  0.027463721            2 
 1368000    1.0116476   -7.4232395    451.16962  0.027483529  0.027457523            2 
 1369000    1.0144321   -7.4498826     450.8773   0.02744566  0.027451078            1 
 1370000     1.046533   -7.4710393    450.75717  0.027418319  0.027444666            5 
 1371000    1.0412173   -7.4597924    450.71238  0.027395598  0.027438416            2 
 1372000    1.0540223   -7.4684331    453.62504  0.027552541  0.027432312            2 
 1373000    1.0274765   -7.4344596    452.71397  0.027477177  0.027426238            1 
 1374000    1.0258453   -7.4304475    452.92649  0.027470069  0.027420164            4 
 1375000    1.0239669   -7.4858497    451.40916  0.027358131  0.027414001            3 
 1376000    1.0412566   -7.4471432    453.29697  0.027452578  0.027407831            1 
 1377000    1.0341336   -7.4971114    451.50328  0.027324091  0.027401667            1 
 1378000    1.0407795   -7.4714986    453.70004  0.027437109  0.027395432            1 
 1379000    1.0226947   -7.4809561    453.72308  0.027418605  0.027389104            2 
 1380000    1.0301994   -7.4940264    454.18735  0.027426772  0.027382901            2 
 1381000    1.0576761   -7.4932214    454.99397  0.027455586  0.027376856            1 
 1382000     1.040655   -7.4451111     455.8416  0.027486831  0.027370811            1 
 1383000     1.017564   -7.4528479    454.88973  0.027409601  0.027364894            2 
 1384000    1.0441176   -7.4952585    456.36208  0.027478449  0.027358989            1 
 1385000    1.0477404   -7.4515991    455.61381  0.027413586  0.027353092            1 
 1386000    1.0163285   -7.4979186    455.28254   0.02737389  0.027347134            2 
 1387000    1.0253138   -7.4577123    455.55796  0.027370702  0.027341041            1 
 1388000    1.0550814   -7.4736904    454.88679  0.027310686   0.02733501            3 
 1389000    1.0414463   -7.4623043    456.65876  0.027397334  0.027329034            2 
 1390000    1.0524084   -7.4685232    455.95186  0.027335243  0.027322887            6 
 1391000     1.047941   -7.4757787    455.63229  0.027296447  0.027316595            3 
 1392000    1.0044277    -7.503638    455.99223  0.027298385  0.027310378            2 
 1393000    1.0279087   -7.5100114    456.44719  0.027306005  0.027304208            2 
 1394000    1.0132397   -7.4362723    457.77961   0.02736607  0.027298154            2 
 1395000    1.0617186   -7.4461731    456.92446  0.027295368  0.027292035            2 
 1396000    1.0201773   -7.4782665    458.36083  0.027361558  0.027285983            2 
 1397000    1.0219832   -7.4892274    457.91248  0.027315228  0.027279745            1 
 1398000    1.0176472   -7.4940072    458.17664  0.027311435  0.027273498            2 
 1399000    1.0294555   -7.4819717    458.00448  0.027281658  0.027267254            3 
 1400000    1.0167146   -7.4894075    457.19089  0.027213744  0.027260872            1 
 1401000    1.0373849   -7.5019135    457.26489  0.027198721   0.02725442            2 
 1402000    1.0447963   -7.4867644    458.02311  0.027224388  0.027247985            2 
 1403000    1.0355015   -7.4598391     457.5668   0.02717788  0.027241545            1 
 1404000    1.0198899   -7.4993828    457.81898  0.027173491  0.027235107            2 
 1405000    1.0488703   -7.4541338    458.62184   0.02720177  0.027228626            1 
 1406000    1.0113511   -7.5192859    458.27602  0.027161926  0.027222225            2 
 1407000    1.0462645    -7.486766    457.68873  0.027107837  0.027215859            2 
 1408000      1.02528   -7.4971918    459.14187   0.02717459  0.027209427            1 
 1409000    1.0216812   -7.4896792     459.4098  0.027171149  0.027202914            2 
 1410000    1.0294685    -7.493543    460.01729  0.027187783  0.027196536            2 
 1411000     1.018086    -7.494205    459.96124  0.027165205  0.027190129            3 
 1412000    1.0282331   -7.4483156    461.35273  0.027228088  0.027183765            2 
 1413000    1.0148459    -7.470238    460.89105   0.02718159  0.027177561            1 
 1414000    1.0283545   -7.4733697    458.80055  0.027039165  0.027171259            2 
 1415000    1.0200939   -7.4368815    461.21558  0.027162284  0.027164852            2 
 1416000    1.0312407   -7.5001222    459.95552  0.027068945  0.027158579            1 
 1417000    1.0135027   -7.4453299    461.51679   0.02714166  0.027152152            2 
 1418000    1.0247139   -7.5178965    460.42477  0.027058343  0.027145723            2 
 1419000    1.0269512   -7.5170139     461.4475  0.027099336  0.027139338            5 
 1420000    1.0159511   -7.5014912     462.7634  0.027157476  0.027132947            2 
 1421000    1.0336463   -7.4613034    463.56615  0.027185442   0.02712658            1 
 1422000    1.0402155   -7.4953746    462.78026  0.027120268   0.02712029            2 
 1423000    1.0251589   -7.5068943    461.29079  0.027013984  0.027114029            1 
 1424000     1.032659   -7.5101185    462.54934  0.027068665  0.027107546            2 
 1425000    1.0089825   -7.5327034    462.74455  0.027061085  0.027100997            1 
 1426000    1.0158804   -7.4694379    463.08248  0.027061856  0.027094458            2 
 1427000    1.0363449   -7.5409824    461.00038  0.026921302  0.027087922            1 
 1428000     1.010331   -7.4905015    462.11417  0.026967447  0.027081326            1 
 1429000    1.0113352    -7.527078    461.44736   0.02690969  0.027074666            2 
 1430000     1.007795   -7.4656359    463.79757   0.02702783  0.027068074            2 
 1431000    1.0207719   -7.5259766    461.76697  0.026890693  0.027061533            1 
 1432000    1.0225429   -7.5168317    463.30238  0.026961265  0.027054791            2 
 1433000    1.0143064    -7.508861    463.83776  0.026973585  0.027048046            2 
 1434000    1.0521082   -7.5035836    463.55598  0.026938399  0.027041288            2 
 1435000    1.0038074   -7.5051384    463.21687  0.026899935  0.027034614            3 
 1436000    1.0502127   -7.5381111    462.59908   0.02684535  0.027027865            2 
 1437000     1.028291   -7.4529263    464.32264   0.02692662  0.027021185            2 
 1438000    1.0216274   -7.4877062    464.53389  0.026920137  0.027014596            2 
 1439000    1.0122307   -7.4669309    464.51819  0.026900521  0.027008051            3 
 1440000   0.99636407   -7.5023835    464.71582  0.026893277  0.027001368            2 
 1441000    1.0313966    -7.472482    466.55297  0.026980856  0.026994681            2 
 1442000    1.0149485   -7.5149995    464.57005  0.026847552  0.026988115            1 
 1443000    1.0234657   -7.4967608     466.1508  0.026920236  0.026981418            4 
 1444000    1.0352097    -7.492803    465.45318  0.026861333  0.026974775            2 
 1445000    1.0174496   -7.4899013    465.34065  0.026836254  0.026967986            2 
 1446000    1.0364617   -7.5082014     465.7877  0.026843459  0.026961261            2 
 1447000   0.99740476    -7.503249    466.46992  0.026864197  0.026954526            2 
 1448000    1.0273186    -7.473461    466.08217  0.026823329  0.026947814            2 
 1449000     1.039633   -7.4975578    467.39124  0.026880103   0.02694121            2 
 1450000    1.0089893   -7.4726101    467.75744  0.026882611  0.026934572            1 
 1451000    1.0156189   -7.4424436    467.71081  0.026861406  0.026927901            4 
 1452000    1.0105012   -7.5119664    467.37307  0.026823523  0.026921321            2 
 1453000    1.0153345   -7.5136248    467.89306  0.026834885  0.026914673            1 
 1454000     1.034492   -7.4957398    468.29083  0.026839227  0.026908195            1 
 1455000    1.0202799   -7.5258949     469.2377  0.026875011  0.026901584            4 
 1456000    1.0051099   -7.5174484    469.54555  0.026874173  0.026894999            6 
 1457000    1.0171259   -7.5257057    468.59661  0.026801454  0.026888432            2 
 1458000    1.0216348   -7.4928526     470.4553  0.026889306  0.026882007            1 
 1459000     1.025217   -7.4627186    470.83333  0.026892468  0.026875655            2 
 1460000    1.0018307   -7.4944958    470.59571  0.026860486  0.026869271            1 
 1461000    1.0065819   -7.5189037    469.96011  0.026805847  0.026862791            3 
 1462000    1.0271782   -7.4841671    469.46581  0.026759337  0.026856174            2 
 1463000    1.0124221   -7.4846152    470.77578  0.026815663  0.026849447            2 
 1464000    1.0028111   -7.5090719    470.27747  0.026768982   0.02684283            2 
 1465000    1.0409507   -7.4761602    471.24475  0.026805731   0.02683623            4 
 1466000    1.0235031   -7.4431374    472.32479   0.02684884  0.026829674            1 
 1467000    1.0033376   -7.5094799    470.67132  0.026736612  0.026823062            4 
 1468000   0.99235126   -7.4853919    470.18425   0.02669075  0.026816362            4 
 1469000    1.0115171   -7.5210711    470.48185  0.026689463  0.026809783            4 
 1470000    1.0212412   -7.5169659    473.12194  0.026820972  0.026803202            2 
 1471000    1.0302536   -7.5279689    472.11008  0.026745416  0.026796635            4 
 1472000    1.0068298   -7.4821398    472.11125  0.026727312  0.026790039            1 
 1473000    1.0144351   -7.5272832    472.00625  0.026703228  0.026783405            2 
 1474000    1.0062808     -7.52471     471.7051  0.026668086  0.026776818            1 
 1475000    0.9913644   -7.5045638    470.56681  0.026585695   0.02677014            3 
 1476000    1.0025575   -7.5032654    472.38587  0.026670386  0.026763388            4 
 1477000    1.0228535   -7.4867466    473.79476  0.026731819  0.026756675            3 
 1478000    1.0313322   -7.5120326    472.33208  0.026631263  0.026750092            3 
 1479000    1.0157263   -7.5097498    473.70821  0.026690794  0.026743268            1 
 1480000    1.0357479    -7.534494    472.94776  0.026629941  0.026736723            1 
 1481000    1.0051631   -7.5003823    472.53487  0.026588728  0.026729995            3 
 1482000    1.0205651   -7.4981828    475.03191  0.026711196  0.026723336            2 
 1483000    1.0087877   -7.4975919    476.08655  0.026752447  0.026716755            3 
 1484000    1.0128946    -7.507776    474.44093  0.026642011  0.026710143            1 
 1485000    1.0056129   -7.5382809    473.36988  0.026563966  0.026703524            1 
 1486000    1.0232385   -7.5081848    475.08317   0.02664217  0.026696871            2 
 1487000    1.0118463   -7.5258056    474.39336  0.026585595   0.02669017            3 
 1488000   0.99992387   -7.4940696    475.80719  0.026646908  0.026683418            4 
 1489000    1.0185829   -7.4553023    476.67069  0.026677339  0.026676719            1 
 1490000    1.0007952   -7.4968369    474.86875  0.026558655  0.026670173            2 
 1491000    1.0087959   -7.4899362    476.19377  0.026614899  0.026663456            2 
 1492000    1.0202258   -7.5185789    475.61252  0.026564596  0.026656874            1 
 1493000    1.0127779   -7.4855512    475.76954  0.026555567  0.026650298            2 
 1494000   0.99664889   -7.4858532    477.13683  0.026614058  0.026643753            1 
 1495000    1.0100302    -7.504399    475.14336  0.026485137   0.02663711            1 
 1496000    1.0198098   -7.5071999    477.48631  0.026597945  0.026630375            1 
 1497000    1.0068006   -7.4757603    477.64815  0.026589187   0.02662371            3 
 1498000     1.005394   -7.5227749    476.96575  0.026533475  0.026617008            2 
 1499000    1.0025765   -7.5168272    477.12168  0.026524443  0.026610306            3 
 1500000    1.0013177    -7.466133    478.62863  0.026590479  0.026603751            1 
 1501000    1.0243948   -7.5216731    477.33307  0.026500837  0.026597178            4 
 1502000    1.0108669   -7.5409535    477.07221   0.02646872  0.026590505            2 
 1503000    1.0131829   -7.4849941    479.32849  0.026576208  0.026583809            1 
 1504000    0.9969203   -7.5351168    476.07605  0.026378327  0.026577094            2 
 1505000    1.0308025   -7.5354065    477.79022  0.026455716  0.026570373            1 
 1506000    1.0025432   -7.5256112    478.84417  0.026496468  0.026563697            1 
 1507000    1.0016554   -7.5144463    479.13699  0.026495078  0.026556937            3 
 1508000    1.0415527   -7.5083051    478.54553  0.026444824  0.026550197            5 
 1509000    1.0371128   -7.5295366    479.61639  0.026486436  0.026543541            1 
 1510000     1.019399   -7.5168204    479.24081  0.026448168  0.026536878            2 
 1511000    1.0158431   -7.5669093    478.69961  0.026400817  0.026530128            2 
 1512000    1.0042022   -7.5098002    479.91173  0.026450161  0.026523377            1 
 1513000     0.994252   -7.5410548    481.32324  0.026510423  0.026516697            1 
 1514000    1.0226047   -7.5333784    479.98707  0.026419367  0.026509846            2 
 1515000    1.0309279   -7.4956211    481.21152  0.026469281  0.026503152            2 
 1516000    1.0219762    -7.513271    480.32811   0.02640326  0.026496569            1 
 1517000    1.0322521   -7.5245834    480.54897  0.026397988  0.026489868            1 
 1518000    1.0263228   -7.5214784    481.47708  0.026431548  0.026483256            1 
 1519000   0.99792669   -7.5504007    480.39323  0.026354687  0.026476523            1 
 1520000    1.0246554   -7.5184469    480.01429  0.026316573  0.026469848            2 
 1521000    1.0207821   -7.5257296    482.01399  0.026408831  0.026463186            1 
 1522000    1.0104206   -7.4901964    481.22284  0.026348163  0.026456487            1 
 1523000   0.97657284   -7.5130122     481.5951  0.026351231  0.026449785            1 
 1524000    1.0168219   -7.5634185    481.81848  0.026346155  0.026442988            1 
 1525000    1.0025239   -7.5730607    480.08445  0.026234123  0.026436308            2 
 1526000     1.033491   -7.4701045    482.26118  0.026335801  0.026429674            2 
 1527000    1.0032401   -7.5388269    481.35118  0.026268892  0.026423015            2 
 1528000    1.0105137   -7.5123772    482.94768  0.026338769  0.026416161            2 
 1529000    1.0016397   -7.4979943    483.04261  0.026326717  0.026409443            1 
 1530000    1.0282638    -7.507618    483.53794  0.026336489  0.026402719            1 
 1531000    1.0193925   -7.4996224    483.90784  0.026339421  0.026396032            5 
 1532000     1.009532   -7.5288319    484.10889  0.026333164   0.02638931            1 
 1533000    1.0318539   -7.4857955    483.23504  0.026268484  0.026382523            4 
 1534000   0.98564693   -7.5028615    485.46387   0.02637244  0.026375801            2 
 1535000   0.98322031   -7.4954414    483.43284  0.026244997  0.026369017            3 
 1536000   0.99684327   -7.5434003    482.61968  0.026183794  0.026362196            3 
 1537000    1.0051117   -7.5547721      482.626  0.026167101  0.026355307            1 
 1538000   0.99521955   -7.5638805    482.99876  0.026170284  0.026348371            2 
 1539000     1.009675    -7.541859    483.45422  0.026177941  0.026341361            2 
 1540000    0.9860786   -7.5073257    483.82702  0.026181116  0.026334276            2 
 1541000    1.0323106   -7.5745822    483.32463  0.026136958  0.026327128            2 
 1542000   0.99409771     -7.55171    484.81827  0.026200728  0.026320042            1 
 1543000    1.0201478   -7.5260237    484.43326  0.026162954  0.026313053            1 
 1544000    1.0101616   -7.5384995    484.04563  0.026125088  0.026306179            1 
 1545000    1.0233101   -7.5356288    484.56464  0.026136172  0.026299215            1 
 1546000    1.0120128   -7.5413197    483.92948   0.02608503  0.026292287            2 
 1547000    0.9968742   -7.5210912    485.48023  0.026151704  0.026285308            2 
 1548000   0.98438524   -7.5131763    485.42207  0.026131679  0.026278341            1 
 1549000   0.99331686   -7.5430066    486.01104  0.026146494  0.026271338            2 
 1550000   0.99339715   -7.5304104    486.62935  0.026162868  0.026264432            3 
 1551000   0.99456148   -7.5494711    486.55922  0.026142232  0.026257506            2 
 1552000    1.0171953    -7.513892    485.17382     0.026051  0.026250663            2 
 1553000    1.0066098   -7.5225712    487.45331  0.026156541  0.026243712            5 
 1554000    1.0193631   -7.5221916    487.37167  0.026135332  0.026236871            1 
 1555000   0.99268069    -7.595713    485.38105  0.026011846  0.026229932            3 
 1556000   0.99692893   -7.5319208    486.94939  0.026079123  0.026223028            1 
 1557000    1.0112419   -7.5153806     488.6506  0.026153425  0.026216183            2 
 1558000   0.99672631   -7.5470077    488.94698  0.026152492  0.026209423            3 
 1559000    1.0075176   -7.5266866    489.30869  0.026155051  0.026202597            1 
 1560000    1.0033472   -7.5305483    488.96713  0.026120039  0.026195848            2 
 1561000    1.0528615   -7.5584348    488.74435  0.026091413  0.026189003            2 
 1562000    1.0140762    -7.548768    489.11102  0.026094271  0.026182176            2 
 1563000   0.99317567    -7.537575    488.59873  0.026050263  0.026175357            3 
 1564000    1.0002717   -7.5122673    489.40475  0.026076553  0.026168443            2 
 1565000    1.0014269    -7.536555    488.95743  0.026036072  0.026161636            2 
 1566000    1.0056751   -7.5375227    488.43455  0.025991621  0.026154846            1 
 1567000   0.99765888   -7.5504517    488.57299  0.025982397  0.026148062            4 
 1568000    1.0047853   -7.5805355    488.82813  0.025979386  0.026141147            3 
 1569000   0.99321573   -7.5181411    490.85747  0.026070611  0.026134273            1 
 1570000    1.0006337    -7.550147    488.94272  0.025952374  0.026127369            1 
 1571000    1.0025795   -7.5683458    489.51062  0.025965978  0.026120273            3 
 1572000   0.98318698   -7.5507463    489.60015  0.025954207   0.02611316            1 
 1573000   0.99222024   -7.5275081    490.66996  0.025994382  0.026106083            1 
 1574000   0.99105791   -7.5528789    490.11265  0.025948361  0.026099139            1 
 1575000    1.0014948   -7.5318631    490.76397  0.025966347  0.026092216            1 
 1576000     0.992611   -7.4974462    491.15611  0.025970606  0.026085436            2 
 1577000   0.98935029   -7.5221689    491.64874   0.02598017  0.026078774            3 
 1578000   0.98890133   -7.5273283    491.41199  0.025951204  0.026072058            3 
 1579000    1.0080953   -7.5360213    493.02345  0.026019815  0.026065396            2 
 1580000   0.98434156   -7.5400717    491.97596  0.025948099  0.026058613            3 
 1581000   0.99812412   -7.5427476    493.49454   0.02601173    0.0260518            5 
 1582000   0.98417439    -7.556899    492.63843  0.025950191  0.026045032            1 
 1583000    1.0037728    -7.572586     492.2879  0.025915345  0.026038235            3 
 1584000     1.002934   -7.5626004    491.90933  0.025879069  0.026031405            2 
 1585000   0.99934346   -7.5811539     491.2804  0.025829674   0.02602448            2 
 1586000    1.0049476   -7.5710395    493.32219   0.02592067  0.026017689            2 
 1587000   0.99839172   -7.5635071    492.79661  0.025876739  0.026010935            2 
 1588000   0.98630389   -7.5862618    492.58636   0.02584941  0.026004059            2 
 1589000   0.99309681   -7.5560461    494.25499  0.025920652  0.025997104            1 
 1590000    1.0077677   -7.5364261    493.17226  0.025847603  0.025990257            3 
 1591000    1.0088004   -7.5432376    494.91579  0.025922679  0.025983427            1 
 1592000   0.98688767   -7.5600431    493.60394  0.025837727  0.025976557            3 
 1593000   0.97449586   -7.5506399    495.07913  0.025898678  0.025969701            1 
 1594000   0.99799301    -7.563772    493.62456  0.025806386  0.025962767            1 
 1595000    1.0104362   -7.5638228    493.90095  0.025804648  0.025955785            2 
 1596000   0.99069597   -7.5746686    493.13753  0.025748618  0.025948758            2 
 1597000    1.0028705   -7.5812843    493.97215  0.025776046  0.025941677            3 
 1598000    1.0094554   -7.5258295    494.32692  0.025778417   0.02593453            3 
 1599000    1.0166193   -7.5758516    493.07714  0.025697162  0.025927448            2 
 1600000    1.0002342   -7.5590678    494.49177   0.02575478  0.025920444            2 
 1601000   0.99195502   -7.5716908    495.19017  0.025775045  0.025913436            4 
 1602000   0.98878181   -7.5499293    495.85664  0.025793624  0.025906494            3 
 1603000   0.97521349   -7.5708636    494.97046  0.025731465  0.025899498            2 
 1604000    1.0056173   -7.5390621    495.38437  0.025736927  0.025892559            2 
 1605000    1.0253795   -7.5593898    496.83066  0.025795985  0.025885623            1 
 1606000   0.97393651   -7.5039992    496.71197  0.025773763  0.025878785            1 
 1607000     0.997719   -7.5753914    496.67981  0.025756057  0.025871864            3 
 1608000   0.99821978   -7.5675151    495.97441  0.025703483  0.025864924            3 
 1609000    1.0025519   -7.5491718    496.07387  0.025692659   0.02585803            2 
 1610000    1.0018943   -7.5061033    498.88143   0.02582202  0.025850977            2 
 1611000    0.9957228    -7.575707    495.55266  0.025633802  0.025844021            3 
 1612000   0.98394705   -7.5287208     499.2829  0.025810737   0.02583697            2 
 1613000   0.98237002   -7.5806878    497.46791  0.025700967  0.025830012            2 
 1614000   0.98475585   -7.5835389    497.30428  0.025676594   0.02582308            1 
 1615000   0.99830473   -7.5798512    497.81928  0.025687269  0.025816144            2 
 1616000   0.99848605   -7.5738735    497.10269  0.025634421  0.025809093            1 
 1617000   0.97555045   -7.5743358    497.89349  0.025659322  0.025802151            2 
 1618000    1.0026276   -7.5641343    497.29241  0.025612506  0.025795205            2 
 1619000   0.99031267    -7.553642    498.34433   0.02565083  0.025788267            8 
 1620000   0.99503753   -7.5370864    498.66564  0.025651524  0.025781405            1 
 1621000      1.00228    -7.566797    498.18112  0.025610792  0.025774396            2 
 1622000   0.99904563   -7.5688834    497.64955  0.025567692  0.025767323            2 
 1623000    1.0117776   -7.5562078    500.51165  0.025698894  0.025760344            4 
 1624000   0.99242982   -7.5588195    499.21941  0.025616759   0.02575341            2 
 1625000   0.98369867   -7.5104357    500.25535   0.02565412  0.025746525            3 
 1626000     1.009752    -7.514944    500.68922  0.025660579  0.025739575            2 
 1627000   0.99039517   -7.5466846    499.39005  0.025578265  0.025732686            3 
 1628000   0.98159539     -7.56811    500.02207  0.025594905  0.025725654            2 
 1629000    0.9887703   -7.5637987    499.76913  0.025566254  0.025718713            2 
 1630000   0.98152873   -7.5545192    500.74924  0.025600677  0.025711722            3 
 1631000   0.98974676   -7.5875641    499.62037  0.025527303  0.025704748            6 
 1632000    1.0039221   -7.5255877    502.62421  0.025665043  0.025697844            2 
 1633000   0.98679664   -7.5667481    499.23039  0.025476138  0.025691011            1 
 1634000    1.0033728   -7.5545498    500.39156  0.025519765  0.025684155            2 
 1635000    0.9944763   -7.5854544    501.22825  0.025546802  0.025677346            2 
 1636000   0.97730624   -7.5477534    501.86401   0.02556357  0.025670366            3 
 1637000   0.98872065   -7.5953738    501.37663  0.025523144  0.025663538            4 
 1638000    0.9857987   -7.5659639    502.74817  0.025577339  0.025656749            1 
 1639000   0.97001225    -7.543835    501.37929  0.025492134  0.025649939            1 
 1640000    1.0072504   -7.5703125    502.34629  0.025525726  0.025643069            1 
 1641000    0.9843562   -7.5600674    503.36098  0.025561699  0.025636101            2 
 1642000   0.98573521   -7.5439097    502.94227  0.025524882  0.025629186            1 
 1643000   0.98068768   -7.5747683    502.66618  0.025495343   0.02562225            1 
 1644000   0.98878007   -7.5765715     503.1087  0.025502266  0.025615433            2 
 1645000   0.98780101     -7.55049    502.39028  0.025450369  0.025608602            2 
 1646000   0.96058976   -7.6062923    501.67514  0.025398701  0.025601664            2 
 1647000   0.97020377   -7.6505072    501.17417  0.025357932  0.025594673            2 
 1648000   0.98660531   -7.5532058    503.58772   0.02546459  0.025587711            2 
 1649000   0.98202025   -7.5698524     504.1142  0.025475753  0.025580808            3 
 1650000   0.98432926   -7.5821279    504.07368  0.025458267  0.025573935            2 
 1651000   0.96725606   -7.5992827    505.04036  0.025491639  0.025567056            2 
 1652000   0.97594172   -7.6080763    503.43909  0.025395434  0.025560135            2 
 1653000   0.98510823   -7.5700033    504.96679  0.025457088  0.025553172            1 
 1654000   0.98490956   -7.5686869    504.76152  0.025431354  0.025546249            1 
 1655000   0.99555698   -7.6141014    502.87812  0.025321154  0.025539223            2 
 1656000   0.99207788   -7.5781916    505.12002   0.02541868  0.025532297            1 
 1657000   0.97895617   -7.6116628    506.81096  0.025488381   0.02552536            2 
 1658000   0.99811053   -7.6117603    504.24567  0.025344073  0.025518463            1 
 1659000   0.99362896   -7.5790576    506.19353  0.025426639   0.02551152            2 
 1660000   0.96469943   -7.5689202    506.55722  0.025429579  0.025504639            2 
 1661000   0.97791901   -7.5850678    505.09674  0.025340996  0.025497737            1 
 1662000   0.98654684   -7.5715798     506.4056  0.025391376  0.025490913            2 
 1663000   0.98868953   -7.5874878    506.80966  0.025396355  0.025484117            2 
 1664000   0.98484848   -7.5775589    506.86972    0.0253841  0.025477339            4 
 1665000   0.98078193   -7.5718945     508.3829   0.02544459  0.025470556            1 
 1666000   0.98098705   -7.5853688    507.94053  0.025407189   0.02546368            1 
 1667000   0.99988265   -7.5522753    506.88352  0.025339108  0.025456845            2 
 1668000   0.99863305   -7.5370744    507.57344  0.025358385  0.025450085            2 
 1669000    1.0077635   -7.5900111    506.69112  0.025299137  0.025443331            2 
 1670000    0.9780642   -7.5966392    507.20515  0.025309638  0.025436445            2 
 1671000   0.97089109   -7.5835142    507.32675  0.025300556  0.025429732            2 
 1672000   0.96532289   -7.5980207    507.06614  0.025272435   0.02542299            1 
 1673000   0.96394824   -7.6207544    508.39936  0.025323738  0.025416152            1 
 1674000   0.99499298   -7.5770487    508.44482  0.025310873  0.025409355            3 
 1675000   0.96724284    -7.573625    509.94433  0.025370365  0.025402695            2 
 1676000   0.97973414   -7.5920102    509.10715  0.025313601  0.025396032            3 
 1677000   0.97203115   -7.5866352    509.86605  0.025336218  0.025389273            2 
 1678000   0.98760008     -7.58765    509.42487  0.025299209  0.025382617            1 
 1679000    1.0013572   -7.6216837    510.09846  0.025317573  0.025375857            3 
 1680000    1.0160506    -7.580189     510.8491  0.025339737  0.025369097            2 
 1681000   0.96475126   -7.5892567    509.90409  0.025277815  0.025362422            2 
 1682000   0.95788057   -7.6122554    509.30832   0.02523327   0.02535562            1 
 1683000   0.97674627   -7.5693984    511.38293  0.025321001  0.025348956            3 
 1684000   0.97579435   -7.5253995    510.77579   0.02527592  0.025342259            2 
 1685000   0.97711478   -7.5572324    511.43968  0.025293753  0.025335543            2 
 1686000   0.98865685   -7.6094289    510.16942  0.025215966  0.025328726            2 
 1687000   0.98687038   -7.6273125     509.6774  0.025176714  0.025321845            5 
 1688000   0.98433028   -7.5686673    511.40683  0.025247178  0.025315035            1 
 1689000   0.97667976   -7.5825349    511.49399   0.02523653  0.025308225            1 
 1690000   0.97739694   -7.6552818    508.85191  0.025091317  0.025301222            1 
 1691000    0.9875359   -7.6098874     511.2496  0.025194638   0.02529425            2 
 1692000   0.97232341   -7.6022319    511.20156  0.025177382  0.025287294            1 
 1693000   0.99687948   -7.6009794    509.31809  0.025069802  0.025280338            2 
 1694000   0.98334236   -7.6304286    510.97514  0.025136518  0.025273328            1 
 1695000    0.9976839   -7.6063049    510.58151  0.025102336  0.025266353            3 
 1696000   0.96420607   -7.6258992    510.81428  0.025098972  0.025259423            2 
 1697000     1.001559   -7.6094265    511.70363  0.025127854   0.02525255            2 
 1698000   0.98661301   -7.6084781    512.37025  0.025145772  0.025245713            1 
 1699000    0.9864524   -7.6092405    511.85851  0.025105872  0.025238887            2 
 1700000   0.96155417   -7.6071351    511.73635  0.025085115  0.025232065            2 
 1701000   0.98083899   -7.6140077    513.30334  0.025147136  0.025225213            1 
 1702000   0.98222212   -7.5933538    512.71611  0.025103609  0.025218357            1 
 1703000   0.97514661   -7.5796622    512.96963  0.025101274  0.025211377            2 
 1704000    0.9997141   -7.6345273    513.05752  0.025090841  0.025204492            2 
 1705000   0.98305337   -7.5812798    513.79899  0.025112365  0.025197647            1 
 1706000   0.98222053   -7.6098197    513.79482  0.025097441  0.025190742            2 
 1707000   0.96872365    -7.621599    513.25584  0.025056427  0.025183827            2 
 1708000     0.966552   -7.6396126    513.09573  0.025033945  0.025176907            1 
 1709000   0.97887391   -7.6068384    514.36745  0.025081307  0.025170002            2 
 1710000   0.97506714    -7.616348    513.62692  0.025030552  0.025163081            2 
 1711000   0.96999918   -7.5821953    514.67983  0.025067204  0.025156142            2 
 1712000   0.99329588    -7.575289    515.71013  0.025102713  0.025149228            2 
 1713000   0.96550458   -7.5974249     514.6191  0.025034982   0.02514233            2 
 1714000   0.97827851   -7.5565883    514.12983  0.024996589  0.025135407            1 
 1715000   0.96849799   -7.5799541    514.31438  0.024990981  0.025128495            2 
 1716000   0.95915375   -7.5544558     515.6156  0.025039608  0.025121662            3 
 1717000   0.95688153   -7.5670742    515.48752  0.025018808  0.025114761            2 
 1718000   0.96255581   -7.5986797    515.56147  0.025007832  0.025107952            2 
 1719000   0.95561075   -7.5778695    515.43753  0.024987276  0.025101003            2 
 1720000   0.96616901   -7.6072496    516.36582  0.025017724  0.025094164            1 
 1721000   0.94532793   -7.5995552    515.45687  0.024959174  0.025087287            1 
 1722000   0.98541974   -7.5773329      518.321  0.025083285  0.025080519            1 
 1723000   0.99318781   -7.5433696    516.70405  0.024990523  0.025073753            3 
 1724000   0.98018919   -7.6014788     515.2493  0.024905709  0.025066916            3 
 1725000   0.97461142   -7.6070093    516.81183  0.024966755  0.025060033            2 
 1726000   0.97996042   -7.5834514    516.89265  0.024956192  0.025053177            2 
 1727000    0.9695425   -7.5773987    516.48465  0.024922054  0.025046239            1 
 1728000    0.9852218   -7.5739802    516.63907  0.024915078  0.025039395            2 
 1729000   0.94352644   -7.6198847    517.47792  0.024941099  0.025032494            2 
 1730000   0.96415253   -7.6161378    516.27065  0.024868528  0.025025647            6 
 1731000   0.97145807   -7.5815185    517.27359  0.024902445  0.025018746            1 
 1732000   0.98433111   -7.5767189    518.31329  0.024938091  0.025011841            1 
 1733000   0.96895337   -7.6025606    517.13509  0.024867046  0.025005032            3 
 1734000   0.97516513   -7.5907552    519.41716  0.024962378  0.024998251            2 
 1735000   0.95427781   -7.5654297    519.07008   0.02493132  0.024991466            1 
 1736000   0.98018346    -7.592327    518.20787   0.02487557  0.024984718            1 
 1737000   0.97586506   -7.6090546    518.41324  0.024871101  0.024977931            2 
 1738000   0.97475326   -7.6189165    519.58907   0.02491317  0.024971248            1 
 1739000    0.9800599   -7.5753805    519.68194  0.024903294   0.02496454            2 
 1740000   0.96577242   -7.5934748    521.21491    0.0249624  0.024957857            2 
 1741000   0.95324218   -7.6033639    519.32917  0.024857801  0.024951221            2 
 1742000   0.96929215   -7.5960487    520.32505  0.024891171  0.024944579            2 
 1743000   0.95975977   -7.5913079    520.84249   0.02490163  0.024938005            1 
 1744000   0.98278264   -7.5937439    521.77887  0.024932094  0.024931444            3 
 1745000   0.98067733   -7.5995908    521.76969  0.024917368  0.024924797            2 
 1746000   0.97634355   -7.6063756    521.20507  0.024876149  0.024918098            3 
 1747000   0.95487647   -7.5670788    520.79779  0.024842482  0.024911436            2 
 1748000   0.98113064   -7.6048133    521.74963  0.024873648  0.024904746            2 
 1749000   0.95393236   -7.6282284    521.46306  0.024845772   0.02489801            6 
 1750000   0.97745737   -7.6075117    522.09871  0.024861843  0.024891237            2 
 1751000   0.95253097   -7.5897303    521.87987   0.02483723  0.024884497            2 
 1752000    0.9665457   -7.5847991    522.76551  0.024865178   0.02487789            2 
 1753000   0.95389334   -7.6185172    522.68177  0.024847013  0.024871314            3 
 1754000   0.99289582   -7.6243766    521.97104   0.02479908  0.024864642            2 
 1755000   0.95474972   -7.5982498    522.21685  0.024796621  0.024857991            2 
 1756000   0.96527262   -7.5962715    523.10727  0.024824756  0.024851326            1 
 1757000   0.96274576   -7.6015319    523.24359  0.024817093   0.02484459            2 
 1758000    0.9965204   -7.6292403     523.4231  0.024811486  0.024837953            1 
 1759000   0.98407265   -7.6079678    524.21139  0.024834726   0.02483134            2 
 1760000   0.97061217   -7.6003655    524.10995  0.024815812  0.024824752            2 
 1761000    0.9658982   -7.5785844    524.26829  0.024809213  0.024818254            2 
 1762000   0.97940198   -7.6023462    523.68453  0.024767524  0.024811693            1 
 1763000   0.97498956   -7.6108467    523.94072  0.024765585  0.024805055            1 
 1764000   0.95487506   -7.6427772    522.98879  0.024706576  0.024798433            1 
 1765000     0.964967   -7.5840668     524.8315   0.02477958  0.024791781            1 
 1766000    0.9670757   -7.6492245    523.60901  0.024707862  0.024785162            3 
 1767000   0.96302773   -7.6040194     524.0949  0.024716794  0.024778476            2 
 1768000   0.95922885   -7.6082269    524.92338  0.024741864  0.024771742            3 
 1769000   0.97133162   -7.6084946    524.20177  0.024693884  0.024765042            6 
 1770000   0.97058442   -7.5947626    525.02606  0.024718741  0.024758374            2 
 1771000   0.97745672   -7.6178798    525.13882  0.024710089  0.024751753            3 
 1772000   0.95554538   -7.6231893    524.97248  0.024688322  0.024745245            2 
 1773000   0.95969131   -7.6369139    524.14779  0.024635636  0.024738648            3 
 1774000   0.95388507   -7.6446936     523.7198  0.024601644  0.024732043            2 
 1775000   0.96764268   -7.6298525    525.06231  0.024650813  0.024725508            2 
 1776000   0.98985777   -7.6131344    527.00809  0.024728232   0.02471901            2 
 1777000   0.96433939   -7.6312583    527.09255  0.024718278  0.024712564            4 
 1778000   0.96419772   -7.6365653    527.45268  0.024721254  0.024706147            2 
 1779000   0.97104138   -7.6234291    526.99657  0.024685993  0.024699673            3 
 1780000   0.95434151   -7.6077313    527.31626  0.024687091  0.024693181            1 
 1781000   0.96279051   -7.6071187    527.85198  0.024698296  0.024686688            1 
 1782000   0.97800115   -7.6614577    525.83901  0.024590302  0.024680166            2 
 1783000    0.9632176   -7.6423212    527.64435  0.024660888  0.024673617            1 
 1784000   0.96224992   -7.6394897    528.53557  0.024688694  0.024667147            2 
 1785000   0.95435039   -7.6054435    528.70485  0.024682766  0.024660774            1 
 1786000   0.98878251   -7.6288833    529.24538  0.024694167  0.024654384            2 
 1787000   0.95419264   -7.6499559    529.14572  0.024675701  0.024647944            1 
 1788000   0.96192605   -7.6664618    530.07777   0.02470534  0.024641637            2 
 1789000   0.98550563   -7.6373787    529.01806  0.024642168  0.024635148            2 
 1790000    0.9711571    -7.670994    529.10272  0.024632343  0.024628736            2 
 1791000   0.97770255   -7.6050301    530.66049   0.02469107  0.024622323            1 
 1792000   0.96201873   -7.6306694    530.71595  0.024679871  0.024615946            2 
 1793000   0.97468978   -7.6289464    529.86179  0.024626408  0.024609488            1 
 1794000   0.95129536   -7.6365985    530.23094  0.024629828   0.02460303            3 
 1795000   0.95306839   -7.6445453    530.22817  0.024615978  0.024596541            2 
 1796000   0.94862703    -7.643446    529.44916  0.024566127  0.024590164            1 
 1797000   0.97773412   -7.6481079    529.46089     0.024553  0.024583769            1 
 1798000   0.98628887   -7.6123776    531.61683  0.024639267  0.024577257            2 
 1799000   0.94386801   -7.6128651    531.61984  0.024625711  0.024570856            1 
 1800000   0.96766403   -7.6284457    531.20874  0.024592997  0.024564416            2 
 1801000   0.94429174   -7.6667557    530.67247  0.024554529  0.024557914            1 
 1802000   0.94613533   -7.6306795     532.2262  0.024612754  0.024551429            3 
 1803000     0.972193   -7.6462392     531.4927  0.024565201  0.024544993            1 
 1804000   0.97063755   -7.6500753     530.6675  0.024513466  0.024538557            1 
 1805000   0.97064702   -7.6167225    531.26866  0.024527639  0.024532126            1 
 1806000   0.95580808   -7.6408264     531.5799  0.024528419  0.024525634            3 
 1807000   0.98494189   -7.6205597    534.34118  0.024642187  0.024519335            2 
 1808000   0.96059693   -7.6744911    532.94542  0.024564225   0.02451299            2 
 1809000   0.96310807   -7.6666518     532.1119  0.024512249  0.024506603            4 
 1810000   0.96106162   -7.6506071    534.01304  0.024586236  0.024500203            1 
 1811000   0.96345984   -7.6249159    535.34551  0.024633973  0.024493829            2 
 1812000   0.98799965   -7.6596964    532.12885  0.024472445  0.024487549            2 
 1813000   0.95980623   -7.6525955    534.54963  0.024570216  0.024481282            2 
 1814000   0.94134122   -7.6317312    535.00293  0.024577496  0.024474983            3 
 1815000   0.96970956   -7.6305679    535.76261  0.024598834  0.024468688            2 
 1816000   0.96898772   -7.6539909     534.3158  0.024518897  0.024462381            1 
 1817000   0.95715367   -7.6562621    533.82095  0.024482707  0.024456094            1 
 1818000   0.96769806   -7.6401756    534.35279  0.024493619  0.024449852            1 
 1819000   0.96192513    -7.682933    533.87672  0.024458343  0.024443584            5 
 1820000   0.97165724   -7.6388485    535.48766  0.024518666  0.024437343            2 
 1821000   0.94923278   -7.6316348    534.92118  0.024479278   0.02443105            3 
 1822000   0.96058468   -7.6332724    534.07294  0.024427046  0.024424789            1 
 1823000   0.95911595   -7.6524627    534.96629  0.024454484  0.024418552            3 
 1824000   0.97344566   -7.6700467    535.11579  0.024447907  0.024412241            3 
 1825000    0.9629204   -7.6573366    536.11123  0.024479965  0.024405918            2 
 1826000   0.95912994   -7.6385345    535.67369  0.024446591  0.024399598            2 
 1827000   0.96509995   -7.6750853     537.3778  0.024510938  0.024393339            2 
 1828000   0.97438352   -7.6370769    538.35313  0.024541992  0.024387061            3 
 1829000   0.97139789   -7.6973698    535.68304  0.024406918  0.024380796            5 
 1830000   0.97372302   -7.6575306    536.04318  0.024409981  0.024374307            1 
 1831000   0.93820855   -7.6527849    536.17799  0.024402785  0.024367842            2 
 1832000   0.96324596   -7.6358819    536.50383  0.024404286  0.024361483            1 
 1833000   0.97144171   -7.6335793    537.45361  0.024434152  0.024355161            1 
 1834000   0.97414217   -7.6210932    538.11245  0.024450766  0.024348926            2 
 1835000   0.97980122   -7.6430115     537.4621  0.024407906  0.024342642            2 
 1836000   0.94783778   -7.6327678     538.4297   0.02443853  0.024336302            1 
 1837000   0.95711509   -7.6331879    536.96902  0.024358965  0.024329987            2 
 1838000   0.95699599   -7.6303076    538.17674  0.024400469  0.024323619            1 
 1839000   0.96225321   -7.7080104    535.77027  0.024278153  0.024317303            2 
 1840000   0.95837312   -7.6313129    538.17068  0.024373672  0.024310931            4 
 1841000   0.96181592    -7.623728    537.87787  0.024347179  0.024304623            2 
 1842000   0.95334164   -7.6795503    538.54117  0.024363969  0.024298301            1 
 1843000   0.95822296   -7.6119995    538.42478  0.024345486  0.024292005            3 
 1844000   0.95333775    -7.641648    540.06739  0.024406516  0.024285776            1 
 1845000   0.95255943   -7.6507626    539.27815   0.02435764   0.02427946            2 
 1846000   0.95789966   -7.6406108    539.55953  0.024357147  0.024273109            1 
 1847000   0.96365008   -7.6928095    539.00273  0.024318838  0.024266839            2 
 1848000   0.95837442   -7.6155067    540.45631  0.024371226  0.024260569            8 
 1849000   0.96698668   -7.6643152    539.63241  0.024320913  0.024254432            1 
 1850000   0.96282345   -7.7027348    538.48356  0.024256016  0.024248188            2 
 1851000   0.96138555   -7.6925258    538.72632  0.024253841  0.024241827            4 
 1852000   0.96135331   -7.6601277    540.61009  0.024325508  0.024235495            1 
 1853000   0.95012978   -7.6666588    538.96662   0.02423847  0.024229209            3 
 1854000   0.96682876   -7.6390344    541.14051  0.024323108  0.024222874            2 
 1855000   0.95308008   -7.6811842     538.9233  0.024210391  0.024216596            2 
 1856000    0.9596088   -7.6145677    542.07504  0.024338858  0.024210313            2 
 1857000   0.95106623   -7.6708654    540.21282  0.024242183  0.024204121            2 
 1858000   0.94668259   -7.6440941    542.24342  0.024320211  0.024197885            2 
 1859000   0.94650149   -7.6797429    539.95198   0.02420441  0.024191669            3 
 1860000   0.95603778   -7.6668115    540.46962  0.024214589  0.024185411            2 
 1861000   0.94597848   -7.6402702    541.42569  0.024244389  0.024179129            1 
 1862000   0.94479027   -7.6389598    542.73587  0.024290005  0.024172898            1 
 1863000   0.96061951   -7.6179392    542.90092   0.02428435  0.024166597            2 
 1864000   0.93691084   -7.6271539    542.74955  0.024264554  0.024160409            4 
 1865000    0.9454668   -7.6085833    544.89077  0.024347219  0.024154252            2 
 1866000   0.96782255     -7.65104     542.4423  0.024224826  0.024147952            1 
 1867000   0.97266728   -7.6614408    543.44456  0.024256586  0.024141651            3 
 1868000   0.94185614   -7.6603974    543.28475  0.024236472  0.024135466            1 
 1869000   0.96699775   -7.6612773    543.16426  0.024218132  0.024129227            2 
 1870000   0.95479222   -7.6156038    544.47836  0.024263741  0.024122929            2 
 1871000   0.94084034    -7.661278    544.04974  0.024231683  0.024116639            6 
 1872000   0.95082705   -7.6386549    543.39362  0.024189531  0.024110411            1 
 1873000   0.94375609     -7.66512    543.17205  0.024166758  0.024104079            1 
 1874000    0.9409236   -7.6572099    543.85708  0.024184324  0.024097772            5 
 1875000   0.97740215    -7.634105    543.80647  0.024169177   0.02409157            4 
 1876000   0.92827046   -7.6480904    544.54492  0.024189095  0.024085349            1 
 1877000   0.95384505   -7.6576395    544.53882  0.024175938  0.024079146            1 
 1878000   0.94350658   -7.6612611     543.5268  0.024118158  0.024072864            2 
 1879000   0.96132317   -7.6584543    543.48754  0.024103581  0.024066621            2 
 1880000    0.9353064   -7.6357664    545.57006   0.02418307    0.0240604            1 
 1881000    0.9669482    -7.644741    546.18587  0.024197496  0.024054258            1 
 1882000   0.97069426   -7.6638968    544.72427   0.02411992   0.02404814            2 
 1883000     0.935126    -7.670122    544.99958  0.024119295  0.024041941            3 
 1884000   0.94399553   -7.7082261    544.08628  0.024066095  0.024035721            3 
 1885000   0.94315612   -7.6943697    545.69482  0.024124439  0.024029413            3 
 1886000   0.96050199   -7.7058519    545.21128  0.024090283  0.024023243            2 
 1887000   0.96727058     -7.64092    546.15759  0.024119307  0.024017133            3 
 1888000   0.93966404   -7.6409137    546.39346  0.024116943  0.024011063            2 
 1889000   0.94456667   -7.6380018     548.5996    0.0242015  0.024005042            3 
 1890000   0.95680631   -7.6675917    547.46093  0.024138489  0.023998985            1 
 1891000   0.94757932   -7.7113922    545.27913  0.024029575  0.023992904            1 
 1892000   0.94289499   -7.6551509    548.08538  0.024140476    0.0239867            2 
 1893000   0.94305436   -7.6588142    547.83768   0.02411682  0.023980622            1 
 1894000   0.95557232   -7.6962785    548.30189  0.024124511  0.023974566            2 
 1895000   0.95802365   -7.6675457    546.79018  0.024045302  0.023968442            1 
 1896000   0.95122789   -7.7128853    547.47005  0.024062502  0.023962351            4 
 1897000   0.96919891   -7.6999413    548.03309  0.024074551  0.023956097            1 
 1898000   0.97593546   -7.7184234    547.90117  0.024056075  0.023949944            1 
 1899000    0.9389047   -7.6588423    547.10646  0.024008534  0.023943831            1 
 1900000   0.95888756   -7.6684238    547.57889  0.024016618  0.023937736            2 
 1901000   0.95505514   -7.6260995    549.54092  0.024089993  0.023931707            4 
 1902000   0.96259384   -7.6755587    549.95895  0.024095643  0.023925684            2 
 1903000   0.94434955   -7.6621784    548.13507  0.024003112  0.023919667            2 
 1904000   0.92227843   -7.6453929     550.0523  0.024074418  0.023913672            2 
 1905000   0.94267628   -7.6864941    549.28339  0.024028145   0.02390767            3 
 1906000   0.94974329   -7.6662799    549.72676  0.024034923  0.023901638            1 
 1907000   0.93513611   -7.6796221    552.10595  0.024126287  0.023895587            1 
 1908000   0.95373799   -7.6398705    550.15725  0.024028531  0.023889589            1 
 1909000   0.95922709    -7.687062    550.66591  0.024038149  0.023883537            2 
 1910000   0.93205131    -7.710166    548.89725  0.023948397  0.023877407            4 
 1911000   0.96261991   -7.6836838    550.35808  0.023999568  0.023871392            1 
 1912000   0.95409744   -7.7055543    549.99553  0.023971214  0.023865368            1 
 1913000   0.93087215   -7.6828343    550.60913  0.023985412  0.023859331            2 
 1914000   0.94077723   -7.6910828    550.23378  0.023956539   0.02385333            2 
 1915000   0.95223936   -7.6860902      549.881  0.023928677  0.023847301            3 
 1916000   0.94018349   -7.6709683    553.70939  0.024082698  0.023841309            4 
 1917000   0.93921436   -7.6781478    553.05346  0.024041622   0.02383546            4 
 1918000   0.94019124   -7.6975176    551.91082  0.023979441  0.023829458            1 
 1919000   0.94837138   -7.6784434    551.73237  0.023959196   0.02382344            1 
 1920000   0.94114642   -7.6761871      550.648  0.023899653  0.023817442            2 
 1921000   0.95107472   -7.6403892    553.54564  0.024012912  0.023811507            2 
 1922000   0.96081467   -7.6912796     553.0655    0.0239796  0.023805676            2 
 1923000   0.95052984   -7.6821245    552.59538  0.023946758  0.023799728            2 
 1924000   0.94443095   -7.6678439    553.68301  0.023981419  0.023793786            1 
 1925000   0.94328389   -7.6629596    553.95073  0.023980551  0.023787879            2 
 1926000   0.94730305   -7.6770697    553.00107  0.023927011  0.023781883            1 
 1927000    0.9537576   -7.6867824     552.7807  0.023905064  0.023775875            6 
 1928000   0.93880766   -7.6787497    553.52187    0.0239247  0.023769859            2 
 1929000   0.93355638   -7.6904162    552.72011  0.023877662  0.023763837            1 
 1930000   0.94714295   -7.6764603    552.92273  0.023874038  0.023757772            1 
 1931000   0.92730858   -7.6917378    554.34699  0.023923139  0.023751699            2 
 1932000   0.94677381   -7.6897432    554.78496  0.023929648  0.023745676            1 
 1933000   0.92369344   -7.6902738    552.97284  0.023839146  0.023739619            3 
 1934000   0.93967036   -7.6930032    553.74793  0.023860218  0.023733592            3 
 1935000   0.94473944   -7.6447505     556.4381  0.023963742  0.023727646            2 
 1936000    0.9401034   -7.6648057    556.01698  0.023933238  0.023721711            2 
 1937000   0.95057832   -7.7181217    554.27134  0.023845781  0.023715703            1 
 1938000   0.92392457   -7.6891697    555.17137  0.023872178  0.023709644            2 
 1939000   0.93287147   -7.6883199    553.69022   0.02379621  0.023703501            2 
 1940000    0.9484423   -7.6892165    556.21698  0.023892482  0.023697433            2 
 1941000   0.94361412   -7.7182517    554.29059  0.023797467  0.023691335            2 
 1942000   0.94386845   -7.6830059     554.0333  0.023774172  0.023685264            1 
 1943000   0.93006313    -7.685386    554.62589  0.023787351  0.023679125            1 
 1944000   0.97212289   -7.7188501    554.91637  0.023787567  0.023673049            2 
 1945000   0.94969789   -7.7000121    554.82837  0.023771567  0.023666984            2 
 1946000   0.93089662   -7.6942364    556.34117  0.023824134  0.023660918            2 
 1947000   0.95635322   -7.6874751    556.03187  0.023798659  0.023654835            1 
 1948000   0.92792439   -7.6873527    556.45451  0.023804522  0.023648813            4 
 1949000    0.9523596   -7.6825473    556.34302  0.023787541  0.023642783            1 
 1950000   0.94508955   -7.6847439    554.78534  0.023708775  0.023636736            2 
 1951000   0.92426977   -7.6816176    556.06731   0.02375138  0.023630695            1 
 1952000   0.91652897   -7.6894174    556.16691  0.023743465  0.023624601            2 
 1953000   0.95912895   -7.6785112    555.82145  0.023716566  0.023618551            4 
 1954000    0.9321443   -7.6937118    555.72181   0.02370018  0.023612409            2 
 1955000   0.96576215   -7.6965067    556.14057  0.023705907  0.023606284            1 
 1956000   0.93695656   -7.7307191    555.81306  0.023679834  0.023600198            1 
 1957000   0.94438231   -7.7097522    557.50291  0.023739691  0.023594048            2 
 1958000   0.94726813   -7.6784088    557.86707  0.023743066  0.023587943            1 
 1959000   0.94931061   -7.6876026    557.85704  0.023730519  0.023581795            3 
 1960000   0.93392206   -7.6886338    557.22967  0.023691738  0.023575652            1 
 1961000   0.95902356   -7.6809914     556.6525  0.023655129  0.023569577            2 
 1962000   0.91388767   -7.6986937    557.08325  0.023661368  0.023563514            4 
 1963000   0.95070584    -7.697456    557.29323  0.023658228  0.023557366            2 
 1964000   0.93032045   -7.7036765    556.40277    0.0236084   0.02355123            3 
 1965000   0.91673171   -7.6800363    557.04366  0.023623565  0.023545102            2 
 1966000   0.94131878   -7.6800453     558.4136  0.023669617  0.023538908            2 
 1967000   0.94292051   -7.7362685    559.69445  0.023711848  0.023532737            2 
 1968000   0.95020159   -7.7198869    558.44004  0.023646682  0.023526587            2 
 1969000   0.92747053   -7.6818385    558.20681  0.023624801  0.023520496            3 
 1970000   0.92898362   -7.7225722    559.97694  0.023687688  0.023514395            4 
 1971000   0.93647659   -7.6727243    560.43351  0.023694974  0.023508368            2 
 1972000   0.92817684   -7.7032604    560.07001  0.023667597  0.023502376            2 
 1973000   0.94008968   -7.7150743    559.92848  0.023649623  0.023496375            3 
 1974000   0.96139902     -7.70643    559.91417  0.023637038   0.02349034            4 
 1975000   0.92822895    -7.675885    560.68168  0.023657455  0.023484312            1 
 1976000   0.94090159   -7.7238665    558.73373  0.023563332  0.023478295            3 
 1977000   0.92927933   -7.6935724    560.21632  0.023613907  0.023472234            1 
 1978000   0.92149496   -7.6915191    559.36915  0.023566277  0.023466199            1 
 1979000   0.94263589   -7.7318992    559.91446  0.023577331  0.023460161            2 
 1980000   0.94835416   -7.6914842    559.99182  0.023568679  0.023454119            2 
 1981000   0.91924847   -7.7032901    560.77656  0.023589793  0.023448145            1 
 1982000   0.93937476   -7.7158185    561.24389   0.02359754  0.023442197            1 
 1983000   0.91992414   -7.7156984    561.16122  0.023582166  0.023436238            1 
 1984000   0.90312671   -7.7040696    561.26761  0.023574749  0.023430228            1 
 1985000   0.93792949   -7.7214926    561.59617  0.023576665  0.023424197            2 
 1986000   0.94134181   -7.7238838    559.56946  0.023479753  0.023418191            2 
 1987000   0.92786909   -7.6889147    562.06013  0.023572393  0.023412071            1 
 1988000   0.92615381   -7.6585709    563.60799  0.023625419  0.023406105            2 
 1989000   0.94242263   -7.7254379    562.05301  0.023548391  0.023400143            1 
 1990000   0.91508021   -7.7036335    562.02781  0.023535503  0.023394166            2 
 1991000   0.94085838   -7.6994128    564.17777  0.023613668  0.023388139            1 
 1992000   0.94276806   -7.7240698    561.86344  0.023504997  0.023382094            1 
 1993000   0.93359126   -7.7022147     562.5719  0.023522826  0.023376041            3 
 1994000   0.93500478    -7.690303    562.28447  0.023499017   0.02336999            2 
 1995000   0.94499343   -7.6955672     562.0071  0.023475652  0.023363971            1 
 1996000   0.92859389   -7.6846202    564.06282  0.023549717  0.023357919            4 
 1997000   0.94156961   -7.6955885    562.52526  0.023473763  0.023351878            1 
 1998000   0.95000654   -7.7197803    563.82349  0.023516162  0.023345868            1 
 1999000   0.93766649   -7.6851432    563.93661  0.023509113  0.023339799            4 
 2000000   0.93084196   -7.7097021    562.17125  0.023423802  0.023333766            1 
 2001000    0.9493821   -7.7267733    562.52603  0.023426871  0.023327653            4 
 2002000    0.9345819   -7.6851606     563.8001  0.023468203  0.023321567            2 
 2003000   0.93690153   -7.7133834    563.65788  0.023450569  0.023315433            2 
 2004000   0.92537799   -7.7164871    563.16022  0.023418173  0.023309326            1 
 2005000   0.92340676   -7.7155049    562.07809  0.023361516  0.023303195            2 
 2006000   0.94953882    -7.741642    563.73055  0.023418517  0.023297073            1 
 2007000    0.9095267   -7.7135913    561.87236  0.023329694   0.02329094            3 
 2008000   0.91253501   -7.7464175    562.88927  0.023360278  0.023284731            1 
 2009000   0.94793351   -7.6912941    564.10949  0.023399265  0.023278548            1 
 2010000   0.92555425   -7.7082624    563.72931  0.023371862  0.023272478            4 
 2011000   0.92761154    -7.704018    564.29674  0.023383753  0.023266451            2 
 2012000   0.91947508   -7.7248924    564.19156  0.023367775  0.023260371            2 
 2013000   0.91468225   -7.7113361    564.44206  0.023366537  0.023254345            3 
 2014000   0.93650625   -7.7196536    565.24592  0.023388196  0.023248318            2 
 2015000   0.94489356   -7.7007943    565.12335   0.02337152   0.02324236            1 
 2016000   0.91726496   -7.7388274    566.28551  0.023407966  0.023236388            3 
 2017000   0.91741203    -7.753794    564.39929  0.023318431  0.023230438            2 
 2018000   0.93432099   -7.7371553    565.85941  0.023367171  0.023224442            2 
 2019000   0.90294094   -7.7224204    566.16484  0.023368204  0.023218457            2 
 2020000   0.92934833   -7.7126675    566.46143  0.023368871  0.023212522            2 
 2021000   0.95040599   -7.7201369    568.03005  0.023421988  0.023206631            1 
 2022000   0.95352961   -7.6691934    567.86262  0.023403504  0.023200712            2 
 2023000   0.93364296   -7.7134417     567.2023  0.023364735  0.023194714            2 
 2024000   0.88234774   -7.7323279    567.02195  0.023345765  0.023188683            2 
 2025000   0.94275403   -7.7199368    568.37823   0.02339005  0.023182683            2 
 2026000   0.93827869   -7.7132983    568.07059  0.023365852   0.02317675            2 
 2027000   0.92389304   -7.7204572    568.24147   0.02336135   0.02317085            2 
 2028000   0.89929378   -7.7068471    567.13859  0.023304511  0.023164964            1 
 2029000   0.92984421   -7.7601847    567.57176  0.023310816  0.023159009            4 
 2030000   0.92891642   -7.7491456    568.50505  0.023337646  0.023153048            1 
 2031000   0.90575928   -7.6952813    567.92255  0.023302255  0.023147097            1 
 2032000   0.91698197   -7.7015345    569.14998  0.023341125  0.023141233            3 
 2033000    0.9450364   -7.7185592    568.20374  0.023290857  0.023135303            3 
 2034000   0.93607254   -7.7317197    569.11548   0.02331676  0.023129328            1 
 2035000   0.92660305   -7.7486214    568.50167  0.023280167  0.023123358            3 
 2036000   0.92845442    -7.721131     569.0189  0.023289903  0.023117345            1 
 2037000   0.92340684   -7.7252006    568.72983  0.023266643  0.023111371            2 
 2038000    0.9322339    -7.726328    570.49518  0.023327412  0.023105421            6 
 2039000   0.95497042   -7.7596337    568.86028  0.023249153  0.023099518            1 
 2040000   0.91857007   -7.7028425     570.1586  0.023290792  0.023093594            2 
 2041000   0.91788904   -7.7237613    569.97742  0.023271984  0.023087701            3 
 2042000   0.95187995    -7.720593    569.72791  0.023250405   0.02308183            2 
 2043000   0.92133402   -7.7172849    568.43493  0.023186284  0.023075899            2 
 2044000   0.90302104   -7.7202641      571.405  0.023296029  0.023069946            4 
 2045000   0.93506097   -7.7091305    570.48383    0.0232471  0.023064059            1 
 2046000   0.90050487   -7.7314945    571.59477  0.023280986   0.02305814            2 
 2047000   0.92233803   -7.7117352    571.48276  0.023265053  0.023052242            3 
 2048000   0.92323686   -7.7505526    570.44773  0.023211578  0.023046341            2 
 2049000   0.93161765   -7.7249229    571.56749   0.02324579   0.02304047            2 
 2050000   0.91530453   -7.7496891    569.53234  0.023151721  0.023034545            1 
 2051000   0.92698106   -7.7388054    571.07153  0.023202971  0.023028578            1 
 2052000   0.95157595   -7.6904884    571.50871  0.023209418  0.023022656            1 
 2053000   0.90707947   -7.7028901    573.05971   0.02326107  0.023016834            3 
 2054000   0.92829989   -7.7260097    572.80764  0.023239518  0.023011027            1 
 2055000   0.92960604   -7.7281178    571.22926  0.023164204   0.02300509            2 
 2056000    0.9149669   -7.7518115    572.68752  0.023212043  0.022999171            4 
 2057000    0.9292051   -7.7451017    571.00442  0.023132573  0.022993231            3 
 2058000   0.91543902   -7.7329051    571.93569  0.023159042  0.022987292            1 
 2059000   0.91354454   -7.7526029    573.19246  0.023198659  0.022981402            2 
 2060000      0.93774   -7.7880409    571.11858  0.023103502   0.02297547            2 
 2061000   0.93106936   -7.7358635    572.50024  0.023148158  0.022969553            6 
 2062000   0.90733473   -7.7313557    573.23734  0.023166721  0.022963691            1 
 2063000   0.92924142   -7.7298972    574.90314   0.02322278  0.022957847            3 
 2064000   0.92497081   -7.7427961    574.01189  0.023175545  0.022952018            2 
 2065000   0.92344859   -7.7428118    573.88359  0.023159144  0.022946162            2 
 2066000   0.91316212   -7.7329754    574.04037  0.023154258  0.022940336            3 
 2067000    0.9236413   -7.7345102    574.22738  0.023150596  0.022934454            2 
 2068000   0.93106144   -7.7389975    573.42564  0.023107094  0.022928556            4 
 2069000   0.92280213   -7.7404206    573.88735  0.023114522  0.022922641            1 
 2070000   0.90320546    -7.764676    573.57817  0.023090908  0.022916724            1 
 2071000   0.90919415   -7.7368854    575.39002  0.023152665  0.022910809            2 
 2072000    0.9256342    -7.715045    575.15028  0.023131848  0.022904969            1 
 2073000   0.90018312   -7.7355759    573.37112  0.023049169  0.022899102            2 
 2074000   0.90252149    -7.714982    575.50501  0.023123795  0.022893276            5 
 2075000   0.92116081   -7.7374936    575.33481  0.023105816  0.022887428            4 
 2076000   0.92065163   -7.7215795    575.28894  0.023092844  0.022881586            1 
 2077000   0.90999859   -7.7529529    574.24771   0.02303995  0.022875687            1 
 2078000   0.90362081   -7.7384911    574.90649  0.023055281  0.022869777            1 
 2079000   0.92376854   -7.7193401    574.69376  0.023035665  0.022863858            2 
 2080000   0.90017505   -7.7208182    576.67966  0.023104153   0.02285802            5 
 2081000   0.91970472   -7.7542411    574.02695  0.022986823  0.022852087            1 
 2082000   0.90737219   -7.7419885    573.87642  0.022969758  0.022846093            2 
 2083000   0.92308989   -7.7312426    574.86584  0.022998313  0.022840069            2 
 2084000   0.91520958   -7.7537409     573.7052  0.022940867  0.022834099            2 
 2085000   0.91380031   -7.7185422    576.03181  0.023022854  0.022828152            1 
 2086000   0.90777046   -7.7238007    575.08854  0.022974135  0.022822247            3 
 2087000   0.92848239   -7.7654887      574.494  0.022939387  0.022816286            1 
 2088000   0.93488615   -7.7360021     575.3985  0.022964499  0.022810234            1 
 2089000   0.91356091   -7.7169518    576.06621  0.022980142  0.022804248            2 
 2090000   0.92214142   -7.7914777    574.95437  0.022924815  0.022798228            2 
 2091000   0.91375761   -7.7513248    574.27109  0.022886621  0.022792141            4 
 2092000   0.90349741   -7.7495503    576.61119  0.022968897  0.022786104            2 
 2093000   0.93434637   -7.7696704    576.13961  0.022939147  0.022780018            4 
 2094000   0.93496744   -7.7662875    576.17171   0.02292947  0.022773934            3 
 2095000   0.90396375   -7.7327939    576.17595  0.022918693  0.022767845            2 
 2096000   0.92388741   -7.7342276     577.0335  0.022941854  0.022761843            2 
 2097000   0.92270122   -7.7481004    575.07254  0.022852986  0.022755804            2 
 2098000   0.91563346   -7.7496779     574.6172  0.022824007    0.0227498            2 
 2099000   0.92203687   -7.7373181    575.66862  0.022854876  0.022743744            4 
 2100000   0.90695107   -7.7421947    576.04371  0.022858877  0.022737644            3 
 2101000   0.90158774   -7.7637876    575.49868  0.022826379   0.02273158            2 
 2102000   0.89015459   -7.8066804    574.34627  0.022769833  0.022725478            1 
 2103000   0.90463722   -7.7600361    576.27832  0.022835565  0.022719321            1 
 2104000   0.91112784   -7.7541055    575.89326   0.02280946  0.022713229            1 
 2105000   0.94179873   -7.7587007    577.01788  0.022843146  0.022707194            1 
 2106000    0.9094138   -7.7727519    576.26153  0.022802371  0.022701159            1 
 2107000   0.91002522   -7.7573467    577.31641   0.02283327  0.022695086            2 
 2108000   0.92232077   -7.7646046     577.4076  0.022826044  0.022689019            2 
 2109000   0.90151529   -7.7463825    576.53483  0.022780735  0.022682967            3 
 2110000   0.91815395   -7.7585628    578.01739  0.022828491  0.022676886            5 
 2111000   0.90392754    -7.753488    575.81468  0.022730723  0.022670787            1 
 2112000   0.91285333   -7.7221403    578.55929  0.022828255  0.022664789            1 
 2113000   0.91751054   -7.7862252     578.3534  0.022809331  0.022658758            2 
 2114000    0.9278567   -7.7655886    577.93066  0.022781877  0.022652703            3 
 2115000   0.91957482   -7.7417087    579.12048  0.022817986  0.022646743            1 
 2116000    0.9078969   -7.7903667     577.4213  0.022740284  0.022640725            2 
 2117000    0.9418826   -7.7746027     577.0811  0.022716151  0.022634627            4 
 2118000   0.91905708   -7.7858453    578.06252   0.02274404   0.02262847            3 
 2119000   0.91071588   -7.8052471    576.84696  0.022685503  0.022622305            2 
 2120000   0.90639741   -7.7675087    576.73338  0.022670337  0.022616164            1 
 2121000   0.88972831   -7.7717695    577.77032   0.02270039   0.02261006            2 
 2122000   0.92879824    -7.778058    576.73494  0.022649031  0.022603963            2 
 2123000   0.91317194   -7.7819464    577.28627  0.022660004   0.02259781            1 
 2124000   0.91469458   -7.7793453    578.64592   0.02270268  0.022591671            2 
 2125000   0.92301217   -7.8000933    579.43462  0.022722926  0.022585554            1 
 2126000   0.91602015   -7.7947586    578.73454  0.022684797  0.022579423            2 
 2127000   0.91696799   -7.7629886    578.01059  0.022645768  0.022573303            1 
 2128000   0.89133222   -7.7425852    578.92729  0.022671025  0.022567187            2 
 2129000   0.90116702   -7.7362561    579.80002  0.022694537  0.022561131            3 
 2130000   0.89302376   -7.7273053    580.29348  0.022703188  0.022555111            5 
 2131000   0.91173076   -7.7726196    578.83899  0.022635656  0.022548989            7 
 2132000    0.9206314   -7.7756908    578.65117  0.022617697  0.022542843            3 
 2133000   0.90141623   -7.7624825    579.45699  0.022638576  0.022536645            2 
 2134000   0.93563081   -7.7834826     578.7987  0.022602261   0.02253054            1 
 2135000    0.9079207   -7.7813713    579.64446  0.022624686    0.0225244            1 
 2136000   0.88605803   -7.7737341    579.45367  0.022606651  0.022518257            1 
 2137000   0.91444136   -7.7551607    579.50387   0.02259803  0.022512128            2 
 2138000   0.89938083   -7.7408782     581.3302  0.022658645  0.022506028            2 
 2139000   0.90706149   -7.7535399    580.53717  0.022617156   0.02249994            2 
 2140000   0.93558463   -7.7491593    579.93518  0.022583146  0.022493867            1 
 2141000   0.92518232   -7.7751698    580.04914  0.022577033  0.022487744            3 
 2142000   0.91189661   -7.7956591    581.37012  0.022617885   0.02248158            1 
 2143000   0.90623329   -7.7607499    579.84143  0.022547886  0.022475403            3 
 2144000    0.9187147   -7.7611441    581.22841  0.022591278  0.022469323            3 
 2145000   0.91130148   -7.7615416    581.77823  0.022602107  0.022463264       -1e+20 
 2146000   0.90134068   -7.7663083    581.81182  0.022592879  0.022457195            1 
 2147000   0.88970812   -7.7839997    581.74437  0.022579738  0.022451106            3 
 2148000   0.89566792    -7.746237    582.31282   0.02259128  0.022445039            2 
 2149000   0.91996146   -7.7707504    581.62644  0.022554151  0.022438954            1 
 2150000   0.90960188    -7.768845      582.558  0.022579767  0.022432936            1 
 2151000   0.91122369   -7.7523785    582.87396  0.022581511   0.02242691            4 
 2152000   0.90000226   -7.7431778    582.99742  0.022575798   0.02242086            2 
 2153000   0.88721194   -7.7654101    582.03548   0.02252808  0.022414748            2 
 2154000   0.90991859   -7.7791271    582.53685  0.022537018   0.02240865            2 
 2155000    0.9073736   -7.7521343    582.39673  0.022521142  0.022402597            1 
 2156000   0.89982163   -7.7494819    582.36956  0.022509646  0.022396526            5 
 2157000    0.9142632   -7.7400873    583.91418  0.022558885  0.022390496            2 
 2158000   0.92410844    -7.777345     582.2496  0.022484152  0.022384472            2 
 2159000   0.90515942   -7.7912565    584.75982  0.022570628  0.022378431            1 
 2160000   0.88795618   -7.7800488     583.0113   0.02249272  0.022372366            2 
 2161000   0.91470761   -7.7843565    583.36341   0.02249589  0.022366338            3 
 2162000   0.88448662   -7.7355886    585.15146  0.022554404   0.02236035            3 
 2163000   0.91266533   -7.7516234    584.38681  0.022514517  0.022354383            1 
 2164000    0.8994505   -7.7625669    583.74802  0.022479514  0.022348392            1 
 2165000   0.90489676   -7.7753096    582.83785  0.022434098  0.022342355            1 
 2166000   0.91455202   -7.7583922    583.43461  0.022446699  0.022336304            3 
 2167000   0.89780349   -7.7490056    585.06292  0.022498959  0.022330247            4 
 2168000   0.90826535   -7.8172089    582.94155   0.02240704  0.022324213            2 
 2169000   0.93093637    -7.757202     584.9675  0.022474547  0.022318206            3 
 2170000    0.9177434   -7.7733521    582.42185  0.022366431  0.022312167            1 
 2171000   0.89648213   -7.7408307    585.01637  0.022455718  0.022306064            2 
 2172000   0.90567909   -7.7453863    584.43583  0.022423106  0.022300019            2 
 2173000    0.9042723   -7.7715784    583.58189  0.022380039  0.022293952            2 
 2174000   0.90831974   -7.7533058    585.65662  0.022449272  0.022287904            1 
 2175000   0.91544235   -7.7453572    585.27443  0.022424308  0.022281826            2 
 2176000   0.92038346   -7.7542032    586.39204  0.022456803  0.022275751            3 
 2177000   0.89912811   -7.7559158    585.73739  0.022421428  0.022269723            2 
 2178000   0.90577711   -7.7908555    584.05715  0.022346845  0.022263708            2 
 2179000   0.92439482   -7.7441703    586.31579  0.022422969  0.022257682            2 
 2180000   0.88556132   -7.8095534    584.31093  0.022336045  0.022251644            3 
 2181000   0.91298655    -7.796434    584.28581  0.022324844  0.022245577            2 
 2182000   0.89375603   -7.7644459    586.07835  0.022383072  0.022239512            2 
 2183000   0.88789269    -7.777631    585.01098  0.022332073  0.022233463            1 
 2184000   0.89057784   -7.7634808    585.45867   0.02233893  0.022227472            2 
 2185000   0.90929344   -7.7728815    585.35331  0.022324687  0.022221454            2 
 2186000   0.91410209   -7.8212731    584.29085  0.022273973  0.022215397            3 
 2187000   0.92630755   -7.7834121    584.89418  0.022286777  0.022209286            1 
 2188000   0.90641222   -7.7819073    585.58739  0.022302993  0.022203199            1 
 2189000   0.90531868   -7.7644907    587.00039  0.022346596  0.022197093            1 
 2190000   0.89144843   -7.7537824    587.10139  0.022340235  0.022191035            2 
 2191000   0.91181466   -7.7765132    586.26946  0.022298397  0.022185002            2 
 2192000   0.91547819   -7.8058021    584.61016  0.022225143   0.02217894            2 
 2193000    0.9072411   -7.7934512    587.14184  0.022311211  0.022172805            4 
 2194000    0.8931833   -7.7928415    586.17197  0.022264204  0.022166675            3 
 2195000    0.9003925   -7.8006989    585.90751  0.022244021  0.022160577            2 
 2196000    0.8882739   -7.7986187    586.21115  0.022245414  0.022154456            4 
 2197000    0.8921665   -7.7640334    588.42744  0.022319354  0.022148387            2 
 2198000   0.88257179   -7.7903663    588.83918   0.02232481  0.022142318            2 
 2199000   0.89785936   -7.7685582    588.02291  0.022283724  0.022136309            1 
 2200000   0.87923814   -7.7902959    589.20256  0.022318279  0.022130252            1 
 2201000   0.89735915   -7.7584491    588.05195  0.022264575  0.022124205            1 
 2202000   0.90708316   -7.7985489    586.62706  0.022200539  0.022118124            1 
 2203000    0.9077339   -7.7954409    586.92214  0.022201624  0.022112023            2 
 2204000   0.92462499   -7.7593647    587.51307  0.022213894  0.022105946            2 
 2205000   0.91453465   -7.7895553    585.78525  0.022138521   0.02209985            2 
 2206000   0.89461676   -7.7963536    585.53679  0.022119099  0.022093728            2 
 2207000   0.89280476   -7.8022591    586.48104  0.022144731  0.022087553            2 
 2208000   0.89328969   -7.8204059    587.10554  0.022158271  0.022081383            1 
 2209000   0.90524571   -7.8085489    587.81632  0.022175054  0.022075189            3 
 2210000   0.89344809   -7.7890144    587.68999  0.022160256   0.02206904            2 
 2211000   0.86785511    -7.790775    588.12123  0.022166487  0.022062906            3 
 2212000   0.90731595   -7.7782206    587.96709  0.022150659  0.022056741            1 
 2213000   0.89539204   -7.8114361    587.00831  0.022104545  0.022050539            2 
 2214000   0.89455573   -7.7667881    588.31314  0.022143674  0.022044363            2 
 2215000   0.89803095   -7.8129502    587.25004  0.022093681  0.022038167            2 
 2216000    0.9029872   -7.8100479    588.30545    0.0221234  0.022031971            2 
 2217000   0.90082786   -7.8490694    587.21566  0.022072458  0.022025771            3 
 2218000   0.89514264   -7.8260267     588.4481   0.02210881  0.022019499            1 
 2219000   0.90767359   -7.8214757    587.97842  0.022081208  0.022013224            2 
 2220000   0.89442584   -7.7880395    588.75551  0.022100432  0.022006948            4 
 2221000   0.88775901   -7.8047918    587.12848  0.022029434  0.022000733            1 
 2222000    0.8843152   -7.7876628    589.76675  0.022118465  0.021994522            2 
 2223000   0.87013825   -7.7848661     587.7043    0.0220312  0.021988297            2 
 2224000   0.89770774   -7.8379391    587.70359  0.022021268  0.021982091            1 
 2225000   0.87931536   -7.7878005    588.03189  0.022023666  0.021975819            4 
 2226000   0.89409342   -7.8034112    587.16907  0.021981472  0.021969551            2 
 2227000   0.91473737   -7.8103986    587.68287  0.021990827  0.021963248            3 
 2228000   0.89091574   -7.7823209    588.35281  0.022006015  0.021956978            3 
 2229000   0.88366039   -7.8460752    587.97991  0.021982201  0.021950671            1 
 2230000   0.89933882   -7.8149878     590.3034   0.02205917  0.021944338            3 
 2231000   0.89845116   -7.8352509    587.45934   0.02194305  0.021937967            2 
 2232000   0.92035518    -7.853657    586.74719   0.02190663  0.021931575            2 
 2233000   0.91443406   -7.8143529    588.74338  0.021971316  0.021925233            2 
 2234000    0.8832172   -7.8048079    588.49516  0.021952222  0.021918902            1 
 2235000   0.88341897   -7.8386005    587.42856  0.021902631  0.021912621            4 
 2236000   0.88482761   -7.7991848    589.88549  0.021984403  0.021906332            3 
 2237000   0.89700822   -7.8298209    587.88289  0.021899974   0.02189998            2 
 2238000    0.8915781   -7.8192606    589.79847  0.021961516  0.021893679            2 
 2239000   0.89468104   -7.8078394    589.80073  0.021951791  0.021887415            2 
 2240000   0.87427634    -7.771364    588.69647   0.02190091  0.021881129            7 
 2241000   0.88865564   -7.7874744    589.56904  0.021923585  0.021874878            2 
 2242000   0.88657661   -7.7964408     590.0045  0.021929992  0.021868626            2 
 2243000   0.89679785   -7.8200356    589.83852  0.021914048  0.021862401            3 
 2244000   0.90254835   -7.8327215     589.9388  0.021908006  0.021856116            1 
 2245000   0.89856988   -7.8184858    589.82903  0.021894173  0.021849821            1 
 2246000   0.91408552   -7.8271749    589.15839  0.021859543  0.021843474            2 
 2247000   0.89687257    -7.841576    588.95784  0.021842377  0.021837143            4 
 2248000   0.89524891   -7.7900537    590.18667  0.021878213  0.021830834            2 
 2249000   0.88387684   -7.7983373    591.74011  0.021926045  0.021824591            1 
 2250000   0.88083789    -7.841142    589.51858  0.021834021  0.021818334            4 
 2251000   0.89954104   -7.7734344    590.59535  0.021864184  0.021812068            3 
 2252000   0.89102272   -7.8214782    591.75781  0.021897492  0.021805864            3 
 2253000   0.89758309   -7.7798204    591.20666  0.021867386  0.021799636            3 
 2254000   0.89083401   -7.8038842    592.50863   0.02190582  0.021793374            1 
 2255000    0.8952713   -7.8226158    590.18435  0.021810212  0.021787106            1 
 2256000   0.91138599   -7.7916316    591.16833  0.021836892  0.021780822            2 
 2257000   0.88538831   -7.8253965    590.53842  0.021803959  0.021774556            1 
 2258000   0.90184071   -7.7646527    592.57864  0.021869598  0.021768276            1 
 2259000   0.89036265   -7.7963985    591.11576  0.021805953  0.021762034            1 
 2260000   0.89921782    -7.758238    592.70986  0.021855083  0.021755813            2 
 2261000   0.89122272   -7.8257631    591.97689  0.021818402  0.021749534            2 
 2262000   0.89060658   -7.8204386    590.01342  0.021736421  0.021743183            1 
 2263000   0.89829067   -7.8087989    591.55332  0.021783522  0.021736856            1 
 2264000     0.903218   -7.8264168    591.34292  0.021766156  0.021730557            2 
 2265000   0.87875781   -7.7688499    593.27531  0.021827642  0.021724322            1 
 2266000   0.88848269   -7.8191379     590.9923   0.02173405  0.021718034            2 
 2267000   0.89591848   -7.8113098    591.75648  0.021752554  0.021711716            4 
 2268000   0.91316605   -7.7778587    591.45698  0.021731958  0.021705434            1 
 2269000   0.88527242   -7.8238911    591.64203  0.021729177   0.02169916            1 
 2270000   0.88428422   -7.7988388    592.79211  0.021761825  0.021692896            2 
 2271000   0.89138984   -7.8231968    590.74504  0.021677126  0.021686613            1 
 2272000   0.87789184   -7.8405076    591.18498  0.021683722  0.021680316            3 
 2273000    0.8910452   -7.7934587    592.61134  0.021726475  0.021674014            2 
 2274000   0.87973089   -7.7978148    592.74676  0.021721884  0.021667712            3 
 2275000   0.88958022   -7.7775912    591.38774  0.021662555  0.021661387            2 
 2276000   0.90296397   -7.7778216    591.93924  0.021673229  0.021655039            2 
 2277000   0.88574371   -7.7832514    591.19018  0.021636297  0.021648693            1 
 2278000   0.88253457   -7.8219953    591.95583  0.021654808  0.021642311            5 
 2279000   0.89433839   -7.8353628    589.89061   0.02156979  0.021635859            2 
 2280000   0.86122455   -7.8065965     591.6747  0.021625537  0.021629391            2 
 2281000   0.87064989   -7.8161441    591.68515  0.021616438  0.021622972            3 
 2282000   0.89904855   -7.8048727    593.39741  0.021669493  0.021616613            1 
 2283000   0.89047282   -7.8059384     591.8401  0.021603158  0.021610252            1 
 2284000   0.87051398   -7.7984249    591.91775  0.021596532  0.021603876            4 
 2285000   0.87251549   -7.8068312    591.37912  0.021567437  0.021597509            2 
 2286000   0.88352424   -7.8302733    590.24485  0.021516654  0.021591124            3 
 2287000   0.88107219     -7.81141    592.54892  0.021591201  0.021584691            2 
 2288000   0.89294507   -7.8225695    591.90074  0.021558156  0.021578297            1 
 2289000   0.89215171   -7.8535959    592.76648  0.021580256  0.021571899            2 
 2290000   0.89162413   -7.8057172    594.13317  0.021620566  0.021565525            4 
 2291000   0.87776854   -7.8239126    592.67436  0.021558066  0.021559197            1 
 2292000   0.90004959      -7.8441    592.31744  0.021535683  0.021552817            2 
 2293000   0.89823573    -7.801867    593.49159  0.021568963  0.021546439           10 
 2294000    0.8948637   -7.8253681    593.79865  0.021570715  0.021540015            2 
 2295000   0.88475073   -7.8401258     592.1242  0.021500516  0.021533568            1 
 2296000   0.86370548   -7.8461091    591.15343  0.021455917  0.021527103            3 
 2297000   0.87698076   -7.8211804    592.96276  0.021512217  0.021520611            2 
 2298000   0.89433248   -7.8382471    592.69539   0.02149316  0.021514109            1 
 2299000   0.87853584   -7.8315751    591.52625  0.021441433   0.02150763            3 
 2300000     0.889228   -7.8276243    592.80498  0.021478441  0.021501162            2 
 2301000   0.88371921   -7.8319914    591.63353  0.021426681   0.02149474            6 
 2302000   0.88436432    -7.809754    595.57602  0.021560093  0.021488301            4 
 2303000   0.87159334   -7.7993741    594.20298  0.021501049  0.021481918            5 
 2304000   0.86597365   -7.8013912    594.60491  0.021506254  0.021475548            3 
 2305000   0.88135132   -7.8371057    593.11897  0.021443202  0.021469104            1 
 2306000   0.87687945   -7.8280963    593.90325  0.021462245  0.021462665            3 
 2307000   0.88203518      -7.8269    593.90064  0.021452848  0.021456257            2 
 2308000   0.87550081   -7.8044636     594.2597  0.021456517  0.021449826            3 
 2309000   0.88737353   -7.8356951    593.86604  0.021433017  0.021443369            1 
 2310000   0.88453324   -7.8550442    593.77157  0.021420331  0.021436886            3 
 2311000   0.89973356   -7.8472433     594.2783  0.021429334  0.021430384            1 
 2312000   0.87944298   -7.8417004    592.73033  0.021364271  0.021423908            2 
 2313000   0.87937986   -7.8206825    593.49122  0.021382448   0.02141743            3 
 2314000    0.8791684   -7.8391228     592.2465  0.021328382  0.021410947            2 
 2315000   0.87259665    -7.831898    593.55965  0.021366438  0.021404477            2 
 2316000   0.88507147   -7.8405033    594.20547   0.02138045  0.021398033            1 
 2317000   0.87050986   -7.8306575    595.76731  0.021427396   0.02139162            1 
 2318000    0.8862371   -7.9063526    592.02778  0.021283714  0.021385147            2 
 2319000   0.87663041   -7.8486429    594.20841  0.021352897  0.021378677            2 
 2320000    0.9101303   -7.8470951    594.81547  0.021365498  0.021372263            1 
 2321000   0.88635314   -7.8299383    595.64176   0.02138596  0.021365844            1 
 2322000   0.88415995   -7.8553154    594.54322  0.021337325  0.021359449            2 
 2323000   0.87814202   -7.8711251    594.23137  0.021316953  0.021352995            6 
 2324000   0.87320811   -7.8654316    594.77026  0.021327104  0.021346599            2 
 2325000   0.88183865    -7.836719    594.82066  0.021319737  0.021340138            2 
 2326000   0.87460108   -7.8368786     596.1748  0.021359086  0.021333728            3 
 2327000   0.88358164   -7.8674771    594.26883  0.021281651  0.021327309            4 
 2328000   0.86810952   -7.8191517    595.06809   0.02130112  0.021320896            2 
 2329000   0.87338517    -7.853537    594.94849  0.021287695  0.021314471            2 
 2330000   0.88877941    -7.842726     596.4777  0.021333251  0.021308132            5 
 2331000   0.88339787   -7.8226511    597.26257  0.021352158  0.021301792            2 
 2332000   0.85803789   -7.8034947    596.78743  0.021326023  0.021295484            3 
 2333000   0.87007526   -7.8501398    598.33178  0.021372045  0.021289115            1 
 2334000   0.85164899   -7.8437666    595.84145  0.021273974  0.021282761            2 
 2335000   0.88823234    -7.865622    596.14089  0.021275549  0.021276377            2 
 2336000   0.86878162    -7.874802    596.33006   0.02127319  0.021270004            2 
 2337000   0.88604703   -7.8624825    596.70764  0.021277551  0.021263641            2 
 2338000    0.8616478    -7.839968     596.9689  0.021277762  0.021257302            1 
 2339000   0.87060256   -7.8207282    597.37452  0.021283117  0.021250974            1 
 2340000    0.8807945   -7.8817853    597.06379  0.021262956  0.021244582            2 
 2341000   0.86689984   -7.8395784    596.99505  0.021251426  0.021238211            1 
 2342000   0.88451645   -7.8508031    597.21278  0.021250099  0.021231839            2 
 2343000    0.8630757   -7.8910902    596.16998   0.02120394  0.021225432            1 
 2344000   0.86193919   -7.8787429    597.05422   0.02122633  0.021219001            3 
 2345000    0.8619948   -7.8735822    597.29225  0.021225737  0.021212592            3 
 2346000   0.88251606   -7.8632172    597.45123  0.021222337  0.021206168            2 
 2347000   0.87062727   -7.8700003      596.859  0.021192267  0.021199722            2 
 2348000   0.87642933   -7.8823025    597.10001  0.021191795  0.021193302            2 
 2349000   0.87773484   -7.8712622    596.97809  0.021178448  0.021186816            1 
 2350000   0.87608042    -7.878676    595.45066  0.021115272  0.021180352            2 
 2351000    0.8740579   -7.8570243    597.46419  0.021177662  0.021173905            1 
 2352000   0.88751917   -7.8619613    596.53064  0.021135581  0.021167449            4 
 2353000   0.87273871   -7.8809222    596.52694  0.021126468  0.021161033            1 
 2354000   0.87457996   -7.8677884    597.40579  0.021148605   0.02115462            3 
 2355000   0.87117653   -7.8535191    597.00129  0.021125311  0.021148195            1 
 2356000   0.88702103   -7.8483562    597.80891  0.021144911  0.021141755            1 
 2357000   0.85935313   -7.8280522     598.3939  0.021156622  0.021135366            3 
 2358000   0.86768748   -7.8927023    597.53395  0.021117259  0.021128978            4 
 2359000   0.86545042   -7.8465793    598.25585  0.021133809  0.021122574            2 
 2360000   0.88355883   -7.8661157    598.25364  0.021124775  0.021116137            5 
 2361000   0.86965527   -7.8242176    598.61433  0.021128559   0.02110972            4 
 2362000   0.87302093   -7.8344832    598.18558  0.021104487  0.021103334            2 
 2363000   0.86662106   -7.8342229    599.39895  0.021138346   0.02109695            2 
 2364000   0.86717705   -7.8721958    598.99718  0.021115242   0.02109053            1 
 2365000   0.86297288   -7.8656403    598.32823  0.021082742  0.021084096            2 
 2366000   0.87642662   -7.8863386    597.31466  0.021038133  0.021077631            1 
 2367000   0.87648802   -7.9197533    596.33302  0.020994685  0.021071172            2 
 2368000   0.86988513   -7.9075077    597.20065  0.021016352  0.021064653            2 
 2369000   0.88126079   -7.8601414    597.59002  0.021021177  0.021058211            2 
 2370000   0.87859412   -7.8670233    598.65148   0.02104963  0.021051764            3 
 2371000   0.88767795   -7.8625731    597.90416  0.021014486  0.021045285            5 
 2372000   0.87494084   -7.9057872    596.95018  0.020972111  0.021038804            3 
 2373000   0.88460076    -7.869453    598.49891  0.021017661  0.021032316            1 
 2374000   0.89473959   -7.8613798    597.98096  0.020990626  0.021025872            1 
 2375000   0.87890069   -7.8416478    599.40329  0.021031695  0.021019453            3 
 2376000   0.89932752   -7.8395172    599.08946  0.021011836  0.021013014            2 
 2377000   0.86576105   -7.8338702    599.35569  0.021012329  0.021006582            1 
 2378000   0.87259657     -7.84913    599.29188  0.021001257  0.021000154            3 
 2379000   0.87034264   -7.8644292    597.56489  0.020931935  0.020993692            1 
 2380000   0.86017962   -7.8629116    599.47675  0.020990082  0.020987225            2 
 2381000   0.87501609   -7.8605081    600.02209  0.021000353  0.020980829            4 
 2382000   0.87160091   -7.8962643    598.71256  0.020945723  0.020974361            2 
 2383000   0.87350289   -7.8830815    599.12185  0.020951247  0.020967895            2 
 2384000   0.89251068   -7.8586884    600.33834  0.020984981  0.020961476            3 
 2385000   0.86344339   -7.8643799    599.11286  0.020933363  0.020955033            2 
 2386000   0.88275006   -7.8679235    598.49087  0.020902866  0.020948609            3 
 2387000   0.86720081   -7.8572803    600.05655   0.02094877  0.020942185            2 
 2388000   0.86980831   -7.8602145     598.3921  0.020881913  0.020935711            1 
 2389000   0.85869664   -7.9110961    599.67224  0.020917826  0.020929254            2 
 2390000   0.89119534   -7.8685199    599.66143  0.020908697  0.020922823            2 
 2391000   0.85641657   -7.8677451    598.89591  0.020873272  0.020916382            1 
 2392000   0.86725072   -7.8698044    600.63871  0.020925262  0.020909965            1 
 2393000   0.86801215   -7.8645794    600.69282  0.020918401  0.020903577            1 
 2394000   0.87684706   -7.8961483    601.00828  0.020920645  0.020897166            2 
 2395000   0.85904202   -7.8620559    600.85591  0.020906608  0.020890805            2 
 2396000   0.84525933   -7.8564395    600.62289  0.020889778  0.020884418            4 
 2397000   0.89286543   -7.8618742    600.80446  0.020887375  0.020878032            1 
 2398000    0.8762758   -7.8530967    602.30221  0.020930714  0.020871628            2 
 2399000   0.86945141    -7.868713     601.0172  0.020877352   0.02086522            1 
 2400000   0.89549099   -7.8315409    602.64464  0.020925161  0.020858896            3 
 2401000   0.87086995   -7.8912138    601.36571  0.020872057  0.020852558            1 
 2402000   0.87676248   -7.8667579    601.69384  0.020874752  0.020846214            2 
 2403000   0.87292008   -7.8403742    602.98926  0.020910988  0.020839917            3 
 2404000   0.86223191   -7.8410923    602.70192   0.02089233  0.020833646            2 
 2405000   0.86425385   -7.8384537    603.60189  0.020914826  0.020827378            2 
 2406000   0.85345245   -7.8718984    602.73669  0.020876167  0.020821088            3 
 2407000   0.87987749   -7.8707558    601.69465  0.020831417  0.020814783            5 
 2408000   0.87285085   -7.8768712    602.57936  0.020853383   0.02080846            4 
 2409000   0.86924192    -7.869661    603.25327  0.020868039  0.020802152            3 
 2410000   0.87614729   -7.9071783    601.42108  0.020796026  0.020795812            1 
 2411000   0.85790711    -7.873226    601.93142   0.02080504  0.020789451            3 
 2412000   0.86228139   -7.8818425     603.1449  0.020838339  0.020783088            1 
 2413000   0.83943281   -7.9083921     601.4907  0.020772576  0.020776705            2 
 2414000   0.86178773   -7.9028416    601.18305   0.02075335  0.020770308            3 
 2415000   0.88263218    -7.901123    601.41574  0.020752786  0.020763948            2 
 2416000   0.87724673   -7.8964159    603.27148  0.020808205   0.02075759            2 
 2417000   0.87688376   -7.8826095    603.12047   0.02079439  0.020751286            9 
 2418000   0.87223877   -7.8862912    603.52456  0.020799716  0.020744979            2 
 2419000   0.88898865   -7.8820349    602.40127  0.020752421  0.020738721            3 
 2420000   0.85336528   -7.8838226     602.6381  0.020752001  0.020732389            4 
 2421000     0.846241   -7.9125725    602.00157  0.020721519  0.020726056            3 
 2422000   0.84818336   -7.8771263    602.88499  0.020743359  0.020719708            1 
 2423000   0.85884492   -7.8518144    604.37941  0.020786195  0.020713373            3 
 2424000   0.87455697    -7.877698    602.56381  0.020715203  0.020707081            2 
 2425000    0.8599414   -7.8563533    604.77782  0.020782743  0.020700817            1 
 2426000   0.85319944   -7.8928125    603.81931  0.020741251  0.020694519            2 
 2427000   0.85543973    -7.890828    603.68826  0.020728206   0.02068821            2 
 2428000   0.86821555   -7.9275216    602.47134  0.020677902  0.020681893            2 
 2429000   0.85242124   -7.8734919    602.51256  0.020670803  0.020675564            3 
 2430000   0.86240088   -7.8520185    604.17773  0.020719401  0.020669237            2 
 2431000   0.84753282   -7.9073189    603.15581  0.020675847  0.020662855            3 
 2432000   0.86336787    -7.890487    604.51972   0.02071408  0.020656528            1 
 2433000   0.84692567   -7.8756667    604.84598  0.020716741  0.020650221            2 
 2434000    0.8544033   -7.9225088    603.57266  0.020664635  0.020643912            2 
 2435000   0.85650153   -7.8972058    604.33615  0.020682277  0.020637566            2 
 2436000   0.87281364   -7.8978907    602.95414   0.02062651  0.020631205            2 
 2437000   0.87521457   -7.8749482    605.07142  0.020690446  0.020624923            2 
 2438000   0.86392609   -7.8788666    604.48858  0.020662038  0.020618646            3 
 2439000    0.8805762   -7.9005912    604.89869  0.020667579   0.02061231            2 
 2440000   0.85608584   -7.8865943    603.93333  0.020626138  0.020605965            2 
 2441000   0.86238368   -7.8788925    603.48817  0.020602491  0.020599647            2 
 2442000   0.86064122   -7.8976402    604.02957   0.02061253  0.020593324            3 
 2443000   0.84763632    -7.919821    604.82772  0.020631318     0.020587            3 
 2444000   0.86000197   -7.8929628    605.00837  0.020629036  0.020580647            5 
 2445000   0.84891692   -7.9195261    603.18546  0.020558468  0.020574314            3 
 2446000   0.86197621   -7.9012935    603.57672  0.020563393   0.02056797            1 
 2447000    0.8616064   -7.8862271    604.87613  0.020599242  0.020561691            1 
 2448000    0.8683208    -7.910618    605.32952  0.020606261  0.020555387            2 
 2449000   0.85889505   -7.8848415    605.23349  0.020594579  0.020549049            1 
 2450000   0.86616788   -7.9218291     605.4166  0.020592401  0.020542739            2 
 2451000   0.86431559    -7.907074    605.30426   0.02058018  0.020536444            1 
 2452000   0.86002248   -7.8963097    607.20629  0.020636429  0.020530123            2 
 2453000   0.85128802   -7.8630359    606.58694  0.020606976  0.020523793            1 
 2454000   0.87660763   -7.8856299    605.50301   0.02056177  0.020517489            2 
 2455000   0.84678967    -7.884539     605.2742  0.020545628  0.020511165            3 
 2456000   0.84770532   -7.8500646    607.15196  0.020600976  0.020504871            1 
 2457000   0.87310733    -7.892949    605.94559  0.020551675  0.020498587            2 
 2458000   0.85788775   -7.8713543    606.02884  0.020546136  0.020492298            2 
 2459000     0.860395   -7.8834625    607.71561  0.020594944  0.020485989            1 
 2460000   0.85940677   -7.8992364    608.24591  0.020604536  0.020479747            3 
 2461000   0.86145428   -7.8989978    604.86734   0.02048176   0.02047345            2 
 2462000   0.86272968   -7.9016456    605.40727  0.020491716  0.020467164            1 
 2463000   0.85855861   -7.9210753    606.91059   0.02053426  0.020460896            4 
 2464000   0.86400621   -7.8923694      605.206  0.020468277  0.020454609            6 
 2465000   0.87100485   -7.9249786    606.19907  0.020493545  0.020448327            1 
 2466000   0.86410817   -7.9028699    605.13806   0.02044938  0.020442024            2 
 2467000   0.86088385    -7.891197    606.38741  0.020483293  0.020435719            2 
 2468000   0.85556572   -7.9010601    607.46747  0.020511462  0.020429396            1 
 2469000   0.83711869   -7.8663037    607.02148  0.020488102  0.020423096            3 
 2470000   0.84873734   -7.8683688    606.21162  0.020452484  0.020416819            1 
 2471000    0.8583767   -7.9087453    606.68251  0.020460087  0.020410494            2 
 2472000    0.8618695   -7.8919034    604.89052  0.020391401  0.020404201            1 
 2473000    0.8460152   -7.8890194    606.92286   0.02045164  0.020397899            3 
 2474000    0.8588387   -7.9171521    606.31319  0.020422837  0.020391653            3 
 2475000   0.86102062   -7.9190516    607.16843  0.020443381  0.020385366            2 
 2476000   0.84297876   -7.8993615    604.89324   0.02035855  0.020379056            2 
 2477000   0.84791171   -7.9001871    608.23413  0.020462728   0.02037278       -1e+20 
 2478000   0.86621736   -7.9182583    607.62022  0.020433825  0.020366505            2 
 2479000     0.857943    -7.879145    608.14093  0.020443086   0.02036021            6 
 2480000   0.85246914   -7.8946593    607.24455  0.020404723   0.02035392            2 
 2481000   0.86544711   -7.9145407     605.8942  0.020351142   0.02034764            2 
 2482000   0.86097928   -7.8844331    606.98047  0.020379414  0.020341324            2 
 2483000   0.86121465   -7.8809142    608.12281  0.020409545   0.02033507            2 
 2484000   0.84090493   -7.8822699    608.17331  0.020403023  0.020328833            1 
 2485000   0.85703432    -7.906472     609.1714  0.020428283  0.020322626            6 
 2486000   0.85719726   -7.9247027    607.65021  0.020369074  0.020316393            2 
 2487000   0.85310662   -7.9172305    609.23086  0.020413847  0.020310196            1 
 2488000   0.85092659   -7.9042649    608.88213  0.020393962  0.020303998            3 
 2489000   0.85545881   -7.9001015    608.02707   0.02035714  0.020297796            1 
 2490000   0.86150939   -7.9213969    608.64381  0.020369606  0.020291562            3 
 2491000   0.86067953   -7.9008863    609.05582  0.020375211  0.020285369            1 
 2492000   0.85500537   -7.9018998     608.4421  0.020346512  0.020279182            1 
 2493000   0.85506659   -7.9375561    609.70713  0.020380637  0.020272985            2 
 2494000   0.86715729   -7.9174674    607.93517  0.020313258  0.020266807            2 
 2495000   0.85645127   -7.9491129    606.68848  0.020263476  0.020260566            4 
 2496000   0.84274208   -7.9136915    609.09278   0.02033563  0.020254334            2 
 2497000    0.8337724   -7.9119667    609.03516  0.020325563  0.020248109            1 
 2498000   0.84466396   -7.9344911    608.55308  0.020301344  0.020241855            2 
 2499000   0.84354869   -7.9148446    607.58256  0.020260856  0.020235609            1 
 2500000   0.86211526   -7.9247052    608.90364  0.020296788  0.020229369            2 
 2501000    0.8400879   -7.9225601    608.56117  0.020277262  0.020223157            2 
 2502000   0.84945486   -7.8614881    610.98284  0.020349815   0.02021698            1 
 2503000   0.84862155   -7.8883845     611.2517  0.020350636   0.02021082            1 
 2504000   0.85070477    -7.910271    610.04043  0.020302197  0.020204663            5 
 2505000   0.85033903   -7.8996366    610.63296  0.020313804  0.020198531            4 
 2506000   0.84986017   -7.8891996    610.66463  0.020306752  0.020192385            2 
 2507000   0.86890015   -7.9158777    608.59326  0.020229798    0.0201862            2 
 2508000   0.86399855   -7.9303288     609.4445  0.020250017  0.020180027            3 
 2509000   0.84691609   -7.9111728    611.02392  0.020294404  0.020173839            2 
 2510000   0.84784137   -7.9052869    611.42404  0.020299603  0.020167671            4 
 2511000   0.86495526   -7.9410579    610.49658  0.020260739  0.020161534            1 
 2512000   0.84209205   -7.9334018    610.36299  0.020248242  0.020155383            2 
 2513000   0.83545937   -7.9569254      609.721  0.020218895  0.020149201            3 
 2514000   0.84656883   -7.9383929    608.94057  0.020184983  0.020143007            2 
 2515000   0.83506527   -7.9269209    610.90346  0.020241997  0.020136859            2 
 2516000   0.84181626   -7.9215645    611.94408  0.020268418  0.020130755            2 
 2517000   0.84004292   -7.9418817    610.24437  0.020204091  0.020124661            3 
 2518000   0.83926746   -7.9065932    610.75015  0.020212806  0.020118559            3 
 2519000   0.85811325   -7.9459881    612.25618  0.020254604  0.020112479            1 
 2520000   0.83490096   -7.8991272    612.42858  0.020252268  0.020106434            3 
 2521000   0.83623074   -7.9184989    611.24892   0.02020524  0.020100406            2 
 2522000    0.8496527   -7.9441504    611.75508  0.020213953  0.020094345            2 
 2523000   0.83690736   -7.9076862    612.49508  0.020230383  0.020088297            6 
 2524000   0.84049358   -7.8794833    614.61696  0.020292425   0.02008228            3 
 2525000   0.84697911   -7.9335408    613.16019   0.02023631  0.020076243            2 
 2526000   0.85591209    -7.936835    612.16081  0.020195329  0.020070141            3 
 2527000   0.84388613   -7.9047862    612.66907  0.020204098  0.020064066            3 
 2528000   0.85746178   -7.9413654    612.15414  0.020179132  0.020057975            1 
 2529000   0.84491259   -7.9499293    613.63073  0.020219808  0.020051899            1 
 2530000    0.8734887   -7.9351527    612.81267  0.020184871  0.020045799            1 
 2531000   0.86395391   -7.9101236    612.44931  0.020164932  0.020039756            2 
 2532000    0.8418008   -7.8822816    612.89652  0.020171686  0.020033717            1 
 2533000   0.83626525   -7.9230903     612.0098  0.020134551   0.02002764            2 
 2534000    0.8398259   -7.9212752    613.24591  0.020167256  0.020021566            1 
 2535000   0.83666879   -7.9078805    613.98384  0.020183558    0.0200155            1 
 2536000   0.82847862   -7.9005194    613.23544  0.020151007  0.020009504            1 
 2537000   0.85285323   -7.9000908    613.34107  0.020146534  0.020003419            2 
 2538000   0.83835069   -7.9393851     613.2416   0.02013533  0.019997383            3 
 2539000   0.85062215   -7.9298673    614.68817  0.020174878   0.01999133            3 
 2540000   0.86851448    -7.957756    613.94216  0.020142459  0.019985265            2 
 2541000   0.87533519    -7.930481    613.09311  0.020106687  0.019979176            3 
 2542000   0.83267911   -7.9167812    613.43965  0.020110138  0.019973117            1 
 2543000   0.85324208   -7.9102955    615.53014  0.020170735  0.019967095            2 
 2544000    0.8404683   -7.9391772    612.80164  0.020073429  0.019961038            3 
 2545000   0.83855399    -7.912249    614.23812  0.020112577  0.019955001            1 
 2546000   0.84628578   -7.9492966    613.14237  0.020068813  0.019948945            3 
 2547000   0.84909553   -7.9734257    612.42378  0.020037422  0.019942865            1 
 2548000   0.83245789   -7.9282921    612.50035  0.020032063  0.019936775            1 
 2549000    0.8537674   -7.9637761    612.88516  0.020036784    0.0199307            1 
 2550000   0.86121354   -7.9420777    614.16706  0.020070819  0.019924608            2 
 2551000   0.84508265   -7.9377203    615.04022  0.020091475   0.01991854            3 
 2552000   0.85282093   -7.9383014    615.23876  0.020090085  0.019912463            4 
 2553000   0.84289035   -7.9298568     613.6575  0.020030601  0.019906406            4 
 2554000    0.8431207   -7.9148046     613.6019  0.020020944  0.019900376            2 
 2555000   0.85046738   -7.9406691    614.54703  0.020043934  0.019894312            2 
 2556000   0.83691159   -7.9398323    613.10382   0.01998904  0.019888257            2 
 2557000   0.84441066   -7.9333232    613.83595  0.020005082  0.019882159            1 
 2558000    0.8413503   -7.9387803    614.16383  0.020007944  0.019876093            2 
 2559000   0.84833811   -7.9145382    614.98858  0.020026983  0.019870032            3 
 2560000   0.85604846    -7.971003    615.64261  0.020040449  0.019863969            4 
 2561000   0.84255785   -7.9252888    613.54566  0.019964391   0.01985793            2 
 2562000   0.82947694   -7.9525184    614.12773  0.019975531  0.019851886            2 
 2563000   0.84607446   -7.9436652    614.82158  0.019990297  0.019845816            1 
 2564000   0.83446124   -7.9178664    615.76728  0.020013237  0.019839772            1 
 2565000   0.85466315   -7.9522062    613.80756  0.019941766  0.019833735            3 
 2566000   0.84937117   -7.9341192    614.28012  0.019949341  0.019827653            3 
 2567000   0.83549535   -7.9464053    615.76644  0.019989821  0.019821572            3 
 2568000   0.83240541   -7.9357318    614.75353  0.019949167  0.019815467            3 
 2569000   0.84408767   -7.9231203    615.43513  0.019963511  0.019809366            1 
 2570000   0.83522876   -7.9252152    614.98608  0.019941183  0.019803358            2 
 2571000   0.84256142   -7.9115864     616.6732  0.019988111   0.01979735            3 
 2572000   0.83631887   -7.9061907    617.24896  0.019998994  0.019791359            3 
 2573000   0.83674367   -7.9311468    616.27767  0.019959764   0.01978537            3 
 2574000   0.84763435   -7.9164228    616.74671  0.019967195  0.019779422            1 
 2575000   0.84178903    -7.933887    615.30516  0.019912788  0.019773428            2 
 2576000    0.8345559   -7.9200587    616.19172  0.019933738  0.019767415            2 
 2577000   0.83226278   -7.9594991    615.97236  0.019918909  0.019761409            1 
 2578000   0.83123941   -7.9560108     615.7789   0.01990493  0.019755363            2 
 2579000   0.85083639    -7.951423    614.54693  0.019857404  0.019749336            2 
 2580000   0.85193368   -7.9303687    616.85125  0.019924136  0.019743301            3 
 2581000    0.8236724   -7.9398617    615.98489  0.019888444  0.019737262            2 
 2582000   0.82746021   -7.9492556    615.19802  0.019855345  0.019731225            1 
 2583000    0.8528379   -7.9266601    614.76083  0.019833554  0.019725194            3 
 2584000   0.82951439   -7.9241108    615.56171  0.019851706  0.019719169            1 
 2585000   0.83364273   -7.9623712     615.7457  0.019849958  0.019713133            1 
 2586000   0.83650358   -7.9569224    616.07602  0.019852927  0.019707048            5 
 2587000    0.8254125   -7.9555851    615.62839  0.019830833  0.019700987            4 
 2588000   0.84639655   -7.9341504    615.46577  0.019817934  0.019694919            2 
 2589000   0.82692896   -7.9299372    616.63994  0.019848073  0.019688864            2 
 2590000   0.83876177   -7.9607197    616.36343  0.019831513  0.019682823            3 
 2591000   0.83381621   -7.9761724    614.61278  0.019767554  0.019676755            3 
 2592000   0.83097069   -7.9632161     615.7222  0.019795595    0.0196707            1 
 2593000   0.84965423   -7.9591115    616.42691  0.019810609  0.019664613            1 
 2594000   0.82464921   -7.9413439    616.89604  0.019818043   0.01965852            2 
 2595000    0.8212792   -7.9281403    616.88793  0.019810145  0.019652439            2 
 2596000   0.83899085   -7.9460411    616.27956  0.019782985  0.019646365            2 
 2597000   0.83168185   -7.9387981    616.16203  0.019771596  0.019640295            2 
 2598000   0.83919824   -7.9282101    617.23416  0.019798376  0.019634236            2 
 2599000   0.81430149   -7.9424817     616.3508  0.019762434  0.019628202            1 
 2600000    0.8410332   -7.9705015    616.37933  0.019755748  0.019622163            1 
 2601000   0.83909383   -7.9514335    618.01985  0.019800713  0.019616105            5 
 2602000   0.86309504   -7.9666004    616.42659  0.019742076  0.019610069            5 
 2603000   0.84337532   -7.9547731    615.53364  0.019705905  0.019604015            1 
 2604000   0.84348455   -7.9611294    615.06468  0.019683329  0.019597968            2 
 2605000   0.83030907   -7.9531107    617.39894  0.019750446  0.019591896            2 
 2606000   0.84700024   -7.9650072    615.21475  0.019673022  0.019585782            3 
 2607000   0.82668864   -7.9364352    616.54788   0.01970809  0.019579654            1 
 2608000   0.82565572   -7.9790381    616.77277  0.019707719  0.019573541            3 
 2609000   0.83398755   -7.9524054    616.43633  0.019689419  0.019567424            1 
 2610000   0.83657773   -7.9859435    616.15617   0.01967293  0.019561334            1 
 2611000   0.81953899   -7.9555016     617.3668  0.019704034  0.019555242            3 
 2612000   0.84244258   -7.9570871    615.50439  0.019637072   0.01954916            3 
 2613000   0.83557069   -7.9611226    616.73763  0.019668887  0.019543094            1 
 2614000   0.83730027   -7.9408252    617.34881  0.019680847  0.019537026            2 
 2615000   0.82839866   -7.9662878    616.23985  0.019637981  0.019530943            3 
 2616000   0.82384376   -7.9696824    616.54341  0.019640144  0.019524839            3 
 2617000   0.84015733   -7.9559828    617.23072  0.019654525  0.019518757            2 
 2618000   0.83332478   -7.9424496    617.46377  0.019654436  0.019512697            2 
 2619000   0.82662473   -7.9488464    614.51319  0.019553048   0.01950665            2 
 2620000   0.82383514   -7.9463227    618.02508  0.019657286  0.019500571            2 
 2621000   0.83865459   -7.9419995     618.2419   0.01965668  0.019494563            6 
 2622000   0.84329611    -7.965437    617.91452  0.019638778  0.019488545            2 
 2623000   0.83350698   -7.9377515    618.27967  0.019642892  0.019482491            1 
 2624000    0.8344132   -8.0011014    616.79954    0.0195884   0.01947644            1 
 2625000   0.81460197   -7.9864493    618.43492  0.019632855  0.019470444            2 
 2626000   0.81654581   -7.9770451    619.11843  0.019647069  0.019464438            2 
 2627000   0.84143228   -7.9535339    618.68878   0.01962596  0.019458421            5 
 2628000   0.85870196   -7.9696225    618.14577  0.019601274  0.019452419            2 
 2629000   0.82368404   -7.9651145    619.61827  0.019640493  0.019446427            2 
 2630000   0.83779952   -7.9791672    619.17829  0.019619084  0.019440428            2 
 2631000   0.84205532   -7.9619028    618.94504  0.019604239  0.019434403            2 
 2632000   0.84366752   -7.9848485    619.23317  0.019605913  0.019428394            2 
 2633000   0.81723796    -7.980894    619.44279  0.019605102  0.019422366            1 
 2634000   0.82742857   -7.9724215    619.77236  0.019608085  0.019416367            3 
 2635000   0.82222864   -7.9690729    618.99072  0.019575924  0.019410356            2 
 2636000   0.81591192   -7.9828049    619.01722  0.019569335  0.019404336            1 
 2637000   0.83295875   -7.9543237    619.85472  0.019588381  0.019398314            2 
 2638000   0.84594529   -7.9829082    617.72714  0.019513746  0.019392293            4 
 2639000   0.82815159   -7.9662772    619.61951  0.019566108  0.019386279            1 
 2640000   0.80907526   -8.0071841    618.46058  0.019522114  0.019380244            3 
 2641000   0.84647901   -7.9655761    620.21212   0.01956999  0.019374237            2 
 2642000   0.84522769   -7.9894341    617.71655  0.019483868  0.019368202            3 
 2643000   0.83236629   -8.0069816    617.08045   0.01945644  0.019362156            2 
 2644000   0.82294517   -8.0151692    617.06829  0.019448698  0.019356091            2 
 2645000   0.84543789   -7.9856134    617.93865  0.019468766  0.019350051            3 
 2646000   0.83675249   -7.9460086    621.25142  0.019565741   0.01934402            2 
 2647000     0.827535   -7.9791494     618.3633  0.019467425  0.019338024            2 
 2648000   0.82723242   -7.9687029    619.99634  0.019511466  0.019332045            3 
 2649000   0.82712961   -7.9927195    618.99397  0.019472567  0.019326065            2 
 2650000    0.8178168   -7.9957028    620.72041   0.01951951  0.019320053            1 
 2651000   0.84745287   -7.9685865     620.2307  0.019496753  0.019314052            2 
 2652000    0.8501421   -7.9750366    620.47469  0.019497068  0.019308077            3 
 2653000   0.81274853     -7.98757    620.41188  0.019487746  0.019302092            3 
 2654000    0.8418144   -8.0040185    619.08127  0.019438623  0.019296101            2 
 2655000   0.82389377   -7.9945545    619.24431  0.019436419  0.019290123            3 
 2656000   0.83333164   -7.9779946     619.1072  0.019424799   0.01928411            1 
 2657000   0.82355812   -7.9916245     619.8753  0.019441579   0.01927812            2 
 2658000   0.81819463   -7.9786778    619.57374   0.01942481  0.019272137            4 
 2659000   0.82862249   -7.9712364    619.50385  0.019415314  0.019266138            2 
 2660000   0.82524185   -7.9645479    621.15237  0.019459661  0.019260125            2 
 2661000   0.83986361   -7.9659353    620.28306  0.019425124  0.019254146            2 
 2662000   0.83176444    -7.976978    620.60155  0.019427797  0.019248162            4 
 2663000   0.82847954   -7.9849206    620.80467  0.019426858  0.019242157            2 
 2664000   0.81433936   -8.0087052    620.03171  0.019395386  0.019236158            1 
 2665000   0.84082629   -7.9863446    621.15901  0.019423359   0.01923017            2 
 2666000   0.79969339   -7.9713243    621.37444  0.019422807  0.019224162            4 
 2667000    0.8318745   -7.9702068    620.30787  0.019382198  0.019218177            2 
 2668000   0.82464458   -7.9789411    619.77779  0.019358377   0.01921218            2 
 2669000   0.83149916   -8.0185692    621.10773  0.019392648  0.019206145            1 
 2670000   0.82090851   -8.0094367    619.88053  0.019347083  0.019200124            3 
 2671000   0.80624819   -7.9962559    621.16053  0.019379774  0.019194116            1 
 2672000   0.82812976   -8.0017929    620.68994  0.019357845  0.019188158            3 
 2673000   0.82728502   -7.9801642    622.33866  0.019402003  0.019182195            2 
 2674000    0.8319597   -7.9737824    620.62528  0.019341351   0.01917626            2 
 2675000   0.83535612   -7.9941246    621.18732   0.01935163  0.019170301            2 
 2676000   0.81341485   -7.9790635    620.83667  0.019333479   0.01916432            3 
 2677000   0.81382798   -7.9996709    621.90412  0.019359486  0.019158348            3 
 2678000   0.80753818   -8.0087958    621.15245  0.019328867  0.019152344            1 
 2679000   0.82072552   -7.9932283    620.90081  0.019313824  0.019146347            3 
 2680000    0.8280562   -7.9927984    621.91789  0.019338243  0.019140379            2 
 2681000   0.83863508   -7.9851603    622.27907  0.019342256  0.019134417            4 
 2682000   0.80622923   -7.9540954    622.00132  0.019326414  0.019128492            1 
 2683000    0.8209309   -7.9665613    623.02137  0.019350894  0.019122555            2 
 2684000   0.82395268    -7.961378    623.64719  0.019363114  0.019116653            2 
 2685000   0.81964375   -7.9860286    622.94317  0.019334052   0.01911074            3 
 2686000   0.83441401   -7.9936573    621.99736  0.019297511  0.019104811            3 
 2687000   0.81330344   -7.9980054    622.30052  0.019299731  0.019098912            1 
 2688000   0.81898008   -7.9662384    623.70392  0.019336059  0.019093011            3 
 2689000   0.81042497    -7.991075    621.95376   0.01927463   0.01908706            2 
 2690000   0.79979803   -7.9605077    622.62078  0.019288128  0.019081136            1 
 2691000   0.80936712   -7.9576443    622.13004  0.019265764  0.019075173            3 
 2692000   0.81766173   -8.0145862    621.17698  0.019229104  0.019069197            2 
 2693000   0.82508799   -7.9808867    622.36148  0.019258618  0.019063199            2 
 2694000   0.82108116   -8.0105522    622.55417  0.019257429  0.019057263            2 
 2695000   0.80760763   -8.0082249    621.00946  0.019202519    0.0190513            1 
 2696000   0.81073712   -8.0099564    622.58645  0.019244141   0.01904532            3 
 2697000   0.84085295   -7.9974177    622.48084  0.019233742   0.01903936            2 
 2698000   0.82959531   -8.0054112    622.17537  0.019217178  0.019033422            2 
 2699000   0.81104909    -7.982704    622.01657  0.019205155   0.01902747            1 
 2700000   0.81252974   -8.0065755    621.49698  0.019182006  0.019021518            1 
 2701000   0.83448186   -7.9867734    622.21385  0.019197021  0.019015589            2 
 2702000   0.83153219   -7.9631322    622.14731  0.019187864  0.019009688            2 
 2703000   0.82355247    -7.981287    623.13279  0.019211148    0.0190038            3 
 2704000   0.80519546   -8.0038013    622.19841  0.019175247  0.018997896            3 
 2705000   0.82579726    -7.988454    621.89278  0.019158742  0.018991966            4 
 2706000   0.83039057   -7.9787161     623.1353  0.019189927  0.018986048            4 
 2707000   0.83978975   -7.9757349    622.03134  0.019148853  0.018980119            1 
 2708000   0.83263961   -7.9932715    623.42186  0.019184572  0.018974196            2 
 2709000   0.80798989   -7.9692551    623.62195  0.019183645  0.018968296            1 
 2710000   0.80694745   -7.9902813    622.25679  0.019134588  0.018962378            2 
 2711000   0.81184724   -7.9748633    622.73843  0.019142335  0.018956453            1 
 2712000   0.79956853    -8.028544    621.01789  0.019082408  0.018950481            3 
 2713000   0.81648476   -8.0469925    621.75261  0.019097942  0.018944467            2 
 2714000   0.82390468    -7.991107    622.51237  0.019114234  0.018938469            2 
 2715000   0.80446013   -7.9835461    622.99565  0.019122027  0.018932464            2 
 2716000   0.82796757   -8.0203055    623.19787  0.019121191  0.018926456            4 
 2717000   0.82353107   -8.0063241    622.18132  0.019082975  0.018920454            2 
 2718000   0.82644074   -7.9871022    622.15658  0.019075196  0.018914444            2 
 2719000   0.80506155   -7.9734234    623.37404  0.019105494  0.018908472            1 
 2720000   0.81337626   -8.0170405    623.00849   0.01908727  0.018902496            5 
 2721000   0.82286847   -8.0181057    621.70565  0.019040354  0.018896537            2 
 2722000   0.80542719   -8.0141829     623.0342  0.019074032  0.018890566            2 
 2723000    0.8102626   -7.9976743    623.89687  0.019093429  0.018884587            1 
 2724000   0.81287332   -8.0233324    621.39843  0.019009986  0.018878607            4 
 2725000    0.8035405     -8.02716    622.38224  0.019033096  0.018872613            3 
 2726000   0.81808397   -8.0158452    621.01427  0.018984295  0.018866635            1 
 2727000   0.81746181   -8.0537373    622.73091  0.019029792  0.018860659            2 
 2728000   0.81015438   -8.0415552    622.91368  0.019028399  0.018854659            2 
 2729000   0.81894124   -8.0218172    622.99371   0.01902387  0.018848667            1 
 2730000   0.80492156   -8.0115276    622.74358  0.019009267  0.018842672            2 
 2731000   0.80586644   -8.0171022    623.08785  0.019012811  0.018836704            3 
 2732000   0.81260275   -8.0322731     621.9104  0.018969936  0.018830733            2 
 2733000   0.80175187   -8.0030071    622.09951  0.018968762  0.018824756            2 
 2734000   0.82972241   -7.9900417    623.97766   0.01901907  0.018818801            2 
 2735000   0.81470075   -8.0126831    623.85366  0.019008338  0.018812865            1 
 2736000   0.82332942   -8.0005937    623.13376  0.018979464  0.018806924            4 
 2737000   0.80854734   -8.0060116    623.23311  0.018975554  0.018800998            4 
 2738000   0.82706569   -7.9950121    623.24876    0.0189691  0.018795014            1 
 2739000    0.8129964   -8.0256161    621.52325  0.018909676  0.018789036            4 
 2740000   0.81425581   -8.0335194    623.10845  0.018950987  0.018783032            1 
 2741000   0.81204646   -8.0521387    622.67731  0.018930965   0.01877704            7 
 2742000   0.81009921   -8.0035931    624.18521  0.018969889  0.018771059            2 
 2743000   0.81748289    -8.012454    622.82503   0.01892165  0.018765136            2 
 2744000   0.80839979   -7.9973401    624.45091  0.018964131  0.018759193            1 
 2745000   0.81367748   -8.0358776    623.40248  0.018925394  0.018753237            4 
 2746000   0.81456088    -8.001394    622.30745  0.018885271   0.01874727            3 
 2747000   0.78515672   -8.0347674    621.76422  0.018861917  0.018741311            1 
 2748000   0.79783855   -8.0275294    622.70629  0.018883621  0.018735361            1 
 2749000   0.81476696   -8.0226637        622.7  0.018876561   0.01872942            1 
 2750000   0.84172856   -7.9924704    625.63234  0.018958556  0.018723483            3 
 2751000   0.81096328   -8.0189861    624.97081  0.018931625  0.018717548            3 
 2752000   0.80965828   -7.9989203    624.95072  0.018924138  0.018711625            3 
 2753000   0.81677712   -7.9867545    624.65248  0.018908236  0.018705691            1 
 2754000   0.79230996   -8.0268599    624.34764  0.018892146  0.018699768            1 
 2755000   0.80565618   -8.0510206    624.52086  0.018890528  0.018693808            2 
 2756000   0.81038227   -8.0004451    625.24291  0.018905507   0.01868788            4 
 2757000   0.79458324   -8.0257683    625.15323  0.018895939  0.018681942            3 
 2758000   0.80765741   -7.9903988    626.50901  0.018930052  0.018676049            4 
 2759000   0.79858069   -8.0052235     624.0402  0.018848623  0.018670149            1 
 2760000   0.81470526   -8.0171601    624.22378  0.018847336  0.018664258            2 
 2761000   0.81888025   -8.0330983    624.14595  0.018838161  0.018658341            2 
 2762000   0.80029209   -8.0426766    624.27636  0.018835275  0.018652398            1 
 2763000   0.80976519   -8.0603788    625.23594    0.0188574  0.018646435            1 
 2764000   0.82904468    -8.008888    624.60081  0.018831428  0.018640509            2 
 2765000   0.80063954    -7.998332    625.06448  0.018838592  0.018634593            1 
 2766000   0.81060316   -8.0232061    625.51961  0.018845493   0.01862868            2 
 2767000   0.80522416   -8.0330797    624.49625  0.018807862  0.018622773            1 
 2768000   0.79158392   -8.0083582    625.74201  0.018838572  0.018616873            1 
 2769000   0.79150545   -8.0272399    623.56979  0.018766395  0.018610941            5 
 2770000   0.79358491   -8.0142631    625.05486  0.018804298  0.018604979            1 
 2771000   0.79891471   -8.0230092    624.92312   0.01879355  0.018599033            1 
 2772000   0.82409237     -8.01782    623.67091  0.018749125  0.018593077            1 
 2773000   0.78878809   -8.0577878    622.71525  0.018713645  0.018587085            2 
 2774000   0.79930261   -8.0424044    624.20751  0.018751728  0.018581101            1 
 2775000   0.80124972   -8.0200552    623.84982  0.018734229  0.018575096            3 
 2776000   0.80560106   -8.0218068    623.78716  0.018725599  0.018569136            3 
 2777000    0.7909677   -8.0520576    623.60257  0.018713317  0.018563185            2 
 2778000   0.80013085   -8.0089038    622.95601  0.018687185  0.018557236            2 
 2779000   0.80223774   -8.0506784    624.74585  0.018734132  0.018551276            2 
 2780000   0.79558892   -8.0532878    624.52353  0.018720729  0.018545317            2 
 2781000   0.80164062   -7.9961602    626.41056  0.018770543  0.018539368            1 
 2782000   0.81131794   -8.0400764    625.00856    0.0187218  0.018533431            3 
 2783000   0.79983233   -8.0080861    626.23126  0.018751685  0.018527493            2 
 2784000   0.78471013   -8.0223558    625.60177  0.018726107  0.018521591            1 
 2785000   0.79923488   -8.0336635     625.0175    0.0187019  0.018515666            2 
 2786000   0.80440956   -8.0472389    626.15391  0.018729179  0.018509755            4 
 2787000   0.81858233   -8.0294367    625.37128  0.018699058  0.018503849            4 
 2788000   0.80416498   -8.0166896    626.63334  0.018730074  0.018497957            3 
 2789000   0.79151625   -8.0265623    624.56874  0.018661669  0.018492045            4 
 2790000   0.82037093   -8.0174584     627.1514  0.018732121  0.018486145            2 
 2791000   0.79965716   -8.0377578    626.24945  0.018698479  0.018480275            2 
 2792000   0.80189204   -8.0144645    625.94709  0.018682757  0.018474365            1 
 2793000   0.80067256   -8.0128964    626.73097  0.018699456  0.018468501            3 
 2794000   0.79776195   -8.0557248    624.56228   0.01862808  0.018462591            2 
 2795000    0.8053409   -8.0350833    625.74703  0.018656739  0.018456671            2 
 2796000   0.80702813   -8.0554354    624.69046  0.018618576  0.018450709            1 
 2797000   0.80098077   -8.0209562     625.6129  0.018639402  0.018444758            2 
 2798000   0.79573591   -8.0232587    626.52787  0.018659991  0.018438845            1 
 2799000    0.8008529    -8.045197    626.26028  0.018645358  0.018432942            1 
 2800000   0.82187143    -8.026304     626.4045  0.018642991  0.018427024            2 
 2801000   0.80576377   -8.0057705    626.17909  0.018629629  0.018421103            1 
 2802000   0.79604412   -8.0386956    625.60119  0.018605793  0.018415148            1 
 2803000   0.80131271   -8.0247315     626.5446  0.018627203  0.018409204            2 
 2804000   0.78770203   -8.0460747    627.12729  0.018637877   0.01840326            3 
 2805000   0.81560632   -8.0170854     626.6897  0.018618232  0.018397366            6 
 2806000   0.82373707    -8.034784    627.04747  0.018622222  0.018391468            1 
 2807000   0.80575651   -8.0509161    626.23275  0.018591401  0.018385571            2 
 2808000   0.79423902   -8.0399847    626.31909  0.018587342  0.018379652            1 
 2809000   0.79788963   -8.0210556    626.10649  0.018574418  0.018373721            2 
 2810000   0.80632973   -8.0360779    625.32787  0.018544717  0.018367794            2 
 2811000   0.79378653   -8.0481774     625.6881  0.018548799  0.018361879            5 
 2812000   0.81334481   -8.0532749    626.72398  0.018572901   0.01835596            2 
 2813000   0.77703289   -8.0510466     625.2204  0.018521756  0.018350058            3 
 2814000   0.78527188   -8.0696307    625.79164  0.018532091  0.018344127            1 
 2815000   0.80098826   -8.0553001    625.46093  0.018515717  0.018338209            2 
 2816000   0.80040109   -8.0618865    624.59288  0.018483454  0.018332277            1 
 2817000   0.81606437   -8.0384526    626.08615  0.018521067  0.018326332            1 
 2818000   0.79307065   -8.0446896    624.44415  0.018465938  0.018320403            1 
 2819000   0.79285852     -8.06555    626.73258  0.018527036  0.018314471            2 
 2820000   0.79046688   -8.0599939     624.8207  0.018463969  0.018308534            1 
 2821000   0.79978136   -8.0567888    625.79927  0.018486331  0.018302572            1 
 2822000   0.78392609    -8.041033    626.72593  0.018507144  0.018296629            2 
 2823000   0.78871753   -8.0544458    624.85158  0.018445258  0.018290664            3 
 2824000   0.79059788   -8.0535934    626.34512    0.0184828  0.018284708            3 
 2825000   0.80709637   -8.0618747    626.02304  0.018466756  0.018278764            2 
 2826000   0.80143064    -8.064254    624.58101  0.018417699   0.01827281            2 
 2827000   0.79067381   -8.0173688    626.63246  0.018471656  0.018266861            3 
 2828000    0.7985866   -8.0281223    626.86367  0.018471938  0.018260935            2 
 2829000   0.78704922   -8.0560212     627.5274  0.018484959  0.018255015            2 
 2830000   0.79458531   -8.0410306    626.58046  0.018450544  0.018249082            2 
 2831000   0.79934787   -8.0453035     626.2939  0.018435591  0.018243171            2 
 2832000    0.7911467   -8.0335217    626.56629  0.018437097  0.018237261            3 
 2833000   0.80473913   -8.0573125    626.12446  0.018417592  0.018231327            1 
 2834000   0.80173588   -8.0882615    625.10902  0.018381234  0.018225368            2 
 2835000   0.80793959   -8.0752375       624.26  0.018349794  0.018219408            1 
 2836000   0.80802391   -8.0708897    626.91446  0.018421323   0.01821345            5 
 2837000   0.80866831   -8.0737907    626.28031  0.018396202  0.018207518            3 
 2838000   0.81163868     -8.06264    626.60677  0.018399306   0.01820159            5 
 2839000   0.78767851   -8.0778595    625.58858  0.018362938   0.01819565            2 
 2840000   0.79492321   -8.0879789    626.20249  0.018374486  0.018189704            1 
 2841000   0.79793517   -8.0830235    626.16337  0.018366871  0.018183748            2 
 2842000   0.81013958   -8.0859452    625.73332  0.018347798    0.0181778            2 
 2843000   0.78794677   -8.0538927    625.72372  0.018341064  0.018171886            1 
 2844000   0.78299688   -8.0624145    625.02963  0.018314276  0.018165968            1 
 2845000   0.79437652   -8.0638492    627.08306  0.018367987  0.018160057            4 
 2846000   0.79295929   -8.0639352    626.63199  0.018348325  0.018154143            3 
 2847000   0.79825084   -8.0774411    627.16172  0.018357386   0.01814824            2 
 2848000   0.78756153   -8.0113719    628.26356   0.01838318  0.018142362            7 
 2849000   0.80856603   -8.0181097    628.09781  0.018371879  0.018136501            2 
 2850000   0.80073871   -8.0406181     628.0017  0.018362623  0.018130632            2 
 2851000    0.7870943   -8.0319041     627.1123  0.018330185  0.018124787            2 
 2852000   0.79969544    -8.040677    629.02708  0.018379707  0.018118908            2 
 2853000   0.77686514     -8.08298    627.50773  0.018328886  0.018113036            2 
 2854000   0.79738718   -8.0699815    627.53349  0.018323216  0.018107147            3 
 2855000   0.78968273   -8.0527389    628.13298  0.018334296  0.018101314            3 
 2856000   0.80528094   -8.0680909    627.35143  0.018305072  0.018095434            4 
 2857000   0.80320862   -8.0800331    627.26757  0.018296219  0.018089558            2 
 2858000   0.78711643   -8.0981277    626.51239  0.018267798  0.018083684            2 
 2859000   0.80177708   -8.1020045     626.3367  0.018256287  0.018077782            2 
 2860000   0.80151424   -8.0756503    628.45714  0.018311688  0.018071857            2 
 2861000   0.77791046   -8.0733033    626.83555  0.018258055  0.018065955            2 
 2862000   0.78485717   -8.0748384    626.78039   0.01825007  0.018060073            2 
 2863000   0.80341242   -8.0977081     627.0704  0.018252136  0.018054239            4 
 2864000   0.78523476   -8.0679324    627.27834  0.018251814  0.018048385            4 
 2865000   0.80083059   -8.0561003    627.80911  0.018260882  0.018042552            5 
 2866000   0.81285155   -8.0576408    629.02959  0.018289997  0.018036711            2 
 2867000   0.80735373   -8.0549984     629.1036  0.018285769  0.018030911            2 
 2868000   0.79367704   -8.0708881    627.51659  0.018233281  0.018025088            1 
 2869000   0.80583804   -8.0532992    627.35264  0.018222163  0.018019245            1 
 2870000   0.79874389    -8.067068    628.91897  0.018261294  0.018013418            2 
 2871000   0.79936608   -8.0727302    628.08231  0.018230649  0.018007595            2 
 2872000   0.80019759   -8.0867799    627.75546  0.018214817  0.018001762            3 
 2873000   0.80501853   -8.0800044    628.72638  0.018236639  0.017995938            3 
 2874000   0.80234632   -8.0639528    629.20965  0.018244307   0.01799011            2 
 2875000   0.79562422   -8.0851787    628.58631  0.018219893  0.017984312            3 
 2876000   0.79832177   -8.0616864     628.7034  0.018216951  0.017978525            2 
 2877000   0.80045944    -8.049952    629.12963  0.018222965  0.017972734            1 
 2878000   0.79535991   -8.0394026    630.15711  0.018246384  0.017966945            1 
 2879000    0.7954319   -8.0742305    628.94318  0.018204908  0.017961151            2 
 2880000   0.78470634    -8.069288    629.46504  0.018213688  0.017955325            2 
 2881000   0.79842614   -8.0433864    629.50024  0.018208384  0.017949507            2 
 2882000   0.79275856   -8.0633517    628.78477  0.018181378  0.017943701            3 
 2883000   0.78458733   -8.0693102    627.92686  0.018150274  0.017937874            1 
 2884000   0.77960182   -8.0674823    628.36215  0.018156558  0.017932031            2 
 2885000   0.79288534   -8.0945496    627.04772  0.018112297  0.017926183            1 
 2886000   0.80378397   -8.0811168    628.66753  0.018152793  0.017920317            1 
 2887000   0.80464698    -8.080206    629.56399  0.018172382  0.017914452            1 
 2888000   0.78904724   -8.0957518    627.22624  0.018098633  0.017908594            2 
 2889000   0.77824712   -8.0568934    628.75341   0.01813642  0.017902715            2 
 2890000   0.78465344   -8.0687423     629.5423  0.018152892  0.017896868            3 
 2891000   0.80036877   -8.0643627    627.55192   0.01808924  0.017891074            1 
 2892000   0.78752791   -8.0731315    629.56518  0.018140998  0.017885271            2 
 2893000   0.80109537   -8.0692072     628.6426  0.018108152  0.017879451            2 
 2894000   0.78791441   -8.0708455    629.90034  0.018138112  0.017873643            1 
 2895000   0.76997315   -8.0994789    628.76613  0.018099198  0.017867842            3 
 2896000    0.8035236   -8.0743473    628.95117  0.018098273  0.017862005            1 
 2897000   0.78522221   -8.0680136    628.38428  0.018075719  0.017856168            1 
 2898000   0.79006261    -8.088887    628.45975  0.018071651  0.017850334            3 
 2899000   0.79726868   -8.0889398    629.48295   0.01809483   0.01784451            2 
 2900000   0.78339168   -8.0787861    627.71874  0.018037895  0.017838669            1 
 2901000   0.77833222   -8.1014318    627.84355  0.018035262  0.017832829            3 
 2902000    0.7783659   -8.0909488    627.53809  0.018020276  0.017826973            2 
 2903000   0.79314844     -8.09512    627.16722  0.018003422  0.017821113            1 
 2904000   0.80842056   -8.1230347      628.821   0.01804468  0.017815256            4 
 2905000   0.77250686   -8.0406764    629.79472    0.0180664  0.017809447            3 
 2906000   0.80606833   -8.0818675    629.98191  0.018065552  0.017803654            7 
 2907000   0.79100058   -8.0808014    628.77992   0.01802488   0.01779784            2 
 2908000    0.7916042   -8.0342766    628.92947  0.018022968  0.017792015            1 
 2909000   0.77251263   -8.1236958    627.97434   0.01798941  0.017786198            2 
 2910000    0.7854048    -8.098727    630.02765  0.018042029   0.01778035            1 
 2911000   0.78230141    -8.086564    629.68373  0.018025986  0.017774527            3 
 2912000   0.81303982   -8.0916248    629.96231  0.018027768  0.017768728            2 
 2913000   0.79751868   -8.1183802     628.5284  0.017980559  0.017762903            2 
 2914000   0.78710573   -8.1000691    629.10554  0.017990893  0.017757081            2 
 2915000   0.77869452   -8.0786645    629.14504   0.01798585  0.017751274            2 
 2916000   0.77420271   -8.0781128     628.8331  0.017970767  0.017745464            1 
 2917000   0.77774747   -8.0835531    630.43848   0.01801047  0.017739682            2 
 2918000   0.79059879   -8.0996591    628.84175  0.017958697  0.017733892            3 
 2919000   0.78154689   -8.0721387    630.19558  0.017991195  0.017728097            2 
 2920000   0.78234728   -8.0900355    628.72126  0.017942958  0.017722302            2 
 2921000   0.78290755   -8.1012179    629.29027  0.017953049  0.017716516            2 
 2922000   0.80281058   -8.0989695    631.09842  0.017998472  0.017710712            2 
 2923000   0.78797725   -8.0730294    631.45223  0.018002401  0.017704915            4 
 2924000   0.78539841   -8.1080091    630.20887  0.017960809  0.017699111            4 
 2925000   0.77580269    -8.074366    630.79394  0.017971337  0.017693314            2 
 2926000   0.76810552   -8.0905239    628.37854  0.017896404  0.017687526            4 
 2927000   0.76939055   -8.1044043    629.40806  0.017919601  0.017681741            1 
 2928000   0.80309835   -8.1041374    628.83512  0.017897175   0.01767596            1 
 2929000   0.79400691   -8.0869731    630.27619  0.017932064  0.017670161            1 
 2930000   0.78581106   -8.1082176    628.74835   0.01788249  0.017664386            6 
 2931000   0.76772257   -8.0843596    630.14163  0.017916002  0.017658622            2 
 2932000   0.76669331   -8.0920576    631.52894  0.017949322  0.017652881            2 
 2933000   0.77687446   -8.0721792    630.28804  0.017907945  0.017647138            2 
 2934000   0.77068436   -8.1164654    631.01602  0.017922518  0.017641367            2 
 2935000   0.78648321   -8.1052785    630.59119   0.01790435  0.017635584            5 
 2936000   0.76650321   -8.1128142    630.29495  0.017889843    0.0176298            3 
 2937000   0.76130418   -8.1190426     630.1236   0.01787889  0.017624042            2 
 2938000   0.79411742   -8.0845722    632.63441  0.017944021   0.01761828            2 
 2939000   0.78798839   -8.1121218    630.55663  0.017879002  0.017612525            3 
 2940000   0.77735702    -8.131313    630.10392  0.017860088  0.017606765            2 
 2941000   0.78939781   -8.1048597    632.17722  0.017912763  0.017600976            3 
 2942000   0.80117593   -8.1306448    630.34625  0.017854811  0.017595217            1 
 2943000   0.76740113   -8.1114671    631.89339  0.017892553  0.017589449            2 
 2944000    0.7753649   -8.0854361    628.94954  0.017803146  0.017583683            2 
 2945000   0.77041043   -8.1213899    630.29304  0.017835117  0.017577899            3 
 2946000   0.76410513   -8.0895096    631.41249  0.017860729  0.017572128            2 
 2947000   0.78311208   -8.0932744    630.47519  0.017828164  0.017566383            2 
 2948000   0.77652612   -8.1318511    631.17487  0.017841895   0.01756063            2 
 2949000   0.79440117    -8.115254    630.42682  0.017814706  0.017554847            2 
 2950000   0.77452575   -8.1124622    629.97035  0.017795773  0.017549056            2 
 2951000   0.78971928   -8.1148861    630.94832  0.017817359  0.017543313            2 
 2952000   0.76486628    -8.086028    632.94425  0.017867668  0.017537571            1 
 2953000   0.79002609   -8.1143575    631.75507  0.017828058  0.017531849            5 
 2954000   0.77553538   -8.1138676    629.95412  0.017771217  0.017526106            1 
 2955000   0.77606973   -8.1329952    632.00108  0.017822929  0.017520387            1 
 2956000   0.77826347   -8.1340496    631.13732   0.01779255  0.017514655            3 
 2957000   0.76795482   -8.1026849    632.19172  0.017816247  0.017508938            2 
 2958000   0.76731869   -8.0849841    632.58974  0.017821437  0.017503233            3 
 2959000   0.78325014   -8.0959573    632.03929  0.017799912  0.017497531            2 
 2960000   0.77702169   -8.0974597    632.98101  0.017820411  0.017491844            1 
 2961000   0.76684324   -8.0879959     631.9754  0.017786091   0.01748617            1 
 2962000   0.77532116   -8.0919833    631.87233  0.017777187  0.017480462            1 
 2963000   0.77414383   -8.1019286    632.34694  0.017784535   0.01747478            3 
 2964000   0.78002468   -8.0823837    632.84239  0.017792465  0.017469115            1 
 2965000   0.77489208   -8.0958293    632.18724  0.017768051  0.017463462            2 
 2966000   0.76743873   -8.0792062    632.66928  0.017775604  0.017457798            3 
 2967000   0.78022493   -8.1131274    631.26653  0.017730214  0.017452109            4 
 2968000   0.78309214   -8.1194758    632.03379  0.017745782  0.017446423            1 
 2969000   0.77528488   -8.0800874    632.41514  0.017750509  0.017440746            5 
 2970000   0.77420383   -8.0990509     633.5235  0.017775631  0.017435121            2 
 2971000   0.77281729   -8.1300109    630.83795  0.017694321  0.017429432            1 
 2972000   0.76887581   -8.1208024    632.43405  0.017733122  0.017423759            2 
 2973000   0.78264761   -8.1132112    631.36878  0.017697297   0.01741807            4 
 2974000   0.79321205   -8.1041054    631.12323  0.017684466    0.0174124            2 
 2975000   0.77561152   -8.1004136    633.23817  0.017737764   0.01740674            1 
 2976000   0.75778281   -8.1333546     631.7845  0.017691098   0.01740106            2 
 2977000   0.76239841   -8.1175184    633.38572  0.017729978  0.017395358            1 
 2978000   0.78842609   -8.1266945    631.90379  0.017682555  0.017389668            2 
 2979000   0.77163628   -8.1142917    632.28769  0.017687359  0.017383969            2 
 2980000   0.78069944   -8.1477215    632.62463  0.017690845  0.017378245            1 
 2981000   0.77120187   -8.1260007    632.48169  0.017680915  0.017372517            3 
 2982000   0.77471713   -8.1353589     632.8916  0.017686441   0.01736679            3 
 2983000    0.7801452   -8.1123283    632.15655  0.017659977  0.017361086            2 
 2984000   0.75263329   -8.1253073    632.89732  0.017674747  0.017355348            3 
 2985000   0.76890486   -8.1241536    631.93207  0.017641878  0.017349635            3 
 2986000   0.77167996   -8.1281295    631.76099  0.017631195  0.017343919            2 
 2987000   0.75756592   -8.0943881    631.64775  0.017622133  0.017338221            1 
 2988000   0.78335664   -8.1474374    630.28567  0.017578248  0.017332485            2 
 2989000   0.77646307   -8.1268839    632.09426  0.017622791  0.017326759            2 
 2990000   0.78079797   -8.1291827    632.32599  0.017623355  0.017321055            4 
 2991000   0.77496457   -8.1649028    632.57308  0.017624348  0.017315316            1 
 2992000   0.75779556   -8.1089901    630.07673  0.017548928  0.017309573            2 
 2993000   0.78399258   -8.1347716    631.89215  0.017593611  0.017303822            1 
 2994000   0.77865609    -8.134415     631.3967  0.017573945  0.017298083            1 
 2995000   0.76341227   -8.1572587    630.64957  0.017547289  0.017292339            2 
 2996000   0.77582221    -8.165843    631.07438  0.017553248  0.017286583            2 
 2997000   0.75732889   -8.1301994    630.35838  0.017527482  0.017280849            2 
 2998000    0.7628179   -8.1114858    631.73567   0.01755992  0.017275133            2 
 2999000   0.76894581   -8.0939202    632.59244  0.017577872  0.017269413            1 
 3000000   0.79047651   -8.1212902    631.58559  0.017544044  0.017263677            3 
 3001000   0.75554984   -8.0966864    631.69464  0.017541226  0.017257942            1 
 3002000   0.76188931   -8.1438316    632.50718  0.017557939  0.017252215            1 
 3003000   0.76606862   -8.1364105    631.33175  0.017519474  0.017246517            1 
 3004000   0.76905697   -8.1525839    631.98125  0.017531659  0.017240798            1 
 3005000   0.76951193   -8.1387855    630.76698  0.017492151   0.01723506            3 
 3006000    0.7676585   -8.1364676    630.79184  0.017487022  0.017229319            2 
 3007000   0.77578777   -8.1206393    632.13268  0.017518365  0.017223587            3 
 3008000   0.75063341   -8.1222032    630.73152  0.017473724  0.017217848            5 
 3009000   0.77183538   -8.1204856    632.83729  0.017526235  0.017212135            6 
 3010000   0.78881061   -8.1339207    630.74202  0.017462404  0.017206412            3 
 3011000   0.76380282   -8.1432026    630.94758  0.017462293  0.017200691            2 
 3012000   0.76025059   -8.1322816    632.63215  0.017503103  0.017194991            2 
 3013000   0.77733557   -8.1409109    631.78591  0.017473889  0.017189309            1 
 3014000   0.77111396   -8.1655809    630.68705  0.017437709   0.01718357            1 
 3015000   0.77890867   -8.1738585    630.58331  0.017429058  0.017177835            1 
 3016000   0.75100536   -8.1504454    631.12565  0.017438264  0.017172098            1 
 3017000   0.75278883   -8.1525297    631.32949  0.017438114  0.017166348            3 
 3018000   0.77823269   -8.1614676    630.75289  0.017416415  0.017160599            3 
 3019000   0.76782902   -8.1514993    631.19365  0.017422812  0.017154848            3 
 3020000   0.76016709   -8.1440561    629.98218  0.017383614  0.017149131            3 
 3021000   0.77048156   -8.1784499    630.56796  0.017394019  0.017143399            2 
 3022000   0.78039409   -8.1564094      631.054  0.017401665  0.017137663            3 
 3023000   0.76679259   -8.1359545    632.36048  0.017431924  0.017131938            1 
 3024000   0.75655928     -8.11491    632.45495  0.017428763  0.017126215            1 
 3025000   0.76488868   -8.1473184    630.83804  0.017378458  0.017120526            2 
 3026000   0.78262324   -8.1206164    631.63333  0.017394617  0.017114815            2 
 3027000   0.76955828   -8.1173657    631.58064   0.01738742  0.017109117            2 
 3028000   0.75483155   -8.1424926    632.42881   0.01740502  0.017103425            1 
 3029000   0.74724826    -8.148677    631.37999  0.017370419  0.017097716            2 
 3030000   0.76919247    -8.173959    630.51501  0.017340897   0.01709199            3 
 3031000   0.78447456   -8.1417252    631.99009  0.017375731  0.017086297            2 
 3032000   0.75196745   -8.1548046    632.28228  0.017378031  0.017080615            1 
 3033000   0.75178793   -8.1478022    631.73965  0.017357392  0.017074921            1 
 3034000   0.74394147    -8.156333    631.02738  0.017332108  0.017069232            2 
 3035000   0.76110948   -8.1743408    632.55683  0.017368392  0.017063557            4 
 3036000   0.77019586   -8.1467555    632.73794  0.017367642  0.017057868            1 
 3037000   0.76449864   -8.1363451    632.04627  0.017342944  0.017052202            2 
 3038000   0.78318988   -8.1328341    631.66043  0.017326652  0.017046546            1 
 3039000   0.77869062   -8.1699475    632.48325  0.017343513  0.017040864            2 
 3040000   0.74696569   -8.1497401    631.94045  0.017322929  0.017035175            2 
 3041000   0.75565311   -8.1351204    631.31444  0.017300078  0.017029494            7 
 3042000   0.76840305    -8.160811    631.62979   0.01730303  0.017023836            2 
 3043000    0.7542328   -8.1475452    631.72748  0.017300019  0.017018169            6 
 3044000   0.76197731   -8.1229527    632.50959  0.017315746  0.017012504            2 
 3045000   0.75650154   -8.1430744    633.13962  0.017327302  0.017006871            2 
 3046000   0.75821886   -8.1426381    631.94855  0.017289028  0.017001182            2 
 3047000   0.77028672   -8.1455137    631.30128  0.017265651  0.016995513            1 
 3048000   0.77009374   -8.1452981    632.16099  0.017283492   0.01698983            1 
 3049000   0.76485626   -8.1597233    632.16057  0.017277811  0.016984141            1 
 3050000   0.76129618   -8.1346678    632.26643  0.017275039  0.016978464            3 
 3051000   0.76733563   -8.1520674    631.72299  0.017254534  0.016972821            1 
 3052000    0.7733006   -8.1339471    632.60585  0.017272986  0.016967171            2 
 3053000   0.77341174   -8.1130168    632.39826  0.017261662  0.016961524            3 
 3054000   0.76967642    -8.173135     632.1145  0.017248267  0.016955862            2 
 3055000   0.76589603    -8.144925    633.29393  0.017274794  0.016950211            1 
 3056000   0.75694365   -8.1674018    632.53811   0.01724853  0.016944537            4 
 3057000   0.75611718   -8.1665659    631.19502  0.017206276  0.016938861            1 
 3058000   0.76425265   -8.1898679    631.46283  0.017207947  0.016933201            2 
 3059000   0.76424385   -8.1819393    632.81926  0.017239274  0.016927534            2 
 3060000   0.75339139   -8.1337781    631.23047  0.017190372  0.016921883            2 
 3061000   0.76832819   -8.1602001    632.04145  0.017206835  0.016916244            3 
 3062000   0.73660829   -8.1382685    633.79093  0.017248828  0.016910626            2 
 3063000   0.76136599   -8.1306291    633.39293  0.017232368  0.016904998            2 
 3064000   0.76445285   -8.1613288    632.73708  0.017208907  0.016899336            2 
 3065000   0.76024782   -8.1408843    632.03645  0.017184243  0.016893688            7 
 3066000   0.76377574   -8.1529824    631.90175  0.017174977  0.016888021            2 
 3067000   0.74893368   -8.1379149    632.54255  0.017186788  0.016882368            2 
 3068000    0.7554153   -8.1561275    632.30716  0.017174792  0.016876718            2 
 3069000   0.75785512   -8.1390922    633.44487  0.017200089  0.016871064            1 
 3070000   0.75793171   -8.1558344    632.62036  0.017172105  0.016865442            4 
 3071000   0.76697063   -8.1420844    633.52143  0.017190965  0.016859819            1 
 3072000   0.75355868    -8.140992    633.69558  0.017190093  0.016854195            2 
 3073000   0.77077975   -8.1383958    634.56614  0.017208107  0.016848557            3 
 3074000   0.75978894   -8.1471389    633.27624  0.017167541  0.016842926            1 
 3075000   0.76965909   -8.1808773    632.61426  0.017144018  0.016837294            1 
 3076000   0.75317044    -8.168719    632.45306  0.017134077  0.016831665            7 
 3077000   0.75566291   -8.1579241    633.48258  0.017156391  0.016826036            3 
 3078000   0.74654342   -8.1531217    632.54964  0.017125559  0.016820429            1 
 3079000     0.744175   -8.1801567    632.84734  0.017128054  0.016814782            1 
 3080000   0.74502151    -8.174124    632.55378   0.01711455  0.016809133            2 
 3081000   0.76074555   -8.1811407    631.57357  0.017082483  0.016803483            2 
 3082000   0.75171332   -8.1714319    634.08116  0.017144743  0.016797848            2 
 3083000   0.75939282   -8.1632181    633.00916  0.017110205  0.016792195            2 
 3084000   0.77009961   -8.1671623    632.64587  0.017094841  0.016786565            1 
 3085000    0.7557664   -8.1844358       633.01  0.017099135  0.016780939            2 
 3086000   0.77425831   -8.1723344    631.69759  0.017058155   0.01677531            1 
 3087000   0.73912717   -8.1554691    633.01684  0.017088242  0.016769669            2 
 3088000   0.77084417   -8.1577929    632.04129  0.017056382  0.016764028            2 
 3089000   0.75621839   -8.1827825    631.29436   0.01703071  0.016758393            5 
 3090000   0.75715321   -8.1896429    632.11275  0.017047269  0.016752735            3 
 3091000   0.76742588   -8.2078103    632.71799  0.017058072  0.016747073            5 
 3092000   0.75750085   -8.1854622    631.84997  0.017029161  0.016741421            3 
 3093000   0.76414553   -8.2060231    631.41256   0.01701187  0.016735755            3 
 3094000   0.78049534   -8.1625965    632.60927  0.017038604  0.016730107            2 
 3095000   0.74549944   -8.1988749     632.3395  0.017025835  0.016724469            2 
 3096000   0.76792534   -8.1845409    633.19681  0.017043411  0.016718824            3 
 3097000   0.75983106   -8.1730435    632.11514  0.017008803   0.01671318            1 
 3098000   0.75795349   -8.2000518    631.26292  0.016980388   0.01670754            4 
 3099000   0.74069399    -8.183804    632.17745  0.016999501  0.016701888            1 
 3100000   0.73890309   -8.1900755    631.90298  0.016986639  0.016696226            3 
 3101000   0.75542503   -8.1852912    631.74565  0.016976933  0.016690554            3 
 3102000   0.74485984   -8.1987723    631.52201  0.016965453  0.016684877            1 
 3103000   0.76252165   -8.2165088    631.96991  0.016972014  0.016679213            2 
 3104000   0.75263912    -8.182631    632.75781  0.016987699  0.016673538            4 
 3105000   0.74849627   -8.2050628     632.0636  0.016963596  0.016667896            3 
 3106000   0.75169168   -8.1525924    632.38718  0.016966816  0.016662251            5 
 3107000   0.75369369    -8.168708    632.51912  0.016964894  0.016656604            1 
 3108000   0.75069871   -8.1721479    632.87447  0.016968964   0.01665095            3 
 3109000   0.74473407   -8.1914261    632.63757  0.016957156  0.016645299            2 
 3110000   0.74414468   -8.1708237    634.44704  0.017000189  0.016639658            4 
 3111000   0.75142689   -8.1726739    632.57079  0.016944466  0.016634019            2 
 3112000   0.74872307   -8.1951722    632.07766  0.016925816  0.016628387            2 
 3113000   0.76697275   -8.1813665    633.97697  0.016971222  0.016622751            2 
 3114000   0.74689947   -8.1870923    634.09744  0.016968996  0.016617124            2 
 3115000   0.75314388   -8.1968977    632.19757  0.016912723  0.016611489            1 
 3116000   0.75991322   -8.2043195     631.8497  0.016897992  0.016605829            2 
 3117000   0.74522612   -8.1955115    632.19526  0.016901809  0.016600171            3 
 3118000   0.75930846   -8.2011541    633.23404  0.016924151  0.016594518            2 
 3119000   0.75760475   -8.1669015    634.20026   0.01694454  0.016588899            2 
 3120000   0.73833521   -8.1662346    633.77174  0.016927664    0.0165833            1 
 3121000   0.75126136   -8.1570185     632.8191  0.016896804    0.0165777            1 
 3122000   0.75499788   -8.1575603    633.56678  0.016911349  0.016572095            2 
 3123000   0.77677444   -8.1791156    632.85904  0.016887049  0.016566472            1 
 3124000   0.74382915   -8.1694544    632.97069  0.016884621  0.016560837            2 
 3125000   0.75370806   -8.1827918    632.37771  0.016863406  0.016555213            1 
 3126000   0.75890239   -8.1435318     633.2691  0.016881774  0.016549606            3 
 3127000   0.75413866   -8.1889513    632.68218  0.016860734  0.016543984            2 
 3128000    0.7397267   -8.1659365    632.38383  0.016847395  0.016538362            1 
 3129000   0.74695376   -8.1665825    633.08585  0.016860708  0.016532746            3 
 3130000   0.73985911   -8.1613807     631.8997  0.016823741  0.016527139            2 
 3131000   0.74411723   -8.1865141    632.35532  0.016830494  0.016521536            3 
 3132000   0.74447474   -8.1743736    632.88239  0.016839144  0.016515919            1 
 3133000   0.76472758   -8.1850694    633.34982  0.016846202  0.016510289            4 
 3134000   0.75070042    -8.203269    632.53781  0.016819235  0.016504681            3 
 3135000   0.75159836     -8.20219    632.76531  0.016819918  0.016499048            1 
 3136000   0.74391304   -8.2005671    631.46986   0.01678013  0.016493419            2 
 3137000   0.76493159   -8.1724913    632.23606  0.016795135  0.016487781            3 
 3138000      0.76394   -8.2211862    632.96889  0.016809244  0.016482148            2 
 3139000   0.73183452   -8.2073647    632.54006  0.016792505  0.016476499            5 
 3140000   0.73867977   -8.1911721    632.48184  0.016785611  0.016470854            2 
 3141000   0.75640479   -8.1914048    632.95571   0.01679284  0.016465219            2 
 3142000   0.75492372   -8.2196574    631.69903  0.016754165  0.016459601            2 
 3143000   0.74856264   -8.1925477    632.15231  0.016760852  0.016453984            2 
 3144000   0.74187891    -8.202608    633.03527  0.016778925  0.016448368            1 
 3145000   0.73270253   -8.2488985    631.12734  0.016723035  0.016442724            3 
 3146000   0.74005586   -8.2000113    633.04772  0.016768588  0.016437079            1 
 3147000    0.7470038   -8.2223324     631.5974  0.016724854  0.016431437            2 
 3148000    0.7497993   -8.1886855    633.82603  0.016778538   0.01642581            1 
 3149000   0.73972636   -8.1984619    633.30993  0.016759551  0.016420186            4 
 3150000   0.74230994   -8.2010264    632.14886  0.016723515  0.016414552            1 
 3151000   0.74526514    -8.224196    631.94374  0.016712783  0.016408933            1 
 3152000   0.75600856   -8.1935609    634.38835  0.016772112  0.016403328            3 
 3153000   0.76224215   -8.1894696    632.52688  0.016717594  0.016397731            1 
 3154000   0.73859456   -8.2229201    632.85248  0.016720896  0.016392144            3 
 3155000   0.74183144   -8.1769387    632.96354   0.01671853  0.016386538            3 
 3156000   0.74041951   -8.1977787    633.56132  0.016729017  0.016380952            1 
 3157000   0.74592762   -8.2359846    632.17172  0.016687037  0.016375354            1 
 3158000   0.74666993   -8.2215322    631.50109  0.016664057  0.016369765            2 
 3159000   0.72860908   -8.1917974     633.2613  0.016705215  0.016364179            1 
 3160000   0.73060724   -8.2043271    633.26765  0.016700096  0.016358596            1 
 3161000   0.73471101   -8.2029341    632.89603  0.016685016   0.01635301            3 
 3162000   0.74173905   -8.2169195    632.80012  0.016677212  0.016347417            1 
 3163000    0.7551728   -8.2000681    632.96864  0.016676379  0.016341833            2 
 3164000   0.72620759   -8.1747448    633.44068  0.016683541  0.016336278            2 
 3165000   0.73723906   -8.2103771    634.21895  0.016698761  0.016330739            3 
 3166000   0.74586409   -8.1820708    634.47658  0.016700268    0.0163252            1 
 3167000   0.76235786   -8.1936149    634.00361  0.016682549  0.016319632            3 
 3168000   0.74222037    -8.185235    633.24562  0.016657345  0.016314054            1 
 3169000   0.72782456   -8.1981481    632.12259  0.016622557  0.016308493            4 
 3170000   0.74567318   -8.2230304    632.39667  0.016624518  0.016302929            1 
 3171000   0.74617225   -8.2213255    633.29379  0.016642852  0.016297384            2 
 3172000   0.74786743   -8.2155726    633.98039  0.016655643  0.016291848            3 
 3173000   0.74999521   -8.2015144    634.03263  0.016651766  0.016286299            1 
 3174000     0.749885   -8.2201174    632.54584  0.016607484  0.016280766            3 
 3175000   0.75209163   -8.1837033    633.19567  0.016619309  0.016275207            1 
 3176000   0.76189934   -8.2120041    633.44241   0.01662055  0.016269657            1 
 3177000    0.7376983   -8.2088162    633.87311  0.016626616  0.016264123            7 
 3178000   0.74432212   -8.2031394    633.13787  0.016602105  0.016258576            3 
 3179000    0.7383099     -8.23734    633.29103  0.016600897  0.016253014            1 
 3180000   0.73978787   -8.2146827    632.91478  0.016585817  0.016247441            2 
 3181000   0.73738457   -8.2181136    632.84601  0.016578801  0.016241874            2 
 3182000   0.74044325   -8.2402702    633.25673  0.016584348  0.016236303            1 
 3183000   0.74460437   -8.2064261    632.73662  0.016565521  0.016230752            4 
 3184000   0.75273088   -8.2071465     633.0371  0.016568182  0.016225188            3 
 3185000   0.74076607   -8.2112698    633.20369  0.016567339  0.016219633            2 
 3186000   0.72935582    -8.181073    633.60891  0.016572738  0.016214063            2 
 3187000   0.72993404   -8.2510643    633.29152  0.016559239  0.016208497            1 
 3188000   0.74447776   -8.2097432    633.47213  0.016558765  0.016202917            3 
 3189000   0.74000405   -8.2061544    633.56257  0.016555936  0.016197363            2 
 3190000    0.7553801   -8.2003773    634.32308  0.016570613   0.01619184            3 
 3191000   0.74089569   -8.1973079    634.48114  0.016569548  0.016186311            2 
 3192000   0.75684106   -8.2246701     634.4823  0.016564387  0.016180778            6 
 3193000   0.73785563   -8.2468125    632.83502  0.016516208  0.016175237            3 
 3194000   0.74027699   -8.2347738    632.90673  0.016512908  0.016169681            2 
 3195000   0.73019341   -8.2446687    632.07324     0.016486  0.016164128            1 
 3196000   0.74661507    -8.233297    633.61483  0.016521037  0.016158591            2 
 3197000   0.74751916   -8.2186901    633.31434  0.016508037   0.01615307            4 
 3198000    0.7511803   -8.1971676    633.95874  0.016519667  0.016147554            1 
 3199000   0.73797896    -8.210875    633.39238  0.016499749  0.016142041            6 
 3200000   0.73666424   -8.2014312    634.62521  0.016526698  0.016136519            3 
 3201000    0.7490131   -8.2179046     633.5916  0.016494627  0.016130984            2 
 3202000    0.7354255   -8.2057008    633.13652  0.016477632  0.016125455            1 
 3203000   0.73557324   -8.2217616    634.26602  0.016501874  0.016119949            1 
 3204000   0.72778265   -8.2228543    633.97581  0.016489175  0.016114449            3 
 3205000   0.73505352   -8.2153066    633.71246  0.016477183   0.01610894            2 
 3206000   0.72310023   -8.1937412    634.55364  0.016493908  0.016103446            2 
 3207000   0.74616424   -8.1978569    635.07663  0.016502355  0.016097947            2 
 3208000   0.72263685   -8.1822758    634.70993  0.016487685  0.016092451            3 
 3209000   0.73249219   -8.2213699    633.51613  0.016451546  0.016086959            4 
 3210000   0.73653449   -8.2221561    633.96533  0.016458082   0.01608146            2 
 3211000   0.73451492   -8.2121888    634.58669  0.016469083   0.01607597            2 
 3212000   0.72820045   -8.2253206    633.10915  0.016425621  0.016070466            3 
 3213000   0.71631239   -8.2071118    632.77755  0.016411909  0.016064971            2 
 3214000   0.74208826   -8.2067936    633.84371  0.016434446  0.016059472            1 
 3215000    0.7347597   -8.2308583    634.27913   0.01644062  0.016053964            4 
 3216000   0.73116036   -8.1928238    632.45726    0.0163883  0.016048455            2 
 3217000   0.74932776   -8.2202488    633.89559  0.016420464  0.016042959            2 
 3218000   0.72452236   -8.1992395    634.57113  0.016432855  0.016037468            3 
 3219000   0.73968481   -8.2384162    631.93181  0.016359423  0.016031967            6 
 3220000   0.74497759   -8.2266345    633.88488  0.016404888  0.016026456            4 
 3221000   0.74542349   -8.2192481    633.81095  0.016397882  0.016020974            3 
 3222000   0.74217785   -8.2168573    634.86388  0.016420026  0.016015474            2 
 3223000   0.73544516   -8.1928275    634.50476  0.016405646  0.016009991            1 
 3224000   0.73663654   -8.2317808    633.00795  0.016361868  0.016004509            3 
 3225000   0.73070674   -8.2331254    633.48071  0.016369011  0.015999018            2 
 3226000   0.74969358    -8.256724    634.41529  0.016388078  0.015993531            1 
 3227000   0.73948704   -8.2202201    633.01703  0.016346892  0.015988032            2 
 3228000   0.76314855   -8.2353117    633.37655  0.016351109  0.015982531            2 
 3229000   0.70577802   -8.2568189    633.76389  0.016356041   0.01597703            7 
 3230000   0.74119557   -8.2501486    634.41226  0.016367705  0.015971505            1 
 3231000   0.74858275    -8.209003    633.04578  0.016327395  0.015965994            3 
 3232000   0.73030756   -8.2329609    633.54409  0.016335192  0.015960503            3 
 3233000   0.73595558   -8.2219562    632.82682  0.016311651  0.015954988            5 
 3234000   0.72032661   -8.2443712    632.18439  0.016290053  0.015949474            2 
 3235000   0.71713216   -8.2130415    633.25687  0.016312645  0.015943973            2 
 3236000    0.7364832   -8.2530425    634.59537  0.016342073  0.015938475            6 
 3237000   0.73438007   -8.2368481    633.81007  0.016316808  0.015932977            1 
 3238000   0.73645428   -8.2377647    633.35501  0.016300057  0.015927476            2 
 3239000   0.72443976   -8.2439591    633.23992  0.016292063  0.015921978            2 
 3240000   0.75034359   -8.2507806    632.10373  0.016257812  0.015916487            3 
 3241000   0.72403302   -8.2343738    633.07624  0.016277801  0.015910994            2 
 3242000   0.73919438    -8.230755    633.24652  0.016277157  0.015905503            5 
 3243000   0.73646492    -8.269158    633.94753  0.016290151  0.015899985            2 
 3244000   0.73809472   -8.2310944    633.37429  0.016270404  0.015894479            5 
 3245000   0.74114775   -8.2432821    633.45684   0.01626751  0.015888978            3 
 3246000   0.73255847   -8.2460635    633.32183  0.016259032  0.015883478            3 
 3247000   0.72689188   -8.2313435    634.56082  0.016285823  0.015877992            2 
 3248000   0.73487814   -8.2439946    633.56692  0.016255309  0.015872517            4 
 3249000    0.7358052   -8.2453861    633.34043  0.016244496  0.015867023            2 
 3250000    0.7373827   -8.2558306    633.75957  0.016250245  0.015861533            1 
 3251000   0.71660197   -8.2076871    633.38961  0.016235764  0.015856069            3 
 3252000    0.7219717   -8.2587193    633.22716  0.016226608  0.015850592            2 
 3253000   0.73564008   -8.2426695    632.80563  0.016210821  0.015845107            3 
 3254000   0.71749443   -8.2418892     633.0757  0.016212756  0.015839644            2 
 3255000   0.72124422   -8.2348693    633.79346  0.016226151   0.01583418            2 
 3256000   0.74253801   -8.2237031    634.61232  0.016242125  0.015828732            2 
 3257000   0.73437198   -8.2511471    632.98346  0.016195463  0.015823266            2 
 3258000   0.72778903    -8.230717    633.62544  0.016206912  0.015817797            3 
 3259000    0.7186547   -8.1959847    635.45822  0.016248804   0.01581233            1 
 3260000   0.73027096   -8.2268321    633.32008  0.016189164  0.015806884            3 
 3261000   0.73652499    -8.233417     633.9012  0.016199049  0.015801417            2 
 3262000   0.71909139   -8.2393448    634.59189  0.016211728  0.015795953            1 
 3263000   0.73341673   -8.2580003    632.38679  0.016150444  0.015790489            3 
 3264000   0.73033785   -8.2484969    633.66474  0.016178123  0.015785024            3 
 3265000   0.73159594   -8.2471955    634.85784   0.01620362  0.015779569            1 
 3266000   0.74413444   -8.2000564    632.68495  0.016143217  0.015774118            2 
 3267000   0.72553751   -8.2608279    634.93324  0.016195624  0.015768661            7 
 3268000   0.72437222   -8.2240852    634.55797  0.016181099  0.015763214            2 
 3269000   0.71498046   -8.2360392    634.65609   0.01617865   0.01575777            1 
 3270000   0.72219296   -8.2526752    633.53428  0.016145114  0.015752326            2 
 3271000   0.73849217   -8.2563707    632.36477  0.016110383  0.015746859            2 
 3272000   0.71922943   -8.2442887    633.55593  0.016135797  0.015741413            4 
 3273000   0.71480493   -8.2592385    634.37781  0.016151793  0.015735973            1 
 3274000   0.72058262   -8.2663795     634.1411  0.016140834  0.015730535            2 
 3275000   0.73862656   -8.2636824    633.93318  0.016130615  0.015725102            2 
 3276000   0.72823624   -8.2336944    634.96616  0.016151968  0.015719663            1 
 3277000    0.7219408   -8.2485227    635.13743  0.016151394  0.015714242            3 
 3278000   0.73050553   -8.2666408    634.56853  0.016132004  0.015708809            1 
 3279000   0.72293588   -8.2523523    633.55957  0.016101443  0.015703373            2 
 3280000   0.74181211   -8.2408255    634.83611  0.016128966   0.01569793            3 
 3281000   0.72436956   -8.2591751    633.88612  0.016099922  0.015692493            2 
 3282000   0.72316798   -8.2679553    634.20132  0.016103019  0.015687065            1 
 3283000   0.72448815   -8.2430405     634.1114  0.016095832  0.015681635            3 
 3284000   0.71661106   -8.2412713    634.74237  0.016106942  0.015676199            2 
 3285000   0.72586876   -8.2553196    633.70843   0.01607581   0.01567078            2 
 3286000   0.73042782   -8.2645641    633.05738  0.016054407  0.015665351            2 
 3287000   0.71302455   -8.2551307    633.32835  0.016056392  0.015659912            3 
 3288000   0.73643119   -8.2706222    632.87232  0.016039951  0.015654488            3 
 3289000   0.73600624   -8.2340417    634.66958  0.016080612   0.01564906            1 
 3290000   0.73130721   -8.2840572    634.15677  0.016062735  0.015643632            1 
 3291000   0.73054596   -8.2366955    632.71305  0.016021297  0.015638196            3 
 3292000   0.71915867   -8.2331695    634.97067  0.016073579  0.015632791            2 
 3293000    0.7400661   -8.2649968     634.6441  0.016060434  0.015627372            1 
 3294000   0.72299031   -8.2867583    634.61789  0.016054895  0.015621971            1 
 3295000    0.7304523   -8.2305666    634.21966  0.016039951  0.015616574            1 
 3296000   0.73617022   -8.2558303    635.32158  0.016062944   0.01561118            4 
 3297000   0.71106947   -8.2549855    633.92293  0.016022721  0.015605787            3 
 3298000   0.72354349   -8.2486471    634.06403  0.016021428  0.015600403            7 
 3299000   0.73365351   -8.2579242    635.07844  0.016042196  0.015595007            2 
 3300000    0.7210792   -8.2543104     634.7821  0.016029851  0.015589625            1 
 3301000   0.73991597   -8.2489975    633.49058  0.015992391  0.015584254            2 
 3302000   0.72095748   -8.2500991    634.26785  0.016007164   0.01557888            3 
 3303000   0.71510475    -8.230906    635.32671  0.016029032  0.015573495            1 
 3304000   0.71267543   -8.2436787    634.17717  0.015995187  0.015568102            2 
 3305000   0.69507278   -8.2437283    635.51702  0.016024131  0.015562718            6 
 3306000    0.7153439   -8.2515707    634.12669  0.015984238  0.015557345            8 
 3307000   0.70902454   -8.2573095    635.23331   0.01600729  0.015551955            3 
 3308000   0.71871926   -8.2258392    635.64084  0.016012718   0.01554659            1 
 3309000   0.72213357   -8.2586966    635.72653  0.016010036  0.015541234            2 
 3310000   0.72396821   -8.2491109    635.87721  0.016008993  0.015535874            3 
 3311000   0.72535107   -8.2705812    633.43941  0.015942802  0.015530502            3 
 3312000   0.69862001   -8.2634101     633.5176  0.015939956  0.015525128            1 
 3313000   0.72848295   -8.2521918    634.85799   0.01596886  0.015519754            3 
 3314000   0.72439153   -8.2590998     634.5969  0.015957476  0.015514389            2 
 3315000   0.71954998   -8.2469894    635.87999  0.015984917  0.015509032            2 
 3316000   0.71779018   -8.2656073    634.63079  0.015948703  0.015503676            4 
 3317000   0.71600008   -8.2511335    634.76532  0.015947275  0.015498318            2 
 3318000   0.72606462   -8.2484342    635.20769  0.015953579  0.015492971            2 
 3319000   0.72377462     -8.28729    633.84079  0.015914452    0.0154876            2 
 3320000   0.71749739   -8.2680246    635.59385  0.015953661  0.015482225            2 
 3321000   0.73161422   -8.2713063    634.54928  0.015922646   0.01547685            3 
 3322000   0.72704216   -8.2798692    634.25419   0.01591045  0.015471478            1 
 3323000   0.71051857   -8.2779161     633.7119  0.015892063  0.015466115            3 
 3324000   0.72543744    -8.260886    634.63481  0.015910419  0.015460766            2 
 3325000   0.71767683   -8.2663651    634.33924  0.015898227  0.015455416            2 
 3326000    0.7090452    -8.260306    634.41006  0.015895221  0.015450058            1 
 3327000   0.71883548   -8.2674467    634.28837  0.015887395  0.015444724            1 
 3328000    0.7228057   -8.2307984    634.65647  0.015891839  0.015439379            1 
 3329000   0.71943227    -8.245377    635.10085  0.015898189  0.015434052            2 
 3330000   0.71497552   -8.2507482    636.06353  0.015917506  0.015428711            1 
 3331000   0.71544248   -8.2560371    635.35252  0.015894939  0.015423363            1 
 3332000   0.72487043   -8.2817296    634.91746  0.015879288  0.015418024            2 
 3333000   0.71926168    -8.251092    634.23018   0.01585734  0.015412686            2 
 3334000   0.71781499   -8.2713673    634.08062  0.015848846  0.015407362            1 
 3335000   0.72325337   -8.2687161    633.34153  0.015825625  0.015402034            1 
 3336000   0.71382134   -8.2739006    634.61374  0.015852661  0.015396682            3 
 3337000   0.72058364   -8.2552153    634.27622  0.015839482  0.015391346            1 
 3338000   0.71907121   -8.2845718    634.68602  0.015844968   0.01538602            2 
 3339000   0.71284195   -8.2693047    634.57919  0.015837556  0.015380693            1 
 3340000   0.72549778   -8.2432429    636.04059  0.015869276  0.015375365            4 
 3341000   0.72341817    -8.282856    636.09568    0.0158659  0.015370047            2 
 3342000    0.7153304   -8.2518321    635.04533  0.015834962  0.015364708            1 
 3343000    0.7209166   -8.2776889    634.17304  0.015808481  0.015359378            1 
 3344000   0.71974254   -8.2861978    634.02497  0.015800064  0.015354045            2 
 3345000   0.73082431   -8.2572969     634.4239  0.015805279  0.015348694            1 
 3346000   0.72300752   -8.2968612    633.45773  0.015776493  0.015343338            2 
 3347000   0.73444207   -8.2869431     634.0415  0.015786314     0.015338            2 
 3348000   0.72643981   -8.2440336    634.53355  0.015793846  0.015332676            3 
 3349000   0.72103157   -8.2750438     635.4801  0.015812683  0.015327354            2 
 3350000   0.71596479   -8.2502408    634.53382  0.015784424  0.015322052            3 
 3351000   0.69374212   -8.2644207    634.63509  0.015782231  0.015316728            2 
 3352000   0.70272378   -8.2886705    633.10962  0.015739599  0.015311374            2 
 3353000    0.7173472   -8.2560326    635.15847  0.015785825  0.015306008            2 
 3354000   0.71682028   -8.2708227    633.09273  0.015729793  0.015300654            2 
 3355000   0.71265058   -8.3052985    633.24912   0.01572899  0.015295305            1 
 3356000    0.7060412   -8.2900668    633.49429  0.015730391  0.015289956            3 
 3357000   0.73577051   -8.3002709    634.14559  0.015741873  0.015284595            3 
 3358000   0.68044288   -8.2964823      633.169  0.015712949  0.015279226            2 
 3359000   0.71803498     -8.31376    632.41256  0.015689505  0.015273849            1 
 3360000   0.71317762   -8.3113186    632.11449  0.015677443  0.015268494            1 
 3361000   0.72832068   -8.2944022    633.14625   0.01569836  0.015263127            5 
 3362000   0.71626508   -8.2822662    633.01101  0.015690338  0.015257775            1 
 3363000   0.72338106   -8.2829116     632.8037  0.015680536  0.015252426            2 
 3364000   0.71959628   -8.3215019    634.09849  0.015707949  0.015247081            4 
 3365000   0.71848073   -8.3023822    633.27663  0.015682928  0.015241732            1 
 3366000   0.70083364   -8.3100794    632.90226     0.015669  0.015236374            2 
 3367000   0.71507388    -8.285625    634.65677  0.015707771  0.015231023            1 
 3368000   0.71472978   -8.3241324    633.66855  0.015678656  0.015225671            1 
 3369000    0.7288722   -8.3144304    634.61982  0.015697532  0.015220326            2 
 3370000   0.70746073   -8.2883632    633.38313  0.015662293  0.015214995            1 
 3371000   0.71943048   -8.2993059    633.52983  0.015661273  0.015209655            1 
 3372000   0.73723106   -8.3027588    633.32935  0.015651674  0.015204335            4 
 3373000   0.72647573    -8.304237    633.09128  0.015641152  0.015199011            8 
 3374000   0.70794454   -8.3079397    631.39638  0.015594655  0.015193681            2 
 3375000   0.71425452   -8.2996909    633.68367   0.01564651  0.015188368            3 
 3376000   0.70464328   -8.2870403    633.89999  0.015647216  0.015183055            1 
 3377000    0.7131139   -8.2842486    634.21317   0.01565031   0.01517773            1 
 3378000   0.72321011   -8.3008141    633.29065  0.015622919  0.015172418            1 
 3379000   0.72122004   -8.2921631    633.44304  0.015622054  0.015167106            2 
 3380000   0.71370395   -8.2922315    633.45298  0.015617677  0.015161798            2 
 3381000   0.71385054    -8.296671    633.43958  0.015612727  0.015156499            3 
 3382000   0.69344558   -8.2964346    633.79423   0.01561685  0.015151208            3 
 3383000   0.70267692   -8.2870981    633.48029    0.0156045  0.015145918            1 
 3384000   0.71338423   -8.2866622    635.77315  0.015656352   0.01514063            3 
 3385000   0.69530045   -8.2923681    633.72095  0.015601205  0.015135347            2 
 3386000   0.70375734   -8.3086737    634.24733  0.015609552  0.015130064            2 
 3387000   0.70982115   -8.3186565    633.64476  0.015590118   0.01512478            2 
 3388000   0.70443027   -8.2956327    634.61951  0.015609492  0.015119489            1 
 3389000   0.71136441   -8.2784613    636.02956  0.015639558  0.015114213            2 
 3390000   0.71503912    -8.279957    634.54447  0.015598438  0.015108942            4 
 3391000   0.70380316   -8.3056158    633.64501  0.015571734  0.015103666            3 
 3392000     0.709461   -8.2977466    635.10837  0.015603095  0.015098387            1 
 3393000   0.70573436    -8.284536     634.1038  0.015573824  0.015093121            1 
 3394000   0.70660659    -8.288136     636.4305  0.015626363  0.015087881            1 
 3395000   0.71049102   -8.2933366    634.31457  0.015569823  0.015082631            3 
 3396000   0.69958754   -8.2964556    634.81786  0.015577588  0.015077379            3 
 3397000   0.70979511   -8.2910804    634.46024  0.015564229   0.01507212            2 
 3398000   0.71986945   -8.3162664    634.08779  0.015550515  0.015066872            1 
 3399000   0.70056583   -8.2946963    634.80542  0.015563534   0.01506162            2 
 3400000   0.71427213   -8.2959846    632.69899  0.015507328  0.015056373            3 
 3401000   0.71411966   -8.2760695    635.17493  0.015563436  0.015051129            3 
 3402000   0.70460715   -8.2762335    634.06272  0.015531617  0.015045889            1 
 3403000   0.71753036   -8.2986661    634.45714  0.015536711  0.015040627            2 
 3404000   0.69893957   -8.2934872    634.11701   0.01552382  0.015035355            1 
 3405000   0.72195943    -8.320585    634.14597   0.01551997    0.0150301            1 
 3406000   0.71390231   -8.3056909    633.39293  0.015496989  0.015024832            2 
 3407000   0.69548638   -8.3061709    634.40245  0.015517133  0.015019585            2 
 3408000   0.71173225   -8.2990979    634.42658  0.015513169  0.015014346            2 
 3409000   0.70748533   -8.3028775    633.92469   0.01549635  0.015009103            1 
 3410000   0.70710087   -8.3094607    634.31463  0.015501335  0.015003875            2 
 3411000   0.70532459   -8.2827377    633.31007  0.015472248   0.01499865            3 
 3412000   0.69357578    -8.309882    634.71279  0.015501973  0.014993415            3 
 3413000   0.69848108   -8.2982897    634.11655  0.015482873  0.014988172            4 
 3414000   0.69918806   -8.3212404    633.64819  0.015466906   0.01498295            2 
 3415000   0.72085796   -8.2846929    634.43949  0.015481686  0.014977739            1 
 3416000   0.70077555   -8.2926457    634.69738  0.015483445  0.014972519            1 
 3417000   0.70009727   -8.3227858    634.04074    0.0154629    0.0149673            3 
 3418000   0.70895472   -8.2955744    634.85505  0.015478229   0.01496208            1 
 3419000   0.71838326   -8.3016605    633.66802   0.01544477  0.014956871            2 
 3420000   0.70314086   -8.2946908    635.42988  0.015483184   0.01495167            4 
 3421000   0.70899159   -8.3082687    634.89471  0.015465622   0.01494647            2 
 3422000   0.71169494   -8.3064008    636.15215  0.015491724  0.014941263            2 
 3423000   0.71657731   -8.2893164    634.34536  0.015443212  0.014936063            1 
 3424000    0.7154295   -8.2912448    636.35099  0.015487514  0.014930865            1 
 3425000   0.70835212   -8.2902097    634.75998  0.015444282  0.014925675            2 
 3426000    0.7050093   -8.2998363    634.29389  0.015428437  0.014920471            4 
 3427000   0.70536448   -8.2816061    634.83739  0.015437151  0.014915283            4 
 3428000   0.70079509   -8.3137902    633.55308  0.015401426   0.01491009            1 
 3429000    0.7124296   -8.2944089    635.06051  0.015433569  0.014904898            1 
 3430000    0.7059299   -8.3137408    635.44243  0.015438349  0.014899713            2 
 3431000   0.71149059   -8.3099519    634.78791  0.015417952  0.014894519            5 
 3432000   0.69197476   -8.2924109    635.35309  0.015427183  0.014889325            3 
 3433000   0.68473324   -8.2946575    635.42545  0.015424445  0.014884139            3 
 3434000   0.70416695   -8.2891767    634.06372  0.015386908  0.014878939            1 
 3435000   0.71290146   -8.3130925    635.04491  0.015406233  0.014873739            2 
 3436000   0.70633938   -8.3110259    634.36162  0.015385177  0.014868539            2 
 3437000   0.71227781   -8.3221494    635.31671  0.015403858   0.01486334            4 
 3438000   0.70202928   -8.3094133    634.94733  0.015390424  0.014858159            3 
 3439000   0.70475214    -8.317465    634.42867  0.015373381  0.014852975            5 
 3440000   0.70988845   -8.3076533    634.86531  0.015379489  0.014847793            2 
 3441000   0.69407824   -8.2836541    635.77011  0.015396932  0.014842635            5 
 3442000   0.70302915   -8.3189649    634.00314  0.015349679  0.014837465            2 
 3443000   0.69654114   -8.3161477    634.34249  0.015353434  0.014832279            5 
 3444000   0.70779606   -8.3042646    634.64859  0.015356383  0.014827109            2 
 3445000   0.71184127    -8.307122    636.03933  0.015385567  0.014821941            4 
 3446000   0.71013684   -8.3255721    633.12076  0.015310523  0.014816771            4 
 3447000   0.70984282   -8.2820963    634.67966  0.015343769  0.014811594            2 
 3448000   0.68642634    -8.309378    635.74216  0.015364998  0.014806437            2 
 3449000   0.70359467   -8.3135119    633.92825  0.015316716   0.01480128            1 
 3450000   0.70865175   -8.3220692    633.14673  0.015293399  0.014796117            2 
 3451000   0.70837814   -8.3254139     633.5483  0.015298665  0.014790937            2 
 3452000   0.70105333   -8.3277044    633.43235  0.015291434  0.014785763            1 
 3453000   0.70792179   -8.3146178     633.9795   0.01530021  0.014780608            2 
 3454000   0.70343141   -8.3188496    634.65521  0.015312083  0.014775451            2 
 3455000   0.69954942    -8.319537    635.20568  0.015320928  0.014770296            1 
 3456000    0.7022006   -8.3320968    635.16943  0.015315621  0.014765147            2 
 3457000   0.71206452   -8.3153825     634.3817  0.015292202  0.014759987            2 
 3458000   0.70201868   -8.2993961    635.30166  0.015309949  0.014754833            1 
 3459000   0.69741048   -8.3415034    633.89276   0.01527158  0.014749671            2 
 3460000   0.69317317   -8.3318485    633.03125  0.015246418  0.014744504            2 
 3461000   0.68705068   -8.3205735    634.50278  0.015277443  0.014739344            3 
 3462000   0.70171284   -8.3402287    634.55756  0.015274349  0.014734192            2 
 3463000   0.69398803   -8.3409249    634.08887   0.01525866  0.014729032            3 
 3464000   0.68614494   -8.3495499    632.90448  0.015225762  0.014723857            2 
 3465000   0.69897863   -8.3485964    633.29655  0.015230797  0.014718683            1 
 3466000   0.69265123   -8.3327181     633.9868  0.015242999  0.014713525            2 
 3467000   0.70718818   -8.3459733    634.38388  0.015248146  0.014708378            2 
 3468000   0.69446506   -8.3606289    634.18762  0.015239033  0.014703214            2 
 3469000   0.69954681   -8.3446088    634.48354  0.015241749  0.014698061            3 
 3470000    0.6865754    -8.343096    634.38969  0.015235103  0.014692903            2 
 3471000   0.70180966   -8.3563559    634.44099  0.015231945  0.014687753            2 
 3472000   0.68973108   -8.3569818    633.74461  0.015210844  0.014682609            2 
 3473000   0.69424543   -8.3470224    634.09401  0.015214848   0.01467747            4 
 3474000    0.6873759   -8.3373138    634.74772   0.01522615  0.014672332            2 
 3475000   0.70058011   -8.3219142    634.01364  0.015204164  0.014667191            3 
 3476000   0.70336685   -8.3499822    635.26002   0.01522967  0.014662052            2 
 3477000   0.70577703   -8.3423321    635.52478  0.015231636  0.014656913            2 
 3478000    0.6990581   -8.3444831    634.36012  0.015199351  0.014651776            2 
 3479000   0.68164179   -8.3603316    634.08888  0.015188485  0.014646634            1 
 3480000   0.70023599   -8.3470478    634.30096  0.015189199  0.014641493            3 
 3481000   0.67631448   -8.3131511    635.81538   0.01522109  0.014636351            3 
 3482000   0.69151142   -8.3449294    635.23266  0.015202773  0.014631225            1 
 3483000   0.69115186   -8.3177905    635.44418  0.015203469  0.014626104            2 
 3484000   0.70168054   -8.3136549    635.42754  0.015198707   0.01462099            1 
 3485000     0.691715   -8.3269681    634.73531  0.015177793  0.014615879            1 
 3486000   0.69605839   -8.3327632    635.10305   0.01518223  0.014610775            1 
 3487000   0.70607556   -8.3275758    635.21896  0.015180646   0.01460567            3 
 3488000   0.69389728   -8.3040052    635.88425  0.015192189  0.014600569            4 
 3489000   0.69786645   -8.3387903    634.75353  0.015160828  0.014595472            1 
 3490000   0.68154783   -8.3328781    635.09381  0.015164609  0.014590373            3 
 3491000   0.69738579   -8.3334898    635.63214  0.015173115  0.014585271            1 
 3492000   0.67998591   -8.3303549     634.3594  0.015138397  0.014580179            1 
 3493000   0.69130719   -8.3382601    633.74306  0.015119359  0.014575079            2 
 3494000   0.67338799   -8.3352753    633.93595  0.015119632  0.014569979            2 
 3495000   0.69495759   -8.3143876    635.76408  0.015158896  0.014564889            3 
 3496000   0.68700444    -8.367291      632.786  0.015083572   0.01455979            1 
 3497000   0.68494906   -8.3668873    634.62827  0.015123159  0.014554701            3 
 3498000    0.7087087    -8.357146     634.5071   0.01511595  0.014549598            2 
 3499000   0.70435388   -8.3087796    635.73623  0.015140903  0.014544503            4 
 3500000   0.68373603   -8.3332436    635.40859  0.015128776  0.014539414            2 
 3501000   0.68826765   -8.3224423    634.06808  0.015092547  0.014534321            4 
 3502000   0.69574838   -8.3207788    635.42059  0.015120422  0.014529238            2 
 3503000   0.69607801   -8.3318658    635.04217  0.015107103  0.014524154            3 
 3504000   0.68020733   -8.3463327    633.52045  0.015066601   0.01451907            2 
 3505000   0.67957648   -8.3405905    634.46132  0.015084672  0.014513984            4 
 3506000   0.70828132    -8.365485    634.16942  0.015073432  0.014508899            3 
 3507000   0.68876176   -8.3270665    635.09716  0.015091179  0.014503818            2 
 3508000   0.70147479    -8.388862    633.93933  0.015059372  0.014498737            3 
 3509000   0.67550851   -8.3427836    634.85367  0.015076795  0.014493662            3 
 3510000   0.70432938   -8.3475473    634.10201  0.015054653  0.014488602            2 
 3511000    0.6900539   -8.3462067    633.89041  0.015045344  0.014483535            1 
 3512000   0.67679435   -8.3527886    635.01372  0.015067714  0.014478474            2 
 3513000   0.67422349   -8.3749863    633.45409  0.015026428  0.014473413            3 
 3514000   0.68283809   -8.3531732    635.41795  0.015068724  0.014468352            2 
 3515000   0.68861605   -8.3694816    633.49467   0.01501884  0.014463293            1 
 3516000   0.69045858   -8.3394804    635.47097  0.015061409  0.014458224            6 
 3517000   0.69653693   -8.3671179    634.07717  0.015024101  0.014453156            3 
 3518000   0.68630037   -8.3813777    633.20934  0.014999274  0.014448088            3 
 3519000   0.67573474   -8.3502318     633.1165  0.014992813  0.014443016            5 
 3520000   0.70484473   -8.3682215    633.44517  0.014996335  0.014437938            4 
 3521000   0.67718408    -8.381608    632.81446  0.014977148  0.014432855            1 
 3522000    0.6780899   -8.3778156    633.47183   0.01498845  0.014427775            1 
 3523000   0.68089232    -8.357728    635.13352  0.015023501  0.014422716            2 
 3524000   0.68994516   -8.3806812    635.02544  0.015016682  0.014417656            2 
 3525000   0.67671307   -8.3424689     635.3806  0.015020818  0.014412605            2 
 3526000   0.69585956   -8.3851351    634.37801  0.014992863  0.014407542            2 
 3527000   0.67627993   -8.3678308    633.34429  0.014964188  0.014402491            2 
 3528000   0.68963517   -8.3499424    635.50177  0.015010907  0.014397435            3 
 3529000   0.68219775    -8.385211    633.49934  0.014959369  0.014392374            2 
 3530000   0.71117279   -8.3546985    633.91685  0.014964987  0.014387319            3 
 3531000   0.67881719   -8.3801222    634.16033  0.014966495  0.014382266            2 
 3532000   0.68646795   -8.3760509    633.32394  0.014942524  0.014377205            1 
 3533000   0.69479182   -8.3554229    634.83803  0.014974008  0.014372137            1 
 3534000   0.69353286   -8.3903057    633.64367  0.014941607   0.01436709            1 
 3535000   0.68490226   -8.3951413     633.8109  0.014941322  0.014362038            3 
 3536000   0.67602672   -8.3862502    634.62002  0.014956166  0.014356985            1 
 3537000   0.68846628   -8.3824587    633.95214  0.014936202  0.014351929            3 
 3538000   0.68813733   -8.3715613    636.06171  0.014981668  0.014346886            3 
 3539000   0.68632784   -8.3685377    634.48685  0.014940352  0.014341847            1 
 3540000   0.68302996    -8.370723    634.52289   0.01493698  0.014336817            1 
 3541000   0.69477326   -8.3537413    634.04029  0.014921404  0.014331784            2 
 3542000   0.67663993   -8.3909945    633.77937  0.014911052  0.014326742            1 
 3543000   0.69892669   -8.3659649    633.65177  0.014903842  0.014321706            1 
 3544000   0.70221178    -8.388999    634.09657  0.014910096  0.014316676            2 
 3545000   0.68290583   -8.3523983    633.94358  0.014902294  0.014311653            1 
 3546000    0.6837854    -8.392365    633.70235  0.014892422   0.01430663            1 
 3547000   0.69248413   -8.3756362    634.44206  0.014905602   0.01430161            3 
 3548000   0.68141822   -8.3426719    634.27625  0.014897507  0.014296588            1 
 3549000   0.69829119   -8.3816474    633.04674  0.014864439  0.014291579            1 
 3550000   0.68298852   -8.3914313    633.54929  0.014872049   0.01428656            5 
 3551000   0.69565839   -8.3817938    633.40038  0.014864366  0.014281553            2 
 3552000   0.68528704   -8.3516339    634.84365  0.014894042  0.014276549            2 
 3553000   0.66682385   -8.3613365    635.72213  0.014910454   0.01427156            3 
 3554000   0.66755091    -8.389956    635.61581  0.014903766  0.014266565            3 
 3555000   0.69257584   -8.3727569    634.70657   0.01487826  0.014261571            6 
 3556000   0.67666706   -8.3360149    635.45731  0.014891669  0.014256585            2 
 3557000   0.67286232   -8.3508192    634.71491   0.01487009  0.014251604            5 
 3558000   0.68962332   -8.3788204    634.67133   0.01486489  0.014246623            1 
 3559000    0.6841634   -8.3601033    634.04518  0.014846052  0.014241638            1 
 3560000   0.70172593   -8.3691627    635.16396   0.01486807   0.01423665            3 
 3561000   0.69369721   -8.3689094    635.29732  0.014867016  0.014231672            4 
 3562000   0.67526312   -8.3682771    633.97683  0.014831949  0.014226691            4 
 3563000   0.67408294    -8.358621     635.7061  0.014868231  0.014221709            2 
 3564000   0.66735409   -8.3679478     633.4184  0.014810569  0.014216718            3 
 3565000   0.67593056   -8.3873519    634.18654   0.01482437  0.014211731            2 
 3566000   0.67990721   -8.3589246    635.60076  0.014853261  0.014206766            3 
 3567000    0.6874929   -8.3802458    634.41365  0.014821364  0.014201804            2 
 3568000   0.68869631   -8.3800279    634.67441    0.0148233  0.014196837            2 
 3569000    0.6866578   -8.3729887     634.5621  0.014816524  0.014191872            2 
 3570000   0.67606089   -8.3650736    635.04803  0.014823717  0.014186912            2 
 3571000   0.69668453   -8.3706159     634.5217  0.014807283   0.01418196            3 
 3572000   0.67139037   -8.3657475    634.63304  0.014805735  0.014176998            3 
 3573000   0.67577992    -8.357538    635.29573  0.014817047  0.014172045            2 
 3574000    0.6583741   -8.3692149    635.24024  0.014811608  0.014167087            4 
 3575000   0.69046571   -8.3776125    635.45503  0.014812472  0.014162125            1 
 3576000   0.68868435   -8.3942037    634.74104  0.014791691  0.014157164            3 
 3577000   0.67415116     -8.35626    634.56664  0.014783493  0.014152209            1 
 3578000   0.69037947   -8.3825918    635.18948  0.014793867  0.014147243            2 
 3579000   0.67445663   -8.3759638    635.63567  0.014800123  0.014142285            4 
 3580000   0.67900641   -8.3927655    635.14777  0.014784632  0.014137327            2 
 3581000   0.67762296   -8.3796302     635.4172  0.014786773  0.014132373            2 
 3582000   0.66227423   -8.3912052    634.05951  0.014751059  0.014127413            2 
 3583000   0.67001163   -8.3773473    635.65483  0.014784046  0.014122461            1 
 3584000   0.67927538   -8.3718083    634.25297  0.014747325  0.014117509            3 
 3585000   0.68616205   -8.3769176    634.56781   0.01475053  0.014112555            2 
 3586000   0.68005218   -8.4051737    635.10697  0.014758946  0.014107602            4 
 3587000   0.67824418   -8.3646643    634.86089  0.014749115  0.014102649            2 
 3588000   0.67006932   -8.3703807    634.24006  0.014730585  0.014097701            3 
 3589000   0.68881617    -8.390425    633.33897  0.014705558  0.014092754            3 
 3590000    0.6714226    -8.378874    634.09675  0.014719052  0.014087807            2 
 3591000    0.6617692   -8.3677985     634.2624  0.014718797  0.014082862            2 
 3592000   0.69262939   -8.3532236    635.58679  0.014745425  0.014077934            2 
 3593000    0.6759043   -8.3626171    635.46582  0.014738515  0.014073011            3 
 3594000   0.67771931   -8.3686619    634.20874  0.014705267  0.014068085            1 
 3595000   0.69601613   -8.3814404    633.92408  0.014694578  0.014063149            2 
 3596000   0.67649885   -8.3824273    634.79738  0.014710729  0.014058223            1 
 3597000   0.66623237   -8.3950715    635.24008  0.014716896  0.014053289            4 
 3598000   0.67174535   -8.4034722    635.53385  0.014719609  0.014048354            1 
 3599000   0.66485759   -8.3838372    634.22839  0.014685292  0.014043427            1 
 3600000   0.67470634   -8.4015351    633.78904  0.014671042  0.014038491            2 
 3601000   0.68456333   -8.3866115    634.17146  0.014675818  0.014033559            2 
 3602000   0.69333623   -8.4268732    633.45535  0.014655177  0.014028621            1 
 3603000   0.67457438   -8.3949452    633.82098  0.014659566  0.014023689            1 
 3604000    0.6646253   -8.4174113    633.56989  0.014649692  0.014018758            1 
 3605000   0.68320593   -8.3796453     634.2828  0.014662108  0.014013816            2 
 3606000   0.68609883   -8.4241861     633.0249  0.014628973  0.014008881            1 
 3607000   0.68353927   -8.4117096    633.98782  0.014647163  0.014003944            2 
 3608000   0.68356503   -8.3890689    635.23292  0.014671862  0.013999022            1 
 3609000   0.67689456   -8.3969517     634.2205  0.014644419  0.013994106            2 
 3610000   0.67089873   -8.3956283    634.40831  0.014644698  0.013989181            4 
 3611000   0.67305344   -8.4064247    635.42656  0.014664141  0.013984256            3 
 3612000    0.6707864   -8.3909152    634.63046  0.014641714  0.013979343            2 
 3613000   0.66778005   -8.3975758    634.38893  0.014632091  0.013974441            2 
 3614000   0.67740062   -8.3859311     634.9999   0.01464213  0.013969538            3 
 3615000   0.67296392   -8.3999809    635.34507  0.014646037  0.013964637            1 
 3616000   0.68225964   -8.4207148    634.33162  0.014618631  0.013959724            3 
 3617000   0.68136144   -8.3924785    634.56523  0.014619971   0.01395483            2 
 3618000   0.67227699   -8.3819972    634.64611  0.014617793  0.013949942            5 
 3619000   0.67189553   -8.4055877    635.18683  0.014626205  0.013945061            1 
 3620000   0.66700462   -8.3619052    635.26397   0.01462394  0.013940197            1 
 3621000   0.67453336   -8.3902916    635.19001    0.0146182  0.013935328            1 
 3622000   0.67847825   -8.3789234    635.29556  0.014616592  0.013930459            2 
 3623000   0.66080993   -8.3498631    635.45283  0.014616175  0.013925594            3 
 3624000   0.65039635   -8.3917944    635.64304  0.014616516  0.013920713            4 
 3625000   0.66713324   -8.3938811    635.19377  0.014602156  0.013915841            2 
 3626000   0.68010233   -8.3740405    633.70244  0.014563855  0.013910963            3 
 3627000   0.67512768   -8.3865981    634.98436  0.014589292  0.013906088            5 
 3628000   0.66995874   -8.3884761      634.235  0.014568059  0.013901216            3 
 3629000   0.66036818   -8.4013436    634.33856  0.014566422  0.013896354            3 
 3630000   0.68046178   -8.4049773    635.14811  0.014580994  0.013891485            4 
 3631000    0.6569866   -8.4021462    634.85928   0.01457035  0.013886618            3 
 3632000    0.6744264   -8.3893867     634.8282  0.014565625  0.013881752            3 
 3633000   0.67598079   -8.3731717    634.32028  0.014549965  0.013876883            5 
 3634000   0.67417299   -8.3933269    635.13997  0.014564758  0.013872011            1 
 3635000    0.6915056   -8.4197125    634.73203  0.014551399  0.013867139            2 
 3636000   0.64891777   -8.4042169    635.61865  0.014567717  0.013862255            2 
 3637000   0.68465288   -8.4202987    634.12225  0.014529426  0.013857381            2 
 3638000   0.66850888   -8.4040292    634.30372  0.014529589  0.013852513            3 
 3639000   0.68073797   -8.4124905    635.02294  0.014542066  0.013847651            2 
 3640000   0.68307931   -8.3963837    633.49886  0.014503179  0.013842793            1 
 3641000   0.66754076   -8.3993715    634.65531  0.014525664  0.013837939            1 
 3642000   0.66796077   -8.3770215    635.97705  0.014551919  0.013833097            1 
 3643000   0.67333778   -8.3987414    634.72464  0.014519275  0.013828244            1 
 3644000   0.66443326   -8.4121229     634.4606  0.014509253  0.013823391            4 
 3645000   0.67582802   -8.3974972      634.633  0.014509214  0.013818535            2 
 3646000      0.65673   -8.3916684    633.96163  0.014489889  0.013813686            2 
 3647000    0.6855997   -8.3896375    634.71191   0.01450306   0.01380884            3 
 3648000   0.65926604   -8.3938496    634.97153  0.014505015  0.013803993            3 
 3649000    0.6797334   -8.4133477    634.06616  0.014480364  0.013799141           10 
 3650000   0.66566696   -8.4029599    634.44975  0.014485154  0.013794277            6 
 3651000   0.66130629   -8.4059536    634.85175  0.014490362  0.013789427            2 
 3652000   0.66911779    -8.393453    634.57699  0.014480125  0.013784591            2 
 3653000   0.66817212   -8.4232093    633.81503  0.014458779  0.013779746            4 
 3654000   0.66833798   -8.4126653     633.9775  0.014458527  0.013774901            4 
 3655000   0.67519523   -8.4143103    635.00119  0.014477911  0.013770059            5 
 3656000   0.65767519   -8.4173127    634.17228  0.014455058  0.013765214            5 
 3657000   0.65702457   -8.4087686    633.19495  0.014428834  0.013760375            6 
 3658000   0.66070372   -8.4042255    634.23822  0.014448656  0.013755541            1 
 3659000   0.68214336   -8.3975132    633.99563  0.014439183  0.013750698            2 
 3660000   0.66527672   -8.4367363    633.59256   0.01442606   0.01374586            2 
 3661000   0.66992271   -8.3972115    634.77926  0.014449132  0.013741023            2 
 3662000   0.66915282   -8.4336907    632.46435  0.014392508  0.013736179            4 
 3663000   0.66172215   -8.4247086    634.52037  0.014435353  0.013731336            2 
 3664000   0.65246985    -8.426333    634.27443  0.014425819  0.013726496            3 
 3665000   0.66098443   -8.4149037    634.35582  0.014423734  0.013721661            2 
 3666000    0.6633469   -8.4377022    633.48906  0.014400097  0.013716818            2 
 3667000   0.65887945   -8.4449899    635.28796   0.01443705  0.013711976            3 
 3668000   0.65638576   -8.4025523     633.8263  0.014399907  0.013707136            2 
 3669000   0.66885769   -8.4186304    634.19487  0.014404353  0.013702309            5 
 3670000   0.66041684   -8.4341217    632.88365  0.014370655   0.01369748            2 
 3671000   0.67804108   -8.4250976    634.17097  0.014395963  0.013692657            5 
 3672000    0.6530997   -8.4200527    634.53262   0.01440025  0.013687845            2 
 3673000   0.65049537   -8.4262803    634.04372  0.014385237  0.013683023            2 
 3674000   0.66324739   -8.4315814     635.2156  0.014407902  0.013678201            1 
 3675000   0.65285576   -8.4165801    635.00844  0.014399284   0.01367339            2 
 3676000   0.65310011   -8.4155291    634.33733  0.014380154   0.01366858            2 
 3677000   0.66918014   -8.4208447    634.16324  0.014372297  0.013663777            2 
 3678000   0.66949653    -8.429265    635.31196  0.014394416  0.013658966            1 
 3679000   0.67586585   -8.4420086    634.57559  0.014373824  0.013654164            4 
 3680000   0.66482612   -8.4096335    634.94642  0.014378316  0.013649385            2 
 3681000   0.66082061   -8.4180395    634.03756  0.014353834  0.013644594            2 
 3682000   0.66283052   -8.4241736    632.44347  0.014313857  0.013639788            3 
 3683000   0.66362996   -8.4477478    634.40153  0.014354275  0.013634982            3 
 3684000   0.67308664   -8.4296488     632.8395  0.014315045  0.013630173            2 
 3685000   0.64866882    -8.404443    634.44035  0.014347362  0.013625382            5 
 3686000   0.66817624   -8.4276825    633.94036  0.014332166  0.013620581            4 
 3687000   0.66405987   -8.4074382    634.45554  0.014339923  0.013615775            1 
 3688000   0.64370744   -8.4302433    634.12711  0.014328613  0.013610974            4 
 3689000   0.67483833   -8.4358799    634.10132  0.014324146  0.013606183            4 
 3690000   0.66765906     -8.44446      632.706  0.014288753  0.013601387            2 
 3691000   0.66676072   -8.4312546    633.63868   0.01430594  0.013596584            3 
 3692000   0.67453526   -8.4441045      633.106  0.014290042  0.013591775            2 
 3693000   0.66659963   -8.4513263     633.4808  0.014294629  0.013586972            3 
 3694000   0.67164502   -8.4559814    634.27127  0.014308592  0.013582177            3 
 3695000   0.66093602   -8.4630893    633.23341  0.014281313  0.013577375            4 
 3696000   0.66406771   -8.4588452    633.74771  0.014289045   0.01357257            3 
 3697000   0.67686538    -8.460593    632.68934  0.014261323  0.013567772            3 
 3698000   0.65130754   -8.4461185    632.59005  0.014255229  0.013562975            2 
 3699000   0.66729378   -8.4374064      633.901  0.014280909  0.013558184            1 
 3700000   0.66016242   -8.4374927     632.7104  0.014250234  0.013553399            5 
 3701000   0.65508092   -8.4314829    632.68079  0.014245717  0.013548617            2 
 3702000   0.65217648   -8.4330372    634.72109  0.014287797   0.01354382            1 
 3703000   0.65991149   -8.4435227    633.80302  0.014263278  0.013539031            2 
 3704000   0.65346136   -8.4611095     632.9697  0.014240679  0.013534243            1 
 3705000   0.64737225   -8.4301064    633.17427  0.014241436  0.013529447            1 
 3706000   0.65349272   -8.4347116    633.80213  0.014251712  0.013524666            4 
 3707000   0.66318419   -8.4420591    634.22149  0.014257295  0.013519877            2 
 3708000   0.67085916   -8.4484694    634.10142  0.014250751  0.013515094            2 
 3709000   0.65971805   -8.4496191    632.82223  0.014218168  0.013510306            3 
 3710000   0.65732323   -8.4435174    633.32619  0.014225656  0.013505524            2 
 3711000   0.65093279   -8.4286356    632.61852  0.014205931  0.013500743            2 
 3712000   0.65331715   -8.4454589     633.1855  0.014214833   0.01349596            3 
 3713000   0.66736189   -8.4496534    632.26809  0.014190414  0.013491177            3 
 3714000   0.65612234    -8.433705    633.81635  0.014221333  0.013486403            2 
 3715000   0.67369356   -8.4442858    633.32523  0.014206488  0.013481626            2 
 3716000   0.65753318    -8.443596    633.65179  0.014209988  0.013476854            2 
 3717000   0.65111134   -8.4209211    633.73084  0.014207937  0.013472083            2 
 3718000   0.66150199   -8.4431968    634.17286  0.014214023   0.01346732            2 
 3719000   0.66886665   -8.4540919    632.20329  0.014166068  0.013462551            2 
 3720000   0.66193444   -8.4507482    633.53625   0.01419212  0.013457776            3 
 3721000   0.66416832   -8.4603759    633.58093  0.014189307  0.013453002            1 
 3722000   0.65217093    -8.456175    633.74097  0.014189078  0.013448231            3 
 3723000   0.65280762   -8.4315675    633.66514  0.014183569  0.013443475            3 
 3724000    0.6609211   -8.4402544    633.11904   0.01416754   0.01343871            2 
 3725000   0.66576972   -8.4216734    633.63122  0.014175195  0.013433944            1 
 3726000   0.66647383   -8.4484255    631.96431   0.01413411  0.013429169            3 
 3727000    0.6451002   -8.4429612    633.04375  0.014154453  0.013424402            1 
 3728000   0.65923129   -8.4453486    632.76153  0.014144347  0.013419633            1 
 3729000   0.64803268    -8.449378     632.5591  0.014136031  0.013414863            1 
 3730000   0.66348276   -8.4473914    632.81055  0.014137859  0.013410092            3 
 3731000   0.65888433   -8.4687766    631.52964   0.01410546  0.013405322            3 
 3732000   0.66260263   -8.4679004    632.33041  0.014119561  0.013400549            3 
 3733000   0.67154905   -8.4852783    632.24984   0.01411398  0.013395785            1 
 3734000    0.6439446    -8.479782    633.31708  0.014134018  0.013391017            1 
 3735000   0.65182356   -8.4644678    633.57739  0.014136042  0.013386257            2 
 3736000   0.66046534   -8.4804738     632.0311  0.014097767    0.0133815            4 
 3737000   0.64703973   -8.4419682    632.18256  0.014097372  0.013376745            1 
 3738000   0.64694314   -8.4620986    632.82537  0.014107931  0.013371991            1 
 3739000   0.66435577   -8.4481905    633.22397  0.014113042  0.013367246            7 
 3740000   0.65670997   -8.4562993    633.17893  0.014108265  0.013362509            2 
 3741000   0.65796739   -8.4650697    632.74121  0.014094743  0.013357775            1 
 3742000   0.64996597   -8.4628765    632.79713  0.014092222  0.013353036            4 
 3743000    0.6445942    -8.484907    632.29669  0.014077315  0.013348309            2 
 3744000   0.65745208    -8.450825    632.80053   0.01408477  0.013343569            4 
 3745000   0.66386167    -8.459187    633.28581  0.014091807  0.013338836            3 
 3746000   0.64970045   -8.4600478     632.6088  0.014072984  0.013334104            1 
 3747000   0.66504426   -8.4566325    633.45417   0.01408803  0.013329367            4 
 3748000   0.65364166   -8.4552057    633.92479  0.014094735  0.013324638            2 
 3749000     0.653839   -8.4216852    633.24274  0.014075814  0.013319907            2 
 3750000   0.66091289   -8.4585219    632.58269  0.014057393  0.013315169            1 
 3751000   0.64717864   -8.4557811     633.0614  0.014064281  0.013310435            4 
 3752000   0.65125428   -8.4589166    632.11435  0.014039498  0.013305698            2 
 3753000   0.65989804   -8.4598192    633.12702  0.014058243  0.013300962            3 
 3754000   0.64270169   -8.4569703    632.33288  0.014036869  0.013296237            6 
 3755000   0.66009458   -8.4535421    633.67876     0.014063  0.013291512            6 
 3756000   0.63922059   -8.4606896    633.25267  0.014049802  0.013286798            3 
 3757000    0.6509862    -8.442475    633.15148  0.014043818  0.013282081            5 
 3758000    0.6512895   -8.4599907    632.84272  0.014033234  0.013277359            3 
 3759000   0.65855474   -8.4552319    632.53693  0.014022722  0.013272638            2 
 3760000   0.65733664   -8.4217849    633.91718  0.014049583   0.01326792            4 
 3761000   0.64512193   -8.4601104    632.43829  0.014013079  0.013263216            3 
 3762000   0.64470459   -8.4722664    633.88827  0.014041473  0.013258511            3 
 3763000   0.63812454   -8.4511518     633.4659  0.014028388   0.01325381            4 
 3764000    0.6499014   -8.4697281      633.046  0.014015365  0.013249108            3 
 3765000   0.64535014   -8.4653172    632.60849  0.014001958  0.013244396            2 
 3766000   0.64168779   -8.4704675    632.47281  0.013995238  0.013239682            2 
 3767000    0.6488036    -8.473211    632.84982  0.013999863  0.013234977            1 
 3768000   0.65216363   -8.4754816    632.67873  0.013992364  0.013230269            3 
 3769000   0.66801603   -8.4671065    632.15293  0.013977026   0.01322556            2 
 3770000   0.65025559    -8.476301    633.00654  0.013992187  0.013220852            2 
 3771000   0.64174881   -8.4697805     630.9184  0.013942332  0.013216146            3 
 3772000   0.65041734   -8.4759445    632.42549  0.013971931  0.013211445            2 
 3773000   0.64540281   -8.4782662    631.82581  0.013954983  0.013206739            2 
 3774000   0.64793186   -8.4613894    630.61458   0.01392454  0.013202033            2 
 3775000   0.66981571   -8.4466189    632.95581  0.013972535  0.013197343            2 
 3776000   0.65115032   -8.4888329    631.79833  0.013943289  0.013192649            5 
 3777000   0.65237901   -8.4753025    632.43595  0.013953666  0.013187967            2 
 3778000   0.64337108   -8.4714492    633.29264  0.013968869  0.013183278            2 
 3779000    0.6513064   -8.4687355    632.16224  0.013940245  0.013178601            4 
 3780000   0.64733697    -8.474645    634.05761  0.013978342  0.013173928            4 
 3781000   0.64948969   -8.4759346    633.16989   0.01395508   0.01316926            4 
 3782000   0.65333941   -8.4668323    632.49517  0.013936523  0.013164597            4 
 3783000   0.62628857   -8.4670644    633.49496  0.013954863  0.013159932            3 
 3784000   0.65428355   -8.4740317    633.45797  0.013950361  0.013155276            2 
 3785000   0.65351037   -8.4692602    632.55397  0.013926772  0.013150614            4 
 3786000   0.64068733   -8.4679421    632.49955  0.013921895   0.01314595            4 
 3787000   0.63791541   -8.4639855    632.16745  0.013910911  0.013141298            2 
 3788000   0.66038117   -8.4649239    633.23463  0.013930716  0.013136644            1 
 3789000   0.64385451   -8.4612674    631.17186  0.013881672  0.013131986            4 
 3790000   0.65285714   -8.4837707    632.51461  0.013907533  0.013127341            2 
 3791000   0.65755847   -8.4480989    631.80453  0.013888256  0.013122694            2 
 3792000   0.65108532   -8.4863983    632.76633   0.01390573   0.01311804            3 
 3793000   0.64560558   -8.4583055    632.49723  0.013896151   0.01311339            5 
 3794000    0.6612743   -8.4937338    633.42524  0.013912872  0.013108748            2 
 3795000   0.63369671   -8.4851873    633.48058  0.013910421  0.013104106            2 
 3796000   0.65059396   -8.4591266    633.61118  0.013909624   0.01309947            2 
 3797000    0.6640162   -8.5005193      631.422  0.013857914  0.013094834            2 
 3798000   0.63961942   -8.5002823    633.05262  0.013890043  0.013090192            1 
 3799000   0.63669891   -8.4553785    633.76678  0.013902053  0.013085562            4 
 3800000   0.64157647   -8.4849183    633.30222  0.013888207  0.013080927            2 
 3801000    0.6508471   -8.4809721    632.67261  0.013870749  0.013076288            5 
 3802000   0.64810535    -8.479342    633.45557  0.013884262  0.013071648            3 
 3803000   0.65235256   -8.4754199    634.27695   0.01389861  0.013067018            2 
 3804000    0.6253221   -8.4559216    633.04392  0.013867944  0.013062387            5 
 3805000   0.64130523   -8.4757793    632.20812  0.013845995  0.013057765            3 
 3806000   0.64986252   -8.4807405    633.41238  0.013868724  0.013053141            5 
 3807000   0.64631774   -8.4773882    632.91611  0.013854218  0.013048515            8 
 3808000   0.63669613    -8.466576    631.73922  0.013824825   0.01304389            3 
 3809000   0.65244152   -8.4861253    631.96102  0.013826048  0.013039263            2 
 3810000   0.65343585   -8.4637542    633.50346  0.013856156  0.013034644            1 
 3811000   0.64696662   -8.4804754    632.34764  0.013827247  0.013030029            1 
 3812000   0.62744519   -8.4668897     632.9105  0.013835924  0.013025419            2 
 3813000   0.63308854   -8.4817285    633.67132  0.013848923  0.013020807            2 
 3814000   0.63705396   -8.4840375    633.69275   0.01384576  0.013016199            2 
 3815000   0.62612963   -8.4674122    632.85767   0.01382389  0.013011584            1 
 3816000   0.63493631   -8.4715008    631.78265  0.013796791  0.013006969            2 
 3817000   0.63943662    -8.485434    633.04578  0.013820753   0.01300236            2 
 3818000   0.63683722   -8.4685667    632.05464    0.0137955  0.012997754            3 
 3819000   0.64743726   -8.4825193    633.17308  0.013816293  0.012993149            2 
 3820000   0.63424853   -8.5007432    632.66377  0.013801566  0.012988536            2 
 3821000   0.63190263   -8.5052767    632.60271  0.013796622  0.012983923            1 
 3822000   0.65290703   -8.4933088    632.51293  0.013791055  0.012979314            2 
 3823000   0.63988318   -8.4729484     634.2188  0.013824632  0.012974712            3 
 3824000   0.64204867   -8.4956114    633.02116  0.013794917  0.012970112            2 
 3825000    0.6357347   -8.4804356    632.49201  0.013779782  0.012965517            2 
 3826000   0.63524228   -8.4773754    633.35858  0.013795055  0.012960921            4 
 3827000   0.64684655   -8.4632078     632.5285  0.013773376  0.012956332            2 
 3828000   0.63751011   -8.4855665    631.86881  0.013755416  0.012951744            3 
 3829000   0.62736233   -8.4899934    633.84038  0.013794733  0.012947154            1 
 3830000   0.61704101   -8.4805913     632.3048   0.01375772  0.012942569            6 
 3831000   0.64130227   -8.4917737    631.70546  0.013741092  0.012937983            4 
 3832000   0.65761708   -8.4804988    633.27972  0.013771741  0.012933397            1 
 3833000   0.65451391   -8.4849195    631.53504  0.013730216  0.012928814            2 
 3834000   0.65450976    -8.493419    631.92533  0.013735119  0.012924229            2 
 3835000   0.63686623   -8.4762501    632.31952  0.013740102  0.012919648            2 
 3836000   0.61935358   -8.4909651    632.98126  0.013750896  0.012915061            1 
 3837000   0.63186578   -8.4812081    632.77612  0.013742857  0.012910475            4 
 3838000    0.6458402   -8.4957168    631.20875  0.013705245  0.012905888            3 
 3839000   0.63041218    -8.486049    631.58427  0.013709826    0.0129013            2 
 3840000   0.63708802    -8.492519    632.56878  0.013727621  0.012896714            3 
 3841000   0.64090925   -8.5130839    632.05706  0.013712945  0.012892133            2 
 3842000   0.64657227   -8.4901769    631.65269  0.013700605  0.012887553            2 
 3843000   0.64862302   -8.4967763    631.77198  0.013699626  0.012882971            2 
 3844000   0.63599572    -8.510155    631.54987  0.013691248  0.012878389            3 
 3845000   0.63451359    -8.480508    632.62765  0.013711046  0.012873813            1 
 3846000   0.63712013   -8.4809616    632.39292  0.013702395  0.012869237            1 
 3847000   0.64724337   -8.4830588    633.32918  0.013719114  0.012864671            3 
 3848000   0.64125406   -8.4864097    632.55204  0.013698719  0.012860107            7 
 3849000   0.63926314   -8.4954829    632.03699  0.013684009  0.012855542            1 
 3850000   0.64327505   -8.5157128    630.94623  0.013656845  0.012850976            3 
 3851000   0.63895898   -8.4898566    632.03258  0.013676806  0.012846412            3 
 3852000   0.63378507   -8.5111464    631.69896  0.013666038  0.012841858            3 
 3853000   0.63415876   -8.5078611    633.31643  0.013697474  0.012837302            1 
 3854000    0.6332332   -8.5078424    632.05901  0.013666732   0.01283274            2 
 3855000   0.63568599   -8.5206537    632.77063   0.01367857  0.012828178            4 
 3856000   0.62620464   -8.4865968    633.04893  0.013681037  0.012823617            2 
 3857000   0.64410955   -8.5054119    632.10031  0.013656994  0.012819059            2 
 3858000   0.63637276   -8.4947995    631.22109  0.013634463  0.012814499            1 
 3859000   0.62753146   -8.4940009     631.9039  0.013645675  0.012809948            2 
 3860000   0.61564601   -8.5006852    631.83609  0.013640675  0.012805399            2 
 3861000   0.62408381   -8.5143047    632.02802  0.013641285  0.012800847            2 
 3862000   0.61610544   -8.5269018    631.36544  0.013623456  0.012796295            2 
 3863000   0.62668374   -8.4905895    631.69869  0.013627118  0.012791747            4 
 3864000   0.62887807   -8.5169887    631.99518  0.013629986    0.0127872            2 
 3865000   0.62865358   -8.5224775    632.18467  0.013630545  0.012782651            3 
 3866000   0.64665241   -8.5014225    632.21174  0.013627603  0.012778105            1 
 3867000   0.62233993   -8.5023219    632.14215  0.013622579  0.012773563            4 
 3868000    0.6438567   -8.5089314     632.5175  0.013627144  0.012769019            3 
 3869000   0.62761902   -8.5589766    631.05379  0.013592095  0.012764471            2 
 3870000   0.62619761   -8.5052748     631.7828  0.013604281  0.012759922            3 
 3871000   0.63016624   -8.5333926    631.59623   0.01359675  0.012755388            2 
 3872000   0.61452925   -8.5253234    631.71919  0.013595885   0.01275085            2 
 3873000   0.63744476   -8.4816186    630.46233  0.013565331  0.012746305            3 
 3874000   0.63162249   -8.5316857    630.14478  0.013554999  0.012741763            3 
 3875000   0.64069854   -8.5127335    630.54771  0.013560166  0.012737232            5 
 3876000   0.62550742   -8.5025582    632.22037  0.013592629    0.0127327            4 
 3877000    0.6208784   -8.5098546    630.85927  0.013559867  0.012728175            1 
 3878000   0.63271559   -8.5163806    632.30212  0.013587376  0.012723649            1 
 3879000   0.63143787   -8.5173788    631.65522  0.013569976  0.012719134            1 
 3880000     0.629446   -8.5305706    630.82756  0.013548702  0.012714609            4 
 3881000   0.63531531   -8.5210447    631.14972  0.013552128  0.012710087            2 
 3882000   0.64483443   -8.5311983    629.72025  0.013517951  0.012705565            1 
 3883000    0.6348848   -8.4887101    631.46124  0.013551834  0.012701044            1 
 3884000   0.61965253   -8.5266999    631.82277  0.013556101  0.012696524            1 
 3885000   0.63597104    -8.512544    631.48052  0.013545271  0.012692003            1 
 3886000   0.62010138   -8.5192295    631.77528  0.013548106  0.012687481            1 
 3887000   0.62560992   -8.5027157    631.43772  0.013537384  0.012682963            1 
 3888000   0.62456125   -8.5283717    631.19347  0.013528667  0.012678439            2 
 3889000   0.62548468    -8.516115    631.44582  0.013530595  0.012673925            2 
 3890000   0.62908538   -8.5052869    630.79809  0.013513241  0.012669416            1 
 3891000   0.61818007   -8.5144216    631.52725  0.013525384  0.012664899            1 
 3892000   0.62077988   -8.5238254    631.60585  0.013523592  0.012660383            5 
 3893000   0.63282246   -8.5277252    631.67978  0.013521701  0.012655867            3 
 3894000   0.62289153   -8.5079029    632.02105  0.013525532   0.01265136            3 
 3895000    0.6266187    -8.515083    630.61349  0.013491945  0.012646851            2 
 3896000   0.62109448   -8.5245715    631.28649  0.013502877  0.012642356            3 
 3897000   0.62566323    -8.497627     631.5629  0.013505323  0.012637857            1 
 3898000   0.63214633   -8.5376245      630.692  0.013483239  0.012633363            2 
 3899000    0.6336327   -8.5316817    630.87951  0.013483789  0.012628868            2 
 3900000   0.63093612   -8.5249442    631.27248  0.013488728  0.012624374            2 
 3901000   0.63483088   -8.5123712    631.02733  0.013480033   0.01261988            2 
 3902000   0.63033537    -8.552882    629.92143  0.013452961  0.012615377            3 
 3903000   0.63973375   -8.5201073    632.42847  0.013503042  0.012610882            3 
 3904000   0.62717182   -8.5219623    629.61799  0.013439592  0.012606388            1 
 3905000   0.63394459   -8.5529541    631.60577   0.01347857  0.012601894            4 
 3906000   0.61871021   -8.5419337    630.81834  0.013458319  0.012597403            2 
 3907000   0.61788828   -8.5319514    630.83808  0.013455296  0.012592916            2 
 3908000   0.63503597   -8.5175854      630.813  0.013451318  0.012588429            5 
 3909000   0.64228439   -8.5226003    631.20671   0.01345627  0.012583948            2 
 3910000   0.63195757   -8.5197561    632.17055  0.013473371  0.012579468            2 
 3911000   0.63283741   -8.5396256    631.27824  0.013450913  0.012574978            3 
 3912000   0.62135138   -8.5296281    630.53687  0.013431682    0.0125705            1 
 3913000   0.63018169   -8.5268006    630.62055  0.013430031  0.012566023            4 
 3914000   0.63541139   -8.5452321     630.9287  0.013433161  0.012561542            2 
 3915000   0.62560116   -8.5349095    630.63578  0.013423495  0.012557066            1 
 3916000   0.62842377   -8.5431054    630.76747  0.013422869  0.012552591            2 
 3917000   0.63253869   -8.5435407    630.32114  0.013409947  0.012548122            2 
 3918000   0.62379398   -8.5606879    630.25053  0.013405022  0.012543649            4 
 3919000   0.61452137   -8.5344137    632.24599  0.013444033  0.012539188            7 
 3920000   0.62797055   -8.5101892    632.99459  0.013456518  0.012534728            3 
 3921000    0.6309222   -8.5570292    631.24742  0.013415953  0.012530269            1 
 3922000   0.61357757    -8.539765    628.85765  0.013361755  0.012525803            2 
 3923000   0.63551192    -8.532051      630.238  0.013387671  0.012521341            4 
 3924000    0.6292709   -8.5388527    630.89568  0.013398226  0.012516882            2 
 3925000   0.63648495   -8.5566889    631.29596  0.013403311  0.012512421            2 
 3926000   0.62482315   -8.5423996    631.48974   0.01340401  0.012507965            3 
 3927000   0.61995604   -8.5281416    631.63103  0.013403595  0.012503505            2 
 3928000   0.62413086   -8.5306141    630.82176  0.013383014  0.012499057            3 
 3929000   0.62710893   -8.5430022    631.05588  0.013384574  0.012494602            5 
 3930000   0.62603449   -8.5478842    631.24103  0.013385094   0.01249015            3 
 3931000   0.61948561   -8.5606628    629.47126  0.013344172  0.012485699            2 
 3932000   0.62296095   -8.5411307    631.15959   0.01337656  0.012481237            1 
 3933000    0.6183361   -8.5528691     631.1629  0.013373229  0.012476786            2 
 3934000   0.62296836    -8.564268    631.50713  0.013377121  0.012472342            2 
 3935000   0.61629796   -8.5271323    631.60363  0.013375765  0.012467901            3 
 3936000   0.63505855   -8.5554378    631.28939  0.013365714  0.012463457            2 
 3937000   0.62847281   -8.5425336    630.66954  0.013349199  0.012459014            1 
 3938000   0.62395798   -8.5776386    629.66634   0.01332458  0.012454568            3 
 3939000   0.60617584   -8.5522553    630.58865  0.013340709  0.012450128            2 
 3940000   0.64171373   -8.5542568     632.2574  0.013372618  0.012445699            2 
 3941000   0.60642588    -8.531836    630.60618   0.01333431  0.012441264            5 
 3942000    0.6366596   -8.5512314    631.26463  0.013344847  0.012436832            4 
 3943000     0.636913   -8.5419348    630.88382  0.013333414  0.012432399            4 
 3944000   0.61270085   -8.5767822    630.70064  0.013326163  0.012427974            3 
 3945000   0.60428897   -8.5515776    630.56799  0.013319983  0.012423546            2 
 3946000   0.63027196   -8.5400565    630.04921  0.013305652  0.012419122            2 
 3947000   0.63033698   -8.5536235     629.0787   0.01328179  0.012414698            2 
 3948000   0.62804499   -8.5658926     630.5234   0.01330892  0.012410278            1 
 3949000   0.61414267   -8.5712939    630.77724  0.013310907  0.012405851            4 
 3950000   0.61652448   -8.5376119     630.5027  0.013301745  0.012401438            2 
 3951000   0.61978528   -8.5421079    631.48835  0.013319167  0.012397024            1 
 3952000   0.63462331    -8.554602    631.66658  0.013319555  0.012392608            2 
 3953000   0.62870016   -8.5579259    630.26487  0.013286636  0.012388193            1 
 3954000   0.62361258   -8.5341043    630.58459  0.013290014  0.012383789            5 
 3955000   0.62498697   -8.5477951    630.23183  0.013279221  0.012379369            3 
 3956000   0.63018134    -8.535079    632.01502  0.013313427  0.012374964            2 
 3957000   0.62344449   -8.5531006     630.6716  0.013281771  0.012370561            4 
 3958000   0.63600598   -8.5424074    631.11221  0.013287692  0.012366155            2 
 3959000   0.62586696   -8.5420092    629.72416  0.013255118  0.012361751            3 
 3960000   0.62107562   -8.5667802    630.89335  0.013276375  0.012357357            1 
 3961000   0.60322128   -8.5467042     630.5816  0.013266465  0.012352958            2 
 3962000    0.6043818   -8.5437535    631.21413   0.01327642  0.012348558            2 
 3963000   0.61547133   -8.5501132     629.5327  0.013237713  0.012344161            3 
 3964000    0.6179388   -8.5485176    630.13919  0.013247124  0.012339756            3 
 3965000   0.62520476    -8.568394    629.49156  0.013230172  0.012335359            1 
 3966000   0.61853749   -8.5525361    629.11756  0.013218977  0.012330961            1 
 3967000   0.61267468   -8.5740015    630.57906  0.013246346  0.012326563            3 
 3968000   0.62219838   -8.5671805     630.1811   0.01323465  0.012322166            2 
 3969000   0.61902596   -8.5722038    630.81632  0.013244653  0.012317773            3 
 3970000   0.60890399   -8.5597684    630.37035  0.013231955  0.012313377            3 
 3971000   0.61778598    -8.563202    630.60229   0.01323349  0.012308984            2 
 3972000   0.61027938   -8.5689112    629.48423  0.013206702  0.012304595            4 
 3973000   0.61504938   -8.5417409    629.98342  0.013213848  0.012300199            1 
 3974000   0.62191818   -8.5323102    630.76995  0.013227016  0.012295818            2 
 3975000   0.61817436   -8.5798879    629.97697  0.013207064  0.012291436            1 
 3976000   0.61577222   -8.5681509    630.85933  0.013222236  0.012287052            2 
 3977000   0.60988771   -8.5525886    630.44052  0.013210136  0.012282681            1 
 3978000   0.61151952   -8.5699206    630.93894  0.013217256  0.012278306            1 
 3979000   0.60671431   -8.5800998    629.13315  0.013176115  0.012273932            3 
 3980000   0.61373329   -8.5702315    629.85401  0.013187898  0.012269555            1 
 3981000   0.61176944   -8.5719834    629.69401  0.013181236   0.01226518            1 
 3982000   0.62252391   -8.5650419    629.75394   0.01317918    0.0122608            4 
 3983000   0.61607416   -8.5482646      631.227  0.013206691  0.012256429            6 
 3984000   0.61318984   -8.5795019    632.05578  0.013220712  0.012252061            3 
 3985000   0.62103632   -8.5653166    630.45479  0.013183914  0.012247695            2 
 3986000   0.61078322   -8.5741517    629.33774  0.013157253  0.012243334            8 
 3987000   0.63045873   -8.5501989    630.35266  0.013175166  0.012238972            3 
 3988000    0.6284053   -8.5920347    628.40167  0.013131095  0.012234613            3 
 3989000   0.60980118   -8.5713166     630.6881  0.013175568  0.012230255            4 
 3990000   0.61862919   -8.5546672    629.97555  0.013157384  0.012225895            3 
 3991000   0.60336085   -8.5629815    630.05415  0.013155729  0.012221538            4 
 3992000   0.60851082   -8.5572996    629.33765  0.013137476  0.012217188            4 
 3993000   0.61055035   -8.5489203     630.4499  0.013157398  0.012212843            1 
 3994000   0.62004621   -8.5513425    630.43805  0.013153857  0.012208497            1 
 3995000   0.61198325   -8.5741955    631.02822  0.013162875  0.012204152            3 
 3996000   0.62040397   -8.5574973    630.73457  0.013153457  0.012199808            2 
 3997000   0.61156245   -8.5580491    630.82345  0.013152019  0.012195466            5 
 3998000   0.60986959   -8.5628223    629.84604  0.013128357  0.012191123            1 
 3999000   0.60468771    -8.563014    630.32917  0.013135142  0.012186782            1 
 4000000   0.61789418   -8.5638355    630.81615  0.013142003  0.012182445            1 
 4001000   0.60538714   -8.5529456    629.76696  0.013116866  0.012178103            2 
 4002000   0.62243071   -8.5597196    629.85319  0.013115384  0.012173773            4 
 4003000   0.61393712   -8.5634129    629.27067  0.013099981  0.012169438            2 
 4004000   0.62184577   -8.5385073    629.78109  0.013107332  0.012165102            3 
 4005000   0.60626371   -8.5774461    629.48778  0.013097956  0.012160771            6 
 4006000   0.61524547   -8.5500139     629.0414  0.013085401  0.012156443            2 
 4007000   0.61786502   -8.5666391    630.82114  0.013119149  0.012152115            4 
 4008000   0.61571905   -8.5741978    629.47965  0.013087983  0.012147792            3 
 4009000   0.61345803   -8.5574991    630.62416  0.013108509  0.012143464            2 
 4010000   0.61808899   -8.5627517    630.70023  0.013106821  0.012139145            6 
 4011000   0.60758577   -8.5575076    631.75799   0.01312553   0.01213483            3 
 4012000   0.60596616   -8.5917633    630.13389  0.013088524  0.012130516            4 
 4013000   0.61284667   -8.5651106    630.80385  0.013099174  0.012126199            2 
 4014000   0.60693868      -8.5566    629.87021  0.013076528   0.01212189            3 
 4015000   0.62050129   -8.5842961    629.51144  0.013065825   0.01211757            1 
 4016000   0.59884728   -8.5754272    629.52836  0.013062922  0.012113255            2 
 4017000   0.61410651   -8.5620925    630.68177  0.013083598  0.012108944            2 
 4018000   0.60788347    -8.571239    630.44152  0.013075359   0.01210463            2 
 4019000    0.6041442   -8.5729118     629.5282  0.013053168  0.012100318            1 
 4020000   0.60508312    -8.569801    629.64004   0.01305224  0.012096013            2 
 4021000   0.61423933   -8.5776098    628.93315  0.013034344   0.01209171            1 
 4022000   0.61328882   -8.5832248    630.22418  0.013057852  0.012087407            2 
 4023000    0.6074097   -8.5689411    630.83997  0.013067362  0.012083109            1 
 4024000   0.61014335   -8.5606503    629.41781  0.013034663   0.01207881            2 
 4025000    0.6049335   -8.5674529    629.45921  0.013032282  0.012074516            1 
 4026000   0.60715137   -8.5833854    629.58376  0.013031623  0.012070219            2 
 4027000   0.61871545   -8.5727029    630.96187  0.013056905  0.012065933            1 
 4028000    0.5865433   -8.5854326    631.29841  0.013060626   0.01206164            1 
 4029000   0.60642369   -8.5820374    629.63691  0.013023019  0.012057343            1 
 4030000   0.61203625       -8.565    629.29484  0.013012714  0.012053057            3 
 4031000   0.60684034   -8.5551077    629.71523  0.013018176  0.012048772            3 
 4032000   0.59377961   -8.5727452    630.70415  0.013035387  0.012044489            2 
 4033000    0.6095672   -8.5834517     628.9268  0.012995429  0.012040205            2 
 4034000   0.62036824   -8.5872517    630.03775  0.013015158  0.012035918            1 
 4035000    0.6157228   -8.5789686    629.37912   0.01299833  0.012031636            1 
 4036000   0.60785933   -8.6016575    628.60519  0.012979129   0.01202736            2 
 4037000   0.60552964   -8.5791167    629.55027  0.012995423  0.012023085            1 
 4038000   0.60613828    -8.584722    630.18963  0.013005399  0.012018808            1 
 4039000    0.5986428    -8.586453    629.32986   0.01298444  0.012014535            2 
 4040000   0.59714225   -8.5811433    629.50677  0.012984876  0.012010263            2 
 4041000   0.62698195   -8.5915035    629.89862  0.012989743  0.012005989            1 
 4042000   0.61287317   -8.5662918    629.74965  0.012983458  0.012001725            2 
 4043000   0.61060322    -8.592043    629.03119  0.012965438  0.011997454            3 
 4044000   0.59830536   -8.5658974    630.43444  0.012991148  0.011993186            1 
 4045000   0.60677935    -8.579726    630.23259  0.012983778  0.011988921            1 
 4046000   0.60148181    -8.586962    630.17285  0.012979339   0.01198466            2 
 4047000   0.59818904   -8.5831962    630.73492  0.012987705  0.011980399            3 
 4048000   0.58588046   -8.5899622    630.09713  0.012971367  0.011976143            2 
 4049000   0.59730837    -8.596344    629.93419   0.01296481  0.011971886            1 
 4050000   0.60462773   -8.5805831    630.29121  0.012968955  0.011967636            2 
 4051000   0.60729237   -8.5762428    629.52115  0.012949913  0.011963384            1 
 4052000   0.60357156   -8.5731257    629.26941  0.012941539  0.011959132            3 
 4053000   0.60353912   -8.5824501    630.18908  0.012957256  0.011954882            1 
 4054000   0.62077417   -8.5927266    628.95854  0.012928765  0.011950635            2 
 4055000   0.60396493   -8.5771341    628.25711  0.012911161  0.011946392            3 
 4056000   0.59816279   -8.5732573    629.45002  0.012932487  0.011942147            2 
 4057000   0.60834865   -8.5895026    628.98134  0.012919673   0.01193791            2 
 4058000   0.60698106   -8.5790155    629.04935  0.012917885  0.011933671            1 
 4059000   0.58907923   -8.6075573    628.90011  0.012911639  0.011929431            2 
 4060000   0.59342597    -8.600418    629.66897   0.01292424  0.011925189            2 
 4061000   0.60631427   -8.5633496    630.22408  0.012932448  0.011920955            1 
 4062000   0.61003829   -8.5726662    630.43761  0.012933645  0.011916728            1 
 4063000   0.62095616   -8.5730545    629.17605  0.012904587  0.011912503            1 
 4064000   0.60458094    -8.585719    629.62887  0.012910697  0.011908278       -1e+20 
 4065000   0.60236525   -8.5861494    628.95924  0.012893793  0.011904051            2 
 4066000   0.60475558   -8.6034039    630.04517  0.012912879  0.011899826            2 
 4067000   0.60165269   -8.5950019    629.29862  0.012894407  0.011895598            5 
 4068000   0.58319254   -8.5980215    630.46855  0.012915203  0.011891375            4 
 4069000   0.59736374   -8.6020962    629.44624  0.012891092  0.011887152            2 
 4070000   0.59102245   -8.5843801    630.64292  0.012912427   0.01188293            2 
 4071000   0.60788842   -8.5972668    628.81042  0.012871744  0.011878711            2 
 4072000   0.60294413   -8.5766132     629.5972  0.012884684    0.0118745            2 
 4073000   0.59246219   -8.5903003     629.8894  0.012887499  0.011870286            1 
 4074000   0.61121125   -8.5921115    629.69141  0.012880286  0.011866074            1 
 4075000   0.59473876   -8.6015292    629.45682  0.012872328  0.011861857            3 
 4076000   0.60098473   -8.5844281    629.55956   0.01287127  0.011857642            3 
 4077000   0.60348235    -8.585641     629.8226  0.012873489   0.01185343            1 
 4078000   0.59557475   -8.5948328    629.12511   0.01285608  0.011849221            2 
 4079000   0.59372346    -8.579132    628.71392  0.012844527  0.011845017            2 
 4080000   0.59587953   -8.6061734    628.11363  0.012829118  0.011840809            2 
 4081000   0.59984157    -8.594896    629.47652  0.012853805  0.011836604            2 
 4082000   0.59411422   -8.6081524    628.39699  0.012828617  0.011832397            1 
 4083000    0.5830431   -8.5939814    629.85593  0.012855252  0.011828194            2 
 4084000   0.59507684   -8.5904523    628.74365  0.012829408  0.011823997            1 
 4085000   0.59792604   -8.6003898    629.05883  0.012832697  0.011819801            3 
 4086000   0.59168338   -8.6078736    630.33424  0.012855569  0.011815612            3 
 4087000   0.60257277   -8.5924235    629.79814  0.012841492  0.011811424            2 
 4088000   0.60742993   -8.6029758     629.6359  0.012835044   0.01180724            3 
 4089000   0.58151242   -8.5922217    630.88013  0.012857262   0.01180305            2 
 4090000   0.60320917     -8.59969    628.50969  0.012805821  0.011798866            2 
 4091000   0.59182793   -8.6018748    629.82917  0.012829568  0.011794685            1 
 4092000   0.59922489   -8.5974972    629.75286  0.012824879  0.011790505            3 
 4093000   0.59569198   -8.5967005    630.19874  0.012830824  0.011786328            2 
 4094000   0.60329358   -8.5849792    629.24566   0.01280829  0.011782153            1 
 4095000   0.60197554   -8.6031817    630.01819  0.012820883  0.011777975            2 
 4096000   0.60566125   -8.6060348    629.52788  0.012807778  0.011773799            1 
 4097000   0.58535466   -8.5954073    629.32287  0.012800481  0.011769629            2 
 4098000   0.59508911   -8.6120022    629.20899  0.012795042   0.01176546            2 
 4099000   0.59767939   -8.6011785    628.68788  0.012781326  0.011761288            2 
 4100000   0.59757933   -8.6041013    629.07349  0.012786047   0.01175712            2 
 4101000   0.60419714   -8.5881505     628.5598   0.01277249  0.011752958            2 
 4102000   0.59563514   -8.5990658    628.64398  0.012771087   0.01174879            2 
 4103000   0.58543229   -8.5958877     630.6337  0.012808386  0.011744623            1 
 4104000   0.59318089   -8.6066352    629.57917  0.012783853  0.011740465            3 
 4105000   0.57675794   -8.5988406    629.55475  0.012780243  0.011736306            1 
 4106000   0.59427708   -8.6086427    628.94728  0.012764801  0.011732147            2 
 4107000   0.59304555   -8.5941511    629.25396  0.012767916  0.011727994       -1e+20 
 4108000   0.59507185   -8.6063931     628.4696  0.012748896  0.011723839            2 
 4109000   0.58245059    -8.606712    629.92793   0.01277537  0.011719687            1 
 4110000   0.59818174   -8.5989277    629.02347  0.012753923  0.011715536            2 
 4111000   0.59072314   -8.6056911    630.02408  0.012771103  0.011711388            3 
 4112000   0.59218145   -8.6194496    628.19017  0.012730832  0.011707238            3 
 4113000   0.60294459   -8.5893482    629.60645  0.012756432  0.011703091            1 
 4114000   0.58494103   -8.5997563    628.95856  0.012740208  0.011698951            3 
 4115000   0.59064371    -8.589871    629.14548  0.012740897  0.011694811            2 
 4116000   0.60522589   -8.5910939     627.9982  0.012714573  0.011690679            4 
 4117000   0.58945696   -8.6100301    628.91454  0.012730033  0.011686547            3 
 4118000   0.58886149   -8.5932927    628.41958  0.012716925   0.01168241            3 
 4119000    0.5834477   -8.6069692    628.75916  0.012720708  0.011678275            1 
 4120000   0.59605852   -8.5824175    629.57117  0.012734045  0.011674146            3 
 4121000    0.6034674   -8.6045015    630.46261  0.012748981  0.011670021            2 
 4122000    0.5829417   -8.6193213    630.47644  0.012746168  0.011665893            1 
 4123000   0.58822889     -8.59214    628.28878   0.01269886  0.011661773            2 
 4124000   0.60095073   -8.6062876    629.22836  0.012714766  0.011657655            1 
 4125000   0.58014635   -8.5885183    628.77402  0.012702505  0.011653535            1 
 4126000   0.58535488   -8.6028191    629.58699  0.012715847  0.011649413            2 
 4127000   0.58537697   -8.5954017    629.29736  0.012706917  0.011645297            1 
 4128000   0.59213858   -8.6082605    628.57926  0.012689342   0.01164118            3 
 4129000   0.59262515   -8.5739318    629.51855  0.012705226  0.011637065            2 
 4130000   0.58626638   -8.5952044    628.85987  0.012688859  0.011632953            1 
 4131000   0.60464951   -8.6044984    630.26264  0.012714085  0.011628844            1 
 4132000   0.59257243   -8.5875674    628.60544  0.012677586  0.011624737            2 
 4133000   0.59395511   -8.6118492    629.65366  0.012695654  0.011620633            1 
 4134000   0.59765838   -8.6084505    629.30911  0.012685638  0.011616522            1 
 4135000   0.59518955   -8.5893794     629.0341  0.012677027  0.011612411            3 
 4136000   0.58313309   -8.5925513    628.61869  0.012665593  0.011608312            5 
 4137000   0.58760569   -8.5802991    629.10024  0.012672231  0.011604209            1 
 4138000   0.59421372   -8.5934605    629.26332  0.012672453  0.011600105            3 
 4139000   0.58185503   -8.5914976    628.79347  0.012659931  0.011596003            4 
 4140000   0.58601271     -8.60196    629.10808  0.012663206  0.011591902            2 
 4141000   0.57866313   -8.6053091    629.89189  0.012675921  0.011587808            2 
 4142000    0.6068265   -8.6124388    629.06447  0.012656214  0.011583709            2 
 4143000   0.59315348    -8.617576    628.94712  0.012650799  0.011579611            2 
 4144000   0.59233262   -8.6095746    628.56453  0.012640052   0.01157552            1 
 4145000   0.58273633   -8.5956508    628.91789  0.012644107  0.011571424            2 
 4146000    0.6001733    -8.602198    629.16718  0.012646068  0.011567333            2 
 4147000    0.5874354   -8.5888969    630.01641  0.012660084   0.01156325            2 
 4148000   0.57965407   -8.6012795    630.61627  0.012669083  0.011559165            1 
 4149000   0.58843342   -8.6135291    628.88358  0.012631228  0.011555077            2 
 4150000   0.57714422   -8.6075442    628.93976  0.012629313  0.011550993            1 
 4151000   0.59313338   -8.6132333    628.93157  0.012626106  0.011546913            2 
 4152000   0.57991613   -8.6353835    630.03319  0.012645175  0.011542835            3 
 4153000   0.58899404   -8.6103056    629.09321  0.012623268  0.011538757            1 
 4154000   0.58758484    -8.594476    629.20498  0.012622472   0.01153468            2 
 4155000   0.58070787   -8.5948322    628.20897  0.012599458  0.011530601            1 
 4156000   0.58249799   -8.5944206    628.31539   0.01259856  0.011526525            1 
 4157000   0.59433651   -8.6172905    628.23568  0.012593932  0.011522454            2 
 4158000   0.58619225   -8.6072963     629.1307   0.01260884  0.011518373            4 
 4159000   0.58660466   -8.6234321    628.31503  0.012589465    0.0115143            1 
 4160000   0.58862445   -8.6143186    629.09733   0.01260211  0.011510227            1 
 4161000   0.57970278   -8.6091472    629.37047  0.012604551  0.011506157            1 
 4162000   0.58399459   -8.6281457    628.81651  0.012590432  0.011502085            1 
 4163000   0.60403746   -8.6098799    628.94949  0.012590069  0.011498017            2 
 4164000   0.59060252   -8.6243416    628.68795  0.012581811   0.01149395            3 
 4165000   0.59048149   -8.6159112    628.54381  0.012575907   0.01148989            1 
 4166000   0.58651635   -8.6089302     628.5207  0.012572425  0.011485831            1 
 4167000   0.60851454   -8.6058817    628.88298  0.012576653  0.011481774            1 
 4168000   0.58482972   -8.6077462    629.45846  0.012585142  0.011477717            2 
 4169000    0.5978102   -8.6181506    629.49403  0.012582834  0.011473658            1 
 4170000   0.59357322   -8.6266081    628.86068   0.01256716  0.011469605            2 
 4171000    0.5893227   -8.6348564    628.56339  0.012558207  0.011465551            2 
 4172000   0.58219095   -8.6210448    627.71079  0.012538167    0.0114615            2 
 4173000    0.5821874   -8.6372142    628.17784  0.012544489  0.011457446            2 
 4174000   0.59676735   -8.6153771    627.66994  0.012531344  0.011453396            1 
 4175000   0.59566003   -8.6361574     628.3109  0.012541136  0.011449349            2 
 4176000   0.58562511   -8.6118629    627.85402  0.012529015  0.011445308            3 
 4177000   0.58538291   -8.6175441    629.63182  0.012561484  0.011441265            1 
 4178000   0.58039616   -8.6059393    627.89893  0.012523914  0.011437222            2 
 4179000   0.58959195   -8.6304229    629.47915  0.012552428  0.011433185            1 
 4180000   0.58219922   -8.6104074    629.09843  0.012541835  0.011429145            1 
 4181000   0.57112871    -8.627362    628.49432  0.012526794  0.011425108            1 
 4182000   0.56889238   -8.6065829    629.17728  0.012537408  0.011421071            2 
 4183000    0.5891449   -8.6263366    629.13551  0.012533579  0.011417037            2 
 4184000   0.59199666   -8.6214421    628.23457  0.012512639     0.011413            3 
 4185000   0.58161445   -8.6182569    629.28679  0.012530601   0.01140897            1 
 4186000   0.57933588   -8.6240923    628.68967   0.01251572  0.011404943            1 
 4187000   0.59512364    -8.625914    628.47228  0.012508405  0.011400912            1 
 4188000   0.57865987   -8.6026427     629.1972  0.012519842  0.011396892            1 
 4189000   0.57400009   -8.6034634    628.50323  0.012503048  0.011392872            3 
 4190000   0.58683745   -8.6211383    628.83746  0.012506712  0.011388853            2 
 4191000   0.58262917   -8.6197847    629.10672  0.012509081   0.01138484            1 
 4192000    0.5796527   -8.6270426    628.87543    0.0125015  0.011380822            1 
 4193000    0.5851889   -8.6346176    629.74772  0.012515854  0.011376811            1 
 4194000   0.58408855   -8.6159606    627.67086  0.012471603  0.011372795            6 
 4195000   0.56843196   -8.6195567    628.90774  0.012493201  0.011368783            1 
 4196000   0.59039514   -8.6092874    628.40418  0.012480223  0.011364777            1 
 4197000   0.57829446    -8.604887    628.56927  0.012480527  0.011360769            2 
 4198000   0.58227844   -8.6144477    629.21307  0.012490334  0.011356765            2 
 4199000    0.5808271   -8.6148165    628.90554  0.012481256  0.011352766            2 
 4200000   0.58658948   -8.6061857    628.93512  0.012478871   0.01134877            1 
 4201000   0.57743379   -8.6099994    628.13706   0.01246007   0.01134477            4 
 4202000   0.58796531    -8.628773    629.08941  0.012475992  0.011340773            2 
 4203000   0.57010016   -8.6220868    629.28962  0.012476993   0.01133678            2 
 4204000   0.57422056   -8.6281756    628.06757  0.012449801  0.011332784            2 
 4205000   0.58975284   -8.6238866    628.42023  0.012453829  0.011328786            2 
 4206000   0.58302998   -8.6091324    628.89864  0.012460347  0.011324794            2 
 4207000   0.58646091   -8.6249949    628.19642  0.012443475  0.011320802            4 
 4208000   0.57009643   -8.6198535    629.36269  0.012463615  0.011316808            3 
 4209000    0.5861568   -8.6381768    628.04781   0.01243462  0.011312819            3 
 4210000   0.56499048   -8.6202685    629.22392  0.012454947   0.01130883            3 
 4211000   0.57412505   -8.6212932    627.58256  0.012419508  0.011304845            1 
 4212000   0.57439659   -8.6340825    628.45649  0.012433849  0.011300861            1 
 4213000   0.57771478   -8.6463061    629.19848  0.012445575  0.011296879            2 
 4214000   0.58629912   -8.6343063    628.00934  0.012419106  0.011292898            3 
 4215000   0.57425533   -8.6303038     628.2953  0.012421813  0.011288917            3 
 4216000   0.57145902   -8.6166832    628.45133  0.012421951  0.011284934            1 
 4217000   0.58704135   -8.6310012    627.39376  0.012398106  0.011280955            3 
 4218000   0.56472432   -8.6339985    628.47868  0.012416601  0.011276973            2 
 4219000   0.57660443   -8.6435822    629.24139  0.012428723  0.011272999            1 
 4220000   0.57765424     -8.62843    627.97808  0.012400831  0.011269023            1 
 4221000   0.57417106   -8.6420246    628.23386  0.012402943  0.011265048            2 
 4222000   0.56701133   -8.6447175    629.16026   0.01241829  0.011261079            3 
 4223000   0.56835031   -8.6503673    628.52453  0.012402805  0.011257109            2 
 4224000   0.58229287   -8.6416552    627.47176  0.012379099  0.011253142            3 
 4225000   0.57442716   -8.6403434     629.2778  0.012411791  0.011249172            2 
 4226000   0.57672727   -8.6415142    629.67438  0.012416674  0.011245208            2 
 4227000   0.56777022   -8.6606761    628.74658  0.012395445  0.011241246            2 
 4228000   0.57247791   -8.6424904    628.62184  0.012390055  0.011237283            2 
 4229000   0.56932856   -8.6508409    629.20716  0.012398659  0.011233321            2 
 4230000   0.58414112   -8.6376739    627.16526  0.012355501  0.011229356            2 
 4231000   0.56628952   -8.6499016    626.72972  0.012344003  0.011225394            2 
 4232000   0.56532375   -8.6355002     628.6737  0.012379366   0.01122144            3 
 4233000   0.57255622   -8.6310889    629.19657  0.012386735   0.01121748            1 
 4234000   0.58813209   -8.6306565    628.86927  0.012377367  0.011213526            1 
 4235000    0.5852169   -8.6564501    628.34408   0.01236411  0.011209573            2 
 4236000   0.57738237    -8.637195    628.02504  0.012354915  0.011205626            3 
 4237000   0.57357378    -8.663309    627.49744  0.012341622  0.011201676            2 
 4238000   0.56932024   -8.6339125    627.75327  0.012343741  0.011197728            1 
 4239000   0.57622304   -8.6287772    628.55921  0.012356672  0.011193788            2 
 4240000   0.57790495   -8.6475431    628.79223  0.012358338  0.011189849            1 
 4241000   0.55920087   -8.6562121    627.67603  0.012333491  0.011185906            1 
 4242000   0.58379858   -8.6079026    627.69916  0.012331038  0.011181966            1 
 4243000   0.56507829   -8.6349959    628.01242  0.012334284   0.01117803            1 
 4244000   0.56234454    -8.628892    627.74273  0.012326082  0.011174096            1 
 4245000   0.57501945   -8.6032417    628.11385  0.012330464   0.01117016            3 
 4246000   0.58238283   -8.6439212    627.55011  0.012316496  0.011166225            3 
 4247000   0.58796786   -8.6221334    628.08288   0.01232405  0.011162294            2 
 4248000   0.57041401   -8.6609501    627.86326  0.012316841  0.011158359            2 
 4249000   0.56940429    -8.657351    628.06496  0.012317897  0.011154434            4 
 4250000   0.57810399   -8.6286982    629.07572  0.012334818  0.011150505            1 
 4251000   0.57832705   -8.6382132    628.14219  0.012313616  0.011146578            3 
 4252000   0.55663109   -8.6448965    628.25652  0.012312961  0.011142652            4 
 4253000   0.57706435    -8.633466    627.97162  0.012304483  0.011138729            2 
 4254000   0.56894704   -8.6472168      628.401  0.012310002  0.011134804            2 
 4255000   0.57201319   -8.6543492    628.46643  0.012308391  0.011130879            2 
 4256000   0.56950365    -8.645467    627.74226  0.012291319  0.011126956            2 
 4257000   0.55155682   -8.6338143    628.66105  0.012306418   0.01112304            2 
 4258000   0.57131216    -8.632887    628.00933  0.012290773  0.011119126            2 
 4259000   0.57166811   -8.6412002    627.00685  0.012268272  0.011115213            3 
 4260000   0.56282294   -8.6367885    628.01212  0.012285057  0.011111297            2 
 4261000   0.56653838   -8.6482274    627.97818   0.01228151  0.011107388            2 
 4262000    0.5658842   -8.6497636    627.89923  0.012277085  0.011103476            2 
 4263000    0.5741398   -8.6360861    626.39887  0.012244876  0.011099567            5 
 4264000   0.56813891   -8.6480399    627.43995  0.012262351  0.011095657            1 
 4265000   0.56928928   -8.6566198    628.29345  0.012276152  0.011091752            2 
 4266000   0.56989809   -8.6559313    627.94016  0.012266373  0.011087851            3 
 4267000    0.5631579   -8.6535388     627.9383  0.012263462  0.011083952            2 
 4268000    0.5639702   -8.6268511    628.69985  0.012275458  0.011080056            3 
 4269000   0.57742642   -8.6314487    628.62945  0.012271208   0.01107616            1 
 4270000   0.55921333   -8.6438469    628.27788  0.012261473   0.01107227            2 
 4271000   0.56459089   -8.6401733    627.34268  0.012240355  0.011068373            1 
 4272000   0.56184832   -8.6490492    628.42234  0.012258551  0.011064483            5 
 4273000   0.56655794   -8.6313231    628.94005  0.012265778  0.011060591            3 
 4274000   0.56352658   -8.6580891    626.84326  0.012222026  0.011056702            1 
 4275000   0.56672059   -8.6601185    627.87932  0.012239363  0.011052817            2 
 4276000   0.55832951   -8.6662603     628.2726  0.012244165  0.011048936            1 
 4277000   0.57522013   -8.6577386    627.64525  0.012229079  0.011045052            1 
 4278000   0.56398749   -8.6426548     627.6981   0.01222725  0.011041174            3 
 4279000   0.57009271   -8.6586498      627.644  0.012223339  0.011037295            2 
 4280000   0.57242611   -8.6517203    626.49732  0.012198157  0.011033415            3 
 4281000   0.55550883   -8.6465965    628.61372  0.012236505  0.011029534            3 
 4282000   0.57331288   -8.6425231    627.10468  0.012204279  0.011025659            2 
 4283000   0.56588836   -8.6436145    629.24262  0.012243027  0.011021783            1 
 4284000   0.57739812   -8.6433617    628.33929  0.012222597   0.01101791            1 
 4285000   0.56345552   -8.6517275    627.44489  0.012202351   0.01101404            3 
 4286000   0.56972202   -8.6555248    627.49699  0.012200517   0.01101017            1 
 4287000   0.57911009   -8.6560825    628.34123  0.012214082  0.011006301            2 
 4288000   0.55414642   -8.6781275    627.29311  0.012190864  0.011002426            2 
 4289000    0.5632123   -8.6449757    627.45957  0.012191256  0.010998553            1 
 4290000   0.57044845   -8.6722078    627.77889  0.012194617  0.010994686            2 
 4291000   0.56511209   -8.6433295    627.51285  0.012186609  0.010990824            2 
 4292000   0.57457533   -8.6531321    628.93599  0.012211401  0.010986964            1 
 4293000   0.56000575   -8.6505952     627.9139  0.012188716  0.010983102            1 
 4294000   0.57091708   -8.6621931    627.04748  0.012169063  0.010979242            2 
 4295000   0.56892065   -8.6488207    627.14047  0.012168034  0.010975377            2 
 4296000   0.55911366    -8.665441     627.5156  0.012172478  0.010971518            1 
 4297000    0.5665945   -8.6374441    627.29631  0.012165393   0.01096766            2 
 4298000   0.56794591   -8.6597262    628.42235  0.012184395  0.010963803            3 
 4299000   0.56831332   -8.6530222    627.93325   0.01217208  0.010959948            3 
 4300000    0.5599537   -8.6526173     627.6379  0.012163525  0.010956094            1 
 4301000   0.56208331   -8.6689097    627.79035  0.012163651  0.010952239            2 
 4302000   0.55720439    -8.650159    628.50987  0.012174761  0.010948389            1 
 4303000   0.56711296   -8.6607099     627.8011  0.012158206  0.010944542            3 
 4304000   0.56865502    -8.642429    626.82855   0.01213655    0.0109407            2 
 4305000   0.56768228   -8.6835389    627.84069  0.012153323  0.010936856            1 
 4306000    0.5614377   -8.6489988    627.80706   0.01214985  0.010933015            1 
 4307000   0.55391783   -8.6479609    627.26069  0.012136458   0.01092917            1 
 4308000   0.57055727   -8.6734505    626.32075  0.012115459  0.010925329            2 
 4309000   0.56907741   -8.6634805    626.80264  0.012121966  0.010921487            2 
 4310000   0.56716606   -8.6724499    626.47475  0.012112814  0.010917651            2 
 4311000   0.55628639   -8.6644133    627.60675  0.012131887  0.010913806            1 
 4312000   0.55282611   -8.6700892    626.88398  0.012115105   0.01090997            1 
 4313000   0.55241966   -8.6506414    627.08677  0.012116214  0.010906132            2 
 4314000   0.57683343   -8.6726795    627.70334  0.012125316  0.010902298            3 
 4315000    0.5634785   -8.6528791    627.48293  0.012118249  0.010898464            1 
 4316000   0.55999299   -8.6609611    625.62772  0.012079621  0.010894631            1 
 4317000   0.55835998   -8.6826061    627.92449  0.012121158  0.010890804            1 
 4318000   0.55022459   -8.6818696      627.007  0.012100644  0.010886977            3 
 4319000   0.55641943   -8.6621378    627.39738  0.012105375  0.010883156            2 
 4320000    0.5667032   -8.6725019    626.31612  0.012081715  0.010879335            2 
 4321000    0.5631256   -8.6727272    627.83346  0.012108182   0.01087551            2 
 4322000   0.56469579   -8.6736859    628.08063  0.012110146  0.010871691            1 
 4323000   0.55512152   -8.6762184    627.02907  0.012087074  0.010867873            2 
 4324000   0.54754911   -8.6737499    626.90862  0.012081958  0.010864054            2 
 4325000   0.57175318   -8.6576237    626.63513  0.012073895  0.010860239            1 
 4326000   0.56199948   -8.6647076     626.4072  0.012066713  0.010856424            1 
 4327000   0.56892941   -8.6894112     627.8034  0.012090813  0.010852608            1 
 4328000   0.55134867   -8.6634694    626.77218  0.012068164  0.010848797            1 
 4329000   0.56623233   -8.6709708    626.62078  0.012062462   0.01084499            1 
 4330000   0.55269458   -8.6780455    627.25739  0.012071928  0.010841183            1 
 4331000   0.56530591   -8.6636445    627.81166  0.012079806  0.010837378            2 
 4332000   0.54733443   -8.6774375    626.91301   0.01205973  0.010833571            2 
 4333000   0.55616762   -8.6904892       627.91  0.012076121  0.010829768            2 
 4334000   0.54654186   -8.6786756    626.73425  0.012050728  0.010825964            2 
 4335000   0.56039001   -8.6632023    626.93479  0.012051803  0.010822163            2 
 4336000   0.56606233   -8.6642713    627.71077  0.012063937  0.010818361            1 
 4337000   0.56208066   -8.6727333    626.14158  0.012031004  0.010814565            2 
 4338000   0.56175667   -8.6817014    627.33986   0.01205125  0.010810769            2 
 4339000   0.55995486   -8.6842356    627.34142  0.012048502  0.010806975            2 
 4340000   0.55744583   -8.6642341    627.23286  0.012043642  0.010803185            1 
 4341000   0.56439155   -8.6739353    625.68262  0.012011108  0.010799392            1 
 4342000   0.57104398   -8.6568899    626.51647  0.012024345  0.010795604            1 
 4343000    0.5688804   -8.6751292    626.66659  0.012024457  0.010791815            1 
 4344000   0.56904267   -8.6803951    626.24096  0.012013524  0.010788025            1 
 4345000   0.55977873   -8.6804937    628.13179  0.012047023  0.010784239            4 
 4346000   0.56172744   -8.6847387     627.0606  0.012023711  0.010780456            2 
 4347000   0.55911023   -8.6813976    626.26668  0.012005726  0.010776677            2 
 4348000   0.56128697   -8.6868564    627.62545  0.012029007    0.0107729            1 
 4349000     0.553529   -8.6723179    626.69336   0.01200838  0.010769127            1 
 4350000    0.5575069   -8.6792573    626.75026   0.01200671  0.010765351            2 
 4351000   0.55879281   -8.6711824     627.5274  0.012018835  0.010761582            2 
 4352000   0.56025653   -8.6784914    627.25304   0.01201082  0.010757806            3 
 4353000   0.56461441   -8.6750132    626.81255  0.011999628  0.010754033            1 
 4354000    0.5540018   -8.6878584     626.3529  0.011988074  0.010750263            1 
 4355000   0.56857933   -8.6928971    627.91854   0.01201528  0.010746495            1 
 4356000   0.54379544   -8.6805085     626.1783   0.01197923  0.010742729            2 
 4357000   0.55424287   -8.6774274    626.08511  0.011974698  0.010738963            1 
 4358000   0.56930612   -8.6683893    627.12675  0.011991868  0.010735202            1 
 4359000   0.56418569   -8.6764004    627.58999  0.011997973  0.010731443            1 
 4360000   0.55400843   -8.6879412    625.89855  0.011962893  0.010727681            2 
 4361000   0.55897977    -8.690415    625.94888  0.011961111  0.010723924            1 
 4362000   0.55477297   -8.6776782    626.19851  0.011963138  0.010720166            1 
 4363000   0.55653477    -8.658156    626.60833  0.011968224  0.010716408            2 
 4364000   0.54382894    -8.689205    627.45584  0.011981665  0.010712655            1 
 4365000   0.55162671   -8.6629206     626.7872  0.011966155    0.0107089            2 
 4366000   0.55171701   -8.6732561    627.55687  0.011978105   0.01070515            2 
 4367000   0.54872396    -8.672445    627.05244  0.011965736  0.010701398            2 
 4368000   0.56388911    -8.659999    626.90966  0.011960273   0.01069765            1 
 4369000   0.54661469   -8.6907643    626.40247  0.011947861  0.010693904            1 
 4370000   0.55069789   -8.7027897    628.78122  0.011990489  0.010690162            2 
 4371000   0.53975126    -8.684026    627.49423  0.011963209   0.01068642            1 
 4372000    0.5513647   -8.6823904    627.06014  0.011952198  0.010682678            1 
 4373000   0.54953914   -8.6871843    627.94522  0.011966332  0.010678943            2 
 4374000   0.54308068   -8.6991826    626.36088  0.011933411  0.010675207            1 
 4375000    0.5544124   -8.6962805      626.845  0.011939905  0.010671468            2 
 4376000   0.55448545   -8.6658054    627.16262  0.011943225  0.010667734            1 
 4377000   0.55055633   -8.6864785    626.72141  0.011932096  0.010664003            1 
 4378000   0.55822998   -8.6862183    626.87607  0.011932314  0.010660277            4 
 4379000   0.56111921   -8.6744463    627.38482  0.011939271  0.010656549            1 
 4380000   0.55129336   -8.6990789    627.35687  0.011936014  0.010652824            1 
 4381000   0.54726118    -8.682284    626.45825  0.011916196  0.010649105            5 
 4382000   0.54529852   -8.6870697    627.49591   0.01193321  0.010645382            2 
 4383000   0.55885861   -8.6853331    625.34711  0.011889633  0.010641657            1 
 4384000   0.54989705   -8.6769052    627.17806  0.011921724  0.010637937            3 
 4385000   0.55020877   -8.6942859    627.67723  0.011928492  0.010634218            4 
 4386000   0.54875288   -8.6869571    626.53262  0.011904025  0.010630504            2 
 4387000   0.55630013   -8.6795241     626.4443  0.011899633  0.010626788            3 
 4388000   0.55835594   -8.6909105    627.45376  0.011916092  0.010623073            2 
 4389000   0.54489147   -8.6873936    627.29956   0.01191045  0.010619362            2 
 4390000   0.54514165   -8.6960424    626.74971  0.011897299  0.010615652            1 
 4391000   0.54919797   -8.6944491    627.48234  0.011908494  0.010611945            2 
 4392000    0.5460398    -8.693589    627.07779  0.011898106  0.010608242            1 
 4393000   0.54682855   -8.6683103    626.41359  0.011882798  0.010604535            2 
 4394000   0.55021325   -8.6952205    626.57632   0.01188318  0.010600827            2 
 4395000   0.55707262   -8.6813385    627.65762  0.011900979  0.010597128            2 
 4396000   0.55539452   -8.6935829    625.94617  0.011865828  0.010593424            4 
 4397000   0.54784323   -8.7168049    626.01574  0.011864448   0.01058972            1 
 4398000   0.54912146   -8.6823479    627.61979  0.011892144   0.01058602            1 
 4399000   0.56457851   -8.6677322    627.08826  0.011879371  0.010582319            1 
 4400000   0.55757993   -8.6981235    626.89306  0.011872975  0.010578621            2 
 4401000   0.55219377   -8.6954943    626.55295  0.011863837  0.010574927            1 
 4402000   0.54616995   -8.6795741    626.38013   0.01185787   0.01057123            2 
 4403000   0.54268843   -8.6959974     626.9084  0.011865175  0.010567538            1 
 4404000   0.54131621   -8.6768108    625.78422  0.011841209  0.010563847            2 
 4405000   0.54551971   -8.6829665    626.80123  0.011857761  0.010560154            3 
 4406000   0.54728514   -8.6994213    626.83651  0.011855737  0.010556462            3 
 4407000   0.54386784   -8.6948458    625.29114  0.011823825   0.01055277            4 
 4408000   0.56646967    -8.689298    626.05709  0.011835622   0.01054908            3 
 4409000   0.54555501   -8.6896517    625.13055  0.011815426  0.010545396            2 
 4410000   0.54542353   -8.7106939    626.77297  0.011843782  0.010541716            2 
 4411000   0.54391771     -8.69514    626.71284  0.011839961  0.010538039            2 
 4412000   0.54486899     -8.69889    627.19656  0.011846414  0.010534359            3 
 4413000   0.53972137   -8.7026844    626.73855  0.011835081  0.010530676            2 
 4414000   0.53799194   -8.6974047    625.53817  0.011809737     0.010527            1 
 4415000   0.55294414    -8.696557    626.06115  0.011816934  0.010523322            1 
 4416000    0.5355261   -8.6939069    627.18888  0.011835539  0.010519647            1 
 4417000   0.53161936   -8.7039849    626.18432  0.011813907  0.010515972            1 
 4418000   0.54910188   -8.7155224    627.09219  0.011828357  0.010512299            1 
 4419000    0.5445249   -8.7076607    626.60386  0.011816472  0.010508633            1 
 4420000   0.54473334   -8.6986353    625.99657  0.011802349  0.010504965            1 
 4421000    0.5468659   -8.6946944    627.08571  0.011820209    0.0105013            3 
 4422000    0.5467212   -8.7039877     626.2251  0.011801317  0.010497634            1 
 4423000   0.53655259   -8.7031374     626.3365  0.011800748   0.01049397            1 
 4424000   0.54910917   -8.7026447    626.31626  0.011797699  0.010490309            2 
 4425000   0.55740943   -8.7102472     626.5674  0.011799763  0.010486646            2 
 4426000    0.5416854   -8.7058149     627.8596  0.011821426  0.010482986            3 
 4427000   0.54817811   -8.7000103    626.04433  0.011784586  0.010479329            1 
 4428000   0.53780964   -8.6999513    626.76945  0.011795571  0.010475674            2 
 4429000   0.54582987   -8.6863598    626.38386  0.011785653  0.010472019            2 
 4430000   0.55585485   -8.6920732     626.3482  0.011782321  0.010468365            4 
 4431000   0.55741847   -8.6963059    627.12981  0.011794362  0.010464717            1 
 4432000   0.54730767   -8.7035109    626.41126   0.01177819  0.010461068            2 
 4433000     0.546467   -8.7005465    625.84757  0.011764937  0.010457421            2 
 4434000   0.53541539   -8.7018254     626.1092    0.0117672  0.010453773            1 
 4435000   0.55059347   -8.6870577    626.77346  0.011777029  0.010450127            3 
 4436000   0.53130246    -8.680625     626.8932  0.011776623  0.010446488            3 
 4437000   0.53969174   -8.7112655    626.36532  0.011764055  0.010442847            1 
 4438000   0.53910089   -8.6859943    626.39925  0.011762041  0.010439207            2 
 4439000   0.53760133   -8.6837927    625.52036  0.011742892   0.01043557            1 
 4440000   0.54908187   -8.6990643    627.15525  0.011770932  0.010431939            1 
 4441000   0.54342602   -8.6923273    627.03896  0.011766099  0.010428305            2 
 4442000   0.53721741   -8.7034834    625.70914  0.011738503  0.010424678            2 
 4443000   0.55835573    -8.711714    626.31676  0.011747257  0.010421051            1 
 4444000   0.53627425   -8.7116591    626.07372  0.011740056  0.010417425            4 
 4445000   0.54622646   -8.7101375    626.02088  0.011736424  0.010413801            3 
 4446000   0.53428969   -8.7088377    626.22194  0.011737553  0.010410177            2 
 4447000   0.54143119   -8.7070785     625.0428  0.011712818  0.010406557            3 
 4448000   0.54141984   -8.7188953    624.93219  0.011708112  0.010402937            3 
 4449000   0.53357488   -8.6894143    626.25268  0.011730214  0.010399318            2 
 4450000   0.53530855   -8.7039619    625.86508   0.01172032  0.010395702            1 
 4451000   0.53597552   -8.7029103    625.03429  0.011702132  0.010392083            1 
 4452000   0.54792444   -8.7091448    626.41772  0.011725399  0.010388467            2 
 4453000   0.53982491   -8.7094749    626.57549  0.011725718  0.010384853            2 
 4454000   0.53268752   -8.7047441    626.20125  0.011716084  0.010381235            1 
 4455000   0.53510019   -8.7087655    626.43635  0.011717852  0.010377621            1 
 4456000   0.53395758   -8.7212169    625.25648  0.011693157  0.010374008            2 
 4457000   0.52254016   -8.6879043     626.7023  0.011717566  0.010370395            1 
 4458000   0.53054269   -8.7133783      625.993  0.011701679  0.010366787            2 
 4459000   0.54151967    -8.707855    624.96499  0.011679842  0.010363176            1 
 4460000   0.54188147     -8.70443    626.53881   0.01170663  0.010359564            2 
 4461000   0.53244607   -8.7323401    625.88853  0.011691858  0.010355956            3 
 4462000   0.54597752   -8.7087211    625.79474  0.011687486  0.010352356            3 
 4463000   0.53118966   -8.7073358    624.77219  0.011665774   0.01034875            3 
 4464000    0.5308124   -8.7005961    626.12545  0.011688423  0.010345146            2 
 4465000   0.53077102   -8.7063196    626.47709  0.011692368  0.010341548            1 
 4466000   0.53216515   -8.7007588    625.17913  0.011665531  0.010337951            2 
 4467000   0.54299532   -8.6960009    625.51543  0.011669193  0.010334353            2 
 4468000   0.54164299   -8.7197152    625.77951  0.011671507  0.010330756            2 
 4469000   0.54314457   -8.7078744    625.34261  0.011660748   0.01032716            2 
 4470000   0.53840571   -8.7201794    625.83165  0.011667257  0.010323569            2 
 4471000   0.53153188   -8.7200775    626.40706  0.011675372  0.010319979            2 
 4472000   0.53031997   -8.7052455    625.81841  0.011661792   0.01031639            1 
 4473000   0.53730918   -8.6959104    625.17778   0.01164725  0.010312801            2 
 4474000   0.55011424   -8.7017181    627.31241  0.011684406  0.010309216            4 
 4475000   0.53024333   -8.6978828    626.88836  0.011673899  0.010305635            2 
 4476000   0.52400696   -8.7275536     625.1042  0.011638073  0.010302051            2 
 4477000   0.53677441   -8.7079908    626.66399  0.011664507  0.010298467            2 
 4478000    0.5416098   -8.7006087    626.33863  0.011655848  0.010294888            2 
 4479000   0.53928004   -8.7188756    625.91041  0.011645278  0.010291311            3 
 4480000   0.53745504   -8.7119907    625.27062  0.011630778  0.010287734            2 
 4481000    0.5311773   -8.7201868     626.5512  0.011651997   0.01028416            2 
 4482000   0.54084178   -8.7005959    625.72709  0.011634075  0.010280585            1 
 4483000   0.52981456   -8.7122864    625.73674  0.011631659  0.010277012       -1e+20 
 4484000   0.52538043   -8.7007689    627.00069  0.011652555  0.010273441            1 
 4485000    0.5371523     -8.69756    626.41287  0.011639035  0.010269873            2 
 4486000   0.53421659   -8.7155834    626.03606  0.011629441  0.010266306            1 
 4487000   0.54704203   -8.7365294    624.77214  0.011603375   0.01026274            1 
 4488000    0.5194329    -8.718208    624.97339  0.011604527  0.010259175            2 
 4489000   0.54130007   -8.7232559    624.55086  0.011594098  0.010255612            2 
 4490000   0.54245941   -8.7237398    626.31876  0.011624327  0.010252052            1 
 4491000   0.53762309   -8.7028539    626.44128  0.011624012  0.010248492            1 
 4492000     0.522911   -8.7073269    625.45376  0.011603105  0.010244928            3 
 4493000   0.51985505   -8.7119617    625.00392  0.011592179   0.01024137            1 
 4494000   0.53268627    -8.707878    625.43508  0.011597595  0.010237811            3 
 4495000   0.53139435   -8.7103867    626.78159  0.011619978  0.010234257            1 
 4496000   0.51684957    -8.713895    624.80695  0.011580793  0.010230705            2 
 4497000   0.53723282   -8.7206424    626.49594  0.011609516  0.010227152            2 
 4498000   0.52072684   -8.7141703    625.75592  0.011593225  0.010223603            1 
 4499000    0.5330449   -8.7058202    625.42939    0.0115846  0.010220055            1 
 4500000   0.53118513   -8.7114455    626.04352  0.011593399   0.01021651            2 
 4501000   0.53400432   -8.7278457     626.4061  0.011597536  0.010212966            1 
 4502000   0.53199597    -8.703835    625.85283  0.011584718  0.010209423            1 
 4503000   0.52556932   -8.7186889    624.49541  0.011557025   0.01020588            1 
 4504000   0.52616154   -8.7178724    625.01789  0.011564126  0.010202345            3 
 4505000   0.52873209   -8.7153798    625.48567  0.011570212  0.010198808            3 
 4506000   0.54014482   -8.7057357    626.01863  0.011577501  0.010195276            2 
 4507000   0.52759468    -8.709684    625.85994  0.011571998  0.010191748            1 
 4508000   0.53713258    -8.713852    625.48578  0.011562514  0.010188217            1 
 4509000   0.52927668   -8.7110765    625.39404  0.011558255  0.010184687            2 
 4510000   0.53820081   -8.7071889    625.87336  0.011564548  0.010181161            1 
 4511000   0.51993885   -8.7141238    625.96515   0.01156368  0.010177632            4 
 4512000   0.53089691   -8.7123166    626.86364  0.011577712  0.010174106            1 
 4513000   0.53692715   -8.7073881     625.2275  0.011544935  0.010170586            1 
 4514000   0.52990268   -8.7081374    626.07328  0.011557991  0.010167059            1 
 4515000   0.52844091   -8.7411144    625.91477  0.011552506  0.010163539            3 
 4516000   0.53185571   -8.7166813    624.70703  0.011527662  0.010160013            1 
 4517000   0.52705222   -8.7154888    626.36374  0.011555674  0.010156492            1 
 4518000   0.52420906   -8.7275626    625.50441  0.011537266  0.010152972            2 
 4519000    0.5280722   -8.7361584    625.62078  0.011536859  0.010149455            1 
 4520000   0.52917572    -8.717884    626.72056  0.011554583  0.010145939            1 
 4521000   0.53226489   -8.7286286    625.56313  0.011530692  0.010142422            2 
 4522000   0.53962242   -8.7124885    625.28306  0.011522981  0.010138907            1 
 4523000   0.52276496   -8.7403856     626.0161  0.011533939  0.010135394            1 
 4524000   0.52044203   -8.7175465    624.69416   0.01150704  0.010131881            1 
 4525000   0.52475659   -8.7241088    626.08874  0.011530179  0.010128369            2 
 4526000   0.53674059   -8.7327908    625.71657  0.011520779  0.010124858            3 
 4527000    0.5338964   -8.7458868     625.2595  0.011509821  0.010121351            2 
 4528000   0.53476781   -8.7161473    625.39029  0.011509686  0.010117847            2 
 4529000   0.52533805   -8.7373797    625.24539  0.011504478  0.010114341            1 
 4530000    0.5280211   -8.7247024     625.2897  0.011502754  0.010110839            2 
 4531000   0.53722053   -8.7095895    625.32429  0.011500851   0.01010734            1 
 4532000    0.5270058   -8.7416561    625.47712  0.011501124   0.01010384            1 
 4533000   0.52289821   -8.7251482    624.60097   0.01148248   0.01010034            1 
 4534000   0.53060456   -8.7301544    625.28475  0.011492515  0.010096844            2 
 4535000   0.52615384   -8.7073316     625.7072  0.011497743  0.010093348            1 
 4536000   0.52040981   -8.7273183    625.59277  0.011493107  0.010089855            2 
 4537000   0.52708374   -8.7211712    625.17277  0.011482859  0.010086363            1 
 4538000   0.51197126   -8.7158339     624.7886  0.011473274  0.010082873            2 
 4539000   0.52995452   -8.7318183     626.0945  0.011494722  0.010079384            2 
 4540000   0.52974588   -8.7206515    625.90745  0.011488756  0.010075893            1 
 4541000   0.52785612    -8.722095    625.07155  0.011470887  0.010072404            3 
 4542000   0.51993862   -8.7033271    625.57747  0.011477643   0.01006892            1 
 4543000   0.53344799   -8.7539093    625.68033  0.011477004  0.010065434            4 
 4544000   0.51848499   -8.7195189    625.19011  0.011465488  0.010061951            1 
 4545000   0.51694585   -8.7031884    626.00835  0.011477968  0.010058468            2 
 4546000   0.53044662    -8.734262    625.33435  0.011463088  0.010054988            1 
 4547000   0.51926089   -8.7176391     625.6096  0.011465611  0.010051511            2 
 4548000   0.51900034   -8.7241343    625.94832  0.011469296  0.010048035            2 
 4549000   0.51339845   -8.7228996    624.95478  0.011448574  0.010044562            1 
 4550000   0.51749217   -8.7417075    624.49103  0.011437565  0.010041088            3 
 4551000    0.5307587    -8.728858    626.34226  0.011468949  0.010037616            2 
 4552000   0.51754329   -8.7202748    625.02016  0.011442226  0.010034147            2 
 4553000   0.52505985   -8.7361921     625.5782  0.011449927  0.010030677            1 
 4554000   0.52914049   -8.7450912    626.11669  0.011457266   0.01002721            3 
 4555000   0.53459126   -8.7436194    625.76411  0.011448301  0.010023745            2 
 4556000   0.52041186   -8.7208716    625.21932  0.011435823  0.010020282            2 
 4557000   0.51996476   -8.7432073    626.06387  0.011448758  0.010016821            1 
 4558000   0.51364834   -8.7216635    625.07045  0.011428083  0.010013359            1 
 4559000   0.52493328   -8.7158472    624.20092  0.011409683  0.010009903            2 
 4560000   0.52521356   -8.7330563     626.1814  0.011443374   0.01000645            2 
 4561000   0.53154243   -8.7252578    625.73734  0.011432751  0.010002991            1 
 4562000   0.51539513   -8.7527357    625.60902  0.011427901 0.0099995373            2 
 4563000   0.52533277   -8.7374667     625.1204  0.011416473 0.0099960813            1 
 4564000   0.51770135   -8.7430371    625.45397  0.011420062 0.0099926285            2 
 4565000   0.52499849   -8.7189519    626.09117  0.011429193 0.0099891771            2 
 4566000   0.52096623   -8.7437169    624.77267  0.011402626 0.0099857241            1 
 4567000    0.5047469   -8.7351081    625.46128  0.011412694 0.0099822757            1 
 4568000   0.52768851   -8.7207785    625.85986  0.011417467 0.0099788326            1 
 4569000   0.51738258    -8.725876    626.27004  0.011422449 0.0099753942            2 
 4570000    0.5177361   -8.7271743    624.58329  0.011389192 0.0099719488            4 
 4571000    0.5191201   -8.7321516    625.92794  0.011411215 0.0099685074            1 
 4572000   0.51483805   -8.7424777    624.99801  0.011391769 0.0099650697            1 
 4573000   0.52536041   -8.7230064    624.84248  0.011386444 0.0099616348            2 
 4574000    0.5242913    -8.721721    624.95071  0.011385926 0.0099582018            2 
 4575000   0.52102703   -8.7426598    625.13592  0.011386811  0.009954769            2 
 4576000   0.51831882   -8.7313009    625.88257   0.01139792 0.0099513347            1 
 4577000   0.51900985   -8.7248958    625.24459  0.011383814 0.0099479014            2 
 4578000   0.52084845     -8.73579     625.0419  0.011377638 0.0099444694            2 
 4579000    0.5111488   -8.7246993    624.52505  0.011365747 0.0099410405            1 
 4580000   0.50317253   -8.7345558    624.78829  0.011368055 0.0099376147            1 
 4581000   0.50693591   -8.7168257    626.41967   0.01139525 0.0099341887            3 
 4582000   0.50694975   -8.7374724    624.29255  0.011354077 0.0099307645            1 
 4583000    0.5161644   -8.7378578    625.02077  0.011364841 0.0099273403            1 
 4584000    0.5207756    -8.744319     624.7242   0.01135697 0.0099239202            2 
 4585000   0.51473421   -8.7464311    624.54443  0.011351226 0.0099204968            1 
 4586000   0.51462791   -8.7404362    624.76298  0.011352722 0.0099170763            2 
 4587000   0.52742589   -8.7265698     623.9412  0.011335317 0.0099136599            2 
 4588000    0.5163298   -8.7263862    625.47626  0.011360728 0.0099102467            2 
 4589000   0.51107115   -8.7496592    623.69345  0.011325878  0.009906833            2 
 4590000   0.51275001   -8.7233932    625.50537  0.011356307 0.0099034188            1 
 4591000   0.51400339   -8.7436299    624.29095   0.01133179 0.0099000039            3 
 4592000   0.52125276     -8.72852    625.32648  0.011348114 0.0098965945            2 
 4593000   0.50996078    -8.750534    625.07261  0.011341037  0.009893184            2 
 4594000   0.53158738   -8.7456211    625.34776   0.01134356 0.0098897778            1 
 4595000   0.52578049   -8.7303847    624.41614  0.011324196 0.0098863735            1 
 4596000   0.51001329   -8.7472824    625.47678  0.011340963   0.00988297            1 
 4597000   0.51015109   -8.7489975    625.76603  0.011343739 0.0098795692            2 
 4598000   0.52070462   -8.7641494    625.13108  0.011329764 0.0098761661            4 
 4599000   0.51116073    -8.748519    624.66035  0.011318771 0.0098727646            2 
 4600000   0.50114183   -8.7373117    624.23939  0.011308685 0.0098693643            2 
 4601000   0.50471089    -8.760182    624.73935  0.011315282 0.0098659629            1 
 4602000   0.50989889   -8.7398502     625.4515  0.011325719 0.0098625669            2 
 4603000   0.52851787   -8.7405247    624.61683  0.011308147 0.0098591708            3 
 4604000   0.52985703   -8.7473446    625.88623  0.011328668 0.0098557794            2 
 4605000   0.51163394   -8.7398062    624.42174  0.011299706 0.0098523872            2 
 4606000   0.51856105   -8.7422897    625.02948  0.011308248  0.009848996            1 
 4607000   0.51756085   -8.7492085    623.86406  0.011284713 0.0098456105            1 
 4608000   0.51888859   -8.7457985    624.91758  0.011301316 0.0098422205            1 
 4609000   0.50795361   -8.7373133    625.92735  0.011317121 0.0098388356            1 
 4610000   0.51079947    -8.742369    624.21036  0.011283629 0.0098354493            4 
 4611000   0.51757303   -8.7463047    624.37192  0.011284102 0.0098320675            5 
 4612000   0.51614381   -8.7437291    625.99348  0.011310955 0.0098286846            2 
 4613000   0.50991462   -8.7376877    625.53552   0.01130023 0.0098253044            1 
 4614000   0.51333065   -8.7587402    624.98196  0.011287783 0.0098219251            3 
 4615000   0.51574962   -8.7580132    625.01454  0.011285925 0.0098185489            2 
 4616000   0.51114432   -8.7422723    625.22551  0.011287289 0.0098151771            3 
 4617000   0.51002848   -8.7638606    625.17575  0.011283946 0.0098118031            2 
 4618000     0.513503   -8.7390426    623.60914  0.011253233 0.0098084286            1 
 4619000   0.51649153   -8.7465313    624.74477  0.011271285 0.0098050578            2 
 4620000   0.52464476   -8.7500291    623.59481  0.011248103  0.009801689            1 
 4621000   0.51861743   -8.7375791    624.56495  0.011263164 0.0097983251            1 
 4622000   0.50604428   -8.7345581    626.62961  0.011297952 0.0097949601            3 
 4623000   0.50454785   -8.7434102    625.14565  0.011268759 0.0097915997            2 
 4624000   0.51857953   -8.7515684    624.90285  0.011261946 0.0097882344            3 
 4625000   0.51978407    -8.734374    625.35184  0.011267601 0.0097848748            2 
 4626000   0.49844192   -8.7588358    625.87781   0.01127464 0.0097815119            1 
 4627000    0.5195396   -8.7542199    625.21713  0.011260304 0.0097781544            2 
 4628000   0.50355689   -8.7428639    625.12594  0.011256229 0.0097747978            4 
 4629000   0.50643568   -8.7420759    624.56411  0.011243683 0.0097714447            1 
 4630000   0.50617043   -8.7552574    625.53465  0.011258723 0.0097680911            1 
 4631000   0.51868287   -8.7483271    625.66436  0.011258626 0.0097647374            2 
 4632000   0.50470341   -8.7437665    624.27129  0.011231133 0.0097613916            2 
 4633000   0.52039404   -8.7647014    624.68583  0.011236165 0.0097580448            3 
 4634000   0.51403195   -8.7275836    624.69154  0.011233843 0.0097546977            1 
 4635000   0.50360454   -8.7580548    626.33579  0.011260982 0.0097513532            1 
 4636000   0.50442939   -8.7229404     625.7822  0.011248602 0.0097480076            2 
 4637000   0.51005363   -8.7447309    624.74375  0.011227513 0.0097446639            1 
 4638000   0.50611661   -8.7557126    625.65404  0.011241448 0.0097413237            1 
 4639000   0.50569188    -8.749225    624.89805  0.011225445 0.0097379841            3 
 4640000   0.50363364   -8.7508764    624.50399  0.011215948 0.0097346466            2 
 4641000   0.51000808   -8.7459917    624.81149  0.011219053 0.0097313104            1 
 4642000   0.50567101   -8.7423022    624.69339  0.011214516  0.009727977            1 
 4643000   0.50875532   -8.7413739    625.47463  0.011226122 0.0097246427            2 
 4644000   0.50399175   -8.7436459    623.97157  0.011196734 0.0097213082       -1e+20 
 4645000    0.5132497   -8.7536833    625.07488  0.011214117 0.0097179745            1 
 4646000   0.49659805   -8.7326331    624.44121  0.011200337 0.0097146445            2 
 4647000    0.4987052    -8.745579    623.90361  0.011188286  0.009711315            1 
 4648000   0.50354554    -8.762121    624.31608  0.011193275 0.0097079851            3 
 4649000   0.50049143   -8.7459753    625.21232  0.011206932 0.0097046591            3 
 4650000   0.51631628   -8.7616828    624.65092  0.011194461  0.009701333            2 
 4651000   0.50139639   -8.7626937    624.61654  0.011191438 0.0096980102            2 
 4652000   0.49834316   -8.7386081    624.36222  0.011184476 0.0096946875            1 
 4653000   0.50854174   -8.7591007    624.26757  0.011180378 0.0096913644            1 
 4654000   0.51978163   -8.7398394    625.06024  0.011192169 0.0096880455            3 
 4655000   0.50255996   -8.7562943    624.70659  0.011183433 0.0096847308            2 
 4656000   0.49770619   -8.7861198     624.7733  0.011182225 0.0096814172            1 
 4657000   0.50972586   -8.7543273    625.08338  0.011185373 0.0096781022            2 
 4658000    0.4980906   -8.7504618    624.80583  0.011178006 0.0096747886            2 
 4659000   0.50777771   -8.7633935    623.68608  0.011155579 0.0096714779            1 
 4660000   0.51134363   -8.7470439    625.17319  0.011179778  0.009668165            2 
 4661000   0.50983253   -8.7604332    624.46137  0.011164653 0.0096648535            1 
 4662000   0.51192707    -8.754187    624.74946  0.011167408 0.0096615455            3 
 4663000   0.51203838   -8.7449503    623.96432  0.011150981 0.0096582373            2 
 4664000   0.50542139   -8.7774298    624.74493  0.011162538 0.0096549322            2 
 4665000    0.4944048   -8.7497709    623.25541  0.011133537 0.0096516259            1 
 4666000   0.48401678   -8.7513857    625.60357  0.011173088 0.0096483221            1 
 4667000   0.50387727   -8.7577181     625.4375  0.011167729 0.0096450206            2 
 4668000   0.51323694   -8.7427296    624.04322  0.011140446 0.0096417203            2 
 4669000   0.51022153   -8.7558791    625.05171   0.01115606 0.0096384231            2 
 4670000   0.50509036   -8.7411999    625.63155  0.011164018 0.0096351275            2 
 4671000   0.49402084   -8.7511136    623.86372  0.011130088 0.0096318326            1 
 4672000   0.50812808   -8.7409487    624.92537  0.011146643 0.0096285392            2 
 4673000   0.50802145   -8.7478836    624.49997  0.011136671 0.0096252483            2 
 4674000   0.50617616   -8.7455979    624.59797  0.011136036 0.0096219557            1 
 4675000   0.50824847   -8.7453067    625.04668  0.011141652 0.0096186671            1 
 4676000   0.50595107   -8.7505746    624.53768  0.011130198 0.0096153792            2 
 4677000   0.50511409   -8.7441767    625.40362  0.011143247 0.0096120913            3 
 4678000   0.50590132   -8.7457894    624.05306  0.011116807 0.0096088046            2 
 4679000   0.51441364   -8.7728135    625.20055  0.011134868 0.0096055176            3 
 4680000   0.49893555   -8.7711152    623.44175  0.011101171 0.0096022316            2 
 4681000   0.49574586   -8.7596534    623.37419  0.011097596 0.0095989439            3 
 4682000   0.49634759   -8.7545981    624.55599  0.011116261 0.0095956603            3 
 4683000   0.50134345    -8.751559     623.4453  0.011094122 0.0095923758            2 
 4684000   0.50554553   -8.7684631    624.07317  0.011102924 0.0095890933            1 
 4685000    0.4982094   -8.7645354    624.95414  0.011116224 0.0095858115            2 
 4686000   0.50490496   -8.7508504    625.40299  0.011121834  0.009582534            3 
 4687000   0.49435045   -8.7643157    625.36472  0.011118781  0.009579261            2 
 4688000   0.50334672   -8.7561508    623.64165   0.01108578 0.0095759859            3 
 4689000   0.50584999   -8.7800371    623.92068  0.011088375 0.0095727127            2 
 4690000   0.49294476   -8.7528077    623.87255  0.011085156  0.009569443            1 
 4691000   0.50264863   -8.7543826    623.02956  0.011067817 0.0095661739            1 
 4692000   0.49430336   -8.7659207    624.32088  0.011088393 0.0095629077            2 
 4693000   0.51091436   -8.7570681    624.42812  0.011087934 0.0095596426            1 
 4694000   0.49207156   -8.7518609    624.07216  0.011079253 0.0095563783            3 
 4695000   0.51200057   -8.7547834    624.22171  0.011079548 0.0095531127            2 
 4696000   0.49388606   -8.7535325    623.54183  0.011065123 0.0095498508            1 
 4697000   0.49194496    -8.760406    624.46301  0.011079111 0.0095465912            1 
 4698000    0.5003639   -8.7611963    624.69553  0.011080877  0.009543332            2 
 4699000   0.50236748   -8.7553209    624.81392  0.011080619 0.0095400735            2 
 4700000   0.48956618   -8.7571309    624.66225  0.011075572 0.0095368149            3 
 4701000   0.48880328   -8.7604508      623.174  0.011046834 0.0095335569            1 
 4702000   0.51025349   -8.7685426    623.10243  0.011043216 0.0095302991            1 
 4703000   0.50385842   -8.7802448    623.63672  0.011050335 0.0095270436            1 
 4704000   0.49240017   -8.7651331    623.86443   0.01105202 0.0095237919            1 
 4705000   0.50210543   -8.7637521    624.67683   0.01106406 0.0095205387            3 
 4706000    0.5238534   -8.7608014      624.029  0.011050237 0.0095172897            2 
 4707000   0.49613162   -8.7717081    623.88325  0.011045309 0.0095140401            2 
 4708000   0.50986328   -8.7548473    623.79457  0.011041394  0.009510796            1 
 4709000   0.50592851   -8.7766104    624.16845  0.011045665 0.0095075495            2 
 4710000   0.49721528   -8.7704421      623.152  0.011025336 0.0095043051            1 
 4711000   0.49811757   -8.7551185    625.31635  0.011061281 0.0095010644            2 
 4712000   0.49888736    -8.758278    623.50113  0.011026831  0.009497822            3 
 4713000   0.50216496   -8.7699384    624.12791  0.011035574  0.009494583            2 
 4714000   0.50161752   -8.7656943    624.30603  0.011036381 0.0094913445            1 
 4715000   0.49984675   -8.7746192    624.55319  0.011038409   0.00948811            1 
 4716000   0.49851764   -8.7768569     623.5094  0.011017624 0.0094848743            2 
 4717000   0.48989443   -8.7660502    623.76495  0.011019803 0.0094816354            4 
 4718000   0.49899536   -8.7664596    624.78556  0.011035495 0.0094784009            1 
 4719000   0.49687041   -8.7609368    624.29118  0.011024426 0.0094751713            1 
 4720000    0.4952768   -8.7861824    624.57248  0.011027057 0.0094719431            1 
 4721000   0.50007567   -8.7743956     623.4628  0.011005133 0.0094687167            4 
 4722000   0.49491849   -8.7560258    624.05277  0.011013214 0.0094654881            2 
 4723000   0.49498309    -8.763758    624.41646  0.011017299 0.0094622608            2 
 4724000   0.50147993    -8.771768    624.72892  0.011020479 0.0094590352            1 
 4725000     0.500376   -8.7802959    623.26685  0.010992361 0.0094558105            3 
 4726000   0.48518242   -8.7625233    623.76606  0.010998837  0.009452587            2 
 4727000   0.50060652   -8.7613894    623.89547  0.010998792 0.0094493665            2 
 4728000   0.49210722    -8.760726    624.90409  0.011014243 0.0094461485            1 
 4729000   0.49290265   -8.7664527    623.46996  0.010986642 0.0094429332            2 
 4730000   0.49101427   -8.7871362    625.25413  0.011015753 0.0094397156            1 
 4731000   0.49570035   -8.7827408    623.81793  0.010988127 0.0094365013            1 
 4732000   0.48391503   -8.7810441    624.47984  0.010997461 0.0094332848            3 
 4733000   0.48611019   -8.7726428    623.50059  0.010977896 0.0094300729            2 
 4734000   0.49270061   -8.7895733    624.13883  0.010986812 0.0094268636            2 
 4735000   0.49725545   -8.7714942    624.03691  0.010982698 0.0094236553            1 
 4736000   0.49331982   -8.7601685     623.3928  0.010969046 0.0094204472            2 
 4737000   0.49614002   -8.7724768    624.64624  0.010988781 0.0094172447            2 
 4738000    0.4831636   -8.7751372    624.00978  0.010975267 0.0094140417            1 
 4739000    0.4859406   -8.7807213    624.25263  0.010977221 0.0094108366            1 
 4740000   0.48313415   -8.7637957    623.85041  0.010967834 0.0094076353            2 
 4741000    0.4891054   -8.7809983    624.60057  0.010978706 0.0094044358            1 
 4742000   0.48596911   -8.7742167    624.42891  0.010973375 0.0094012395            3 
 4743000   0.50437511    -8.763564    624.81691  0.010977878 0.0093980442            1 
 4744000   0.49383052   -8.7787556     623.1215  0.010945782 0.0093948473            1 
 4745000   0.49183647   -8.7675788    623.66752  0.010953065 0.0093916545            2 
 4746000   0.48745787   -8.7836197     623.4931  0.010947694 0.0093884586            2 
 4747000   0.50276096    -8.776782    624.39549   0.01096123  0.009385265            1 
 4748000   0.48242751   -8.7843684    623.70981  0.010946887  0.009382072            2 
 4749000   0.48827814   -8.7741597    623.83854   0.01094684 0.0093788841            2 
 4750000   0.49466084   -8.7674106    623.77684  0.010943453 0.0093756947            6 
 4751000   0.47825993   -8.7830821    623.36248  0.010933882 0.0093725042            3 
 4752000   0.50496751   -8.7835065     623.3493   0.01093135 0.0093693172            1 
 4753000   0.49075742   -8.7694586    623.98374  0.010940174 0.0093661326            1 
 4754000    0.4881635   -8.7927782    624.26692  0.010942836 0.0093629511            1 
 4755000   0.48935826   -8.7727776    624.01378  0.010936099 0.0093597676            2 
 4756000   0.48674405   -8.7763414    624.21606  0.010937343 0.0093565873            2 
 4757000   0.49729899    -8.774467    623.97248  0.010930777  0.009353408            3 
 4758000   0.49317817   -8.7830024    624.12459  0.010931144 0.0093502311            1 
 4759000   0.49499067   -8.7883579    624.13835  0.010929088 0.0093470527            1 
 4760000   0.50002614   -8.7869769    623.64292  0.010918118 0.0093438753            2 
 4761000   0.49294042   -8.7840658    623.66591  0.010916228 0.0093406999            1 
 4762000   0.49413647   -8.7694864     623.1474  0.010904861 0.0093375244            3 
 4763000   0.49002008   -8.7820962    623.76954  0.010913457 0.0093343519            1 
 4764000   0.48737861   -8.7667366    623.36376  0.010904068 0.0093311801            1 
 4765000   0.48281036   -8.7675832    623.67216  0.010907173 0.0093280108            1 
 4766000   0.49282932   -8.7802372     624.9474  0.010927182 0.0093248413            2 
 4767000   0.48990184   -8.7630406    623.04615  0.010891654 0.0093216725            1 
 4768000   0.49028671   -8.7703627    623.25546  0.010893027 0.0093185083            1 
 4769000   0.49539872   -8.7965345    623.56447  0.010896143 0.0093153443            1 
 4770000   0.49256843   -8.7690734    623.28858  0.010889039 0.0093121829            2 
 4771000   0.48776634   -8.7853199    622.74066  0.010877186 0.0093090234            2 
 4772000   0.48925416    -8.783241     623.3439  0.010885441 0.0093058639            3 
 4773000   0.48643792    -8.782817    624.15508  0.010897323 0.0093027087            1 
 4774000   0.49079431   -8.7780813    622.72471  0.010870072 0.0092995534            1 
 4775000    0.4891479    -8.778596    623.34082  0.010878548 0.0092963972            3 
 4776000   0.49516518   -8.7955362    624.35615  0.010893986 0.0092932465            2 
 4777000    0.4838842   -8.7662578    623.95956  0.010884787 0.0092900942            3 
 4778000   0.49057446   -8.7870556    623.87676  0.010881065 0.0092869425            3 
 4779000    0.4890695   -8.7970981    623.33689  0.010869374 0.0092837923            1 
 4780000   0.48689878   -8.7854606      623.021  0.010861594 0.0092806406            2 
 4781000   0.49648315   -8.7681481    625.03313  0.010894393 0.0092774941            1 
 4782000   0.49468213   -8.7848532    623.89913  0.010872353 0.0092743488            2 
 4783000   0.48018615   -8.7947222    622.97274   0.01085394 0.0092712058            3 
 4784000   0.48917097   -8.7716315    623.91381  0.010868064 0.0092680676            1 
 4785000   0.48453924   -8.7863738    623.56246  0.010859674 0.0092649271            3 
 4786000   0.48180528   -8.7793596    623.28672  0.010852603  0.009261787            3 
 4787000   0.48764433   -8.7768528    622.98228  0.010845037 0.0092586493            3 
 4788000   0.48407354   -8.7984423    623.32716  0.010848774 0.0092555118            2 
 4789000   0.49101522   -8.7855256    623.89127  0.010856325 0.0092523763            2 
 4790000   0.47862076   -8.7678934    623.72576  0.010851179 0.0092492411            2 
 4791000   0.48039025   -8.7852411    623.78343  0.010849917 0.0092461095            2 
 4792000   0.48114664   -8.7888075    622.27904  0.010821491 0.0092429775            2 
 4793000   0.49768571   -8.7945635    623.42314  0.010839125 0.0092398487            2 
 4794000   0.48605742   -8.7810828    623.73174  0.010842229 0.0092367179            3 
 4795000   0.49292605   -8.7805705    623.47219  0.010835457 0.0092335908            2 
 4796000   0.47477328   -8.7800216    623.80488  0.010838978 0.0092304652            2 
 4797000   0.49217307   -8.7765597    623.12747  0.010824951 0.0092273376            1 
 4798000   0.48989059   -8.7677656    622.87986  0.010818394 0.0092242133            2 
 4799000   0.48798963   -8.7798382    623.16087   0.01082102 0.0092210878            3 
 4800000   0.48426256   -8.7975531    623.83212  0.010830419 0.0092179685            1 
 4801000   0.49711169   -8.7770926      623.143  0.010816201 0.0092148497            1 
 4802000   0.49547061   -8.7839595    622.86505  0.010809126 0.0092117293            1 
 4803000   0.48177972   -8.7845311    623.15832  0.010811963 0.0092086105            2 
 4804000   0.49045723   -8.7929368    621.91044  0.010788066  0.009205494            3 
 4805000   0.47656952   -8.7797554    623.23389  0.010808774 0.0092023812            1 
 4806000   0.48381112   -8.7969512     623.2479  0.010806768 0.0091992659            1 
 4807000   0.47739475    -8.788899    622.92518  0.010798925 0.0091961544            2 
 4808000   0.49467242   -8.7867819    624.07203  0.010816556 0.0091930437            1 
 4809000   0.48610402   -8.7835741    622.10332  0.010780192 0.0091899344            2 
 4810000   0.48844841   -8.7887046    623.52713  0.010802618 0.0091868275            1 
 4811000   0.48325585   -8.7892297    623.40368  0.010798235 0.0091837191            2 
 4812000   0.48719613   -8.7919357    623.66406    0.0108005 0.0091806121            1 
 4813000   0.48763538   -8.7859466    622.72233  0.010781951 0.0091775072            2 
 4814000   0.47772449   -8.7817031     622.7831  0.010780763 0.0091744047            4 
 4815000   0.47094538   -8.7893486    623.57458  0.010792222 0.0091713021            2 
 4816000   0.48580564    -8.775746    623.31764  0.010785535 0.0091682002            2 
 4817000   0.48242152   -8.7893158    623.53381  0.010787036 0.0091651004            1 
 4818000   0.47926744   -8.7919439    622.77978  0.010771755  0.009162001            1 
 4819000   0.48989739   -8.7896959    623.16112  0.010776114  0.009158904            3 
 4820000   0.47796631   -8.8150859    623.59448  0.010781371 0.0091558064            3 
 4821000   0.47434476   -8.7842592    621.60962  0.010744825 0.0091527106            3 
 4822000   0.47549328   -8.8001032    622.94424  0.010765662 0.0091496188            1 
 4823000    0.4846513    -8.795679    623.49737  0.010772987  0.009146528            2 
 4824000   0.47026102   -8.7969165    622.96087  0.010761486 0.0091434386            2 
 4825000   0.48340621   -8.7965742    622.34886  0.010748685 0.0091403502            1 
 4826000   0.48534198   -8.8011682    623.61655  0.010768348 0.0091372626            2 
 4827000   0.47246234   -8.7867569    624.02453   0.01077316 0.0091341743            2 
 4828000   0.47776598   -8.7918537    623.29483  0.010758334 0.0091310939            2 
 4829000   0.48749689   -8.8002336    623.21713  0.010754765 0.0091280116            2 
 4830000    0.4759307    -8.784358    623.29301  0.010753848 0.0091249309            4 
 4831000   0.47173642   -8.8015322    623.57758   0.01075653 0.0091218517            3 
 4832000    0.4750298   -8.7932249    622.98522  0.010744088 0.0091187748            4 
 4833000   0.47337534   -8.7952122    623.74569  0.010754978 0.0091156965            1 
 4834000   0.48430013   -8.7969419    623.18258  0.010743045 0.0091126198            1 
 4835000   0.48321879   -8.7987139    623.58574  0.010747772 0.0091095425            2 
 4836000   0.46983373   -8.7942743    622.26998  0.010722877  0.009106467            1 
 4837000   0.46794846   -8.7859894    623.06048  0.010734279 0.0091033952            2 
 4838000   0.48775411   -8.8082179    622.80902  0.010727729 0.0091003251            3 
 4839000   0.48272012   -8.8068847    622.87061  0.010726573 0.0090972532            2 
 4840000   0.46735817   -8.7921582    623.52345  0.010735597 0.0090941833            1 
 4841000   0.47667535   -8.7841369    622.95439  0.010723583  0.009091118            1 
 4842000   0.47881161   -8.8013267    623.46323  0.010730126 0.0090880527            1 
 4843000   0.48144003   -8.7848992    623.61918  0.010730594  0.009084988            2 
 4844000   0.46745449    -8.804414     622.8179  0.010714594 0.0090819253            3 
 4845000   0.47354618   -8.7957629    621.97157  0.010697825 0.0090788634            1 
 4846000   0.47922971   -8.7804958    623.78711  0.010726838 0.0090758039            1 
 4847000   0.48696884   -8.7987573    623.51215  0.010719898 0.0090727447            4 
 4848000    0.4755015   -8.7917857    622.09745  0.010693369  0.009069687            2 
 4849000   0.47573185   -8.8063507    623.55868  0.010716276  0.009066633            2 
 4850000   0.46542139    -8.789261    623.16757  0.010707347 0.0090635763            4 
 4851000   0.45718375   -8.8039182    623.85678  0.010716979 0.0090605234            1 
 4852000   0.47622235   -8.7923534     623.1433  0.010702516 0.0090574726            3 
 4853000   0.47239708   -8.8138927     623.5425  0.010707166 0.0090544227            2 
 4854000   0.47875921   -8.8051623    622.48759  0.010686849 0.0090513744            2 
 4855000   0.46487103   -8.7961402    623.79892  0.010707156 0.0090483279            1 
 4856000   0.47391085    -8.799655    622.29884  0.010679208  0.009045282            1 
 4857000   0.48432525   -8.7873814    623.46414  0.010697003  0.009042239            2 
 4858000    0.4702441   -8.8004674    622.15827  0.010672401 0.0090391972            2 
 4859000   0.47646745   -8.8146556    623.34002  0.010690472 0.0090361556            2 
 4860000   0.47025239   -8.8075053     623.2482  0.010686698 0.0090331163            2 
 4861000   0.48212002   -8.8047526    622.09251  0.010664687 0.0090300766            1 
 4862000     0.472373   -8.7879343    621.78565  0.010657234 0.0090270401            2 
 4863000   0.47245027     -8.78665    622.16446  0.010661534 0.0090240039            1 
 4864000   0.46902512   -8.8012648    623.25785  0.010678074 0.0090209696            5 
 4865000   0.47095888   -8.7919538    622.02626  0.010654784 0.0090179353            1 
 4866000   0.46728313   -8.8055624    622.83044  0.010666366 0.0090149057            3 
 4867000   0.46569837   -8.7800808    622.69427  0.010661843 0.0090118741            1 
 4868000   0.47827111     -8.79899     623.6562  0.010676119 0.0090088443            1 
 4869000     0.466776   -8.8105109     622.8987  0.010660962 0.0090058132            2 
 4870000   0.47516064   -8.7967352    623.14935  0.010663062  0.009002785            2 
 4871000    0.4739252   -8.8072611    622.70631  0.010653294 0.0089997566            3 
 4872000   0.46166415   -8.7951372    622.84417  0.010653465 0.0089967321            1 
 4873000   0.47172974    -8.787602    622.82099  0.010650882 0.0089937086            2 
 4874000   0.46941074   -8.7867078    623.08488  0.010653209 0.0089906881            1 
 4875000   0.47353403    -8.794912    622.08187  0.010633878 0.0089876649            2 
 4876000   0.47773513   -8.7992047    623.03541  0.010647994 0.0089846446            1 
 4877000   0.46836539   -8.8064732     623.1814  0.010648305  0.008981625            1 
 4878000   0.46660087   -8.8138277    622.53239  0.010635035 0.0089786062            1 
 4879000   0.47298749   -8.8043021    622.66344  0.010635093 0.0089755883            2 
 4880000   0.47133258   -8.7758136    623.34073   0.01064448 0.0089725731            2 
 4881000   0.47525551    -8.800151    621.91941  0.010618033 0.0089695626            3 
 4882000   0.46469738   -8.7916204    623.29878  0.010639403 0.0089665497            1 
 4883000   0.45801423   -8.7989076    621.98759  0.010614847 0.0089635385            2 
 4884000   0.47123234   -8.7944508    622.56531  0.010622531 0.0089605257            2 
 4885000   0.46861425   -8.8289339     621.8987  0.010608985 0.0089575184            2 
 4886000   0.46675451   -8.8065278    623.58078  0.010635502   0.00895451            1 
 4887000   0.47020181   -8.7997293     623.1127  0.010625344 0.0089515023            2 
 4888000   0.47697444   -8.8179589    623.40436  0.010628143 0.0089484975            1 
 4889000   0.47505832   -8.8050107     623.2744  0.010623754 0.0089454944            1 
 4890000   0.47521438   -8.7923317    622.45978  0.010607699 0.0089424901            2 
 4891000   0.46710285   -8.7935763     622.5885  0.010607723  0.008939491            1 
 4892000   0.46955077   -8.8074668    622.66246  0.010606815 0.0089364897            1 
 4893000   0.47126174   -8.8041889    623.02135  0.010610759 0.0089334881            2 
 4894000   0.46997002   -8.8096569    622.81537  0.010605084 0.0089304919            3 
 4895000   0.46460719   -8.8005947    623.22034  0.010609812 0.0089274976            1 
 4896000   0.46827977   -8.8106706    623.05953  0.010604908  0.008924504            3 
 4897000   0.45929186   -8.7826105    622.61894  0.010595244 0.0089215089            2 
 4898000    0.4632979    -8.797433    622.66642  0.010593889 0.0089185189            1 
 4899000   0.46095219   -8.7891859    623.01185  0.010597602 0.0089155277            3 
 4900000   0.46278554   -8.8213915    622.80354  0.010591897 0.0089125358            2 
 4901000   0.46716685   -8.7980079    622.91062  0.010591556 0.0089095483            2 
 4902000   0.47223695    -8.813125    623.27657  0.010595617 0.0089065625            2 
 4903000   0.47163617     -8.79586    622.61154  0.010582153 0.0089035795            2 
 4904000   0.47077763    -8.804616     622.4259   0.01057684 0.0089005961            4 
 4905000   0.46232847   -8.8185586    622.67915  0.010578987 0.0088976157            1 
 4906000   0.46346646   -8.8240677    622.83238  0.010579433 0.0088946351            1 
 4907000   0.47709913   -8.7988771    622.87257   0.01057796 0.0088916573            3 
 4908000   0.47667989   -8.8015186    622.74698  0.010573672 0.0088886795            1 
 4909000   0.46803917   -8.8247973    621.69066  0.010553586  0.008885702            2 
 4910000   0.45654183   -8.7974783    623.16345  0.010576433 0.0088827222            1 
 4911000   0.47170536   -8.8260448    622.64545   0.01056549 0.0088797475            3 
 4912000   0.46341665   -8.8138276    623.08046  0.010570719 0.0088767715            1 
 4913000   0.45824024   -8.8174456    623.16728   0.01057004 0.0088737962            2 
 4914000   0.46573742   -8.8168663    622.26976  0.010552669 0.0088708239            2 
 4915000   0.47388931   -8.8153174    622.39668  0.010552673 0.0088678525            1 
 4916000   0.45509366   -8.8197709    622.96237  0.010560116 0.0088648799            2 
 4917000   0.46343566   -8.7962175    621.87353  0.010539515 0.0088619121            3 
 4918000   0.46627595   -8.8154046    622.41376  0.010546526 0.0088589458            6 
 4919000   0.45883799    -8.818816    622.84425  0.010551675 0.0088559771            4 
 4920000   0.47542511   -8.8121593    621.93252  0.010534087 0.0088530092            2 
 4921000   0.47200848   -8.8157654    621.42284  0.010523316 0.0088500453            1 
 4922000   0.46389446   -8.8140687    622.96987   0.01054737 0.0088470828            2 
 4923000   0.45857157   -8.8022166    622.56643  0.010538399 0.0088441192            2 
 4924000   0.46559874   -8.8126174    622.12465  0.010528782 0.0088411592            1 
 4925000   0.46926077   -8.8283828    623.14424  0.010543896 0.0088381996            1 
 4926000   0.46777154   -8.8111863    622.73778  0.010534879 0.0088352417            2 
 4927000   0.46854815   -8.8110855    621.41119  0.010510304 0.0088322859            1 
 4928000   0.45461261   -8.8025046    623.02364  0.010535438 0.0088293282            1 
 4929000   0.45904073    -8.827266    622.84365  0.010530257 0.0088263729            1 
 4930000   0.45346096   -8.8131007    621.51948  0.010505738 0.0088234177            1 
 4931000   0.46097143   -8.8060668    621.58744  0.010504756 0.0088204655            2 
 4932000   0.46363843   -8.8229176    621.92226  0.010508284 0.0088175143            1 
 4933000     0.458399   -8.8226524    621.93277  0.010506331 0.0088145653            1 
 4934000   0.46810572   -8.8201703    622.17856  0.010508353 0.0088116204            2 
 4935000   0.46126019   -8.8063404    622.96521  0.010519507 0.0088086746            2 
 4936000    0.4589245     -8.81781    622.97538  0.010517548 0.0088057331            2 
 4937000   0.46190703   -8.8165706    622.34609  0.010504795 0.0088027912            2 
 4938000   0.46091304   -8.8128769    621.91497  0.010495392 0.0087998472            4 
 4939000   0.46378322    -8.809045    622.32848  0.010500244 0.0087969066            3 
 4940000   0.46522399   -8.8346723     622.4113  0.010499516 0.0087939678            2 
 4941000   0.46025691   -8.8175804    623.03113  0.010507845 0.0087910301            1 
 4942000   0.45883385   -8.8214145    621.60929  0.010481743 0.0087880928            2 
 4943000   0.45173278   -8.8142851     623.1311  0.010505279 0.0087851564            2 
 4944000   0.45314455   -8.8105362    621.80457  0.010480794 0.0087822216            1 
 4945000   0.47238177    -8.836143    623.22888  0.010502678 0.0087792876            1 
 4946000   0.46522115   -8.8179333    622.44979  0.010487427 0.0087763525            2 
 4947000   0.45591296   -8.8265271    621.60542  0.010471084 0.0087734213            1 
 4948000   0.45504593   -8.8314225    621.71404  0.010470797 0.0087704918            1 
 4949000   0.47546999   -8.8222954    622.28264  0.010478256 0.0087675609            2 
 4950000   0.45721948   -8.8263665    622.35208  0.010477308 0.0087646312            1 
 4951000   0.46633114   -8.8185669    623.07883  0.010487424 0.0087617051            2 
 4952000   0.46282241   -8.8266558    622.88757  0.010482088 0.0087587807            4 
 4953000    0.4525615   -8.8298249    622.31405  0.010470322 0.0087558574            2 
 4954000   0.45938767   -8.8304155    622.75298  0.010475592 0.0087529337            1 
 4955000   0.46279627   -8.8331997    622.32113  0.010466215 0.0087500106            2 
 4956000   0.46683332   -8.8154233     621.4524  0.010449496 0.0087470913            3 
 4957000   0.46910251   -8.8372833     621.5557  0.010449124 0.0087441729            1 
 4958000   0.45014528   -8.8246565    621.82314  0.010451512 0.0087412557            1 
 4959000   0.45776294   -8.8272759     622.2753  0.010457002 0.0087383403            2 
 4960000   0.45661206   -8.8212502    621.29274  0.010438386  0.008735426            2 
 4961000   0.46957919   -8.8318245    622.38679  0.010454659 0.0087325101            2 
 4962000   0.46032484     -8.82096    621.85542  0.010443629 0.0087295952            2 
 4963000   0.46360015   -8.8360271    622.53151  0.010452876 0.0087266848            1 
 4964000   0.46235195   -8.8360621    621.68855   0.01043662 0.0087237749            2 
 4965000   0.45005661   -8.8367913    622.45097  0.010447314 0.0087208635            2 
 4966000   0.46105392    -8.816561    621.27267  0.010425438 0.0087179532            2 
 4967000   0.45518253   -8.8287486    621.92193  0.010434231 0.0087150462            1 
 4968000   0.46586664   -8.8393725    622.01075  0.010433621 0.0087121405            4 
 4969000   0.45346178   -8.8294686    623.07606  0.010449387 0.0087092354            2 
 4970000   0.45409163   -8.8232943    622.82101  0.010443008 0.0087063327            1 
 4971000   0.45286792   -8.8193018    622.07424  0.010428389 0.0087034299            4 
 4972000   0.45471111   -8.8348153    622.64068  0.010435785 0.0087005268            1 
 4973000   0.44826008   -8.8219144      622.754  0.010435585 0.0086976291            1 
 4974000   0.46050815   -8.8283686    622.52391  0.010429633 0.0086947321            1 
 4975000   0.46109635    -8.816872    621.03561  0.010402607 0.0086918352            2 
 4976000    0.4491129   -8.8331487    622.06214  0.010417707 0.0086889394            2 
 4977000   0.45708768    -8.842895    622.35148  0.010420459 0.0086860419            3 
 4978000   0.44413362   -8.8272364    622.06521  0.010413573 0.0086831446            1 
 4979000   0.45163353   -8.8252937    622.76682  0.010423225 0.0086802516            1 
 4980000   0.45064659   -8.8268813    621.17786  0.010394543 0.0086773616            1 
 4981000   0.46271717   -8.8281582    622.43926  0.010413559 0.0086744718            2 
 4982000   0.45750473   -8.8384534    622.53936  0.010413143 0.0086715867            1 
 4983000    0.4470422    -8.836306    621.92235  0.010400735 0.0086686998            3 
 4984000   0.46291492   -8.8316893    621.60439  0.010393332 0.0086658108            1 
 4985000   0.45363537   -8.8314744    621.60085  0.010391188 0.0086629255            2 
 4986000   0.45650429   -8.8261961    623.60442   0.01042259 0.0086600426            1 
 4987000   0.45512328    -8.830514     621.4943   0.01038524 0.0086571601            1 
 4988000   0.44745971   -8.8397445    621.73445   0.01038717 0.0086542789            2 
 4989000   0.45023099   -8.8358052    622.65815  0.010400517 0.0086514009            1 
 4990000   0.45366936   -8.8127004    621.65805  0.010381731 0.0086485229            3 
 4991000   0.44060767   -8.8483628    622.53579  0.010394306 0.0086456456            1 
 4992000   0.44946742   -8.8514549    622.81298  0.010396851 0.0086427691            2 
 4993000   0.44532808   -8.8345919    621.42763  0.010371648 0.0086398923            2 
 4994000   0.45225174   -8.8330967    621.95466  0.010378365 0.0086370164            1 
 4995000     0.456361   -8.8398433    621.39274  0.010366913 0.0086341453            2 
 4996000   0.44135634   -8.8290697    621.96808  0.010374434 0.0086312758            4 
 4997000      0.45891   -8.8358492    621.91604   0.01037149 0.0086284059            2 
 4998000   0.44629548   -8.8208779     622.2176  0.010374443 0.0086255382            2 
 4999000   0.45424936    -8.816548    621.18184  0.010355102 0.0086226695            2 
 5000000   0.44771208   -8.8342442    622.34335  0.010372389  0.008619806            1 
 5001000   0.44618391   -8.8464148    622.51613  0.010373194 0.0086169395            2 
 5002000   0.44185905   -8.8428772    622.42747  0.010369643 0.0086140742            1 
 5003000   0.43570498   -8.8179448    621.44403   0.01035119 0.0086112108            1 
 5004000   0.44844198   -8.8215151     622.3099  0.010363541 0.0086083498            2 
 5005000   0.44611138   -8.8334356    621.07872  0.010340971 0.0086054891            2 
 5006000   0.45349524   -8.8274858    622.07651  0.010355515 0.0086026289            2 
 5007000   0.45198117   -8.8569187    620.96032   0.01033487 0.0085997694            4 
 5008000   0.44476224     -8.83831    621.80248   0.01034682 0.0085969105            1 
 5009000   0.45147325   -8.8303563    621.87674   0.01034599 0.0085940573            1 
 5010000   0.44999123   -8.8278817     621.0382  0.010329977 0.0085912019            2 
 5011000   0.46049583   -8.8599319    621.79083  0.010340431 0.0085883477            1 
 5012000   0.44756412   -8.8452544    621.51831  0.010333837 0.0085854938            1 
Loop time of 12088.4 on 48 procs for 5000000 steps with 4000 atoms

Performance: 71473.659 tau/day, 413.621 timesteps/s
99.4% CPU use with 48 MPI tasks x no OpenMP threads

MPI task timing breakdown:
Section |  min time  |  avg time  |  max time  |%varavg| %total
---------------------------------------------------------------
Pair    | 799.29     | 847.63     | 907.7      |  90.4 |  7.01
Neigh   | 79.505     | 82.882     | 86.039     |  19.2 |  0.69
Comm    | 767.89     | 828.25     | 877.83     |  95.7 |  6.85
Output  | 14.29      | 14.295     | 14.39      |   0.4 |  0.12
Modify  | 10189      | 10205      | 10227      |   8.5 | 84.42
Other   |            | 110.4      |            |       |  0.91

Nlocal:        83.3333 ave          88 max          77 min
Histogram: 1 2 2 6 7 7 9 5 3 6
Nghost:        2115.25 ave        2134 max        2094 min
Histogram: 1 2 2 8 8 11 3 5 5 3
Neighs:        13863.6 ave       15588 max       12743 min
Histogram: 1 9 8 6 8 9 5 1 0 1
FullNghs:      27728.1 ave       29524 max       25538 min
Histogram: 1 3 2 6 8 9 7 5 4 3

Total # of neighbors = 1330948
Ave neighs/atom = 332.73700
Neighbor list builds = 267358
Dangerous builds = 0

#clear
#
#next RN
#
#jump SELF
Total wall time: 3:21:31
