
units lj                  # Use reduced LJ style units
atom_style atomic         # Uncharged point particles
atom_modify map hash      # Needed for indexing of clusters etc
                          # Used to be able to find where atoms are in relation to each other.

lattice fcc 1.0 spacing 1 1 1
Lattice spacing in x,y,z = 1.5874011 1.5874011 1.5874011
region box block 0 10 0 10 0 10 units lattice
create_box 2 box
Created orthogonal box = (0.0000000 0.0000000 0.0000000) to (15.874011 15.874011 15.874011)
  3 by 4 by 4 MPI processor grid
create_atoms 1 box
Created 4000 atoms
  using lattice units in orthogonal box = (0.0000000 0.0000000 0.0000000) to (15.874011 15.874011 15.874011)
  create_atoms CPU = 0.002 seconds
set type 1 type/fraction 2 0.54 78393
Setting atom values ...
  2170 settings made for type/fraction
mass 1 1.0
mass 2 1.0
pair_style lj/cut  3.5
pair_modify tail  yes
pair_coeff 1  1  1.0  1.0   # Intearaction between 1 and 1 set with epsilon = 1 and sigma = 1
pair_coeff 1  2  1.5  0.8
pair_coeff 2  2  0.5  0.88

write_data data.0
System init for write_data ...
Neighbor list info ...
  update every 1 steps, delay 10 steps, check yes
  max neighbors/atom: 2000, page size: 100000
  master list distance cutoff = 3.8
  ghost atom cutoff = 3.8
  binsize = 1.9, bins = 9 9 9
  1 neighbor lists, perpetual/occasional/extra = 1 0 0
  (1) pair lj/cut, perpetual
      attributes: half, newton on
      pair build: half/bin/atomonly/newton
      stencil: half/bin/3d
      bin: standard
WARNING: Not all mixed pair coeffs generated from mixing. Use write_data with 'pair ij' option to store all pair coeffs. (../write_data.cpp:312)


#############################
#   M E L T   S Y S T E M   #
#############################

velocity all create 2.4 9622624 mom yes dist gaussian # Assign velocities
                                                    # Temperature 2.4, random number seed, zero linear momentum
                                                                                # Gaussian distribution

timestep 0.002   # simulation timestep
thermo 1000       # output thermodynamic data every 1000 steps bf 100

# Define a fix  in this case with index 1 applied to all
# particles in the simulation. This fix is for simulations
# in the anisotropic NPT ensemble. Note that we use the MTK
# correction.
fix 1 all npt temp 2.4 2.4 0.1 iso 5.68 5.68 0.5 mtk yes tchain 5 pchain 5 # Use NPT ensemble
                                                                         # Set temperature and pressure and damping
                                                                         # Numbers of thermostats in chain and in barostat
run 10000          # run for 10000 steps
Per MPI rank memory allocation (min/avg/max) = 3.642 | 3.644 | 3.648 Mbytes
Step Temp E_pair E_mol TotEng Press Volume 
       0          2.4   -5.0605359            0   -1.4614359   -4.1673139         4000 
    1000    2.4133274   -4.7562054            0   -1.1371193    5.5408671    3657.7216 
    2000    2.3622178   -4.6655164            0   -1.1230756    5.5862467       3690.9 
    3000    2.4160145   -4.6999833            0   -1.0768676    5.6960399    3675.8414 
    4000    2.4030363   -4.6777289            0   -1.0740755    5.6501611    3685.7406 
    5000    2.4190916   -4.7361101            0   -1.1083798    5.4896555     3674.832 
    6000     2.436585   -4.8146652            0   -1.1607014    5.6502741    3617.8712 
    7000    2.3819796   -4.7915579            0   -1.2194817    5.7475825    3613.3064 
    8000    2.3899738   -4.7284874            0   -1.1444229    5.4508513    3667.5511 
    9000    2.3755756   -4.7625603            0   -1.2000878    5.4853717    3662.0451 
   10000    2.4017263   -4.7742734            0   -1.1725846    5.6754216    3648.6391 
Loop time of 2.62098 on 48 procs for 10000 steps with 4000 atoms

Performance: 659295.773 tau/day, 3815.369 timesteps/s
99.6% CPU use with 48 MPI tasks x no OpenMP threads

MPI task timing breakdown:
Section |  min time  |  avg time  |  max time  |%varavg| %total
---------------------------------------------------------------
Pair    | 1.1906     | 1.2673     | 1.3549     |   3.0 | 48.35
Neigh   | 0.21584    | 0.22393    | 0.23376    |   0.7 |  8.54
Comm    | 0.79673    | 0.87617    | 0.95676    |   3.8 | 33.43
Output  | 0.00025368 | 0.00025796 | 0.00032487 |   0.0 |  0.01
Modify  | 0.21831    | 0.23748    | 0.26486    |   2.8 |  9.06
Other   |            | 0.01586    |            |       |  0.61

Nlocal:        83.3333 ave          91 max          71 min
Histogram: 1 1 1 3 6 5 12 8 7 4
Nghost:        1742.67 ave        1769 max        1715 min
Histogram: 3 3 4 7 5 5 11 2 7 1
Neighs:        10477.9 ave       11541 max        8673 min
Histogram: 1 0 2 5 4 8 9 8 8 3

Total # of neighbors = 502938
Ave neighs/atom = 125.73450
Neighbor list builds = 903
Dangerous builds = 174

# Equilibrate just above the melting temperature to avoid step fn in T

fix 1 all npt temp 1.25 1.25 0.1 iso 5.68 5.68 0.5 mtk yes tchain 5 pchain 5
run 2000
Per MPI rank memory allocation (min/avg/max) = 3.644 | 3.646 | 3.650 Mbytes
Step Temp E_pair E_mol TotEng Press Volume 
   10000    2.4017263   -4.7742734            0   -1.1725846    5.6754216    3648.6391 
   11000    1.2436686   -6.8954253            0   -5.0303889    5.8701639    2808.4051 
   12000    1.2626306   -6.9735419            0   -5.0800696     5.296846    2810.7197 
Loop time of 0.663184 on 48 procs for 2000 steps with 4000 atoms

Performance: 521122.078 tau/day, 3015.753 timesteps/s
99.6% CPU use with 48 MPI tasks x no OpenMP threads

MPI task timing breakdown:
Section |  min time  |  avg time  |  max time  |%varavg| %total
---------------------------------------------------------------
Pair    | 0.3024     | 0.32454    | 0.36461    |   2.2 | 48.94
Neigh   | 0.04179    | 0.044092   | 0.04823    |   0.6 |  6.65
Comm    | 0.20084    | 0.2444     | 0.26636    |   2.8 | 36.85
Output  | 5.2248e-05 | 5.3553e-05 | 6.919e-05  |   0.0 |  0.01
Modify  | 0.040014   | 0.045092   | 0.050241   |   1.4 |  6.80
Other   |            | 0.005007   |            |       |  0.75

Nlocal:        83.3333 ave          90 max          77 min
Histogram: 4 3 0 12 3 9 9 4 2 2
Nghost:        2081.35 ave        2109 max        2059 min
Histogram: 2 4 9 10 5 1 9 2 5 1
Neighs:        13570.5 ave       15139 max       12391 min
Histogram: 3 5 5 6 10 9 3 5 1 1

Total # of neighbors = 651384
Ave neighs/atom = 162.84600
Neighbor list builds = 143
Dangerous builds = 9

#############################
# L I N E A R  Q U E N C H  #
#############################

# Define solid atoms. This closely follows ten Wolde  Ruiz-Montero and Frenkel  Faraday Discuss  1996  104  93-110
# Compute components of the per-atom q6 vector
compute q6 all orientorder/atom degrees 1 6 components 6 nnn NULL cutoff 1.3 # compute the Q6 parameter.
                                                                             # Use all neighbours within 1.3 unit cell.

# get number of connections
compute coord_number all coord/atom orientorder q6 0.5

# An atom is solid if it has 8 or more connections (of a possible 14)
variable is_solid atom c_coord_number>=8
group solid dynamic all var is_solid    # Must be dynamic to update
dynamic group solid defined

# do clustering
compute cluster solid cluster/atom 1.3 # Create a cluster where all atoms within are solid and max 1.3 units from another member

# define chunks one chunk per cluster
compute clus_chunks solid chunk/atom c_cluster nchunk every compress yes  # Says which atoms are in which chunk

# count the size of each chunk
compute size_chunks solid property/chunk clus_chunks count


# Find the maximum entry in the vector of chunk sizes
variable max_n equal max(c_size_chunks)


# Thermo style which includes this variable
# thermo_style custom step temp pe vol v_max_n

thermo ${N}  # Print the thermo information every 100 steps
thermo 1000  

# Reset the npt fix at a lower temperature (below freezing)
fix 1  all npt temp  ${temp} ${temp}  0.1  iso  5.68  5.68  0.5  mtk yes tchain  5  pchain  5
fix 1  all npt temp  0.45 ${temp}  0.1  iso  5.68  5.68  0.5  mtk yes tchain  5  pchain  5
fix 1  all npt temp  0.45 0.45  0.1  iso  5.68  5.68  0.5  mtk yes tchain  5  pchain  5

dump dmp2 all dcd ${N} traj.dcd
dump dmp2 all dcd 1000 traj.dcd


compute msd all msd com yes
variable twopoint equal c_msd[4]/6/(step*dt+1.0e-6)
fix 9 all vector 10 c_msd[4]
variable fit equal slope(f_9)/6/(10*dt)
thermo_style custom step temp pe c_msd[4] v_twopoint v_fit v_max_n

fix 1 all npt temp 1.25 ${temp} 0.1 iso 5.68 5.68 0.5 mtk yes tchain 5 pchain 5
fix 1 all npt temp 1.25 0.45 0.1 iso 5.68 5.68 0.5 mtk yes tchain 5 pchain 5
run 2000000 # 5000000  # Run for this many steps
Neighbor list info ...
  update every 1 steps, delay 10 steps, check yes
  max neighbors/atom: 2000, page size: 100000
  master list distance cutoff = 3.8
  ghost atom cutoff = 3.8
  binsize = 1.9, bins = 8 8 8
  4 neighbor lists, perpetual/occasional/extra = 1 3 0
  (1) pair lj/cut, perpetual
      attributes: half, newton on
      pair build: half/bin/atomonly/newton
      stencil: half/bin/3d
      bin: standard
  (2) compute orientorder/atom, occasional
      attributes: full, newton on
      pair build: full/bin/atomonly
      stencil: full/bin/3d
      bin: standard
  (3) compute coord/atom, occasional
      attributes: full, newton on
      pair build: full/bin/atomonly
      stencil: full/bin/3d
      bin: standard
  (4) compute cluster/atom, occasional
      attributes: full, newton on
      pair build: full/bin/atomonly
      stencil: full/bin/3d
      bin: standard
Per MPI rank memory allocation (min/avg/max) = 9.841 | 9.847 | 9.852 Mbytes
Step Temp PotEng c_msd[4] v_twopoint v_fit v_max_n 
   12000    1.2626306   -6.9735419 9.7739866e-31 6.7874904e-33 8.3333333e+20            1 
   13000    1.2553222   -6.9660167   0.46417456 0.0029754778  0.038254059            2 
   14000    1.2248533   -6.9712502   0.86371965 0.0051411882  0.034585796            4 
   15000     1.263016   -6.9736892    1.2763763 0.0070909793  0.034440491            3 
   16000    1.2492857   -6.9810961     1.679908 0.0087495203  0.034448624            3 
   17000    1.2190224   -6.9641754    2.0806111  0.010199074  0.034150793            1 
   18000    1.2365923   -7.0065425    2.4300398  0.011250184  0.033663158            2 
   19000    1.2902301   -6.9872297    2.8397958  0.012455244  0.033319853            7 
   20000    1.2545611   -7.0137403    3.2753348  0.013647228  0.033326424            1 
   21000    1.2488569   -7.0036249    3.6532132  0.014496878  0.033440425       -1e+20 
   22000    1.2331202   -7.0005259    4.0571501  0.015367993    0.0333617            4 
   23000    1.2672995   -6.9920801    4.3872507  0.015895836  0.033208055            2 
   24000     1.247789   -6.9964045    4.8208245  0.016738974  0.033084211            3 
   25000    1.2404001   -6.9986651    5.1543342  0.017181114  0.032985193            1 
   26000    1.2663619   -6.9635885      5.51593  0.017679262  0.032736078            3 
   27000    1.2195106   -7.0132115    5.8618572  0.018092152  0.032505786            2 
   28000    1.2422542   -6.9585759     6.282386  0.018697577  0.032372392            1 
   29000     1.241061   -6.9923171    6.6139763  0.019005679   0.03226492            4 
   30000    1.2588371   -6.9619927    6.9702446   0.01936179  0.032091033            1 
   31000    1.2233514   -7.0181129    7.4149678  0.019932709  0.032000911            1 
   32000    1.2301975   -6.9946329    7.8182236  0.020359957  0.032024766            1 
   33000    1.2096108   -7.0226645    8.1391672  0.020553452  0.031977132            3 
   34000    1.2288147    -7.010497    8.6079578  0.021097936  0.031930373            2 
   35000    1.2084835   -6.9900384     9.119673  0.021713507  0.032008567            2 
   36000    1.2225401    -7.011176    9.6456816  0.022327966  0.032185384            2 
   37000    1.2470706   -6.9695974    10.146123  0.022851627  0.032431318            2 
   38000    1.2410809   -6.9847587    10.585505  0.023213827  0.032656499            1 
   39000    1.2360577   -7.0335157    10.979386  0.023460227  0.032864352            3 
   40000    1.2392691   -7.0038729    11.329309  0.023602727  0.033053752            2 
   41000    1.2456303   -6.9900247    11.766319  0.023915283  0.033152322            1 
   42000    1.2406781   -7.0273285    12.095285  0.023998581  0.033240631            2 
   43000    1.2338709   -6.9857582    12.407371  0.024045293  0.033286252            2 
   44000    1.2296366   -6.9864228     12.89683  0.024425814  0.033330257            1 
   45000    1.2121937   -7.0061654    13.283657  0.024599364  0.033378916            2 
   46000    1.2432599   -7.0316666    13.623687  0.024680592  0.033405079            2 
   47000    1.2443137   -6.9859721    14.084642  0.024972769  0.033416259            3 
   48000     1.262511   -7.0186446    14.487199  0.025151386   0.03343969            3 
   49000    1.2127034   -7.0324406    14.773228  0.025124538  0.033429723            4 
   50000    1.2408414   -7.0212134     15.08038  0.025133967  0.033389984            6 
   51000    1.2252237   -7.0616416    15.502568  0.025330992  0.033347043            1 
   52000    1.2379408   -7.0319026    15.877252  0.025444315  0.033318995            3 
   53000    1.2321413   -7.0427864    16.325051  0.025668319  0.033291988            1 
   54000    1.2191289   -7.0068265    16.661392  0.025712024  0.033263616            4 
   55000    1.2468871   -7.0748248    16.963713  0.025702594  0.033217469            3 
   56000    1.2219166   -6.9923103     17.38637  0.025872574  0.033172174            2 
   57000     1.218224   -7.0008536    17.716884  0.025901877   0.03311445            1 
   58000    1.2365222   -7.0137025    18.021002  0.025892244  0.033041713            2 
   59000    1.2578888   -7.0232914    18.371357  0.025948244  0.032970825            1 
   60000    1.2562473   -7.0279473    18.762504  0.026059033  0.032909696            2 
   61000     1.243889   -6.9996945    19.084496  0.026071715  0.032848456            1 
   62000    1.2323123   -7.0105286     19.49556  0.026203709  0.032783878            4 
   63000    1.2048616   -7.0241313    19.793589  0.026181996  0.032714255            2 
   64000    1.2335144   -7.0371685    20.201797  0.026304423  0.032659731            2 
   65000    1.2552687   -7.0380521    20.585514  0.026391684  0.032610131            2 
   66000     1.239836   -7.0289199    20.868649  0.026349304   0.03255713            3 
   67000     1.228613   -7.0631526    21.117592  0.026265662  0.032484929            3 
   68000    1.2361777   -7.0659592    21.485198    0.0263299  0.032407129            4 
   69000    1.2442213   -7.0983401    21.764881  0.026286088  0.032336616            2 
   70000    1.2192171   -7.0663935     22.28164  0.026525762  0.032273027            3 
   71000    1.2267423   -7.0056603    22.829543  0.026795239  0.032232662            3 
   72000    1.2332874   -7.0545362    22.995229  0.026614848  0.032191554            1 
   73000      1.21929   -6.9922986    23.576342  0.026913632  0.032147543            1 
   74000    1.2388041   -6.9822819     24.03499   0.02706643  0.032121557            2 
   75000    1.2362481   -7.0882758    24.204115  0.026893461  0.032083276            3 
   76000    1.2221616   -7.0278785    24.601821  0.026975681  0.032046119            2 
   77000    1.2301799   -7.0496763    24.999283  0.027055501  0.032016321            4 
   78000     1.213026    -7.038598    25.371881   0.02710671  0.031991309            3 
   79000    1.2272297   -7.0608049    25.767184  0.027180574  0.031971417            2 
   80000    1.2128489   -7.0718005    26.102434  0.027190036  0.031947732            2 
   81000    1.2535786   -6.9879196    26.467289  0.027229721  0.031917604            4 
   82000    1.1895132   -7.0629281    26.759875  0.027194994  0.031881693            3 
   83000    1.2132861   -7.0316238      27.2022  0.027311446  0.031852567            3 
   84000    1.2364925   -7.1199181     27.54498  0.027326368  0.031830308            2 
   85000    1.2157352   -7.0420712     28.01469  0.027465382  0.031815072            2 
   86000    1.2333528   -7.0034287    28.526163  0.027641631  0.031801834            3 
   87000    1.2165849   -7.0545495    28.598131  0.027392846   0.03178395            2 
   88000    1.2224844   -7.0687584    29.105264  0.027561802  0.031763916            3 
   89000    1.1953166   -7.0919559    29.460589  0.027584821  0.031745877            5 
   90000    1.1983829   -7.0492785    29.794191  0.027587213    0.0317286            2 
   91000    1.2118167   -7.0402381    30.298607  0.027745977  0.031714805            2 
   92000    1.1921236   -7.0825924    30.606956  0.027723692  0.031708709            2 
   93000    1.2080211   -7.0905958    31.106531  0.027873235  0.031703204            9 
   94000    1.2223318   -7.0809909    31.621328  0.028033092  0.031706464            2 
   95000    1.2119614   -7.0612878    32.315529  0.028346955      0.03172            1 
   96000    1.2259528    -7.054572    32.683366  0.028370977   0.03174559            5 
   97000     1.231428    -7.068812    33.110576  0.028445512  0.031765659            2 
   98000     1.236306   -7.0830008    33.455053  0.028448174  0.031794092            2 
   99000    1.2290895   -7.0977194    33.664725   0.02833731  0.031811315            1 
  100000    1.2205294   -7.0794823    33.936626  0.028280521  0.031814685            1 
  101000    1.2170533   -7.0893529       34.426  0.028404291    0.0318189            3 
  102000    1.1995573   -7.0578243    34.799777   0.02843119  0.031824693            1 
  103000    1.2261154    -7.074537    35.187717  0.028469026  0.031830981            1 
  104000    1.2046281   -7.0609657    35.322824  0.028303545  0.031830676            1 
  105000    1.2104514   -7.1083246     35.57601  0.028234929   0.03181824            3 
  106000     1.181457   -7.0661843    35.942484  0.028256669  0.031804797            1 
  107000     1.207592   -7.0989881    36.403643  0.028351747  0.031799366            3 
  108000    1.2009087    -7.046258    36.731282  0.028342038  0.031790283            4 
  109000    1.2159482   -7.0864306    36.900721   0.02821156  0.031776918            3 
  110000    1.2146467   -7.0849132    37.389436  0.028325331   0.03176498            2 
  111000    1.1984553   -7.1115649    37.857023  0.028421188  0.031749403            2 
  112000     1.229596   -7.0959857    38.334427  0.028522639  0.031743999            2 
  113000    1.2040329   -7.1114213    38.518866  0.028406243  0.031734222            3 
  114000    1.1989881   -7.0677785    39.001931  0.028510183  0.031720658            4 
  115000    1.2199466   -7.0628025    39.266515  0.028453997  0.031705358            3 
  116000    1.1957822   -7.1066356     39.46256   0.02834954  0.031687027            5 
  117000    1.1915686   -7.0647521    39.804895  0.028351064  0.031663646            2 
  118000    1.1904561   -7.0856151    39.993186  0.028243775  0.031639021            3 
  119000    1.1741254   -7.0673198    40.413015   0.02830043  0.031607997            2 
  120000    1.2004338    -7.103152    40.827309  0.028352298  0.031580648            2 
  121000    1.2217274   -7.0880361    41.185732  0.028364829   0.03155972            4 
  122000    1.1961486   -7.0801354    41.671079  0.028463852  0.031541321            3 
  123000     1.194395   -7.0941334    42.056493  0.028493558  0.031521479            2 
  124000      1.17834   -7.0611725     42.28923  0.028420181  0.031500774            1 
  125000      1.21469   -7.0944294    42.572587  0.028381725  0.031476561            3 
  126000    1.1988082   -7.0687767    42.778794  0.028292853  0.031448623            1 
  127000    1.2418891   -7.0933651     43.18957  0.028339613  0.031419007            2 
  128000    1.1958019   -7.1278309     43.33574  0.028213372  0.031391344            2 
  129000    1.2143458   -7.0872654     43.73003  0.028249373  0.031360767            6 
  130000    1.2070141   -7.0658073    44.246531   0.02836316  0.031331833            2 
  131000    1.1847584   -7.0894415    44.452979  0.028277976  0.031303673            3 
  132000    1.1794706   -7.0928219    44.895812  0.028343315  0.031276481            2 
  133000    1.2374451    -7.114472    45.047836  0.028225461  0.031249249            4 
  134000    1.1955953   -7.0627847    45.668092  0.028400554  0.031223157            6 
  135000    1.1858999   -7.1088439    46.005208  0.028398276  0.031199794            2 
  136000    1.2048042   -7.1320061    46.103549  0.028249723  0.031170389            1 
  137000    1.1939653   -7.1291454     46.48223  0.028273862  0.031140534            2 
  138000    1.1952588   -7.0761383    47.092801  0.028437681  0.031111608            2 
  139000    1.1967117   -7.0977673    47.194359   0.02829398  0.031085959            1 
  140000    1.1791977   -7.0541781    47.767313  0.028432924  0.031060367            5 
  141000    1.2068495   -7.0921418    47.834173  0.028270788  0.031035345            2 
  142000    1.2305937   -7.1654003    47.898896  0.028109681   0.03100484            3 
  143000    1.2027007   -7.1113081    48.287049  0.028139306  0.030971539            2 
  144000    1.1982892   -7.1327231    48.626789  0.028140503  0.030941514            3 
  145000     1.208721   -7.1390001     49.02317  0.028174236  0.030912586            1 
  146000    1.2121874   -7.1567923    49.397942  0.028195172  0.030887086            4 
  147000    1.1832045   -7.1115485    49.877512  0.028275233  0.030863955            6 
  148000    1.1714214     -7.07519    50.275503  0.028308279   0.03084069            2 
  149000    1.1910939   -7.1248986    50.460388  0.028221693  0.030817125            2 
  150000    1.1764318   -7.1026589    50.819431  0.028233017  0.030792314            5 
  151000    1.1927981   -7.1346686    51.289101  0.028305243  0.030770019            1 
  152000    1.1884672   -7.1405169    51.630597  0.028306248  0.030746295            1 
  153000     1.197837   -7.1340509    51.873568  0.028253577  0.030720322            4 
  154000    1.1624444   -7.1508889    51.752807  0.028004766  0.030690946            6 
  155000    1.2243258   -7.1484584    51.804438  0.027851848  0.030657785            3 
  156000    1.1990248   -7.1570392     52.00758  0.027781827  0.030619802            2 
  157000    1.1890073   -7.1353209    52.585328  0.027911533  0.030584287            2 
  158000    1.2059277   -7.1295498    53.258376  0.028089861  0.030553663            3 
  159000     1.211452    -7.143155     53.25923  0.027913643  0.030522736            1 
  160000    1.1849014   -7.1211038    53.696744  0.027967054  0.030485937            3 
  161000    1.1690528   -7.1594309    54.061385  0.027982083  0.030451782            2 
  162000    1.1870083   -7.1111868     54.48823  0.028028925  0.030421835            1 
  163000    1.2040774   -7.1673019    54.723833   0.02797742  0.030391837            7 
  164000    1.1524341   -7.1787883    55.069624  0.027982532  0.030363799            5 
  165000      1.22237   -7.1342594    55.576066   0.02806872   0.03033614            2 
  166000    1.1793861   -7.1539497    55.778289  0.028001149   0.03031043            5 
  167000     1.181653   -7.1485499    56.123754  0.028005865  0.030283261            3 
  168000    1.1867144   -7.1405396    56.282836  0.027918073  0.030254158            2 
  169000    1.1651235   -7.1934043    56.633265  0.027925673   0.03022407            3 
  170000    1.1912554   -7.1732602     57.07555  0.027978211  0.030197175            2 
  171000    1.1807015    -7.157454    57.391224  0.027968433  0.030173103            1 
  172000    1.2026083   -7.1087978    57.770803   0.02798973  0.030148469            2 
  173000    1.1911902   -7.1515205    58.222265  0.028045407  0.030125343            2 
  174000    1.2194929   -7.1208876    58.607571   0.02806876  0.030103913            2 
  175000    1.1782524   -7.1190376    58.864715  0.028030817  0.030079747            2 
  176000    1.1707136     -7.12998    59.025293  0.027947582  0.030052196            2 
  177000    1.1880047   -7.1315514     59.22242  0.027882495  0.030023574            5 
  178000    1.1790097   -7.1683764    59.279492  0.027752571  0.029994737            3 
  179000    1.1743767   -7.1636546    59.689979  0.027788631  0.029965413            3 
  180000    1.2251018   -7.1298195    60.203867   0.02787216  0.029936225            2 
  181000    1.1970872   -7.1791038    60.214321  0.027722984  0.029909266            2 
  182000    1.2085951   -7.1699518    60.536572   0.02771821  0.029881501            3 
  183000    1.1800676    -7.124676    61.075667  0.027812234  0.029855631            2 
  184000    1.1689843   -7.1618571    61.262541  0.027745716  0.029829202            3 
  185000    1.1929613   -7.1474038    61.630623  0.027761542  0.029799945            2 
  186000    1.1778999   -7.1474235    61.758286  0.027669483  0.029772726            5 
  187000    1.1755784   -7.1770877    62.102993  0.027675131    0.0297455            1 
  188000    1.1784566   -7.1736029    62.721102  0.027801907  0.029718373            2 
  189000    1.1702483   -7.1642523    62.950219  0.027755828  0.029693489            2 
  190000    1.1898561   -7.1744962    63.124269  0.027686083  0.029667799            1 
  191000    1.1788021   -7.1528144    63.535077  0.027720365  0.029640333            2 
  192000     1.197717   -7.1517371    64.410174  0.027955805   0.02961691            5 
  193000    1.1754351    -7.145983    64.591214  0.027889125  0.029596491            1 
  194000    1.1703381   -7.1035788    64.850303  0.027856659  0.029577069            3 
  195000    1.1721763   -7.1558077    65.100408  0.027820687  0.029558767            3 
  196000    1.1828366   -7.1381122    65.312595   0.02776896  0.029537165            3 
  197000    1.1866374   -7.1672777     65.74926  0.027812716  0.029515042            4 
  198000    1.1878632   -7.2070141    65.606815  0.027612296  0.029491908            6 
  199000    1.1448746   -7.1788218    65.850747  0.027575689  0.029467342            2 
  200000    1.1626395   -7.1744926    66.448061  0.027686692  0.029444076            3 
  201000    1.1555753   -7.1541314    66.736451  0.027668512  0.029421274            5 
  202000    1.1682372   -7.1542763    66.805502  0.027560026   0.02939446            3 
  203000    1.1642489   -7.1711985    67.065312  0.027530916  0.029366976            1 
  204000    1.1925659   -7.1943224    67.348422   0.02751161  0.029339835            3 
  205000    1.1748646   -7.1772613    67.646891  0.027498736  0.029313259            2 
  206000    1.1639645    -7.168832     67.97499  0.027497973  0.029286857            2 
  207000    1.1731025   -7.1865668    68.101801  0.027416184  0.029258778            2 
  208000    1.1534224   -7.1310183    68.483567  0.027437327  0.029230483            1 
  209000     1.184019   -7.1701425    68.677764  0.027383478  0.029202122            2 
  210000    1.1727175   -7.1539798    69.170133  0.027448466  0.029173517            2 
  211000    1.1581909   -7.2504402     69.10491  0.027292618  0.029143304            2 
  212000    1.1655031   -7.2052516    69.237257  0.027215903  0.029112909            4 
  213000    1.1797667   -7.1470862    69.810991  0.027312594  0.029083517            2 
  214000    1.1883334   -7.1883979    69.970144  0.027246941   0.02905493            3 
  215000    1.2033915   -7.2051577    70.514089  0.027331042  0.029026273            3 
  216000    1.1660642   -7.1854093    70.632727   0.02725028  0.028997454            2 
  217000    1.1768603   -7.2247709    70.502934   0.02707486  0.028964893            5 
  218000    1.1603725   -7.1861467    70.882041  0.027095581  0.028931716            1 
  219000    1.1872822   -7.2031538    71.285287  0.027125299  0.028898156            2 
  220000    1.1805328   -7.2177727    71.207326  0.026972472  0.028865861            5 
  221000    1.1591913   -7.1447607    71.829062  0.027084865  0.028834293            4 
  222000    1.1664858   -7.2162033     71.77654  0.026943146  0.028800928            3 
  223000    1.1553091   -7.2158453     72.04811  0.026923808  0.028767743            4 
  224000    1.1651507   -7.2069017    72.330483  0.026908662  0.028734441            2 
  225000    1.1365589   -7.2280576    72.637149  0.026902648  0.028701529            1 
  226000    1.1405011   -7.1448312    73.295064  0.027026204  0.028670632            2 
  227000    1.1454401   -7.1939208    73.340429  0.026923799   0.02863892            1 
  228000    1.1810877   -7.2198355    73.396721  0.026826287  0.028607585            5 
  229000    1.1482382   -7.2326646    73.621881  0.026791078  0.028575747            1 
  230000    1.1374866   -7.2074183    73.957305  0.026796125  0.028544018            1 
  231000    1.1665279   -7.1994674    74.246432  0.026784427  0.028511747            2 
  232000    1.1453338   -7.2481896    74.363136  0.026710896  0.028478916            1 
  233000    1.1560832   -7.1625167     75.08966  0.026856101  0.028447642            1 
  234000    1.1343285   -7.1787996    75.324834  0.026825083  0.028419359            2 
  235000    1.1522849   -7.2019563    75.627593  0.026818295  0.028390838            2 
  236000     1.159456   -7.1985484    75.657718  0.026715296  0.028361441            6 
  237000    1.1516408   -7.1749418       76.421  0.026870956  0.028333022            3 
  238000     1.145415     -7.19315    76.610995  0.026824578  0.028305347            2 
  239000    1.1378419   -7.2061648    77.013885  0.026852819  0.028277395            2 
  240000    1.1690008   -7.2164544    77.317611  0.026846393  0.028250917            1 
  241000    1.1500095   -7.2006415    77.670783  0.026857117  0.028226766            4 
  242000     1.149874   -7.2600658    77.941924  0.026839506  0.028203202            3 
  243000    1.1548782   -7.1831398    78.726497  0.026998113  0.028181261            2 
  244000    1.1736959   -7.2000245    78.881131  0.026940277  0.028160023            3 
  245000     1.143068   -7.2060621     79.14376  0.026919646  0.028138539            3 
  246000     1.155169    -7.186009    79.615219  0.026969925  0.028118595            4 
  247000    1.1232009   -7.2160892    80.214709  0.027062992  0.028100045            3 
  248000    1.1656679   -7.2224711     80.22461  0.026957194  0.028081109            4 
  249000    1.1701721   -7.2249468    80.570849  0.026964809   0.02806147            2 
  250000      1.13973   -7.2321658    80.639551   0.02687985  0.028041636            2 
  251000    1.1658495   -7.1929682    80.968479  0.026881965   0.02802066            2 
  252000     1.120281   -7.2722367    80.994991  0.026784058  0.028000427            5 
  253000    1.1334096    -7.273424    81.319916  0.026785216   0.02797861            2 
  254000    1.1707569   -7.2230559    81.491485  0.026736051  0.027956917            1 
  255000    1.1332948   -7.2658171    82.037429  0.026809617  0.027935104            5 
  256000    1.1487974   -7.2371252    82.335345   0.02680187  0.027913553            5 
  257000    1.1351475   -7.2005039    82.687378  0.026811731  0.027892796            5 
  258000    1.1508453   -7.2398633    82.798461  0.026743689  0.027872345            2 
  259000    1.1679768   -7.2268395    83.537558  0.026878236  0.027852913            2 
  260000    1.1548992   -7.2033099    83.593724   0.02679286  0.027832999            2 
  261000    1.1348818    -7.258321    83.535939  0.026671756  0.027812486            1 
  262000    1.1575683   -7.2427745    83.543151  0.026572249  0.027791243            3 
  263000    1.1419033   -7.2421531    84.130336  0.026657267  0.027768778            3 
  264000    1.1274244    -7.260307    84.137115  0.026558433  0.027746087            2 
  265000     1.146632   -7.2684509    84.617525  0.026609285  0.027724586            6 
  266000    1.1291816   -7.2448633    84.947595  0.026612655  0.027704319            7 
  267000    1.1537546   -7.2527523    85.412253  0.026658006  0.027683972            2 
  268000    1.1656085   -7.2554868     85.63146  0.026626698  0.027664364            4 
  269000    1.1478748   -7.2955116     85.85079   0.02659566  0.027644979            2 
  270000    1.1507054   -7.2129767    86.805075   0.02679169  0.027627187            3 
  271000    1.1561875   -7.2498906    86.685368  0.026656017  0.027609884            3 
  272000    1.1379715   -7.2751674    86.992793  0.026652204  0.027592652            4 
  273000    1.1739461   -7.2345272    87.410967  0.026682224  0.027575041            3 
  274000    1.1417622   -7.3018463    87.425392  0.026589231  0.027557497            2 
  275000    1.1443002   -7.2245391    88.205666   0.02672899   0.02754059            3 
  276000    1.1185674   -7.2635796     88.11266  0.026604064  0.027524667            1 
  277000      1.15537   -7.2390318    88.648447  0.026669208  0.027508243            1 
  278000    1.1232775   -7.2380574     88.93162  0.026658159   0.02749272            2 
  279000    1.1664802   -7.2830253    88.787537  0.026519575  0.027474795            3 
  280000    1.1291369   -7.2730877    89.515759  0.026641595  0.027456027            4 
  281000    1.1215129   -7.2766049    89.290274  0.026479915  0.027439396            1 
  282000    1.1252759   -7.2404985    89.937769  0.026577355  0.027423589            5 
  283000    1.1453009   -7.2771172    90.546681  0.026662745  0.027409027            2 
  284000    1.1133748   -7.2756914    90.887748   0.02666894   0.02739553            3 
  285000    1.1583677   -7.2467965     91.15918  0.026654731  0.027380841            4 
  286000    1.1231781   -7.2783186    91.542583  0.026673247  0.027366443            7 
  287000    1.1384436   -7.2738482     91.71952  0.026631684  0.027352419            2 
  288000    1.1541943   -7.2419594    91.739955  0.026545126  0.027338018            1 
  289000    1.1265795   -7.2412974    92.610053  0.026704168  0.027323338            3 
  290000    1.1366978     -7.29269    92.303327  0.026523944  0.027307811            5 
  291000    1.1305785   -7.2922436    92.753254  0.026561642  0.027293456            4 
  292000     1.159232   -7.2301963    93.349067  0.026640715  0.027280938            3 
  293000    1.1365669   -7.2929757    93.445282  0.026577156  0.027267708            2 
  294000    1.1273697   -7.2638195    93.650312  0.026544873  0.027253099            2 
  295000    1.1524297   -7.2996108    93.525415  0.026419609  0.027238874            4 
  296000    1.1453941   -7.2145436    94.197979  0.026519701  0.027223857            2 
  297000    1.1522036   -7.2895914     94.41103  0.026490188  0.027209714            5 
  298000    1.1190846   -7.2382532    95.064833  0.026584126  0.027195201            1 
  299000    1.1252284   -7.2537937    95.443207  0.026600671  0.027182599            2 
  300000    1.1151128    -7.259908    95.717616  0.026588227  0.027169452            5 
  301000    1.1209564   -7.2625838    95.873866  0.026543152  0.027155805            2 
  302000    1.1238049   -7.3156909    95.743632  0.026419324  0.027142456            2 
  303000    1.1527554   -7.2840272    96.313131   0.02648876  0.027129762            2 
  304000    1.1315041   -7.2728114    96.803582  0.026536069  0.027116689            2 
  305000    1.1407096   -7.2918518     97.04061  0.026513828  0.027104627            2 
  306000    1.1234924   -7.3006698    96.893046  0.026386995  0.027092292            4 
  307000    1.1286579    -7.265104    97.572724  0.026485538  0.027079946            1 
  308000    1.1439939   -7.2449821    97.942982  0.026499725  0.027067208            2 
  309000    1.1115983   -7.3042624     97.79619  0.026374377  0.027053744            3 
  310000    1.1355206    -7.312082     98.45811  0.026467234  0.027040923            2 
  311000    1.1485948   -7.2686318    98.319796  0.026345068  0.027027185            3 
  312000    1.1331145   -7.3157664    98.410678  0.026284903  0.027012292            4 
  313000    1.1170416   -7.3106214    98.489093  0.026221803  0.026997307            4 
  314000    1.1246244   -7.3009127    98.755947  0.026209116  0.026981168            3 
  315000    1.1125042   -7.2906387    99.025362  0.026197186  0.026965259            1 
  316000    1.1156204    -7.256813    99.589767  0.026263124   0.02694842            2 
  317000    1.1408409   -7.2603053    99.549443  0.026169675  0.026932216            4 
  318000    1.1466369   -7.3051599    99.745969  0.026138881  0.026915843            3 
  319000    1.1204131    -7.352638    99.797694  0.026070453  0.026898649            2 
  320000    1.0957894   -7.2690897    100.32554  0.026126442  0.026881477            5 
  321000    1.1304097   -7.3278015    100.32756  0.026045576   0.02686458            4 
  322000     1.125134   -7.3723205    100.40486  0.025984695  0.026846184            2 
  323000      1.13583   -7.3068649    100.93286  0.026040471  0.026828345            2 
  324000    1.0977845   -7.2813243    101.31599   0.02605864  0.026810137            4 
  325000    1.1219593   -7.3039643    101.57177  0.026044045  0.026793415            2 
  326000    1.1237597   -7.3151848    101.90769  0.026050023  0.026776684            1 
  327000    1.1351855   -7.2850066     102.3902  0.026093322  0.026760687            8 
  328000    1.1131051   -7.3227854     102.7044  0.026093597  0.026744435            3 
  329000     1.121277   -7.3242488    102.93305  0.026072202  0.026727424            1 
  330000    1.1276948   -7.3137495    102.90642  0.025986469  0.026710304            5 
  331000    1.1381698   -7.3196925    102.62606  0.025837376   0.02669272            1 
  332000    1.1210172   -7.3448207    102.94047   0.02583847  0.026674097            2 
  333000    1.1330545   -7.3319373    103.12455  0.025806944  0.026655403            4 
  334000    1.1118953   -7.3624995      103.385   0.02579466  0.026636603            2 
  335000    1.1181918   -7.3059186    103.66586  0.025787528  0.026617557            7 
  336000    1.0998923   -7.3347542    103.94907   0.02578102  0.026598873            3 
  337000    1.1265424   -7.3413346     104.1103  0.025744387  0.026580823            3 
  338000    1.1233478   -7.3452771    104.68747  0.025810521  0.026562608            3 
  339000    1.1081311   -7.3305092    104.70245  0.025738066  0.026544442            3 
  340000    1.1192279   -7.2981954    104.70285  0.025662464  0.026525037            5 
  341000     1.121903   -7.3073781    105.06895  0.025676675  0.026505815            4 
  342000    1.1375218   -7.3058483    105.72924  0.025762486  0.026486461            2 
  343000    1.0933729   -7.3686378    105.62127  0.025661144  0.026467481            3 
  344000    1.0921198   -7.3610185     105.7167  0.025609665  0.026448077            2 
  345000    1.0881211   -7.3337385    105.95855  0.025593852  0.026428708            2 
  346000    1.1137551   -7.3403159    106.41628  0.025630124  0.026409707            2 
  347000    1.1084479   -7.3288799    106.72537  0.025630492  0.026390843            3 
  348000    1.1233919    -7.337647    107.12317    0.0256521   0.02637229            5 
  349000    1.1345675   -7.3061586    107.26199  0.025611746  0.026353956            3 
  350000    1.0941939   -7.3145485    107.29889  0.025547355  0.026334563            2 
  351000      1.10263   -7.3804772    107.39906  0.025498353  0.026315772            6 
  352000     1.100011   -7.3663052    107.84531  0.025531561  0.026295806            3 
  353000    1.1198191   -7.2988574     108.3189  0.025571034  0.026276961            1 
  354000    1.1199968   -7.3236903    108.33233   0.02550196  0.026258165            3 
  355000     1.116691   -7.3291732    108.53366  0.025477385  0.026239781            2 
  356000    1.1081675   -7.3112141    109.06572  0.025530364  0.026222072            3 
  357000     1.100752   -7.3075991    109.90761  0.025655371  0.026204691            1 
  358000    1.1007004   -7.3337476    109.61048  0.025514545  0.026187448            1 
  359000    1.1027014   -7.3074754    110.21186   0.02558307   0.02617154            2 
  360000    1.1058279   -7.3366696    110.19906  0.025509043  0.026155564            2 
  361000    1.1119544   -7.3653656    110.71243  0.025556886  0.026138973            2 
  362000    1.1096981   -7.3649901    110.82647  0.025512539  0.026122953            2 
  363000    1.1123177   -7.3591919    110.71165  0.025415897  0.026107185            2 
  364000    1.0945875   -7.3036464    111.41055  0.025506078  0.026091208            5 
  365000    1.0995548   -7.3688546    111.74701  0.025513015  0.026075868            3 
  366000    1.1196799   -7.3907509    112.17316  0.025540337  0.026060744            2 
  367000      1.09752   -7.3532186    112.32513  0.025505252  0.026046176            6 
  368000    1.1251836   -7.3261026    113.23113  0.025641108  0.026031693            3 
  369000     1.098985   -7.4027788    112.57161  0.025422675  0.026017425            3 
  370000       1.1153   -7.3651431    113.30189  0.025518444  0.026002613            5 
  371000    1.1229817   -7.3345891    113.57137  0.025510192  0.025987853            6 
  372000    1.1099944    -7.337074    114.11895  0.025564281  0.025974239            1 
  373000    1.1083941   -7.3760374    114.29796  0.025535738  0.025960066            3 
  374000    1.1271356   -7.3343402    114.92031  0.025606129  0.025946489            2 
  375000    1.1013496   -7.3532043    115.11583  0.025581296  0.025932546            3 
  376000     1.101182   -7.3769605    114.73288  0.025428387  0.025918845            2 
  377000    1.1082872   -7.3659578    115.05342  0.025431789  0.025904854            3 
  378000    1.0871296   -7.3721392    115.87074  0.025544697  0.025890916            2 
  379000    1.1114559   -7.3542947    115.96787  0.025498653  0.025877233            3 
  380000    1.1125651   -7.4013944    115.69372  0.025371429  0.025862937            4 
  381000    1.1148973   -7.3823384    116.23661  0.025423581  0.025848272            2 
  382000    1.0969042   -7.3516579    116.72489  0.025463545  0.025834849            2 
  383000    1.0897322   -7.3561888    116.82193  0.025418173   0.02582067            3 
  384000    1.1114729   -7.3876707     117.0671  0.025405187  0.025806886            3 
  385000    1.1324164   -7.3809691    117.23299  0.025375106  0.025792914            3 
  386000    1.0918207   -7.3446672    117.45662  0.025357647  0.025779211            6 
  387000    1.1207189   -7.3925906    117.66395  0.025336769  0.025765503            2 
  388000    1.1021758   -7.3587534    118.07465  0.025359676    0.0257518            7 
  389000    1.0980176   -7.3769437    117.67599  0.025209082  0.025736415            4 
  390000    1.1288484   -7.3987854     117.6637  0.025141816  0.025720912            3 
  391000    1.0911947   -7.3933957    118.25145  0.025202782  0.025705756            3 
  392000    1.0828043   -7.3572628    118.49641  0.025190563  0.025690785            2 
  393000    1.1354147   -7.3786362    119.00633   0.02523459  0.025675986            3 
  394000    1.0958545   -7.3701117     119.3332  0.025239678  0.025661298            2 
  395000    1.0973069   -7.3514453    119.72361  0.025258145  0.025646959            2 
  396000    1.0950204    -7.358167    119.81659  0.025213929  0.025632802            3 
  397000    1.1060176   -7.3653583    119.96996  0.025182612  0.025618731            3 
  398000     1.074023   -7.3844792    120.15967   0.02515906  0.025604316            2 
  399000    1.0895351   -7.3678136    120.25873  0.025116695  0.025589896            4 
  400000    1.1011441   -7.3868994    120.74872  0.025155984  0.025575828            2 
  401000    1.1059747   -7.3566164    121.13152  0.025172802  0.025561088            1 
  402000    1.0673498   -7.4148185    121.17164  0.025118499  0.025547064            2 
  403000    1.1082025   -7.3799953    120.90005  0.025000011  0.025532229            4 
  404000    1.0894545   -7.4072782    121.82105  0.025128105  0.025517507            4 
  405000    1.0976535   -7.4253226    121.43257  0.024986125  0.025502586            3 
  406000    1.0771162   -7.3902973    122.17993  0.025077982  0.025487779            3 
  407000    1.0827994    -7.418748     122.2533  0.025031388  0.025472223            4 
  408000    1.0868249   -7.4019294    122.02849   0.02492412  0.025456749            1 
  409000    1.0974969   -7.3915985    122.37581  0.024933947   0.02544179            6 
  410000    1.0567838   -7.4475018    122.70085  0.024939197  0.025426699            5 
  411000    1.0894416   -7.3914962      123.401  0.025020478  0.025411569            1 
  412000    1.0933902   -7.3721168    123.66597  0.025013343  0.025396621            3 
  413000    1.0812939   -7.4170842    123.47335  0.024913912  0.025381187            2 
  414000    1.0782832   -7.3899883    123.87959  0.024935505   0.02536569            5 
  415000    1.1028352   -7.3769203    123.77591    0.0248546  0.025350417            2 
  416000    1.0689497    -7.382306    123.62045  0.024763712  0.025334028            2 
  417000    1.0730304   -7.4210985    123.52456  0.024685164  0.025316896            2 
  418000    1.0836984   -7.4880702    123.56577  0.024634324  0.025299952            3 
  419000    1.0906635   -7.3780565    124.72232  0.024805553   0.02528367            5 
  420000    1.0799607   -7.3843651    125.03009  0.024807558  0.025267727            6 
  421000    1.0768608   -7.4608531    125.00509  0.024743684   0.02525187            3 
  422000    1.1040662   -7.4398375    125.03071  0.024690108   0.02523576            4 
  423000     1.099531   -7.4306218    125.35869  0.024696353  0.025219178            2 
  424000    1.0882896   -7.3961645    126.28716   0.02482059  0.025202921            5 
  425000    1.0645613   -7.4291753    125.86624  0.024679655  0.025187086            3 
  426000    1.0911515   -7.4099104    126.47188  0.024740196  0.025171766            4 
  427000    1.1003039   -7.4128901    126.63245  0.024713594  0.025156271            5 
  428000    1.0792876   -7.4519327    126.52759  0.024635433  0.025140242            3 
  429000    1.0808417   -7.4317153    126.80653  0.024632193  0.025124215            7 
  430000    1.0870612   -7.4342545    127.03996  0.024620148  0.025108155            4 
  431000    1.0816875   -7.4409192        127.2  0.024593968  0.025092429            3 
  432000     1.098528   -7.4406183    127.64745  0.024623351   0.02507717            1 
  433000    1.0802447   -7.4236473    127.72106   0.02458065   0.02506157            2 
  434000    1.0943451   -7.4202195    127.70233  0.024520417  0.025045844            2 
  435000    1.0821392   -7.3958569    128.46819  0.024610764  0.025030525            3 
  436000    1.1144902   -7.4613145    128.51146  0.024562589  0.025014864            1 
  437000     1.066209   -7.4280569     128.3718  0.024479749  0.024998589            4 
  438000    1.0631764   -7.4384371    128.65547  0.024477829  0.024982329            9 
  439000    1.0702586   -7.4413292    128.86154  0.024461188  0.024966294            4 
  440000     1.076574   -7.4456898     129.3086  0.024490265  0.024950158            2 
  441000    1.0895713   -7.4634241    129.06029  0.024387811  0.024933804            3 
  442000    1.0984676   -7.3868774    129.82309   0.02447645  0.024917779            2 
  443000    1.0584224   -7.4012146    130.04957  0.024463801  0.024901873            2 
  444000    1.1034633   -7.4476883    129.58683  0.024321853  0.024885043            6 
  445000     1.059617   -7.4063865    130.28286  0.024397539  0.024868021            2 
  446000    1.0909755   -7.4674235    129.92213  0.024275435  0.024850946            4 
  447000    1.0720133   -7.4215703    130.21407  0.024275554  0.024833466            6 
  448000    1.0862001   -7.4485798     130.4271  0.024260993   0.02481639            6 
  449000    1.0763759   -7.4545885    130.75907  0.024268572  0.024800007            4 
  450000     1.059733    -7.422135    131.44435  0.024341547  0.024783007            2 
  451000    1.0589124   -7.4687987    131.39316  0.024278116   0.02476673            1 
  452000     1.062377   -7.4337359    132.05473  0.024346374  0.024750573            2 
  453000    1.0827128   -7.4721663    131.81495  0.024248519  0.024734662            2 
  454000    1.0678776   -7.4713169    131.77264  0.024187342  0.024718043            3 
  455000    1.0695044   -7.4898336    132.44576  0.024257466  0.024702139            4 
  456000    1.0842388   -7.4667261    132.52851  0.024219391  0.024686103            1 
  457000    1.0480778   -7.4916589    132.89716  0.024233617  0.024669833            3 
  458000    1.0824912   -7.4792538    132.72218  0.024148868  0.024653541            3 
  459000    1.0509067   -7.4497545    133.56345  0.024248992    0.0246373           10 
  460000    1.0712448   -7.4107969    133.41239  0.024168912  0.024621294            5 
  461000    1.0734496   -7.4511711    133.75793  0.024178946  0.024605004            3 
  462000    1.0748062   -7.4490392    134.09004  0.024186516  0.024588509            2 
  463000    1.0523284   -7.5009098    133.51973  0.024031628  0.024571766            4 
  464000    1.0618906   -7.4445816    134.22931  0.024107275  0.024554786            3 
  465000    1.0908619   -7.4277461    134.77162  0.024152621  0.024538299            2 
  466000    1.0546626   -7.4085036     134.9548  0.024133547  0.024522056            3 
  467000    1.0627033   -7.4381989    134.73326  0.024042338   0.02450552            2 
  468000    1.0578565   -7.4421396    135.15615  0.024066266  0.024489179            2 
  469000    1.0557033   -7.4838503    134.82277  0.023955716  0.024472849            2 
  470000    1.0562891   -7.4387846    135.82542  0.024082521  0.024456333            3 
  471000    1.0714154   -7.4706811    135.60083  0.023991655  0.024440125            3 
  472000    1.0736932   -7.4377905    136.24203  0.024054031  0.024424281            2 
  473000    1.0694755   -7.4428467    136.62994  0.024071519  0.024409018            3 
  474000    1.0506854    -7.421815    136.51055  0.023999745  0.024393817            6 
  475000     1.060271   -7.4262531    136.60626  0.023966011  0.024377778            3 
  476000    1.0722367    -7.465063    136.46111  0.023890251  0.024361228            6 
  477000    1.0817631   -7.4795272    136.82428  0.023903613  0.024344605            2 
  478000    1.0592498   -7.4410031    136.81066   0.02385123  0.024328179            3 
  479000    1.0824401   -7.4388842    137.20763  0.023870499  0.024311715            5 
  480000    1.0593349   -7.4468251    137.20821  0.023820869  0.024294861            5 
  481000    1.0822899   -7.4824412    137.18991  0.023768176  0.024277606            7 
  482000    1.0387512   -7.4841973    137.65233  0.023798812  0.024260882            8 
  483000    1.0700397   -7.4655194    138.13306  0.023832482  0.024244274            5 
  484000    1.0634134   -7.5210798    138.13978  0.023784398  0.024227562            3 
  485000    1.0548454   -7.4825495    138.27106  0.023757914  0.024210819            3 
  486000    1.0494878   -7.5000663    138.63296  0.023771084  0.024194148            2 
  487000    1.0726723    -7.517627    137.94852  0.023605154  0.024177104            2 
  488000    1.0614634   -7.4427826    138.93435  0.023725128  0.024159545            2 
  489000    1.0431914   -7.5004781    138.15065  0.023543055  0.024142047            7 
  490000     1.059541    -7.496161    138.91305  0.023624667  0.024124402            2 
  491000    1.0584461   -7.4702853    138.87082  0.023569386  0.024107204            1 
  492000    1.0551532   -7.5068227    138.69415  0.023491556  0.024089769            2 
  493000    1.0788592   -7.5196908    138.97329   0.02349109  0.024071883            3 
  494000    1.0730996   -7.5147526    139.46282  0.023526118   0.02405437            3 
  495000    1.0509236   -7.5027016    140.05667  0.023578564  0.024036968            1 
  496000     1.058243   -7.5383024    139.77588  0.023483851  0.024019461            4 
  497000    1.0393643   -7.4880553    140.40118  0.023541446  0.024002001            5 
  498000    1.0524506   -7.4919883    140.09303  0.023442609  0.023984732            5 
  499000    1.0540496   -7.4930481    140.72911  0.023501855  0.023967671            5 
  500000    1.0702907    -7.482682    140.82826  0.023471377  0.023950424            5 
  501000    1.0523969   -7.4582903     140.8861  0.023434148  0.023933131            5 
  502000    1.0567263   -7.4780848    140.87761  0.023386058  0.023915449            6 
  503000    1.0315764   -7.4767495    141.26613  0.023403932  0.023897377            3 
  504000    1.0837727   -7.4760171    141.06479  0.023324204  0.023879176            2 
  505000    1.0564493   -7.5061252    140.78432  0.023231736  0.023860474            2 
  506000     1.054526   -7.5199363    140.84884  0.023196449  0.023841451            8 
  507000    1.0513145   -7.5227032    141.41961  0.023244511   0.02382235            3 
  508000    1.0637615   -7.5076054    141.07118  0.023141597  0.023803323            4 
  509000    1.0608396    -7.499143    141.65937  0.023192432  0.023783845            3 
  510000     1.010391   -7.5389777    141.33785   0.02309442  0.023764103            4 
  511000    1.0779126   -7.5308795    141.45622  0.023068529  0.023744713            3 
  512000    1.0311443   -7.5127854    141.78716  0.023077338  0.023725491            4 
  513000     1.043637   -7.5125686    142.17109  0.023094719  0.023706147            6 
  514000    1.0524315   -7.5284187     142.3399  0.023077157  0.023686611            4 
  515000    1.0406293   -7.5660876    141.80558  0.022945887  0.023666797            3 
  516000    1.0601941   -7.5533302    142.56266  0.023023685  0.023646994            2 
  517000    1.0481331   -7.5687652    142.72546  0.023005393  0.023627589            5 
  518000     1.049553   -7.5456441    142.95575  0.022998029  0.023608128            4 
  519000    1.0415121   -7.5274072    142.64795  0.022904295  0.023589006            8 
  520000    1.0587343   -7.5272868    142.93787   0.02290671  0.023569435            3 
  521000    1.0260122   -7.5190796    143.62452  0.022972572  0.023550268            9 
  522000    1.0516281   -7.4398473    144.56854  0.023079269  0.023531617            2 
  523000    1.0723525   -7.5337949    143.49419  0.022863957  0.023512727            6 
  524000    1.0335891    -7.463011    144.59955  0.022996112  0.023494153            3 
  525000    1.0217985   -7.5062826    144.08764  0.022871054  0.023475401            4 
  526000    1.0500237   -7.4889349    144.43468  0.022882554  0.023456401            4 
  527000    1.0332084   -7.5312458    144.47357  0.022845283  0.023436969            5 
  528000    1.0480961   -7.5366605    144.25069  0.022766839  0.023417507            4 
  529000    1.0478394    -7.551027    144.17736  0.022712249  0.023397883            2 
  530000    1.0313676   -7.5307629    145.01456  0.022801031  0.023378158            8 
  531000    1.0549196    -7.542162    144.58486  0.022690656  0.023358203            3 
  532000    1.0373836   -7.4824837    145.20189  0.022744657  0.023338851            4 
  533000    1.0581392   -7.5426151     145.2507  0.022709615  0.023319053            6 
  534000    1.0357499    -7.529175    145.46289  0.022700201  0.023299395            3 
  535000    1.0201343   -7.5597082    145.12979  0.022605886  0.023279424            5 
  536000    1.0624151   -7.5561703    145.55002  0.022629046  0.023259363            4 
  537000    1.0460526   -7.5016147    145.85711   0.02263456  0.023239037            2 
  538000    1.0427431   -7.5647823    145.52368  0.022540843  0.023218718            2 
  539000    1.0468497   -7.5272944    146.29407  0.022618131  0.023198864            2 
  540000    1.0453699   -7.5563947    146.08755  0.022544376  0.023178636            3 
  541000     1.061326   -7.5412377    146.21585  0.022522466  0.023158578            2 
  542000    1.0445903   -7.4985796    147.05021  0.022609196  0.023138526            4 
  543000    1.0315282   -7.5262724    146.75999  0.022523019  0.023118691            5 
  544000    1.0385865   -7.5663075    145.88336  0.022347329  0.023098519            3 
  545000    1.0505713   -7.5618371    146.05553  0.022332649  0.023077815            4 
  546000    1.0380031   -7.5303701    146.67298  0.022385987  0.023056915            3 
  547000    1.0286653    -7.577727     146.6648  0.022343814  0.023036493            5 
  548000    1.0076454   -7.5492844    146.86057  0.022332811  0.023015865            3 
  549000    1.0653402   -7.5298552    146.93164  0.022302921  0.022994995            3 
  550000    1.0067504   -7.5632006    146.62999  0.022216665  0.022974156            5 
  551000    1.0265206   -7.5378158    147.62495  0.022326823  0.022953616            5 
  552000    1.0416946   -7.5651054    147.72568  0.022301582  0.022933139            6 
  553000    1.0468593   -7.5797355    147.57619  0.022238726  0.022912965            2 
  554000    1.0348891   -7.5761613    147.97349  0.022258347  0.022892977            3 
  555000     1.031513   -7.5134021      148.399  0.022282132  0.022873457            5 
  556000     1.037593   -7.5436418    148.16019  0.022206263  0.022853584            5 
  557000    1.0315405   -7.5384728    148.54835  0.022224469  0.022833737            2 
  558000    1.0445823    -7.546286     148.4793  0.022174328  0.022813857            2 
  559000    1.0337858   -7.5679704    148.87245  0.022193269  0.022793971            3 
  560000     1.030153   -7.6002769    148.72863  0.022132236  0.022774051            5 
  561000    1.0530114    -7.544386    149.40871  0.022193807  0.022754404            4 
  562000    1.0371686   -7.5552127    150.16605  0.022266615  0.022735326            7 
  563000    1.0324494   -7.5162913    150.37152  0.022257478  0.022716753            3 
  564000    1.0006309   -7.5778233    150.12054  0.022180931  0.022697772            3 
  565000    1.0457853   -7.6087397    149.61977  0.022067812  0.022678651            2 
  566000    1.0224481   -7.5848474    150.35718  0.022137394  0.022659764            4 
  567000     1.015501   -7.5716199    150.68858  0.022147058  0.022641102            2 
  568000   0.99831602    -7.591448    150.70569  0.022110577  0.022622511            5 
  569000    1.0289507   -7.5498101    151.25831  0.022152653  0.022603763            6 
  570000    1.0329635   -7.5491375    151.45806  0.022142992  0.022585258            4 
  571000    1.0083323   -7.5647374     151.7995  0.022154042  0.022567098            2 
  572000    1.0152519   -7.5938538    151.58872  0.022084603  0.022548742            3 
  573000     1.029884    -7.589116    152.42467  0.022167636  0.022530826            6 
  574000    1.0322528   -7.5573793    152.32941  0.022115188  0.022512812            1 
  575000    1.0146019   -7.5601844    152.31445  0.022074558  0.022494945            6 
  576000    1.0236016   -7.6047533    152.51456  0.022065186  0.022476902            3 
  577000    1.0320168   -7.5915009    152.58691  0.022037393  0.022458934            7 
  578000    1.0158695   -7.5640979    152.96663  0.022054012   0.02244125            4 
  579000    1.0125509   -7.5933156    153.46533  0.022087698  0.022423428            2 
  580000    1.0310257   -7.5503567     153.7377   0.02208875  0.022405739            4 
  581000    1.0323201   -7.5873976    153.05118  0.021952263  0.022388328            1 
  582000    1.0334532   -7.5937592    153.62977   0.02199739  0.022370901           10 
  583000    1.0345801   -7.5883185    154.05162  0.022019957  0.022353205            5 
  584000    1.0092062   -7.5794249    154.27369   0.02201394  0.022335977            8 
  585000    1.0344108    -7.546842    154.62917  0.022026948  0.022318807           12 
  586000     1.004961   -7.6056804    154.76969  0.022009341  0.022301857           14 
  587000    1.0389099   -7.6190791    154.58226  0.021945238  0.022284881            3 
  588000    1.0284831   -7.6121411    154.99758  0.021966777  0.022267722            3 
  589000    1.0171754   -7.6124858    154.80609   0.02190239  0.022250323            1 
  590000    1.0105773   -7.6265599    155.16236  0.021915588  0.022232933            4 
  591000   0.99171833   -7.6242152    155.02342  0.021858914  0.022215804            2 
  592000   0.99196992   -7.5692837    155.54392  0.021895259  0.022198897            3 
  593000     1.024451   -7.6231618    155.21594  0.021812246  0.022181673            3 
  594000    1.0349156   -7.6279315    155.51428  0.021817379   0.02216406            4 
  595000    1.0121074   -7.6018614    156.28474  0.021888619  0.022146911            3 
  596000    1.0207977   -7.6384274    156.44161  0.021873827  0.022130014            4 
  597000    1.0195349   -7.5631661    156.49783  0.021845035  0.022113165            2 
  598000    1.0362407   -7.6143806    156.40198  0.021795147  0.022096316            3 
  599000    1.0217001   -7.6539299    156.63814  0.021791617  0.022079495            8 
  600000     1.013435   -7.6573242    156.69732  0.021763517  0.022062508            5 
  601000    1.0119542   -7.5865222    157.00576  0.021770072  0.022045417           11 
  602000    1.0188472   -7.6283165    157.20683  0.021761742  0.022028511            5 
  603000    1.0185183   -7.6300185    156.89334   0.02168233  0.022011261            6 
  604000    1.0064354   -7.6017849    157.23294  0.021693287  0.021994135            4 
  605000      1.01957    -7.670798    156.96717  0.021620822  0.021976665            4 
  606000    1.0318688   -7.5940512    157.43605  0.021649622  0.021959551            2 
  607000    1.0087507   -7.6259315     157.7413  0.021655862  0.021942295            3 
  608000    1.0226406   -7.6184603    157.93948  0.021647407  0.021925073            5 
  609000    1.0024675   -7.6103594    158.05484  0.021627647  0.021907916            2 
  610000    1.0059289   -7.6148997      158.586  0.021664754  0.021891397            5 
  611000    1.0126009   -7.6045024    158.54859  0.021624194  0.021874902            4 
  612000    1.0013114   -7.5614376    159.09702  0.021663538  0.021858714            2 
  613000   0.99188705   -7.6312892    158.88164  0.021598918  0.021842254            3 
  614000    1.0139744    -7.646811    158.65721   0.02153328  0.021825611            6 
  615000    1.0008838   -7.5732335    159.48184  0.021610005  0.021809252            5 
  616000   0.98896894   -7.6211003    159.66256  0.021599372   0.02179286            3 
  617000    1.0000758   -7.6420711    159.58298  0.021553617  0.021776393            7 
  618000     1.010428   -7.6168242     159.8764  0.021558306  0.021759771            8 
  619000    1.0001368   -7.6471959    159.66517  0.021495042  0.021743299            4 
  620000    1.0049396   -7.6184357    159.96894  0.021501201  0.021726667            4 
  621000    1.0175123   -7.6291537    160.25551  0.021505033  0.021709787            3 
  622000    1.0185338   -7.6350905    160.27091  0.021472523  0.021693295            5 
  623000    1.0198125   -7.6472622    160.21016   0.02142993  0.021676795            9 
  624000    1.0006252   -7.6621379     160.5773  0.021444619  0.021660285           15 
  625000    1.0116157   -7.6667553    160.19749  0.021359666  0.021643514            8 
  626000    1.0013803   -7.6195415     160.7221   0.02139538  0.021626921            4 
  627000   0.98346244   -7.6543426     160.7388  0.021363476  0.021610735            5 
  628000    1.0135218   -7.6212987    161.55871  0.021438258  0.021594537            9 
  629000    1.0091662   -7.6149499    161.27058  0.021366002  0.021578542            5 
  630000   0.98532476   -7.6754137    161.22669  0.021326281  0.021562187            5 
  631000    1.0111687   -7.6744266    161.54592  0.021334643  0.021545669            1 
  632000   0.99840687     -7.68389    161.06345  0.021237269  0.021528646            4 
  633000   0.99103917    -7.671325    161.51939  0.021263743  0.021511886            7 
  634000    1.0119357   -7.6026822     162.5014  0.021359279  0.021495634            7 
  635000   0.99118399   -7.6694876    162.37142  0.021308585  0.021479137            3 
  636000    1.0067688   -7.6466368    162.16251  0.021247708  0.021462413            2 
  637000   0.98971548   -7.6599691    162.14395  0.021211925  0.021445622            2 
  638000    1.0208291   -7.6491448    161.43343  0.021085871  0.021428709            2 
  639000    1.0181083   -7.6437334    162.27503  0.021162628  0.021411747            9 
  640000    0.9955161   -7.6566551    162.03495    0.0210983   0.02139477            6 
  641000   0.98723148   -7.6690983    162.44105  0.021118181  0.021377833           10 
  642000   0.98412047   -7.6654654    162.81677  0.021134056  0.021360969            3 
  643000    1.0048121   -7.6659635    162.63489  0.021077616  0.021343705            3 
  644000    1.0062765    -7.676205    162.94851   0.02108547   0.02132676            3 
  645000    1.0052261   -7.6676655    162.95484  0.021053597  0.021309997            8 
  646000   0.98688106   -7.6835283     162.6113   0.02097669  0.021293165            5 
  647000   0.98821024   -7.6448163    163.25509  0.021027188   0.02127615            8 
  648000   0.99831717   -7.6577168    163.52681  0.021029682  0.021258845            3 
  649000   0.97905509   -7.6823535    163.37708  0.020978053  0.021241677            8 
  650000    1.0153414    -7.674736    163.20334  0.020923505  0.021224203            3 
  651000    1.0038593    -7.685624    163.45634  0.020923751  0.021206399            2 
  652000    1.0072003   -7.6675449    164.05694  0.020968423  0.021188769            7 
  653000   0.98560112   -7.6697239    163.45287  0.020859223  0.021171365            5 
  654000     1.005758   -7.6661049    163.52739  0.020836823  0.021153957            6 
  655000    1.0052277   -7.6550083    163.84543  0.020845474  0.021136577            5 
  656000    0.9928887   -7.7067872    163.73779  0.020800024  0.021119103            3 
  657000   0.98242069   -7.6425314    163.94145  0.020794197  0.021101717            5 
  658000    0.9872002   -7.6966831     163.7449  0.020737703  0.021084364            6 
  659000    0.9853021   -7.6934568    164.45779  0.020796382  0.021066642            6 
  660000   0.98531871    -7.701656    164.08398  0.020717675  0.021048857            5 
  661000   0.98635321   -7.7228608    163.94738   0.02066911  0.021031493            4 
  662000    0.9997696   -7.7189726    163.88454  0.020629977  0.021014007            6 
  663000    1.0026931   -7.6825359    164.75371  0.020708109  0.020996398           12 
  664000    1.0012173   -7.6925138    164.68008   0.02066768  0.020978799            6 
  665000   0.99599794   -7.6891848    164.98471  0.020674776  0.020961247            5 
  666000   0.99552975   -7.7181586    165.04475  0.020651245  0.020943659            6 
  667000   0.96021232   -7.7517385    164.88206  0.020599957  0.020925995            4 
  668000   0.98804798   -7.7158889    165.01931  0.020586241  0.020908559            4 
  669000   0.98070601   -7.6177506    165.91857  0.020667485  0.020891501            3 
  670000   0.99001458   -7.6945586     165.8058  0.020622612  0.020874639            2 
  671000    1.0051503   -7.6822687    165.72102  0.020581348  0.020857545            5 
  672000   0.99997638   -7.6643797    165.83863  0.020565306  0.020839987            2 
  673000   0.99562179   -7.6662628    165.98828  0.020553279  0.020822334            2 
  674000    0.9963171   -7.6550207    165.97872  0.020521602  0.020804518            6 
  675000   0.98796305    -7.697748    166.03267  0.020497861    0.0207867            2 
  676000   0.98302198   -7.7171669    165.62496  0.020417278  0.020768859            4 
  677000   0.99979145   -7.6851355    166.41613  0.020484506  0.020751222            3 
  678000   0.98234425   -7.7036458    166.23145  0.020431594  0.020733644            7 
  679000    1.0032798    -7.679466    166.28734  0.020408362  0.020715917            3 
  680000    1.0060508   -7.6788473    166.34984  0.020386009  0.020698249            4 
  681000   0.98490158   -7.7313923    166.09019  0.020324302  0.020680609            4 
  682000   0.96921442   -7.7123429    166.58709  0.020355216  0.020663051            5 
  683000   0.97806637   -7.7035786    167.14127  0.020393029  0.020645454            3 
  684000   0.97453882   -7.6761871    167.24267  0.020375569  0.020628007            5 
  685000   0.98068056   -7.7367973    167.10916  0.020329581  0.020610381            5 
  686000   0.96952064   -7.7331397    167.13493  0.020303077  0.020592802            6 
  687000   0.96777039   -7.7126974    167.49681   0.02031742  0.020575184            6 
  688000   0.98335785   -7.7306631    167.57197  0.020296993  0.020557709            9 
  689000   0.96953885   -7.6855093    168.13249  0.020335328   0.02054019           15 
  690000   0.98888821   -7.7083759    167.44124  0.020222372  0.020522789            3 
  691000   0.99089417   -7.7294583    167.70307  0.020224683  0.020505326            7 
  692000   0.99801626    -7.725611     167.7777  0.020204443   0.02048811            4 
  693000   0.99357029   -7.7350141    168.46406  0.020257823  0.020471044            6 
  694000   0.98811607   -7.7370599    167.97237  0.020169593   0.02045397            2 
  695000    0.9888654   -7.7658709    168.62385  0.020218687   0.02043689            4 
  696000   0.99227293   -7.7752265    168.33651  0.020155234  0.020419896            3 
  697000   0.95031713   -7.7695347    168.38515  0.020132132  0.020402457           11 
  698000   0.98586772   -7.7549612    168.86199  0.020160219   0.02038543            5 
  699000   0.97057129   -7.7441841    169.15489  0.020166296  0.020368346            7 
  700000   0.98221014   -7.7238479    169.26907   0.02015108  0.020351214            4 
  701000   0.95492495   -7.7097145    169.09438  0.020101566  0.020334097            4 
  702000   0.98544026   -7.7110825    169.57276   0.02012972   0.02031711            6 
  703000   0.97314854   -7.7018178    169.28936  0.020067492  0.020300118            6 
  704000   0.96604343   -7.7095935     169.6086  0.020076775  0.020283267            3 
  705000   0.97596279    -7.764596    169.65355  0.020053611  0.020266339            3 
  706000   0.99857272    -7.756319    169.67362  0.020027576  0.020249504            3 
  707000   0.95057399   -7.7142113    170.55595  0.020103248  0.020232926            5 
  708000   0.97510595   -7.7200296    170.71588  0.020093677  0.020216493            2 
  709000   0.98611981   -7.7399274     170.3951  0.020027632  0.020199822            7 
  710000    0.9809374   -7.7396417    170.13067  0.019968389  0.020183013            7 
  711000     0.975267   -7.7376542    170.79081  0.020017676  0.020166213            4 
  712000    0.9622196   -7.7149943    170.64856  0.019972912   0.02014932            3 
  713000   0.98092643   -7.7411873    170.63343  0.019943131  0.020132596            2 
  714000   0.98290924   -7.7648356    170.50617  0.019900346  0.020115836            4 
  715000   0.95508799   -7.7556596    170.80859  0.019907761  0.020098794           13 
  716000    1.0039724   -7.7534074    171.31587  0.019938997  0.020081905            6 
  717000   0.96964056   -7.7419542    170.97543  0.019871621  0.020065066            2 
  718000   0.96843122   -7.7272653    171.79412  0.019938965   0.02004845            8 
  719000   0.94646891    -7.744473    171.50302  0.019877494  0.020032044            7 
  720000   0.98147569   -7.7557805    171.36549  0.019833969  0.020015278            5 
  721000   0.98316151   -7.7733115    171.09713  0.019775443  0.019998417            3 
  722000   0.97940795   -7.7585218    171.15491  0.019754722  0.019981715            5 
  723000   0.95172633   -7.7917115    171.55769  0.019773823  0.019964824            2 
  724000   0.95934022   -7.7823194    171.67932  0.019760511  0.019947918            6 
  725000   0.96361623   -7.7692363    171.55563  0.019719038   0.01993077            6 
  726000   0.96465893   -7.7470556    171.93478  0.019735397  0.019913589           13 
  727000   0.98885197   -7.8173114    171.68319  0.019679412  0.019896466            7 
  728000   0.96339478   -7.7953899    171.48137  0.019629278  0.019879208            3 
  729000   0.95114145   -7.7852042    172.29838  0.019695745    0.0198621            2 
  730000   0.98186902   -7.7861623     171.5448   0.01958274  0.019844944            4 
  731000   0.95536885   -7.7678072    171.99485  0.019607256  0.019828054            3 
  732000   0.97558394   -7.7891517    171.97013  0.019577656  0.019811003            5 
  733000   0.94815441   -7.7861853    172.14889   0.01957127   0.01979377            4 
  734000   0.96735172   -7.7808362    172.27226  0.019558612  0.019776839            8 
  735000   0.95286733    -7.801812     172.3709  0.019543186  0.019759774            4 
  736000   0.94995065   -7.8120658    172.47344  0.019528243  0.019742522            4 
  737000   0.94903305   -7.7931958    172.09888  0.019459394  0.019725093            6 
  738000   0.96296714   -7.8086076    172.33806  0.019460034  0.019707905            9 
  739000   0.93993614   -7.7829489    172.56116  0.019458859   0.01969073           10 
  740000    0.9356744   -7.7588424    172.97315  0.019478958  0.019673557            7 
  741000   0.96418857   -7.7911846    172.88649  0.019442925  0.019656402           10 
  742000   0.95095288   -7.7565481    172.95324  0.019424218  0.019639361            5 
  743000   0.92642038   -7.7450358    173.32719  0.019440017  0.019622119            6 
  744000   0.97436284   -7.7660106    173.12813  0.019391592  0.019605112            3 
  745000   0.95989586   -7.7766584    173.31547  0.019386518  0.019587932            9 
  746000   0.96043155    -7.845562    172.53153  0.019272959  0.019570613            2 
  747000    0.9429885   -7.7793417     173.7481  0.019382876  0.019553312            4 
  748000   0.96428635   -7.8035528    173.44577  0.019323281  0.019536099            2 
  749000   0.96235855   -7.8126039    173.13318  0.019262703  0.019518964            5 
  750000   0.96450384   -7.7908317    173.44641  0.019271823  0.019501686            3 
  751000    0.9587563   -7.7836263    173.57202    0.0192601  0.019484377            4 
  752000   0.96549556   -7.7767847    173.44147  0.019220021   0.01946717            6 
  753000   0.94775152   -7.7849238    174.00875  0.019257276  0.019449934            6 
  754000   0.95717487   -7.7778227    174.17694  0.019250325  0.019432856            7 
  755000   0.94336018   -7.7672922    174.77048   0.01929034  0.019415914            2 
  756000   0.97626854   -7.7588716    174.58165  0.019244009  0.019398997            5 
  757000   0.96104149   -7.7282225    174.76559  0.019238836  0.019382154            6 
  758000   0.93117957   -7.7756965    174.66574  0.019202478  0.019365125            3 
  759000   0.95058893   -7.7865641    174.10137  0.019115214  0.019348012            3 
  760000   0.93571975   -7.7956457    174.56481  0.019140879  0.019330832            4 
  761000    0.9384215   -7.8348654    174.56188  0.019115405  0.019313755            2 
  762000   0.95679738   -7.8338629    174.76464  0.019112493  0.019296667            7 
  763000     0.948764   -7.8494423    174.34098  0.019041173  0.019279447            7 
  764000   0.96318154   -7.8081074    174.37038  0.019019457  0.019262364            6 
  765000   0.95685883   -7.8100526    175.54532  0.019122583  0.019245352            9 
  766000   0.94354872   -7.7710126    175.53932  0.019096967  0.019228739            4 
  767000   0.93928734   -7.7777556    175.56667   0.01907504  0.019212376           10 
  768000   0.94952236   -7.7917906    176.07857  0.019105748  0.019195832            6 
  769000   0.96441993   -7.8248634    175.57838  0.019026699  0.019179236           10 
  770000   0.93486663   -7.7963242    176.41879  0.019092942  0.019162751            9 
  771000   0.93103527   -7.8032989    175.83479  0.019005057  0.019146372            8 
  772000   0.92721149   -7.7964067    176.56292  0.019059037  0.019129994            5 
  773000   0.93550528   -7.7916784    176.63422  0.019042067  0.019113578            6 
  774000   0.93577195   -7.8211972    176.10697  0.018960698  0.019097113            6 
  775000   0.92940327   -7.8324475     176.1819   0.01894429  0.019080697           16 
  776000   0.93866829   -7.8133552    176.11737  0.018912947  0.019064252            4 
  777000   0.92487022   -7.8076994    176.91308  0.018973946  0.019047584            6 
  778000   0.93083419   -7.8268624    176.28462  0.018882243  0.019031007            5 
  779000   0.92124068   -7.8345988     176.3004  0.018859692   0.01901456            5 
  780000   0.92502003   -7.8510806     176.7879  0.018887596  0.018997738            4 
  781000   0.94459537   -7.8432298     176.4755  0.018830079  0.018981112           12 
  782000   0.94809695   -7.8489933      176.457  0.018804028  0.018964485            4 
  783000   0.94216219   -7.8107034    177.24369  0.018863738  0.018947864            2 
  784000   0.94174714    -7.818086    177.04828  0.018818907  0.018931231            4 
  785000   0.93554402   -7.8297711      177.251  0.018816455  0.018914692            2 
  786000   0.95086962   -7.8524412    177.36834  0.018804955  0.018898217            3 
  787000   0.96573112   -7.8441752     177.2243  0.018765809  0.018881543            3 
  788000   0.94436041   -7.8494774    177.80587  0.018803497  0.018864935           11 
  789000   0.93951846   -7.8283267    177.67509  0.018765853  0.018848306            7 
  790000   0.94004194   -7.8373772    177.45659   0.01871905  0.018831634            3 
  791000   0.96487001   -7.8443788    177.44582   0.01869425  0.018814964            4 
  792000   0.92416127   -7.8627482    177.74119  0.018701724  0.018798378            9 
  793000   0.94544049   -7.8187611    178.07792  0.018713527  0.018782067            8 
  794000   0.93507418   -7.8714065    177.71885  0.018652272  0.018765887            5 
  795000   0.92221005   -7.8605074    178.31172  0.018690955  0.018749647            3 
  796000   0.95256079   -7.8219659    178.40017  0.018676735  0.018733474            7 
  797000    0.9321395   -7.8337372    178.56765  0.018670812   0.01871744            5 
  798000   0.93715765   -7.8643003    178.44637  0.018634751  0.018701379            9 
  799000   0.92482376   -7.8221568    178.57789  0.018625145  0.018685299            6 
  800000   0.94521251   -7.8366238    178.80731  0.018625762  0.018669269            3 
  801000   0.93816624   -7.8438973    179.11839  0.018634872  0.018653204            4 
  802000   0.92889268   -7.8488331     178.5551  0.018553107  0.018637068            5 
  803000   0.92397193   -7.8493667    179.46555  0.018624486  0.018620926            3 
  804000    0.9327935   -7.8625525     179.4218  0.018596787  0.018604924            7 
  805000   0.92517297   -7.8454134    179.43704  0.018575263  0.018588884            2 
  806000   0.91213168    -7.894758    179.09344  0.018516692  0.018572892           11 
  807000   0.92840491   -7.8544165    179.24377   0.01850927  0.018556874            2 
  808000   0.93531772   -7.8431732    179.57563  0.018520589  0.018540933            4 
  809000   0.94218901   -7.8693502    179.82555   0.01852344  0.018525253            5 
  810000   0.91451142    -7.865334    180.17879  0.018536913  0.018509804            2 
  811000   0.91706843   -7.8978128    179.86841  0.018482162  0.018494183            2 
  812000   0.93185313   -7.8467108    180.26141  0.018499734  0.018478447            3 
  813000   0.92531979   -7.8517008    179.99293   0.01844946  0.018462722            5 
  814000   0.93311672   -7.8841876    180.31793  0.018460067  0.018447093            3 
  815000   0.94422776   -7.8678075    180.90404  0.018497345  0.018431445            3 
  816000   0.92647788   -7.8961995     180.0074  0.018383108  0.018415793           11 
  817000   0.93840059    -7.907263    180.46445  0.018407226   0.01840009            4 
  818000   0.94355137   -7.8779265    180.76025  0.018414858  0.018384356            6 
  819000   0.90740997   -7.8593994      180.813  0.018397742  0.018368727            6 
  820000   0.92460181   -7.8977273    180.25594  0.018318693  0.018353039            8 
  821000   0.94488448   -7.8922587    180.43349  0.018314403  0.018337352            4 
  822000   0.90987263    -7.904009    180.58271   0.01830725  0.018321502            4 
  823000   0.91905605   -7.8880006    181.00376  0.018327639  0.018305593            5 
  824000   0.93506497   -7.9107455    179.92223  0.018196019  0.018289595            3 
  825000   0.92795878   -7.9070399    180.88807  0.018271522  0.018273618            4 
  826000   0.93638747   -7.8918109    180.95755  0.018256412  0.018257676            2 
  827000   0.92942422   -7.9398469    181.28933  0.018267769  0.018241914            6 
  828000   0.91476883   -7.9069807    180.81228  0.018197693  0.018226058           10 
  829000   0.91461795   -7.9174663    180.78813  0.018173315  0.018210191           10 
  830000   0.92444938    -7.891893    181.32216  0.018205036  0.018194537           17 
  831000   0.93135477   -7.8600392    181.64109  0.018215112  0.018178937            5 
  832000   0.93127623    -7.858053    181.75711  0.018204839  0.018163208            5 
  833000   0.94634459   -7.8682231    181.66843  0.018174112  0.018147508            4 
  834000   0.92054823   -7.8463229     181.7657  0.018162041  0.018131974            4 
  835000   0.92377991   -7.8568536    181.85756  0.018149457  0.018116443           19 
  836000   0.90668386   -7.8161243    182.41845  0.018183657  0.018100925            5 
  837000   0.93469052   -7.8958272    181.55048  0.018075516  0.018085172            5 
  838000   0.90774999    -7.848951    181.77493  0.018076266  0.018069317            6 
  839000   0.91800773   -7.8721076    182.03709   0.01808076   0.01805348           14 
  840000   0.91987168   -7.9093722    181.58917  0.018014799  0.018037751            5 
  841000   0.92490687   -7.9044321    182.07361   0.01804138  0.018022203            6 
  842000   0.90884027   -7.8972734    181.94398  0.018007124  0.018006604            5 
  843000   0.92367528   -7.8784588    182.22259  0.018013305  0.017991052            4 
  844000   0.92049854   -7.8844846    182.70131  0.018039229  0.017975515            4 
  845000   0.91940046   -7.9187854    182.20614  0.017969047  0.017960061            3 
  846000   0.90204803   -7.9161551     181.9345   0.01792105  0.017944315            5 
  847000   0.91253593   -7.9090085    182.46867  0.017952447  0.017928541            2 
  848000   0.89575596   -7.9122366    182.46493  0.017930909  0.017912838            2 
  849000   0.91006655   -7.8751866    182.99579  0.017961895  0.017897128            7 
  850000    0.9007583   -7.9185864     182.3597  0.017878402  0.017881432            5 
  851000   0.92527362   -7.9347483    182.59346  0.017880284  0.017865606            6 
  852000   0.93197535   -7.9048091    182.14762  0.017815691  0.017849777            4 
  853000   0.92166074   -7.9096007    182.46422  0.017825734  0.017833917            3 
  854000   0.91734667   -7.9283082    182.64882  0.017822875   0.01781815            9 
  855000   0.90232806   -7.9143732    182.52052  0.017789524  0.017802414            9 
  856000   0.90989023   -7.8926634    183.55006   0.01786897  0.017786926           11 
  857000   0.91722411   -7.9247126    183.02259  0.017796829  0.017771311            5 
  858000   0.92270714   -7.9330357    183.11829  0.017785382   0.01775572            4 
  859000   0.89832914   -7.9526144    183.13999  0.017766782  0.017740089            6 
  860000    0.8871995   -7.9626447    183.50713  0.017781699  0.017724395            5 
  861000   0.92757746   -7.9535315    182.89327  0.017701633  0.017708689           10 
  862000   0.92022865   -7.9364276    183.13449  0.017704417  0.017693033            4 
  863000   0.88967597   -7.9134219     183.2713  0.017697113  0.017677415           12 
  864000   0.91163333   -7.9016732    183.58512  0.017706898  0.017661865           10 
  865000   0.91718296   -7.9070523    184.25072  0.017750551  0.017646412            8 
  866000   0.89786905   -7.9365908    183.37057  0.017645359  0.017630965            4 
  867000   0.93121059   -7.9255262    183.25192  0.017613603  0.017615498           17 
  868000   0.91450674   -7.9139502    183.99258  0.017664419  0.017599995            5 
  869000   0.92155514   -7.9428992    183.71847  0.017617805   0.01758449            4 
  870000    0.9054026   -7.9341827    183.30354   0.01755781  0.017568864            4 
  871000   0.90885527    -7.916762    184.07369  0.017611337  0.017553241            5 
  872000   0.91506662   -7.9031358     184.3679  0.017619257  0.017537488           14 
  873000   0.90029942   -7.9419364     183.3649  0.017503331  0.017521877            4 
  874000   0.93560221   -7.9224216    183.82062  0.017526757   0.01750622            6 
  875000   0.91591122   -7.9316781     184.0921  0.017532581  0.017490557           12 
  876000   0.87773502   -7.9249996    183.98062  0.017501962  0.017474958            4 
  877000   0.88416659   -7.9175465    183.86645  0.017471157  0.017459247            4 
  878000   0.91920084   -7.9512279    184.13137  0.017476402  0.017443446            5 
  879000    0.9196907    -7.953555    183.83983   0.01742888  0.017427645           18 
  880000   0.91683256   -7.9603419    183.98214  0.017422552  0.017411965           28 
  881000   0.89474626   -7.9843896    183.78961  0.017384564  0.017396322           45 
  882000   0.92284161   -7.9753443    184.24245  0.017407639  0.017380661           32 
  883000    0.9137972   -7.9515819    184.61744  0.017423314  0.017365075           19 
  884000    0.8960753   -7.9672953    184.15826  0.017360318  0.017349414           42 
  885000    0.9023495   -7.9828457     184.1617  0.017341027  0.017333667           13 
  886000   0.91705049   -7.9535746    184.53648  0.017356704   0.01731809           31 
  887000   0.89573599   -7.9650172    184.73854  0.017356119   0.01730266           41 
  888000   0.90069393   -7.9522931    184.84718   0.01734677  0.017287171           28 
  889000   0.89058475   -7.9472187    184.76697  0.017319738   0.01727161           29 
  890000   0.90407812   -7.9217314    185.21897    0.0173426  0.017256204           44 
  891000   0.88762422   -7.9635434    184.83032  0.017286786  0.017240778           33 
  892000   0.90658107   -8.0021639    184.92633  0.017276376  0.017225322           47 
  893000   0.89208594   -8.0046505     184.2938  0.017198003  0.017209808           42 
  894000   0.90740419   -7.9321985     185.2257  0.017265632  0.017194232           36 
  895000   0.90071802   -7.9591151    185.29863  0.017253132  0.017178813           42 
  896000   0.90130522   -7.9556071    185.40299  0.017243581  0.017163288           57 
  897000    0.8633172   -7.9807976    184.99763  0.017186699  0.017147814           62 
  898000    0.9103838   -7.9636563    185.20271  0.017186591  0.017132404           58 
  899000   0.90065788   -7.9973084    184.95818  0.017144807  0.017116944           48 
  900000   0.90168482   -7.9811177    185.09036  0.017137996  0.017101282           81 
  901000   0.87607151   -7.9578861    185.65658  0.017171345  0.017085666           91 
  902000   0.87824161   -7.9662144    184.67819  0.017061917  0.017070197           75 
  903000   0.87675141   -7.9749853     185.2199  0.017093014  0.017054631           85 
  904000   0.87609105   -7.9882683    185.16157  0.017068728  0.017039135           79 
  905000   0.89809187   -7.9891179    185.94611   0.01712211   0.01702371           72 
  906000   0.89818828    -7.991016    185.32893  0.017046443   0.01700828           93 
  907000   0.89273623   -7.9811292    185.40189  0.017034353  0.016992785           85 
  908000   0.86830412   -7.9882328    184.99056  0.016977841  0.016977268           72 
  909000   0.88080613    -8.010495    186.00969  0.017052594  0.016961806           87 
  910000   0.90572455   -7.9867379    185.44035  0.016981717  0.016946405           58 
  911000   0.88787424   -7.9932576    185.72634  0.016989237  0.016930911           65 
  912000   0.88726827   -8.0135928    185.80035  0.016977372  0.016915429           55 
  913000   0.89142676   -8.0151312    185.40329  0.016922535  0.016899967           98 
  914000   0.87527389   -8.0007395    185.64985    0.0169265  0.016884484           81 
  915000   0.88068937   -7.9878898    186.11997  0.016950817  0.016869111           90 
  916000   0.88320801   -7.9970979    185.90898  0.016913117    0.0168537           83 
  917000   0.88789383    -8.008748     185.9914  0.016902163   0.01683815           91 
  918000   0.88948685   -8.0011494    186.24933  0.016907165  0.016822812           77 
  919000     0.876632   -7.9946313    186.03375   0.01686922  0.016807418           85 
  920000   0.89154012   -8.0517261    185.70687  0.016821275  0.016792113          102 
  921000   0.89917663   -8.0157429    186.54907  0.016879214   0.01677682          113 
  922000   0.88848779   -8.0417515    185.99126   0.01681049  0.016761378          100 
  923000   0.87482066   -8.0378153    186.00936  0.016793911  0.016745961          129 
  924000   0.89638158    -8.039084    185.97618  0.016772743  0.016730587          138 
  925000   0.89582051   -8.0855321    185.86106   0.01674424  0.016715281          168 
  926000   0.87294345   -8.0439587    186.23052  0.016759406  0.016699821          154 
  927000   0.89255048   -8.0586435    186.11028  0.016730518  0.016684412          139 
  928000   0.88662627   -8.0620137    186.25367  0.016725365  0.016669099          154 
  929000   0.88239477   -8.0645592    186.67321  0.016744995  0.016653685          162 
  930000   0.88011499   -8.0461475    186.25699  0.016689694  0.016638376          137 
  931000   0.87605309   -8.0421052    186.86984  0.016726623  0.016623196          152 
  932000    0.8688842   -8.0742949    186.71017    0.0166944  0.016607963          180 
  933000   0.88500773   -8.0411631     186.6653    0.0166725  0.016592665          148 
  934000   0.87501233   -8.0294735    187.15465  0.016698309  0.016577526          182 
  935000   0.87675695   -8.0705296    186.70994  0.016640814  0.016562482          229 
  936000   0.86154101   -8.0792491    187.25172  0.016671272  0.016547369          227 
  937000   0.89131414   -8.0565645     186.9192  0.016623906  0.016532203          203 
  938000     0.895956   -8.0626029    187.22643  0.016633478  0.016517073          224 
  939000   0.89296529    -8.092118    187.07566  0.016602384  0.016501965          248 
  940000    0.8676661   -8.0942025    187.21403  0.016596989  0.016486834          280 
  941000   0.87171977     -8.08781    187.65051  0.016618005  0.016471708          238 
  942000   0.87180949   -8.0653327    187.67248  0.016602307  0.016456548          301 
  943000   0.88475753   -8.1227152    187.91227  0.016605892  0.016441407          347 
  944000   0.89983954   -8.0871102    187.48086  0.016550217  0.016426296          346 
  945000   0.88355524   -8.1043101    187.81395  0.016562076  0.016411277          379 
  946000   0.85956473   -8.1439091    186.94632  0.016468139   0.01639613          406 
  947000   0.87100788   -8.1427299    187.37992  0.016488905  0.016380907          387 
  948000   0.88112516   -8.1000022    187.53601  0.016485233  0.016365788          441 
  949000   0.84767075   -8.1436992    188.16155  0.016522791  0.016350706          460 
  950000   0.88158166   -8.0994719    187.80657   0.01647426  0.016335631          502 
  951000   0.87682797   -8.1742394    187.33081  0.016415248  0.016320479          521 
  952000   0.85810326   -8.1367967    187.63037  0.016424227  0.016305348          527 
  953000     0.878669   -8.1471684     187.0976  0.016360406  0.016290236          512 
  954000    0.8605569   -8.1445162    187.43093  0.016372373  0.016275189          529 
  955000   0.84378101   -8.1556612     187.6327  0.016372836  0.016260089          585 
  956000   0.88119212   -8.1874039    187.31866  0.016328335  0.016244863          690 
  957000   0.88776937   -8.1775914    187.67076  0.016341933  0.016229711          673 
  958000   0.87740491   -8.1611275    187.14496  0.016279137  0.016214448          728 
  959000   0.86818554   -8.2258756    187.23066  0.016269609  0.016199138          787 
  960000    0.8640084   -8.2202438    187.01318  0.016233783  0.016183771          810 
  961000     0.851727   -8.2210073    187.17268  0.016230721  0.016168398          842 
  962000   0.85565996   -8.2544123    187.31728  0.016226375  0.016152966          853 
  963000   0.86929542   -8.2258174    187.01971  0.016183776  0.016137526          883 
  964000    0.8846928   -8.2813382    187.22586  0.016184808  0.016122041          942 
  965000   0.85775336   -8.2786427    186.95507  0.016144652  0.016106476         1025 
  966000   0.88026543   -8.2703785    186.68626   0.01610475  0.016090799         1074 
  967000   0.86664482   -8.3337529    186.64185  0.016084268  0.016075103         1142 
  968000   0.86765196   -8.3332524    186.42642  0.016049106  0.016059229         1274 
  969000   0.86233935   -8.3431295    186.28938  0.016020758  0.016043338         1256 
  970000   0.87730075    -8.363031    186.38909  0.016012809  0.016027466         1296 
  971000   0.86240198   -8.3663071    186.01566  0.015964269  0.016011385         1409 
  972000     0.849361   -8.3846272    185.74495  0.015924636  0.015995211         1549 
  973000   0.85532478   -8.4020579    185.86489  0.015918541  0.015979114         1516 
  974000   0.86974209   -8.4160478     185.8672  0.015902396  0.015962923         1539 
  975000   0.86206097   -8.4149265    185.76935  0.015877722  0.015946751         1624 
  976000   0.86854037   -8.4528749    185.81006   0.01586493  0.015930547         1722 
  977000   0.87474952   -8.4738927    185.63485  0.015833747  0.015914174         1832 
  978000   0.85701601     -8.48458     185.5659  0.015811682  0.015897678         1884 
  979000   0.85623391   -8.5404092    185.13826   0.01575913  0.015881088         2033 
  980000    0.8440978   -8.5369222    184.72538   0.01570794  0.015864438         2042 
  981000   0.86707833   -8.5203713    185.18204   0.01573072  0.015847722         2053 
  982000   0.86051375   -8.5596795    184.70923  0.015674578  0.015831034         2093 
  983000    0.8635448   -8.5312851    184.85525  0.015671012  0.015814284         2141 
  984000    0.8716127   -8.5583087    184.70212  0.015642117  0.015797468         2193 
  985000   0.87157735   -8.5310571    184.94437  0.015646732  0.015780665         2242 
  986000    0.8664592   -8.6055313    184.32253  0.015578307  0.015763757         2363 
  987000   0.86001069   -8.6047782    183.89618  0.015526526  0.015746775         2478 
  988000   0.89209335   -8.6125837    184.29957  0.015544836  0.015729736         2489 
  989000   0.85862927    -8.657965    183.80843  0.015487734  0.015712618         2597 
  990000   0.86358069   -8.6778816    183.86743  0.015477056  0.015695376         2695 
  991000   0.86031099    -8.679394     183.7276   0.01544968  0.015678109         2736 
  992000   0.87031057   -8.7057121    183.49508  0.015414573  0.015660786         2824 
  993000   0.87060785   -8.7474931    183.42035  0.015392779  0.015643311         3033 
  994000    0.8501013   -8.7461679    183.08646  0.015349301  0.015625708         3011 
  995000   0.86093697   -8.7688218    183.23401  0.015346232  0.015607987         3146 
  996000   0.84280063   -8.7972821    182.78062   0.01529289  0.015590265         3218 
  997000   0.85337415   -8.8031008    182.95731  0.015292319  0.015572477         3268 
  998000   0.83548587   -8.8403442    182.73198  0.015258181   0.01555463         3454 
  999000   0.86156288   -8.8757665    182.34371   0.01521052  0.015536606         3520 
 1000000   0.83770675    -8.874756    181.80592  0.015150493  0.015518575         3512 
 1001000   0.87023603   -8.8814705      181.945  0.015146936  0.015500475         3634 
 1002000    0.8287476   -8.8892567    182.05752  0.015141178  0.015482405         3573 
 1003000   0.84516058   -8.8878203    182.13937  0.015132882  0.015464357         3679 
 1004000   0.85816194   -8.8731589    182.01313  0.015107331  0.015446233         3639 
 1005000   0.84314832   -8.9138289    181.87169  0.015080571  0.015428136         3685 
 1006000   0.84789518   -8.9204524    181.90886  0.015068659  0.015410045         3672 
 1007000   0.86658079   -8.9232079    181.82705  0.015046926   0.01539192         3685 
 1008000   0.87254067   -8.9038505    181.98232  0.015044835   0.01537381         3683 
 1009000   0.83743335   -8.9489898    181.45402  0.014986292  0.015355656         3749 
 1010000   0.86191497   -8.9265919    181.27565  0.014956737  0.015337488         3755 
 1011000    0.8435055   -8.9374638    182.00776  0.015002288  0.015319342         3734 
 1012000    0.8542376   -8.9273465    181.40513   0.01493784  0.015301211         3692 
 1013000   0.84665861   -8.9119811    181.70305  0.014947602  0.015283069         3762 
 1014000   0.84928663   -8.9519384     181.4155  0.014909229  0.015264966         3762 
 1015000   0.85058671    -8.951473    181.43666  0.014896278  0.015246849         3768 
 1016000   0.83583896    -8.970006    181.54587  0.014890574   0.01522872         3804 
 1017000   0.85313683   -8.9655092     181.3997  0.014863955  0.015210605         3769 
 1018000   0.82163417    -8.977173    181.48039  0.014855959  0.015192484         3773 
 1019000   0.83617215    -8.960838    181.87871  0.014873954  0.015174352         3793 
 1020000    0.8527746   -8.9724663    181.33192    0.0148147  0.015156225         3821 
 1021000   0.85370716   -8.9928368    181.55828  0.014818665   0.01513809         3809 
 1022000   0.83668999   -8.9705048    180.99397  0.014758152  0.015120002         3820 
 1023000   0.84090031   -8.9533602    181.55443   0.01478938  0.015101978         3788 
 1024000   0.86964802   -8.9747173    181.66572  0.014783994  0.015083922         3769 
 1025000   0.82485932   -8.9926367     181.0028  0.014715675  0.015065882         3800 
 1026000   0.83586677   -8.9773822    181.21228  0.014718346  0.015047812         3782 
 1027000   0.84800197   -8.9902782    180.93995  0.014681918  0.015029769         3829 
 1028000    0.8319062   -8.9827218    181.31292   0.01469787  0.015011764         3822 
 1029000   0.85400807   -8.9655056    181.24709  0.014678255   0.01499373         3809 
 1030000   0.84009958   -9.0015397    181.43899   0.01467953  0.014975731         3837 
 1031000   0.84831428   -8.9849862    181.22233   0.01464778  0.014957728         3830 
 1032000   0.85857137   -8.9882446    181.41962  0.014649517  0.014939739         3837 
 1033000   0.82722015   -8.9929976    180.87774  0.014591622   0.01492176         3796 
 1034000   0.85416687   -8.9776838    181.41188  0.014620557  0.014903796         3816 
 1035000   0.83007015   -9.0098464    181.45421   0.01460984  0.014885881         3812 
 1036000   0.83685853    -8.996307    181.11197  0.014568209  0.014867943         3807 
 1037000    0.8397767   -9.0228611    180.85049  0.014533148  0.014850019         3832 
 1038000   0.82791395   -9.0097753    181.63437  0.014582078  0.014832094         3830 
 1039000   0.84555767   -8.9903878    181.08681  0.014524127  0.014814213         3856 
 1040000   0.85727581    -9.010453    180.84352  0.014490667  0.014796335         3813 
 1041000   0.84754648   -9.0191155    180.99721   0.01448905  0.014778464         3826 
 1042000   0.81995994   -9.0109928    180.94831  0.014471234   0.01476062         3854 
 1043000   0.83114338    -8.993181    181.17058  0.014475118  0.014742793         3818 
 1044000   0.83716953   -8.9983448    180.87771  0.014437876  0.014724993         3816 
 1045000   0.84245478   -8.9758608    181.32982  0.014460113  0.014707225         3840 
 1046000   0.85484307   -9.0489235    180.51466  0.014381347  0.014689458         3833 
 1047000   0.87137461   -9.0134918    181.32686  0.014432256  0.014671692         3827 
 1048000   0.83133281   -9.0233872    181.18748  0.014407401  0.014653935         3814 
 1049000   0.82275096   -8.9959356    181.14691  0.014390444  0.014636207         3883 
 1050000   0.82749309   -9.0148318    181.03638  0.014367967  0.014618464         3872 
 1051000    0.8425633   -8.9889458    180.76517  0.014332791  0.014600782         3862 
 1052000   0.81583508   -9.0287716    180.95774  0.014334422  0.014583089         3858 
 1053000   0.85252853   -9.0541883    181.20873  0.014340672  0.014565411         3881 
 1054000   0.83478301   -9.0339718    180.82326  0.014296589  0.014547734         3871 
 1055000   0.83428951   -9.0203066     181.2383  0.014315821   0.01453006         3869 
 1056000   0.84046351   -9.0386045    180.77379  0.014265608  0.014512442         3858 
 1057000   0.83161081   -9.0227169    181.01595  0.014271204  0.014494839         3877 
 1058000   0.82915053   -9.0386619    180.95463  0.014252885  0.014477285         3887 
 1059000   0.82558571   -9.0336293    180.59044  0.014210768  0.014459716         3850 
 1060000   0.82993613   -9.0650972    180.33608  0.014177365  0.014442129         3894 
 1061000   0.81787884    -9.039845    180.77866  0.014198764  0.014424581         3862 
 1062000   0.83362949   -9.0535175    180.54716  0.014167228  0.014407069         3882 
 1063000   0.83061667   -9.0354815    180.78831  0.014172805   0.01438958         3855 
 1064000   0.82092282   -9.0023661     181.0791  0.014182261  0.014372077         3850 
 1065000   0.79279994   -9.0274269    180.65422  0.014135698  0.014354612         3889 
 1066000   0.83109656   -9.0590652    180.82079  0.014135459  0.014337157         3870 
 1067000    0.7980695   -9.0224258    180.61224  0.014105923  0.014319734         3858 
 1068000   0.83521185   -9.0305173    180.65567  0.014096104    0.0143023         3887 
 1069000   0.81468936   -9.0366581    181.05948  0.014114397  0.014284871         3860 
 1070000   0.81113834   -9.0378719    180.75552  0.014077532  0.014267514         3860 
 1071000   0.81885624   -9.0488557    180.88065  0.014074124  0.014250152         3868 
 1072000   0.82292434   -9.0350931    180.74891  0.014050755  0.014232798         3862 
 1073000   0.82830344   -9.0591478    180.90001  0.014049395  0.014215471         3890 
 1074000   0.79811464   -9.0265933    180.69762   0.01402061  0.014198177         3869 
 1075000   0.82611771   -9.0351943    180.96992  0.014028676  0.014180898         3863 
 1076000    0.8463835   -9.0581159    180.69699    0.0139945  0.014163633         3883 
 1077000   0.82000722   -9.0392609    180.52987  0.013968576  0.014146376         3867 
 1078000    0.8266391   -9.0602481    180.50176  0.013953444  0.014129148         3885 
 1079000    0.8106951   -9.0483825    180.41829  0.013934066  0.014111919         3894 
 1080000   0.82435183    -9.054984    180.77053  0.013948343  0.014094713         3889 
 1081000   0.83285146   -9.0634943    180.38704  0.013905877  0.014077557         3890 
 1082000   0.82918553   -9.0687648    180.40186  0.013894167  0.014060387         3894 
 1083000   0.82975236   -9.0536109    180.75478  0.013908493  0.014043207         3875 
 1084000   0.83170299   -9.0564804    180.34565   0.01386421   0.01402607         3888 
 1085000   0.81425776   -9.0605962    180.75649  0.013882987  0.014008968         3880 
 1086000   0.82086165   -9.0623506    180.79067  0.013872826  0.013991885         3861 
 1087000   0.83104226   -9.0480013    180.61057  0.013846257  0.013974813         3876 
 1088000   0.80830828   -9.0498938    180.52444  0.013826933  0.013957754         3869 
 1089000   0.81010081   -9.0572596    180.42629  0.013806726  0.013940732         3906 
 1090000   0.82655047   -9.0475138    180.78859  0.013821757  0.013923706         3884 
 1091000   0.82617532   -9.0428306    180.37307  0.013777351  0.013906708         3917 
 1092000   0.81330664   -9.0825834    180.20135   0.01375163  0.013889727         3898 
 1093000   0.83147971   -9.0835722    180.44553  0.013757665  0.013872759         3913 
 1094000   0.81394319   -9.0649674    180.28815  0.013733101  0.013855837         3896 
 1095000   0.81007196   -9.0367271    180.94513  0.013770558  0.013838936         3879 
 1096000    0.8151596    -9.087969    180.52544  0.013726083  0.013822055         3903 
 1097000    0.8272847   -9.0709972    180.48475   0.01371048  0.013805178         3870 
 1098000   0.81510153   -9.0762223    180.42993  0.013693832  0.013788303         3899 
 1099000   0.82726933   -9.0579287    180.45861  0.013683546  0.013771489         3876 
 1100000   0.80729471   -9.0746293    180.49787  0.013674081  0.013754669         3857 
 1101000   0.82018001   -9.0469896    180.39565  0.013653924  0.013737886         3900 
 1102000   0.81914483   -9.0836856    180.19913  0.013626674  0.013721113         3875 
 1103000   0.81248521   -9.0875966    180.20158  0.013614504  0.013704356         3872 
 1104000   0.80027001    -9.084433    180.39932  0.013617098  0.013687602         3851 
 1105000   0.81195861    -9.078676     180.2244  0.013591583  0.013670868         3887 
 1106000   0.81853468   -9.0892141    180.12608  0.013571887  0.013654137         3926 
 1107000      0.81817   -9.1046948    180.12841  0.013559802  0.013637455         3876 
 1108000   0.80961937   -9.0753073    180.44705  0.013571529  0.013620777         3875 
 1109000   0.79218842   -9.0845169    180.82941  0.013588023  0.013604117         3885 
 1110000   0.79289595   -9.1127099    180.11557   0.01352219  0.013587468         3889 
 1111000   0.82825928   -9.1154042    180.18773  0.013515431  0.013570804         3914 
 1112000   0.81005486   -9.1292171    180.48203  0.013525332  0.013554184         3892 
 1113000   0.78415598   -9.1008825    180.14197  0.013487719  0.013537565         3929 
 1114000     0.798088   -9.0989266    180.09023  0.013471741  0.013520978         3926 
 1115000   0.80572551   -9.1087405    180.05244  0.013456834   0.01350441         3896 
 1116000   0.80522196   -9.1019604    180.33088  0.013465567  0.013487862         3912 
 1117000   0.81999644   -9.1000783    179.87298  0.013419351  0.013471309         3876 
 1118000   0.80325987   -9.1321779    180.18758  0.013430798  0.013454787         3922 
 1119000   0.82960773   -9.1142451    180.10461  0.013412616  0.013438268         3928 
 1120000   0.79169752    -9.111453    180.11031  0.013401065  0.013421774         3893 
 1121000   0.80137596   -9.1133133    180.18785  0.013394874  0.013405317         3913 
 1122000   0.78648918   -9.1160736    180.01545  0.013370132  0.013388823         3918 
 1123000   0.78475857   -9.1281056    179.81873  0.013343628  0.013372351         3920 
 1124000   0.79558834   -9.1143793    179.99733  0.013344998  0.013355932         3935 
 1125000    0.8112686   -9.1198563    179.76659  0.013316044   0.01333955         3921 
 1126000   0.82483402   -9.1187215    180.04648  0.013324932  0.013323162         3916 
 1127000    0.8198353   -9.1293229    179.66007  0.013284536  0.013306807         3888 
 1128000   0.80376352   -9.1313894    179.82286  0.013284786  0.013290468         3904 
 1129000   0.81487872   -9.1213437    179.91714  0.013279978  0.013274147         3915 
 1130000   0.79489803    -9.124504    179.94736  0.013270454   0.01325785         3902 
 1131000   0.79243553     -9.12439    180.06723  0.013267553  0.013241574         3911 
 1132000   0.79548911   -9.1065086    180.08699  0.013257287  0.013225311         3905 
 1133000   0.79207482   -9.1295743     179.8254  0.013226346   0.01320906         3889 
 1134000   0.76952417   -9.1353836    180.25113  0.013245968  0.013192851         3884 
 1135000   0.79141294    -9.135825    179.62165   0.01318808  0.013176672         3923 
 1136000   0.79570005   -9.1186387    179.61992  0.013176344   0.01316052         3926 
 1137000   0.79851383   -9.1263292    179.82157  0.013179535  0.013144381         3923 
 1138000   0.79985358   -9.1379018    179.66294  0.013156337  0.013128252         3937 
 1139000   0.80962192   -9.1071592     180.3242  0.013193166  0.013112145         3898 
 1140000   0.80974149   -9.1282569    180.00373  0.013158167  0.013096075         3935 
 1141000   0.80137536   -9.1229865    179.98531   0.01314529  0.013080018         3883 
 1142000   0.80147211   -9.1079118    179.98643  0.013133861  0.013063993         3928 
 1143000   0.77630309    -9.120548    180.21458  0.013139004  0.013047972         3910 
 1144000   0.79836116   -9.1481907    180.14773   0.01312265  0.013031979         3935 
 1145000    0.7963047   -9.1146427    180.16303  0.013112302  0.013015988         3920 
 1146000     0.791637    -9.149014    180.16129  0.013100734  0.013000027         3926 
 1147000   0.79388593   -9.1163382    179.96529  0.013075072  0.012984089         3907 
 1148000   0.78896428   -9.1569155    179.85265  0.013055506  0.012968148         3896 
 1149000   0.81107448   -9.1614558    180.07336  0.013060151   0.01295225         3903 
 1150000    0.8047587   -9.1678905     179.8878  0.013035348  0.012936331         3925 
 1151000   0.79844146   -9.1715139    179.71335  0.013011392  0.012920421         3936 
 1152000   0.78865866   -9.1574832    179.92097  0.013015116  0.012904531         3934 
 1153000   0.80028848   -9.1845283    179.27466  0.012957116  0.012888664         3929 
 1154000    0.8071513   -9.1530091    179.93367  0.012993477  0.012872786         3946 
 1155000   0.79722959   -9.1839384    179.36365    0.0129411  0.012856953         3940 
 1156000   0.80086263   -9.1940525    179.11152   0.01291173  0.012841117         3929 
 1157000   0.78467084   -9.1863569    179.14989  0.012903334    0.0128253         3922 
 1158000   0.79749825   -9.1630537    179.86175  0.012943419  0.012809522         3929 
 1159000   0.79642312   -9.1790522    179.94376  0.012938148  0.012793762         3953 
 1160000   0.79922288   -9.1769155    179.69542  0.012909153  0.012778038         3929 
 1161000   0.80503633   -9.1833747    179.48548  0.012882966  0.012762324         3948 
 1162000   0.79069066   -9.1608658    179.43497  0.012868256  0.012746619         3921 
 1163000   0.79701844   -9.1966836    179.37493   0.01285289  0.012730945         3932 
 1164000   0.78079513   -9.1664249    179.81825  0.012873586  0.012715286         3934 
 1165000   0.80156844   -9.1520885    179.79919  0.012861172  0.012699658         3948 
 1166000   0.80627697   -9.1751492    179.83155  0.012852455  0.012684031         3928 
 1167000   0.79897205   -9.1678441    179.27312  0.012801566   0.01266845         3934 
 1168000   0.78188969   -9.1961907    179.41165  0.012800488  0.012652864         3935 
 1169000   0.80561949   -9.2135938    179.59016  0.012802264  0.012637317         3917 
 1170000   0.78419883   -9.1912946    179.28128  0.012769322  0.012621774         3946 
 1171000   0.79255652   -9.1956975    179.05287  0.012742163  0.012606261         3913 
 1172000   0.79499758   -9.2004626     179.4562  0.012759968   0.01259077         3953 
 1173000   0.79053655   -9.1752551    179.57345   0.01275742  0.012575308         3911 
 1174000   0.78461529   -9.1754436    179.66654  0.012753161  0.012559856         3925 
 1175000   0.79497878   -9.2019927    179.58639  0.012736623  0.012544419         3927 
 1176000   0.79405393   -9.1846344    179.21251  0.012699299   0.01252902         3939 
 1177000   0.79127487   -9.1977344    179.82678  0.012732001  0.012513643         3935 
 1178000   0.76546348   -9.1881108    179.85902  0.012723474  0.012498268         3919 
 1179000   0.77154222   -9.1826473    179.67741  0.012699845  0.012482917         3932 
 1180000   0.79592859   -9.1750512    179.62068  0.012685076  0.012467588         3939 
 1181000   0.78705471   -9.2118101    179.42492  0.012660522  0.012452285         3937 
 1182000   0.79347092   -9.1957515    179.61288  0.012663063  0.012437005         3942 
 1183000   0.78765498   -9.1950004    179.38697  0.012636445  0.012421732         3936 
 1184000   0.78080462    -9.201482    179.33502  0.012622116  0.012406487         3947 
 1185000    0.7814513   -9.2164246    179.68496  0.012636073  0.012391246         3955 
 1186000   0.77435746   -9.1979226    179.57546  0.012617725  0.012376056         3928 
 1187000   0.78793284   -9.2062954    179.49729  0.012601607  0.012360894         3932 
 1188000   0.77153421   -9.1976809    179.34932   0.01258062  0.012345737         3950 
 1189000   0.80165752   -9.2013499    179.56565  0.012585201  0.012330602         3941 
 1190000   0.79711303   -9.2135673    179.00559  0.012535406  0.012315491         3957 
 1191000   0.79580479   -9.2078893    179.40138  0.012552573  0.012300382         3940 
 1192000   0.75169559   -9.2112098    179.29472  0.012534586  0.012285318         3937 
 1193000   0.79086823   -9.1929267    179.41536  0.012532506  0.012270266         3954 
 1194000   0.78111392   -9.2135014    179.21512  0.012508034   0.01225525         3934 
 1195000   0.78461484   -9.2268284    179.31604  0.012504605  0.012240263         3955 
 1196000   0.76250914   -9.2155073    179.55499  0.012510799  0.012225272         3943 
 1197000   0.76683223   -9.2034704    179.38464  0.012488488  0.012210306         3951 
 1198000   0.77491842   -9.2068154    179.32751   0.01247409  0.012195372         3937 
 1199000   0.77845587   -9.2160005    179.12003  0.012449266  0.012180448         3943 
 1200000   0.78833373   -9.2230807    179.08084   0.01243617  0.012165541         3943 
 1201000   0.76755975   -9.2046614    179.32105  0.012442482  0.012150652         3929 
 1202000    0.7691683   -9.1894204    179.19908  0.012423674  0.012135788         3951 
 1203000   0.77377265   -9.2053991    178.84183    0.0123886  0.012120957         3953 
 1204000   0.77986203   -9.2128274     179.3079  0.012410569   0.01210613         3938 
 1205000    0.7600259   -9.2375648    179.11611  0.012387006  0.012091331         3947 
 1206000   0.78807022    -9.230334    179.16863  0.012380364  0.012076533         3965 
 1207000   0.78079436   -9.2207343    179.21938  0.012373611  0.012061764         3942 
 1208000   0.76316281    -9.207072     178.8096    0.0123351  0.012047029         3934 
 1209000   0.77251538   -9.1962588     179.1343  0.012347277  0.012032322         3924 
 1210000   0.76733365   -9.2032499    179.41686  0.012356533  0.012017607         3916 
 1211000   0.76295563   -9.2228533    179.07361  0.012322709  0.012002935         3938 
 1212000   0.78552323   -9.2018674    179.45476  0.012338749  0.011988294         3944 
 1213000   0.76036126   -9.2142464    179.03891  0.012300007  0.011973662         3948 
 1214000      0.76928   -9.2284944    179.15789  0.012298043  0.011959037         3950 
 1215000   0.75419334   -9.2168111    179.30481  0.012297998  0.011944447         3927 
 1216000   0.76341656   -9.2476937    179.13218  0.012276054   0.01192987         3943 
 1217000   0.76166952   -9.2375874    178.86476  0.012247656  0.011915295         3942 
 1218000   0.77495827   -9.2251047    179.07174  0.012251761  0.011900766         3950 
 1219000    0.7534539   -9.2510009    179.43225  0.012266355  0.011886242         3938 
 1220000   0.79486244   -9.2288407    179.70805   0.01227514  0.011871734         3938 
 1221000   0.77067481    -9.239796    178.89974   0.01220992  0.011857264         3949 
 1222000   0.76123613   -9.2391243    179.37025  0.012232014  0.011842798         3937 
 1223000   0.76896382   -9.2336689    179.05188  0.012200319   0.01182836         3944 
 1224000   0.76541708   -9.2421466    178.83286   0.01217544  0.011813966         3956 
 1225000   0.75713934   -9.2431249    178.88079  0.012168761  0.011799587         3959 
 1226000   0.77452346   -9.2457352    179.02519  0.012168651  0.011785244         3945 
 1227000   0.77986297   -9.2607341    179.15965  0.012167866  0.011770912         3967 
 1228000   0.75686666   -9.2414228    179.29874  0.012167396  0.011756602         3964 
 1229000   0.76721056   -9.2696868    179.14025  0.012146749  0.011742301         3948 
 1230000   0.76307369   -9.2271472    179.34341  0.012150638  0.011728023         3949 
 1231000   0.76459869    -9.269163    179.46997  0.012149335  0.011713772         3945 
 1232000   0.76772318    -9.252905    179.07367  0.012112667  0.011699537         3933 
 1233000    0.7616263   -9.2591233    179.43273  0.012127111  0.011685323         3938 
 1234000   0.76268719   -9.2602933      178.976   0.01208644  0.011671141         3946 
 1235000   0.75522336    -9.222055    178.90988  0.012072192  0.011656982         3940 
 1236000   0.76299241    -9.218714    179.30558  0.012089104  0.011642831         3942 
 1237000   0.76469685   -9.2565568    179.45369  0.012089308  0.011628695         3951 
 1238000   0.75067403   -9.2671479    179.03796  0.012051559  0.011614568         3948 
 1239000   0.75966141   -9.2498421    179.04344  0.012042201  0.011600484         3935 
 1240000   0.74727517   -9.2452349    178.78849  0.012015355  0.011586423         3955 
 1241000   0.76502454   -9.2534491    178.68185  0.011998513   0.01157239         3947 
 1242000   0.75742009   -9.2145784    179.08606  0.012015973  0.011558365         3947 
 1243000   0.73702307   -9.2472278    179.01947  0.012001842  0.011544366         3938 
 1244000   0.75995343   -9.2571892    179.01762   0.01199207  0.011530398         3939 
 1245000   0.75358406   -9.2556274    179.03598  0.011983667  0.011516423         3955 
 1246000   0.75568602   -9.2511777    179.07559  0.011976698  0.011502479         3943 
 1247000   0.75624934   -9.2501984    179.06943  0.011966682  0.011488548         3948 
 1248000   0.75784596   -9.2729212    178.97612  0.011950863  0.011474653         3941 
 1249000   0.76936925   -9.2758576    178.71995  0.011924203  0.011460769         3957 
 1250000   0.76716988   -9.2494862    179.26972  0.011951315  0.011446915         3926 
 1251000   0.76258314   -9.2689296    178.80718   0.01191095  0.011433073         3960 
 1252000    0.7463564   -9.2600431    179.11758  0.011922097  0.011419256         3960 
 1253000   0.74972826   -9.2772654    179.10075  0.011911462  0.011405461         3955 
 1254000   0.74836661   -9.2456501    179.09681  0.011901702  0.011391689         3951 
 1255000   0.74862331   -9.2518383    178.91005  0.011879817   0.01137792         3968 
 1256000   0.74971326   -9.2870584    178.67343   0.01185466  0.011364177         3939 
 1257000   0.75703523   -9.2663197    179.03553  0.011869235  0.011350465         3948 
 1258000   0.75557258   -9.2618074    178.81766  0.011845367  0.011336773         3949 
 1259000   0.75475217   -9.2771313    178.88684  0.011840537  0.011323105         3969 
 1260000   0.75634938    -9.234748    179.22373  0.011853421  0.011309459         3943 
 1261000   0.75787072   -9.2669543     178.8015  0.011816118  0.011295822         3935 
 1262000   0.75843851   -9.2611664    179.14041  0.011829135  0.011282203         3922 
 1263000      0.75887   -9.2674983    178.91299  0.011804763  0.011268626         3960 
 1264000   0.76310839   -9.2700763     178.7186  0.011782608  0.011255058         3950 
 1265000   0.75566777   -9.2759406     178.7619  0.011776146  0.011241507         3962 
 1266000   0.75306386   -9.2625774    178.94604  0.011778965  0.011227986         3928 
 1267000   0.75162001    -9.269809    178.68892  0.011752757  0.011214476         3957 
 1268000    0.7637942   -9.2625955    179.17885  0.011775687     0.011201         3941 
 1269000   0.76043044   -9.2597673    178.80042  0.011741557  0.011187521         3965 
 1270000   0.74330168   -9.2595053    179.02664  0.011747155  0.011174064         3933 
 1271000    0.7500607   -9.2673272    178.82834  0.011724911  0.011160617         3936 
 1272000    0.7354988   -9.2983009    178.61382  0.011701639  0.011147186         3949 
 1273000   0.75339717   -9.2794886    179.06795  0.011722175  0.011133785         3941 
 1274000    0.7396818   -9.2731215    178.67988   0.01168759  0.011120387         3929 
 1275000   0.73914789    -9.301667    178.76666  0.011684096  0.011107012         3968 
 1276000   0.74488706   -9.2767229     178.7477    0.0116737  0.011093657         3939 
 1277000   0.75643924   -9.2608577     179.1203  0.011688874   0.01108035         3938 
 1278000   0.73821819   -9.2683229    178.55953  0.011643162  0.011067047         3941 
 1279000   0.74111234   -9.2696121    178.76465  0.011647423   0.01105376         3949 
 1280000   0.73878536   -9.2721451    178.89257  0.011646652  0.011040496         3943 
 1281000   0.75436236   -9.2692556    178.88172  0.011636854  0.011027247         3941 
 1282000   0.73844978   -9.2926928    178.81771  0.011623616  0.011014025         3924 
 1283000     0.739547   -9.2922805    178.56385  0.011598068  0.011000813         3928 
 1284000     0.746096   -9.2811846    178.46019  0.011582308   0.01098763         3930 
 1285000   0.72190956    -9.284437    178.95056  0.011605095  0.010974459         3925 
 1286000   0.75044504    -9.299004    178.75889   0.01158365  0.010961313         3932 
 1287000   0.71734736   -9.2862989    178.73088  0.011572836  0.010948185         3947 
 1288000   0.74247475   -9.2747329    178.83577  0.011570637  0.010935063         3929 
 1289000   0.73691918   -9.2876451    178.29344    0.0115266  0.010921966         3940 
 1290000   0.74101835   -9.2633653    178.29998  0.011518086  0.010908908         3939 
 1291000   0.74155671   -9.2778127    179.02329  0.011555854  0.010895848         3934 
 1292000   0.74427307   -9.2955001     178.6362  0.011521943    0.0108828         3956 
 1293000   0.72119975   -9.2868507    178.55571  0.011507844  0.010869794         3946 
 1294000   0.73139076   -9.2891377    178.78028  0.011513413  0.010856795         3948 
 1295000   0.74991376   -9.2882617    178.67592  0.011497807  0.010843826         3948 
 1296000   0.73615064   -9.2723524    178.86859  0.011501324  0.010830865         3956 
 1297000   0.73750361    -9.264805    178.57543   0.01147362  0.010817921         3938 
 1298000   0.74349483   -9.2824785    178.72072  0.011474109  0.010804993         3936 
 1299000   0.74638801   -9.2977227    178.84837  0.011473465  0.010792088         3953 
 1300000   0.72890683   -9.3083562    178.64521  0.011451616  0.010779205         3962 
 1301000   0.73259012   -9.2889868    178.96617  0.011463373  0.010766323         3933 
 1302000   0.73648582   -9.2865512    178.45217   0.01142167  0.010753458         3944 
 1303000   0.73935676   -9.3135837    178.55972  0.011419783  0.010740598         3928 
 1304000    0.7365684   -9.3024714    178.84379  0.011429179  0.010727778         3944 
 1305000   0.73139833    -9.306539    178.40665  0.011392507  0.010714988         3946 
 1306000   0.72699248    -9.300893    178.52388  0.011391264  0.010702196         3938 
 1307000   0.72034787   -9.2979846    178.51228  0.011381808  0.010689417         3941 
 1308000   0.73326899   -9.3125147    178.64681  0.011381678  0.010676675         3937 
 1309000   0.73479683   -9.2921948    178.65672  0.011373613  0.010663933         3928 
 1310000   0.73562282   -9.2971488    178.84351  0.011376814  0.010651234         3948 
 1311000   0.72201458    -9.317426    178.51124  0.011347015  0.010638539         3936 
 1312000   0.73851044   -9.3167014    178.58735  0.011343201   0.01062587         3937 
 1313000   0.72773706   -9.3101629    178.67989  0.011340435  0.010613226         3960 
 1314000   0.72196181   -9.3023269    178.37193  0.011312274  0.010600607         3938 
 1315000   0.71631013   -9.2709374    178.72133  0.011325813  0.010587997         3954 
 1316000    0.7253482   -9.3020971    178.71707  0.011316937  0.010575407         3963 
 1317000   0.73505915   -9.3114341    178.44778  0.011291305  0.010562829         3932 
 1318000   0.73466128   -9.3316665    178.02721  0.011256146  0.010550274         3953 
 1319000   0.73354693   -9.3114027    178.32511  0.011266434  0.010537741         3953 
 1320000   0.72827829   -9.2877845    178.92343  0.011295671  0.010525228         3964 
 1321000   0.71617193   -9.2962572    178.72617  0.011274676  0.010512728         3947 
 1322000   0.71521841   -9.3402374    178.03453   0.01122255  0.010500246         3951 
 1323000   0.70910715   -9.3222402    178.38869  0.011236375  0.010487783         3949 
 1324000   0.72883404   -9.3147647    178.18967  0.011215362  0.010475343         3952 
 1325000   0.71680158   -9.3060394    178.81342  0.011246127   0.01046292         3945 
 1326000   0.72959529   -9.3383159    178.09307  0.011192375  0.010450504         3961 
 1327000   0.72148187   -9.3244918    178.26882  0.011194977  0.010438133         3955 
 1328000   0.71925741   -9.3387667     178.2842  0.011187513   0.01042576         3967 
 1329000   0.71648926    -9.306398    178.53237  0.011194656   0.01041341         3959 
 1330000   0.73062403   -9.2989304    178.55838  0.011187869  0.010401081         3949 
 1331000   0.72501306    -9.312896    178.84736  0.011197556  0.010388764         3945 
 1332000   0.70371509   -9.3221144     178.6558  0.011177165  0.010376471         3956 
 1333000   0.72413866   -9.3281862    178.19665  0.011140076  0.010364198         3964 
 1334000   0.73415112   -9.3153422    178.72526  0.011164747  0.010351927         3963 
 1335000   0.73060316     -9.30594      178.715  0.011155743  0.010339689         3939 
 1336000   0.71735356   -9.3072346      178.746  0.011149326  0.010327479         3972 
 1337000   0.74600979   -9.3267154    178.48512  0.011124727  0.010315282         3952 
 1338000   0.71787468     -9.34733    178.27704  0.011103453  0.010303107         3949 
 1339000   0.71434476   -9.3061188    178.43159  0.011104779  0.010290929         3946 
 1340000   0.72203086   -9.3258947    178.31432  0.011089199  0.010278785         3954 
 1341000   0.71164067   -9.3514741    178.24333  0.011076518   0.01026666         3967 
 1342000    0.7280966   -9.3316493    178.24353  0.011068277  0.010254549         3943 
 1343000   0.71017792   -9.3241611    178.52434   0.01107746  0.010242463         3946 
 1344000   0.71059708   -9.3258357    178.32466  0.011056836  0.010230386         3951 
 1345000   0.72308348    -9.307667    177.97871  0.011027181  0.010218335         3944 
 1346000   0.70730079   -9.3037988    178.51438  0.011052153  0.010206297         3944 
 1347000     0.728459   -9.3477935    178.50456  0.011043341  0.010194259         3955 
 1348000   0.71658826   -9.3176443     178.6428  0.011043694   0.01018225         3956 
 1349000   0.71708825   -9.3441452    178.18252  0.011007074  0.010170262         3947 
 1350000   0.72836996   -9.3372681    178.28637  0.011005331  0.010158306         3970 
 1351000   0.68690876    -9.326844     178.1361  0.010987916  0.010146358         3958 
 1352000   0.72601547   -9.3213986    178.45071  0.010999181  0.010134431         3964 
 1353000   0.71116127    -9.321594    178.39207  0.010987439  0.010122518         3973 
 1354000    0.7015033   -9.3268952    178.27725  0.010972258  0.010110625         3968 
 1355000   0.70981771   -9.3413176    178.31557  0.010966517  0.010098749         3959 
 1356000   0.70789978   -9.3428306     178.2367  0.010953583  0.010086896         3948 
 1357000   0.70340116   -9.3332857    178.43899  0.010957934  0.010075072         3963 
 1358000    0.6894595   -9.3584608    178.15676  0.010932546  0.010063246         3967 
 1359000    0.7065082   -9.3399577    178.02742   0.01091657  0.010051433         3955 
 1360000   0.71065794   -9.3365732    178.33504  0.010927392  0.010039651         3959 
 1361000   0.69672668    -9.327903     178.3605  0.010920922  0.010027879         3954 
 1362000   0.71156916   -9.3428716    178.19228  0.010902612   0.01001612         3968 
 1363000   0.70665362   -9.3479163    178.20445  0.010895356  0.010004397         3951 
 1364000   0.71418298   -9.3594455    178.01248  0.010875641 0.0099926901         3946 
 1365000   0.70240499     -9.34907    178.10826   0.01087352  0.009980991         3958 
 1366000    0.7146494   -9.3413173    177.99645  0.010858739 0.0099693018         3963 
 1367000   0.71177958   -9.3396658    178.54031   0.01088395 0.0099576292         3954 
 1368000   0.69902506   -9.3637146    178.10039  0.010849195  0.009945976         3969 
 1369000   0.69316725   -9.3586841    178.28082  0.010852253 0.0099343489         3961 
 1370000   0.71221315   -9.3656302    178.27538  0.010844001 0.0099227321         3966 
 1371000   0.71163644   -9.3456428    178.35182  0.010840738 0.0099111498         3969 
 1372000   0.69875817   -9.3438363    178.15087  0.010820631 0.0098995597         3947 
 1373000    0.7126638   -9.3331338    178.54473  0.010836655 0.0098879908         3943 
 1374000   0.72316005   -9.3610397    178.12055  0.010803042 0.0098764351         3964 
 1375000   0.71171404    -9.366513    178.11213  0.010794675 0.0098648997         3958 
 1376000   0.70120832    -9.334527    178.17972  0.010790923  0.009853378         3955 
 1377000   0.69883751   -9.3766196    178.02161  0.010773518 0.0098418744         3966 
 1378000   0.70549634   -9.3319851     178.3947  0.010788262 0.0098303946         3948 
 1379000   0.70446291   -9.3495289     178.2145  0.010769549 0.0098189258         3960 
 1380000     0.692409   -9.3449575    178.39623  0.010772719 0.0098074738         3948 
 1381000    0.6973119   -9.3663427    178.31267  0.010759876 0.0097960254         3956 
 1382000   0.71205871   -9.3774731    178.06915  0.010737407 0.0097846011         3944 
 1383000    0.6990748   -9.3795934    178.15429  0.010734773 0.0097731831         3960 
 1384000   0.69409369   -9.3555776    177.88966  0.010711082 0.0097617946         3942 
 1385000    0.6952385   -9.3431955    177.75314  0.010695135 0.0097504173         3962 
 1386000   0.68855238   -9.3602211    177.71548  0.010685154 0.0097390462         3951 
 1387000   0.69899861   -9.3718592    177.85348  0.010685741 0.0097276992         3961 
 1388000   0.69367882   -9.3561038    178.17202  0.010697167 0.0097163702         3944 
 1389000   0.69751116    -9.349915    178.18593  0.010690301 0.0097050582         3949 
 1390000   0.69536713   -9.3649419     177.7878  0.010658741 0.0096937648         3967 
 1391000   0.70837868   -9.3481283    178.12239  0.010671123 0.0096824771         3950 
 1392000   0.72236695   -9.3696714    177.92711  0.010651767  0.009671221         3955 
 1393000   0.69599899   -9.3655977    177.97959  0.010647259 0.0096599811         3952 
 1394000    0.6842753   -9.3742179    177.82735  0.010630521  0.009648751         3950 
 1395000   0.70787529   -9.3570533    177.92302  0.010628615 0.0096375457         3963 
 1396000   0.69373605   -9.3735685    178.15282  0.010634719 0.0096263526         3955 
 1397000   0.67800125   -9.3657001    178.17365   0.01062835 0.0096151876         3959 
 1398000   0.70311802   -9.3596344    177.66463  0.010590405 0.0096040354         3960 
 1399000   0.69528551   -9.3792883    177.74718  0.010587752  0.009592902         3950 
 1400000   0.70228519   -9.3719478    178.02117  0.010596498  0.009581779         3966 
 1401000   0.68596223    -9.350644    178.09414  0.010593275 0.0095706707         3943 
 1402000   0.68276968   -9.3415712    177.87066  0.010572436 0.0095595767         3967 
 1403000   0.70003661   -9.3788503    178.03552  0.010574692  0.009548504         3964 
 1404000   0.69578446   -9.3719519    177.88817  0.010558415 0.0095374517         3955 
 1405000   0.69760983   -9.3775038    178.09396  0.010563106 0.0095264076         3956 
 1406000   0.69305398   -9.3837458    177.69304   0.01053183 0.0095153908         3962 
 1407000   0.69625376   -9.3945989    177.85462  0.010533915 0.0095043927         3967 
 1408000   0.68641508   -9.3798803    177.75224  0.010520374 0.0094933935         3964 
 1409000   0.69646327   -9.3706595    177.76687  0.010513773 0.0094824169         3962 
 1410000   0.68309967   -9.3644155      178.008  0.010520568 0.0094714637         3968 
 1411000    0.7046766   -9.3744968    178.03121  0.010514482 0.0094605092         3945 
 1412000   0.69061202   -9.3817329    177.97037  0.010503445  0.009449584         3960 
 1413000   0.68057695   -9.3920193    177.83238  0.010487873 0.0094386841         3966 
 1414000     0.690945   -9.3712278    178.03362  0.010492316 0.0094277852         3967 
 1415000   0.69468023   -9.3924617    177.84019   0.01047351 0.0094168996         3980 
 1416000   0.69212328   -9.3888516    177.94868  0.010472498 0.0094060412         3962 
 1417000    0.7008802   -9.3961952    177.64418    0.0104472 0.0093951952         3961 
 1418000   0.68626715   -9.3907412    178.04193  0.010463207 0.0093843643         3957 
 1419000   0.69119328   -9.4205554    177.89812  0.010447388 0.0093735444         3962 
 1420000   0.67538902   -9.4137961    177.61104  0.010423183 0.0093627426         3955 
 1421000   0.68870427   -9.3687555    177.89834  0.010432696 0.0093519556         3943 
 1422000   0.66755198   -9.3783204    177.67403  0.010412215 0.0093411884         3964 
 1423000   0.67571211   -9.3704378    178.02515  0.010425459 0.0093304456         3942 
 1424000   0.69215156    -9.413692    177.71464  0.010399967 0.0093197124         3966 
 1425000   0.68253512   -9.4007026    177.51692  0.010381106 0.0093089911         3956 
 1426000   0.68240635   -9.3881346    177.69283  0.010384107 0.0092982885         3960 
 1427000    0.7031554   -9.3961066     177.8446  0.010385693 0.0092876075         3964 
 1428000   0.69173385    -9.384555    177.74218  0.010372443  0.009276929         3960 
 1429000   0.68067909   -9.4019257    177.72174  0.010363993 0.0092662719         3946 
 1430000   0.67887794   -9.4064051    177.58075  0.010348528  0.009255624         3956 
 1431000   0.68419561    -9.377404     178.2922  0.010382727 0.0092450051         3956 
 1432000   0.68001791   -9.4234027    177.46212  0.010327172 0.0092343931         3952 
 1433000   0.68793689   -9.4034916    177.78603  0.010338801 0.0092237943         3956 
 1434000   0.67397915   -9.3859083    177.60623  0.010321143 0.0092132237         3963 
 1435000   0.66998614    -9.394218    177.73044  0.010321164  0.009202661         3964 
 1436000   0.68178408    -9.388662    177.75843  0.010315601 0.0091921254         3958 
 1437000   0.68572178   -9.4024734    177.75129  0.010308008    0.0091816         3960 
 1438000   0.68967721   -9.3864332    178.09212  0.010320591 0.0091710923         3956 
 1439000   0.66576171   -9.3736235     177.6984  0.010290619 0.0091606003         3932 
 1440000   0.66500455   -9.4049246    177.79976  0.010289338 0.0091501188         3969 
 1441000    0.6785934   -9.4131127    177.91538  0.010288884 0.0091396489         3954 
 1442000   0.67165636   -9.4095564    177.54843  0.010260542 0.0091291964         3961 
 1443000   0.67618881   -9.4382688    177.93224  0.010275597 0.0091187575         3966 
 1444000   0.67242918   -9.3952878    177.41406  0.010238577 0.0091083313         3959 
 1445000   0.68154934   -9.3868863    177.89278  0.010259099 0.0090979306         3955 
 1446000    0.6811029   -9.4161137    177.95228  0.010255433 0.0090875453         3973 
 1447000   0.67135383   -9.4143815      177.731  0.010235603 0.0090771819         3948 
 1448000   0.67364636   -9.3908693    177.54833  0.010218021 0.0090668363         3966 
 1449000   0.67000009   -9.4054494    177.41548  0.010203328 0.0090564999         3961 
 1450000   0.68913019   -9.3981962    177.80316  0.010218572 0.0090461747         3964 
 1451000   0.67544292   -9.3959142    177.74544  0.010208215 0.0090358838         3958 
 1452000    0.6734082   -9.3885845    177.80307  0.010204492  0.009025596         3955 
 1453000   0.66097716   -9.4005109    177.84796  0.010200044 0.0090153217         3964 
 1454000   0.66593993   -9.3861821    177.54629  0.010175739 0.0090050553         3955 
 1455000   0.66615024    -9.403072    177.83023  0.010185007 0.0089948115         3966 
 1456000   0.68403406   -9.3971612     177.0877  0.010135514  0.008984573         3959 
 1457000   0.68118875   -9.4111673    177.83272  0.010171169  0.008974358         3950 
 1458000   0.69214399   -9.4110837    177.74933  0.010159427 0.0089641532         3963 
 1459000   0.67230562    -9.402982    177.79921  0.010155312 0.0089539682         3972 
 1460000   0.66395696   -9.4326219    177.68966  0.010142104 0.0089437947         3967 
 1461000   0.66068314   -9.4259781    177.69783  0.010135628 0.0089336372         3972 
 1462000   0.68103862   -9.4093706    177.68415  0.010127915 0.0089234898         3963 
 1463000   0.66893406   -9.4107202    177.73854  0.010124091 0.0089133615         3958 
 1464000   0.67047075     -9.40287    177.41041  0.010098498  0.008903244         3960 
 1465000   0.67568149   -9.4218143    177.12103  0.010075144 0.0088931479         3960 
 1466000   0.66471474   -9.4152545    177.55138  0.010092734 0.0088830705         3957 
 1467000   0.66761161   -9.4283662    177.21975  0.010067016 0.0088730063         3970 
 1468000   0.66651623   -9.4204612    177.46779  0.010074239 0.0088629644         3968 
 1469000   0.65754239   -9.4196256    177.35438  0.010060947   0.00885293         3956 
 1470000   0.64968516   -9.4122314    177.35932  0.010054383 0.0088429161         3969 
 1471000   0.64794335   -9.4150883    177.60347   0.01006138 0.0088329152         3966 
 1472000   0.66109661   -9.4147996    177.61495  0.010055194 0.0088229325         3963 
 1473000    0.6729845   -9.4199164    177.55813  0.010045153 0.0088129606         3960 
 1474000    0.6509085   -9.4268603    177.48136  0.010033998 0.0088030099         3965 
 1475000   0.66514105   -9.4089272    177.83414  0.010047127 0.0087930631         3948 
 1476000   0.65828116   -9.4167582    177.69426  0.010032422 0.0087831305         3957 
 1477000   0.66773794   -9.4119947    177.30395  0.010003608 0.0087732257         3961 
 1478000   0.64656411   -9.4318347    177.60526  0.010013828 0.0087633262         3959 
 1479000   0.65422393   -9.4140187    177.48377  0.010000212 0.0087534464         3977 
 1480000   0.65909429   -9.4220972    177.70208  0.010005748 0.0087435866         3953 
 1481000   0.65597611   -9.4184116    177.61488 0.0099940851 0.0087337323         3945 
 1482000   0.66398927   -9.4229427    177.50043 0.0099809058 0.0087239008         3972 
 1483000   0.66311721    -9.429255    177.63466 0.0099817184 0.0087140785         3961 
 1484000   0.65581313   -9.4275109    177.52399 0.0099687773 0.0087042609         3961 
 1485000   0.66380829   -9.4244606    177.52455 0.0099620961 0.0086944627         3959 
 1486000   0.65215276   -9.4399756    177.57542 0.0099582447 0.0086846822         3972 
 1487000   0.63635136   -9.3950993    177.51231 0.0099480111 0.0086749142         3960 
 1488000   0.65255385   -9.4068341    177.53089 0.0099423659 0.0086651642         3961 
 1489000   0.65629039   -9.4449068    178.08472 0.0099666848 0.0086554214         3971 
 1490000   0.66612792   -9.4429679    177.57559 0.0099315208 0.0086457081         3967 
 1491000   0.65864038   -9.4075042    177.50498 0.0099209134 0.0086359953         3954 
 1492000   0.66124549   -9.4171395    177.55523 0.0099170708 0.0086263059         3953 
 1493000   0.67174571   -9.4311157    177.64111 0.0099152215 0.0086166237         3964 
 1494000   0.64871375   -9.4172921    177.68082 0.0099107998 0.0086069644         3957 
 1495000   0.65674587   -9.4369816    177.24263 0.0098797452 0.0085973198         3950 
 1496000   0.66032246   -9.4361506    177.24237 0.0098731267 0.0085876924         3965 
 1497000   0.65507645   -9.4306728    177.33662 0.0098717782 0.0085780778         3967 
 1498000   0.65678338   -9.4096662    177.54961 0.0098770368 0.0085684664         3958 
 1499000   0.66676215   -9.4170491    177.40054 0.0098621602 0.0085588809         3967 
 1500000   0.66418103   -9.4393591    177.37503 0.0098541682 0.0085493055         3957 
 1501000   0.66270428    -9.444182    177.24075 0.0098401484 0.0085397416         3966 
 1502000   0.65097316   -9.4135486    177.47929 0.0098468316 0.0085301892         3962 
 1503000   0.66553611   -9.4414654    177.35571 0.0098334284  0.008520652         3976 
 1504000   0.64773067   -9.4526221     177.4053 0.0098296377 0.0085111272         3970 
 1505000   0.65730621   -9.4409539    177.10194 0.0098063088 0.0085016239         3953 
 1506000    0.6351165    -9.432109    177.56802 0.0098255879 0.0084921267         3971 
 1507000   0.66048618   -9.4409653    177.35033 0.0098070302 0.0084826591         3967 
 1508000   0.63569438   -9.4457177    177.24224 0.0097945536 0.0084731925         3968 
 1509000   0.65170317   -9.4546669    177.29116 0.0097907643 0.0084637436         3969 
 1510000   0.64401588   -9.4265616    177.52097 0.0097969629 0.0084543086         3973 
 1511000   0.66324305   -9.4417839    177.47058 0.0097877002 0.0084448917         3972 
 1512000   0.63958488   -9.4479542    177.48026 0.0097817605  0.008435491         3973 
 1513000   0.64936092   -9.4527313    177.17201 0.0097583176 0.0084260973         3961 
 1514000   0.63994961    -9.444166     177.1826 0.0097524546 0.0084167171         3967 
 1515000   0.64466997   -9.4374058    177.44891 0.0097606659 0.0084073437         3970 
 1516000   0.64085967   -9.4416198    177.54181 0.0097593346 0.0083979948         3966 
 1517000   0.65225704   -9.4299436    177.55232 0.0097534782 0.0083886478         3956 
 1518000   0.64444558   -9.4523297    177.25406 0.0097306797 0.0083793195         3972 
 1519000   0.64572129   -9.4473068     177.4104 0.0097328506  0.008370016         3957 
 1520000   0.63743115   -9.4267053    177.46783  0.009729596 0.0083607169         3958 
 1521000   0.64790351    -9.452329     176.8862 0.0096913325 0.0083514308         3963 
 1522000   0.65965745    -9.444471    177.00502 0.0096914708 0.0083421582         3957 
 1523000   0.65274109    -9.443539    177.02489 0.0096861946 0.0083329007         3969 
 1524000   0.63645878   -9.4403345    177.28154 0.0096938725 0.0083236491         3957 
 1525000   0.64754472   -9.4418723    177.41065 0.0096945712 0.0083144197         3967 
 1526000   0.63901905   -9.4600557    177.17421 0.0096753062 0.0083051971         3963 
 1527000   0.65247239   -9.4501423    177.38128 0.0096802708 0.0082959992         3966 
 1528000    0.6522567   -9.4576784    176.98798  0.009652486 0.0082868081         3970 
 1529000   0.63423864   -9.4715982    177.71571 0.0096858354 0.0082776277         3966 
 1530000   0.62783903   -9.4488866    177.35833 0.0096600397 0.0082684662         3965 
 1531000    0.6378572    -9.451892    177.32114 0.0096517057 0.0082593208         3960 
 1532000   0.63445742   -9.4801599    176.71101 0.0096122178 0.0082501754         3954 
 1533000   0.64568376   -9.4519679    177.35396 0.0096408982 0.0082410505         3956 
 1534000   0.62499417   -9.4711672    177.21821 0.0096272385 0.0082319413         3969 
 1535000   0.62834064   -9.4710698    177.33842 0.0096274931 0.0082228413         3959 
 1536000   0.64595827   -9.4624399    177.20448 0.0096139582 0.0082137595         3963 
 1537000   0.63695833   -9.4449999    177.40348  0.009618493 0.0082046914         3956 
 1538000   0.63836755   -9.4599363     176.9672 0.0095885997 0.0081956418         3964 
 1539000   0.64549498    -9.437664    177.32635 0.0096018168 0.0081866093         3968 
 1540000   0.64048502   -9.4651907    177.10243  0.009583465 0.0081775846         3977 
 1541000   0.64865509   -9.4669132       177.15 0.0095798181 0.0081685633         3965 
 1542000   0.64217434   -9.4653596    177.31901 0.0095827396 0.0081595662         3960 
 1543000   0.62352416   -9.4683246    177.10847  0.009565158 0.0081505731         3960 
 1544000   0.63711138   -9.4653131    177.20298 0.0095640643  0.008141595         3972 
 1545000   0.63235236   -9.4682722    177.19248 0.0095573072 0.0081326298         3966 
 1546000   0.64657186   -9.4710017    177.32869 0.0095584677  0.008123689         3951 
 1547000   0.64638462   -9.4516955    177.38056 0.0095550827 0.0081147637         3964 
 1548000   0.62301061   -9.4730746    177.38979  0.009549407 0.0081058451         3976 
 1549000   0.62426153   -9.4666755    176.88317 0.0095159873 0.0080969346         3960 
 1550000   0.63754081   -9.4584144    176.85848 0.0095085202 0.0080880411         3968 
 1551000    0.6356291   -9.4532865    177.09587 0.0095151443 0.0080791488         3971 
 1552000   0.62654106    -9.451122    177.11047 0.0095097978 0.0080702763         3960 
 1553000    0.6311026   -9.4543916    177.24098 0.0095106772 0.0080614207         3972 
 1554000   0.63709746   -9.4399945    176.99702 0.0094914745 0.0080525878         3966 
 1555000   0.63686915   -9.4506926    177.12611 0.0094922887 0.0080437629         3974 
 1556000   0.63239803   -9.4510579    176.93487 0.0094759464 0.0080349507         3963 
 1557000    0.6464393   -9.4710622    176.72418 0.0094585839 0.0080261466         3963 
 1558000   0.62813715   -9.4748668     177.4357 0.0094905704   0.00801736         3960 
 1559000   0.63275593   -9.4697246    177.17131   0.00947035 0.0080085776         3959 
 1560000   0.61014892   -9.4824172    177.05439 0.0094580335 0.0079998125         3961 
 1561000   0.62876858   -9.4622526    177.45086 0.0094731401 0.0079910676         3963 
 1562000   0.63098044   -9.4560062    177.18434 0.0094528564 0.0079823342         3961 
 1563000   0.62149362   -9.4597294     177.2307 0.0094492803 0.0079736074         3967 
 1564000   0.61478624    -9.471481    177.46219 0.0094555728 0.0079648984         3973 
 1565000   0.62940893   -9.4676465    176.94851 0.0094221784 0.0079561986         3970 
 1566000   0.62361355   -9.4833746    177.00885 0.0094193726 0.0079475109         3970 
 1567000   0.61472887   -9.4727193    177.07757 0.0094170162 0.0079388392         3959 
 1568000   0.61993067   -9.4756771    177.14917 0.0094148153 0.0079301719         3967 
 1569000   0.62470901   -9.4873611    177.03296 0.0094026431 0.0079215216         3967 
 1570000   0.62466643   -9.4841043    177.06024 0.0093981019 0.0079128875         3975 
 1571000   0.61481693   -9.4849034    177.16038 0.0093974317 0.0079042591         3976 
 1572000   0.61916887    -9.485988    176.97836 0.0093818047 0.0078956494         3977 
 1573000   0.63301433   -9.4875939    176.75763 0.0093641464 0.0078870539         3969 
 1574000   0.61436332   -9.4861772    176.80556 0.0093607346 0.0078784675         3975 
 1575000   0.62732014   -9.4846384    176.98123 0.0093640861 0.0078698984         3977 
 1576000   0.62635097   -9.4786676    177.01759 0.0093600671 0.0078613381         3971 
 1577000   0.62884779   -9.4905945    176.77233 0.0093411717 0.0078527927         3971 
 1578000    0.6160957   -9.5078633    176.69893 0.0093313757 0.0078442541         3975 
 1579000    0.6148669   -9.4923225    177.16364 0.0093499916 0.0078357296         3961 
 1580000   0.60528798   -9.5073999    176.61555 0.0093151662 0.0078272048         3961 
 1581000   0.63256194   -9.4812829    177.11341 0.0093355162 0.0078187044         3959 
 1582000   0.64310681   -9.4866917    176.93969  0.009320464 0.0078102189         3974 
 1583000   0.61386962   -9.4910229    177.00251  0.009317883 0.0078017429         3970 
 1584000   0.62239497    -9.486596    176.82126 0.0093024654 0.0077932885         3960 
 1585000    0.6244393   -9.4984707    176.96888 0.0093043576 0.0077848322         3969 
 1586000   0.62117072   -9.4903479    177.14074 0.0093075213 0.0077763926         3959 
 1587000   0.60878469   -9.4955185    176.77906 0.0092826645 0.0077679672         3977 
 1588000   0.60700733   -9.4903991    176.82943  0.009279462 0.0077595485         3972 
 1589000   0.61897482   -9.4782647       177.26 0.0092962029 0.0077511419         3967 
 1590000   0.62317363   -9.4622844    177.04146 0.0092789027 0.0077427473         3966 
 1591000   0.59986754   -9.4943299    176.68807 0.0092545604 0.0077343659         3968 
 1592000    0.6211784   -9.4962583    176.83969  0.009256684 0.0077260021         3968 
 1593000   0.61231731   -9.4845117    177.22441 0.0092709986 0.0077176493         3958 
 1594000   0.60627135    -9.494422    176.70235 0.0092378897 0.0077093075         3961 
 1595000   0.62721717    -9.483178    176.73429 0.0092337665 0.0077009809         3963 
 1596000   0.60364595   -9.4930247    176.93611 0.0092385188 0.0076926679         3970 
 1597000   0.60663153   -9.4936055    177.13132 0.0092429201 0.0076843589         3954 
 1598000    0.6157516   -9.4962262    176.70048 0.0092146683  0.007676068         3977 
 1599000   0.61647409   -9.4835813    176.83854 0.0092161006 0.0076677863         3957 
 1600000     0.608304   -9.5144239    176.83396 0.0092101022  0.007659519         3961 
 1601000   0.60955211   -9.4833499    176.78108  0.009201597 0.0076512646         3954 
 1602000   0.61273751   -9.4996319     176.6349 0.0091882491 0.0076430203         3972 
 1603000   0.61233487   -9.4854651    176.70492  0.009186157 0.0076347909         3972 
 1604000   0.60852883    -9.505809    176.63315 0.0091767013 0.0076265669         3970 
 1605000   0.60423508   -9.5189647    176.53507 0.0091658915 0.0076183586         3969 
 1606000   0.60891747   -9.5140942    176.70699 0.0091691047 0.0076101627         3972 
 1607000   0.61657644   -9.4944343    176.99003 0.0091780766 0.0076019809         3964 
 1608000   0.61181253   -9.4981235    176.99525 0.0091726392 0.0075938095         3967 
 1609000    0.6220641   -9.5203193    176.83077   0.00915842 0.0075856462         3962 
 1610000   0.60536679   -9.4895479    176.79626 0.0091509452 0.0075774889         3959 
 1611000   0.60165444   -9.5053469    177.12147 0.0091620873 0.0075693498         3973 
 1612000   0.60813998   -9.5108487    176.90208 0.0091450621  0.007561221         3965 
 1613000   0.61216021   -9.5078162    177.06596 0.0091478592 0.0075531077         3965 
 1614000    0.6033523   -9.4987365    176.75954 0.0091263704 0.0075450131         3967 
 1615000   0.60233998   -9.5196628      176.881 0.0091269864 0.0075369233         3976 
 1616000   0.60662591   -9.4957903     176.8225 0.0091183219 0.0075288448         3971 
 1617000    0.6210286    -9.502696    176.74835 0.0091088617 0.0075207765         3959 
 1618000   0.62611381   -9.4981812    176.73798 0.0091026977 0.0075127222         3976 
 1619000   0.59916945   -9.5036944    176.91433 0.0091061526 0.0075046735         3976 
 1620000   0.60720486   -9.5243715    176.61475 0.0090851207 0.0074966431         3971 
 1621000   0.60098618   -9.5070892    176.74096 0.0090860046   0.00748863         3977 
 1622000   0.59980674   -9.5047647    176.59271 0.0090727861 0.0074806193         3970 
 1623000   0.60470977   -9.5228986    176.59527 0.0090673276 0.0074726217         3966 
 1624000   0.61011116   -9.5323371     176.7343 0.0090688783  0.007464635         3968 
 1625000   0.60111474   -9.5143022    176.56037 0.0090543779  0.007456656         3966 
 1626000   0.60347829   -9.5005853    176.46626 0.0090439864 0.0074486919         3969 
 1627000   0.59834306   -9.5169123    176.74806  0.009052861 0.0074407427         3957 
 1628000   0.60712432   -9.5050023    176.58346 0.0090388747 0.0074327957         3964 
 1629000   0.59421281   -9.5134239    176.55384  0.009031811 0.0074248656         3969 
 1630000    0.6159608   -9.5080031    176.57468 0.0090273355 0.0074169449         3972 
 1631000   0.61134301   -9.5235023    176.48694 0.0090173178 0.0074090308         3970 
 1632000   0.60787295   -9.5214056    176.81946 0.0090287713 0.0074011397         3967 
 1633000   0.60888905   -9.5184862    177.11082 0.0090381111 0.0073932509         3972 
 1634000   0.59146982   -9.5226176    176.69182 0.0090112105 0.0073853865         3971 
 1635000   0.59579919   -9.5128212    176.54742 0.0089983392 0.0073775235         3962 
 1636000   0.60369938   -9.5431839    176.56588 0.0089937794 0.0073696769         3966 
 1637000   0.59599873   -9.5291624    176.52625 0.0089862679 0.0073618394         3974 
 1638000   0.60136718   -9.5204598     176.7209 0.0089906848 0.0073540098         3971 
 1639000   0.60391339   -9.5171952    176.61977 0.0089800572 0.0073461885         3976 
 1640000   0.59262135   -9.5338393    176.61006 0.0089740884 0.0073383849         3973 
 1641000   0.60357158   -9.5021658    176.70773 0.0089735794 0.0073305875         3968 
 1642000   0.59845759   -9.5156936     176.6787 0.0089666415 0.0073228029         3971 
 1643000   0.59692053   -9.5179661    176.80154 0.0089674142 0.0073150316         3969 
 1644000   0.58382111   -9.5281196    176.88617 0.0089662497  0.007307271         3978 
 1645000   0.60365148   -9.5182321    176.46103 0.0089392619 0.0072995269         3964 
 1646000   0.58309461   -9.5235672    176.50564 0.0089360893 0.0072917905         3965 
 1647000   0.58546754    -9.521935    176.64195 0.0089375609 0.0072840582         3967 
 1648000   0.58798146   -9.5305916    176.69369 0.0089347537 0.0072763456         3969 
 1649000   0.59552164   -9.5480111    176.58496 0.0089238406 0.0072686334         3965 
 1650000   0.58205354   -9.5273319    176.37135 0.0089076438 0.0072609375         3972 
 1651000   0.58537206   -9.5252143    176.81827 0.0089248065 0.0072532576         3974 
 1652000    0.5774161   -9.5193945    176.80504 0.0089187371 0.0072455839         3972 
 1653000   0.58979955   -9.5156773      176.761 0.0089111214  0.007237914         3969 
 1654000   0.61366335   -9.5220432     176.5656 0.0088958887 0.0072302647         3960 
 1655000   0.58482261   -9.5079471    176.46446 0.0088854211 0.0072226252         3969 
 1656000   0.58489095   -9.5279388    176.76339 0.0088950982 0.0072149934         3974 
 1657000   0.59116649   -9.5385122    176.53009  0.008877997 0.0072073764         3970 
 1658000   0.58641984   -9.5287641    176.73281  0.008882831 0.0071997683         3972 
 1659000   0.59268823   -9.5393186    176.45268 0.0088634058 0.0071921726         3974 
 1660000   0.58654162    -9.537872    176.26178  0.008848483 0.0071845892         3967 
 1661000    0.6013458   -9.5393675    176.56264   0.00885825 0.0071770143         3975 
 1662000   0.57674408   -9.5512095    176.40158 0.0088448444  0.007169444         3968 
 1663000   0.58667925   -9.5461681    176.62365 0.0088506537 0.0071618903         3952 
 1664000   0.58799847   -9.5342448    176.53479 0.0088408849 0.0071543458         3960 
 1665000   0.58890191   -9.5400918    176.36024 0.0088268391 0.0071468133         3966 
 1666000   0.57717198   -9.5435386    176.62097 0.0088345822 0.0071392936         3977 
 1667000    0.5820395   -9.5483365    176.52104  0.008824287 0.0071317854         3972 
 1668000   0.59036778   -9.5013475    176.45008 0.0088154514 0.0071242872         3961 
 1669000   0.60050137   -9.5532748    176.39639 0.0088074889 0.0071168023         3965 
 1670000   0.58917507   -9.5214907    176.35311 0.0088000554 0.0071093202         3979 
 1671000   0.59057843   -9.5373644    176.79054 0.0088166036 0.0071018533         3961 
 1672000   0.56940458   -9.5337552    176.39195  0.008791465  0.007094397         3971 
 1673000   0.58931762   -9.5410958    176.19218 0.0087762592 0.0070869484         3960 
 1674000   0.57357298   -9.5351864    176.13621 0.0087682301 0.0070795049         3976 
 1675000   0.57554539   -9.5504923    176.71885 0.0087919828 0.0070720783         3977 
 1676000   0.57972655   -9.5470618    176.39704 0.0087707357 0.0070646607         3972 
 1677000   0.59184904   -9.5222049    176.46898 0.0087690805 0.0070572584         3965 
 1678000   0.58399901   -9.5421511    176.78674 0.0087796355 0.0070498615         3969 
 1679000   0.58143151   -9.5384718    176.46434 0.0087584048 0.0070424817         3968 
 1680000   0.59081388   -9.5432527    176.44886 0.0087524236 0.0070351038         3967 
 1681000   0.59625618   -9.5495731    176.68017  0.008758684 0.0070277427         3966 
 1682000   0.57157555   -9.5453599     176.5139  0.008745239 0.0070203941         3971 
 1683000   0.58115335   -9.5384012    176.35151 0.0087320019 0.0070130508         3971 
 1684000   0.56560429    -9.541916     176.6675 0.0087424537 0.0070057191         3967 
 1685000   0.57876598   -9.5604194    176.42437 0.0087252407 0.0069983921         3961 
 1686000   0.58672824   -9.5328451    176.45291 0.0087214764 0.0069910831         3969 
 1687000   0.56703322    -9.548851    176.44109 0.0087157227 0.0069837747         3967 
 1688000   0.58696685    -9.562429    176.44115 0.0087105621 0.0069764786         3979 
 1689000   0.58914844   -9.5567678    176.42521 0.0087046185 0.0069691991         3967 
 1690000   0.56495197   -9.5726112    176.41266 0.0086988493 0.0069619261         3959 
 1691000    0.5824567   -9.5505871    176.49574  0.008697799 0.0069546629         3972 
 1692000   0.57118881   -9.5493794    176.42407 0.0086891288  0.006947407         3981 
 1693000   0.57657856   -9.5490842    176.56097  0.008690735 0.0069401652         3972 
 1694000   0.57490811   -9.5637015    176.15509  0.008665638 0.0069329365         3972 
 1695000   0.57818644    -9.556578    176.56819 0.0086808355 0.0069257125         3967 
 1696000   0.58050456    -9.560984    176.16962 0.0086561332 0.0069185096         3973 
 1697000   0.57224159   -9.5502444    176.26322 0.0086556285 0.0069113128         3979 
 1698000   0.57266034   -9.5600933    176.39714 0.0086571037 0.0069041225         3970 
 1699000   0.58649555   -9.5641641    176.33232 0.0086488286 0.0068969435         3965 
 1700000   0.57872721   -9.5616462    176.36042 0.0086451184 0.0068897811         3968 
 1701000   0.56350291   -9.5812178    176.15355 0.0086299013 0.0068826185         3971 
 1702000     0.581595   -9.5591632    176.12915 0.0086236364  0.006875465         3965 
 1703000   0.56744799   -9.5630074    176.47974 0.0086357282 0.0068683278         3969 
 1704000   0.57383764   -9.5431518    176.31547 0.0086226265  0.006861198         3973 
 1705000   0.57824982   -9.5395395     176.2262 0.0086132061 0.0068540765         3974 
 1706000   0.56902558    -9.552413    175.82829 0.0085887205 0.0068469686         3970 
 1707000   0.57384202   -9.5552766    176.24161 0.0086038668 0.0068398683         3978 
 1708000    0.5680279   -9.5705336    176.43092 0.0086080661  0.006832782         3969 
 1709000   0.57046638   -9.5574669    176.56192 0.0086094167 0.0068257066         3971 
 1710000   0.56024277   -9.5712361     176.3421 0.0085936694 0.0068186367         3968 
 1711000   0.55787417   -9.5450564    176.13714 0.0085786646 0.0068115809         3961 
 1712000    0.5828198   -9.5812709    176.21672 0.0085775271 0.0068045352         3965 
 1713000   0.57243343   -9.5498444    176.45649 0.0085841844 0.0067974981         3969 
 1714000   0.56604495   -9.5473829    176.11396 0.0085625225 0.0067904709         3972 
 1715000   0.56552471   -9.5630149    176.20231 0.0085618228 0.0067834517         3966 
 1716000    0.5683341   -9.5556336    176.34482 0.0085637539 0.0067764427         3968 
 1717000   0.56911305   -9.5547291    176.18956 0.0085512308 0.0067694429         3973 
 1718000   0.58038688   -9.5833997    176.12847 0.0085432903 0.0067624519         3974 
 1719000   0.56471557   -9.5604891    176.16487 0.0085400846 0.0067554672         3967 
 1720000   0.56868851      -9.5831    175.96901 0.0085256302 0.0067484943         3968 
 1721000   0.56282567   -9.5804029    176.17481 0.0085306418 0.0067415352         3977 
 1722000    0.5635908   -9.5753895     176.2961 0.0085315575  0.006734586         3976 
 1723000   0.54966127    -9.564106    176.37753 0.0085305443 0.0067276479         3968 
 1724000   0.56951407   -9.5696723    176.23887 0.0085188934 0.0067207159         3973 
 1725000    0.5561777   -9.5914513      176.235 0.0085137679  0.006713791         3973 
 1726000   0.55919641   -9.5762564    176.43044 0.0085182715 0.0067068797         3975 
 1727000   0.57068912   -9.5636597    176.34237 0.0085090894 0.0066999802         3974 
 1728000   0.56938373   -9.5691931    176.35578 0.0085048121 0.0066930839         3967 
 1729000    0.5634611   -9.5672351    176.42615 0.0085032846 0.0066861984         3969 
 1730000   0.55913939   -9.5652806    176.44495  0.008499275 0.0066793264         3970 
 1731000   0.56537912   -9.5831238     176.2673 0.0084858128 0.0066724635         3966 
 1732000   0.56504008   -9.5628912    176.03903 0.0084699301 0.0066656099         3969 
 1733000   0.56051756   -9.5862571    176.28399 0.0084768221 0.0066587639         3979 
 1734000   0.57064157   -9.5636625    176.19907 0.0084678523 0.0066519228         3968 
 1735000    0.5498424   -9.5704852     175.9336 0.0084502212 0.0066450938         3966 
 1736000   0.55481827   -9.5705203     176.1618 0.0084563075 0.0066382821         3974 
 1737000   0.56140453   -9.5881282    176.22651  0.008454544 0.0066314739         3975 
 1738000   0.56251913   -9.5759797    176.17918 0.0084474099 0.0066246746         3977 
 1739000   0.55662599   -9.5748207    176.33239 0.0084498939 0.0066178857         3972 
 1740000   0.56547724   -9.5655189    176.39278   0.00844793 0.0066111106         3976 
 1741000   0.56581736   -9.5794577    176.31243 0.0084392318 0.0066043371         3971 
 1742000   0.55965178   -9.5733373     176.1301  0.008425665 0.0065975714         3979 
 1743000   0.54890345   -9.5703267    176.33658 0.0084307027  0.006590826         3961 
 1744000   0.56157185   -9.5925441    176.15497 0.0084171906 0.0065840827         3975 
 1745000   0.56014528    -9.588952    176.12402 0.0084108892 0.0065773507         3978 
 1746000   0.55803777   -9.5773076     176.0767 0.0084038136 0.0065706233         3974 
 1747000    0.5638224   -9.5889572    176.08034 0.0083991765  0.006563913         3974 
 1748000   0.55130798   -9.5902599    175.99484 0.0083902954 0.0065572044         3974 
 1749000   0.53703134    -9.578158     176.0544 0.0083883363  0.006550512         3979 
 1750000    0.5526974   -9.5665561    176.26717 0.0083936747 0.0065438269         3968 
 1751000   0.56599519   -9.5706491    175.85889 0.0083694504 0.0065371498         3968 
 1752000   0.55555517   -9.5839465    176.16151 0.0083790674 0.0065304832         3971 
 1753000   0.56030237   -9.5802282    176.07249 0.0083700558 0.0065238287         3967 
 1754000   0.55212895   -9.5778362    175.81968 0.0083532726 0.0065171809         3965 
 1755000   0.55603215   -9.5940453    176.05376 0.0083596276  0.006510542         3972 
 1756000   0.54854926   -9.5789671    176.02735 0.0083536138 0.0065039093         3974 
 1757000   0.54268938   -9.5948849    176.22997 0.0083584697 0.0064972888         3984 
 1758000   0.53763181   -9.5751667    175.94821 0.0083403591 0.0064906765         3973 
 1759000   0.55430497   -9.5859373    176.04204 0.0083400625 0.0064840729         3968 
 1760000   0.54946149   -9.5736725     176.1581 0.0083408192 0.0064774746         3975 
 1761000   0.54298034   -9.5915246    176.04808 0.0083308765 0.0064708925         3977 
 1762000    0.5514532   -9.6074543    176.04365 0.0083259388 0.0064643123         3974 
 1763000   0.55431594   -9.5700662    176.22168 0.0083296313 0.0064577438         3965 
 1764000   0.55017079    -9.584345    176.31575 0.0083293532 0.0064511897         3966 
 1765000   0.54572129   -9.5899137    175.95895  0.008307788 0.0064446409         3976 
 1766000   0.56902608   -9.5940583    175.94657 0.0083024996 0.0064381042         3972 
 1767000   0.55535503   -9.5826756    175.98954 0.0082998272 0.0064315749         3972 
 1768000   0.53743545    -9.595287    175.86071 0.0082890606  0.006425054         3974 
 1769000   0.55078971     -9.60609    175.92377 0.0082873456 0.0064185435         3973 
 1770000   0.54652798   -9.5942117    175.78518 0.0082761385 0.0064120449         3963 
 1771000   0.53982924   -9.5895303     176.0001  0.008281578 0.0064055562         3969 
 1772000   0.54123198   -9.5865072     175.9831 0.0082761051 0.0063990736         3975 
 1773000   0.54920162   -9.5864421    176.00216  0.008272333 0.0063925994         3978 
 1774000   0.54028866   -9.5934768    176.05107 0.0082699674 0.0063861364         3981 
 1775000    0.5456666   -9.5915507    175.88574 0.0082575464 0.0063796801         3974 
 1776000   0.54103144   -9.6056855    176.35627 0.0082749752 0.0063732362         3974 
 1777000   0.53660123   -9.5931257    176.19635 0.0082628191 0.0063667917         3971 
 1778000   0.53684198   -9.5981328    176.02062 0.0082499352 0.0063603576         3976 
 1779000   0.54204079   -9.5886934    176.13908 0.0082508468 0.0063539366         3973 
 1780000   0.54806858    -9.608093    176.03794 0.0082414765 0.0063475227         3976 
 1781000   0.53894831   -9.5978801    175.90915  0.008230823 0.0063411177         3973 
 1782000   0.54866588   -9.6002573    175.65047 0.0082141071 0.0063347162         3974 
 1783000   0.54590638   -9.6102058    175.96949 0.0082244105 0.0063283227         3971 
 1784000   0.53940001   -9.6249407    175.90786 0.0082169217 0.0063219367         3975 
 1785000   0.53140546   -9.5949383    175.91678 0.0082127347 0.0063155666         3972 
 1786000   0.54163183   -9.6154916    175.67294  0.008196759  0.006309202         3966 
 1787000   0.54258212   -9.6051407    175.72773 0.0081947271 0.0063028485         3970 
 1788000   0.53714987   -9.6142997    176.04917 0.0082051253 0.0062965017         3971 
 1789000   0.54026912   -9.6092559     176.0873 0.0082023149  0.006290167         3978 
 1790000   0.53679646   -9.6116781    175.81184 0.0081849087 0.0062838413         3973 
 1791000   0.51746689   -9.6033744    175.82697 0.0081810425 0.0062775238         3981 
 1792000     0.538906   -9.6018364    175.80007 0.0081752265 0.0062712091         3974 
 1793000   0.54180087   -9.6101078    175.70065  0.008166046 0.0062649061         3982 
 1794000   0.53218532   -9.6227745    175.92847 0.0081720766 0.0062586113         3968 
 1795000   0.54213743   -9.6218832    176.10364 0.0081756564 0.0062523301         3972 
 1796000   0.54202997   -9.6270304    175.91187 0.0081622063 0.0062460555         3973 
 1797000   0.52751883   -9.6000504    175.75274 0.0081502848 0.0062397916         3978 
 1798000   0.53017144   -9.6112383    175.76484 0.0081463125 0.0062335327         3973 
 1799000   0.53151738   -9.6077722    175.72679 0.0081400217 0.0062272793         3973 
 1800000   0.54664979   -9.6111769    176.17925 0.0081564469 0.0062210374         3979 
 1801000   0.54085228   -9.6132439    176.00381 0.0081438001 0.0062148049         3967 
 1802000   0.52826451   -9.6194097    175.99945 0.0081390794 0.0062085797         3969 
 1803000   0.54373328    -9.625079    175.97793 0.0081335702  0.006202366         3969 
 1804000   0.53487795   -9.6243465     175.8368 0.0081225424 0.0061961571         3973 
 1805000   0.55072167   -9.6399595    175.70707 0.0081120533 0.0061899562         3977 
 1806000   0.54359814   -9.6114844    176.02943 0.0081224357 0.0061837659         3972 
 1807000   0.52729994    -9.614802    175.64708 0.0081003082 0.0061775793         3971 
 1808000   0.53282714   -9.6303227    175.82467  0.008104013 0.0061714066         3971 
 1809000   0.53823348   -9.6077424    175.86704 0.0081014853 0.0061652378         3964 
 1810000   0.52801609   -9.6143801    175.69334 0.0080890118  0.006159074         3974 
 1811000     0.528768   -9.6225499    175.69255 0.0080845089  0.006152922         3983 
 1812000   0.53497339   -9.6194548    175.71781 0.0080812092  0.006146775         3973 
 1813000   0.53864278   -9.6154543    176.06091 0.0080925223 0.0061406367         3964 
 1814000   0.52668372    -9.616925     175.8256 0.0080772509  0.006134511         3971 
 1815000   0.52221193   -9.6242372    175.81246 0.0080721974 0.0061283944         3971 
 1816000   0.52625937   -9.6299288     175.8448 0.0080692366 0.0061222868         3975 
 1817000   0.53155047    -9.633863    175.56959 0.0080521734 0.0061161839         3969 
 1818000   0.51642487    -9.623534    175.91673 0.0080636563 0.0061100847         3967 
 1819000   0.51924089   -9.6411042    175.68563 0.0080486362 0.0061040014         3978 
 1820000   0.52402853   -9.6424734    175.53233 0.0080371945   0.00609792         3980 
 1821000   0.53018505   -9.6486505    175.83887 0.0080468089 0.0060918517         3973 
 1822000   0.52384231   -9.6467547    175.69602  0.008035859 0.0060857906         3965 
 1823000   0.51465231   -9.6279906    175.77086 0.0080348721 0.0060797331         3973 
 1824000   0.52481898   -9.6310379    175.52194 0.0080190946 0.0060736882         3972 
 1825000   0.52426354   -9.6113676    175.69502 0.0080226038 0.0060676503         3971 
 1826000   0.52031032   -9.6380652    175.80124 0.0080230578 0.0060616226         3983 
 1827000   0.52217278   -9.6066853     175.4326 0.0080018517  0.006055602         3977 
 1828000   0.51805182   -9.6424536    175.52255 0.0080015748 0.0060495885         3975 
 1829000    0.5123815   -9.6393914    175.90621 0.0080146808 0.0060435866         3971 
 1830000   0.51745077   -9.6251024    175.79219 0.0080051089 0.0060375895         3975 
 1831000   0.52621106   -9.6307602    175.75831  0.007999195 0.0060316043         3969 
 1832000   0.52099953   -9.6246822    175.75191 0.0079945374 0.0060256223         3985 
 1833000   0.53316747   -9.6110078    175.54626 0.0079808265 0.0060196501         3966 
 1834000   0.51454335   -9.6301088    175.71472 0.0079841294 0.0060136924         3977 
 1835000   0.50654041    -9.624093    175.78259 0.0079828608 0.0060077397         3977 
 1836000   0.52275114   -9.6416192    175.91561 0.0079845504 0.0060017941         3971 
 1837000   0.52481627    -9.629304    175.69548 0.0079702178 0.0059958566         3961 
 1838000   0.51372102   -9.6195248    176.05803 0.0079823192 0.0059899264         3974 
 1839000   0.51423688   -9.6441756    175.56286 0.0079555401 0.0059839978         3967 
 1840000   0.51394203   -9.6432581     175.2892 0.0079388224 0.0059780777         3969 
 1841000   0.52095489     -9.64912    175.54356  0.007946024  0.005972167         3976 
 1842000   0.52133558   -9.6288508     175.5038 0.0079399113 0.0059662664         3975 
 1843000   0.52714409   -9.6314417     175.9504 0.0079557966 0.0059603793         3978 
 1844000   0.52252499   -9.6378214    175.96648  0.007952209 0.0059544994         3981 
 1845000    0.5153864   -9.6376493    175.68437 0.0079351569 0.0059486224         3974 
 1846000   0.52338695   -9.6283635    175.42281 0.0079190504 0.0059427536         3972 
 1847000   0.51560152   -9.6473278    175.55039 0.0079205193 0.0059368947         3975 
 1848000   0.51097815   -9.6433433    175.67994  0.007922075 0.0059310437         3975 
 1849000   0.52375426   -9.6279303    175.73315  0.007920189 0.0059252008         3977 
 1850000   0.51419524    -9.637838    175.59499 0.0079096842 0.0059193657         3976 
 1851000   0.52324843   -9.6432853    175.44378 0.0078986036 0.0059135363         3975 
 1852000   0.52581081   -9.6446431    175.68216  0.007905065  0.005907713         3972 
 1853000    0.5256999   -9.6546046    175.48732 0.0078920363 0.0059018992         3975 
 1854000   0.51294421   -9.6478312    175.65151 0.0078951594  0.005896092         3974 
 1855000   0.51260621   -9.6360901    175.43399 0.0078811317 0.0058902952         3979 
 1856000   0.51310176   -9.6256967    175.75056  0.007891099 0.0058845059         3975 
 1857000   0.50830484   -9.6365872    175.53971 0.0078773879 0.0058787234         3976 
 1858000   0.51506974   -9.6452394    175.73258 0.0078817984 0.0058729508         3977 
 1859000   0.51123339   -9.6554176    175.44977 0.0078648814 0.0058671851         3970 
 1860000   0.50991943   -9.6413682     175.5741  0.007866223 0.0058614247         3976 
 1861000   0.50743123   -9.6467594    175.41648 0.0078549384 0.0058556737         3973 
 1862000   0.51578022   -9.6504818    175.23878 0.0078427667  0.005849935         3976 
 1863000   0.49771849   -9.6617584    175.69885 0.0078591361 0.0058441966         3974 
 1864000     0.518054   -9.6589175    175.57047 0.0078491804 0.0058384679         3972 
 1865000    0.5079782   -9.6587363    175.41061 0.0078378287 0.0058327466         3979 
 1866000   0.51442381   -9.6478222    175.37818   0.00783218 0.0058270296         3970 
 1867000   0.51067118   -9.6651972    175.52783 0.0078346646 0.0058213226         3974 
 1868000   0.51187857   -9.6580807    175.55527 0.0078316949  0.005815622         3978 
 1869000   0.49306066   -9.6524751    175.36543 0.0078190401 0.0058099313         3976 
 1870000   0.49995987   -9.6703823    175.54124 0.0078226935 0.0058042456         3979 
 1871000   0.50261671   -9.6436171    175.56466 0.0078195554 0.0057985713         3975 
 1872000   0.49396068   -9.6701958    175.31033 0.0078040567 0.0057929002         3969 
 1873000   0.50848083   -9.6581058    175.40757 0.0078042164 0.0057872373         3976 
 1874000   0.50754211   -9.6590093    175.49529 0.0078039528 0.0057815868         3971 
 1875000   0.51202497   -9.6592731    175.47784  0.007799015 0.0057759382         3979 
 1876000   0.49421364   -9.6524483    175.35939 0.0077895962 0.0057702965         3966 
 1877000   0.51026485   -9.6512258    175.62634 0.0077972981 0.0057646659         3969 
 1878000   0.50199899    -9.657135    175.33987 0.0077804344 0.0057590447         3972 
 1879000   0.49255506   -9.6604361    175.47252 0.0077821768 0.0057534243         3976 
 1880000   0.49709903   -9.6634537    175.22048 0.0077668653  0.005747817         3974 
 1881000   0.50232502   -9.6527891    175.50836   0.00777549 0.0057422149         3981 
 1882000   0.50761979   -9.6667162    175.27912 0.0077612081 0.0057366215         3970 
 1883000   0.50370109   -9.6511694    175.56489  0.007769733 0.0057310354         3970 
 1884000   0.50728628   -9.6676594    175.63864 0.0077688713  0.005725461         3978 
 1885000   0.50728909   -9.6673242    175.32254 0.0077507754  0.005719895         3980 
 1886000   0.50346263   -9.6582586    175.54294 0.0077564041 0.0057143292         3966 
 1887000    0.4942989   -9.6576461    175.48613  0.007749785  0.005708773         3972 
 1888000   0.50346066   -9.6711898     175.4289 0.0077431542  0.005703223         3972 
 1889000   0.50444206   -9.6658237    175.20135 0.0077290166 0.0056976816         3982 
 1890000   0.49288524   -9.6510811    175.08773 0.0077199177 0.0056921509         3983 
 1891000   0.49775818   -9.6724417     175.1494 0.0077185528 0.0056866286         3980 
 1892000   0.48657521   -9.6625365    175.44145 0.0077273365 0.0056811078         3977 
 1893000   0.51181252   -9.6686482    175.37272 0.0077202291 0.0056755909         3969 
 1894000   0.48894325    -9.667598    175.22345 0.0077095849 0.0056700815         3977 
 1895000   0.49464439   -9.6726143    175.42794 0.0077145092 0.0056645838         3975 
 1896000   0.49169757   -9.6847516     175.5937 0.0077177261 0.0056590928         3984 
 1897000   0.49741481   -9.6736609    175.43761 0.0077068005 0.0056536104         3969 
 1898000   0.50181795   -9.6849006    175.32007 0.0076975794 0.0056481374         3970 
 1899000   0.50189343   -9.6661022    175.61118 0.0077063009 0.0056426714         3974 
 1900000   0.49349179   -9.6666375    175.23762 0.0076858607 0.0056372092         3977 
 1901000   0.50389001   -9.6852243    175.23974 0.0076819102 0.0056317559         3980 
 1902000   0.49180382   -9.6761744    175.34447 0.0076824603 0.0056263057         3981 
 1903000   0.49642027   -9.6924292    175.14928 0.0076698758  0.005620867         3969 
 1904000   0.48845418   -9.6774059    175.26321 0.0076708338 0.0056154317         3978 
 1905000   0.48545004   -9.6701634    175.06839 0.0076582846 0.0056100041         3976 
 1906000   0.49554571   -9.6601307    175.57518 0.0076764243  0.005604587         3980 
 1907000   0.49962812   -9.6727331    175.04463 0.0076492147 0.0055991732         3971 
 1908000   0.49741329   -9.6818427    175.35504 0.0076587631 0.0055937663         3975 
 1909000   0.48918099   -9.6616659    175.15905 0.0076461958 0.0055883622         3975 
 1910000   0.48303063   -9.6899275    175.35211 0.0076506157 0.0055829716         3980 
 1911000   0.49215394   -9.6803626    175.14836  0.007637727  0.005577587         3979 
 1912000   0.48581025   -9.6749762    175.39226 0.0076443629 0.0055722071         3980 
 1913000   0.50061433   -9.6873486    175.19251 0.0076316655 0.0055668365         3980 
 1914000   0.48387742    -9.668408      175.112 0.0076241729 0.0055614729         3974 
 1915000   0.48151422   -9.6876491     174.9466 0.0076129938 0.0055561162         3975 
 1916000   0.47851124   -9.6643129    175.19861 0.0076199815 0.0055507693         3968 
 1917000   0.48306485   -9.6803063    175.41676 0.0076254895 0.0055454279         3971 
 1918000   0.49830115   -9.6681209    175.59199 0.0076291271 0.0055400951         3971 
 1919000   0.48518352    -9.681439     175.1216 0.0076047248 0.0055347645         3973 
 1920000    0.4854868   -9.6926973    175.29499 0.0076082896 0.0055294437         3979 
 1921000   0.48116509   -9.6835356    175.25296 0.0076025055   0.00552413         3970 
 1922000   0.47996386   -9.7082666    175.28641 0.0076000006 0.0055188212         3980 
 1923000   0.48941064   -9.6799894    175.17245 0.0075911096 0.0055135238         3975 
 1924000    0.4863067   -9.6780269    175.22452 0.0075894198 0.0055082328         3970 
 1925000   0.48782014   -9.6939897    175.15625 0.0075825216 0.0055029445         3981 
 1926000   0.49591473    -9.674725    175.40819 0.0075894854 0.0054976671         3977 
 1927000    0.4838176   -9.6831556    175.15359 0.0075745368 0.0054923957         3978 
 1928000   0.47382336   -9.7031616    175.08151 0.0075674928 0.0054871287         3978 
 1929000   0.49338548   -9.6813412    175.22506  0.007569771 0.0054818688         3979 
 1930000   0.48947211   -9.6911321    175.29856 0.0075690223 0.0054766164         3968 
 1931000   0.47857907   -9.6766897    175.13571 0.0075580747 0.0054713704         3978 
 1932000   0.48267481   -9.6928104    175.33569 0.0075627884 0.0054661308         3971 
 1933000   0.48246019   -9.6916109    175.27239 0.0075561472 0.0054609005         3977 
 1934000   0.48397486   -9.6964295    175.18527 0.0075484864 0.0054556768         3976 
 1935000   0.47459769   -9.7034134    175.18395 0.0075445283 0.0054504622         3976 
 1936000   0.47972628    -9.705236     175.3445  0.007547542 0.0054452507         3974 
 1937000   0.48081342   -9.6945013    174.99821 0.0075287476 0.0054400452         3974 
 1938000   0.47909223    -9.702895    175.37007 0.0075408527 0.0054348501         3982 
 1939000   0.48066679   -9.6904799    175.21207 0.0075301733 0.0054296562         3974 
 1940000   0.48582286   -9.6940383    175.39129 0.0075339902 0.0054244737         3978 
 1941000   0.47140242    -9.687719    175.11344 0.0075181796 0.0054192994         3970 
 1942000   0.48332841   -9.6964765    175.08735 0.0075131888 0.0054141302         3976 
 1943000   0.48162718   -9.6930385    175.18419 0.0075134752 0.0054089651         3967 
 1944000   0.47835433   -9.6931181     175.1522 0.0075082392 0.0054038084         3972 
 1945000    0.4728485   -9.6976569    175.41528 0.0075156504 0.0053986549         3984 
 1946000   0.46908459   -9.6913161    175.28039 0.0075060119 0.0053935121         3976 
 1947000   0.47506531    -9.703122    175.02718  0.007491319 0.0053883741         3974 
 1948000     0.467383   -9.7199819    174.94552 0.0074839801 0.0053832396         3984 
 1949000   0.46555827   -9.7021158    175.11152 0.0074872377 0.0053781147         3979 
 1950000   0.48155914   -9.7054382    175.04244 0.0074804463 0.0053729983         3985 
 1951000   0.48768067   -9.6944144     175.3784  0.007490962 0.0053678888         3967 
 1952000   0.46903154   -9.6923643    175.07833 0.0074743139 0.0053627847         3970 
 1953000   0.47191659   -9.7056874    175.14697 0.0074734157  0.005357685         3976 
 1954000   0.47144232   -9.7183881    175.11718 0.0074683204 0.0053525931         3976 
 1955000   0.48193683   -9.7014347    175.31604 0.0074729771 0.0053475066         3969 
 1956000   0.47317178   -9.7244293    174.99035 0.0074552807 0.0053424285         3975 
 1957000    0.4692413   -9.7033812    175.12671 0.0074572775 0.0053373585         3970 
 1958000   0.47154002   -9.7034835    174.91198 0.0074443302 0.0053322927         3972 
 1959000   0.46851139   -9.6951207    175.25638 0.0074551804 0.0053272356         3983 
 1960000   0.46592777   -9.6924559    175.17195  0.007447787 0.0053221832         3973 
 1961000   0.47208191    -9.710748     175.2769 0.0074484488 0.0053171382         3971 
 1962000   0.46344929   -9.6983399    175.07238 0.0074359658 0.0053120954         3963 
 1963000   0.47616445   -9.7044517    175.03543 0.0074306092 0.0053070656         3981 
 1964000   0.46203633   -9.7195586    175.29559 0.0074378646 0.0053020368         3968 
 1965000   0.46335175   -9.6978156    175.00556 0.0074217795 0.0052970211         3975 
 1966000     0.461395   -9.7040366    174.89135 0.0074131635 0.0052920067         3975 
 1967000   0.45967343   -9.7196249    175.22537 0.0074235457 0.0052869988         3983 
 1968000   0.46388381   -9.7123019    174.93122  0.007407318 0.0052820017         3982 
 1969000   0.46456255   -9.7233872    175.08498 0.0074100636 0.0052770095         3982 
 1970000   0.47022858   -9.7064888    175.05262  0.007404933 0.0052720217         3970 
 1971000   0.47308219    -9.707664    175.20477 0.0074076093  0.005267041         3971 
 1972000   0.46998279   -9.7222107    175.01456 0.0073958146 0.0052620664         3972 
 1973000   0.47368404   -9.7076638    174.96552 0.0073899951 0.0052570968         3977 
 1974000   0.45902011   -9.7120455    175.13373 0.0073933523 0.0052521363         3971 
 1975000   0.47342673   -9.7209899    175.02718 0.0073851132 0.0052471814         3978 
 1976000   0.47126258   -9.7147761    174.93543 0.0073775062 0.0052422295         3982 
 1977000   0.45998805   -9.7376784    174.88004   0.00737144 0.0052372857         3978 
 1978000   0.46188321   -9.7205938    175.42946 0.0073908602 0.0052323513         3974 
 1979000   0.47039032   -9.7103824    175.05925 0.0073715365 0.0052274203         3977 
 1980000   0.45500116   -9.7077767    174.93972 0.0073627827 0.0052224983         3980 
 1981000   0.46515106    -9.730707    174.76065 0.0073515333  0.005217581         3982 
 1982000   0.45644365   -9.7171689      174.875 0.0073526321 0.0052126705         3975 
 1983000   0.46052545   -9.7223162    175.06388 0.0073568616 0.0052077678         3975 
 1984000   0.46286232   -9.7223315    174.95162 0.0073484381 0.0052028705         3970 
 1985000    0.4524143   -9.7155584    174.92977 0.0073438191 0.0051979804         3976 
 1986000   0.46420294   -9.7344772    175.06501 0.0073457958 0.0051930944         3976 
 1987000   0.46529504   -9.7121632    174.84505 0.0073328742 0.0051882166         3975 
 1988000   0.45410576   -9.7229021    175.00732 0.0073359876 0.0051833461         3977 
 1989000   0.45533785   -9.7133091    174.81942 0.0073244267 0.0051784787         3974 
 1990000   0.45267736   -9.7133541    174.92331 0.0073250968 0.0051736179         3974 
 1991000   0.45225788   -9.7292282    174.96857  0.007323312 0.0051687616         3984 
 1992000    0.4516384   -9.7361464    174.93843 0.0073183747 0.0051639088         3977 
 1993000   0.45832975   -9.7286258    174.91899 0.0073138897 0.0051590677         3968 
 1994000   0.45052528   -9.7342837    174.90264 0.0073095386 0.0051542316         3977 
 1995000    0.4606257   -9.7260862    174.66207 0.0072958257 0.0051494031         3982 
 1996000   0.45317281   -9.7269989      174.778 0.0072970105 0.0051445794         3978 
 1997000   0.44830645   -9.7314208    174.77375 0.0072931795 0.0051397619         3981 
 1998000   0.46637401   -9.7242095    175.02992 0.0073002134 0.0051349511         3983 
 1999000   0.44955528   -9.7249073    174.86408 0.0072896482 0.0051301482         3970 
 2000000   0.45256893   -9.7296458    174.74079 0.0072808663 0.0051253517         3970 
 2001000   0.44870016   -9.7319352     174.7215 0.0072764243 0.0051205603         3973 
 2002000   0.45994807   -9.7445231    174.83577 0.0072775464 0.0051157743         3977 
 2003000   0.45267983   -9.7152892    175.10566 0.0072851416 0.0051109944         3974 
 2004000   0.45954204   -9.7325472    174.86703 0.0072715831 0.0051062219         3979 
 2005000   0.45895615   -9.7365166    175.05968 0.0072759636 0.0051014553         3972 
 2006000   0.45444689   -9.7430448    174.93669 0.0072672269  0.005096692         3965 
 2007000   0.45718973   -9.7337587    174.76755 0.0072565833 0.0050919334         3976 
 2008000   0.45718616   -9.7288375    174.85936 0.0072567795 0.0050871849         3974 
 2009000   0.45495507   -9.7279881    174.79883 0.0072506566 0.0050824406         3978 
 2010000   0.44446222   -9.7413664     174.9738 0.0072543035 0.0050777013         3975 
 2011000   0.45134327   -9.7251323     174.6485 0.0072372162 0.0050729689         3978 
 2012000   0.45083075   -9.7387525    174.66901 0.0072344684 0.0050682424         3976 
Loop time of 5249.35 on 48 procs for 2000000 steps with 4000 atoms

Performance: 65836.690 tau/day, 380.999 timesteps/s
99.4% CPU use with 48 MPI tasks x no OpenMP threads

MPI task timing breakdown:
Section |  min time  |  avg time  |  max time  |%varavg| %total
---------------------------------------------------------------
Pair    | 388.6      | 420.76     | 459.01     | 100.3 |  8.02
Neigh   | 37.209     | 39.054     | 41.212     |  13.4 |  0.74
Comm    | 339.15     | 377.91     | 410.58     | 105.2 |  7.20
Output  | 6.1367     | 6.1388     | 6.185      |   0.3 |  0.12
Modify  | 4334.5     | 4354       | 4377.3     |  16.5 | 82.94
Other   |            | 51.47      |            |       |  0.98

Nlocal:        83.3333 ave          87 max          77 min
Histogram: 1 0 0 3 5 7 6 11 10 5
Nghost:        2442.33 ave        2456 max        2430 min
Histogram: 2 8 2 6 6 10 4 4 4 2
Neighs:        16934.7 ave       19072 max       14809 min
Histogram: 5 2 7 5 5 4 7 4 6 3
FullNghs:      33869.0 ave       35709 max       30981 min
Histogram: 1 0 1 4 6 7 11 11 5 2

Total # of neighbors = 1625710
Ave neighs/atom = 406.42750
Neighbor list builds = 106336
Dangerous builds = 0

#clear
#
#next RN
#
#jump SELF
Total wall time: 1:27:32
