
units lj                  # Use reduced LJ style units
atom_style atomic         # Uncharged point particles
atom_modify map hash      # Needed for indexing of clusters etc
                          # Used to be able to find where atoms are in relation to each other.

lattice fcc 1.0 spacing 1 1 1
Lattice spacing in x,y,z = 1.5874011 1.5874011 1.5874011
region box block 0 10 0 10 0 10 units lattice
create_box 2 box
Created orthogonal box = (0.0000000 0.0000000 0.0000000) to (15.874011 15.874011 15.874011)
  3 by 4 by 4 MPI processor grid
create_atoms 1 box
Created 4000 atoms
  using lattice units in orthogonal box = (0.0000000 0.0000000 0.0000000) to (15.874011 15.874011 15.874011)
  create_atoms CPU = 0.003 seconds
set type 1 type/fraction 2 0.11 78393
Setting atom values ...
  470 settings made for type/fraction
mass 1 1.0
mass 2 1.0
pair_style lj/cut  3.5
pair_modify tail  yes
pair_coeff 1  1  1.0  1.0   # Intearaction between 1 and 1 set with epsilon = 1 and sigma = 1
pair_coeff 1  2  1.5  0.8
pair_coeff 2  2  0.5  0.88

write_data data.0
System init for write_data ...
Neighbor list info ...
  update every 1 steps, delay 10 steps, check yes
  max neighbors/atom: 2000, page size: 100000
  master list distance cutoff = 3.8
  ghost atom cutoff = 3.8
  binsize = 1.9, bins = 9 9 9
  1 neighbor lists, perpetual/occasional/extra = 1 0 0
  (1) pair lj/cut, perpetual
      attributes: half, newton on
      pair build: half/bin/atomonly/newton
      stencil: half/bin/3d
      bin: standard
WARNING: Not all mixed pair coeffs generated from mixing. Use write_data with 'pair ij' option to store all pair coeffs. (../write_data.cpp:312)


#############################
#   M E L T   S Y S T E M   #
#############################

velocity all create 2.4 2750902 mom yes dist gaussian # Assign velocities
                                                    # Temperature 2.4, random number seed, zero linear momentum
                                                                                # Gaussian distribution

timestep 0.002   # simulation timestep
thermo 1000       # output thermodynamic data every 1000 steps bf 100

# Define a fix  in this case with index 1 applied to all
# particles in the simulation. This fix is for simulations
# in the anisotropic NPT ensemble. Note that we use the MTK
# correction.
fix 1 all npt temp 2.4 2.4 0.1 iso 5.68 5.68 0.5 mtk yes tchain 5 pchain 5 # Use NPT ensemble
                                                                         # Set temperature and pressure and damping
                                                                         # Numbers of thermostats in chain and in barostat
run 10000          # run for 10000 steps
Per MPI rank memory allocation (min/avg/max) = 3.642 | 3.644 | 3.648 Mbytes
Step Temp E_pair E_mol TotEng Press Volume 
       0          2.4   -7.6169122            0   -4.0178122   -3.1065461         4000 
    1000    2.3873999   -4.6977287            0   -1.1175241    5.7302525    4750.7993 
    2000    2.3308294   -4.6244491            0    -1.129079    5.5940306    4810.2892 
    3000    2.3806772   -4.6085324            0   -1.0384094    5.7341876    4813.3354 
    4000    2.4418998   -4.6481033            0  -0.98616932    5.8344612    4777.4824 
    5000    2.3460703   -4.6296194            0   -1.1113937    5.5691041    4808.6908 
    6000    2.4145434   -4.6153405            0   -0.9944309    5.5020867     4832.347 
    7000    2.3870562   -4.7065999            0   -1.1269107     5.543169    4763.1708 
    8000    2.3878713   -4.6064067            0   -1.0254952    5.7236818    4811.9207 
    9000    2.4540215   -4.6496836            0  -0.96957163    5.8323769     4778.368 
   10000    2.4161911   -4.6459797            0   -1.0225991    5.7389695    4783.9032 
Loop time of 2.1907 on 48 procs for 10000 steps with 4000 atoms

Performance: 788790.363 tau/day, 4564.759 timesteps/s
99.6% CPU use with 48 MPI tasks x no OpenMP threads

MPI task timing breakdown:
Section |  min time  |  avg time  |  max time  |%varavg| %total
---------------------------------------------------------------
Pair    | 0.86083    | 0.9619     | 1.0361     |   3.5 | 43.91
Neigh   | 0.1869     | 0.19735    | 0.20906    |   1.1 |  9.01
Comm    | 0.67938    | 0.75969    | 0.84626    |   4.5 | 34.68
Output  | 0.00024316 | 0.00025157 | 0.00043004 |   0.0 |  0.01
Modify  | 0.22864    | 0.25694    | 0.28222    |   2.8 | 11.73
Other   |            | 0.01458    |            |       |  0.67

Nlocal:        83.3333 ave          93 max          76 min
Histogram: 5 6 5 3 9 9 3 3 4 1
Nghost:        1454.54 ave        1492 max        1415 min
Histogram: 1 3 2 9 9 8 7 3 4 2
Neighs:        7961.52 ave        9064 max        7025 min
Histogram: 2 8 4 5 7 10 2 7 0 3

Total # of neighbors = 382153
Ave neighs/atom = 95.538250
Neighbor list builds = 902
Dangerous builds = 205

# Equilibrate just above the melting temperature to avoid step fn in T

fix 1 all npt temp 1.25 1.25 0.1 iso 5.68 5.68 0.5 mtk yes tchain 5 pchain 5
run 2000
Per MPI rank memory allocation (min/avg/max) = 3.642 | 3.644 | 3.648 Mbytes
Step Temp E_pair E_mol TotEng Press Volume 
   10000    2.4161911   -4.6459797            0   -1.0225991    5.7389695    4783.9032 
   11000    1.2546796    -6.282501            0   -4.4009521    5.5843473    3936.1554 
   12000    1.2556041   -6.2648138            0   -4.3818785    5.8087965     3925.161 
Loop time of 0.566077 on 48 procs for 2000 steps with 4000 atoms

Performance: 610517.758 tau/day, 3533.089 timesteps/s
99.2% CPU use with 48 MPI tasks x no OpenMP threads

MPI task timing breakdown:
Section |  min time  |  avg time  |  max time  |%varavg| %total
---------------------------------------------------------------
Pair    | 0.20425    | 0.22729    | 0.26386    |   2.7 | 40.15
Neigh   | 0.031009   | 0.033253   | 0.036198   |   0.7 |  5.87
Comm    | 0.14797    | 0.19764    | 0.22871    |   4.4 | 34.91
Output  | 4.9404e-05 | 5.1616e-05 | 6.5938e-05 |   0.0 |  0.01
Modify  | 0.080621   | 0.10341    | 0.13684    |   4.8 | 18.27
Other   |            | 0.004434   |            |       |  0.78

Nlocal:        83.3333 ave          91 max          73 min
Histogram: 1 1 3 5 6 9 11 4 6 2
Nghost:        1658.90 ave        1687 max        1627 min
Histogram: 2 1 1 5 13 8 6 8 2 2
Neighs:        9714.44 ave       10816 max        8314 min
Histogram: 2 0 2 5 10 9 8 5 4 3

Total # of neighbors = 466293
Ave neighs/atom = 116.57325
Neighbor list builds = 142
Dangerous builds = 5

#############################
# L I N E A R  Q U E N C H  #
#############################

# Define solid atoms. This closely follows ten Wolde  Ruiz-Montero and Frenkel  Faraday Discuss  1996  104  93-110
# Compute components of the per-atom q6 vector
compute q6 all orientorder/atom degrees 1 6 components 6 nnn NULL cutoff 1.3 # compute the Q6 parameter.
                                                                             # Use all neighbours within 1.3 unit cell.

# get number of connections
compute coord_number all coord/atom orientorder q6 0.5

# An atom is solid if it has 8 or more connections (of a possible 14)
variable is_solid atom c_coord_number>=8
group solid dynamic all var is_solid    # Must be dynamic to update
dynamic group solid defined

# do clustering
compute cluster solid cluster/atom 1.3 # Create a cluster where all atoms within are solid and max 1.3 units from another member

# define chunks one chunk per cluster
compute clus_chunks solid chunk/atom c_cluster nchunk every compress yes  # Says which atoms are in which chunk

# count the size of each chunk
compute size_chunks solid property/chunk clus_chunks count


# Find the maximum entry in the vector of chunk sizes
variable max_n equal max(c_size_chunks)


# Thermo style which includes this variable
# thermo_style custom step temp pe vol v_max_n

thermo ${N}  # Print the thermo information every 100 steps
thermo 1000  

# Reset the npt fix at a lower temperature (below freezing)
fix 1  all npt temp  ${temp} ${temp}  0.1  iso  5.68  5.68  0.5  mtk yes tchain  5  pchain  5
fix 1  all npt temp  0.45 ${temp}  0.1  iso  5.68  5.68  0.5  mtk yes tchain  5  pchain  5
fix 1  all npt temp  0.45 0.45  0.1  iso  5.68  5.68  0.5  mtk yes tchain  5  pchain  5

dump dmp2 all dcd ${N} traj.dcd
dump dmp2 all dcd 1000 traj.dcd


compute msd all msd com yes
variable twopoint equal c_msd[4]/6/(step*dt+1.0e-6)
fix 9 all vector 10 c_msd[4]
variable fit equal slope(f_9)/6/(10*dt)
thermo_style custom step temp pe c_msd[4] v_twopoint v_fit v_max_n

fix 1 all npt temp 1.25 ${temp} 0.1 iso 5.68 5.68 0.5 mtk yes tchain 5 pchain 5
fix 1 all npt temp 1.25 0.45 0.1 iso 5.68 5.68 0.5 mtk yes tchain 5 pchain 5
run 2000000 # 5000000  # Run for this many steps
Neighbor list info ...
  update every 1 steps, delay 10 steps, check yes
  max neighbors/atom: 2000, page size: 100000
  master list distance cutoff = 3.8
  ghost atom cutoff = 3.8
  binsize = 1.9, bins = 9 9 9
  4 neighbor lists, perpetual/occasional/extra = 1 3 0
  (1) pair lj/cut, perpetual
      attributes: half, newton on
      pair build: half/bin/atomonly/newton
      stencil: half/bin/3d
      bin: standard
  (2) compute orientorder/atom, occasional
      attributes: full, newton on
      pair build: full/bin/atomonly
      stencil: full/bin/3d
      bin: standard
  (3) compute coord/atom, occasional
      attributes: full, newton on
      pair build: full/bin/atomonly
      stencil: full/bin/3d
      bin: standard
  (4) compute cluster/atom, occasional
      attributes: full, newton on
      pair build: full/bin/atomonly
      stencil: full/bin/3d
      bin: standard
Per MPI rank memory allocation (min/avg/max) = 9.751 | 9.758 | 9.765 Mbytes
Step Temp PotEng c_msd[4] v_twopoint v_fit v_max_n 
   12000    1.2556041   -6.2648138 7.253576e-31 5.0372054e-33 8.3333333e+20            2 
   13000    1.2493037   -6.2037004   0.56775289 0.0036394415  0.046205685            2 
   14000    1.2587906   -6.2336628    1.1055815  0.006580842  0.046032503            2 
   15000    1.2334338    -6.249912    1.6656643 0.0092536905  0.046200663            3 
   16000    1.2644634   -6.2485739    2.1680455  0.011291903  0.045476509            2 
   17000    1.2451005   -6.2366829    2.6730683  0.013103276  0.044585769            3 
   18000    1.2527715   -6.2167817    3.2192757  0.014904054  0.044325789            3 
   19000    1.2255153   -6.2425622    3.7399369  0.016403232  0.044280999            1 
   20000    1.2066158   -6.2621719    4.3460496   0.01810854  0.044536796            2 
   21000    1.2395444   -6.2315399    4.8176667  0.019117725  0.044625437            1 
   22000    1.2447679   -6.2552356    5.2811491  0.020004352  0.044290123            1 
   23000    1.2376187   -6.2874187    5.7002124  0.020652943    0.0437642            2 
   24000    1.2506279   -6.2281258    6.3030005  0.021885418  0.043510824            3 
   25000    1.2569757   -6.2735346    6.8435488  0.022811829  0.043478617            2 
   26000    1.2308599   -6.2831862    7.3098773  0.023429093  0.043458992            3 
   27000    1.2197036   -6.2871036    7.7254059  0.023843845  0.043196309            1 
   28000    1.2139988   -6.2593847    8.2558133  0.024570873  0.042973146            1 
   29000    1.2306518   -6.2572758    8.8323362  0.025380276  0.042833888            1 
   30000    1.2692385   -6.2483077    9.3852917  0.026070254  0.042764567            1 
   31000    1.2304715   -6.2678337     9.995503  0.026869631  0.042844354            2 
   32000    1.2221072   -6.2792214    10.510492  0.027371072  0.042991784            2 
   33000    1.2040738   -6.2509489     11.01957  0.027827196   0.04307829            2 
   34000    1.2496997   -6.2736138    11.540511  0.028285567  0.043148728            2 
   35000    1.2554577   -6.2455795    12.139061  0.028902526  0.043190846            2 
   36000     1.275978   -6.2560771    12.598777  0.029163834  0.043287285            2 
   37000    1.2462211   -6.2719775     13.13246  0.029577612  0.043386729            1 
   38000    1.2428024   -6.3208934    13.752675  0.030159375  0.043485179            2 
   39000    1.2176284    -6.274965     14.22996  0.030405897  0.043541558            2 
   40000    1.2414255   -6.2008149    14.670474  0.030563487  0.043579444            2 
   41000    1.2622562   -6.2601726    15.102739  0.030696624  0.043528421            4 
   42000    1.2263791    -6.271172    15.610113  0.030972446  0.043459835            1 
   43000    1.2379061   -6.2738602    16.095568  0.031192962   0.04339475            1 
   44000    1.2262583   -6.2757517    16.629806  0.031495844  0.043356542            3 
   45000    1.2428915   -6.2793232    17.247096  0.031939066  0.043363106            2 
   46000    1.2200229   -6.2749448    17.712689  0.032088205   0.04335018            3 
   47000    1.2373291   -6.3193004    18.043708  0.031992389  0.043302044            6 
   48000    1.2278893   -6.2475408     18.73343  0.032523315   0.04325771            2 
   49000    1.2212045   -6.2850222    19.146871  0.032562706  0.043227883            1 
   50000    1.2667569   -6.2811226    19.626399  0.032710665  0.043184185            1 
   51000    1.2368044     -6.30606    20.132717  0.032896595  0.043121326            2 
   52000    1.2505266   -6.2785269    20.730108  0.033221326  0.043101501            2 
   53000    1.2246464   -6.2640117    21.179264  0.033300729  0.043073547            3 
   54000    1.2434336   -6.2407451    21.721088  0.033520197  0.043037281            5 
   55000    1.2481027   -6.2918527    22.194931  0.033628684  0.043013725            2 
   56000    1.2173217   -6.2872549    22.525788  0.033520517  0.042952365            2 
   57000    1.2305122   -6.2557606    23.069113  0.033726773  0.042882262            1 
   58000     1.226403   -6.2990372    23.518421  0.033790835  0.042826719            3 
   59000    1.2339608   -6.2758841    24.104877  0.034046437  0.042777737            2 
   60000    1.2241017   -6.2676323    24.845611  0.034507792  0.042752518            2 
   61000    1.2369487   -6.2651843    25.393891  0.034691108  0.042771059            1 
   62000    1.2395114   -6.3013737    25.766996   0.03463306  0.042771054            2 
   63000    1.2106146   -6.3209083    26.055902  0.034465479   0.04275285            3 
   64000    1.2546315   -6.2792574    26.757338  0.034840284  0.042734787            1 
   65000    1.2340676   -6.2954604    27.116368  0.034764575  0.042713545            2 
   66000     1.220558   -6.2712239    27.744062  0.035030382  0.042691434            3 
   67000     1.197942   -6.2907397     28.06251   0.03490362  0.042670318            2 
   68000    1.2354501   -6.2975026    28.662972  0.035126191  0.042635559            1 
   69000     1.216129   -6.3211026    29.268132  0.035347986  0.042615771            1 
   70000    1.2391427   -6.2830178    29.748315   0.03541466  0.042601824            3 
   71000    1.2298426   -6.3164865    30.355468  0.035628483  0.042601864            3 
   72000    1.2418094   -6.2902514     31.01492  0.035896898  0.042619423            2 
   73000    1.2452288   -6.2863873    31.497867  0.035956469  0.042630133            1 
   74000    1.2381933   -6.2944248    31.797814  0.035808349  0.042618482            1 
   75000    1.2275924    -6.298406    32.262916  0.035847684  0.042608906            3 
   76000    1.2169529   -6.2925364    32.771287  0.035933429  0.042597892            2 
   77000    1.2267333   -6.2653448    33.288363  0.036026367  0.042580452            1 
   78000     1.226976   -6.2976112    33.791592  0.036102128  0.042576005            3 
   79000    1.2241846   -6.2782579    34.454626  0.036344542  0.042575805            2 
   80000    1.2033388   -6.3051717    34.866798  0.036319581  0.042574376            2 
   81000    1.2037595   -6.3288646    35.455501  0.036476853  0.042568607            2 
   82000    1.2034561   -6.2837086    36.014458  0.036600059  0.042569344            2 
   83000    1.2235839   -6.2903708    36.527646  0.036674343  0.042570558            2 
   84000    1.2359908   -6.3207271    36.975862  0.036682402  0.042567242            3 
   85000    1.2027113   -6.3080447    37.420878  0.036687135  0.042563993            2 
   86000    1.2260479   -6.3013096    38.096936  0.036915636  0.042572737            2 
   87000    1.2317055   -6.2729384    38.700886  0.037069814  0.042576654            2 
   88000    1.2135738    -6.312081    39.110179  0.037036154  0.042578127            2 
   89000    1.2005938   -6.2731875    39.571434  0.037051904  0.042582234            1 
   90000    1.2070197   -6.2769871    40.000074  0.037037105  0.042582075            6 
   91000    1.2489843   -6.3048787     40.62718  0.037204377  0.042578756            3 
   92000    1.2253624   -6.2979778    40.873107  0.037022741  0.042564727            3 
   93000    1.2255286    -6.315769    41.288145  0.036996546   0.04254742            2 
   94000      1.21319   -6.3355067    41.663078  0.036935353  0.042521158            3 
   95000     1.190548    -6.285457    42.110991  0.036939466  0.042488206            2 
   96000    1.2278965   -6.2881691    42.568328  0.036951673   0.04245694            2 
   97000     1.222099   -6.3220971    42.844131  0.036807672  0.042416773            2 
   98000    1.2214883   -6.3017327    43.633441  0.037103266  0.042377411            3 
   99000    1.1967196   -6.3079221    43.896148  0.036949619  0.042342803            2 
  100000    1.2182657   -6.3164836    44.496966  0.037080805  0.042307834            2 
  101000    1.2011906   -6.3337472    45.114945  0.037223552  0.042278675            4 
  102000    1.2515212   -6.3110964    45.455031  0.037136463    0.0422497            3 
  103000    1.2052815   -6.3478337    45.927592  0.037158246  0.042221103            2 
  104000    1.2255428   -6.3536873    46.574184  0.037319058  0.042199466            2 
  105000    1.2228912   -6.2942289     47.34804  0.037577809  0.042188038            3 
  106000     1.199385   -6.3092628    47.704168  0.037503276  0.042176203            2 
  107000    1.2374569   -6.3440659    48.394125  0.037690128  0.042169686            1 
  108000    1.2108008   -6.3135821    48.836177  0.037682235  0.042165048            4 
  109000    1.2254116   -6.3459909    49.166472  0.037589046  0.042153691            3 
  110000    1.2008216    -6.350747    49.533796  0.037525603  0.042131772            4 
  111000    1.2181549   -6.3388294    49.777523  0.037370512  0.042109002            2 
  112000    1.2075045   -6.3376101    50.290415  0.037418463  0.042075047            2 
  113000    1.2031324   -6.3323518    50.671676  0.037368492  0.042043396            2 
  114000    1.2109475   -6.3336036    51.182028  0.037413763  0.042009974            2 
  115000    1.2159705    -6.295537    51.615141  0.037402276  0.041972149            1 
  116000    1.2071722   -6.3226312     52.12444  0.037445718  0.041935709            2 
  117000    1.1937111   -6.3011724    52.528171  0.037413227  0.041903733            2 
  118000    1.2004726    -6.333233    52.865763  0.037334578  0.041868786            2 
  119000    1.2088667   -6.3216148      53.3302  0.037346078   0.04182928            4 
  120000    1.1748974   -6.3244234    53.626607  0.037240699  0.041788963            1 
  121000    1.2238743   -6.3297897    54.233262  0.037350731  0.041749637            2 
  122000    1.2119557   -6.3028652    54.577538  0.037279739  0.041711511            1 
  123000    1.2027563    -6.346599    55.140548  0.037358095  0.041676112            2 
  124000    1.2307615   -6.3248504    55.886885  0.037558391  0.041645989            2 
  125000    1.1980288   -6.3602502    56.304847  0.037536565   0.04161758            1 
  126000    1.1797657   -6.3531552    56.630233  0.037453858  0.041588398            2 
  127000    1.2129551   -6.3390855    57.269262  0.037578256  0.041560116            3 
  128000     1.209997   -6.3184528    57.756677  0.037602003  0.041536434            3 
  129000    1.1820061   -6.3318733    58.175851  0.037581299  0.041513085            1 
  130000    1.1921038   -6.3310158    58.873543   0.03773945  0.041491304            3 
  131000    1.1883625   -6.3434595    59.311993  0.037730276   0.04147147            2 
  132000    1.2074209   -6.3116261    59.715858  0.037699405  0.041452038            2 
  133000     1.218044   -6.3375769    60.366907  0.037823876   0.04143159            2 
  134000    1.1923295   -6.2890401    60.879411   0.03786033  0.041409198            3 
  135000    1.1876402   -6.3087656    61.278375  0.037826157  0.041395333            3 
  136000    1.2029783   -6.3493891     61.99773  0.037988805  0.041388277            3 
  137000    1.1850301   -6.3315925    62.476929  0.038002998  0.041380033            2 
  138000    1.1964408     -6.33058     62.94568  0.038010676  0.041371262            3 
  139000    1.2034336   -6.3372203    63.285452  0.037940918   0.04136084            2 
  140000    1.2060514   -6.3576893    63.790924  0.037970788  0.041352684            4 
  141000    1.2190376   -6.3030033    64.152967  0.037915465  0.041340198            3 
  142000    1.1931865   -6.3440276    64.830419  0.038046021   0.04132293            2 
  143000    1.2026748   -6.3543253    65.189931   0.03798947  0.041309087            1 
  144000    1.2056781   -6.3385354    65.396931  0.037845446  0.041292721            1 
  145000    1.1967025   -6.3309171    66.320956  0.038115492  0.041281227            5 
  146000    1.1977104   -6.3382896    66.727208  0.038086306  0.041271171            3 
  147000    1.1799014   -6.3482954    67.250545  0.038123892  0.041260642            6 
  148000    1.2012619   -6.3337591     68.00653  0.038291965   0.04125239            4 
  149000    1.2060148   -6.3603413    68.140379  0.038109831  0.041245278            1 
  150000    1.1901786   -6.3412317    68.954959  0.038308311  0.041238784            2 
  151000    1.2121979   -6.3948224    69.087502  0.038127761  0.041228679            3 
  152000    1.1727235   -6.3514775    69.847532  0.038293603  0.041219424            1 
  153000    1.1974687    -6.376648    70.065674  0.038162132  0.041211923            4 
  154000    1.2209193   -6.3197725    70.794402  0.038308659  0.041203799            2 
  155000    1.1836674   -6.3854402     71.04249  0.038194887  0.041197977            4 
  156000    1.1872703   -6.3999584    71.021653  0.037938917  0.041182454            2 
  157000    1.1585822   -6.3657579     71.69209  0.038053126  0.041164885            2 
  158000    1.1840009   -6.3426018    72.462429  0.038218581  0.041149854            2 
  159000    1.1968751   -6.3521124    72.662297  0.038082965  0.041135664            1 
  160000    1.1910806   -6.3245183    73.206621  0.038128448  0.041121939            3 
  161000    1.1903781   -6.3854164    73.575137  0.038082369  0.041108416            2 
  162000    1.1867243    -6.315386    74.372938  0.038257684  0.041097875            4 
  163000    1.1871161   -6.3740276    74.657303  0.038168355  0.041084755            2 
  164000    1.1698258    -6.319774    75.510908  0.038369364  0.041074784            4 
  165000     1.183074   -6.3583198    76.051453  0.038409825  0.041066623            3 
  166000    1.1825466   -6.3494052    76.465162  0.038386125  0.041059217            4 
  167000    1.2242343   -6.3864256    77.042901  0.038444561   0.04105388            3 
  168000    1.2310233   -6.3607386    77.785896  0.038584274  0.041051459            2 
  169000    1.1726489   -6.3399856    78.137564  0.038529371  0.041050463            3 
  170000    1.1755023   -6.3182153    78.523448  0.038491886  0.041046562            2 
  171000    1.1752027     -6.35821     79.06566  0.038531023  0.041043581            3 
  172000     1.173088   -6.3181126    79.409622  0.038473654  0.041037452            3 
  173000    1.1786491   -6.3609388    79.660385  0.038372054  0.041030146            3 
  174000     1.207636    -6.362106    79.928517  0.038279941  0.041017869            2 
  175000    1.1891225   -6.3469635    80.542451  0.038353548  0.041006506            2 
  176000    1.1699589   -6.3747089    80.671979   0.03819696  0.040993557            4 
  177000    1.1927605   -6.3782163    81.385584   0.03831713  0.040982698            4 
  178000    1.1751256   -6.4153151    82.067615  0.038421168  0.040971388            5 
  179000     1.181827   -6.3687709    82.595833  0.038452436  0.040961909            5 
  180000    1.1992389   -6.3710569     83.05313  0.038450523  0.040953508            4 
  181000    1.1611252   -6.3550286    83.215886  0.038313023   0.04094226            2 
  182000    1.1674914    -6.382474    83.467934  0.038217918  0.040929686            1 
  183000    1.1534881   -6.3769237     84.36121  0.038415851  0.040917975            2 
  184000    1.1914377   -6.3886538    84.576724  0.038304676  0.040905181            4 
  185000    1.1552522   -6.3585305     85.29906     0.038423  0.040890862            3 
  186000    1.1837789   -6.4297962    85.704381   0.03839802   0.04087867            2 
  187000    1.1738651   -6.3694479    86.104939  0.038371185  0.040867074            4 
  188000    1.1880523    -6.380204    86.559762  0.038368689  0.040853992            3 
  189000    1.1667914   -6.3649674    86.536293  0.038155332  0.040838565            7 
  190000    1.1944561    -6.389104    87.158443  0.038227387   0.04082272            2 
  191000    1.1671359   -6.3970639    87.688887  0.038258677  0.040808119            6 
  192000    1.1644678   -6.4266836    88.126352  0.038249285  0.040795084            3 
  193000    1.1742333   -6.3768797    88.990566  0.038424251   0.04078239            4 
  194000    1.1645127   -6.3789066    89.349054  0.038380178  0.040770048            3 
  195000    1.1611401   -6.3739954    89.795917  0.038374323  0.040759945            2 
  196000     1.187082   -6.3563686     90.57695  0.038510608  0.040749155            3 
  197000    1.1900667   -6.4239658    90.467252  0.038268719  0.040736756            9 
  198000    1.1647968   -6.3591054    90.930578  0.038270445  0.040722307            1 
  199000    1.1767076   -6.3726143    90.948956  0.038085827  0.040706411            2 
  200000    1.1552599   -6.3818125     91.77966  0.038241525  0.040691057            4 
  201000    1.1681035   -6.4220274    91.928923  0.038113152  0.040672557            4 
  202000    1.1803146   -6.3872711    92.711623  0.038247369  0.040653867            2 
  203000     1.168535   -6.3704355    93.060928  0.038202351  0.040636015            2 
  204000    1.1805607   -6.3780988    93.317754  0.038119997  0.040617503            1 
  205000    1.1800793   -6.4233334    93.421176  0.037976088  0.040598117            2 
  206000    1.1703016   -6.3771112    94.181707  0.038099396  0.040578044            1 
  207000    1.1773321     -6.34767    94.667862  0.038111055   0.04055979            2 
  208000    1.1548132   -6.4017452    95.178081  0.038132244  0.040542098            1 
  209000    1.1847992   -6.3504834    95.483908  0.038071733  0.040523791            2 
  210000    1.1560576   -6.4134118    95.909186  0.038059201  0.040503024            6 
  211000    1.1659227   -6.3786827    96.205328  0.037995785  0.040481612            3 
  212000    1.1684115   -6.3885449    96.738575  0.038026169   0.04045875            1 
  213000    1.1618396   -6.4429208    96.440048  0.037730848    0.0404355            2 
  214000    1.1641839   -6.3976649    97.370372  0.037916811  0.040407307            2 
  215000    1.1719036   -6.3993579    97.850011  0.037926361  0.040383962            2 
  216000    1.1843912   -6.4025968    98.175815  0.037876472  0.040361099            2 
  217000    1.1651602   -6.4229902     98.77007  0.037930134  0.040340023            4 
  218000    1.1505561   -6.3910818    99.191076  0.037917078  0.040316923            3 
  219000    1.1816375   -6.3981036    99.857953  0.037997699  0.040295007            4 
  220000    1.1469077   -6.4384145    99.966086  0.037865941  0.040274496            2 
  221000    1.1742246   -6.4141223    100.50622  0.037898274  0.040253558            3 
  222000    1.1632691   -6.4060143    100.85198  0.037857349  0.040231952            3 
  223000     1.155939    -6.408005    101.25423  0.037837903  0.040209252            2 
  224000    1.1793418   -6.4078312    101.84518  0.037888832  0.040186695            2 
  225000    1.1524327   -6.3781873    102.35995  0.037911093  0.040166273            2 
  226000     1.170948   -6.4139573    103.33896  0.038104338  0.040150309            2 
  227000    1.1433436   -6.4276909    103.75871  0.038090569  0.040134855            4 
  228000    1.1828486   -6.3924532     104.0288  0.038022222   0.04011874            2 
  229000    1.1482014   -6.3936435    104.96201  0.038195781  0.040104082            5 
  230000    1.1525046   -6.3750375    105.18764  0.038111465  0.040090835            2 
  231000    1.1658813   -6.4077342    105.49462  0.038057222  0.040079197            3 
  232000     1.166939   -6.3993157    106.52726  0.038264101  0.040067857            6 
  233000    1.1503878    -6.426175    106.50332  0.038091317  0.040055671            3 
  234000    1.1830592   -6.4481126    106.80136  0.038034673  0.040042037            2 
  235000    1.1554306   -6.4061345    107.52568  0.038129673  0.040028145            3 
  236000    1.1961166     -6.40487    108.05551  0.038155193  0.040015438            2 
  237000    1.1515382   -6.4006147     108.6149  0.038190894  0.040003099            2 
  238000    1.1676508   -6.4490528    108.39495  0.037953414  0.039988763            4 
  239000     1.150723   -6.4189108    108.81706  0.037941793   0.03997334            3 
  240000    1.1798349   -6.4101871    109.16458  0.037904369  0.039954509            3 
  241000    1.1661174   -6.4461822    109.73416  0.037944037  0.039936619            3 
  242000    1.1653061   -6.3865952    110.21992  0.037954516   0.03991972            3 
  243000    1.1568764   -6.4418557    110.22943  0.037801587  0.039902073            4 
  244000    1.1404003   -6.4486609    110.56562  0.037761481  0.039883833            2 
  245000     1.162466   -6.4133189    111.05103   0.03777246  0.039864226            4 
  246000    1.1665881   -6.4107102    111.65164   0.03782237  0.039844966            5 
  247000    1.1449775   -6.4359352    111.44816  0.037600593  0.039824787            6 
  248000    1.1537585   -6.4374313    112.21174  0.037705556   0.03980358            2 
  249000      1.16743   -6.4072812    112.68937   0.03771398  0.039782446            3 
  250000    1.1605963   -6.4357313    113.33147  0.037777155  0.039762218            3 
  251000    1.1617985   -6.4357669     113.7612  0.037769324  0.039742413            5 
  252000    1.1309103   -6.4149959    114.10853  0.037734303  0.039722146            2 
  253000       1.1681    -6.448633     114.1738  0.037606654  0.039701311            3 
  254000    1.1523534   -6.4562694    114.62579  0.037606885  0.039679891            4 
  255000    1.1616073   -6.4203408    114.87476  0.037540771  0.039657688            4 
  256000    1.1493234   -6.4146511    114.84027    0.0373829   0.03963686            2 
  257000    1.1551964   -6.4257512    115.81731   0.03755425  0.039614572            3 
  258000    1.1556478   -6.4490881    115.85285  0.037420171  0.039590416            3 
  259000    1.1458844   -6.4277246    116.64603  0.037530898  0.039566463            4 
  260000    1.1343998   -6.4041863    117.72412  0.037732088  0.039544721            2 
  261000    1.1502984   -6.4467011     117.6141  0.037552393  0.039524244            3 
  262000    1.1847359   -6.3960116    118.87812  0.037811107   0.03950576            1 
  263000      1.16976   -6.4254655    118.83199  0.037652722  0.039489661            1 
  264000    1.1338513   -6.4513208    119.70577  0.037785912  0.039472482            2 
  265000    1.1584855    -6.429024    119.84429  0.037686883  0.039456078            5 
  266000     1.152505   -6.4199632    120.37787  0.037712366  0.039438014            6 
  267000    1.1299757   -6.4047302    120.53724  0.037620861  0.039421101            3 
  268000    1.1354794   -6.4165717    121.08427  0.037650583  0.039402943            5 
  269000     1.147668    -6.438805    121.58446   0.03766557  0.039384259            3 
  270000    1.1365037   -6.4272409    121.48878  0.037496537  0.039364597            2 
  271000    1.1202469   -6.4240508      122.173  0.037568573   0.03934447            2 
  272000    1.1567095    -6.434818    122.05115  0.037393121  0.039326385            1 
  273000    1.1364141   -6.4110911    123.20675  0.037608898  0.039307617            6 
  274000    1.1455785   -6.4601775    123.24513  0.037483313  0.039288981            8 
  275000    1.1273365   -6.4810692     123.3792  0.037387636  0.039269691            3 
  276000     1.145115   -6.4296802    123.97617  0.037432419  0.039250224            3 
  277000     1.173832   -6.4217007    124.96366  0.037594363  0.039231929            6 
  278000    1.1466177   -6.4475846    124.84271  0.037422876   0.03921242            3 
  279000    1.1466208   -6.4834877    125.26751  0.037415624  0.039193362            4 
  280000    1.1511447   -6.4428083    126.21328  0.037563475  0.039175244            4 
  281000    1.1283967   -6.4326774    126.54564  0.037528362  0.039158618            3 
  282000    1.1281016   -6.4405905    127.03962  0.037541258  0.039143163            2 
  283000    1.1468149   -6.4443197    127.78233  0.037627307  0.039127544            3 
  284000    1.1507847   -6.4327587    127.66974  0.037461777   0.03911107            2 
  285000    1.1320998   -6.4367798    127.94578  0.037411046  0.039093499            1 
  286000     1.139892   -6.4484261    128.30091  0.037383715  0.039074976            5 
  287000    1.1542021   -6.4592516    128.63954  0.037351782  0.039057223            2 
  288000    1.1178754   -6.4982793    128.98129  0.037320975  0.039036879            3 
  289000    1.1249473   -6.3973843    129.32249  0.037290221  0.039015486            2 
  290000    1.1402532   -6.3940904    129.68385  0.037265474  0.038994786            3 
  291000    1.1566238   -6.4512687    130.45441   0.03735808  0.038976327            3 
  292000    1.1486793   -6.4410388    130.60646  0.037273534  0.038957766            4 
  293000    1.1443078   -6.4491178    131.37235  0.037364149  0.038939688            3 
  294000    1.1338796   -6.4311435    131.92857   0.03739472  0.038921341            7 
  295000    1.1396475   -6.4493438    132.25582  0.037360402  0.038904459            2 
  296000    1.1464195   -6.4603897    132.91903  0.037420899  0.038888322            2 
  297000    1.1273158   -6.4609169    132.71562  0.037237829  0.038871862            3 
  298000    1.1513057   -6.4438023    134.11359    0.0375038  0.038854721            6 
  299000     1.146092   -6.4264435    134.20886  0.037404922  0.038838296            4 
  300000    1.1562888   -6.4737946    134.16335  0.037267598  0.038821487            2 
  301000    1.1479489   -6.4605977     134.8197  0.037325498  0.038805592            1 
  302000    1.1462405   -6.4437524    135.66075  0.037433982  0.038790529            3 
  303000    1.1544343   -6.4534492    135.52536  0.037273201  0.038774937            5 
  304000    1.1375468   -6.4658565    136.38252  0.037385559  0.038759771            2 
  305000    1.1469705   -6.4210551    136.38445   0.03726351   0.03874443            4 
  306000    1.1120048   -6.4991531    136.35483  0.037133668  0.038728295            2 
  307000    1.1422918   -6.4404987    137.28394  0.037264914  0.038710991            4 
  308000    1.1431828   -6.4379089    138.06629  0.037355597  0.038695184            3 
  309000    1.1500777   -6.4692632    138.17655  0.037264441  0.038678758            9 
  310000    1.1399695   -6.4375293    138.40797  0.037206444  0.038662465            3 
  311000    1.1264094   -6.4768916    139.17656  0.037292754  0.038646799            5 
  312000     1.117906   -6.4872932    139.29931  0.037206011  0.038631365            3 
  313000    1.1123973   -6.4450023    139.86717   0.03723833  0.038615426            3 
  314000    1.1432241   -6.4714684    140.54611  0.037299923  0.038599757            2 
  315000    1.1580775   -6.5014628    140.37339  0.037135817  0.038584186            6 
  316000    1.1733534   -6.4353887    141.53974  0.037325882  0.038568475            2 
  317000    1.1484402   -6.4950208    141.09533  0.037091308  0.038551391            5 
  318000    1.1175123   -6.4722413    142.33689  0.037300024  0.038535214            3 
  319000    1.1315636   -6.4844026    141.92504  0.037075507  0.038519755            6 
  320000    1.1475056   -6.4630609    142.48744  0.037106103    0.0385042            3 
  321000    1.1248581   -6.4875601    143.14938  0.037162351  0.038487373            4 
  322000    1.1264825   -6.4889203    142.84258  0.036967542  0.038470498            3 
  323000    1.1249231   -6.4915102    143.27219  0.036963928  0.038453564            5 
  324000    1.1105623   -6.4995241    143.95464  0.037025371  0.038436828            3 
  325000    1.1205519   -6.4976372    144.45284  0.037039189  0.038421385            3 
  326000    1.1151576   -6.4496929    144.71419  0.036992379  0.038405529            4 
  327000    1.1193428   -6.4550439     145.9584  0.037196331  0.038389909            3 
  328000    1.1246668   -6.4844065    145.91511  0.037071928  0.038375664            3 
  329000    1.1442629   -6.4935048    147.13864   0.03726916  0.038361352            2 
  330000    1.1202452    -6.456965    147.03976  0.037131253  0.038348383            4 
  331000    1.1161801   -6.5001565    147.33637  0.037093748   0.03833492            5 
  332000    1.1280752   -6.5054104    147.83943  0.037108291  0.038321542            1 
  333000    1.1352293   -6.4966269    147.91637  0.037016108  0.038308088            2 
  334000    1.1283444    -6.519133    147.91596   0.03690518  0.038292688            2 
  335000    1.0976028   -6.4488142    149.52151  0.037194405  0.038277703            3 
  336000    1.1137608   -6.4689095    150.01856  0.037206984  0.038263416            2 
  337000    1.1119914   -6.4858771    149.55068   0.03698088  0.038249903            5 
  338000    1.1042951   -6.5295342    149.92579  0.036963952  0.038235524            2 
  339000    1.0936307   -6.4636179    150.79749  0.037069197    0.0382213            3 
  340000    1.1182975   -6.4407899    150.81045  0.036963346  0.038207095            2 
  341000    1.1323432   -6.4731691    151.01733  0.036905507  0.038192844           10 
  342000    1.1321424    -6.490604    151.56865  0.036931932  0.038176765            2 
  343000    1.1042597   -6.5063979    151.41932  0.036787978  0.038159737            2 
  344000    1.1161586   -6.4991022    152.00683  0.036823359  0.038143052            4 
  345000    1.1607917   -6.4615817    152.32412  0.036793266  0.038126304            4 
  346000    1.1245885   -6.4902483    152.53956  0.036738816  0.038109203            4 
  347000    1.1398677   -6.4749554    153.24632  0.036802671  0.038092006            2 
  348000    1.1247941   -6.5156609    152.80024  0.036590095   0.03807441            2 
  349000    1.1197183   -6.4824752    154.12803    0.0368023  0.038057169            5 
  350000    1.1288959   -6.5215446    153.61012  0.036573838  0.038039062            2 
  351000    1.1098336   -6.4875214    154.09446  0.036584629  0.038019548            2 
  352000    1.1228929   -6.5012993    154.92105  0.036676385  0.038000822            4 
  353000    1.1299859   -6.4635681    155.59982  0.036732723   0.03798362            2 
  354000    1.1244782    -6.522863    155.36744  0.036574256  0.037966285            2 
  355000    1.1074836   -6.5067125    155.67067   0.03654241   0.03794778            3 
  356000    1.1168291   -6.4961548    156.25242  0.036575941  0.037929067            2 
  357000    1.1050227   -6.5075026    156.55514   0.03654415  0.037910367            3 
  358000    1.1301295   -6.4639156    157.26109  0.036606399  0.037892375            2 
  359000    1.1086428   -6.4798261     157.8154  0.036633102  0.037875051            2 
  360000    1.1089624    -6.517049     157.6258  0.036487454  0.037856766            1 
  361000    1.1159458   -6.4933195    158.47523  0.036582464   0.03783849            3 
  362000    1.1118961   -6.4769902    158.28716  0.036438111  0.037819569            4 
  363000    1.1156913   -6.4959959     158.8152  0.036458953   0.03780005            4 
  364000    1.1001841   -6.4965912        159.3   0.03646978  0.037781116            3 
  365000    1.0953511   -6.5507869    159.38862  0.036390096  0.037762128            2 
  366000    1.1102787   -6.4897591    159.93609  0.036415321  0.037743696            2 
  367000    1.1269924    -6.494824    160.80339  0.036513031  0.037725716            1 
  368000    1.1229195    -6.541546     160.4766   0.03633981  0.037707748           10 
  369000    1.1371713   -6.4972037    161.11336  0.036385131  0.037689726            3 
  370000    1.1067135   -6.5396519    161.80354  0.036442238  0.037671892            3 
  371000    1.1010968    -6.496041    161.80129  0.036343506  0.037654155            2 
  372000    1.0879573   -6.5272779    162.28034  0.036353122  0.037636124            2 
  373000     1.104157   -6.5203473    162.67531  0.036343903  0.037617752            3 
  374000    1.1082617   -6.5072665     163.4817  0.036426404  0.037600088            2 
  375000     1.122819   -6.5216445    163.67595  0.036372433  0.037582219            4 
  376000    1.0849114   -6.5346613    163.65811  0.036271744  0.037564072            4 
  377000    1.0921476   -6.5262173    164.25898  0.036308351  0.037545766            4 
  378000    1.1077265   -6.5193631    164.60696  0.036289012  0.037528436            3 
  379000    1.1051745   -6.5274623    165.03989  0.036288454  0.037510895            4 
  380000    1.1127994   -6.5208309    165.66438  0.036329908  0.037493721            2 
  381000    1.1040871   -6.5257202    165.82919  0.036270601  0.037476488            4 
  382000    1.0948896   -6.4990365    165.73942   0.03615607  0.037459027            3 
  383000    1.1039909   -6.5755108     166.3301  0.036190186   0.03744074            4 
  384000    1.1181532   -6.5147196    166.53603  0.036140631  0.037422357            4 
  385000    1.0943982   -6.5502657    167.13649   0.03617673  0.037403804            2 
  386000     1.106861   -6.5310171    167.32267  0.036123201  0.037385377            6 
  387000    1.0818431   -6.4793625    168.05986  0.036188601  0.037367257            4 
  388000    1.0981468    -6.524499    168.32424  0.036152113  0.037348565            2 
  389000    1.1069669   -6.5321322    167.98104  0.035985655  0.037329832            2 
  390000    1.1102332   -6.5387921    168.84666  0.036078346  0.037311234            1 
  391000    1.0745721   -6.5504165    169.36665  0.036096899  0.037292559            3 
  392000    1.0956209    -6.575559    169.23431  0.035976681  0.037273199            5 
  393000    1.1098816   -6.5238257    169.37242  0.035914424  0.037253801            2 
  394000    1.0954264   -6.5290535    169.80435  0.035914625  0.037234174            2 
  395000     1.108622   -6.5574322    170.59884  0.035991317  0.037213741            2 
  396000    1.1229642   -6.5070447    171.42754  0.036074819  0.037194497            3 
  397000    1.0868277   -6.5238515    170.48622   0.03578636  0.037174948            7 
  398000    1.1076686   -6.4875975    171.32447  0.035871959  0.037155569            3 
  399000    1.0847775   -6.5112051    171.89179  0.035900541  0.037136359            3 
  400000    1.0808371   -6.5148995    172.28629  0.035892977  0.037116767            3 
  401000    1.0953127   -6.5226712    172.12683  0.035770331  0.037097372            4 
  402000    1.0959294   -6.4913238    173.08692  0.035880374  0.037077935            3 
  403000    1.0832489   -6.5140681    173.89708  0.035958866  0.037058658            5 
  404000    1.0797732   -6.5208268    174.16579  0.035925287  0.037039807            3 
  405000    1.1004393   -6.5721836    174.02559  0.035807735  0.037021766            2 
  406000     1.060215   -6.5353502    175.04477  0.035928729  0.037003777            5 
  407000    1.0848505   -6.5232393    175.12836  0.035857567  0.036986058            2 
  408000    1.0899081   -6.5402307    175.45011  0.035835399   0.03696859            5 
  409000    1.0957543     -6.54572    175.57176  0.035772567  0.036950866            4 
  410000    1.1058361   -6.5633533    175.66463  0.035704194  0.036931655            2 
  411000    1.1050091   -6.5546754    176.69291  0.035825814  0.036912982            4 
  412000    1.0875813   -6.5610525    176.30293  0.035659977  0.036894203            3 
  413000    1.0847572   -6.5148068    178.05282  0.035926719  0.036876163            3 
  414000    1.0946998    -6.550979    177.90133  0.035809446  0.036858524            3 
  415000    1.0710299   -6.5026094    178.08462  0.035759963  0.036841099            3 
  416000    1.0820602   -6.5227133    178.53525  0.035764273  0.036823407            5 
  417000    1.1036882   -6.5117749     178.6312  0.035697682  0.036805943            2 
  418000    1.0779585   -6.5238689    179.16773  0.035719244  0.036788723            4 
  419000     1.093956   -6.5626352     179.4655  0.035693219  0.036771438            2 
  420000    1.0902063   -6.5377221    179.79884  0.035674373  0.036753887            5 
  421000    1.0934921    -6.552722    179.84999  0.035599761  0.036735689            6 
  422000    1.0984136   -6.5557924    180.01113  0.035547221  0.036717416           10 
  423000     1.078786   -6.5480047    181.01201  0.035660365  0.036699229            2 
  424000    1.0937583   -6.5414253    181.14915  0.035603213   0.03668151            6 
  425000    1.0805486   -6.5714473    181.73595  0.035634501  0.036664322            4 
  426000    1.1061668   -6.5492591    181.77074  0.035557656  0.036647852            3 
  427000     1.060606   -6.5510621    182.41356  0.035599837  0.036631194            2 
  428000    1.1011778   -6.5497272    182.94503  0.035620139  0.036613956            2 
  429000    1.0947943   -6.5451377     183.2065  0.035587898  0.036597068            2 
  430000    1.0761387   -6.5327866     184.2622  0.035709728  0.036580475            2 
  431000    1.0974699   -6.5614404    183.88128  0.035553225  0.036563282            4 
  432000    1.0690015   -6.5549549    183.67968  0.035432036  0.036545953            5 
  433000    1.0633082   -6.5864764    184.40052  0.035488938  0.036528261            4 
  434000    1.1026837   -6.5707181    184.97634   0.03551773  0.036510394            4 
  435000    1.0823025   -6.5768377    184.76577  0.035395742  0.036492467            4 
  436000    1.0933323   -6.5289441    185.31261  0.035419076  0.036474446            1 
  437000    1.0733025   -6.5577063    185.45456  0.035365094  0.036455704           11 
  438000    1.0701372   -6.5755742    186.06725  0.035400923  0.036437245            2 
  439000    1.0659396   -6.5721479    186.46635  0.035396043  0.036418282            2 
  440000    1.0592394   -6.5371684    186.49994  0.035321958  0.036399791            3 
  441000    1.0513486   -6.5449806    187.49202  0.035429331  0.036381471            7 
  442000     1.079918   -6.5984445    187.44645  0.035340582  0.036363622            3 
  443000    1.0720818   -6.5834984    187.81944  0.035330971  0.036345667            4 
  444000    1.0673679   -6.5742724    187.65334  0.035220222  0.036327505            3 
  445000    1.0938508   -6.5384396    188.56276  0.035311377  0.036309394            3 
  446000    1.0885553   -6.5677852    188.90794  0.035296699  0.036291061            4 
  447000    1.0849459   -6.5797863    188.91142  0.035218386  0.036272916            4 
  448000    1.0721538   -6.6030165    189.68446  0.035283567  0.036254415            2 
  449000    1.0826227   -6.5770637    189.54907  0.035179858  0.036235604            2 
  450000    1.0768493   -6.5762099    190.17935  0.035218397  0.036216934            2 
  451000    1.0598748   -6.5560999    190.07179  0.035120434  0.036198288            4 
  452000    1.0770249   -6.5733342    190.44717  0.035111941  0.036179795            6 
  453000    1.0882308   -6.6015761    190.83397  0.035105587  0.036160544            2 
  454000    1.0888228   -6.5355898    191.73525  0.035193695  0.036142035            2 
  455000    1.0788256   -6.5740609    191.30007  0.035036643  0.036123664            2 
  456000    1.0701256   -6.5854035    191.77471  0.035046548  0.036105351            3 
  457000    1.0766703   -6.5736899    192.61421  0.035122942  0.036087335            6 
  458000    1.0768886   -6.5718911    192.87089  0.035092957  0.036069376            1 
  459000    1.0725699   -6.5738171    193.47859  0.035126831   0.03605133            6 
  460000    1.0696713    -6.576735    193.67074   0.03508528  0.036032776            3 
  461000    1.0733184   -6.5727506    193.66032  0.035007289  0.036014162            3 
  462000     1.058524   -6.5492526       194.35  0.035055916  0.035995876            4 
  463000    1.0827693   -6.5786546    194.34472  0.034979251  0.035977878            4 
  464000    1.0627175    -6.600766    194.54945  0.034940634  0.035959547            2 
  465000     1.049598   -6.5513908    195.17671  0.034977905  0.035941842            2 
  466000    1.0698366   -6.5782611    195.43213  0.034948521  0.035923926            6 
  467000    1.0582496   -6.5545089    196.04614  0.034983252  0.035905925            4 
  468000     1.074234   -6.5983809    196.70026  0.035024975  0.035888492            4 
  469000     1.075213   -6.5822405    196.53102  0.034920223  0.035870542            3 
  470000    1.0544601   -6.5690288    197.15218   0.03495606  0.035853298            3 
  471000    1.0440929    -6.601981    196.71664  0.034804783  0.035835737            7 
  472000    1.0701679   -6.5880997    198.09306  0.034974058  0.035818365            7 
  473000    1.0667219     -6.59169     197.8685  0.034860553  0.035801488            5 
  474000    1.0773706   -6.5979849    199.07397   0.03499894  0.035784293            4 
  475000    1.0829567   -6.5756473    198.58354  0.034839217  0.035767093            3 
  476000    1.0562931   -6.6178841    199.07174  0.034851495    0.0357498            5 
  477000    1.0471108   -6.5904207    199.27369  0.034813713  0.035732366            3 
  478000    1.0745266   -6.5971885    199.96906  0.034862109   0.03571545            2 
  479000      1.08474   -6.5867244    200.41926  0.034867651  0.035698175            2 
  480000    1.0662169   -6.6204351    200.03092   0.03472759  0.035680556            3 
  481000    1.0779253   -6.5980027    201.18557  0.034855435   0.03566302            2 
  482000    1.0899845   -6.6117785    200.94549  0.034741613  0.035645279            7 
  483000    1.0719944   -6.5827933    201.25132  0.034722451  0.035628137            5 
  484000    1.0671295   -6.5864205    201.39641   0.03467569  0.035610138            3 
  485000    1.0604433   -6.5958497    201.74646   0.03466434  0.035591554            4 
  486000    1.0713742   -6.5765333    202.63081  0.034744652   0.03557345            4 
  487000    1.0657219   -6.5817634    203.06964  0.034748398  0.035555678            5 
  488000     1.066569   -6.6282942    202.76987  0.034626003  0.035537535            5 
  489000    1.0646668   -6.5759202    204.10939  0.034783467  0.035520258            2 
  490000    1.0394086   -6.6000028     203.4635  0.034602636  0.035503381            5 
  491000    1.0454951   -6.5761961    204.09307  0.034639014  0.035486583            5 
  492000    1.0645228   -6.6243104    204.88901  0.034703423  0.035470253            7 
  493000    1.0536651    -6.588742    205.84495  0.034794617  0.035454796            3 
  494000    1.0263621    -6.573035    205.55207  0.034674775  0.035438791            4 
  495000    1.0544342   -6.6084754    205.73282  0.034635154  0.035422709            4 
  496000     1.043513   -6.6200985    206.56051  0.034704387  0.035406326            4 
  497000     1.060802   -6.6015876    205.70213  0.034490632  0.035389656            4 
  498000    1.0683462   -6.6196667    206.44528   0.03454573  0.035373168            4 
  499000    1.0384869   -6.6154765    207.11302  0.034588013   0.03535712            4 
  500000     1.062474   -6.5836013    207.75977  0.034626629  0.035341103            4 
  501000    1.0465719   -6.5777584    208.53116  0.034685822  0.035325112            5 
  502000    1.0859612   -6.6121033    208.21669  0.034564524  0.035308788            4 
  503000    1.0506457   -6.6109686    208.74268  0.034582948  0.035292354            5 
  504000    1.0541754   -6.6301864    208.53715  0.034480349  0.035275902            4 
  505000     1.047287   -6.5927657    208.73146  0.034444136  0.035259669            4 
  506000    1.0644787   -6.6251349    209.29927  0.034469577  0.035243259            3 
  507000    1.0588999   -6.6074586    210.09312   0.03453207  0.035226626            4 
  508000    1.0508312   -6.6112368    209.58142  0.034380155  0.035210104            3 
  509000    1.0546613   -6.6171683    209.72388  0.034335934  0.035193318            2 
  510000    1.0510132   -6.6304835    210.29148  0.034361352  0.035176093            2 
  511000    1.0225257   -6.6364757    210.43415  0.034317377  0.035157974            2 
  512000    1.0434295   -6.6174458    209.94906  0.034171396  0.035139595            2 
  513000    1.0625311   -6.6420348    210.78958  0.034241323  0.035120962            2 
  514000    1.0303289   -6.6061523    211.52371  0.034293727  0.035102636            6 
  515000    1.0441942   -6.6214245    211.82615  0.034276076  0.035084948            3 
  516000     1.070244   -6.5866747    213.01872  0.034402248  0.035067114            4 
  517000    1.0472174   -6.6537864    211.65212  0.034115429  0.035048924            6 
  518000    1.0530443    -6.614312     212.1154  0.034124099  0.035030594            3 
  519000      1.02966   -6.6047645    212.41706  0.034106785  0.035012122            3 
  520000    1.0221597   -6.6198906    213.43543  0.034204396  0.034994365            2 
  521000     1.057712   -6.6203649    213.17937  0.034097787  0.034975704            4 
  522000    1.0613552   -6.6005542    213.78279  0.034128797  0.034956848            4 
  523000    1.0375885   -6.6054032    214.28292  0.034143231  0.034938375            5 
  524000    1.0443245   -6.6447062    213.97128  0.034028512  0.034919899            3 
  525000    1.0477812   -6.6395321    214.77772  0.034091702  0.034901687            4 
  526000    1.0540401   -6.6335822     214.5325  0.033988038  0.034883269            2 
  527000    1.0507799   -6.6275247    215.99927  0.034155482  0.034865059            4 
  528000    1.0260987   -6.6319301    215.53119  0.034016917  0.034846568            4 
  529000    1.0434824   -6.6285638    215.38326   0.03392931  0.034828264            6 
  530000    1.0508536    -6.622351    215.65231  0.033907596  0.034809566            2 
  531000    1.0456226   -6.6444265    215.46532  0.033814394  0.034790403           17 
  532000    1.0507636   -6.6084066    216.24177  0.033872458   0.03477176            4 
  533000    1.0369174   -6.6178836    216.68462  0.033878146  0.034752927            5 
  534000    1.0287771   -6.6428784    216.94031  0.033854606  0.034733903            5 
  535000     1.044214   -6.6469125    217.32245  0.033850849  0.034715451            6 
  536000    1.0178723    -6.634881    217.13333  0.033758291  0.034696573            2 
  537000    1.0379563   -6.6379914    218.00412  0.033830559    0.0346783            4 
  538000    1.0316096   -6.6329401    218.42748  0.033833252  0.034659971            3 
  539000    1.0327434   -6.6620921    218.92439  0.033847308  0.034641889            4 
  540000    1.0466559   -6.6449412    218.25775  0.033681752  0.034623698            4 
  541000    1.0518766   -6.6200532    219.35641  0.033788725  0.034605234            2 
  542000    1.0505417   -6.6399212    219.94116  0.033816291   0.03458686            3 
  543000    1.0221852   -6.6293954    220.00475  0.033763773  0.034568001            4 
  544000     1.063238   -6.6524107    219.87054  0.033681149  0.034549532            6 
  545000    1.0298503   -6.6616823     220.4494  0.033707859  0.034531185            3 
  546000    1.0372802   -6.6297574    220.59442  0.033668256  0.034512737            3 
  547000    1.0432216   -6.6361152    220.75462  0.033631113   0.03449395            2 
  548000    1.0445615   -6.6275201    221.28038  0.033649692  0.034475333            3 
  549000     1.040231   -6.6448644    221.81106  0.033668952  0.034456673            3 
  550000    1.0336877   -6.6304955    221.91806  0.033623948  0.034438116            6 
  551000    1.0217815   -6.6376258     222.5394  0.033656897  0.034419827            4 
  552000    1.0256856   -6.6899099    222.17326  0.033540649  0.034401674            5 
  553000     1.015027   -6.6575033    222.22395  0.033487635  0.034383394            5 
  554000    1.0256936   -6.6457726    223.06747  0.033554071  0.034365055            3 
  555000    1.0625289   -6.6242099    223.35517  0.033536813  0.034346973            6 
  556000    1.0553018   -6.6846376    223.93619  0.033563578  0.034329042            5 
  557000    1.0162689   -6.6363507    224.84486  0.033639267  0.034310857            7 
  558000    1.0205339   -6.6582351    224.27929  0.033494518  0.034292365            2 
  559000    1.0230084   -6.6508932    224.58135  0.033479628  0.034274182            3 
  560000    1.0527823   -6.6672165    225.29536  0.033526096  0.034256049            2 
  561000    1.0219818    -6.604689    225.89192   0.03355495  0.034237839            3 
  562000    1.0157321   -6.6298753    225.86372  0.033491062  0.034220547            5 
  563000    1.0065849   -6.6576731    226.49177  0.033524537  0.034203095            7 
  564000    1.0197135    -6.661241    226.45977  0.033460367  0.034185299            3 
  565000    1.0211948    -6.651194    226.49145  0.033405819    0.0341675            5 
  566000    1.0365125   -6.6539619    226.79612  0.033391655  0.034149715            3 
  567000    1.0269982   -6.6592357    227.22639  0.033396001  0.034131769            5 
  568000    1.0366282   -6.6781521    227.55158  0.033384914  0.034113843            6 
  569000    1.0384153   -6.6733546    227.18091  0.033271955   0.03409662            5 
  570000    1.0278728   -6.6535602    228.03426  0.033338343  0.034079334            5 
  571000    1.0112096   -6.6467238    228.75072  0.033384519  0.034061953            5 
  572000    1.0300396   -6.6584145    228.80875  0.033334608  0.034045116            4 
  573000    1.0519154   -6.6608035    229.99069  0.033448326  0.034028401            3 
  574000    1.0112714   -6.6364871    229.76621  0.033357464  0.034011447            2 
  575000    1.0304441   -6.6958528     229.7009  0.033289985  0.033994764            4 
  576000    1.0201833   -6.6272836     230.8461  0.033397873  0.033977534            3 
  577000    1.0406745   -6.6581412    231.17128  0.033386955  0.033960614            6 
  578000    1.0223934    -6.661575    231.05359  0.033312224  0.033944014            4 
  579000    1.0408963   -6.6806216    231.37324  0.033300696  0.033927223            4 
  580000    1.0220589    -6.643595    232.05062  0.033340607  0.033910682            4 
  581000    1.0158804   -6.6583963    231.41885  0.033192607  0.033894187            4 
  582000    1.0293452    -6.650329    232.82201  0.033336485  0.033877935            4 
  583000    1.0312763   -6.6902936    232.37734  0.033215743  0.033861362            4 
  584000    1.0334494   -6.6494418    232.33447   0.03315275  0.033844146            4 
  585000    1.0084959   -6.6667727    233.46016  0.033256433  0.033826903            6 
  586000    1.0085775   -6.7103727    233.01871  0.033136904  0.033809874            6 
  587000    1.0260378   -6.6664213     233.2402  0.033111897  0.033792465            4 
  588000    1.0313802   -6.6822011    232.81282  0.032995015   0.03377507            5 
  589000    1.0282006   -6.6615076    233.75623  0.033072472  0.033757427            5 
  590000    1.0148655   -6.7041279    233.51324  0.032982096  0.033739185            6 
  591000    1.0209482   -6.6975723    234.58776    0.0330778  0.033721434            2 
  592000     1.027518   -6.6565813    234.59512  0.033022961  0.033703968            5 
  593000    1.0200534   -6.6878924    234.92926  0.033014229  0.033686672            3 
  594000    1.0139466   -6.7145386    235.43567  0.033029696  0.033669565            3 
  595000    1.0095633   -6.6849018    235.67242  0.033007341  0.033652411            6 
  596000    1.0237091   -6.7119933    236.64025  0.033087284  0.033635462            9 
  597000    1.0301076   -6.7014243    236.66238   0.03303495  0.033618749            3 
  598000    1.0262133   -6.6929071    236.93725  0.033018012  0.033602127            3 
  599000    1.0212079   -6.6799096    237.65335  0.033062514  0.033585425            7 
  600000    1.0162792   -6.6798966    237.19217  0.032943357  0.033568434            5 
  601000    1.0377398   -6.6674588    237.61632  0.032947354  0.033551156            6 
  602000    1.0179654   -6.6788543    237.52122   0.03287946   0.03353397            5 
  603000    1.0156853   -6.6474584    238.08016  0.032902178  0.033516489            3 
  604000    1.0095958   -6.6555208     238.0228   0.03283979  0.033498989            4 
  605000    1.0030179   -6.7050155    237.93773  0.032773793  0.033481446            4 
  606000   0.98581838   -6.6709986    238.54445  0.032803142  0.033464059            4 
  607000    1.0099036   -6.6749507    239.28798  0.032851178  0.033446782            3 
  608000    1.0050533   -6.6939439    240.20256    0.0329225   0.03342968            3 
  609000   0.99458248   -6.7092033    240.23429  0.032872782  0.033412937            3 
  610000    1.0124646   -6.6719866    240.16811  0.032809851  0.033396185            9 
  611000    1.0086396   -6.7092195    240.28205  0.032771693   0.03337937            1 
  612000    1.0041817   -6.6765475    240.72056  0.032777853  0.033362445            3 
  613000    1.0360866   -6.6972666    240.85766   0.03274302  0.033345422            3 
  614000   0.99487656   -6.6753142    241.52763  0.032780624  0.033328277            3 
  615000   0.99799442   -6.6644731    241.56822  0.032732822  0.033311438            4 
  616000     1.027529    -6.688759    241.52134  0.032673341  0.033294173            9 
  617000   0.99525685   -6.6718405    241.85752  0.032665791  0.033276661           15 
  618000    1.0131529   -6.6806408    241.82351  0.032608349  0.033259014            2 
  619000    1.0127913    -6.683449    241.80077  0.032552608  0.033241503            3 
  620000    1.0090528   -6.7016108    242.48916  0.032592629   0.03322386            4 
  621000    1.0070179   -6.6936552    243.16912  0.032631391  0.033206513            3 
  622000     1.005232   -6.7073695    243.45137  0.032616743  0.033189002            2 
  623000    0.9980164    -6.684051    243.59968  0.032584227  0.033171437            4 
  624000    1.0116236    -6.685601    243.30199  0.032492253   0.03315364            5 
  625000     1.001837   -6.6979578    243.75906  0.032501208   0.03313584            3 
  626000   0.99068447     -6.68663     243.8853  0.032466095  0.033117674            5 
  627000    1.0067097     -6.72936    243.54412  0.032368969   0.03309948            3 
  628000    1.0065642   -6.6910941    244.68357  0.032468627  0.033081844            5 
  629000    1.0084636    -6.734457     244.9326      0.03245  0.033064273            8 
  630000   0.99293112    -6.722653    244.91529  0.032396202  0.033046662            2 
  631000     1.005959   -6.7034718    245.26891  0.032391563   0.03302951            8 
  632000    1.0012346   -6.6680542    246.38518  0.032487498  0.033012218            6 
  633000    1.0108957   -6.7042318    246.90666  0.032504826  0.032995226            5 
  634000    1.0009237   -6.7198474    246.52323  0.032403158   0.03297831            7 
  635000    1.0004683   -6.7316112    246.50365   0.03234956  0.032960846            6 
  636000    0.9925228      -6.7034     246.7335  0.032328813  0.032943546            2 
  637000    1.0037356   -6.6745582     247.3789  0.032362493  0.032925945            4 
  638000    1.0012519     -6.74111    247.58607  0.032338828  0.032908811            3 
  639000    1.0040771   -6.7262787    247.82294   0.03231911  0.032891742            4 
  640000   0.99282937    -6.704629    248.04297  0.032297262  0.032874488            3 
  641000   0.99926523   -6.7284838    248.12608  0.032257681  0.032857133            3 
  642000    1.0002626   -6.7163141    247.76391  0.032160425  0.032839563            2 
  643000   0.99989098   -6.7260534    248.55273   0.03221264    0.0328218            2 
  644000   0.99996687   -6.7293334     248.6306  0.032172697  0.032803883            6 
  645000    1.0186066    -6.715708    249.41327  0.032223937  0.032786493            6 
  646000   0.97836602   -6.7531012    249.74493  0.032216838  0.032768919            5 
  647000   0.99355928   -6.7466276    249.39408  0.032121855  0.032751212            3 
  648000   0.99388645   -6.7169185    249.50072  0.032085997  0.032733826            3 
  649000   0.99791433   -6.6849209    250.54306  0.032170398  0.032716649            3 
  650000   0.98781509   -6.7417671    251.29364  0.032217134  0.032699941            5 
  651000   0.98081067   -6.7120792    251.36881  0.032177267  0.032683328           10 
  652000     1.002961   -6.7110386    251.53201  0.032148775  0.032666912            5 
  653000    1.0008084   -6.7324794    251.95528  0.032153558  0.032650442            2 
  654000    0.9978204   -6.7390888    252.37246  0.032157551  0.032633951            3 
  655000    1.0127828   -6.7074253    252.88835   0.03217409  0.032617582            4 
  656000   0.99444208   -6.7460559    252.40693  0.032063889  0.032601456            3 
  657000    1.0004585   -6.7673796    252.54415   0.03203249  0.032585059            5 
  658000   0.97457148   -6.7574093    253.01526  0.032043473  0.032568234            3 
  659000    1.0097539   -6.7511949    253.22253  0.032021059  0.032551451            3 
  660000    0.9869092   -6.7184114    254.22334  0.032098907  0.032535232            3 
  661000   0.99746527   -6.7070799    254.29008  0.032058759  0.032518748            6 
  662000    1.0182372   -6.7091491    254.58638  0.032047631  0.032502185            2 
  663000   0.97654072   -6.7057389    254.74304  0.032018984  0.032485817            4 
  664000   0.99520476   -6.7789308     254.1173  0.031892231  0.032469171            4 
  665000    1.0208875   -6.7088421    255.31728  0.031994646   0.03245255            3 
  666000   0.99965433   -6.7312809    255.01972  0.031909374  0.032435867            3 
  667000    1.0024457   -6.7265698    255.23334  0.031888224  0.032419128            2 
  668000   0.97390886   -6.7693719    255.35593   0.03185578  0.032401961            9 
  669000   0.96294094   -6.7357582    255.90682  0.031876784   0.03238482            8 
  670000   0.98134651   -6.7209749    255.34359  0.031759153  0.032367317            4 
  671000   0.97941423    -6.732377    255.93007  0.031784659   0.03234988            5 
  672000   0.99749125   -6.7264782    255.26338  0.031654685   0.03233212            5 
  673000   0.98832653   -6.7659233    256.02824  0.031702358   0.03231454            5 
  674000   0.99366268   -6.7285577    256.75064  0.031744639  0.032297014            2 
  675000    0.9588097   -6.7546659    256.44079  0.031659357  0.032279357            3 
  676000   0.96624283   -6.7285039     257.0953  0.031693208  0.032261452            3 
  677000   0.98405034   -6.7249442     257.6334  0.031712629  0.032243752            5 
  678000   0.96120165   -6.7631347    256.86285  0.031571146  0.032226051            3 
  679000   0.97039155    -6.726149     256.7041  0.031505167  0.032208038            2 
  680000    0.9694699    -6.736143    257.77525  0.031590105  0.032190142            6 
  681000   0.98432013   -6.7575094    257.59653  0.031521847  0.032171926           10 
  682000   0.97557591   -6.6809624    258.16783  0.031545433  0.032154257            3 
  683000   0.97832905   -6.7247062    258.49472  0.031539132  0.032136399            2 
  684000    1.0152008   -6.7422422    257.82947  0.031411973  0.032118356            4 
  685000   0.95847084   -6.7184579    258.87338  0.031493112  0.032100492            4 
  686000    1.0227544   -6.7370079    259.13858  0.031479419  0.032082606            7 
  687000    1.0052122   -6.7317943    259.12915  0.031432453  0.032065081            4 
  688000   0.99783223    -6.732975    259.37236  0.031416226  0.032047201            3 
  689000      0.99326   -6.7701659     259.5064  0.031386841  0.032029205            3 
  690000   0.97502278   -6.7480581    259.27402  0.031313287  0.032010817            4 
  691000   0.96548101   -6.7700397    260.38317  0.031401733  0.031992382            5 
  692000    1.0055609   -6.7309646    260.60164  0.031382664  0.031973916            5 
  693000   0.95782235   -6.7659926    260.32153  0.031303695  0.031955547            5 
  694000   0.98854495   -6.7632256    260.81292  0.031317593  0.031936827            3 
  695000   0.97318069   -6.7728071    260.48864   0.03123365  0.031918295            2 
  696000   0.95168918     -6.76497    260.27982  0.031163772  0.031899802            4 
  697000   0.99123143   -6.7701719    260.54874  0.031151213  0.031881087            4 
  698000   0.97953018   -6.7860482    260.84448  0.031141891  0.031862143            7 
  699000   0.98438482   -6.7831839    261.19842  0.031139535  0.031843294            4 
  700000   0.98820983   -6.7778397    261.26905  0.031103458  0.031824567            7 
  701000    0.9754199   -6.7544476    262.10562  0.031158537   0.03180581           11 
  702000   0.95677859   -6.7724164    261.59168  0.031053144   0.03178711            3 
  703000   0.96058532   -6.7825817    261.58766  0.031008495  0.031767996            3 
  704000    0.9627776   -6.7487681    262.82583  0.031111012  0.031749152            3 
  705000   0.98072181   -6.7667604    262.53584  0.031032606  0.031730134            4 
  706000   0.97239532   -6.7596684    262.82125  0.031022338  0.031711238            4 
  707000   0.98541096   -6.7906982    261.90785  0.030870798  0.031691761            6 
  708000    0.9688023   -6.7732531    262.71177  0.030921818  0.031672466            4 
  709000   0.97703573   -6.7610482    263.32358  0.030950116  0.031653287            4 
  710000   0.97916797   -6.7801851     263.2821  0.030901655   0.03163384            5 
  711000   0.94996208   -6.7808739    263.26397  0.030856068  0.031614566            6 
  712000   0.96142967   -6.7992281     263.4269    0.0308318  0.031595359            5 
  713000   0.96709772   -6.7571884    263.98078  0.030853293  0.031575872            5 
  714000    0.9829611   -6.7972529     263.3338  0.030734571  0.031556691            6 
  715000   0.95868371   -6.7869771    264.09999  0.030780884  0.031537297            3 
  716000   0.96089105   -6.8157088    264.38473  0.030771035  0.031517798            2 
  717000   0.97497529   -6.7910903    264.45726  0.030736548  0.031497987            3 
  718000    1.0053263   -6.7787891    264.85431  0.030739823  0.031478434            5 
  719000   0.97151787   -6.7556649    265.38178  0.030758203  0.031458654            5 
  720000   0.96699941   -6.7583455    265.44069  0.030722302  0.031439069            7 
  721000   0.99027032   -6.8107347    265.02035  0.030631108  0.031419548           13 
  722000   0.98042424   -6.7852612    265.29396  0.030620263  0.031400017            4 
  723000   0.97842663    -6.778903    266.26439  0.030689764  0.031380458            3 
  724000   0.98658222   -6.7521915    266.85665  0.030715544   0.03136078            5 
  725000   0.93947439   -6.7922583    267.04171  0.030694449  0.031341478            4 
  726000   0.94839039    -6.776325    267.41387  0.030694889  0.031322409            5 
  727000    0.9653712   -6.7844756    266.58934  0.030558154  0.031303256            4 
  728000   0.95763487   -6.7803471    266.97489  0.030560312   0.03128423            4 
  729000   0.97010662   -6.7833211    268.08292  0.030645053  0.031265302           10 
  730000   0.97116571   -6.8023146    268.25143  0.030622309    0.0312462            7 
  731000   0.96871925   -6.8100796    268.06272  0.030558905  0.031227096            4 
  732000   0.93926898   -6.7909814    267.90268  0.030498939  0.031207988            4 
  733000   0.95190704   -6.8051621     268.4303  0.030517314  0.031188648            3 
  734000   0.95978429   -6.7811094    268.18542  0.030447936  0.031169398           12 
  735000    0.9469205   -6.7711681    268.41204  0.030432204  0.031150096            4 
  736000   0.96108178   -6.7893367    267.99114    0.0303432   0.03113029            4 
  737000   0.96785561   -6.7651538    268.00877  0.030304022  0.031110682            8 
  738000   0.93619124    -6.789548    269.01818   0.03037694  0.031091165            5 
  739000   0.95463205   -6.8000673    268.82996   0.03031461  0.031071652            5 
  740000    0.9747629    -6.784847    270.02735  0.030408486  0.031052314            5 
  741000   0.97332675   -6.8175136    269.05708  0.030258331   0.03103304            4 
  742000   0.97368304   -6.8001176     269.8703  0.030308884  0.031013788            4 
  743000   0.97761608    -6.789352    270.76965   0.03036896  0.030994478            5 
  744000   0.96991396   -6.7838724    270.30776  0.030276407  0.030975174            6 
  745000    0.9430356   -6.8109963    270.13561  0.030216511  0.030955697            4 
  746000   0.95232257    -6.841604    270.21352   0.03018471  0.030935724            4 
  747000   0.97107012   -6.8117467    270.10264  0.030131933  0.030915562            4 
  748000   0.97789102   -6.7735411    269.84358  0.030062788  0.030895297            3 
  749000   0.94886797   -6.8090006    270.94094  0.030144742  0.030875175            3 
  750000   0.91421635   -6.7929563    270.49439  0.030054933   0.03085493            5 
  751000   0.95680683   -6.8329718    270.34006  0.029997787  0.030834359            4 
  752000   0.95535794   -6.8068322    270.48918  0.029974421  0.030813949            4 
  753000   0.96849958   -6.7951644    270.90807  0.029980973  0.030793516            4 
  754000   0.91740605   -6.8351927    271.78962   0.03003864  0.030773193            3 
  755000   0.95238781   -6.8099868    271.82025  0.030002235  0.030752979            3 
  756000   0.98139836    -6.843817    271.68562   0.02994771   0.03073272           10 
  757000   0.95041574   -6.8071857    271.88359  0.029929942  0.030712404            2 
  758000   0.98454281   -6.8262659    271.75865   0.02987672  0.030692311            5 
  759000   0.95704567   -6.7869135    273.31669   0.03000842   0.03067243            2 
  760000   0.95098938   -6.8212106    273.40405  0.029978514  0.030652582            3 
  761000   0.93581938   -6.7935543    274.10656  0.030016049  0.030632851            3 
  762000    0.9612101   -6.8679075    273.70535  0.029932781  0.030613634           11 
  763000   0.96209975   -6.8378186    273.40501  0.029860748  0.030594341            6 
  764000   0.93946197   -6.7924584    274.12252  0.029899925  0.030574912            2 
  765000   0.95145634   -6.8130973    274.93125  0.029948938  0.030555842            4 
  766000   0.95203709   -6.8025998     275.3529  0.029955711  0.030536849            3 
  767000   0.95447512   -6.7773338    275.70743  0.029955174    0.0305181            2 
  768000   0.94055289   -6.8612627    274.97707  0.029836921  0.030498915            4 
  769000   0.94612919   -6.8185172    275.77032  0.029884083      0.03048            8 
  770000   0.94372192   -6.8239157    276.08002   0.02987879  0.030460764            5 
  771000    0.9292933   -6.7906233    276.44669  0.029879668  0.030441605            5 
  772000   0.96050647   -6.8180255     275.8356     0.029775  0.030422619            5 
  773000   0.94519692   -6.8318665     276.3605  0.029793069   0.03040385            4 
  774000    0.9674638   -6.8070326    276.24386  0.029742017  0.030384737            4 
  775000   0.94117332   -6.8472902    276.84113  0.029767864  0.030365668            2 
  776000   0.95031651   -6.8032675    276.91237  0.029737153  0.030346743            3 
  777000   0.94651597   -6.8008107    278.00325  0.029815879  0.030327852            7 
  778000   0.93031257   -6.8071901    277.85619  0.029761803  0.030309144            3 
  779000   0.96383488    -6.817733    278.42284  0.029784215  0.030290827            3 
  780000   0.93591082   -6.8176539    278.11751  0.029713409  0.030272151            3 
  781000   0.94223919   -6.8147458    278.07325  0.029670641  0.030253216            5 
  782000   0.92529729   -6.8268116    278.15859  0.029641794  0.030234252            9 
  783000   0.94847785   -6.8766914    277.59527  0.029543984  0.030215072            7 
  784000   0.95305199   -6.8179435    278.39721   0.02959154  0.030195763            3 
  785000   0.93460577   -6.8386111    279.09337  0.029627746  0.030176706            3 
  786000   0.93277086   -6.8055258    279.44818   0.02962767  0.030157736           12 
  787000   0.95390256   -6.8611191    278.51292  0.029490991  0.030138736            4 
  788000    0.9078892   -6.8509313    278.54612  0.029457076  0.030119579            7 
  789000   0.92373012   -6.8299648    279.70377  0.029542012  0.030100556            3 
  790000   0.95029739   -6.8453578    280.23327  0.029560472  0.030081445            2 
  791000   0.95460669   -6.8325268    280.13389  0.029512631  0.030062517            6 
  792000   0.93349838   -6.8157472    280.43641  0.029507198  0.030043815            3 
  793000   0.94280368   -6.8322083     280.6432  0.029491719  0.030024958            3 
  794000   0.95435011   -6.8629463    279.91246  0.029377882  0.030006106            6 
  795000   0.93446672   -6.8531916    280.47489  0.029399883  0.029987325            9 
  796000   0.94437916   -6.8659385    281.30109  0.029449444  0.029968413            3 
  797000   0.94218822   -6.8290152    281.44893  0.029427952  0.029949755            5 
  798000   0.93467631   -6.8133333    281.98521  0.029447077  0.029931417            5 
  799000   0.94336249   -6.7973059    282.05077   0.02941706  0.029913149            2 
  800000    0.9430245   -6.8169949    282.00734  0.029375764  0.029895111            3 
  801000    0.9080531   -6.8479227    283.32235    0.0294759   0.02987726            4 
  802000   0.93343135   -6.8578643    282.89721  0.029394972  0.029859296            5 
  803000   0.93155866   -6.8402329    283.12152  0.029381643  0.029841376            6 
  804000   0.93957056   -6.8047278    284.01305  0.029437506  0.029823458            4 
  805000   0.93793548   -6.8286321    284.12968   0.02941301  0.029805746            5 
  806000   0.94272625   -6.8417388    283.99053  0.029362131  0.029788144            4 
  807000    0.9097448    -6.850967    284.02237  0.029329034  0.029770338            6 
  808000   0.94010153   -6.8318964    284.64054  0.029356491  0.029752689            3 
  809000    0.9308114   -6.8652227    285.58707  0.029417704  0.029735208            5 
  810000   0.93430458   -6.8631166    285.46102  0.029368418  0.029717733            6 
  811000   0.94934813   -6.8329981    285.81489  0.029368567   0.02970057            7 
  812000   0.92297475   -6.8461381     285.7382  0.029324528  0.029682938            7 
  813000   0.95890279   -6.8604851    286.11403  0.029326981  0.029665393            3 
  814000    0.9239816   -6.9064838    285.37202  0.029214989  0.029647748            4 
  815000   0.93594716   -6.8539833    285.97825   0.02924113  0.029630142            3 
  816000   0.92214991   -6.8474059    286.38552  0.029246888  0.029612711            6 
  817000   0.93456863   -6.8735514    286.56709  0.029229609  0.029595144            4 
  818000   0.92000329   -6.8752367     287.1616  0.029254442  0.029577527            7 
  819000   0.91539992   -6.8619721     285.8993  0.029090283  0.029559773            7 
  820000   0.92190158   -6.8246235    286.50038  0.029115892  0.029542011            4 
  821000   0.93621401   -6.8561869    286.48147  0.029078509  0.029523966           13 
  822000   0.93212046   -6.8756219    286.60908  0.029056071  0.029506012            3 
  823000   0.93260809    -6.823381    286.87373  0.029047563  0.029487936            4 
  824000   0.91881183    -6.868525    286.92467  0.029017462  0.029469894            5 
  825000   0.93443376   -6.8721146    287.29537  0.029019734  0.029451823            6 
  826000   0.92868138   -6.8617027    287.42733  0.028997915   0.02943389            5 
  827000   0.91866613   -6.8483638    287.99546  0.029020099  0.029415837            3 
  828000   0.91753729   -6.8521078    287.57439  0.028942672  0.029397691            7 
  829000    0.9370044    -6.885512    287.68504  0.028918882  0.029379803            5 
  830000   0.91351447    -6.857551    288.45285   0.02896113  0.029361438            6 
  831000   0.93594652   -6.8848632    287.87271  0.028868102  0.029343085            5 
  832000   0.92018909   -6.8563506    287.66904  0.028813005  0.029324556            7 
  833000   0.93865512   -6.8659337    287.72902  0.028784415  0.029306148            6 
  834000   0.91725152   -6.8708615    288.04148  0.028781124  0.029287717            3 
  835000   0.91619816   -6.8672771    288.85659  0.028828003  0.029269372            2 
  836000   0.93736335   -6.9090121    288.38372  0.028746384  0.029250932            3 
  837000   0.91281255   -6.8788635    289.04418  0.028777796  0.029232599            6 
  838000   0.93535142   -6.8830389    288.51351  0.028690683   0.02921425            4 
  839000   0.94138635   -6.8875383    288.99083  0.028703897  0.029195781            5 
  840000    0.9337739   -6.8985251    288.57809  0.028628779    0.0291773           10 
  841000   0.93847031   -6.8835272    289.46155  0.028682278  0.029158899            6 
  842000   0.92225261   -6.8974417    289.20135  0.028622461  0.029140538            4 
  843000   0.93291967   -6.8969307    290.03159   0.02867058  0.029122192            9 
  844000   0.93260388   -6.8635842    289.85409  0.028619085   0.02910377           13 
  845000   0.92542506   -6.8672784    289.56252  0.028556462   0.02908535            7 
  846000   0.92249695   -6.8924718    289.82135  0.028548202  0.029066964            4 
  847000   0.91831145   -6.8574033    290.52606  0.028583831   0.02904858           11 
  848000   0.90755727   -6.8834651    290.48634   0.02854622  0.029030107            4 
  849000   0.90793075   -6.8647471     290.8002  0.028543404   0.02901178            6 
  850000   0.92430547   -6.8682748    292.15121  0.028642276  0.028993558            6 
  851000    0.9110284   -6.8870175    291.18566  0.028514068  0.028975443            5 
  852000   0.93787025   -6.8951671    291.28058  0.028489885  0.028957227            8 
  853000   0.91680336    -6.874812    292.60264  0.028585643  0.028938955            7 
  854000   0.92617909   -6.8853572    292.40197  0.028532589  0.028920974            5 
  855000   0.90709677   -6.8792403    292.81469  0.028539444  0.028902924           14 
  856000   0.91545862   -6.8736059    291.68805  0.028396422   0.02888485            5 
  857000    0.9241892   -6.8891657    293.13576  0.028504061  0.028866639            3 
  858000   0.89596075   -6.8922696    292.31933  0.028391543  0.028848395            4 
  859000   0.90063493   -6.9008688    291.47619  0.028276697  0.028830125            4 
  860000   0.93573538   -6.8989303    292.54567  0.028347449  0.028811675            8 
  861000   0.91778284   -6.8813177    293.09256  0.028367456  0.028793445            5 
  862000   0.91989585   -6.8660605    293.39928  0.028364199  0.028775409            5 
  863000   0.89027464   -6.9123184     292.9479  0.028287747  0.028757003            7 
  864000   0.92161924   -6.8942463    293.25201  0.028284337  0.028738826            3 
  865000   0.92756955     -6.90246    293.84494  0.028308761   0.02872067            6 
  866000   0.90926408   -6.8551847    292.81731  0.028177185  0.028702569            6 
  867000   0.92690966   -6.9044413    294.27055  0.028284367  0.028684428            3 
  868000   0.91251631   -6.9112871    294.11758  0.028237095  0.028666286           13 
  869000   0.89824202   -6.8972394    294.92959   0.02828247  0.028648391            6 
  870000   0.88998475    -6.936148    295.11489   0.02826771  0.028630453            6 
  871000   0.91770561   -6.9300726    295.19889  0.028243292  0.028612431            5 
  872000    0.8988042   -6.9155431    294.70198  0.028163416  0.028594685            7 
  873000   0.89634676   -6.8982706    296.13602  0.028268043   0.02857706            1 
  874000   0.91081621   -6.9150375    295.49348  0.028174436  0.028559548            6 
  875000   0.90234877   -6.8908673    296.24448   0.02821376  0.028541974            2 
  876000   0.89962477   -6.8901395     296.5642  0.028211967   0.02852449            2 
  877000    0.9010681   -6.8957394    296.44593   0.02816856  0.028506874            4 
  878000   0.89787832   -6.9266675    296.40775  0.028132854  0.028489403            5 
  879000   0.91217246   -6.8992159    296.82604  0.028140504  0.028471731            4 
  880000   0.90393729   -6.9009249    297.17135  0.028141227  0.028454057            5 
  881000   0.89880855   -6.8904704    297.89971  0.028178179  0.028436507            5 
  882000   0.90456769   -6.9035309    297.59963  0.028117878  0.028419124           12 
  883000   0.90633021   -6.8786807    297.33494  0.028061055  0.028401946            5 
  884000   0.91908509   -6.8613229    297.90451  0.028083005  0.028384653            3 
  885000   0.89271872   -6.9131598    298.02754  0.028062857  0.028367463            4 
  886000   0.88605614   -6.9269589     298.0873  0.028036804  0.028350139            4 
  887000   0.87284474   -6.8682706    299.18238  0.028108078  0.028332996            3 
  888000   0.89459128   -6.9084174    298.74273  0.028035166  0.028315788            6 
  889000   0.88053647   -6.9035431    298.55688  0.027986209  0.028298339            6 
  890000   0.87272632   -6.8944065    298.75359  0.027973183  0.028281039            3 
  891000   0.91360975   -6.9187991    299.48385  0.028010087  0.028263743            2 
  892000   0.87719305    -6.879392    299.82355  0.028010422   0.02824635            3 
  893000   0.91761115    -6.903078    299.56777  0.027955186  0.028228958            5 
  894000   0.89304898   -6.9020521    300.08925  0.027972525  0.028211685            7 
  895000   0.90668031   -6.9530852    299.20192  0.027858651  0.028194301            8 
  896000   0.88854637   -6.9102025    298.82699  0.027792688  0.028177011            5 
  897000   0.88653052   -6.9291969    299.55032  0.027828904  0.028159539            2 
  898000   0.91459815   -6.9412898    299.90692  0.027831006  0.028142123            7 
  899000   0.88202133   -6.9310902    300.09732  0.027817697  0.028124795            7 
  900000   0.90326425   -6.9267033    300.74958  0.027847184  0.028107463            8 
  901000   0.89191389   -6.9035159    299.98193  0.027745276  0.028090245            3 
  902000    0.8991764   -6.9305687    300.22643  0.027737105  0.028073012            4 
  903000   0.89605094    -6.916258       301.21  0.027797157  0.028055612            5 
  904000   0.87232747    -6.925482     300.0327  0.027657882   0.02803798            5 
  905000   0.88712747   -6.9081932    301.61894  0.027773383  0.028020474            6 
  906000   0.86657094   -6.8876586    300.78657  0.027666167  0.028002949            5 
  907000   0.90532674    -6.926142     301.4145  0.027693357  0.027985441            5 
  908000   0.88079393   -6.9115768    301.74411  0.027693109  0.027967888            9 
  909000   0.88955548   -6.9151744    301.06243   0.02760015  0.027950529            4 
  910000   0.89664332   -6.9418329    301.75422   0.02763317  0.027933175           10 
  911000   0.87259372   -6.9551509    301.63653  0.027592072  0.027915629            6 
  912000   0.90668227    -6.933168    301.97446  0.027592696  0.027898176            4 
  913000   0.88020411   -6.9604644    301.74065  0.027541132  0.027880754            6 
  914000   0.89364026   -6.9122549    302.82482  0.027609849  0.027863492            5 
  915000   0.88210123   -6.9318538    303.14143  0.027608509  0.027846174            6 
  916000   0.87702647   -6.9501749    303.20003    0.0275837  0.027828895            5 
  917000   0.88833716   -6.8971905    303.44896  0.027576242  0.027811718            7 
  918000   0.87775093   -6.9138407    303.78034  0.027576284  0.027794493            3 
  919000   0.90022654   -6.9120457    303.21914  0.027495388  0.027777325            4 
  920000   0.89924205   -6.9337622    303.88271  0.027525608  0.027760149            3 
  921000   0.87788552   -6.9597242    304.38922  0.027541551   0.02774291            6 
  922000   0.88818663   -6.9305154    304.52329  0.027523797  0.027725717            3 
  923000    0.8930918   -6.9787249    304.02447  0.027448941  0.027708514            5 
  924000   0.89093287   -6.9432739    304.31844  0.027445746  0.027691208            5 
  925000   0.88826527   -6.9361424    303.70441  0.027360758   0.02767392            2 
  926000   0.88867728   -6.9515085    304.96207  0.027444391  0.027656579           12 
  927000   0.86271828   -6.9310018     305.0328  0.027421143  0.027639325            5 
  928000   0.86749338   -6.9396976    304.83638  0.027373956  0.027622077            9 
  929000   0.89580584   -6.9535889    304.74729  0.027336499  0.027604807            9 
  930000   0.90045704   -6.9346436    305.35876  0.027361896  0.027587375            8 
  931000   0.86548587   -6.9629017     304.8371  0.027285813  0.027570064            3 
  932000   0.87626851   -6.9350346    305.45198  0.027311514   0.02755265            4 
  933000   0.88117342   -6.9530699    304.81133  0.027225021  0.027535317            7 
  934000   0.88581371   -6.9358859    305.10345  0.027221935  0.027517846            4 
  935000   0.88803846   -6.9384107    305.40222  0.027219449  0.027500372            6 
  936000   0.89276318   -6.9700363    305.36776    0.0271873  0.027482771            5 
  937000    0.8562597   -6.9935605    305.41205  0.027162224  0.027465037            4 
  938000   0.88134119   -6.9549837     304.9846  0.027095291  0.027447443            5 
  939000   0.85921277   -6.9670916    305.43628  0.027106521   0.02742992           13 
  940000   0.87631001   -6.9534669    306.09976  0.027136504   0.02741256            7 
  941000   0.87507444   -6.9403856    307.06207  0.027192886  0.027395408            5 
  942000     0.866564   -6.9663598    306.08177  0.027077297  0.027378059            3 
  943000   0.86385234   -6.9881473    305.67772  0.027012878  0.027360572            2 
  944000   0.85502061    -6.940581    306.27169  0.027036696  0.027343201            8 
  945000   0.88900954   -6.9597748    306.87617  0.027061391  0.027325847            4 
  946000     0.855294   -6.9773696    306.72723  0.027019664  0.027308608           10 
  947000   0.88206492   -6.9597167    307.61846  0.027069558  0.027291462            6 
  948000   0.88166629   -6.9846641    307.34748  0.027017184  0.027274237            6 
  949000   0.86876885   -6.9514377    307.61315  0.027012044  0.027257192            7 
  950000   0.87176745   -6.9800415    308.21334  0.027036257  0.027240109            5 
  951000   0.87123669   -6.9482955    308.24908  0.027010961  0.027223008            8 
  952000   0.89960046   -6.9777806    308.41802  0.026997376  0.027205939            6 
  953000      0.86387   -6.9731037     308.7778  0.027000507  0.027189065            7 
  954000   0.87179929   -6.9523031     309.0735  0.026998035  0.027172292            9 
  955000    0.8694259   -6.9594147    308.61185  0.026929481  0.027155464            4 
  956000   0.87362581   -6.9844577    309.35279  0.026965899  0.027138604            5 
  957000   0.88107942   -6.9699202    309.46976  0.026947907  0.027121884            6 
  958000   0.86019155   -6.9837862    309.76466   0.02694543  0.027105171            8 
  959000   0.88275089   -7.0089349    309.58352  0.026901592  0.027088333           13 
  960000   0.87282559   -6.9708676    310.08834  0.026917391   0.02707159            8 
  961000   0.88242966   -6.9356619    309.74305  0.026859439  0.027054849            6 
  962000   0.86576366   -6.9565894    310.29983  0.026879749  0.027038114            6 
  963000   0.85633524   -6.9420865    310.19675  0.026842917  0.027021571            4 
  964000   0.85602122   -6.9677712    310.94025  0.026879344  0.027005091           10 
  965000   0.87480483   -6.9832773    310.84861  0.026843576  0.026988605            6 
  966000   0.87099884   -6.9957721    311.34093  0.026858258  0.026972258            6 
  967000   0.87637696   -6.9730328    311.96211  0.026884015  0.026955968            7 
  968000   0.85893021    -6.962263     311.3475  0.026803332  0.026939755            3 
  969000   0.86225891   -6.9816538    311.68157  0.026804401  0.026923533            5 
  970000   0.87991741   -6.9542653    312.25976   0.02682644  0.026907167            5 
  971000   0.86318136   -6.9975661    312.61045  0.026828909  0.026890955            6 
  972000    0.8719757   -6.9925399    312.02328  0.026750967  0.026874706            7 
  973000   0.85370522   -6.9739132    311.95081  0.026717267  0.026858331            6 
  974000   0.87019606   -6.9885931    312.70397  0.026754275  0.026841886           10 
  975000   0.84732293   -6.9639952    312.60606  0.026718467  0.026825505            4 
  976000   0.85441587   -6.9932687    312.93763  0.026719401  0.026809178            4 
  977000    0.8642241   -7.0129987    312.91758  0.026690343  0.026792852           11 
  978000   0.84822535   -6.9795702    313.09699   0.02667834  0.026776496           12 
  979000   0.85648356   -6.9790821     313.2408   0.02666333  0.026760161            5 
  980000    0.8607149   -6.9876143     313.3819   0.02664812  0.026744033            4 
  981000   0.87334065   -7.0016823    313.46932  0.026628382  0.026727703            6 
  982000   0.85197259   -6.9952208    313.94369  0.026641521  0.026711455            4 
  983000   0.82863626   -6.9990409    313.97118   0.02661675  0.026695163           13 
  984000   0.87644796   -6.9832927    313.77302  0.026572918  0.026678913            6 
  985000   0.85363728    -6.976039    314.86027  0.026637925  0.026662894            7 
  986000   0.87109483   -7.0005744     314.5867  0.026587787  0.026646774            5 
  987000   0.85738847   -6.9895627    314.40214  0.026545267  0.026630672            9 
  988000    0.8451092   -7.0141545    314.35851  0.026514719  0.026614396            7 
  989000   0.85810481   -6.9699937    314.58973  0.026507392  0.026598068            5 
  990000   0.85239186   -7.0150377    314.37085  0.026462193  0.026581805            9 
  991000   0.85570287   -6.9939024    314.91989  0.026481659  0.026565391            5 
  992000   0.83376099   -7.0204121    314.46882  0.026417072  0.026549062            5 
  993000   0.87614006   -6.9992062    315.04645  0.026438943  0.026532653            7 
  994000   0.86204227    -6.998621    314.41197  0.026359153   0.02651614            8 
  995000   0.86915516   -7.0149925    315.46829   0.02642113  0.026499701           10 
  996000    0.8567488   -6.9933135     315.3299  0.026383023  0.026483118            7 
  997000   0.86583552   -6.9998189    316.11228  0.026421956  0.026466521            5 
  998000   0.83965965   -6.9934395    315.12251  0.026312835  0.026450058            3 
  999000   0.84283771   -7.0113547    315.38528  0.026308415    0.0264336            2 
 1000000   0.85263534   -7.0006538    315.88125  0.026323438   0.02641718            8 
 1001000   0.85646415   -7.0029269    315.69784  0.026281871  0.026400832            3 
 1002000   0.86294501   -7.0216808    316.11924  0.026290689    0.0263846            4 
 1003000   0.84151668   -6.9813113    316.55736  0.026300877   0.02636849            4 
 1004000   0.84346987   -7.0110393      316.356  0.026257968  0.026352321            5 
 1005000   0.84917017   -7.0257793    317.47485  0.026324615  0.026336191            5 
 1006000   0.84663512   -7.0132902    317.51318  0.026301622  0.026320327            7 
 1007000   0.85226465    -6.985226    317.77886  0.026297489  0.026304495            6 
 1008000   0.84713349   -7.0105875    318.55433   0.02633551  0.026288664            7 
 1009000   0.83157789   -7.0135939      318.467  0.026302197  0.026272941            5 
 1010000   0.83757847   -7.0172822    317.79222   0.02622048   0.02625713           13 
 1011000   0.83712137   -7.0274686    318.08667  0.026218816  0.026241235            5 
 1012000   0.83572664   -7.0173905    319.05672  0.026272787  0.026225336            8 
 1013000   0.85642045   -7.0293103    318.53205  0.026203689  0.026209392            4 
 1014000   0.83466905   -7.0168271    318.21711  0.026151965  0.026193503           12 
 1015000   0.82566948   -7.0418732    317.76698  0.026089243  0.026177488            7 
 1016000   0.85686104   -7.0283821    318.10482  0.026091275  0.026161273            3 
 1017000   0.83874771   -7.0142327    318.96299  0.026135938  0.026145355            7 
 1018000   0.83724709   -6.9958196    318.48786   0.02607137  0.026129531            5 
 1019000   0.85553546   -7.0418901    318.80566  0.026071774  0.026113494            5 
 1020000   0.84152816   -7.0303144    319.37408  0.026092654  0.026097307           13 
 1021000   0.84196534   -7.0249077    318.46338  0.025992767  0.026081386            5 
 1022000   0.85483307   -7.0100061    320.13358  0.026103521  0.026065512            8 
 1023000   0.83728985   -7.0250208    319.61926  0.026036108  0.026049543            5 
 1024000   0.85433542    -7.015362    320.16939  0.026055452  0.026033494            5 
 1025000   0.85131379   -7.0107846    319.89268  0.026007535  0.026017646            4 
 1026000   0.84776861    -7.005141    319.48656  0.025949201  0.026001821            7 
 1027000   0.83759789   -7.0052053    319.76259  0.025946331  0.025985999            6 
 1028000   0.83701778   -7.0096206    320.25009   0.02596061  0.025970135            6 
 1029000   0.82377579   -7.0261194    320.49735  0.025955406  0.025954209           12 
 1030000   0.83324129   -7.0303272    319.40482  0.025841814  0.025938158            8 
 1031000   0.83714713   -7.0288899    320.63873  0.025916483  0.025922132           11 
 1032000   0.83208709   -7.0513953     319.7835  0.025822311  0.025906085            3 
 1033000   0.83760385   -7.0426541     320.7604  0.025876121  0.025890191            3 
 1034000   0.85226046    -7.025391    320.84626  0.025858016  0.025874331            9 
 1035000   0.86004877   -7.0369076    320.15435  0.025777323  0.025858332            4 
 1036000   0.87023735   -7.0408688    320.69767  0.025796145  0.025842348            5 
 1037000   0.82768973    -7.026334    321.28922  0.025818806  0.025826314            7 
 1038000   0.83188749   -7.0144234    321.56023  0.025815689    0.0258103            6 
 1039000   0.85739418    -7.053498    320.48678  0.025704747  0.025794231            7 
 1040000   0.82326701   -7.0440022     320.7604  0.025701955  0.025777822            7 
 1041000   0.85954028   -7.0665609    320.77626  0.025678535  0.025761484            8 
 1042000   0.84409867   -7.0234767    322.03094  0.025754234  0.025745375            6 
 1043000   0.84988658   -7.0344721    322.15175  0.025739194  0.025729273            6 
 1044000   0.85670796   -7.0447021    321.66337  0.025675556  0.025713282            5 
 1045000   0.82703987   -7.0319776    321.98379  0.025676538  0.025697284            5 
 1046000   0.84523953   -7.0277151    321.52716  0.025615612  0.025681095            6 
 1047000   0.83418252   -7.0488695    321.73598  0.025607767  0.025664796            3 
 1048000   0.84325502   -7.0371977     321.8328   0.02559103  0.025648564            5 
 1049000   0.83567605   -7.0583741    321.71222  0.025557056  0.025632272            8 
 1050000   0.82388162   -7.0157836    321.84645  0.025543369  0.025616081            8 
 1051000   0.82859313   -7.0388251    322.19363  0.025546593   0.02559997           12 
 1052000   0.83249693   -7.0396068     322.5908  0.025553771    0.0255838           13 
 1053000   0.83425565   -7.0800385    322.15464  0.025494986  0.025567652            7 
 1054000    0.8293088   -7.0623374    323.00805  0.025538271  0.025551657            7 
 1055000   0.81144118   -7.0708315    321.96384  0.025431583  0.025535567            7 
 1056000   0.83812636   -7.0567529    323.01491  0.025490444  0.025519417            9 
 1057000   0.83642927   -7.0452193     322.9527  0.025461424  0.025503331            8 
 1058000   0.83510797   -7.0571702    322.03261  0.025364888  0.025487157           10 
 1059000   0.84256773   -7.0159487    322.92803  0.025411397  0.025470948            4 
 1060000   0.84260399   -7.0624156    322.48106  0.025352285  0.025454704            8 
 1061000   0.82753614   -7.0670325    323.39437  0.025400123  0.025438534            3 
 1062000   0.82294713   -7.0649238    323.17617  0.025359084  0.025422338            3 
 1063000   0.84573331   -7.0654106    323.06734  0.025326696  0.025406105            6 
 1064000   0.82844514   -7.0653188    323.71441  0.025353572  0.025389953            7 
 1065000   0.83499655   -7.0464265    322.92839  0.025268262  0.025373743            8 
 1066000   0.82587802   -7.0673797     323.8978  0.025320341   0.02535757            7 
 1067000   0.83993468   -7.0602657    324.10221  0.025312575  0.025341511           10 
 1068000   0.82253924   -7.0583092     324.3574  0.025308786  0.025325327           14 
 1069000   0.83855439   -7.0965726    323.90304  0.025249691  0.025308953            9 
 1070000   0.81619037   -7.0681749    323.88899  0.025224999   0.02529266           15 
 1071000   0.81327037   -7.0612813    323.77955  0.025192931  0.025276411           11 
 1072000   0.82419683   -7.0790645     323.6711     0.025161   0.02526019           13 
 1073000   0.83109558    -7.080624    324.21153  0.025179522  0.025243947            6 
 1074000   0.83181246   -7.0612179    324.18527   0.02515404  0.025227759            9 
 1075000   0.82412204   -7.0719806    324.74969  0.025174394   0.02521156            6 
 1076000   0.84448957   -7.0686353     325.2081  0.025186501  0.025195498            3 
 1077000   0.82139971   -7.0613486    325.58071  0.025191946  0.025179474            3 
 1078000   0.84268273   -7.0651986    325.13943  0.025134464  0.025163513           14 
 1079000   0.80387284   -7.0702741    325.15851  0.025112643  0.025147586            6 
 1080000   0.81555859   -7.0644274    326.42199  0.025186882  0.025131756            8 
 1081000   0.83917252   -7.0494905    325.69232  0.025107333  0.025115886           12 
 1082000   0.83294178   -7.0866026    326.13391  0.025118139   0.02509992            9 
 1083000   0.82630658   -7.0775575    326.04427  0.025088048  0.025083995            3 
 1084000   0.81249242   -7.0467184    326.59812  0.025107482  0.025068028            5 
 1085000    0.8190564   -7.0821571    326.07228  0.025043954  0.025052192            6 
 1086000   0.80698846   -7.0497224    326.14973  0.025026836  0.025036226            8 
 1087000   0.84015008   -7.0875719    326.40478  0.025023366  0.025020319            6 
 1088000   0.79268007   -7.0599293    326.31742  0.024993675  0.025004467            7 
 1089000   0.81164322   -7.0665659     326.6747  0.024998064  0.024988473            7 
 1090000   0.83482576   -7.0952653    326.07818  0.024929525  0.024972407            4 
 1091000   0.80845117    -7.068949    326.30662  0.024924123  0.024956321            7 
 1092000   0.82582207   -7.0886361    326.37836  0.024906774  0.024940156           14 
 1093000   0.82778514   -7.1103684    325.10447  0.024786861  0.024923845            7 
 1094000   0.81237266   -7.0988428    326.32394  0.024857095  0.024907597            4 
 1095000   0.83560103    -7.084462    326.67313  0.024860969  0.024891495            8 
 1096000   0.81937814   -7.1044204    325.95812   0.02478392  0.024875395            5 
 1097000   0.83090515   -7.0772416    326.58588  0.024809016  0.024859158            7 
 1098000   0.82337952   -7.0714632    326.33987  0.024767749  0.024842985            6 
 1099000   0.79884023    -7.078392    327.90205  0.024863668  0.024827035            6 
 1100000    0.8103412   -7.0876615    326.86056  0.024762163  0.024811056            5 
 1101000    0.8031246   -7.0804128    328.27454  0.024846695  0.024795131            8 
 1102000   0.80843071   -7.0658203    327.98285  0.024802091  0.024779321            7 
 1103000   0.82988852   -7.0995356    327.32987  0.024730272  0.024763504            9 
 1104000   0.81713984   -7.0975355    327.52383  0.024722511  0.024747487            6 
 1105000   0.81652983   -7.1072648    328.09638  0.024743317  0.024731459           11 
 1106000   0.81498155   -7.0808481    328.25936  0.024733225  0.024715375            4 
 1107000   0.81293927   -7.0865743    328.83777  0.024754424  0.024699408            8 
 1108000   0.81393017   -7.1056576    327.76715  0.024651561  0.024683323            7 
 1109000   0.82921499   -7.0903967    328.04313   0.02465007  0.024667413            3 
 1110000   0.79856143   -7.0923094    328.16923  0.024637329  0.024651372            6 
 1111000   0.81650832    -7.138307    327.72186  0.024581598  0.024635281            8 
 1112000   0.81054481   -7.1013673    328.73081  0.024635102  0.024619233            6 
 1113000   0.81084272   -7.1154773    328.62832  0.024605295  0.024603195            6 
 1114000   0.80524185   -7.1117742    327.98477  0.024535067  0.024587208           12 
 1115000    0.8027646    -7.082162    328.82005  0.024575489  0.024571279            4 
 1116000   0.80306117    -7.136563    328.79664   0.02455172  0.024555369            5 
 1117000   0.82361486   -7.1125441    328.82196   0.02453163  0.024539462            9 
 1118000   0.80945676   -7.0943334    329.04343  0.024526195  0.024523419            6 
 1119000    0.8175132   -7.0819633    328.65103  0.024475055  0.024507538            7 
 1120000   0.81013778   -7.1036821    328.82615  0.024466232  0.024491721            8 
 1121000   0.81822821   -7.0996289    329.33881  0.024482516  0.024475926            3 
 1122000   0.80670152   -7.1277427    329.31256  0.024458746  0.024460083            8 
 1123000    0.8001456   -7.0738527    329.45305  0.024447392  0.024444154            5 
 1124000   0.81573017   -7.1422923    329.56489  0.024433933  0.024428254            4 
 1125000   0.78942956   -7.1067177    329.58542  0.024413735  0.024412379            6 
 1126000   0.81691049   -7.0736982    329.45516  0.024382413   0.02439645           14 
 1127000   0.81051307   -7.1053285    330.29565  0.024422926  0.024380567            7 
 1128000   0.80766657   -7.0763432    330.37995  0.024407503   0.02436471            9 
 1129000   0.80256766    -7.125259    330.17478   0.02437074  0.024348864            6 
 1130000   0.80029811   -7.0998786    331.23038  0.024427019  0.024333089            4 
 1131000   0.80558153   -7.1198277    329.55536  0.024282004  0.024317111            4 
 1132000   0.80745042   -7.1223381    330.33105  0.024317657  0.024301101            5 
 1133000   0.80382891   -7.1181831    330.27993  0.024292433  0.024285144            7 
 1134000   0.80424443   -7.1380165    328.60563  0.024147974  0.024269086            4 
 1135000   0.82194598   -7.1240067    330.21882  0.024245141  0.024252964            4 
 1136000    0.7960962   -7.1126322    330.03525  0.024210332   0.02423686            6 
 1137000   0.80012622   -7.1021216    330.45176  0.024219566    0.0242208            5 
 1138000   0.81393839   -7.1202907    330.25057  0.024183551  0.024204709            9 
 1139000   0.82977377   -7.1284428    330.29298  0.024165422  0.024188728            7 
 1140000   0.80290746   -7.1202881     330.9695  0.024193677  0.024172753            5 
 1141000   0.80685663   -7.0918172    330.54412  0.024141406  0.024156849            6 
 1142000   0.78175298   -7.1099628    331.01855  0.024154886  0.024140923            9 
 1143000   0.79677246   -7.0976133    331.15537  0.024143728  0.024125073            9 
 1144000   0.79311023   -7.1007804    331.60737  0.024155548  0.024109156            3 
 1145000   0.79059597   -7.1072486    331.18865  0.024103978  0.024093265            4 
 1146000   0.79009159   -7.1260543    330.70335  0.024047655  0.024077353            8 
 1147000   0.79830394   -7.1526579     331.4762  0.024082839  0.024061384           11 
 1148000   0.80591794   -7.1411805    332.03908  0.024102721  0.024045507            4 
 1149000   0.81441914      -7.1329    332.16179  0.024090643   0.02402974           11 
 1150000   0.79531143   -7.1661246    332.10865  0.024065844  0.024013805            6 
 1151000   0.78166303   -7.1360478    331.97069  0.024034947  0.023997872            9 
 1152000   0.78961553   -7.1623464    332.02975  0.024018356     0.023982           12 
 1153000   0.80182979   -7.1410516    332.26362  0.024014428  0.023966149           14 
 1154000   0.80855269   -7.1258451    331.57717  0.023944048  0.023950336            9 
 1155000   0.79468911   -7.1209293    332.50237   0.02399007  0.023934578            6 
 1156000   0.79334463   -7.1238253    332.73018   0.02398574  0.023918802           12 
 1157000   0.78491422   -7.1238031    332.04775  0.023915857  0.023902935            3 
 1158000   0.79232269   -7.1164496     331.8683   0.02388229  0.023887205            6 
 1159000   0.79410794   -7.1160838    332.68036  0.023920072  0.023871567            7 
 1160000   0.79582512   -7.1245603    332.98834  0.023921576  0.023855983            9 
 1161000    0.7922761   -7.1252781     332.9054  0.023895019  0.023840275            5 
 1162000   0.78593522   -7.1301015    333.02725  0.023883194  0.023824597            8 
 1163000   0.79001959   -7.1674434    333.01956  0.023862107  0.023808822           10 
 1164000   0.78601327   -7.1371383    333.04741    0.0238436  0.023792955           12 
 1165000   0.80316244   -7.1243777    333.41643   0.02384953  0.023777167           14 
 1166000   0.78340416   -7.1396584    332.29627  0.023749019  0.023761334           12 
 1167000   0.78886463   -7.1581813    332.10566  0.023715057  0.023745429           14 
 1168000   0.79897704    -7.177129    332.34279  0.023711671  0.023729528            3 
 1169000   0.76663166   -7.1515709    333.07083  0.023743287   0.02371359            3 
 1170000   0.80384163   -7.1581836    332.52716  0.023684271  0.023697634            7 
 1171000   0.80221606   -7.1614785    332.14733  0.023637015  0.023681622            9 
 1172000   0.78229461   -7.1488897    333.08057  0.023683203  0.023665594            4 
 1173000   0.78233278   -7.1629492    332.24962   0.02360398  0.023649641           23 
 1174000   0.76036085   -7.1284389     333.4526  0.023669264  0.023633769            9 
 1175000   0.77790084   -7.1345212     333.1223  0.023625695  0.023617931            6 
 1176000   0.78427445    -7.134112    333.44458  0.023628443  0.023601901            5 
 1177000   0.80745058   -7.1658146    332.19099  0.023519611  0.023585823            6 
 1178000   0.79056809   -7.1774307    332.31293  0.023508272  0.023569686           12 
 1179000   0.78379877   -7.1480443    332.66296  0.023513073  0.023553573           13 
 1180000   0.78705886   -7.1581917    333.45115   0.02354881  0.023537539            8 
 1181000    0.7724081   -7.1635341    332.74739  0.023479212  0.023521525            6 
 1182000   0.80438511    -7.139575    334.05595  0.023551604  0.023505634            9 
 1183000   0.77200748   -7.1645427    333.72494  0.023508378  0.023489688           13 
 1184000   0.77580059   -7.1627479    333.73957  0.023489553  0.023473735            5 
 1185000   0.78855125   -7.1414412    334.02923  0.023490101  0.023457933            4 
 1186000   0.77989721   -7.1833057    333.85136  0.023457797  0.023442119            4 
 1187000   0.77185567    -7.148167    333.56807  0.023418146  0.023426216            7 
 1188000    0.7709475   -7.1847189    332.56998  0.023328422   0.02341035            6 
 1189000   0.76682755    -7.168011    334.38784   0.02343621  0.023394482            8 
 1190000   0.78408587   -7.1683592    334.80289  0.023445581  0.023378628           14 
 1191000   0.76916324    -7.173441    334.29948  0.023390672  0.023362694            8 
 1192000   0.76827052   -7.1655221     333.6236  0.023323798  0.023346722            4 
 1193000   0.77549989    -7.153322    334.01772  0.023331777  0.023330797           12 
 1194000   0.77491343   -7.1517883    334.93471  0.023376236  0.023314938           17 
 1195000    0.7832806   -7.1692329    334.20823  0.023306013  0.023299087            4 
 1196000   0.76905587   -7.1437048     334.5337  0.023309204  0.023283167            7 
 1197000   0.77453465   -7.1695841    333.98244  0.023251353  0.023267274            8 
 1198000   0.77031502   -7.1700797     334.8543  0.023292592  0.023251398            8 
 1199000   0.79027432   -7.1770859    334.46625  0.023246194  0.023235485            9 
 1200000   0.77063682   -7.1574378    334.59703  0.023235905  0.023219658            7 
 1201000    0.7664574   -7.1582244    335.28201  0.023264086  0.023203819            9 
 1202000   0.75850484   -7.1678994    334.28903  0.023175889  0.023187799            4 
 1203000   0.76497694   -7.1949518    334.48458   0.02317017  0.023171782            8 
 1204000   0.77349981   -7.1618613    334.97408  0.023184806  0.023155864            8 
 1205000   0.76177601   -7.2076118    334.22643  0.023113861  0.023139879           11 
 1206000   0.75921502   -7.1598714    334.14468  0.023089046    0.0231239           12 
 1207000   0.77529783   -7.1826852    334.08283  0.023065647  0.023107927           15 
 1208000   0.76404239    -7.196395    334.45651  0.023072331  0.023091942            6 
 1209000   0.77763299   -7.1957436      334.769  0.023074787  0.023075941            8 
 1210000   0.76704215   -7.2125618    335.17539  0.023083704  0.023059962            9 
 1211000    0.7704164   -7.1774904     334.6073  0.023025551  0.023043988            9 
 1212000      0.77248   -7.1829357    335.31455  0.023055181  0.023028017           10 
 1213000   0.75311115   -7.1797759    335.60918  0.023056416  0.023012026            8 
 1214000   0.77186198   -7.1650078    335.42349  0.023024677  0.022996152           17 
 1215000   0.75378864   -7.1829396    334.80659  0.022963415  0.022980124            9 
 1216000   0.77685548   -7.1770252    335.50648  0.022992495  0.022964126            8 
 1217000   0.77109504    -7.207277    335.28692  0.022958567  0.022948115            7 
 1218000   0.76914301   -7.1781973    335.50799  0.022954843  0.022932104            6 
 1219000   0.77315906   -7.1826709    334.86062  0.022891757  0.022916147           12 
 1220000    0.7740089   -7.1524004    336.07915  0.022956226  0.022900202            9 
 1221000   0.76708749   -7.1730916    336.25664  0.022949538   0.02288431           10 
 1222000   0.77426149   -7.1941958    336.51299   0.02294824  0.022868439           11 
 1223000    0.7558264   -7.1961224    336.01207  0.022895344  0.022852601            9 
 1224000   0.77428084   -7.1963916    334.86608  0.022798617  0.022836761           14 
 1225000    0.7847013   -7.1763765    336.14562  0.022867049  0.022820871           13 
 1226000   0.75584291   -7.1857618    335.86792  0.022829521   0.02280505            6 
 1227000   0.76837603   -7.1912835    336.05221  0.022823432  0.022789176           11 
 1228000   0.78035269   -7.1688435    336.74256  0.022851694  0.022773439           14 
 1229000   0.76374743   -7.1897746    336.12911  0.022791504  0.022757738            7 
 1230000   0.77725277    -7.193695    335.65707  0.022740994   0.02274204            9 
 1231000   0.74673673   -7.1952696    336.32208  0.022767539  0.022726294            8 
 1232000   0.76185591   -7.2089796    336.40987  0.022754997  0.022710406           10 
 1233000   0.76771037   -7.1864569    336.22531  0.022724068  0.022694494           10 
 1234000   0.77757439     -7.17058    336.15152   0.02270067  0.022678635           12 
 1235000   0.76362355     -7.19301    335.95748  0.022669196  0.022662689            9 
 1236000   0.77125682   -7.2145603    336.55075  0.022690854  0.022646713           22 
 1237000   0.77303634   -7.1849765    336.09841  0.022642038  0.022630739           17 
 1238000   0.75838167   -7.2115478    336.50735  0.022651275  0.022614792           11 
 1239000   0.75978793   -7.2174372    336.96574  0.022663825  0.022598881           21 
 1240000   0.76513947   -7.2002929    336.61844  0.022622207  0.022583035           26 
 1241000   0.76645466   -7.2006617    336.88961  0.022622187  0.022567135           20 
 1242000   0.77909711   -7.2054957    337.36602  0.022635938  0.022551206            7 
 1243000   0.76815435   -7.2035865    337.74928  0.022643422  0.022535392            8 
 1244000   0.75959918   -7.2153413    336.11682  0.022515864  0.022519564           16 
 1245000   0.76002831   -7.1905385    337.54384  0.022593296  0.022503758           14 
 1246000   0.78977084   -7.2196087    336.17323  0.022483496   0.02248794            8 
 1247000   0.76570366   -7.2104061    336.90482  0.022514356  0.022472066            4 
 1248000   0.74404332   -7.2394094    336.99013  0.022502012  0.022456173           18 
 1249000   0.74900495     -7.19851     336.9418  0.022480771  0.022440333            9 
 1250000    0.7518665   -7.2213436    336.71302  0.022447534   0.02242447           11 
 1251000   0.75912634   -7.1974699     336.9357  0.022444425  0.022408649           19 
 1252000   0.74177119   -7.2204261    337.44377  0.022460315  0.022392854            8 
 1253000   0.75315757   -7.2130294    337.47383  0.022444389  0.022377027            8 
 1254000   0.74114711   -7.1926735    336.83817  0.022384248  0.022361243            8 
 1255000   0.75806435   -7.1822343    337.03798   0.02237968  0.022345403            8 
 1256000   0.76695978   -7.2128549    337.09535  0.022365668  0.022329605           13 
 1257000   0.74074622    -7.240959    337.33598  0.022363828  0.022313684           10 
 1258000   0.76596103    -7.196968    336.39796  0.022283914  0.022297767           11 
 1259000   0.74328729    -7.215778    337.09683  0.022312472  0.022281887            6 
 1260000   0.74505172   -7.2205668    335.97093  0.022220299  0.022265974           12 
 1261000   0.77159428   -7.2204648    338.01184  0.022337552  0.022250108           21 
 1262000   0.75798526   -7.2187985    337.45727  0.022283232  0.022234342           14 
 1263000   0.76420569   -7.1949345    337.78134  0.022286971  0.022218533            9 
 1264000    0.7450472   -7.2059049    337.73872  0.022266529  0.022202738            5 
 1265000    0.7328428   -7.2063167    337.57264  0.022237987  0.022186967            5 
 1266000   0.75133181   -7.2315412    337.73517   0.02223112  0.022171178            7 
 1267000   0.76125574   -7.2048136    337.99537  0.022230687  0.022155458           13 
 1268000   0.76726461   -7.2384082    337.84614  0.022203348  0.022139773            5 
 1269000   0.74644522   -7.2254684    337.62364   0.02217124  0.022124112            9 
 1270000   0.75282596   -7.2106522    338.58032  0.022216556  0.022108533            8 
 1271000   0.73923663   -7.2355844    338.60972  0.022201005  0.022092989            9 
 1272000   0.74310169   -7.2012944    338.93552  0.022204895  0.022077476           12 
 1273000   0.76158169   -7.2147187    339.42026  0.022219184   0.02206207           10 
 1274000   0.74265032   -7.2586031    338.01305  0.022109697  0.022046623            7 
 1275000   0.74438426   -7.2290331     338.2859  0.022110189  0.022031135            9 
 1276000   0.74646077   -7.2438491    338.65674  0.022117081  0.022015541            7 
 1277000   0.75890643   -7.2344674    338.17059  0.022068037  0.022000023           10 
 1278000   0.73429071   -7.2069712    338.83334  0.022093984  0.021984575            6 
 1279000   0.75225944   -7.2406074    339.02599  0.022089262  0.021969112           12 
 1280000   0.74447047   -7.2165723    340.38951  0.022160776  0.021953699           14 
 1281000   0.73740249   -7.2301499    339.40392   0.02207936  0.021938336            9 
 1282000   0.74511119   -7.2549995    339.29696  0.022055185   0.02192291           20 
 1283000   0.74978742    -7.226387    339.48873   0.02205045   0.02190756           20 
 1284000   0.73671569   -7.2389924    340.00125   0.02206654  0.021892166           12 
 1285000   0.74202364   -7.2477635    339.65744  0.022027071  0.021876792           23 
 1286000   0.74890508   -7.2353104    339.65565  0.022009827   0.02186141           20 
 1287000   0.74329273   -7.2607728    338.82762   0.02193911  0.021845979            8 
 1288000    0.7461896   -7.2689064    339.30528  0.021952981  0.021830495           17 
 1289000   0.74063311   -7.2551534    339.96091  0.021978336  0.021815087           22 
 1290000   0.73054473   -7.2749892    338.95644  0.021896411  0.021799673            9 
 1291000   0.72373635   -7.2687826    338.58929  0.021855751  0.021784188           16 
 1292000   0.73659469   -7.2542313    339.83162  0.021918964  0.021768641            6 
 1293000   0.74600266   -7.2573957    339.81544   0.02190097   0.02175321           12 
 1294000    0.7429813   -7.2534136    339.88434  0.021888481  0.021737831           14 
 1295000   0.72386558   -7.2596667    339.25693  0.021831205  0.021722381            8 
 1296000   0.72259369    -7.266943      339.224  0.021812243  0.021706895           16 
 1297000   0.72865205   -7.2667554    339.91534  0.021839844  0.021691354           12 
 1298000   0.73530528    -7.261709    339.73298  0.021811311  0.021675855           17 
 1299000   0.72634895    -7.278761    339.81649  0.021799877  0.021660385           27 
 1300000    0.7396345   -7.2652778    340.06601  0.021799103   0.02164486           32 
 1301000   0.73269332   -7.2628807    339.61988  0.021753772  0.021629368           27 
 1302000   0.73712668   -7.2640055    340.28589  0.021779691  0.021613871           31 
 1303000   0.74915049   -7.2716024    339.72646  0.021727198  0.021598364           15 
 1304000   0.73190122   -7.2717356    339.16491  0.021674649  0.021582853           14 
 1305000   0.72690871   -7.2412791    339.64429  0.021688652  0.021567396           20 
 1306000   0.72593035   -7.2690076    339.36488  0.021654216  0.021551876           18 
 1307000   0.72108896   -7.2593153     339.9979  0.021678009  0.021536473            9 
 1308000   0.71701223   -7.2766954    339.52322  0.021631194  0.021521062           15 
 1309000   0.74796829   -7.2692762    339.99623  0.021644782  0.021505599           18 
 1310000   0.75117396   -7.2805191    339.43772  0.021592731  0.021490102           14 
 1311000   0.73443665   -7.2974914     339.6475  0.021589594  0.021474641           23 
 1312000   0.72460493   -7.2739505    339.85496  0.021586316  0.021459197           13 
 1313000   0.72981366   -7.2915033    340.55524  0.021614321  0.021443853           14 
 1314000   0.73318828   -7.2923907    340.23761  0.021577727  0.021428494           13 
 1315000   0.72559681   -7.2839213    341.17174  0.021620516  0.021413135           11 
 1316000   0.73245315   -7.2521466    340.11907  0.021537428  0.021397872            8 
 1317000   0.72071744   -7.2960255    339.85761  0.021504531  0.021382596           10 
 1318000   0.73029636   -7.2926442    340.44485  0.021525344  0.021367364           14 
 1319000   0.73545636   -7.2848734    340.59601  0.021518575  0.021352096           14 
 1320000   0.73495373   -7.3053087    340.19264  0.021476808  0.021336784           16 
 1321000    0.7256954   -7.2711941    341.02821  0.021513261  0.021321516            8 
 1322000     0.715778   -7.2554404     340.8182  0.021483749  0.021306337           15 
 1323000   0.71915678   -7.2789313     341.3413   0.02150046  0.021291191            9 
 1324000   0.74327633   -7.2832501    340.85305   0.02145349   0.02127601            5 
 1325000   0.74776354   -7.2589907    341.06625  0.021450708  0.021260867            8 
 1326000   0.70908142   -7.2569141    341.75073  0.021477547   0.02124579            7 
 1327000   0.71991225   -7.2510365    341.14204  0.021423138  0.021230614           14 
 1328000   0.73160788   -7.2640879    340.85946  0.021389273  0.021215514            6 
 1329000   0.73369672   -7.2493649    340.56372  0.021354635  0.021200381            4 
 1330000   0.71754294   -7.3007507    340.74569  0.021349981  0.021185276            7 
 1331000   0.73253323    -7.306175    341.00357  0.021350086  0.021170066           16 
 1332000   0.71862887   -7.2943811    340.77208  0.021319575  0.021154883           11 
 1333000    0.7153363   -7.2811047    340.87546  0.021310044   0.02113976            9 
 1334000   0.70531315   -7.2663165    341.01064  0.021302514  0.021124658           16 
 1335000   0.72835569   -7.2853089    341.47313  0.021315426  0.021109522           17 
 1336000   0.72545837   -7.2923984    341.19181  0.021281925  0.021094379           17 
 1337000   0.72533027   -7.2882681    340.90195   0.02124794   0.02107918            8 
 1338000   0.71276761     -7.27816    341.63968  0.021278007  0.021064013            6 
 1339000   0.71612074   -7.3050588    341.52027  0.021254685  0.021048839            9 
 1340000   0.71302887   -7.2944991      340.685  0.021186878  0.021033654           14 
 1341000   0.70433842   -7.2672555    340.74898  0.021175055  0.021018481            8 
 1342000   0.71232863   -7.2950678    341.50526  0.021206238  0.021003371           16 
 1343000    0.7239933   -7.3133247      341.701  0.021202594  0.020988209           23 
 1344000   0.73391943   -7.3108554    340.76194  0.021128592  0.020972976           34 
 1345000   0.73029411   -7.3173891    341.67408  0.021169398  0.020957782           30 
 1346000   0.72334917   -7.3092578    341.15355  0.021121443   0.02094264           34 
 1347000   0.71931625   -7.3310216    340.52741  0.021067026  0.020927423           12 
 1348000   0.71098638   -7.3132585    340.66777  0.021060075  0.020912195           13 
 1349000   0.71980777   -7.3157696    341.08278    0.0210701  0.020896967           10 
 1350000   0.72135697   -7.2964366     340.7366  0.021033123  0.020881826           13 
 1351000   0.71587199   -7.3166668    341.24027  0.021048623  0.020866682            5 
 1352000   0.72860711   -7.3086637    341.21425  0.021031451  0.020851526           10 
 1353000   0.71107485   -7.3147266    341.83269  0.021053997   0.02083636           11 
 1354000   0.72123624   -7.3272452    340.57698  0.020961163  0.020821232           10 
 1355000   0.71532221   -7.3267219    341.16437  0.020981818  0.020806085           13 
 1356000   0.71107547   -7.3222902    341.70781  0.020999743  0.020790985            8 
 1357000   0.70646735   -7.3104075    341.41939  0.020966556  0.020775933           12 
 1358000   0.70940784   -7.2875752    342.85446  0.021039179   0.02076096            7 
 1359000   0.70660654   -7.2761785    342.88657  0.021025667  0.020746043            8 
 1360000   0.70518537    -7.329121    341.95807  0.020953313  0.020731146           15 
 1361000   0.71052267   -7.3180914    342.15203  0.020949794  0.020716161           12 
 1362000   0.71452185   -7.3127741    341.81047  0.020913514  0.020701214           12 
 1363000   0.71328827   -7.3191757    342.01663  0.020910775  0.020686285           14 
 1364000   0.70524042   -7.3293296    341.91288  0.020889106  0.020671373           28 
 1365000   0.71521802   -7.3202945    341.93214  0.020874978  0.020656468            6 
 1366000   0.70183126   -7.2946198    342.52278  0.020895728  0.020641567           21 
 1367000   0.70988696   -7.3161039    342.84177  0.020899888  0.020626705           10 
 1368000   0.68897807   -7.3244943    342.65245  0.020873078  0.020611854           18 
 1369000   0.71775651   -7.3184998    343.06825  0.020883141  0.020596989            6 
 1370000   0.69990896   -7.3207303    342.43256  0.020829231  0.020582143           13 
 1371000   0.70762932   -7.3200644    342.66458  0.020828141  0.020567289            8 
 1372000    0.6990617   -7.3368498    342.87459  0.020825716  0.020552401            7 
 1373000   0.71097046   -7.3320336    341.96929  0.020755602  0.020537553           19 
 1374000   0.70020331   -7.3025094    343.43347  0.020829298  0.020522708            8 
 1375000   0.68798751   -7.3430816     342.4058  0.020751867  0.020507902            6 
 1376000   0.70564674   -7.3365479      342.932  0.020768653  0.020493086           11 
 1377000   0.71264799   -7.3112377    342.40217  0.020721506   0.02047827           15 
 1378000   0.70900199   -7.3225639    342.16877  0.020692354  0.020463499            7 
 1379000   0.70925725   -7.3298785    342.62393  0.020704855  0.020448767            9 
 1380000   0.69282298   -7.3322653    343.16605  0.020722587  0.020434059           15 
 1381000   0.68274845   -7.3389184    342.93434    0.0206936  0.020419339           11 
 1382000   0.70964061    -7.362163    343.80391  0.020731061  0.020404662           16 
 1383000   0.70389875   -7.3471697    343.73214  0.020711746  0.020389961           12 
 1384000   0.70169279   -7.3315482    344.10641  0.020719316  0.020375264           13 
 1385000   0.69922498   -7.3190531    342.44179  0.020604199  0.020360523           11 
 1386000   0.69472984   -7.3399305    342.86984   0.02061507  0.020345749           10 
 1387000   0.68867159   -7.3208831    343.29857  0.020625965  0.020330982            7 
 1388000   0.70635165   -7.3428534    343.43629  0.020619374  0.020316265           11 
 1389000   0.70435624   -7.3320646    343.72543  0.020621876  0.020301557           32 
 1390000   0.68272435   -7.3329062    342.45335  0.020530776  0.020286837           14 
 1391000   0.71646135     -7.34172    342.52577  0.020520355  0.020272065           10 
 1392000   0.70871035   -7.3492016    342.54281  0.020506634  0.020257269           15 
 1393000   0.69900516   -7.3195576    342.81635  0.020508276  0.020242496           14 
 1394000   0.68655499    -7.325542    343.63836  0.020542704  0.020227739           18 
 1395000   0.69858784   -7.3551924    342.76513  0.020475814  0.020212971           22 
 1396000    0.7065491   -7.3319953    343.44159  0.020501527  0.020198219           10 
 1397000    0.6991306   -7.3257182    342.87558  0.020453089  0.020183474            8 
 1398000   0.68142114   -7.3725493    343.12663  0.020453423  0.020168676            9 
 1399000   0.69993527   -7.3670772     342.7103  0.020414004  0.020153915            9 
 1400000   0.68576633   -7.3504204    343.42409   0.02044191  0.020139168           11 
 1401000   0.68420145   -7.3667755    343.46391  0.020429688  0.020124439           10 
 1402000   0.69013307    -7.367617    343.18006  0.020398244  0.020109725           11 
 1403000    0.6881765   -7.3506828     343.5616  0.020406368  0.020094989            6 
 1404000   0.69702882   -7.3657793    343.70264  0.020400204  0.020080274           19 
 1405000   0.67730099   -7.3585246    343.28888  0.020361144  0.020065546           24 
 1406000   0.69154337   -7.3645905    343.14954  0.020338403  0.020050811           19 
 1407000    0.7036276   -7.3809391    342.20593  0.020268061  0.020036047           15 
 1408000   0.69987264   -7.3560082    342.98703  0.020299895  0.020021292           14 
 1409000   0.69043896   -7.3503227    342.93486  0.020282402  0.020006548           17 
 1410000   0.68826836   -7.3171602    342.81901  0.020261171   0.01999181           21 
 1411000   0.69053458   -7.3430821    343.25356  0.020272476  0.019977112           22 
 1412000   0.68230459   -7.3800984    343.07505  0.020247583  0.019962484           16 
 1413000   0.68345347   -7.3581374      343.234  0.020242628  0.019947808           21 
 1414000   0.68422805   -7.3354882     343.5887  0.020249216  0.019933164           28 
 1415000   0.68301602    -7.347306    342.60817   0.02017716  0.019918498           21 
 1416000   0.67955221   -7.3509802    343.27233  0.020201997  0.019903823           14 
 1417000   0.68846119   -7.3660441    343.29074  0.020188823  0.019889195           14 
 1418000    0.6858678   -7.3452317    343.82666   0.02020608  0.019874587           11 
 1419000   0.68790774   -7.3615473    343.56752  0.020176622  0.019859979           10 
 1420000   0.68037466   -7.3467844    343.20392  0.020141075  0.019845374           20 
 1421000   0.68829801   -7.3844217    343.22382  0.020128068  0.019830762           17 
 1422000   0.67284317   -7.3759839    344.00026  0.020159415  0.019816118           40 
 1423000   0.68270367   -7.3840439    343.73735  0.020129852  0.019801529           13 
 1424000   0.67853344   -7.3786838    343.34836  0.020092952   0.01978697           45 
 1425000   0.68504563   -7.4036571    342.99982  0.020058469  0.019772395           17 
 1426000   0.67361888   -7.3646412    343.42646  0.020069335  0.019757771           23 
 1427000   0.68978232   -7.3820496    342.97851  0.020029112  0.019743176           10 
 1428000    0.6865817   -7.4071798    343.61825  0.020052419  0.019728567           16 
 1429000   0.67063131   -7.3797146     342.6336  0.019980966  0.019713937           30 
 1430000   0.67260249   -7.3820742    343.35169   0.02000884  0.019699315           13 
 1431000    0.6808348   -7.3813767    343.33004  0.019993597  0.019684723           10 
 1432000   0.68818005   -7.3652472    342.53359  0.019933286  0.019670121           13 
 1433000   0.69194978   -7.3814166    342.85638  0.019938148  0.019655508           12 
 1434000   0.68817128   -7.3667773    343.32714    0.0199516  0.019640908           23 
 1435000   0.69013103   -7.3870984     343.2705  0.019934408  0.019626305           24 
 1436000   0.69447339   -7.3758269    342.68621  0.019886618  0.019611692           29 
 1437000   0.68045774   -7.3830777    343.55777  0.019923323   0.01959708           27 
 1438000   0.68831371   -7.3834047    343.85877   0.01992691  0.019582466           18 
 1439000   0.68883087   -7.3885782    342.69273  0.019845537  0.019567862           18 
 1440000   0.68806885   -7.3648376    343.01306  0.019850293  0.019553198           54 
 1441000   0.68842872    -7.385071     343.3326  0.019854997  0.019538566           16 
 1442000   0.68551469   -7.3983991    342.71801   0.01980571  0.019523961           19 
 1443000   0.68087847   -7.3627605    343.01591  0.019809188  0.019509393            8 
 1444000   0.66289652   -7.3975494    343.62131  0.019830408  0.019494859           27 
 1445000   0.67384826   -7.3953595    343.06738  0.019784739  0.019480352           17 
 1446000   0.68245892   -7.3851447    343.37007  0.019788501  0.019465846           18 
 1447000   0.67636329   -7.3853261    343.87169  0.019803714   0.01945134           12 
 1448000    0.6674744    -7.365168     343.7953  0.019785641  0.019436853           11 
 1449000   0.68745707    -7.386267    344.57131  0.019816616  0.019422417           19 
 1450000   0.68696024   -7.3799598     344.6894  0.019809736     0.019408           16 
 1451000   0.67403636   -7.3811177     343.8547  0.019748145  0.019393578            5 
 1452000   0.67115263   -7.3804169    342.86351  0.019677658   0.01937918           20 
 1453000   0.68048057   -7.4020485    343.50905  0.019701138   0.01936476           21 
 1454000   0.68355414   -7.4185163    344.09282  0.019721047  0.019350303           19 
 1455000   0.66441379   -7.4077816    343.43208  0.019669649  0.019335849           22 
 1456000   0.67709279   -7.4095347    343.65661  0.019668991  0.019321393           29 
 1457000    0.6785879   -7.3942592    342.81562  0.019607391  0.019306983           20 
 1458000   0.67452428   -7.3819274    344.36772  0.019682654  0.019292576           15 
 1459000   0.66050688   -7.3920679    344.24254  0.019662014  0.019278252           29 
 1460000   0.67168733   -7.3781131    344.25135   0.01964905  0.019263942           16 
 1461000   0.67405428   -7.4113206    343.85159  0.019612799  0.019249611            9 
 1462000   0.66687929   -7.4019243    343.88649  0.019601373   0.01923528           11 
 1463000   0.66477325   -7.4087322    344.44824  0.019619973  0.019220961           29 
 1464000   0.67280039   -7.4024051    344.02496  0.019582477  0.019206675           33 
 1465000   0.65335209   -7.3963719    343.73619  0.019552684  0.019192383           24 
 1466000   0.67921825   -7.3983769    343.51608  0.019526835  0.019178044           20 
 1467000    0.6779468   -7.3922594    343.84149  0.019532009  0.019163746           16 
 1468000   0.67462728   -7.3905905    343.77682  0.019515033  0.019149488           14 
 1469000    0.6686226   -7.3998705    344.81684  0.019560747  0.019135231           18 
 1470000   0.67606553   -7.4110743    344.10146  0.019506885   0.01912095           15 
 1471000    0.6665612   -7.3916985    344.17703  0.019497905   0.01910666           16 
 1472000   0.66444672   -7.4146266    343.91826   0.01947001  0.019092406           19 
 1473000   0.65181392   -7.4083802    344.29062  0.019477858  0.019078136           11 
 1474000   0.66779989   -7.4230554    344.07532  0.019452472   0.01906391           10 
 1475000   0.66174287   -7.4033701    344.35189  0.019454909  0.019049673           15 
 1476000   0.66530226   -7.3825573    343.89938   0.01941618  0.019035447           12 
 1477000   0.66438026   -7.4028242    344.19657  0.019419802  0.019021262           10 
 1478000   0.65707095    -7.384886    344.05726  0.019398808  0.019007105           15 
 1479000   0.67163988   -7.4199729    344.63845  0.019418439  0.018992906           15 
 1480000    0.6546666   -7.4279345    343.92904  0.019365374  0.018978712            8 
 1481000   0.65885232   -7.4151988    344.38932  0.019378197   0.01896452           21 
 1482000   0.67756464   -7.4139226    344.32736  0.019361637  0.018950356           16 
 1483000   0.64019171   -7.3944079    344.12859  0.019337413  0.018936228           15 
 1484000   0.66680576   -7.4126123    344.66368  0.019354429  0.018922084           23 
 1485000   0.65725866   -7.4375016     344.3947  0.019326302  0.018907963           10 
 1486000   0.66183989   -7.4221897    344.02581  0.019292609  0.018893841           23 
 1487000   0.66708699   -7.4466047    344.59399  0.019311477   0.01887977           10 
 1488000   0.67269148    -7.418409    344.56472  0.019296859  0.018865691            8 
 1489000   0.67083908   -7.3878677    345.08413  0.019312969  0.018851687            6 
 1490000   0.67386464   -7.4018574    344.47272  0.019265812   0.01883767           15 
 1491000   0.67203526   -7.4069846    344.40268  0.019248976  0.018823626            4 
 1492000   0.66204724   -7.4010469    344.91449  0.019264661  0.018809617           16 
 1493000   0.67046546   -7.4170955    345.22854  0.019269286  0.018795613           14 
 1494000   0.67118871   -7.4106485    343.90098  0.019182339  0.018781562            7 
 1495000    0.6629707   -7.3988983    344.68318  0.019213109  0.018767558            7 
 1496000   0.66100193   -7.4023825    343.98374  0.019161305  0.018753592           22 
 1497000   0.65564292   -7.4144848    345.20883  0.019216702  0.018739704            8 
 1498000   0.65542777   -7.4151915    344.71833  0.019176587  0.018725791            7 
 1499000    0.6509657   -7.4060098    344.18772  0.019134296  0.018711878           15 
 1500000   0.65980537    -7.431273    344.14529  0.019119183  0.018697969            7 
 1501000   0.64859627   -7.4271293    345.71839  0.019193781  0.018684073           12 
 1502000   0.66619067   -7.4224544    345.95669  0.019194224  0.018670195           11 
 1503000   0.65459561   -7.4378197    344.89004  0.019122313   0.01865635           21 
 1504000   0.66041695    -7.442405    345.70645  0.019154834  0.018642482           15 
 1505000   0.65131523   -7.4044186     344.5008  0.019075349   0.01862863           21 
 1506000   0.65398639   -7.4383743    345.55081  0.019120784  0.018614841           15 
 1507000   0.65273882   -7.4169027    344.52284  0.019051252  0.018600993           16 
 1508000   0.64540127   -7.4200355    345.08921  0.019069916  0.018587122           15 
 1509000    0.6459892   -7.4567577    345.18742  0.019062702  0.018573259           40 
 1510000   0.64474999   -7.4397379    344.78431  0.019027832  0.018559353           20 
 1511000    0.6520366   -7.4227797    344.56909  0.019003369  0.018545475           29 
 1512000    0.6437006   -7.4408647    344.62899  0.018994102  0.018531617           12 
 1513000   0.66213906   -7.4205098    345.17263  0.019011491  0.018517755           30 
 1514000    0.6598934   -7.4603011    344.99541   0.01898918  0.018503889           23 
 1515000   0.64542503    -7.444719    344.61108  0.018955505  0.018490038           26 
 1516000   0.63085579   -7.4703141    343.87398  0.018902484  0.018476181           23 
 1517000   0.64718731   -7.4497655    345.31242  0.018969041  0.018462323           12 
 1518000   0.65488988   -7.4376972    344.79582  0.018928185  0.018448477           17 
 1519000    0.6511337   -7.4530553    344.85259  0.018918839  0.018434689           12 
 1520000   0.63940818   -7.4761828    344.79081  0.018903005  0.018420867           14 
 1521000   0.65275905    -7.419422    344.87607  0.018895248  0.018407017           33 
 1522000   0.65175163   -7.4451072    344.72469  0.018874545  0.018393203           21 
 1523000   0.64836196   -7.4222903    344.79764  0.018866143  0.018379441           22 
 1524000    0.6405433   -7.4454174     345.0225   0.01886606  0.018365713           23 
 1525000   0.64339611   -7.4438701     344.9873  0.018851765  0.018351979           15 
 1526000   0.64565403   -7.4443949    344.91872  0.018835666  0.018338278           15 
 1527000   0.63850126   -7.4553877    345.54533  0.018857527  0.018324596           10 
 1528000   0.63439813   -7.4737431    344.81854  0.018805549   0.01831089           13 
 1529000   0.64209754   -7.4500929    345.62578  0.018837245  0.018297205           18 
 1530000   0.63777373   -7.4482057    345.52267  0.018819318  0.018283554           13 
 1531000   0.64312368   -7.4648891    344.65542   0.01875982  0.018269906           13 
 1532000   0.63947698   -7.4689886    345.28698  0.018781929  0.018256227            8 
 1533000   0.64183342   -7.4535475    345.59031  0.018786166  0.018242642           18 
 1534000   0.63156484   -7.4465329    346.12779  0.018803117  0.018229033           16 
 1535000    0.6405537   -7.4599172    345.95067  0.018781253  0.018215442           16 
 1536000   0.63250809   -7.4318827    345.75444  0.018758379  0.018201815           15 
 1537000    0.6383224   -7.4493377    344.87244  0.018698354  0.018188217           32 
 1538000   0.64535185   -7.4539212    344.30187  0.018655281    0.0181746           21 
 1539000   0.63669776   -7.4544543     345.3051  0.018697482  0.018160962           41 
 1540000   0.62659191   -7.4727748    345.24011  0.018681824  0.018147336           43 
 1541000   0.64223458   -7.4584348    345.37405  0.018676944  0.018133702           55 
 1542000    0.6301947   -7.4830481    345.25751  0.018658534  0.018120091           54 
 1543000   0.64116154   -7.4802678     344.6083   0.01861138  0.018106475           33 
 1544000   0.63585502     -7.48411    345.03994  0.018622622  0.018092872           37 
 1545000   0.64929281   -7.4621772    345.57085  0.018639204  0.018079309           51 
 1546000   0.64043576   -7.5029948    345.04113  0.018598595  0.018065736           75 
 1547000   0.63331334   -7.4905053    345.43126  0.018607588  0.018052155           48 
 1548000   0.63050593   -7.4692481    345.52262  0.018600486  0.018038598           57 
 1549000   0.63610558   -7.4882029     345.2407  0.018573311  0.018025052           16 
 1550000   0.64349043   -7.4924388    345.36478  0.018567999  0.018011494           32 
 1551000   0.63132938   -7.4708621    345.37663  0.018556664  0.017997968           34 
 1552000   0.62826703   -7.4927358    344.88049  0.018518067  0.017984461           27 
 1553000   0.63560619   -7.4855804    345.35225  0.018531458  0.017970957           16 
 1554000    0.6288982   -7.4931834    345.24669  0.018513872  0.017957441           26 
 1555000   0.63994825   -7.4797457    346.24601   0.01855552   0.01794393           37 
 1556000   0.63944724   -7.4813087    344.90835  0.018471955  0.017930443           37 
 1557000   0.61960524   -7.4708134    344.79176  0.018453852  0.017916977           41 
 1558000   0.62578062   -7.4514405    345.60218  0.018485354  0.017903512           52 
 1559000   0.62231705     -7.45358    345.32566  0.018458716  0.017890049           36 
 1560000   0.63302305   -7.4954911    344.55243  0.018405578  0.017876595           28 
 1561000   0.63617375   -7.4747367    345.68464   0.01845423  0.017863126           44 
 1562000   0.62150491   -7.4493951    344.59708  0.018384394  0.017849672           18 
 1563000   0.63225141   -7.4693593    345.62103  0.018427225  0.017836238           50 
 1564000   0.62976041   -7.4859037    345.13456  0.018389523  0.017822802           30 
 1565000   0.62121191   -7.4873317    345.22948  0.018382826  0.017809382           38 
 1566000   0.63223113   -7.4962298    345.10026  0.018364211  0.017795963           24 
 1567000   0.63512773   -7.4892974    344.95244  0.018344631  0.017782557           19 
 1568000    0.6170708   -7.4978809    344.82222  0.018326011  0.017769189           29 
 1569000   0.62225934   -7.4712464    346.09996  0.018382195  0.017755844           23 
 1570000   0.62277547   -7.4830318    345.38604  0.018332592  0.017742506           29 
 1571000   0.61786659   -7.4749111    345.01836  0.018301419  0.017729212           25 
 1572000   0.62928114   -7.4767807    346.17954  0.018351333  0.017715907           14 
 1573000   0.62791208    -7.483984    345.33903  0.018295138  0.017702624           20 
 1574000   0.62005818   -7.4691062    345.35946  0.018284596  0.017689347           17 
 1575000   0.62603767   -7.4874218    345.10919  0.018259746  0.017676062           12 
 1576000   0.62062475    -7.496701    345.44245  0.018265781   0.01766279           17 
 1577000   0.62155153   -7.4752407    345.52053  0.018258324  0.017649552            9 
 1578000   0.61508638   -7.4852422    345.87991  0.018265733  0.017636371           11 
 1579000   0.63041874   -7.4830891     345.4527  0.018231618  0.017623196           14 
 1580000   0.61765593   -7.4996868    346.43352   0.01827181  0.017610025            9 
 1581000   0.63753559   -7.4685739    345.88061  0.018231109   0.01759684           13 
 1582000   0.61598771   -7.4747788    345.09278  0.018178086  0.017583672           11 
 1583000   0.61705951   -7.4847425    345.54685  0.018190506  0.017570472           16 
 1584000   0.63435866   -7.4915827    345.38491  0.018170502  0.017557305           24 
 1585000   0.62186345   -7.4862819    345.23209  0.018151004  0.017544103           10 
 1586000    0.6248249   -7.4967273    345.60582  0.018159196  0.017530923           11 
 1587000   0.62427556   -7.5179883    345.55033   0.01814484  0.017517792           14 
 1588000   0.62205987   -7.4823753     345.5781  0.018134871  0.017504633           21 
 1589000   0.61652013   -7.4943879    345.49582  0.018119143  0.017491511           12 
 1590000   0.61657828   -7.5035417    346.18524   0.01814388  0.017478394           10 
 1591000   0.63129862   -7.5093822    345.06534  0.018073819  0.017465247            8 
 1592000   0.62638356   -7.5077146     345.3325   0.01807645   0.01745209           11 
 1593000   0.61747847   -7.4973015    345.31429   0.01806415  0.017438961           12 
 1594000   0.62906666   -7.5200246    345.66335  0.018071066  0.017425813           12 
 1595000   0.61599663   -7.5153614    345.36896  0.018044355  0.017412675           12 
 1596000   0.60791289   -7.5158989    345.32755  0.018030887  0.017399569           12 
 1597000    0.6203423   -7.5245347    345.78018  0.018043215  0.017386452           10 
 1598000   0.61672328    -7.514933    344.82324  0.017982021  0.017373352           12 
 1599000   0.60750361   -7.5104311    345.58285  0.018010363  0.017360255           13 
 1600000   0.61306015   -7.5167347    345.29294  0.017984007  0.017347168           18 
 1601000   0.62971025   -7.5232749    345.58962  0.017988217  0.017334066           19 
 1602000   0.61617167   -7.5028403    345.27189   0.01796046  0.017320952           13 
 1603000   0.60749091   -7.5450019    345.48018  0.017960084  0.017307825           22 
 1604000   0.63027232   -7.5292425    344.64432  0.017905461  0.017294685           11 
 1605000   0.61067062   -7.5254504    345.84537  0.017956665  0.017281557           14 
 1606000   0.60652765   -7.5324131    346.18629  0.017963174   0.01726844           17 
 1607000   0.61396522   -7.5365193    345.20312  0.017901012  0.017255351           22 
 1608000   0.61774925   -7.5435473     345.2935  0.017894564  0.017242257           22 
 1609000   0.61432756   -7.5150779    345.39365  0.017888629  0.017229201           27 
 1610000   0.61962762   -7.5226509    344.54048  0.017833358   0.01721614           10 
 1611000    0.6130283   -7.5257231    345.19388  0.017856087  0.017203088           14 
 1612000   0.62030092   -7.5537031    344.63035  0.017815878  0.017190017           11 
 1613000   0.60868518    -7.523317    344.98347  0.017823077  0.017176975           19 
 1614000   0.59889136   -7.5692664    345.19903  0.017823163  0.017163909           15 
 1615000   0.60738774   -7.5483999    345.19176  0.017811752  0.017150871           14 
 1616000   0.60156891   -7.5395554    345.20273  0.017801296  0.017137828           30 
 1617000   0.60461734   -7.5392137    345.89557  0.017825993  0.017124802           30 
 1618000    0.6125474   -7.5321491    345.34233  0.017786482  0.017111764           12 
 1619000   0.61546302   -7.5418157    345.33763  0.017775254  0.017098767           11 
 1620000   0.60828244   -7.5364022    345.04747  0.017749355  0.017085759           20 
 1621000   0.58444331   -7.5398148    345.56529  0.017765026  0.017072799           50 
 1622000   0.59971995   -7.5505307    345.20227  0.017735423  0.017059835           19 
 1623000   0.59775065   -7.5410268    345.22704  0.017725767  0.017046881           10 
 1624000   0.60565231   -7.5531874    345.25436  0.017716254  0.017033935           26 
 1625000   0.60208363   -7.5448135    344.77303  0.017680668  0.017020982           20 
 1626000   0.60154664   -7.5383979    345.05751  0.017684374  0.017008044           18 
 1627000   0.60356686     -7.53732    345.22737  0.017682205  0.016995102           36 
 1628000   0.61773165    -7.523634    345.63616  0.017692269  0.016982194           20 
 1629000   0.61514046   -7.5631034    345.18014  0.017658079  0.016969286           15 
 1630000   0.59246472   -7.5293634     345.3091  0.017653839  0.016956375           19 
 1631000   0.61231761   -7.5354643     345.0275  0.017628628  0.016943482           20 
 1632000   0.60022006   -7.5539923     345.0315   0.01761803  0.016930585           26 
 1633000   0.58161241   -7.5384944    345.31367  0.017621641  0.016917687           32 
 1634000   0.59760265   -7.5435279    346.06021  0.017648929  0.016904808           15 
 1635000   0.61877274   -7.5341313    345.06296  0.017587307  0.016891941           17 
 1636000   0.60012178   -7.5180447    344.90363  0.017568441  0.016879084           15 
 1637000   0.58943144   -7.5430969    344.95383  0.017560264  0.016866246           21 
 1638000   0.59282281    -7.560973    345.43123  0.017573831  0.016853388           17 
 1639000   0.60806508   -7.5655535    344.83174  0.017532629  0.016840531           15 
 1640000   0.61220237   -7.5482848    345.77883  0.017570063  0.016827685           30 
 1641000   0.60428331   -7.5589543     344.9563  0.017517586  0.016814875           22 
 1642000   0.60347634   -7.5482699    344.12572  0.017464765  0.016802039           18 
 1643000   0.60983051   -7.5683737    344.86228  0.017491493  0.016789205           21 
 1644000   0.59827725   -7.5792589     345.3512  0.017505637  0.016776409           24 
 1645000   0.59862397   -7.5632674    345.16964  0.017485797  0.016763614           16 
 1646000   0.59518591   -7.5654785    345.21391  0.017477415  0.016750808           25 
 1647000   0.60121263   -7.5620121    344.73954  0.017442802  0.016738027           46 
 1648000   0.59243033   -7.5605361    344.36576  0.017413317  0.016725262           19 
 1649000   0.60530731   -7.5522487    344.96498  0.017433039  0.016712508           22 
 1650000   0.58536041   -7.5708514    345.06947  0.017427751  0.016699766           19 
 1651000   0.60159899   -7.5571083    345.19356  0.017423459  0.016687029           21 
 1652000   0.59655578   -7.5522016    344.23475  0.017364545  0.016674321           31 
 1653000   0.59253473   -7.5627954    344.76079   0.01738056  0.016661621           25 
 1654000   0.58231529   -7.5889084     345.4831  0.017406444  0.016648924           35 
 1655000   0.57734122   -7.5697501    345.17849  0.017380589  0.016636237           15 
 1656000   0.59555973   -7.5665357    345.28809  0.017375609  0.016623553           29 
 1657000   0.58011134   -7.5635475    345.07142  0.017354226  0.016610894           22 
 1658000   0.60695472   -7.5749402    345.21838  0.017351145  0.016598253           24 
 1659000   0.59800992   -7.5658503    344.80489  0.017319916  0.016585583           33 
 1660000   0.59025324   -7.5527587    344.60708  0.017299552  0.016572943           19 
 1661000    0.5804464   -7.5598273    345.12367  0.017315055  0.016560296           31 
 1662000   0.58132962   -7.5639144    346.09726  0.017353453   0.01654767           25 
 1663000   0.60296476   -7.5815955    345.03728  0.017289902  0.016535062           36 
 1664000   0.58677348   -7.5519711    344.89818  0.017272545  0.016522455           21 
 1665000   0.59806393   -7.5738926    345.22616  0.017278587  0.016509875           32 
 1666000   0.59510396   -7.5762726    345.21121  0.017267468  0.016497301           25 
 1667000   0.58023898   -7.5644798    345.43971  0.017268532   0.01648473           35 
 1668000   0.59303855   -7.5881555    345.48412  0.017260398  0.016472163           29 
 1669000    0.5923046   -7.5751663    345.82307   0.01726698  0.016459608           35 
 1670000   0.58811874   -7.5780943    345.17132  0.017224118  0.016447064           35 
 1671000   0.57855241   -7.5827537     344.7685  0.017193721  0.016434522           20 
 1672000   0.59041714   -7.5645568     345.7386  0.017231788   0.01642201           33 
 1673000   0.57775155   -7.5650687    345.60339  0.017214753  0.016409537           20 
 1674000   0.58174104   -7.5628722    344.86862  0.017167892  0.016397035           28 
 1675000   0.59057751   -7.5710456    345.13252  0.017170772  0.016384523           31 
 1676000   0.60608298   -7.5579591    345.18518  0.017163146  0.016372034           17 
 1677000   0.58475793   -7.5772839    344.78268   0.01713291  0.016359559           16 
 1678000   0.58914441   -7.6118551    345.58219  0.017162405  0.016347085           24 
 1679000   0.57330446   -7.5809438    344.78523  0.017112628   0.01633461           43 
 1680000   0.58235289   -7.5668956    344.60432  0.017093468  0.016322145           57 
 1681000   0.59307605    -7.590042    345.02608  0.017104208  0.016309681           29 
 1682000   0.57595488    -7.596676     344.7813  0.017081912  0.016297236           27 
 1683000   0.58349973    -7.603372    344.89635  0.017077459  0.016284775           17 
 1684000   0.58947834   -7.5973174    345.16396   0.01708056  0.016272345           30 
 1685000   0.58058613   -7.6004139    344.95388  0.017060034  0.016259918           21 
 1686000   0.58422081   -7.5809312    344.60302  0.017032573  0.016247471           40 
 1687000   0.58433129   -7.5866918    345.08715  0.017046391  0.016235068           59 
 1688000   0.57654379   -7.5616735    345.09926  0.017036891  0.016222657           30 
 1689000   0.58878045   -7.5874224    345.03259  0.017023514  0.016210255           34 
 1690000   0.56114444   -7.5676919    344.83848   0.01700387  0.016197881           38 
 1691000   0.58345562    -7.582491    345.29119  0.017016124  0.016185516           29 
 1692000   0.57366875   -7.5980988    345.06589  0.016994971  0.016173186           28 
 1693000   0.57864902   -7.5821196    344.85443  0.016974524  0.016160867           32 
 1694000   0.56272629   -7.5791541     345.0381  0.016973539  0.016148541           64 
 1695000   0.57692354   -7.6141772    344.80337  0.016951985  0.016136216           60 
 1696000    0.5767826   -7.6009808    344.70925  0.016937365  0.016123898           36 
 1697000   0.57036317   -7.5861758    345.71762  0.016976901  0.016111587           32 
 1698000   0.57236542   -7.6020338    345.20563  0.016941776  0.016099306           39 
 1699000   0.57080194    -7.618932    345.24216  0.016933596  0.016087004           25 
 1700000   0.58414791    -7.601425    345.09529  0.016916436  0.016074701           27 
 1701000   0.56843839   -7.5940283    345.13843  0.016908604  0.016062409           45 
 1702000   0.57077129   -7.6122472    345.19476  0.016901428   0.01605012           50 
 1703000   0.56601402   -7.6097623    345.11927  0.016887809  0.016037841           41 
 1704000   0.57043073   -7.6011505    344.66103  0.016855489  0.016025554           17 
 1705000   0.58054972   -7.6075526    344.81841  0.016853295  0.016013297           18 
 1706000   0.57470791   -7.5966565    344.85279  0.016845095  0.016001049           43 
 1707000   0.57095921   -7.6073042    344.57142  0.016821491  0.015988812           24 
 1708000   0.57343666   -7.6104487    344.49619  0.016807972  0.015976577           17 
 1709000    0.5639222   -7.6159132    345.46363  0.016845311   0.01596436           16 
 1710000   0.56459103   -7.6104084    344.32122  0.016779787  0.015952153           22 
 1711000   0.57069412   -7.6046107    345.02382    0.0168042  0.015939946           24 
 1712000   0.57135619   -7.6154887    344.62598  0.016775019  0.015927754           18 
 1713000   0.58301909   -7.6134784     344.3846  0.016753483  0.015915546           38 
 1714000    0.5751534   -7.6084291    345.55067  0.016800402  0.015903346           29 
 1715000   0.57697496   -7.5955541    344.83601   0.01675588  0.015891167           22 
 1716000   0.57318328    -7.618708    344.33622  0.016721844  0.015878977           49 
 1717000   0.56457979   -7.6335998    344.68698  0.016729129  0.015866795           35 
 1718000   0.57469014   -7.5960992    344.35488  0.016703283  0.015854611           23 
 1719000   0.56424024   -7.6194143    344.28422   0.01669014  0.015842434           35 
 1720000   0.56549556   -7.6251676    344.45573  0.016688747   0.01583027           28 
 1721000    0.5699313    -7.607428     344.6125  0.016686641  0.015818099           54 
 1722000   0.57218167   -7.6161972    344.25149   0.01665948   0.01580596           36 
 1723000   0.56961609   -7.6048374    343.89664  0.016632649  0.015793826           23 
 1724000   0.55427319   -7.6185943    344.32142  0.016643533  0.015781703           23 
 1725000   0.56545259   -7.6073214    343.98735  0.016617746  0.015769586           44 
 1726000   0.56264446   -7.6320138    344.33151  0.016624735  0.015757476           25 
 1727000   0.57291424    -7.663646    344.58409  0.016627296  0.015745367           44 
 1728000   0.54928784   -7.6200586    344.34573  0.016606179  0.015733273           19 
 1729000   0.57214496     -7.62632    344.28941   0.01659386  0.015721174           35 
 1730000   0.56166437   -7.6326443    344.51806  0.016595282  0.015709086           45 
 1731000   0.55601495   -7.6217992    343.93935  0.016557835  0.015696993           25 
 1732000   0.56083257   -7.6172626    344.25813  0.016563613   0.01568492           13 
 1733000   0.56521797    -7.631215    344.34131  0.016558055  0.015672875           19 
 1734000   0.55238129   -7.6350939    343.94455  0.016529438  0.015660812           26 
 1735000   0.56321068   -7.6353097    344.22527  0.016533394  0.015648769           22 
 1736000    0.5677074   -7.6402024    344.67783  0.016545595  0.015636746           22 
 1737000   0.56130384   -7.6424551    343.97781  0.016502486  0.015624723           41 
 1738000   0.55862558   -7.6343322    344.23217  0.016505187  0.015612716           19 
 1739000   0.55777383   -7.6169072     344.4181  0.016504605  0.015600701           35 
 1740000   0.56366071   -7.6350157    343.97206  0.016473758  0.015588713           38 
 1741000   0.56484483   -7.6303227    343.77765   0.01645499  0.015576736           27 
 1742000   0.55868601   -7.6171313     344.1245  0.016462137  0.015564761           32 
 1743000   0.55738739   -7.6056809    343.84172  0.016439172  0.015552779           15 
 1744000   0.56839286    -7.639607    344.31291  0.016452261  0.015540818           30 
 1745000   0.55324389   -7.6365332    344.31429  0.016442898   0.01552888           26 
 1746000   0.55781642   -7.6240743    343.58626  0.016398733  0.015516941           38 
 1747000   0.55193909   -7.6289108    344.10519    0.0164141  0.015504993           36 
 1748000   0.55612764   -7.6389124    343.98094  0.016398786  0.015493081           40 
 1749000   0.55784213   -7.6296452    343.77837  0.016379759  0.015481169           34 
 1750000   0.55714316    -7.630337    344.54531   0.01640692  0.015469286           31 
 1751000   0.55871635   -7.6400143    343.79198  0.016361697   0.01545739           30 
 1752000   0.54805192   -7.6234037    343.85738  0.016355469  0.015445506           41 
 1753000    0.5588944   -7.6278941    343.84569  0.016345583   0.01543364           34 
 1754000    0.5595533   -7.6533291    344.39358  0.016362295  0.015421776           27 
 1755000   0.56019683   -7.6411174    343.90523  0.016329783  0.015409885           30 
 1756000   0.53743271    -7.645933    343.34368  0.016293835  0.015398015           40 
 1757000   0.54914183   -7.6544777    344.27285  0.016328631  0.015386145           73 
 1758000   0.55364813   -7.6493477    344.30951   0.01632108  0.015374281           80 
 1759000   0.54601882   -7.6503002     343.7364   0.01628465  0.015362433           33 
 1760000   0.54660188   -7.6446349    343.85025  0.016280788  0.015350595           42 
 1761000   0.55530247   -7.6621566     343.8178  0.016270007  0.015338759           50 
 1762000   0.54933623   -7.6591169    344.29466  0.016283327  0.015326918           52 
 1763000   0.54390527   -7.6338992    344.15651  0.016267561  0.015315134           51 
 1764000   0.55978299     -7.62555    343.92056  0.016247192   0.01530335           54 
 1765000   0.54422891   -7.6696598    343.73085   0.01622903  0.015291558           53 
 1766000   0.55658728   -7.6554791    344.03821  0.016234343  0.015279762           46 
 1767000   0.54464107    -7.665303    343.68905   0.01620869  0.015267985           41 
 1768000   0.54252698   -7.6617334    344.30278  0.016228449  0.015256193           56 
 1769000   0.54215944   -7.6437907    343.46941  0.016180018  0.015244416           43 
 1770000   0.56012277   -7.6559231    343.72511  0.016182915  0.015232644           35 
 1771000   0.55304704   -7.6685152     343.7814  0.016176426  0.015220896           46 
 1772000    0.5582881   -7.6476274    343.81423  0.016168841  0.015209155           42 
 1773000   0.54147376   -7.6503864    343.56946  0.016148217  0.015197426           46 
 1774000   0.54516567   -7.6595839    343.39322  0.016130835  0.015185697          126 
 1775000   0.54402697   -7.6566739    343.12226  0.016109026  0.015173958           81 
 1776000   0.55645063   -7.6784373    343.76039  0.016129898  0.015162252           65 
 1777000   0.55382112   -7.6585976     343.4141  0.016104582  0.015150542           54 
 1778000   0.54097601   -7.6769667    343.68877  0.016108398  0.015138842           81 
 1779000   0.54320951   -7.6476327    343.36996  0.016084409  0.015127157           53 
 1780000    0.5280813    -7.673844    343.61631  0.016086906  0.015115484           59 
 1781000   0.52937552   -7.6559347    342.99218   0.01604867  0.015103814           89 
 1782000   0.53804077   -7.6707513    343.40985  0.016059196  0.015092138           79 
 1783000   0.54546929   -7.6810256    343.51162  0.016054946  0.015080461           48 
 1784000   0.54638777   -7.6612417    343.24034  0.016033275  0.015068792           97 
 1785000   0.54778465   -7.6665004    343.30952  0.016027522   0.01505713           86 
 1786000   0.53669941   -7.6642849    343.46103  0.016025617  0.015045464           44 
 1787000   0.54285601   -7.6674268    343.01422  0.015995813  0.015033809           44 
 1788000   0.53389759   -7.6566913    343.51219  0.016010076  0.015022175           68 
 1789000   0.53966529   -7.6599963    343.05595  0.015979875  0.015010545           85 
 1790000    0.5273282   -7.6695352     343.2716  0.015980987  0.014998928           43 
 1791000   0.54002578   -7.6673841    343.43494  0.015979664  0.014987302          100 
 1792000   0.54193143   -7.6775103    342.80286  0.015941353  0.014975671           86 
 1793000   0.53687915   -7.6893139    343.27084  0.015954213  0.014964069           85 
 1794000   0.53585254   -7.6962132       343.54  0.015957822  0.014952474           73 
 1795000   0.54693369   -7.6829427    343.24124  0.015935062  0.014940893           76 
 1796000   0.53364043   -7.6770236    343.25507  0.015926832  0.014929327           91 
 1797000   0.54311981   -7.6807645    342.90832  0.015901889  0.014917759           53 
 1798000   0.54828286   -7.6811146    343.24849   0.01590881  0.014906206          111 
 1799000   0.53074807   -7.6802518    342.59796  0.015869833  0.014894662           63 
 1800000   0.53409969   -7.6867453    342.99516  0.015879406   0.01488313           60 
 1801000    0.5399146   -7.6795677     343.2701   0.01588331  0.014871601           55 
 1802000   0.52294289   -7.6782682    343.23096  0.015872686  0.014860089           83 
 1803000   0.51837707   -7.6936103     343.1609  0.015860644  0.014848576          113 
 1804000   0.54419911   -7.6826082    343.16867  0.015852211  0.014837058          127 
 1805000   0.52366116    -7.695296    343.39868  0.015854048  0.014825556           54 
 1806000   0.53304652   -7.7204114    343.20805  0.015836473  0.014814071           47 
 1807000   0.52661496   -7.6860556    342.87444  0.015812324  0.014802589           85 
 1808000   0.53004868   -7.6901456    342.66634  0.015793987  0.014791116           85 
 1809000   0.53296873   -7.6961406    343.34784   0.01581665  0.014779675          101 
 1810000   0.52828698   -7.6804299    342.62007  0.015774404  0.014768247           76 
 1811000   0.52873448   -7.6959976    343.40896  0.015801995  0.014756829           77 
 1812000   0.52784808   -7.6973406    343.40723  0.015793195  0.014745413           52 
 1813000   0.53357382   -7.6952056    343.41255  0.015784728  0.014734008           44 
 1814000   0.52414872   -7.6926348     343.1723   0.01576499  0.014722608           41 
 1815000   0.52421745   -7.6950704    342.38571  0.015720189  0.014711214           44 
 1816000   0.53621508   -7.6905313    342.88838  0.015734599  0.014699814           62 
 1817000   0.52797277   -7.6827132    343.13112  0.015737072  0.014688432           52 
 1818000   0.52383718   -7.6824999    343.47912  0.015744367  0.014677075           48 
 1819000   0.53125471   -7.6801319    342.96401  0.015712114  0.014665724           35 
 1820000   0.52475059   -7.6889706    343.28516  0.015718185  0.014654382           41 
 1821000   0.53877185   -7.6864998    342.75717  0.015685391  0.014643059           51 
 1822000   0.52369483   -7.7017657    342.83489  0.015680337   0.01463174           57 
 1823000   0.52285697    -7.683473    343.13612  0.015685506  0.014620439           48 
 1824000   0.52445099   -7.6807555     343.1405  0.015677106  0.014609142           73 
 1825000   0.51701338   -7.6940589    343.46216  0.015683203  0.014597866           41 
 1826000    0.5399987   -7.6789523      343.567  0.015679399  0.014586589           56 
 1827000   0.51659227   -7.6923975    343.17923   0.01565313  0.014575339           40 
 1828000   0.52032574   -7.7052044    343.13908  0.015642737  0.014564097           53 
 1829000   0.52804731   -7.6920385    343.07856  0.015631427  0.014552863           54 
 1830000   0.52505367   -7.7138896    342.92169  0.015615742  0.014541643           34 
 1831000   0.51587524   -7.6928024    343.09675  0.015615181  0.014530421           90 
 1832000   0.53384726   -7.7035803    343.28145  0.015615058  0.014519208           35 
 1833000    0.5278808   -7.6986662     343.2867  0.015606778  0.014508016           52 
 1834000    0.5283693    -7.712883    343.19274     0.015594  0.014496815           50 
 1835000   0.53298649   -7.7205171    342.78031  0.015566771  0.014485628           69 
 1836000   0.52643877    -7.716577    342.67847   0.01555367   0.01447444           65 
 1837000   0.51516049   -7.6960497    343.38474  0.015577243  0.014463254           36 
 1838000   0.51544484   -7.7273914    342.40383  0.015524294  0.014452082           45 
 1839000   0.52240424   -7.6955596    342.74989  0.015531534  0.014440916           67 
 1840000   0.51922971   -7.6930539    342.81395  0.015525994  0.014429768           76 
 1841000   0.52016577    -7.699269    342.61416  0.015508517  0.014418625           73 
 1842000   0.50794677   -7.6993273    343.33241  0.015532592  0.014407477           42 
 1843000   0.51611614   -7.7171971    343.17593  0.015517089   0.01439637           42 
 1844000   0.51168605   -7.7142525    343.08115   0.01550439   0.01438526           40 
 1845000   0.51276372   -7.7062728     342.8085  0.015483672  0.014374147           90 
 1846000   0.51551062   -7.6986791    342.44959  0.015459082  0.014363048           39 
 1847000   0.52043921   -7.7097295    343.24367   0.01548654  0.014351952           47 
 1848000   0.51958284    -7.713374    342.95424  0.015465108  0.014340868          204 
 1849000   0.51762454   -7.6989773    342.63342  0.015442285   0.01432979          102 
 1850000    0.5130063   -7.7063459    343.02874  0.015451745  0.014318727           51 
 1851000   0.51943864   -7.7150675    342.87039  0.015436268  0.014307673           84 
 1852000   0.51602351    -7.714398    343.03256   0.01543523  0.014296635           50 
 1853000   0.51539729   -7.7146209    343.46727   0.01544645  0.014285615           80 
 1854000   0.51115939     -7.73376    343.28668  0.015430002  0.014274611           52 
 1855000   0.50344468   -7.7081066    342.13598   0.01536999  0.014263608           80 
 1856000   0.50305863   -7.7056744    343.11555  0.015405691  0.014252605           52 
 1857000   0.51497881   -7.7103961    342.54267  0.015371687  0.014241613           70 
 1858000   0.51951163   -7.7302084    343.03926  0.015385686  0.014230631           45 
 1859000   0.50946102   -7.7426702    342.83043  0.015368049  0.014219645           43 
 1860000    0.5227362   -7.7124818    343.46571  0.015388249  0.014208684           80 
 1861000   0.51393587   -7.7220505    343.04157  0.015360987  0.014197736           52 
 1862000   0.51262335   -7.7149486    342.44977  0.015326252  0.014186773           39 
 1863000   0.51642246   -7.7222801    342.75192   0.01533154  0.014175821           46 
 1864000   0.50043784   -7.7259869    342.17799  0.015297657  0.014164888           62 
 1865000   0.51025697    -7.723011    342.40727  0.015299699  0.014153965           42 
 1866000   0.51187387   -7.7238582     342.4798  0.015294739  0.014143053           86 
 1867000   0.50975912   -7.7220383    342.96179  0.015308061  0.014132133           94 
 1868000   0.50857611    -7.730994     342.5833  0.015282981  0.014121226           76 
 1869000   0.50491452    -7.709015    342.50542  0.015271331  0.014110327           53 
 1870000   0.49209252   -7.7193087    342.27392  0.015252849  0.014099449           89 
 1871000   0.49913154   -7.7305904    341.94651  0.015230113  0.014088578           36 
 1872000   0.50528797   -7.7256175    342.42496  0.015243276  0.014077716          110 
 1873000   0.50136122   -7.7361053    342.10916  0.015221088  0.014066863           56 
 1874000   0.51477596   -7.7425289    342.51148  0.015230856  0.014056018           81 
 1875000   0.50420354   -7.7165591    342.14398  0.015206399  0.014045181           66 
 1876000   0.51520592   -7.7432847    342.38462  0.015208983  0.014034347           38 
 1877000   0.49926939   -7.7261931    342.69547  0.015214681   0.01402353           56 
 1878000   0.49951647   -7.7356176    342.85866  0.015213821  0.014012702           59 
 1879000   0.51378627   -7.7243082    341.94567  0.015165233  0.014001894           47 
 1880000   0.49911026   -7.7351381    342.02745  0.015160791  0.013991089           56 
 1881000   0.49919572   -7.7308345    342.59484  0.015177868  0.013980301          103 
 1882000    0.5091771   -7.7520547    342.48917  0.015165124   0.01396952           51 
 1883000   0.49395516    -7.733962    342.07465  0.015138726  0.013958764           42 
 1884000    0.4995866   -7.7372116    342.16574   0.01513472  0.013948002          109 
 1885000   0.49829358   -7.7582775    342.82936  0.015156028  0.013937255           93 
 1886000   0.50753801   -7.7315979    342.82322  0.015147721  0.013926528           56 
 1887000   0.50356083    -7.724847    342.33469  0.015118119  0.013915808           98 
 1888000   0.48991663   -7.7398548    342.13492  0.015101294  0.013905083           87 
 1889000   0.48546966   -7.7397989    342.55558  0.015111857  0.013894382           39 
 1890000   0.49267175   -7.7490354    342.43899  0.015098721  0.013883691           36 
 1891000    0.4944145   -7.7497679    342.37612  0.015087966   0.01387301           52 
 1892000   0.49113626   -7.7359208    342.29647  0.015076483  0.013862325           72 
 1893000   0.49344187   -7.7249865    341.76999  0.015045342  0.013851644           62 
 1894000   0.50607256   -7.7526367    342.83283  0.015084162  0.013840986           67 
 1895000   0.50073935   -7.7416918    342.40425  0.015057355  0.013830336           83 
 1896000   0.49648999   -7.7451184    341.95495  0.015029666  0.013819694           63 
 1897000   0.49532452   -7.7483954    342.69185  0.015054114  0.013809062           66 
 1898000   0.49399972   -7.7449139     342.6946  0.015046303  0.013798446           71 
 1899000   0.49885579   -7.7390845     342.3159  0.015021761   0.01378785           98 
 1900000   0.49185831   -7.7403975    342.12012  0.015005268  0.013777251           84 
 1901000    0.4932012   -7.7488931     342.1563  0.014998961  0.013766652           38 
 1902000   0.49262782   -7.7467659     342.1671  0.014991548  0.013756074           52 
 1903000   0.50459663   -7.7300865     342.7019   0.01500709  0.013745507           78 
 1904000   0.48657171   -7.7493165    342.37754  0.014985011  0.013734944           85 
 1905000   0.49024691   -7.7532428    341.93039  0.014957585  0.013724389           41 
 1906000   0.49028424   -7.7597196    341.55932  0.014933513  0.013713832           44 
 1907000   0.49602507   -7.7506237    342.05874  0.014947506  0.013703292           52 
 1908000   0.49082907   -7.7493294    342.36738  0.014953152  0.013692762           52 
 1909000   0.48405308   -7.7472949    342.98152  0.014972128  0.013682245           35 
 1910000   0.48695038   -7.7530071    342.31017  0.014934999  0.013671735           92 
 1911000    0.4884626   -7.7345102    342.03796  0.014915313  0.013661232           28 
 1912000   0.49158243   -7.7658501    341.99917  0.014905822  0.013650733           63 
 1913000   0.49272964   -7.7652267    342.45294  0.014917797   0.01364025           78 
 1914000   0.48614167   -7.7595819    342.58065  0.014915563  0.013629772           59 
 1915000   0.48975886   -7.7619573    342.31852  0.014896367  0.013619301           37 
 1916000   0.49893768   -7.7478431    341.99978  0.014874729  0.013608844          120 
 1917000   0.49082472   -7.7718683    342.30801  0.014880369    0.0135984           38 
 1918000    0.4931718   -7.7531951    341.99554  0.014859035   0.01358797           38 
 1919000    0.4922049   -7.7645678    342.42814  0.014870077  0.013577545           72 
 1920000   0.47633136   -7.7607732    341.67454  0.014829624  0.013567125           32 
 1921000   0.48522148   -7.7508383    342.35803  0.014851554  0.013556718           63 
 1922000   0.47903972   -7.7498345    342.16395  0.014835412  0.013546312          189 
 1923000   0.48807107   -7.7469303    341.70566  0.014807838  0.013535921           73 
 1924000   0.48862827   -7.7641304    342.74661  0.014845227  0.013525534           39 
 1925000   0.47476512   -7.7559122     342.4465  0.014824524  0.013515153           62 
 1926000   0.48658149   -7.7523691    342.61675  0.014824193  0.013504791           77 
 1927000   0.47259753   -7.7554748    341.95829  0.014788025  0.013494436           68 
 1928000   0.48359827   -7.7486525    341.93635  0.014779407   0.01348409           73 
 1929000   0.49152881   -7.7746343    342.29188  0.014787104  0.013473748           88 
 1930000   0.49593433   -7.7613916     342.5613  0.014791075  0.013463425           94 
 1931000   0.48263494   -7.7560577    342.45825  0.014778968  0.013453104           65 
 1932000   0.48248343   -7.7763072     341.9344  0.014748723  0.013442794           53 
 1933000   0.47962857   -7.7659349    342.25566  0.014754943  0.013432488           63 
 1934000   0.46347188   -7.7844972    342.10109  0.014740653   0.01342218           81 
 1935000   0.48449678   -7.7593334    341.84862  0.014722163  0.013411881           60 
 1936000   0.48552633   -7.7597374    341.68852  0.014707667  0.013401601           45 
 1937000   0.48096674   -7.7651496    341.77183  0.014703658   0.01339133           65 
 1938000   0.47606197   -7.7668305     342.2023  0.014714581  0.013381059           61 
 1939000     0.481359   -7.7709173    341.76334  0.014688127  0.013370808           57 
 1940000   0.47875851   -7.7625227     341.9596  0.014688986  0.013360558          123 
 1941000   0.47442313   -7.7681697    342.02408  0.014684187  0.013350333          111 
 1942000   0.48253382   -7.7568921     341.5105  0.014654587  0.013340108           65 
 1943000   0.47561112   -7.7590867    341.60615  0.014651147  0.013329887           49 
 1944000   0.48298181   -7.7788775    341.78422  0.014651244  0.013319672           54 
 1945000   0.47508505   -7.7741484    342.03342  0.014654388  0.013309471           39 
 1946000    0.4693023   -7.7490413    341.79478  0.014636638  0.013299274           41 
 1947000   0.48137869   -7.7706528    341.70832   0.01462542  0.013289085           26 
 1948000   0.46727209   -7.7791816    341.84473  0.014623748  0.013278908           75 
 1949000     0.476523   -7.7586718    341.71655  0.014610764  0.013268744           28 
 1950000   0.48447284   -7.7828658    341.42248  0.014590704  0.013258579           69 
 1951000    0.4690692   -7.7794241    341.67924  0.014594193  0.013248422          127 
 1952000   0.46697617   -7.7805409     341.2957  0.014570342   0.01323827           41 
 1953000   0.47439416   -7.7778248    341.78881  0.014583922  0.013228128           89 
 1954000   0.46354028   -7.7778993    341.83274  0.014578333     0.013218           85 
 1955000   0.46641491   -7.7806384    341.62871  0.014562179  0.013207886           76 
 1956000    0.4712177   -7.7728391    341.36101  0.014543329  0.013197776           60 
 1957000   0.48128027   -7.7852917    341.76086  0.014552924  0.013187676          106 
 1958000   0.47269063   -7.7755541    342.07634  0.014558918  0.013177588           34 
 1959000   0.47785778   -7.7736474    341.54787  0.014529006  0.013167503           56 
 1960000   0.47703819   -7.7855935    341.99273  0.014540507  0.013157423           50 
 1961000   0.47299029   -7.7722898     341.4631  0.014510586  0.013147368           70 
 1962000   0.46672045   -7.7950765    341.67297  0.014512104  0.013137311           42 
 1963000    0.4710096   -7.7811262    341.71461  0.014506479  0.013127276           36 
 1964000   0.47619882   -7.7826133    341.52894  0.014491214   0.01311725           61 
 1965000   0.47397751   -7.7867623    341.61845  0.014487636  0.013107226           99 
 1966000   0.47219246   -7.7810789    342.20513  0.014505134  0.013097212           63 
 1967000   0.46377465   -7.7979543    341.85797  0.014483052  0.013087207           61 
 1968000     0.467487    -7.776829    342.29601  0.014494242  0.013077215           58 
 1969000   0.46409341   -7.7842676    341.33182  0.014446073  0.013067231           71 
 1970000   0.46818231   -7.7913463     342.2038  0.014475626  0.013057266          102 
 1971000   0.46363474   -7.7797021    341.25143  0.014428016  0.013047304           67 
 1972000    0.4615189   -7.7856447    340.87884  0.014404954   0.01303734           55 
 1973000   0.46546925   -7.7849673    341.86102  0.014439138  0.013027392           70 
 1974000   0.45284026   -7.7942739    341.54592  0.014418521  0.013017446           81 
 1975000   0.45705727   -7.7783087    341.49054  0.014408883  0.013007509           44 
 1976000   0.46776707   -7.7839019    341.23605  0.014390859  0.012997586           59 
 1977000   0.46463865   -7.7917919    341.53188   0.01439605  0.012987672           58 
 1978000   0.46597218   -7.7753275    341.84586  0.014401999  0.012977758           49 
 1979000    0.4597832   -7.7883199     341.7838  0.014392109  0.012967858           51 
 1980000   0.45324183   -7.7883923    341.63433  0.014378549  0.012957967           82 
 1981000   0.46005769   -7.7907359    341.52356  0.014366631  0.012948081           68 
 1982000   0.47230607   -7.7748188    342.01783  0.014380165  0.012938213           56 
 1983000   0.45361015   -7.7924157    341.23234  0.014339903  0.012928354           43 
 1984000   0.46061546   -7.7761853    341.29225  0.014335192  0.012918503           39 
 1985000    0.4605874   -7.7945571    341.07673  0.014318922  0.012908657           82 
 1986000   0.46229708   -7.7943562    341.27908  0.014320203  0.012898813          118 
 1987000   0.46105766   -7.8125895    341.92728  0.014340181  0.012888986          103 
 1988000   0.44994486   -7.7865221    341.31068  0.014307121  0.012879168           56 
 1989000   0.45365474   -7.7838238    341.47585  0.014306848  0.012869358          109 
 1990000   0.45835138   -7.8048799    341.70344  0.014309189  0.012859556           40 
 1991000   0.45750591   -7.8116946    341.35824  0.014287554  0.012849763          127 
 1992000   0.46252447   -7.7797721    341.24888  0.014275806  0.012839976           58 
 1993000    0.4613222   -7.7860747    340.99315  0.014257951  0.012830191           45 
 1994000   0.45953451     -7.80233    341.34708  0.014265592   0.01282042           63 
 1995000   0.45263138   -7.7885007    341.16054  0.014250649  0.012810649           52 
 1996000   0.46076822   -7.8058226    340.92017  0.014233474  0.012800891           84 
 1997000   0.44738968   -7.8016208    340.86796  0.014224168  0.012791139           72 
 1998000    0.4678714   -7.8087091    341.50359   0.01424356  0.012781401           76 
 1999000   0.45171335   -7.8032294    341.38157  0.014231348  0.012771668           73 
 2000000   0.44313417   -7.7933531    341.21586  0.014217328  0.012761948           79 
 2001000   0.44942114   -7.8050249    341.67898  0.014229509  0.012752237           47 
 2002000   0.46401341   -7.8045746    341.11683  0.014199002   0.01274253          103 
 2003000   0.45602664   -7.8082984    340.91305  0.014183435  0.012732836           75 
 2004000   0.44514853   -7.8140863    340.69052  0.014167104  0.012723148           65 
 2005000   0.45572252   -7.8079387    340.82419  0.014165594  0.012713476           30 
 2006000   0.45061869   -7.7974661     341.0384  0.014167431  0.012703809          111 
 2007000   0.46534607   -7.7953019    340.75646  0.014148666  0.012694155          100 
 2008000    0.4592713   -7.8031317    341.25916  0.014162482  0.012684511           79 
 2009000   0.45577883   -7.8146003    341.29028  0.014156723  0.012674877           73 
 2010000   0.44854326   -7.7878135    341.09176  0.014141449  0.012665248           64 
 2011000   0.44316317   -7.8062969    340.78661  0.014121773  0.012655626           67 
 2012000    0.4605189   -7.8065954    341.34431  0.014137852  0.012646011           38 
Loop time of 4355.41 on 48 procs for 2000000 steps with 4000 atoms

Performance: 79349.661 tau/day, 459.199 timesteps/s
99.4% CPU use with 48 MPI tasks x no OpenMP threads

MPI task timing breakdown:
Section |  min time  |  avg time  |  max time  |%varavg| %total
---------------------------------------------------------------
Pair    | 266.18     | 287.13     | 306.98     |  44.7 |  6.59
Neigh   | 27.275     | 28.146     | 29.263     |   7.2 |  0.65
Comm    | 238.25     | 256.57     | 284.69     |  55.8 |  5.89
Output  | 3.9223     | 3.9241     | 3.9604     |   0.3 |  0.09
Modify  | 3718.2     | 3732.3     | 3745.1     |  11.6 | 85.69
Other   |            | 47.36      |            |       |  1.09

Nlocal:        83.3333 ave          91 max          78 min
Histogram: 7 2 3 14 5 5 9 0 2 1
Nghost:        1823.85 ave        1849 max        1800 min
Histogram: 3 1 2 10 13 2 9 4 3 1
Neighs:        11250.7 ave       12498 max        9889 min
Histogram: 1 3 5 5 8 9 6 4 6 1
FullNghs:      22501.4 ave       24716 max       20708 min
Histogram: 5 2 5 7 11 7 5 3 2 1

Total # of neighbors = 1080067
Ave neighs/atom = 270.01675
Neighbor list builds = 107769
Dangerous builds = 0

#clear
#
#next RN
#
#jump SELF
Total wall time: 1:12:38
