
units lj                  # Use reduced LJ style units
atom_style atomic         # Uncharged point particles
atom_modify map hash      # Needed for indexing of clusters etc
                          # Used to be able to find where atoms are in relation to each other.

lattice fcc 1.0 spacing 1 1 1
Lattice spacing in x,y,z = 1.5874011 1.5874011 1.5874011
region box block 0 10 0 10 0 10 units lattice
create_box 2 box
Created orthogonal box = (0.0000000 0.0000000 0.0000000) to (15.874011 15.874011 15.874011)
  3 by 4 by 4 MPI processor grid
create_atoms 1 box
Created 4000 atoms
  using lattice units in orthogonal box = (0.0000000 0.0000000 0.0000000) to (15.874011 15.874011 15.874011)
  create_atoms CPU = 0.002 seconds
set type 1 type/fraction 2 0.87 78393
Setting atom values ...
  3472 settings made for type/fraction
mass 1 1.0
mass 2 1.0
pair_style lj/cut  3.5
pair_modify tail  yes
pair_coeff 1  1  1.0  1.0   # Intearaction between 1 and 1 set with epsilon = 1 and sigma = 1
pair_coeff 1  2  1.5  0.8
pair_coeff 2  2  0.5  0.88

write_data data.0
System init for write_data ...
Neighbor list info ...
  update every 1 steps, delay 10 steps, check yes
  max neighbors/atom: 2000, page size: 100000
  master list distance cutoff = 3.8
  ghost atom cutoff = 3.8
  binsize = 1.9, bins = 9 9 9
  1 neighbor lists, perpetual/occasional/extra = 1 0 0
  (1) pair lj/cut, perpetual
      attributes: half, newton on
      pair build: half/bin/atomonly/newton
      stencil: half/bin/3d
      bin: standard
WARNING: Not all mixed pair coeffs generated from mixing. Use write_data with 'pair ij' option to store all pair coeffs. (../write_data.cpp:312)


#############################
#   M E L T   S Y S T E M   #
#############################

velocity all create 2.4 8172548 mom yes dist gaussian # Assign velocities
                                                    # Temperature 2.4, random number seed, zero linear momentum
                                                                                # Gaussian distribution

timestep 0.002   # simulation timestep
thermo 1000       # output thermodynamic data every 1000 steps bf 100

# Define a fix  in this case with index 1 applied to all
# particles in the simulation. This fix is for simulations
# in the anisotropic NPT ensemble. Note that we use the MTK
# correction.
fix 1 all npt temp 2.4 2.4 0.1 iso 5.68 5.68 0.5 mtk yes tchain 5 pchain 5 # Use NPT ensemble
                                                                         # Set temperature and pressure and damping
                                                                         # Numbers of thermostats in chain and in barostat
run 10000          # run for 10000 steps
Per MPI rank memory allocation (min/avg/max) = 3.642 | 3.644 | 3.648 Mbytes
Step Temp E_pair E_mol TotEng Press Volume 
       0          2.4   -3.3406884            0   0.25841159    -2.808294         4000 
    1000     2.366426   -2.4991913            0    1.0495603    5.4563746    3943.9325 
    2000    2.3838878   -2.4531326            0    1.1218052    5.5379871    3971.1732 
    3000    2.3891768    -2.451755            0    1.1311142    5.7475191    3946.2817 
    4000    2.3787619   -2.5055024            0    1.0617483    5.5534944    3939.3292 
    5000    2.3973306   -2.4648809            0     1.130216    5.6392297    3940.3477 
    6000    2.4043229   -2.5094247            0     1.096158     5.691505     3926.672 
    7000    2.4381436   -2.4773908            0    1.1789103    5.7037547    3924.6209 
    8000    2.4484385    -2.470099            0    1.2016405    5.8562215    3915.8045 
    9000    2.3838061   -2.4718094            0    1.1030058     5.785682    3916.0762 
   10000    2.4208938   -2.4570316            0    1.1734012    5.7853888    3942.9771 
Loop time of 2.46115 on 48 procs for 10000 steps with 4000 atoms

Performance: 702110.012 tau/day, 4063.137 timesteps/s
99.6% CPU use with 48 MPI tasks x no OpenMP threads

MPI task timing breakdown:
Section |  min time  |  avg time  |  max time  |%varavg| %total
---------------------------------------------------------------
Pair    | 1.0751     | 1.1652     | 1.2268     |   3.2 | 47.35
Neigh   | 0.20717    | 0.2157     | 0.22385    |   0.9 |  8.76
Comm    | 0.7624     | 0.83348    | 0.92439    |   4.0 | 33.87
Output  | 0.00023652 | 0.00024313 | 0.00030881 |   0.0 |  0.01
Modify  | 0.19736    | 0.2298     | 0.2533     |   3.1 |  9.34
Other   |            | 0.01669    |            |       |  0.68

Nlocal:        83.3333 ave          93 max          74 min
Histogram: 3 3 5 7 10 4 6 4 3 3
Nghost:        1653.40 ave        1683 max        1617 min
Histogram: 2 1 6 5 6 5 10 5 2 6
Neighs:        9680.38 ave       11240 max        8166 min
Histogram: 2 4 5 5 10 8 4 4 5 1

Total # of neighbors = 464658
Ave neighs/atom = 116.16450
Neighbor list builds = 906
Dangerous builds = 199

# Equilibrate just above the melting temperature to avoid step fn in T

fix 1 all npt temp 1.25 1.25 0.1 iso 5.68 5.68 0.5 mtk yes tchain 5 pchain 5
run 2000
Per MPI rank memory allocation (min/avg/max) = 3.643 | 3.645 | 3.649 Mbytes
Step Temp E_pair E_mol TotEng Press Volume 
   10000    2.4208938   -2.4570316            0    1.1734012    5.7853888    3942.9771 
   11000    1.2356094   -3.7151601            0   -1.8622094    5.3980693    3044.6613 
   12000    1.2671018   -3.7140291            0   -1.8138516     5.688131     3023.432 
Loop time of 0.610733 on 48 procs for 2000 steps with 4000 atoms

Performance: 565876.962 tau/day, 3274.751 timesteps/s
99.6% CPU use with 48 MPI tasks x no OpenMP threads

MPI task timing breakdown:
Section |  min time  |  avg time  |  max time  |%varavg| %total
---------------------------------------------------------------
Pair    | 0.26271    | 0.29571    | 0.32411    |   2.5 | 48.42
Neigh   | 0.039402   | 0.041986   | 0.046048   |   0.7 |  6.87
Comm    | 0.19099    | 0.22394    | 0.25809    |   3.1 | 36.67
Output  | 5.158e-05  | 5.2592e-05 | 6.9003e-05 |   0.0 |  0.01
Modify  | 0.040285   | 0.04434    | 0.048151   |   1.0 |  7.26
Other   |            | 0.00471    |            |       |  0.77

Nlocal:        83.3333 ave          91 max          73 min
Histogram: 1 0 1 7 7 8 13 4 5 2
Nghost:        1977.15 ave        1998 max        1956 min
Histogram: 3 5 6 4 6 5 6 6 3 4
Neighs:        12650.0 ave       13974 max       11509 min
Histogram: 5 6 5 4 4 10 2 6 2 4

Total # of neighbors = 607198
Ave neighs/atom = 151.79950
Neighbor list builds = 144
Dangerous builds = 13

#############################
# L I N E A R  Q U E N C H  #
#############################

# Define solid atoms. This closely follows ten Wolde  Ruiz-Montero and Frenkel  Faraday Discuss  1996  104  93-110
# Compute components of the per-atom q6 vector
compute q6 all orientorder/atom degrees 1 6 components 6 nnn NULL cutoff 1.3 # compute the Q6 parameter.
                                                                             # Use all neighbours within 1.3 unit cell.

# get number of connections
compute coord_number all coord/atom orientorder q6 0.5

# An atom is solid if it has 8 or more connections (of a possible 14)
variable is_solid atom c_coord_number>=8
group solid dynamic all var is_solid    # Must be dynamic to update
dynamic group solid defined

# do clustering
compute cluster solid cluster/atom 1.3 # Create a cluster where all atoms within are solid and max 1.3 units from another member

# define chunks one chunk per cluster
compute clus_chunks solid chunk/atom c_cluster nchunk every compress yes  # Says which atoms are in which chunk

# count the size of each chunk
compute size_chunks solid property/chunk clus_chunks count


# Find the maximum entry in the vector of chunk sizes
variable max_n equal max(c_size_chunks)


# Thermo style which includes this variable
# thermo_style custom step temp pe vol v_max_n

thermo ${N}  # Print the thermo information every 100 steps
thermo 1000  

# Reset the npt fix at a lower temperature (below freezing)
fix 1  all npt temp  ${temp} ${temp}  0.1  iso  5.68  5.68  0.5  mtk yes tchain  5  pchain  5
fix 1  all npt temp  0.45 ${temp}  0.1  iso  5.68  5.68  0.5  mtk yes tchain  5  pchain  5
fix 1  all npt temp  0.45 0.45  0.1  iso  5.68  5.68  0.5  mtk yes tchain  5  pchain  5

dump dmp2 all dcd ${N} traj.dcd
dump dmp2 all dcd 1000 traj.dcd


compute msd all msd com yes
variable twopoint equal c_msd[4]/6/(step*dt+1.0e-6)
fix 9 all vector 10 c_msd[4]
variable fit equal slope(f_9)/6/(10*dt)
thermo_style custom step temp pe c_msd[4] v_twopoint v_fit v_max_n

fix 1 all npt temp 1.25 ${temp} 0.1 iso 5.68 5.68 0.5 mtk yes tchain 5 pchain 5
fix 1 all npt temp 1.25 0.45 0.1 iso 5.68 5.68 0.5 mtk yes tchain 5 pchain 5
run 5000000 # 5000000  # Run for this many steps
Neighbor list info ...
  update every 1 steps, delay 10 steps, check yes
  max neighbors/atom: 2000, page size: 100000
  master list distance cutoff = 3.8
  ghost atom cutoff = 3.8
  binsize = 1.9, bins = 8 8 8
  4 neighbor lists, perpetual/occasional/extra = 1 3 0
  (1) pair lj/cut, perpetual
      attributes: half, newton on
      pair build: half/bin/atomonly/newton
      stencil: half/bin/3d
      bin: standard
  (2) compute orientorder/atom, occasional
      attributes: full, newton on
      pair build: full/bin/atomonly
      stencil: full/bin/3d
      bin: standard
  (3) compute coord/atom, occasional
      attributes: full, newton on
      pair build: full/bin/atomonly
      stencil: full/bin/3d
      bin: standard
  (4) compute cluster/atom, occasional
      attributes: full, newton on
      pair build: full/bin/atomonly
      stencil: full/bin/3d
      bin: standard
Per MPI rank memory allocation (min/avg/max) = 9.827 | 9.832 | 9.837 Mbytes
Step Temp PotEng c_msd[4] v_twopoint v_fit v_max_n 
   12000    1.2671018   -3.7140291 1.6822459e-30 1.1682263e-32 8.3333333e+20            2 
   13000    1.2402924   -3.6978516   0.91930701 0.0058929934  0.077864025            2 
   14000    1.2449059   -3.7211268    1.8636424  0.011093109  0.078963636            2 
   15000    1.2503952   -3.6776266    2.7850546  0.015472525  0.077482321            1 
   16000    1.2448025   -3.6857515    3.7772296   0.01967307  0.078789695            1 
   17000    1.2366459   -3.7259771    4.8195684  0.023625335  0.079830134            4 
   18000    1.2813635   -3.6872025     5.738711  0.026568106  0.080543055            4 
   19000    1.2342636   -3.6985685    6.7427928  0.029573652  0.080543788            2 
   20000    1.2596196   -3.6839237    7.8208329  0.032586803  0.081233078            3 
   21000    1.2391083   -3.6882186    8.9519538  0.035523625  0.082549109            1 
   22000    1.2609171   -3.6767546    10.046199  0.038053784   0.08349498            1 
   23000     1.256711   -3.7227228     11.02425  0.039942933  0.084143918            3 
   24000    1.2435603   -3.6727753    12.007322  0.041692089  0.084420738            4 
   25000    1.2424738   -3.6760634    12.955324  0.043184413  0.084478619            3 
   26000    1.2369137   -3.7286745    13.786078  0.044186146   0.08420716            3 
   27000    1.2530851   -3.6505644    14.776271  0.045605772  0.083854012            2 
   28000    1.2524786   -3.6629414    15.912051  0.047357292  0.083776031            2 
   29000    1.2437595   -3.7173962     17.01614  0.048896954  0.083778323            2 
   30000    1.2442329   -3.7055856    17.978698  0.049940828  0.083793496            2 
   31000     1.238775   -3.6926524    19.016876  0.051120632   0.08383649            2 
   32000    1.2271002    -3.667998    20.373941  0.053057137   0.08410189            3 
   33000    1.2628261   -3.6759511    21.189921  0.053509902  0.084417107            1 
   34000    1.2387314   -3.7015744    22.251133  0.054537091  0.084562447            2 
   35000    1.2343146   -3.6708437    23.262862  0.055387767  0.084648859            1 
   36000    1.2451876   -3.7164661    24.235031  0.056099608  0.084686102            1 
   37000    1.2208062   -3.7065955    25.230851   0.05682624  0.084708163            3 
   38000    1.2430812   -3.7105466    26.342903  0.057769524   0.08480362            2 
   39000    1.2161743   -3.7188482     27.30897  0.058352499  0.084903519            1 
   40000    1.2338399   -3.6501366    28.495761  0.059366167  0.085016743            2 
   41000    1.2461249   -3.6814354    29.692236  0.060350072  0.085140606            2 
   42000    1.2320322   -3.7101535     30.54497  0.060605098  0.085305932            3 
   43000    1.2340948   -3.6785028     31.62254  0.061283992   0.08539142            3 
   44000     1.251591   -3.6654342    32.596107  0.061735051  0.085447279            1 
   45000    1.2596104   -3.6693715    33.599388  0.062221088  0.085447742            1 
   46000    1.2419534   -3.7053316    34.271011  0.062085163  0.085444812            2 
   47000    1.2108333   -3.6704857    35.349652  0.062676688  0.085343429            1 
   48000    1.2487968    -3.711871    36.080928  0.062640499   0.08523558            3 
   49000     1.250645    -3.701164    36.970195  0.062874481  0.085065576            2 
   50000    1.2580285   -3.6959058    38.502566  0.064170943  0.084910399            4 
   51000    1.2412665   -3.7036578    39.357422  0.064309513  0.084834118            2 
   52000    1.2501118   -3.6997105    40.593957  0.065054417  0.084782619            2 
   53000    1.2229792   -3.7335409    41.439617  0.065156629  0.084794785            3 
   54000    1.2724846   -3.7068777    42.396226  0.065426274  0.084806316            1 
   55000    1.2445549   -3.6735195    43.411643  0.065775216  0.084763611            2 
   56000     1.212594   -3.6947415    44.411006  0.066087805  0.084702565            1 
   57000    1.2496365   -3.7039109    45.527383  0.066560501  0.084639406            2 
   58000    1.2379913   -3.6874073    46.514857  0.066831691  0.084614656            2 
   59000     1.226594   -3.6776188    47.187661  0.066649238  0.084565445            2 
   60000     1.239086   -3.6720661    48.105053  0.066812573  0.084473581            3 
   61000    1.2544533    -3.680677    48.898698  0.066801499  0.084332609            1 
   62000     1.215417   -3.6873251    49.831428  0.066977726  0.084214148            2 
   63000    1.2374583   -3.7358111    51.022061  0.067489498  0.084131455            2 
   64000    1.2413716   -3.7341424    52.425653  0.068262569  0.084107353            2 
   65000    1.2366941   -3.6877411    53.396578  0.068457151  0.084102869            3 
   66000    1.2415507   -3.7008097    54.120894  0.068334461  0.084085406            2 
   67000    1.2190041   -3.6854739    55.083715  0.068512083  0.084019843            2 
   68000    1.2271259   -3.7044307    55.987672  0.068612343  0.083928973            2 
   69000    1.2308559   -3.6944553    56.733349  0.068518536  0.083827019            2 
   70000     1.266195   -3.7101321     57.31682  0.068234309  0.083718776            3 
   71000    1.2401363   -3.6932302    58.718176  0.068918047  0.083615235            3 
   72000    1.2545733    -3.684744    59.517473  0.068885963  0.083514627            2 
   73000    1.2351917   -3.7190166    60.700977  0.069293352  0.083441531            2 
   74000    1.2386225   -3.7109231     62.05376   0.06988036  0.083424134            2 
   75000    1.2208192   -3.7212229    63.104187  0.070115763  0.083408754            1 
   76000    1.2290097   -3.6927979     63.67274  0.069816601   0.08336639            2 
   77000    1.2517594   -3.6887775    64.714401   0.07003723  0.083308306            1 
   78000    1.2400559   -3.7008464    65.644544  0.070133059  0.083248489            1 
   79000    1.2314744   -3.7153189    65.974946  0.069593824  0.083166065            1 
   80000    1.2496637   -3.7076725    67.191453  0.069991096  0.083081548            3 
   81000    1.2201815    -3.706378    68.268958  0.070235553  0.082994947            2 
   82000    1.2482313   -3.7254748    69.253656  0.070379731  0.082928286            3 
   83000    1.2501587   -3.7145991    69.969345  0.070250346  0.082862936            1 
   84000    1.2166153   -3.6857491    71.039028  0.070475226  0.082792673            2 
   85000    1.2237819    -3.712148    71.818711    0.0704105  0.082737462            3 
   86000    1.2315387   -3.7049439     72.81759   0.07055968  0.082674015            3 
   87000    1.2209896   -3.7051089    74.105421  0.070982204  0.082631395            3 
   88000    1.2367628   -3.7360345    75.379574  0.071382172  0.082594989            1 
   89000    1.2522329   -3.6851232    76.438663  0.071571782  0.082577545            1 
   90000    1.2597409   -3.7239979    77.333866  0.071605431  0.082560592            2 
   91000    1.2232359   -3.7202438    77.971451  0.071402427  0.082530095            1 
   92000    1.2295745   -3.7117059    79.140728  0.071685442  0.082503697            2 
   93000    1.2569919   -3.6970697    80.105385  0.071779018  0.082474344            1 
   94000    1.2585007   -3.7213825    80.897966  0.071718055  0.082444667            2 
   95000    1.2666903   -3.7131044    82.234221  0.072135281  0.082420138            2 
   96000    1.2252674   -3.7598534    82.505843  0.071619655  0.082384646            2 
   97000    1.2504367   -3.7214648    83.751704  0.071951635   0.08235247            3 
   98000     1.214555   -3.6934476    84.956596  0.072242003  0.082331554            2 
   99000     1.213296   -3.7014739    86.111497  0.072484424  0.082318839            2 
  100000    1.2417825   -3.7085102     86.94214  0.072451783  0.082316017            2 
  101000    1.2271648   -3.6744122    88.120266   0.07270649  0.082301775            1 
  102000    1.2517098   -3.6932242    89.183348  0.072862212  0.082293134            5 
  103000    1.2225691   -3.6834073    90.832946  0.073489438   0.08229147            1 
  104000    1.2494603   -3.7133896    91.025158  0.072936825  0.082291215            1 
  105000    1.2433891   -3.7266458     91.95355  0.072979008  0.082281608            1 
  106000    1.2657803    -3.696743    93.327076  0.073370342  0.082261585            5 
  107000    1.2174398   -3.7297496     94.25361  0.073406238  0.082250368            2 
  108000    1.2205113   -3.7022081     95.23013  0.073480039  0.082243932            2 
  109000    1.2215651   -3.7077016    96.327074  0.073644552  0.082257912            2 
  110000    1.2258485    -3.685506    97.444907  0.073821899  0.082275667            3 
  111000    1.2284587   -3.6930669     98.48552  0.073938078  0.082295035            1 
  112000    1.2542877   -3.6960743    99.446816  0.073993167  0.082303052            1 
  113000    1.2286135   -3.7262809    100.42887  0.074062586  0.082304775            1 
  114000    1.2434407   -3.7194622    101.03363  0.073854993  0.082304213            4 
  115000    1.2306623    -3.697121    101.89739  0.073838688  0.082298839            3 
  116000    1.2535677    -3.728457    102.60595  0.073711171  0.082293303            2 
  117000    1.2284402   -3.6498076    103.44395  0.073678028  0.082281727            2 
  118000    1.2057276    -3.739233    104.55405  0.073837604  0.082274499            1 
  119000    1.2405961   -3.7108164    105.73661  0.074045245  0.082259205            1 
  120000    1.1956523   -3.7119117    106.49693  0.073956203  0.082254835            2 
  121000    1.2133297   -3.6953241    107.54342  0.074065718   0.08223217            2 
  122000    1.2366856    -3.694316    108.93005  0.074405774  0.082216787            2 
  123000    1.2328746   -3.7092024    109.69228  0.074317261  0.082209512            2 
  124000    1.2571358   -3.7149802    110.30853  0.074132079  0.082198753            2 
  125000    1.2435178    -3.722149    111.65839  0.074438929  0.082189203            2 
  126000    1.2395832   -3.7032129    112.97643  0.074719858  0.082177447            2 
  127000    1.2536471    -3.729512    113.18715  0.074269786  0.082158107            1 
  128000    1.2184022   -3.7005199    114.78674  0.074730952  0.082136651            2 
  129000     1.234955   -3.6795509    114.74006  0.074121485   0.08210344            1 
  130000    1.2171531   -3.7283547    114.82401  0.073605131  0.082064858            1 
  131000     1.239237   -3.7474358    116.41328  0.074054247  0.082026622            1 
  132000    1.2232478   -3.6859397    117.43284  0.074136897  0.081986142            2 
  133000    1.2085995   -3.7130682    118.48381  0.074237974  0.081942061            2 
  134000    1.2379719   -3.7316601    119.23125   0.07414879  0.081905798            1 
  135000    1.2053958   -3.7342089    120.39939  0.074320613  0.081867335            2 
  136000    1.2477991   -3.7263001    121.67466  0.074555552  0.081836981            1 
  137000    1.2088564   -3.7161217    122.64365  0.074600761  0.081813425            2 
  138000    1.2522422    -3.725068    124.25865  0.075035415  0.081798838            2 
  139000    1.2430329   -3.7461535    123.91915  0.074292058  0.081778675            3 
  140000    1.1878392   -3.7544709    125.29341  0.074579409  0.081757443            1 
  141000    1.2184915   -3.7164476    127.38497  0.075286624  0.081740341            2 
  142000    1.2037273   -3.7047142    128.26048  0.075270233  0.081727241            2 
  143000    1.2305087   -3.7176622    129.15891  0.075267428  0.081726495            1 
  144000     1.231087   -3.6770537    130.07761  0.075276395  0.081729663            2 
  145000    1.2384632   -3.7252341    131.32259  0.075472753  0.081729618            1 
  146000    1.2535898   -3.6997961    132.33383   0.07553301  0.081723522            2 
  147000    1.2208093   -3.6834727    132.71922  0.075237652  0.081719566            3 
  148000    1.2333483   -3.7127735    133.43644  0.075133132  0.081720958            1 
  149000    1.2300111   -3.7163996    134.73105  0.075352933  0.081713845            1 
  150000    1.2183253   -3.7171752    135.95653  0.075531408  0.081709802            2 
  151000    1.2289691   -3.7343829     135.9005  0.075000275  0.081703683            2 
  152000    1.2261655   -3.6881553    137.80524  0.075551116   0.08169847            2 
  153000    1.2350993   -3.7372282    138.51611  0.075444503  0.081697573            3 
  154000    1.2262466   -3.6603163    139.91684  0.075712578  0.081700179            1 
  155000    1.2273868   -3.6885251    140.12932  0.075338345  0.081691017            2 
  156000    1.2178331     -3.68719    141.66499  0.075675743  0.081680121            6 
  157000    1.2107468   -3.7307374    142.27733   0.07551875  0.081667886            1 
  158000    1.2266742   -3.6795933    143.24547  0.075551409  0.081659358            3 
  159000    1.2471447   -3.7172236    144.31463  0.075636597  0.081645469            1 
  160000    1.2570617   -3.7015468    145.08683  0.075566056  0.081634856            1 
  161000    1.2118228   -3.7834231     145.4095  0.075263716  0.081620199            1 
  162000    1.2287194   -3.7049259    146.94814  0.075590606  0.081605924            2 
  163000    1.2175601    -3.676819    147.91472  0.075621022  0.081588897            3 
  164000    1.2499742   -3.7402181    147.96777  0.075186873   0.08156259            2 
  165000    1.2401797   -3.7125305    149.28653  0.075397238  0.081532867            3 
  166000    1.2111196   -3.7321715    149.69022  0.075145693   0.08150111            2 
  167000    1.2209265   -3.7306975    150.71434  0.075206756  0.081470581            2 
  168000    1.2611171   -3.7322526    151.66704  0.075231667  0.081444595            2 
  169000    1.1963815    -3.692335     152.9262  0.075407398  0.081417849            4 
  170000    1.2121353   -3.6826512    154.16808   0.07557259  0.081396768            2 
  171000    1.2175382   -3.7173249    155.62211  0.075839233  0.081382458            1 
  172000    1.2311153   -3.6821873    156.65599  0.075899219  0.081369359            4 
  173000    1.2295359   -3.7065405     157.5204  0.075876878  0.081357618            2 
  174000    1.1994085   -3.7315161    157.90632  0.075625633  0.081340177            2 
  175000    1.2354411    -3.733265    160.48642  0.076422103  0.081325887            1 
  176000    1.1999436   -3.7185595    160.52272  0.076005077  0.081315165            3 
  177000    1.2259782   -3.7035161    161.64092  0.076102127   0.08130922            2 
  178000    1.2185537   -3.7085397    163.23287  0.076419881  0.081305713            2 
  179000    1.2264822   -3.7228518    163.49068  0.076112979   0.08130068            4 
  180000    1.2097203   -3.7323147    164.95953  0.076370152  0.081301833            2 
  181000    1.2277427   -3.7444939    164.93561  0.075937203   0.08129305            3 
  182000    1.2289602   -3.7149589    165.21703  0.075648823  0.081284146            4 
  183000    1.2310104   -3.7454352    167.03293  0.076062353  0.081276667            2 
  184000    1.2257403   -3.7386142    167.75636  0.075976612   0.08126808            2 
  185000    1.2064101    -3.721842    169.83377  0.076501699  0.081258482            2 
  186000    1.1928898   -3.7230995    170.54508  0.076409084  0.081255629            2 
  187000    1.2421252   -3.7267851    171.53109   0.07643988  0.081245802            1 
  188000    1.2120751    -3.710237    171.54133  0.076037825  0.081236268            2 
  189000    1.2449416   -3.7486909    172.80428  0.076192365  0.081219128            1 
  190000    1.2072352   -3.7211492    173.49212  0.076093035  0.081205891            1 
  191000    1.2205659   -3.7344335    174.52945  0.076147228  0.081199125            1 
  192000    1.2341763   -3.7146681    175.66846  0.076244993  0.081190605            3 
  193000      1.24372   -3.7350679    176.84158  0.076356468  0.081176316            3 
  194000     1.262229   -3.7101737     177.3992  0.076202406  0.081155992            3 
  195000    1.2096095   -3.7055334    178.44282  0.076257614  0.081135368            1 
  196000    1.2098408   -3.7178364    178.76914  0.076007288  0.081116619            1 
  197000    1.2142475   -3.7168967    179.43323  0.075902383  0.081097303            2 
  198000    1.2464656   -3.7615863    180.03082  0.075770548  0.081075536            3 
  199000    1.2337117   -3.7267629    181.25633  0.075902984  0.081046748            1 
  200000    1.2302827   -3.7002309    182.41564  0.076006516  0.081014511            1 
  201000    1.2145639   -3.7367036    182.74405  0.075764532  0.080979359            1 
  202000    1.2245374   -3.7502588    183.39274  0.075657071   0.08094027            3 
  203000    1.2268169   -3.7340706    184.82086  0.075870631  0.080905761            3 
  204000    1.2226501   -3.7333863    184.35222  0.075307279  0.080873341            1 
  205000    1.2244923   -3.7645763    186.05463  0.075631961  0.080841188            2 
  206000    1.2362415   -3.7246772     186.6134  0.075490857  0.080814896            2 
  207000    1.2044073   -3.7389955    188.94107  0.076063234  0.080784355            1 
  208000    1.2134651   -3.7187371    189.35568  0.075863652  0.080757672            2 
  209000    1.2306063   -3.7045778    191.03721  0.076171135  0.080733324            1 
  210000     1.207199   -3.7169213    191.86626  0.076137404  0.080714045            1 
  211000    1.2057667   -3.7332246    192.00806  0.075832567  0.080697878            1 
  212000    1.2251658   -3.7376805    192.37352  0.075618521  0.080671729            1 
  213000    1.1843803   -3.7015509    193.95186   0.07588101  0.080649108            2 
  214000    1.2105795   -3.7354893    195.41108  0.076094656  0.080625725            2 
  215000     1.213051   -3.7457002    194.93103  0.075554662  0.080602319            2 
  216000    1.2052788   -3.7448463    197.14518  0.076059096  0.080578666            2 
  217000    1.2282588   -3.7315393    196.97331  0.075642593  0.080555753            2 
  218000    1.2132521   -3.7339493    198.60548  0.075919525  0.080530435            2 
  219000    1.2214225    -3.733682     199.2144  0.075804566   0.08050545            1 
  220000    1.2469718   -3.7043122    200.66078  0.076007871  0.080482487       -1e+20 
  221000    1.2124345    -3.705356    200.69601   0.07567723  0.080457199            4 
  222000    1.2214138   -3.7453117    201.81421  0.075756086  0.080429383            2 
  223000    1.1994823   -3.7131489    203.06685  0.075884475  0.080400954            3 
  224000      1.21665    -3.728788    203.29374  0.075630113  0.080374195            1 
  225000    1.1969338   -3.7617132    204.81432  0.075857156  0.080346901            2 
  226000    1.2606742   -3.7326563    205.57774  0.075803003  0.080319555            1 
  227000    1.2062875   -3.7451479    206.35679  0.075755062  0.080292628            3 
  228000    1.2085267    -3.736545    208.03752  0.076037106  0.080271173            2 
  229000      1.22361   -3.7356571    209.73957  0.076324444  0.080253415            2 
  230000    1.2218054   -3.7401214    209.79011  0.076010908   0.08023912            3 
  231000    1.2158457   -3.7150616    211.55585  0.076318849  0.080223447            2 
  232000    1.1958074   -3.7116095     212.3001   0.07625722  0.080211595            2 
  233000    1.2270465   -3.6958102     214.4143  0.076686086  0.080203366            2 
  234000    1.2061769    -3.744857    214.47672  0.076380598  0.080198545            3 
  235000    1.2109089   -3.7083443     215.0358  0.076253829  0.080191098            3 
  236000    1.2215592   -3.7584861    216.07197    0.0762966  0.080181231            3 
  237000    1.2420692   -3.7117181    217.39521  0.076439948  0.080168335            2 
  238000    1.2202862   -3.7320884    218.26416  0.076423027  0.080155547            1 
  239000     1.202934   -3.7227084    220.82449  0.076995986  0.080145442            3 
  240000     1.203397    -3.743484     220.1668  0.076446805  0.080132719            1 
  241000    1.2067238   -3.7223145    221.12577  0.076461192  0.080120726            2 
  242000    1.2101412    -3.740734    221.13635   0.07614888  0.080106334            1 
  243000    1.2142792   -3.7959873    222.70161  0.076372293  0.080092068            3 
  244000    1.2129844   -3.7756738    222.42948  0.075966353   0.08008099            3 
  245000      1.22512   -3.7247823    225.10357  0.076565841  0.080069856            1 
  246000    1.2014696   -3.7556948    225.11718  0.076259208  0.080061789            1 
  247000    1.2251612   -3.7765801    225.99297  0.076245942  0.080053361            2 
  248000     1.222572   -3.7564741    226.50567  0.076110778  0.080041017            2 
  249000    1.2034886   -3.7439845    228.92724  0.076615542  0.080030644            2 
  250000    1.2162858   -3.7520716    229.83332  0.076611107  0.080023268            3 
  251000    1.2150373   -3.7204356    231.66684  0.076914622    0.0800235            3 
  252000     1.178711    -3.731692    232.78775  0.076980076  0.080026178            2 
  253000    1.1989718   -3.7349002    233.91887  0.077048377  0.080025358            1 
  254000    1.1942414   -3.7244616    234.18865  0.076833546  0.080025083            6 
  255000    1.2158894   -3.7426313    234.49553  0.076632525  0.080022163            1 
  256000    1.2231803   -3.7033489    236.84837  0.077099079    0.0800237            2 
  257000    1.2203632     -3.75655    237.33871  0.076958077  0.080023256            5 
  258000    1.2088232   -3.7360965    238.26805  0.076959966  0.080018406            1 
  259000    1.1970236   -3.7792394    238.67932  0.076795146  0.080015689            2 
  260000    1.2062346   -3.7348616    240.01867  0.076929059  0.080015989            2 
  261000    1.2128421   -3.7455678    239.41493   0.07644155  0.080009648            2 
  262000    1.1968793   -3.7700866    240.78982  0.076587092  0.080003588            2 
  263000    1.2131194   -3.7410777    241.59474  0.076550932  0.079998028            2 
  264000    1.1764183   -3.7221504    243.73546  0.076936698  0.079994716            2 
  265000    1.2109373   -3.7345799    244.36596   0.07684464  0.079994367            4 
  266000    1.2070763   -3.7432769    245.26034  0.076835945  0.079992429            3 
  267000    1.2197237   -3.7483383    245.73175  0.076695303  0.079983846            3 
  268000    1.2242483   -3.7619428    246.36456  0.076605894  0.079969811            2 
  269000    1.1816108   -3.7313923    247.14659  0.076563379  0.079956953            1 
  270000    1.2000179    -3.717527    248.50451  0.076698921  0.079944617            4 
  271000    1.2020104   -3.7484366    248.45519  0.076400735  0.079930214            5 
  272000    1.1990408   -3.7482009    249.70344   0.07650228   0.07991349            4 
  273000    1.1836494   -3.7360442    250.86666  0.076577124  0.079903064            2 
  274000    1.2208632   -3.7470273    251.81078  0.076584788  0.079890418            3 
  275000    1.2517207   -3.7391556    253.75225  0.076894622  0.079879509            1 
  276000    1.2234529   -3.7357993    254.97046  0.076983834  0.079869396            3 
  277000    1.2149451    -3.728643    255.96368  0.077004717  0.079864629            2 
  278000    1.2288696   -3.7178065    256.81177  0.076981946  0.079859004            2 
  279000    1.2086792   -3.7086614    258.28654  0.077146516  0.079859421            2 
  280000    1.2025807   -3.7251345    259.78252  0.077316227     0.079862            1 
  281000     1.208122   -3.7499624    259.65984  0.077004697  0.079860811            2 
  282000    1.1979151   -3.7501209    260.94039  0.077110044  0.079857777            3 
  283000    1.2300609   -3.7397476    261.26651  0.076933602  0.079855489            1 
  284000    1.2176666   -3.7569558    262.33349  0.076975789  0.079854893            1 
  285000    1.1953974    -3.761408    263.93714  0.077174603  0.079850797            2 
  286000    1.2182705   -3.6870763    266.06943  0.077526058  0.079853433            1 
  287000    1.2109349   -3.7737898    266.23665  0.077304487  0.079852952            4 
  288000    1.1803526   -3.7443138     268.1833  0.077599335  0.079853942            2 
  289000    1.2160317   -3.7424353    268.27805  0.077358146  0.079857508            1 
  290000    1.2007852   -3.7589715    268.91632  0.077274805  0.079862809            1 
  291000    1.2219509    -3.722154    269.92964   0.07729944  0.079868723            1 
  292000    1.2018807   -3.7348673    272.46741  0.077758965  0.079877913            2 
  293000    1.2058393   -3.7524668    272.42455  0.077481385  0.079887199            4 
  294000    1.1985998   -3.7486891    273.80631  0.077609499  0.079894105            2 
  295000    1.1914236    -3.743255    275.20723  0.077742154  0.079900755            3 
  296000    1.1877593   -3.7652822    273.96454  0.077129658  0.079908693            2 
  297000    1.2092666   -3.7649926    276.90296  0.077694433  0.079914049            7 
  298000    1.1984673   -3.7448018    279.47247  0.078152257  0.079920179            4 
  299000    1.1955765   -3.7469977    279.69215  0.077952104  0.079928877            2 
  300000     1.222191   -3.7538119    279.61394  0.077670538  0.079941532            1 
  301000    1.2090629   -3.7449347    281.05652  0.077811883  0.079955786            2 
  302000     1.191733     -3.76374    282.51295  0.077956111  0.079967297            4 
  303000    1.2215326   -3.7629916    282.54913  0.077708782  0.079977457            2 
  304000    1.2366121   -3.7558026    284.55641  0.078003401  0.079987149            1 
  305000    1.2286007   -3.7651436    284.77939  0.077808576  0.080000544            3 
  306000    1.1852664    -3.752734    287.43433  0.078277323  0.080014334            1 
  307000    1.2211316   -3.7171677    288.00628    0.0781776  0.080027563            3 
  308000    1.2146627   -3.7489164    288.22035  0.077981697  0.080039707            2 
  309000    1.2169514   -3.7321474    288.12805  0.077704435  0.080054065            3 
  310000    1.1799211   -3.7426751    289.91021  0.077932851  0.080067619            1 
  311000     1.209458   -3.7420359    292.05397  0.078256691   0.08008171            3 
  312000    1.2030286   -3.7652776    292.56419  0.078142146  0.080094567            2 
  313000    1.1884723   -3.7598302    293.11213  0.078038373  0.080110091            2 
  314000    1.2346024   -3.7261624     294.9599  0.078280228  0.080127193            2 
  315000    1.2146891   -3.7342378    296.22837  0.078367294  0.080145237            2 
  316000    1.2227087   -3.6961944    297.77643  0.078527541  0.080160697            1 
  317000    1.1856935   -3.7855673    297.58631   0.07822984   0.08017117            1 
  318000    1.1971298   -3.7631368    298.41417  0.078200778  0.080183274            2 
  319000    1.2237113   -3.7299442    300.74522  0.078564582  0.080195923            1 
  320000    1.2010836    -3.776654    299.46637  0.077986034  0.080209039            2 
  321000    1.2012378   -3.7589649    301.62705  0.078304011  0.080221098            3 
  322000    1.2065491   -3.7628986     302.0793  0.078177872  0.080229768            2 
  323000    1.2217951   -3.7657849    301.40163  0.077760998  0.080238108            2 
  324000    1.1926464   -3.7601287    303.55757  0.078075507  0.080248199            5 
  325000    1.2152739   -3.7448481      304.616  0.078106667  0.080255283            1 
  326000    1.1927957   -3.7627344    304.28272  0.077781881  0.080262399            3 
  327000    1.1797185   -3.7551967    305.15903  0.077767336  0.080265818            2 
  328000    1.1826628   -3.7199119    307.29855  0.078073818  0.080268602            4 
  329000    1.2025327   -3.7746913    305.49174   0.07737886  0.080270037            3 
  330000    1.1777103   -3.7701746    307.21363  0.077579199  0.080269377            4 
  331000    1.1903688   -3.7527666    308.63203  0.077701921  0.080268328            4 
  332000    1.1934333   -3.7592083     309.3679  0.077652586  0.080266191            3 
  333000    1.2111132   -3.7469373    310.20019  0.077627676  0.080263499            2 
  334000    1.1927693   -3.7527485    309.97693  0.077339554   0.08025966            2 
  335000    1.2121715   -3.7694545    312.68181  0.077781544  0.080256387            2 
  336000     1.210777   -3.7479391    313.46882  0.077745242  0.080254486            2 
  337000    1.2162714   -3.7407083    314.67076   0.07781176  0.080250056            1 
  338000     1.188012    -3.729108    315.50998  0.077788456  0.080247602            3 
  339000    1.2013844   -3.7522673    314.97907  0.077428483  0.080242788            5 
  340000    1.2270217   -3.7679728    316.14649  0.077486885   0.08023534            1 
  341000    1.2079304    -3.754889    317.25869  0.077531448  0.080226223            2 
  342000    1.2228578   -3.7493407    316.63342  0.077152393  0.080215957            1 
  343000    1.1662825   -3.7936187    317.14684  0.077052197  0.080206108            2 
  344000    1.1862457   -3.7476644    319.59085  0.077420265  0.080196576            2 
  345000    1.2115822    -3.781204    318.64508   0.07696741  0.080186659            1 
  346000      1.16179   -3.7679554    320.78543  0.077260461  0.080176332            1 
  347000    1.2121027   -3.7807298     321.6478  0.077244908  0.080165986            3 
  348000    1.1877713   -3.7559025    324.08785  0.077607244  0.080157526            1 
  349000    1.1984232   -3.7345063    323.96909  0.077356517  0.080149437            3 
  350000     1.205604    -3.796911    325.28739  0.077449378  0.080142661            2 
  351000    1.2058247    -3.727138     326.5031  0.077517356  0.080136144            2 
  352000    1.1685242   -3.7551616    325.72904  0.077113883  0.080128932            3 
  353000    1.2005775   -3.7622623    328.12008  0.077459885  0.080120668            1 
  354000    1.2087752   -3.7376659    329.54258  0.077575937  0.080113169            1 
  355000    1.1979436   -3.7655239    330.47236  0.077575671  0.080107353            2 
  356000    1.2201045   -3.7677371    329.99066  0.077245005  0.080102283            4 
  357000    1.1812773   -3.7442078    332.13049  0.077528126  0.080095867            2 
  358000    1.1844015   -3.7714216    334.18805  0.077790513  0.080090235            2 
  359000     1.201816    -3.750979    335.99303   0.07799281  0.080087899            3 
  360000    1.1965156   -3.7791376    334.76631  0.077492201  0.080086495            1 
  361000    1.1778456   -3.8107119    333.50435  0.076986231  0.080082553            1 
  362000    1.1864382   -3.7748665     337.4203  0.077675023  0.080079159            2 
  363000    1.2077178   -3.7772303    339.07076  0.077839936   0.08007529            4 
  364000    1.1910394   -3.7293208    340.17885  0.077879774    0.0800728            1 
  365000    1.1952054   -3.7456295    340.14371  0.077658382  0.080071949            1 
  366000    1.1890465   -3.7522206    340.31905  0.077486122  0.080070123            2 
  367000    1.1701348   -3.7746321    342.23301  0.077709585  0.080063798            1 
  368000    1.2064867   -3.7613145    342.23175  0.077498132  0.080059311            2 
  369000     1.213679    -3.775136    343.20236  0.077507307  0.080055032            3 
  370000    1.1947786   -3.7744022    343.85513  0.077444849  0.080048071            1 
  371000     1.202755   -3.7683097    344.13197  0.077298285  0.080042627            2 
  372000    1.2027525    -3.787808    346.63301  0.077650763  0.080035048            3 
  373000    1.2271537   -3.7682238    345.52185  0.077194337  0.080027807            1 
  374000    1.1816204    -3.796391    347.26344  0.077375989  0.080018706            8 
  375000    1.1785451   -3.7751491    349.40026  0.077644503   0.08001458            1 
  376000    1.2112262    -3.791247    349.69261  0.077502794  0.080009672            1 
  377000    1.2149907     -3.76858    350.97111  0.077579822  0.080003712            2 
  378000    1.1987489   -3.7834747    350.90044  0.077359003  0.079995217            2 
  379000    1.1680397   -3.7756139    353.43227  0.077711582  0.079990527            4 
  380000     1.166817   -3.7404546    355.67907  0.077999796  0.079986239            2 
  381000    1.1793662   -3.7784408    355.31898  0.077716311  0.079981732            3 
  382000     1.172635   -3.7845386    356.80594  0.077837247   0.07997871            5 
  383000    1.1975696   -3.7745345    355.55886  0.077362677  0.079974699            3 
  384000    1.1559066   -3.7699645    358.26424  0.077748317  0.079969927            1 
  385000    1.1721481   -3.7961333    357.70822  0.077426022  0.079964797            3 
  386000    1.1634657   -3.7224009    359.71469  0.077658611  0.079957813            3 
  387000     1.189644   -3.7777944    358.95788  0.077294979  0.079949489            2 
  388000    1.2216792   -3.7748021    360.67331  0.077464198  0.079939178            1 
  389000     1.143873   -3.7577066    360.79753  0.077291673  0.079931313            4 
  390000     1.173792     -3.79038    362.30812  0.077416264  0.079924296            1 
  391000    1.2068577   -3.7705876    362.33026  0.077222987  0.079916974            3 
  392000    1.1977653   -3.7991008    364.83723  0.077558935  0.079910284            2 
  393000    1.1709686   -3.7654518    365.04132  0.077404861  0.079902582            2 
  394000    1.1574264   -3.7684881    366.36385  0.077488123  0.079895906            6 
  395000    1.1671971   -3.7790925     368.2271  0.077685043  0.079890205            1 
  396000    1.1815718   -3.7727899    369.43981  0.077744069  0.079882207            3 
  397000    1.2041687    -3.768504    369.01785  0.077459665  0.079874384            3 
  398000    1.1964848    -3.734007    370.12543  0.077496949  0.079867287            1 
  399000    1.1865797   -3.7926941     369.3235  0.077135235  0.079859399            2 
  400000    1.1635793   -3.7586802    371.86242  0.077471337  0.079850619            3 
  401000    1.1834055   -3.7837885    371.57008  0.077217391  0.079844541            1 
  402000    1.1909193   -3.7760558    375.13412  0.077764121  0.079838718            3 
  403000     1.189159   -3.7746949    375.83278  0.077715629  0.079835165            2 
  404000    1.1929265   -3.7925433    376.73073  0.077708485  0.079830484            3 
  405000    1.1647505   -3.7966836      376.026  0.077371605  0.079824025            1 
  406000    1.2153624   -3.7849666    378.29315  0.077646378  0.079819412            1 
  407000    1.1789867   -3.7902564    379.40186  0.077682609  0.079813252            1 
  408000     1.212218   -3.7555485    381.00547  0.077819744  0.079810262            3 
  409000    1.2052627   -3.7838152     380.1167  0.077448391  0.079806735            2 
  410000    1.1796572   -3.7679654     380.0498  0.077245894  0.079800651            2 
  411000    1.1830815   -3.8031958    381.89479  0.077432034  0.079794922            2 
  412000    1.1972719   -3.7966401     383.3749  0.077543467  0.079788154            4 
  413000    1.1867732   -3.7635223    382.96139  0.077272273  0.079781203            2 
  414000    1.1870894   -3.8000182    384.13433  0.077321724  0.079773626            2 
  415000    1.2087082   -3.7389149    386.85929  0.077682588  0.079766257            1 
  416000    1.1894004   -3.7918916    386.17516  0.077358805  0.079757841            3 
  417000    1.1980045   -3.8202755     387.2272  0.077383533  0.079750865            2 
  418000    1.1500028   -3.8194937    387.66931  0.077286545  0.079742262            5 
  419000    1.1905454   -3.7369809    390.55497  0.077676007  0.079735955            2 
  420000    1.1835682   -3.7807247    389.95403  0.077371831  0.079731597            1 
  421000    1.1774739   -3.7620648    390.24814  0.077246268   0.07972423            1 
  422000    1.1962588   -3.7886358    391.85068  0.077379676  0.079715545            1 
  423000    1.1954354   -3.7865767    392.30564  0.077286376  0.079706562            1 
  424000    1.2096495   -3.8006664    393.69429  0.077377023  0.079699082            2 
  425000    1.1476567   -3.7724686    395.65729   0.07757986  0.079691562            3 
  426000     1.190334    -3.742017    397.38597  0.077735909  0.079685146            1 
  427000    1.1913082   -3.7709451    396.82975  0.077445306  0.079679027            3 
  428000    1.1758385    -3.806996    397.87113   0.07746712  0.079672597            4 
  429000    1.1829031   -3.7742339    397.67093  0.077247655  0.079664632            1 
  430000    1.1689507   -3.7529002    399.65684  0.077452875  0.079657774            3 
  431000    1.1700271   -3.7914051     401.5681   0.07764271  0.079652141            2 
  432000    1.1766329   -3.7456544     402.4746  0.077637846  0.079645569            1 
  433000    1.2026344   -3.7569923    401.63811  0.077297557  0.079640763            3 
  434000    1.1593328   -3.8079949     402.3291  0.077252131  0.079633857            2 
  435000    1.1762574   -3.7861935    400.31617  0.076688921  0.079624775            1 
  436000    1.1981248   -3.7739723      404.767  0.077363723  0.079614658            2 
  437000    1.1761843   -3.7885377    406.43879   0.07750549  0.079606003            2 
  438000    1.1816513   -3.7628118    407.66839  0.077562479  0.079598153            2 
  439000    1.1969475   -3.7603551    406.92428  0.077244549  0.079590771            2 
  440000    1.1914954   -3.7882113    407.41294  0.077161542  0.079582268            1 
  441000    1.1879246   -3.7855509     409.4557   0.07737258  0.079572838            2 
  442000    1.1708156   -3.7945094    408.35817  0.076990605  0.079562674            1 
  443000    1.1622623   -3.7760979    410.74254  0.077265338  0.079553058            3 
  444000    1.1712505   -3.8308255     410.8663  0.077114546  0.079543314            1 
  445000    1.1707146   -3.7963597    414.39331  0.077601744  0.079534809            1 
  446000    1.1372647   -3.7903119    414.65552  0.077476741  0.079528857            4 
  447000    1.1696761   -3.8025433    414.18514  0.077215723  0.079522279            2 
  448000     1.185949   -3.7928423    416.25787  0.077428919  0.079515138            1 
  449000    1.1788819    -3.797251    417.73699  0.077530993  0.079505942            2 
  450000    1.1639794   -3.8008299    417.47066  0.077309381  0.079496395            2 
  451000    1.1544907   -3.7948561    417.81522   0.07720163  0.079489372            2 
  452000    1.1851921      -3.7507    419.63312  0.077365987  0.079481843            2 
  453000    1.1608577   -3.7586806     421.2628  0.077494995  0.079473266            1 
  454000    1.1717825   -3.7710853    423.16665  0.077673762  0.079465228            2 
  455000    1.1713663   -3.7880363    423.06092  0.077483685  0.079457927            1 
  456000    1.1689389   -3.8204678    422.85206  0.077275595  0.079449942            3 
  457000    1.1809772   -3.8129476    423.31214  0.077190398  0.079442283            6 
  458000    1.1716146   -3.7859846     426.0155  0.077513737  0.079434225            4 
  459000    1.1494349   -3.7802441    424.47698  0.077065537   0.07942697            2 
  460000    1.1935869   -3.7455588    427.97477  0.077531662   0.07942058            2 
  461000    1.1719434   -3.7869016    428.88725  0.077528426  0.079412582            1 
  462000    1.1782717   -3.8177997    428.37771  0.077268706  0.079405346            2 
  463000    1.1711085   -3.7966556    426.08331   0.07668886  0.079395069            3 
  464000    1.1899914   -3.8143707    429.12025   0.07706901  0.079384818            2 
  465000    1.2020515   -3.7868171    429.28369  0.076932562  0.079373283            1 
  466000     1.202144   -3.8229224    430.76006  0.077031484  0.079362028            5 
  467000    1.1562135   -3.7866015    430.91376  0.076893962  0.079347072            3 
  468000    1.1844975   -3.7771846    433.31297  0.077156868  0.079334718            3 
  469000    1.1739324   -3.7793866    432.08575  0.076774299   0.07932066            3 
  470000    1.2243504   -3.7859016    432.60698  0.076703366   0.07930651            1 
  471000    1.1691631   -3.7752409    433.33036    0.0766685  0.079292278            1 
  472000    1.1710107   -3.7584682    435.34564  0.076861872  0.079278198            3 
  473000    1.1512453   -3.7970903      436.665  0.076931819  0.079263444            3 
  474000    1.1796899   -3.7788471    435.71925  0.076603244  0.079247932            3 
  475000    1.1848201   -3.8020888    436.99481  0.076665755  0.079232944            4 
  476000    1.1844768   -3.8079621    437.07196  0.076518201   0.07921629            1 
  477000    1.1826805   -3.8002597    438.24736  0.076563131  0.079201277            1 
  478000    1.1958485   -3.8097557    440.67526  0.076826231  0.079188215            3 
  479000    1.1931214   -3.7717031    442.62142  0.077004423  0.079173977            2 
  480000    1.1572955   -3.7637798    443.83708  0.077055048  0.079160622            1 
  481000    1.1534045   -3.8229448    442.17769  0.076607361  0.079147828            2 
  482000    1.1672876   -3.7845357    443.23332  0.076630933  0.079134994            3 
  483000    1.1511662   -3.8042896    444.14693  0.076629905  0.079120624            3 
  484000    1.1655494     -3.76332    447.47948  0.077045365  0.079108166            2 
  485000    1.1722959   -3.7955124    447.73881  0.076931068  0.079098026            1 
  486000    1.1874113   -3.7924593    449.16479  0.077017282  0.079085871            3 
  487000     1.177709   -3.8128293    447.65031  0.076599985  0.079072304            5 
  488000    1.1710325   -3.7780635     448.8968  0.076655874  0.079059853            1 
  489000    1.1609123   -3.8167854    451.49957  0.076942667  0.079049036            1 
  490000    1.1688368   -3.7854843    453.84109  0.077183859  0.079038558            3 
  491000     1.180251   -3.7762125     454.7085   0.07717388  0.079028962            1 
  492000    1.1740244   -3.8291325    454.63109   0.07700391  0.079020122            1 
  493000    1.1952709   -3.8362664    455.22248  0.076947681  0.079011617            3 
  494000    1.1729174   -3.8029835    455.94391  0.076913615  0.079002106            1 
  495000    1.1645341   -3.7610133    458.68719  0.077220066  0.078991146            2 
  496000    1.1754396   -3.7811102    458.08125  0.076962575  0.078981826            3 
  497000    1.1861856   -3.7414328    459.57204  0.077057686   0.07897285            1 
  498000    1.1537171    -3.779599    459.07714  0.076820138  0.078961794            2 
  499000    1.1535941   -3.7851605    461.21683  0.077023518  0.078951736            1 
  500000    1.1697075    -3.806353    461.20915  0.076868192   0.07894032            2 
  501000    1.1950307   -3.8111287    461.94146   0.07683657  0.078928129            1 
  502000    1.1619516   -3.7950694    462.18904  0.076724608  0.078915281            5 
  503000    1.1750389   -3.7719896    462.78402  0.076670647  0.078902751            1 
  504000    1.1318266   -3.8077677    463.82633  0.076690861  0.078891451            6 
  505000    1.1758966   -3.8196859    465.24834  0.076773654  0.078879655            2 
  506000    1.1556572   -3.7774944    466.58263  0.076841672  0.078867264            3 
  507000    1.1827949   -3.8248494    467.02333  0.076762546  0.078857567            1 
  508000    1.1665479   -3.8185784    467.44349  0.076680362  0.078846166            1 
  509000    1.1559106   -3.8139145    468.55439   0.07671159  0.078835059            3 
  510000    1.1665778    -3.777133    471.37556   0.07702215  0.078825642            3 
  511000    1.1769031   -3.8111689     470.6344  0.076750554  0.078816409            1 
  512000    1.1694551   -3.8086318    472.20314  0.076855979  0.078807034            1 
  513000    1.1842477   -3.8315107    471.59446  0.076607287  0.078796702            3 
  514000    1.1811066   -3.8081441    474.98913  0.077008615  0.078785991            2 
  515000     1.176583   -3.7828567    474.73622  0.076818159  0.078775173            2 
  516000    1.1609597   -3.8044088    475.32379  0.076764179  0.078764545            1 
  517000     1.176621   -3.8304088    475.94778  0.076716276  0.078754295            1 
  518000    1.1630567    -3.832242    475.22492  0.076451886  0.078742372            3 
  519000    1.1597083   -3.8153906    477.00824  0.076590919  0.078731618            1 
  520000    1.1977713   -3.8220028    476.91217  0.076428232  0.078720481            1 
  521000    1.1740287   -3.8052551    479.02738  0.076619863  0.078709871            2 
  522000    1.1848527   -3.8269394    482.75065  0.077067474  0.078700351            3 
  523000    1.1659788   -3.8145202    481.11998   0.07666029  0.078690808            3 
  524000    1.1504059   -3.8158193    482.44139  0.076724139  0.078681719            2 
  525000    1.2001078   -3.8079062    486.09469  0.077157887  0.078673455            1 
  526000    1.1655907   -3.8408876    485.28072  0.076882244  0.078666752            5 
  527000    1.1525607   -3.7999429    487.56519  0.077097594  0.078660778            1 
  528000    1.1717019   -3.7731379    487.62226  0.076960584  0.078655975            1 
  529000    1.1569678   -3.8237054     487.8189  0.076846078  0.078651522            2 
  530000    1.1310116   -3.8195394    490.66042  0.077147865  0.078645699            5 
  531000    1.1662622   -3.8234844    494.20685  0.077559142   0.07864116            3 
  532000    1.1708538   -3.7920103    493.89847  0.077365048  0.078638549            4 
  533000    1.1789711   -3.8178576    494.07879  0.077248091  0.078635245            4 
  534000    1.1744149   -3.8316851      496.103   0.07741932   0.07863447            4 
  535000    1.1676421     -3.81057    496.76887  0.077378328  0.078633804            9 
  536000    1.1645339   -3.7803004    499.04602  0.077588001  0.078632467            3 
  537000    1.1721181   -3.8032047    499.53176  0.077518895  0.078630982            2 
  538000     1.157447   -3.7689201    502.91802  0.077899322  0.078631893            2 
  539000    1.1429074   -3.7933283    502.88569  0.077749798  0.078632346            5 
  540000    1.1648071   -3.8052053    504.14068  0.077799488  0.078631084            2 
  541000    1.1743138   -3.7816812    504.68031  0.077738803  0.078631492            1 
  542000    1.1491292   -3.7866295    504.90648  0.077630148  0.078630051            2 
  543000    1.1687371   -3.7997828    505.23268  0.077537243   0.07863019            2 
  544000    1.1727565   -3.7918174    507.12576  0.077684706  0.078628931            1 
  545000    1.1493089   -3.7984068    506.87375  0.077503632  0.078626843            1 
  546000    1.1750591   -3.7893559    504.60263  0.077015053  0.078624603            2 
  547000    1.1890575   -3.7666866    507.03248  0.077244436  0.078622037            3 
  548000    1.1565531   -3.8383588    508.40532  0.077312244  0.078618943            1 
  549000    1.2015051   -3.8372936    508.86462  0.077241138  0.078615891            3 
  550000    1.1651127    -3.818532     510.4265  0.077337349  0.078613571            2 
  551000    1.1354729    -3.783996    512.91288   0.07757303  0.078611627            2 
  552000    1.1423885   -3.8234219    513.31931  0.077493858  0.078611211            2 
  553000    1.1590754    -3.833861    514.68393  0.077559362  0.078609537            1 
  554000    1.1474829   -3.8022255    516.29763  0.077662099  0.078608913            1 
  555000    1.1461945    -3.801747    518.47375  0.077848911  0.078609105            1 
  556000    1.1538567   -3.7838407    517.61847  0.077580706  0.078609151            2 
  557000    1.1694055   -3.7993286    520.66559  0.077897306  0.078609062            2 
  558000    1.1808364   -3.7805723    518.47803  0.077431009  0.078609534            6 
  559000    1.1777724    -3.798427    520.61809  0.077611522  0.078610309            1 
  560000    1.1535675   -3.8111418    522.30478  0.077723926  0.078609794            1 
  561000    1.1684401   -3.8008925    522.20685  0.077570833  0.078610671            5 
  562000    1.1516066   -3.8280281     522.4181  0.077464131  0.078611168            1 
  563000    1.1617161   -3.8141008    526.33256  0.077905944  0.078611922            2 
  564000    1.1890136   -3.8181694    523.87919  0.077405318  0.078612145            2 
  565000    1.1619886   -3.8256234    527.21357  0.077760114   0.07861304            2 
  566000    1.1419843   -3.7990436     525.8296  0.077418964  0.078613334            2 
  567000    1.1468894   -3.8168326    528.52441  0.077678485   0.07861362            2 
  568000    1.1544762   -3.8525326    529.06928  0.077621667  0.078614135            2 
  569000    1.1603313   -3.7918817    531.29909  0.077811818  0.078613321            4 
  570000    1.1465174   -3.7865603    531.24532  0.077667444  0.078614332            3 
  571000    1.1570333    -3.814351    531.35585  0.077547556  0.078613622            2 
  572000    1.1482391   -3.7929027    530.76727  0.077326235  0.078612555            3 
  573000    1.1534093   -3.8078004    533.61041  0.077604772  0.078611903            4 
  574000    1.1672847   -3.8403331    532.26677  0.077274502  0.078610042            4 
  575000    1.1650606   -3.8150594     536.9374  0.077817014  0.078609568            3 
  576000    1.1862968   -3.8138433    536.12292  0.077564079  0.078608074            2 
  577000    1.1737142   -3.7763678    535.97882  0.077408842  0.078607048            2 
  578000    1.1523611   -3.8339194    536.61316  0.077366373  0.078606383            2 
  579000    1.1600479   -3.8318926    538.17497  0.077457537  0.078605653            3 
  580000    1.1390466   -3.8014636    542.87717  0.077999593  0.078605831            2 
  581000    1.1474597   -3.8283608    542.66214    0.0778345  0.078606685            1 
  582000    1.1682645   -3.8044606    543.57645   0.07783168  0.078607561            1 
  583000     1.168654   -3.7875716     542.5676  0.077553973  0.078606613            1 
  584000    1.1510663   -3.7830686    545.67936  0.077865205  0.078605642            6 
  585000    1.1606385   -3.8214326    547.05712  0.077928364  0.078605996            3 
  586000    1.1535506   -3.8313866    543.94288  0.077352515  0.078604532            1 
  587000     1.170951    -3.775287    550.07408  0.078091153  0.078604572            2 
  588000    1.1691506   -3.8241593    548.30287  0.077707323  0.078605132            3 
  589000    1.1499981   -3.8364332    548.11873   0.07754934  0.078605333            1 
  590000    1.1611162   -3.8247228    547.66414  0.077353692  0.078604798            3 
  591000    1.1648104   -3.8069377    548.78924   0.07738145  0.078602904            1 
  592000    1.1675928   -3.8375141    549.56588  0.077360062  0.078601235            2 
  593000    1.1546016   -3.8017107    553.00035  0.077712247  0.078600777            2 
  594000    1.2038494   -3.8103835    552.32687  0.077486934  0.078599258            1 
  595000     1.138039   -3.8459614    553.52323  0.077524261  0.078598033            1 
  596000    1.1453651   -3.8214035    554.35892  0.077511034  0.078596818            3 
  597000    1.1250328   -3.8403796    554.33989  0.077378543  0.078595329            2 
  598000     1.140485    -3.779707    558.14053  0.077778781  0.078593823            2 
  599000    1.1411684   -3.7955704    556.67686  0.077445306  0.078593132            2 
  600000    1.2043317    -3.816377    558.82139  0.077614081  0.078591107            4 
  601000    1.1553355   -3.8184962    559.22048  0.077540277  0.078590474            2 
  602000    1.1303777   -3.8409417     560.6161  0.077604665     0.078589            3 
  603000    1.1433353   -3.8575898    560.61371  0.077475637  0.078587696            3 
  604000    1.1536593   -3.7966872    562.32862  0.077583971  0.078586316            8 
  605000    1.1631791   -3.8667109    563.38214  0.077600845  0.078585031            2 
  606000     1.136387   -3.8185691    564.31832  0.077601529  0.078584715            2 
  607000    1.1544894   -3.8274178    566.55674  0.077780991  0.078583791            4 
  608000    1.1557836   -3.8243098     564.4803  0.077368462  0.078582063            1 
  609000    1.1405514   -3.8130917    568.00183  0.077723294  0.078581537            2 
  610000    1.1208197   -3.8191546     566.3527  0.077370588  0.078579029            3 
  611000    1.1448631   -3.8156663    567.86817   0.07745065  0.078577404            3 
  612000    1.1500715   -3.8301017    569.50719  0.077547276  0.078574154            3 
  613000    1.1358374   -3.7980711    569.53591  0.077424676  0.078571562            1 
  614000    1.1290068   -3.8073304    568.82361  0.077201901  0.078567419            1 
  615000    1.1906113   -3.8340673     570.9368   0.07736271  0.078563486            2 
  616000    1.1513857   -3.8315364    572.75121  0.077482577  0.078558857            1 
  617000    1.1345348   -3.8245644    574.07671  0.077536022  0.078556142            1 
  618000     1.146227   -3.8222693    574.38137  0.077451641  0.078552545            1 
  619000    1.1442172   -3.8528724    570.88485  0.076855795  0.078548523            2 
  620000    1.1548543   -3.8138275    574.02287  0.077153612  0.078545691            2 
  621000    1.1402838   -3.8502586    577.66096  0.077517574  0.078541058            6 
  622000    1.1573488   -3.7927309     578.7798  0.077542846  0.078536471            2 
  623000    1.1492008   -3.7560034    579.52753  0.077518396  0.078532823            1 
  624000    1.1536082   -3.8144826    579.39618  0.077376626  0.078529956            2 
  625000    1.1255958   -3.7949147    579.36957  0.077249275  0.078526177            2 
  626000    1.1520692   -3.8256186    580.17281  0.077232802  0.078521941            2 
  627000    1.1796257   -3.8417491    580.78172  0.077190552  0.078516844            2 
  628000    1.1612316   -3.8259346    581.89725  0.077215664  0.078512469            1 
  629000    1.1509417     -3.83043    582.96771  0.077234725  0.078507655            2 
  630000    1.1711347   -3.7941396     583.6573  0.077203346  0.078504438            2 
  631000    1.1639178   -3.8248362    583.73548  0.077091321  0.078500782            3 
  632000    1.1392201   -3.8428677     585.1257   0.07715265  0.078496125            3 
  633000    1.1986767    -3.843768    587.55417   0.07735047  0.078491657            2 
  634000    1.1671225   -3.8162561    587.78303  0.077258548  0.078487933            1 
  635000    1.1677316   -3.8147999    589.16998  0.077318895  0.078485186            1 
  636000    1.1707999   -3.8306551     589.6756  0.077263574  0.078481668            2 
  637000    1.1468056   -3.8528654    589.13922  0.077072112  0.078476997            4 
  638000    1.1465859    -3.862523    591.52483  0.077262909  0.078473612            1 
  639000    1.1136706   -3.8517617    591.90114  0.077191072  0.078468664            3 
  640000    1.1415549   -3.8405084    592.73138  0.077178565  0.078464639            4 
  641000     1.165515   -3.8756155     592.2115  0.076990575   0.07846017            1 
  642000     1.156088   -3.8632256    594.79999  0.077206645  0.078454403            1 
  643000    1.1466827   -3.8041086    597.71415  0.077464249  0.078449484            4 
  644000    1.1493168   -3.8248822    595.48222  0.077055152  0.078443898            1 
  645000    1.1182597   -3.8025578    597.44861  0.077189743   0.07843885            2 
  646000    1.1651638    -3.793765    598.25613  0.077174423  0.078433148            1 
  647000    1.1025545   -3.8508164    598.65662  0.077106726  0.078428069            1 
  648000    1.1644824   -3.8307727    597.70543   0.07686541  0.078422936            1 
  649000    1.1351101   -3.8501248    598.60908  0.076863005  0.078415905            1 
  650000    1.1697868   -3.8446352    600.50688  0.076988062  0.078410104            2 
  651000    1.1603741   -3.7971818    601.76949  0.077031425   0.07840465            3 
  652000    1.1537217   -3.8734418    603.43595  0.077126272  0.078400021            2 
  653000    1.1536113   -3.8709354    603.83857  0.077059542  0.078396078            3 
  654000    1.1362062   -3.8216547    605.50129  0.077153579   0.07839209            2 
  655000    1.1528331    -3.855579    607.50273  0.077290424  0.078388263            2 
  656000     1.152811   -3.8545992    606.05231  0.076988352  0.078383551            1 
  657000     1.129733   -3.8336168    606.71464   0.07695518  0.078377819            8 
  658000    1.1674246   -3.8291488    609.92804  0.077245192  0.078372523            3 
  659000    1.1228008    -3.853663    608.01035  0.076885476  0.078366997            4 
  660000    1.1716805   -3.8249276    609.67949  0.076979734  0.078359965            2 
  661000    1.1473502   -3.8040169    610.49763  0.076966419  0.078353892            3 
  662000    1.1201494   -3.8316225    613.25422  0.077197157  0.078346867            1 
  663000    1.1141104   -3.8202642    610.54068  0.076739653  0.078341211            3 
  664000     1.139965   -3.8258076    613.79002  0.077031879  0.078332847            2 
  665000    1.1458441   -3.8865555    609.25452  0.076347684  0.078325704            3 
  666000    1.1476099   -3.8490306    613.06889  0.076710322  0.078318077            1 
  667000    1.1225136   -3.8235911    616.41973  0.077013959  0.078310817            2 
  668000    1.1661809   -3.8385201    617.90305  0.077083713  0.078303805            6 
  669000    1.1424667   -3.8344237    616.00095  0.076731558  0.078296754            4 
  670000    1.1359036   -3.8387846    616.70073  0.076704071   0.07828829            3 
  671000      1.13501   -3.8357604    617.32849  0.076667721   0.07827946            1 
  672000    1.1502809   -3.8570082    616.27096   0.07642249  0.078272095            3 
  673000    1.1077011    -3.828465    620.28896  0.076806458  0.078264224            1 
  674000    1.1417967   -3.8535323       620.57  0.076727251  0.078257141            2 
  675000    1.1366278   -3.8279623    620.47879   0.07660232  0.078249906            2 
  676000    1.1738123   -3.8387685    623.91261  0.076912304  0.078241627            4 
  677000    1.1257673   -3.8413339    622.84168  0.076666873   0.07823355            3 
  678000    1.1520988   -3.8225515    623.42473  0.076625458  0.078226004            2 
  679000    1.1426321   -3.8643336    626.88163  0.076936872   0.07821822            4 
  680000    1.1454198   -3.8069053    628.35278  0.077004017   0.07821147            2 
  681000    1.1501952   -3.8469536     626.0034  0.076603451  0.078204065            2 
  682000    1.1493677   -3.8465264    629.05171  0.076863601  0.078194948            3 
  683000    1.1391871   -3.8540726    629.21318  0.076770763  0.078188605            1 
  684000     1.132161   -3.8391987    629.35141  0.076675367  0.078181603            4 
  685000    1.1454539   -3.8581636    631.89886  0.076873341  0.078174431            3 
  686000    1.1522853   -3.8538335    630.41764  0.076581346  0.078166327            2 
  687000    1.1392248   -3.8181027    632.84221  0.076763975   0.07815956            2 
  688000     1.133055   -3.8616309    632.30041  0.076586775   0.07815303            2 
  689000    1.1532645   -3.8296218    634.32766   0.07672081  0.078146206            3 
  690000    1.1646895   -3.8363496    634.72179  0.076657221  0.078139872            1 
  691000    1.1498273    -3.794065    639.55401  0.077129042  0.078133058            1 
  692000    1.1525511   -3.7970149    638.63073  0.076906398  0.078126495            2 
  693000    1.1302685   -3.8460025    637.42504  0.076650437  0.078118946            2 
  694000    1.1249888   -3.8396881    638.52927  0.076672583  0.078110385            1 
  695000      1.15383    -3.826493    638.70189  0.076582961  0.078101831            2 
  696000    1.1307955   -3.8619937    637.43773  0.076321567  0.078093935            3 
  697000      1.12353   -3.8302161    639.92726  0.076509716   0.07808594            1 
  698000    1.1453883   -3.8094693    642.54719  0.076712893   0.07807763            2 
  699000    1.1292497   -3.8329519    641.25473  0.076449061  0.078068416            2 
  700000    1.1253774   -3.8072108    642.50843  0.076489099  0.078058735            1 
  701000    1.1522822    -3.875773    641.50093  0.076260215  0.078049001            3 
  702000    1.1664339   -3.8787627    642.39061  0.076257194  0.078038553            1 
  703000    1.1314614   -3.8306025    644.36247  0.076382464  0.078028539            5 
  704000    1.1386508    -3.819794    644.61088  0.076303371  0.078018839            1 
  705000    1.1435038   -3.8481409    646.05974    0.0763664  0.078008997            4 
  706000      1.15022   -3.8408486    649.39212  0.076651572  0.077999702            3 
  707000    1.1549506   -3.8644403    647.30347  0.076296967  0.077991173            1 
  708000    1.1318202   -3.8520938    650.26294   0.07653754   0.07798342            3 
  709000    1.1336702   -3.8352786    652.28344  0.076667071  0.077974561            1 
  710000    1.1346304   -3.8406977    650.31834  0.076328444  0.077965223            2 
  711000    1.1510635   -3.8351342    649.73718  0.076152975  0.077956343            2 
  712000    1.1391823   -3.8621969    650.82551  0.076173398  0.077946727            2 
  713000    1.1213532   -3.8608291    650.69751  0.076051602  0.077936064            4 
  714000    1.1379103   -3.8434229     651.4334  0.076030975  0.077925026            4 
  715000    1.1518276   -3.8721012    652.73215  0.076076008  0.077913811            3 
  716000    1.1238493   -3.8590626     652.0283  0.075887838   0.07790059            2 
  717000    1.1138569   -3.8190193    654.90994  0.076116915  0.077888321            2 
  718000    1.1397056   -3.8433287    652.87182  0.075774352  0.077875736            2 
  719000    1.1227035   -3.8177269    655.09432  0.075926555  0.077862705            3 
  720000    1.1447277   -3.8957908    653.71782  0.075661784  0.077848525            2 
  721000    1.1268653   -3.8450682    654.53357  0.075651129  0.077835363            1 
  722000    1.1428041   -3.8491937    656.20595  0.075739376  0.077823025            2 
  723000    1.1297478   -3.8597434    657.61545  0.075797079   0.07780989            2 
  724000    1.1196704   -3.8359501    659.15893  0.075870042  0.077797181            3 
  725000    1.1219388   -3.8499664    660.82373  0.075956751  0.077784585            4 
  726000    1.1298833   -3.8339246    659.56356   0.07570748  0.077772385            2 
  727000    1.1040937   -3.8639725    661.63317  0.075840574  0.077760195            3 
  728000    1.1231387   -3.8788611    661.87908  0.075764547  0.077748604            2 
  729000    1.1690392   -3.8776861    662.94098  0.075782004  0.077736854            3 
  730000    1.1248105   -3.8561735    663.30649  0.075719919  0.077724849            1 
  731000    1.1284803   -3.8548722    667.41386  0.076084571   0.07771332            2 
  732000    1.1252101   -3.8657154    664.43584  0.075641603  0.077702227            2 
  733000    1.1237252   -3.8541379    666.61943  0.075786656  0.077690873            2 
  734000    1.1168234   -3.8650048    664.71913  0.075467658  0.077679697            1 
  735000    1.1286536    -3.864013     669.5359    0.0759111  0.077668176            3 
  736000    1.1475129   -3.8222872    670.42774  0.075908938  0.077656735            3 
  737000     1.146509   -3.8354495    672.71708  0.076064799  0.077646139            2 
  738000    1.1445359     -3.85625    670.40071  0.075700171  0.077634512            2 
  739000    1.1275013   -3.8561721    671.86254  0.075762578  0.077622677            4 
  740000    1.1337451   -3.8602586    674.69805   0.07597951  0.077612274            4 
  741000    1.1380366   -3.8541618    677.23788  0.076162605  0.077601726            2 
  742000    1.1286553   -3.8990425    674.11251  0.075708952  0.077591179            1 
  743000    1.1337483   -3.8799799    676.00562  0.075819383  0.077580805            3 
  744000    1.1345033   -3.8523626    678.79602  0.076030021  0.077570971            4 
  745000    1.1123834   -3.8392148    680.05868  0.076069203  0.077561732            2 
  746000    1.1228355   -3.8548213     679.3616  0.075889366  0.077551057            2 
  747000    1.1305044   -3.8444041    682.66704  0.076156519  0.077541576            2 
  748000    1.1443142   -3.8139154    682.45908  0.076031538  0.077531512            2 
  749000    1.1196971   -3.8927917    680.88486   0.07575488  0.077522136            3 
  750000     1.124118   -3.8605384    682.55511  0.075839457  0.077512509            6 
  751000    1.1315973   -3.8437084    683.84478  0.075881578  0.077503448            5 
  752000    1.1393563   -3.8460236    686.40321  0.076064185  0.077494368            2 
  753000    1.1336745    -3.863442     686.9173  0.076020064  0.077485228            2 
  754000     1.129071   -3.8345087    689.34195  0.076187218  0.077476134            4 
  755000    1.1277724   -3.8704041     688.2702  0.075968014   0.07746656            3 
  756000    1.1437432   -3.8427888    690.36584  0.076098527  0.077455916            5 
  757000    1.1066109   -3.8375958    691.18461  0.076088134  0.077445776            2 
  758000    1.1425739   -3.8625736    687.77328  0.075612718  0.077435336            3 
  759000    1.1100886   -3.8383198    692.62039  0.076045278  0.077424891            4 
  760000    1.1255812   -3.8452196    688.75716  0.075521618  0.077413891            2 
  761000    1.1165847   -3.8755612    691.63186  0.075737172  0.077402335            2 
  762000    1.1348128   -3.9061951    689.37954  0.075391463  0.077390662            2 
  763000    1.1307322   -3.8748853    690.96888  0.075466239  0.077379263            3 
  764000    1.1399664   -3.8567675    691.95106  0.075474592  0.077367042            5 
  765000    1.1454422   -3.8417487    694.68844  0.075674122  0.077355578            1 
  766000    1.1507964   -3.8539016    698.05087   0.07594113  0.077344475            2 
  767000    1.1241364   -3.8595665    696.29373  0.075651209  0.077333132            1 
  768000    1.1596888   -3.8289915    698.60425  0.075803413  0.077322087            2 
  769000    1.1276718     -3.89162    695.49575  0.075367984  0.077309924            2 
  770000    1.1097841   -3.8546873    699.24837   0.07567623  0.077297858            1 
  771000    1.1202922   -3.8733512    698.87123  0.075537314  0.077286616            2 
  772000    1.1424511   -3.8544286        699.1  0.075464162  0.077275336            2 
  773000    1.1132327   -3.8737806    701.00279  0.075571668  0.077264391            2 
  774000    1.1057697   -3.8770656    701.79154  0.075558952  0.077252893            3 
  775000    1.1476509   -3.8470545    705.45861  0.075855764  0.077241297            5 
  776000    1.1438895   -3.8517858    702.37489  0.075426857  0.077230478            3 
  777000    1.1287764   -3.8681223    704.30063  0.075536319  0.077219022            1 
  778000    1.1379753   -3.8512023    706.02504  0.075623933  0.077207272            4 
  779000    1.1328141    -3.870371    704.49129  0.075362782  0.077194649            2 
  780000    1.1652155   -3.8589043    706.79294  0.075512066  0.077182366            3 
  781000    1.1262347   -3.8766105    708.60598  0.075608833  0.077171243            1 
  782000    1.1245443   -3.8840531    705.06942  0.075135275  0.077159693            2 
  783000    1.1389495   -3.8692068    706.60038  0.075202254  0.077147293            1 
  784000    1.1334229   -3.8783733    706.80945  0.075128555  0.077134206            2 
  785000    1.1411559   -3.8744297    710.73595  0.075449676  0.077122495            2 
  786000    1.1441872   -3.8704517    709.74618  0.075248747  0.077109405            5 
  787000     1.104855   -3.8622663    711.82713  0.075373478  0.077096739            1 
  788000    1.1023955   -3.9035761     707.6826   0.07483953   0.07708386            2 
  789000    1.1258393   -3.9167318    708.76383  0.074858875  0.077069715            4 
  790000     1.120248   -3.8582425    714.38542  0.075357112  0.077055826            2 
  791000     1.106529   -3.8422315    712.83575  0.075098583  0.077042372            4 
  792000    1.1237751   -3.8684449    714.84646  0.075215326   0.07702844            3 
  793000    1.1346684   -3.8717988    714.41984  0.075075645  0.077015274            4 
  794000    1.1021451   -3.8637304    713.96574  0.074933432  0.077001649            4 
  795000    1.1501897    -3.883247    716.87296  0.075143916  0.076988121            5 
  796000    1.1243856   -3.8526675    716.76877  0.075038606  0.076975083            1 
  797000      1.12755   -3.8743154    716.43744  0.074909812  0.076962185            5 
  798000    1.1223526   -3.8691493    717.57932  0.074935184  0.076948628            2 
  799000    1.1038341   -3.8715705     716.7092  0.074750647  0.076934701            2 
  800000     1.134878   -3.8711221     721.0686  0.075111313  0.076920719            4 
  801000    1.1106983   -3.8739612    718.84747  0.074786462  0.076905805            2 
  802000    1.1311551   -3.8812485    720.79015  0.074895069  0.076891046            3 
  803000    1.1081628   -3.8690941    720.84038  0.074807013  0.076877153            1 
  804000    1.1234425   -3.9041673    723.18097  0.074956568  0.076862661            2 
  805000    1.0966758   -3.8907382    721.04597   0.07464244  0.076847606            1 
  806000    1.1512097    -3.823571    724.71829  0.074929517  0.076833236            3 
  807000    1.1327211   -3.8785551    722.66288   0.07462442  0.076819054            3 
  808000    1.1268408   -3.8499876    725.99738  0.074875968  0.076805404            1 
  809000    1.1148805   -3.8746428    725.85049  0.074768283  0.076791245            3 
  810000    1.1299328   -3.8776936    726.66742  0.074760023  0.076777438            3 
  811000    1.1190153   -3.8840706    726.84434   0.07468602  0.076763999            3 
  812000    1.1105432    -3.876034    728.22344  0.074735574  0.076749424            2 
  813000    1.1406158   -3.8837834    726.73004  0.074490574  0.076735503            3 
  814000    1.1298345   -3.8468622     729.5512  0.074687879  0.076722038            2 
  815000    1.1469039   -3.8578751    732.92415   0.07494112   0.07670822            3 
  816000    1.0995085   -3.8798383    731.95746  0.074750558  0.076694236            4 
  817000    1.1074414   -3.8565748    731.82381  0.074645431  0.076679269            2 
  818000    1.1142863    -3.888952    733.10915  0.074685122   0.07666482            3 
  819000    1.1061028   -3.9045898    732.70324  0.074552629  0.076649699            2 
  820000    1.1017855   -3.8851805    733.30381  0.074522744  0.076633731            2 
  821000    1.1089341   -3.8855335    733.15694  0.074417067  0.076618741            2 
  822000    1.1490917    -3.885872    736.40195   0.07465551   0.07660358            1 
  823000    1.1350519   -3.8598176    735.50446  0.074473923  0.076589204            1 
  824000    1.1133608   -3.8519883    738.94829  0.074731825  0.076573865            2 
  825000    1.1330425   -3.8648161    740.10706  0.074758289  0.076558335            3 
  826000    1.1297337   -3.8995929    736.30753  0.074284456  0.076543526            3 
  827000    1.1280054   -3.8974523    740.33809  0.074600775  0.076528979            2 
  828000    1.1149287   -3.8939517    739.85663  0.074462221  0.076514823            3 
  829000    1.1160885   -3.8602293    739.91168  0.074377934  0.076500548            4 
  830000    1.0887931   -3.8643978    742.74269  0.074572559  0.076486159            1 
  831000    1.1044295   -3.8971199    741.11961  0.074320057  0.076471706            3 
  832000    1.1234307   -3.8678826    742.46284  0.074365268  0.076457769            2 
  833000    1.1205177   -3.8906562    742.50304  0.074280016  0.076443478            4 
  834000    1.1241193   -3.8670687     745.8986  0.074530236  0.076428385            4 
  835000    1.1457871   -3.8950889    747.13731  0.074564602  0.076414035            4 
  836000    1.1180702    -3.888392    745.99824  0.074361866  0.076398421            2 
  837000    1.1333457   -3.8403337    750.13855   0.07468524  0.076384074            5 
  838000    1.1330117   -3.8732676    750.45163   0.07462725  0.076370268            3 
  839000    1.1120639   -3.8735185    749.56891  0.074450627  0.076355331            2 
  840000    1.1185926   -3.8621152    751.99197  0.074602378  0.076341558            2 
  841000    1.1233851   -3.9090355    748.61461  0.074179014  0.076327799            3 
  842000    1.1125616   -3.8869243    750.11898  0.074239804  0.076313669            3 
  843000    1.1367751   -3.8632651    750.48472  0.074187892  0.076298789            4 
  844000    1.1441474    -3.854064    753.36281  0.074384164  0.076284449            1 
  845000    1.1013435   -3.8748719    754.15592  0.074374351  0.076270791            3 
  846000    1.1071784   -3.8580085    754.52454  0.074322748  0.076256844            3 
  847000    1.0896446   -3.8820863    755.02657  0.074284393  0.076242694            4 
  848000    1.1168881   -3.8637189    758.31538  0.074519986  0.076228507            2 
  849000    1.1221036   -3.8817973    754.57161  0.074064744  0.076214238            3 
  850000    1.1270664   -3.8811583    759.82121  0.074492275  0.076200615            3 
  851000    1.0989592   -3.8854302    758.89618  0.074314158  0.076186843            2 
  852000    1.1118269   -3.8821889    758.11791  0.074150812  0.076173797            3 
  853000    1.1045424   -3.8923019    760.90993  0.074336648  0.076159825            4 
  854000     1.109898   -3.8823521    761.73961  0.074330563  0.076144917            2 
  855000    1.1380074   -3.8696491     760.7569  0.074147846  0.076130022            1 
  856000    1.1178315   -3.8723794    760.74512  0.074060078  0.076115699            1 
  857000    1.1058223   -3.8730609    762.75939  0.074169525  0.076100766            2 
  858000    1.1133602   -3.8656633    765.83051  0.074381363  0.076086034            2 
  859000    1.1134583   -3.8506313    765.96306  0.074307631   0.07607084            1 
  860000    1.1326473   -3.8949936    764.76749  0.074105377  0.076055375            2 
  861000    1.1256044   -3.8713499    763.73267  0.073919151    0.0760401            2 
  862000    1.1301071   -3.8630909    765.70537  0.074024107  0.076025148            1 
  863000    1.1240868   -3.8882249    766.00547  0.073967311  0.076010301            2 
  864000    1.0997133   -3.8751766    768.39096  0.074111783  0.075994893            1 
  865000     1.105764   -3.8700174    767.14911  0.073906466  0.075979764            3 
  866000    1.1319442   -3.9002009    768.62396  0.073963045  0.075963655            2 
  867000    1.1192333   -3.9144882    767.63345   0.07378253   0.07594747            4 
  868000    1.1030561   -3.9109351    768.12087  0.073744324  0.075932234            1 
  869000    1.1124457   -3.9134012    771.46862  0.073980497  0.075916044            2 
  870000    1.1298934   -3.8979158    770.47676  0.073800456  0.075899183            5 
  871000    1.1023325   -3.8906981    773.22726  0.073978881  0.075883497            5 
  872000    1.1178043   -3.9202508    769.95772  0.073581586  0.075867344            2 
  873000    1.1114592   -3.9074117    771.78228  0.073671466  0.075852367            1 
  874000    1.1198497   -3.8505677    774.78562  0.073873534  0.075836869            1 
  875000    1.1268453   -3.9052448     770.2792  0.073359924  0.075820938            1 
  876000    1.1037458   -3.9103384    774.62674  0.073689758  0.075804066            3 
  877000     1.098134   -3.8953889    771.34435  0.073293838  0.075787182            2 
  878000    1.1420995   -3.9127623    773.88736  0.073451723  0.075770047            3 
  879000    1.1154499   -3.8910733    776.54882   0.07362048  0.075753322            2 
  880000    1.1137851   -3.8789655    773.83301  0.073279641  0.075735568            2 
  881000    1.1063495   -3.9050316     773.3796  0.073153576  0.075717907            5 
  882000    1.1074815   -3.8916107    775.17762  0.073240516  0.075700084            4 
  883000    1.1180025   -3.8936627    780.64936  0.073673968  0.075682495            3 
  884000    1.1064778   -3.9018052    778.41585  0.073380077  0.075664656            3 
  885000    1.1147381   -3.8556116    781.15339  0.073554933  0.075646067            3 
  886000     1.121599   -3.9071233    777.76845  0.073153541  0.075627637            2 
  887000    1.1206984   -3.8974337    779.69732  0.073252285  0.075609194            4 
  888000    1.1086392   -3.8626731    781.85605  0.073372377  0.075590721            3 
  889000    1.1124554   -3.8923444    782.50968  0.073351113  0.075572401            2 
  890000    1.1252003   -3.8627945    783.17394  0.073330894  0.075554411            4 
  891000    1.0983967   -3.8764553    783.81024  0.073308103  0.075536261            1 
  892000    1.1362621    -3.872571     781.3057  0.072991937  0.075517779            2 
  893000    1.1255292   -3.8685605    786.19012  0.073366005  0.075499294            3 
  894000    1.1145779   -3.8878169      784.157  0.073094426  0.075481478            2 
  895000    1.1061144   -3.9146662    782.89475  0.072895228  0.075463663            2 
  896000    1.1200038   -3.9081436    786.02419  0.073104928  0.075445669            2 
  897000     1.115641   -3.8706293    788.10634  0.073216865  0.075428492            3 
  898000    1.1151958   -3.9128295    784.87168   0.07283516  0.075410682            1 
  899000    1.1188589   -3.8923716    785.43307   0.07280618  0.075392999            2 
  900000    1.1414666   -3.8965311    789.95015  0.073143533  0.075375037            4 
  901000    1.1465831   -3.8714657    793.64499  0.073404087  0.075358386            2 
  902000    1.1145296   -3.8956687    794.49992  0.073401692  0.075341769            2 
  903000     1.084153   -3.8982928    792.71138   0.07315535  0.075324864            1 
  904000    1.1128471   -3.8696438    795.26005   0.07330937   0.07530878            1 
  905000    1.0912114   -3.8989625    796.74019  0.073364658  0.075292506            2 
  906000     1.113033   -3.8568005    800.33265  0.073614114   0.07527644            3 
  907000    1.1245327   -3.8824781    802.44848   0.07372735  0.075260558            3 
  908000    1.1070537   -3.8832833    799.38476  0.073364974  0.075243576            1 
  909000     1.111925   -3.9025497    797.34479  0.073097249  0.075227159            1 
  910000    1.1222981   -3.8830883    800.18874  0.073277357  0.075209992            2 
  911000    1.1079489   -3.8988728    795.94814  0.072809014  0.075192352            1 
  912000    1.1253615   -3.9261019    796.89288  0.072815504  0.075174921            2 
  913000    1.1140586   -3.8721133    799.34988  0.072960011  0.075157606            1 
  914000    1.0981335   -3.8724878    800.97781  0.073028612  0.075140269            4 
  915000    1.1044616   -3.8847514    800.07081  0.072866194  0.075123286            4 
  916000    1.0897571   -3.8938935    800.28967  0.072806557  0.075106052            3 
  917000    1.1013817   -3.9190043    802.21333  0.072901974  0.075089077            3 
  918000    1.1019777   -3.9165056    804.43102  0.073023876  0.075071266            2 
  919000     1.132905   -3.8861179    803.20884   0.07283359  0.075053736            3 
  920000    1.1196548    -3.903189    803.07277  0.072742099  0.075035635            2 
  921000    1.1024403    -3.862101    805.79622  0.072909539  0.075018538            2 
  922000    1.1095594    -3.921746    804.95476  0.072754407  0.075001058            3 
  923000    1.0887903   -3.8823184    805.27643  0.072704625  0.074983511            2 
  924000    1.0888091   -3.8929208    807.53008  0.072829192  0.074965617            3 
  925000    1.1058264   -3.9261509    806.50351  0.072657974  0.074948155            4 
  926000    1.1126484   -3.8840009    808.08523  0.072721853  0.074929966            2 
  927000    1.1140473    -3.925422    805.33879  0.072396512  0.074912168            3 
  928000    1.0858937   -3.9100398    811.69657  0.072889419  0.074894539            2 
  929000    1.1178922   -3.9199686    808.31327   0.07250747   0.07487678            1 
  930000    1.0910284    -3.888893    813.62424  0.072905398  0.074859565            2 
  931000    1.1125691   -3.9239709    811.03336  0.072595181  0.074841408            4 
  932000    1.1032066   -3.9020499    809.93812   0.07241936  0.074823171            1 
  933000    1.1289423   -3.9029109    810.48258   0.07239037  0.074804992            1 
  934000    1.1189009   -3.9101358    811.90154  0.072439466  0.074785922            3 
  935000    1.0981877   -3.9168034    813.47038  0.072501816  0.074767982            3 
  936000    1.1037714   -3.8754565    816.79595  0.072720437  0.074750432            2 
  937000    1.0987289   -3.9113598    814.07552  0.072400882  0.074732412            2 
  938000    1.1050652   -3.8977753      813.288  0.072253732  0.074713948            4 
  939000    1.0812697   -3.8825162    816.52749  0.072464278  0.074695769            2 
  940000    1.0859167    -3.890544    818.01445  0.072519011  0.074678275            3 
  941000    1.0867656   -3.8732456    817.18382  0.072368386  0.074659993            2 
  942000    1.1229144   -3.8810276    817.48413  0.072318129  0.074641406            2 
  943000    1.1175339   -3.9252041    816.85711   0.07218603   0.07462322            5 
  944000    1.0659296   -3.9227653    818.65157  0.072267971  0.074605046            3 
  945000    1.0848878   -3.8832038    822.95169  0.072570696  0.074587622            6 
  946000    1.1161575    -3.903192    821.04284  0.072325831  0.074570476            1 
  947000    1.1190966   -3.9189904    823.55168  0.072470229  0.074552959            4 
  948000    1.1233383   -3.8972924    824.25792  0.072455865  0.074535352            2 
  949000    1.0882924   -3.9174889     823.1837  0.072285186  0.074518217            3 
  950000    1.0977553   -3.8922737    827.12434  0.072554766   0.07449988            1 
  951000    1.0876798   -3.8920258    827.72729  0.072531308   0.07448219            2 
  952000    1.0845042   -3.8769729    826.16563   0.07231842  0.074464096            4 
  953000     1.123829   -3.8946422    827.89356   0.07239363   0.07444621            3 
  954000    1.1118341   -3.8861391    830.25736  0.072524228   0.07442894            1 
  955000    1.0915872   -3.9037594    828.60173  0.072303815  0.074411602            4 
  956000    1.1119822   -3.9089567    828.43213    0.0722134  0.074394051            1 
  957000    1.1260721   -3.9339458     829.0072  0.072188018   0.07437689            2 
  958000    1.0635854   -3.8889469    830.74474  0.072263809  0.074359595            4 
  959000    1.1066789   -3.9237235    833.38678  0.072418038   0.07434233            7 
  960000    1.1096143   -3.9456074    831.64214  0.072191158  0.074325545            2 
  961000    1.0879386   -3.8995315    833.47615  0.072275073   0.07430915            1 
  962000    1.0954376   -3.9141446    832.85613  0.072146234  0.074292353            2 
  963000    1.0810488   -3.9027941    834.93013   0.07225079  0.074275661            3 
  964000    1.1181432    -3.893998    835.08514  0.072189241  0.074257967            2 
  965000    1.0712452    -3.913131    835.05527  0.072111854  0.074240047            1 
  966000    1.0772587   -3.9006944    835.82499  0.072103605  0.074221643            1 
  967000    1.0966556   -3.9350004    834.77805  0.071938819  0.074203773            4 
  968000    1.0636644   -3.8872633    835.48513  0.071925373  0.074184773            3 
  969000    1.1055309   -3.9031897    836.47131  0.071935957  0.074165602            4 
  970000    1.0975978   -3.9189284    832.71757   0.07153931  0.074145784            3 
  971000    1.0891049   -3.9309039    831.80185  0.071387045  0.074126637            4 
  972000     1.104683   -3.9169518    836.37342   0.07170554  0.074107578            2 
  973000    1.0971776   -3.9081751    836.98153  0.071683926  0.074088334            2 
  974000    1.0978991   -3.9114398    837.04221  0.071615521   0.07406843            4 
  975000     1.090429   -3.9176091    837.06325  0.071543867    0.0740492            2 
  976000    1.1198472    -3.909827    841.67294  0.071864151   0.07402924            2 
  977000    1.0988352   -3.9069257    841.33777  0.071762007  0.074009837            3 
  978000    1.1120239   -3.9151767    841.09392  0.071667853  0.073989907            2 
  979000     1.105856   -3.9180252    842.49358  0.071713788   0.07397012            2 
  980000    1.1101105   -3.9071829    840.83732  0.071499772  0.073950587            1 
  981000    1.1208277   -3.8907905    840.04114  0.071359254  0.073930882            5 
  982000    1.0991871   -3.9575333    840.46307  0.071322392  0.073911016            4 
  983000    1.1144647   -3.8853171    847.72492  0.071865456  0.073891208            6 
  984000     1.086907   -3.8909157    848.27765  0.071839232  0.073871957            1 
  985000    1.0620629   -3.8931987    847.60625  0.071709497   0.07385267            4 
  986000    1.0990268   -3.9427064    845.79709  0.071483865  0.073834006            3 
  987000    1.0809951   -3.8993201    847.31604  0.071539686  0.073814195            2 
  988000    1.0849981   -3.8803928    847.79437  0.071507622  0.073794542            6 
  989000    1.0758355   -3.8914324    846.23813   0.07130419  0.073775055            3 
  990000    1.1095975   -3.9170172     847.5243  0.071340429  0.073755245            3 
  991000    1.1113852   -3.9348267    848.35744  0.071338499  0.073735303            1 
  992000    1.1011643    -3.902587    849.08038  0.071327317  0.073715475            3 
  993000    1.1299842   -3.8866881    848.13737  0.071176349  0.073695535            2 
  994000    1.0849933   -3.9184585     850.6232  0.071313146  0.073674985            2 
  995000     1.087515   -3.9286543    849.38398  0.071137687  0.073654759            2 
  996000    1.1006477   -3.9281668    850.49457  0.071159184  0.073633587            2 
  997000    1.0862767   -3.9178529    851.41153  0.071164454   0.07361316            2 
  998000    1.0754559   -3.9130829    852.20117  0.071159083  0.073592264            3 
  999000    1.0926144   -3.9349425    853.52774   0.07119851  0.073571319            4 
 1000000    1.1107096   -3.9324269     852.3723  0.071031025  0.073551442            4 
 1001000    1.0798609   -3.9297417    849.32109  0.070706051   0.07353032            3 
 1002000    1.0934782   -3.8904655    854.20283  0.071041486  0.073509357            2 
 1003000    1.0887254   -3.9187069    852.52267  0.070831063  0.073488286            2 
 1004000    1.0678291   -3.9159782    855.41974  0.071000974  0.073466922            1 
 1005000    1.0754759   -3.9093115    858.24182   0.07116433  0.073447118            2 
 1006000    1.0770413   -3.9119486     856.0238  0.070909857   0.07342666            1 
 1007000    1.1113186   -3.9215792    856.68275  0.070893971  0.073406492            8 
 1008000    1.1050052    -3.935237    856.29284  0.070791405   0.07338631            2 
 1009000    1.1034512   -3.8983019    858.77545  0.070926284  0.073365971            3 
 1010000    1.0922947   -3.9184312    859.57551  0.070922072  0.073345163            2 
 1011000    1.0996456   -3.9375692    859.37447  0.070835351  0.073324158            3 
 1012000    1.0588508    -3.947523     861.3381  0.070927051  0.073302982            2 
 1013000    1.0940514   -3.9444227    856.12081  0.070427839  0.073282291            3 
 1014000    1.0758493   -3.9331242    864.81903  0.071073227   0.07326153            4 
 1015000    1.0821293   -3.8997002    860.39438  0.070639933  0.073241229            4 
 1016000    1.0818145   -3.9250061    865.20593  0.070965053  0.073221216            2 
 1017000    1.1073279   -3.9228819    863.98351  0.070795109  0.073201447            2 
 1018000    1.0902614   -3.9678754    863.61085  0.070695059  0.073180462            4 
 1019000    1.0825345   -3.9140682    865.90159  0.070813018  0.073160887            2 
 1020000      1.09001   -3.9255118    865.82882  0.070737648  0.073140681            1 
 1021000    1.0609337   -3.9273708    868.42553  0.070880307  0.073120769            3 
 1022000    1.1158134   -3.9047878     867.7897  0.070759108   0.07310085            4 
 1023000    1.0896861   -3.9200464    869.28858  0.070812038  0.073080498            7 
 1024000    1.0870071   -3.9063313    867.91671  0.070631242  0.073060051            2 
 1025000    1.0720938   -3.9083232    868.90178  0.070642421   0.07303927            1 
 1026000    1.0863656   -3.9279557    871.52643  0.070786747  0.073019001            2 
 1027000    1.0779153    -3.948879    869.39508  0.070544878  0.072999182            3 
 1028000    1.0876533   -3.9214362    875.19859  0.070946708  0.072979438            2 
 1029000    1.0733868   -3.9366137    874.46112  0.070818037  0.072959714            2 
 1030000     1.069921   -3.9353847    870.04321  0.070391845  0.072939755            2 
 1031000    1.0804333   -3.9016238     877.2457  0.070905731  0.072919698            4 
 1032000    1.0750832   -3.9021213     874.0609  0.070579853  0.072899642            2 
 1033000    1.0939491   -3.9195514    873.64363  0.070477866   0.07288013            7 
 1034000    1.1104176   -3.9049503    879.09455  0.070849012  0.072860429            3 
 1035000    1.1024185   -3.9337853    876.12191  0.070541216   0.07284074            3 
 1036000    1.0951773   -3.9435514     875.8165   0.07044856  0.072820565            5 
 1037000     1.091931   -3.9257521    877.65272  0.070528184  0.072800846            3 
 1038000    1.0843585   -3.9337829    879.81631  0.070633936  0.072781725            1 
 1039000    1.0794105   -3.9326789    883.61625  0.070870729  0.072762472            1 
 1040000    1.0598735   -3.9532688    884.76901  0.070894953  0.072743541            4 
 1041000    1.0855678   -3.9308074    882.11246  0.070614189  0.072724932            5 
 1042000    1.0760424   -3.9131192    885.66568  0.070830589  0.072706547            2 
 1043000    1.0949885   -3.9354074     885.3531  0.070737704  0.072688647            2 
 1044000    1.0807901   -3.8787105    884.19223  0.070577285  0.072670334            3 
 1045000    1.0610695   -3.9279919    886.35502  0.070682218   0.07265172            4 
 1046000    1.0895022   -3.9055617    886.94076   0.07066131  0.072633264            3 
 1047000    1.0974799   -3.9220762    886.94621  0.070594255  0.072614939            1 
 1048000    1.1020862   -3.9658708    882.68559  0.070188104  0.072596393            1 
 1049000    1.0826495   -3.9201119     888.9799  0.070621218  0.072577607            2 
 1050000    1.0842613   -3.8954503    888.01748  0.070477578  0.072558836            2 
 1051000    1.0671845    -3.946295    886.57669   0.07029628  0.072540011            3 
 1052000    1.0728459   -3.9478689    889.75669   0.07048136  0.072520946            5 
 1053000    1.1018066   -3.9326662    890.15518  0.070445962  0.072502033            1 
 1054000    1.0782431   -3.9446881    888.92047  0.070281504  0.072483806            6 
 1055000    1.0833462   -3.9376404    892.22079  0.070475576  0.072465036            3 
 1056000     1.082931   -3.9018034    895.13452  0.070638772  0.072446274            2 
 1057000    1.0901168   -3.9335552    893.54766  0.070446835  0.072426888            1 
 1058000    1.0911499    -3.926636    892.41227  0.070290822  0.072407885            2 
 1059000      1.07482   -3.9428929     893.7023   0.07032596  0.072389251            4 
 1060000    1.0662665   -3.9100845    898.85364  0.070664594  0.072371104            2 
 1061000    1.0926047   -3.9307388     891.9214  0.070053518  0.072352489            3 
 1062000    1.1103938   -3.9027616     900.0268  0.070623572  0.072334417            4 
 1063000    1.1010676   -3.9542982    898.40399  0.070429915  0.072315959            1 
 1064000    1.0676046   -3.9636904    897.59724  0.070300535   0.07229746            2 
 1065000    1.0641751   -3.8974151    898.75651  0.070325236  0.072278616            4 
 1066000    1.0917518   -3.9369783    901.42365  0.070467765  0.072259858            1 
 1067000    1.0914599   -3.8909655    899.98154  0.070289093  0.072240998            3 
 1068000    1.0834283   -3.9633292    898.60852  0.070116146  0.072222747            2 
 1069000    1.0654821   -3.9023035    901.12828  0.070246982   0.07220364            3 
 1070000    1.0519046   -3.9208607    899.68619  0.070069018  0.072184863            2 
 1071000    1.0725655   -3.9202135    904.89098  0.070408573  0.072166113            3 
 1072000    1.0799964   -3.9309911    904.62793  0.070322445  0.072147414            2 
 1073000    1.0746374   -3.9662893    901.63385  0.070024375  0.072128876            3 
 1074000    1.0783012    -3.923507    900.27073  0.069853409  0.072109663            5 
 1075000      1.06049   -3.9011918    909.15102  0.070476823  0.072091313            1 
 1076000    1.0916001   -3.9388638    903.71912  0.069990638  0.072073104            3 
 1077000    1.0644084   -3.8961133    907.73006     0.070236  0.072054493            4 
 1078000    1.0790792   -3.9432665    904.20401  0.069898269   0.07203627            2 
 1079000    1.0787609   -3.9587205    908.97774  0.070202173  0.072018462            2 
 1080000    1.0570315   -3.9608982    910.69393  0.070269594  0.072000576            3 
 1081000    1.0585188   -3.9461132     907.8014  0.069981607  0.071982192            4 
 1082000     1.078375   -3.9065127     915.1916  0.070486106  0.071964588            3 
 1083000    1.0916454    -3.967706    908.64116  0.069916987  0.071946685            1 
 1084000    1.0692617   -3.9268964    916.21227  0.070434522  0.071928991            2 
 1085000    1.0797811   -3.9046249    918.45529  0.070541881  0.071911968            3 
 1086000    1.0665539   -3.9420285    914.57742   0.07017936  0.071895051            3 
 1087000     1.064992   -3.9206793    916.04388  0.070227222  0.071877144            4 
 1088000     1.098682   -3.9370411    916.43792  0.070192855   0.07185971            8 
 1089000    1.0975821   -3.9589795    914.67862  0.069993773  0.071841935            2 
 1090000    1.0910124   -3.9404814    916.90276  0.070099599   0.07182446            3 
 1091000    1.0656556   -3.9335787    919.09127  0.070202511  0.071806791            5 
 1092000    1.0672531   -3.9527157    918.90156  0.070123745  0.071788667            3 
 1093000    1.0838348   -3.9243138    915.10263  0.069769947  0.071770881            2 
 1094000    1.0884196   -3.9578231    918.03918  0.069929858  0.071753259            1 
 1095000    1.0749907   -3.9538357    920.45817  0.070050089  0.071736194            3 
 1096000    1.0740355   -3.9290186    924.81991  0.070317815  0.071719107            3 
 1097000    1.0784851    -3.942402    921.07826  0.069969482  0.071702079            2 
 1098000    1.0775249   -3.9652989    923.89045   0.07011919  0.071684774            2 
 1099000    1.0892412    -3.934764    921.91541  0.069905627  0.071668551            4 
 1100000     1.102826   -3.8928944    928.41942  0.070334805  0.071651434            5 
 1101000    1.0720661   -3.9248878    929.04988  0.070318641  0.071635136            1 
 1102000    1.0772678   -3.9530348    929.19151  0.070265541   0.07161936            4 
 1103000    1.0807375   -3.9233767    930.86581  0.070328333  0.071602956            4 
 1104000    1.0343206   -3.9265967    931.81523  0.070336295   0.07158743            5 
 1105000    1.0545164   -3.9184178    933.77698  0.070420587  0.071571758            1 
 1106000    1.0739139    -3.924832    935.00723  0.070449611  0.071555888            4 
 1107000    1.0728334   -3.9502849    932.94866  0.070231004  0.071539968            3 
 1108000    1.0660864   -3.9453908    930.58067  0.069989521  0.071523983            1 
 1109000    1.1095566    -3.928304    932.56583  0.070075581   0.07150797            2 
 1110000    1.0653604    -3.930537    932.27478  0.069990599  0.071492276            2 
 1111000    1.0784757   -3.9611146    929.98782  0.069756062  0.071476742            2 
 1112000    1.0660544   -3.9615186    937.06606  0.070223776  0.071460908            3 
 1113000    1.0764859   -3.9458333    934.52778  0.069970634  0.071445063            3 
 1114000     1.060324   -3.9497429    937.67962  0.070143598  0.071429544            4 
 1115000    1.0790606   -3.9566123    938.77439   0.07016251  0.071413599            1 
 1116000    1.0771889   -3.9166483    938.78307  0.070100289  0.071398973            1 
 1117000    1.0683409   -3.9057304    943.37877  0.070380392  0.071384048            2 
 1118000    1.0871339   -3.9178859    942.25245  0.070233486  0.071369954            2 
 1119000    1.0519105   -3.9456525    940.64973  0.070051365  0.071355496            2 
 1120000    1.0728953    -3.942701     944.5217  0.070276912  0.071340501            3 
 1121000    1.0503542   -3.9609727    944.30447  0.070198072   0.07132567            2 
 1122000    1.0897969   -3.9324049    944.44268  0.070145772  0.071311415            3 
 1123000     1.067535   -3.9442977    944.29496  0.070072348  0.071297222            3 
 1124000    1.0722894   -3.9219026    947.72254  0.070264126  0.071282782            1 
 1125000    1.0675099   -3.9514626    949.19416  0.070310678  0.071268343            3 
 1126000    1.0705673   -3.9205799    946.15884  0.070023597  0.071254244            2 
 1127000    1.0515119    -3.958183     951.1759  0.070332439   0.07124042            2 
 1128000    1.0527556   -3.9740119    947.29915  0.069983684  0.071226098            6 
 1129000    1.0440914   -3.9383184    950.70618  0.070173175  0.071211855            2 
 1130000    1.0962649   -3.9260538    955.37601  0.070455458  0.071197643            3 
 1131000    1.0603296   -3.9287698    955.17329  0.070378226  0.071184019            3 
 1132000    1.0508827   -3.9347337    955.24427   0.07032128  0.071170263            2 
 1133000    1.0631426   -3.9383623    957.79077  0.070446512  0.071156525            4 
 1134000    1.0689836   -3.9596598    955.98042  0.070251354  0.071142829            2 
 1135000    1.0800219    -3.953384    952.32297  0.069920923  0.071129174            4 
 1136000    1.0625484   -3.8959808     962.6351  0.070615838  0.071116055            4 
 1137000    1.0701364   -3.9421113    956.75927  0.070123077  0.071102588            2 
 1138000    1.0660212   -3.9560542    956.54096  0.070045471  0.071089466            4 
 1139000    1.0503348   -3.9844995    955.05109   0.06987497  0.071075687            5 
 1140000     1.060365   -3.9989419     957.8412  0.070017631  0.071061975            7 
 1141000    1.0951287   -3.9657398    956.45536  0.069855051  0.071048073            1 
 1142000    1.0664927   -3.9348488    962.16033  0.070210181  0.071034646            2 
 1143000    1.0742116   -3.9602248    960.64122  0.070038001    0.0710209            4 
 1144000    1.0588495    -3.971609    958.82689  0.069844616  0.071006965            2 
 1145000    1.0703011   -3.9564937    959.75987  0.069851519   0.07099299            2 
 1146000    1.0815424   -3.9491699    961.49429  0.069916688  0.070978645            2 
 1147000    1.0731822   -3.9649839    959.90992  0.069740622  0.070964908            3 
 1148000    1.0496794   -3.9208862    963.16905  0.069916452  0.070951139            2 
 1149000    1.0661917    -3.954972    965.27962  0.070008675  0.070937363            1 
 1150000    1.0728894   -3.9660868    964.66988  0.069903614  0.070924023            2 
 1151000    1.0759933   -3.9509857    969.37674  0.070183662  0.070910045            2 
 1152000    1.0915401   -3.9671223     969.1411  0.070105693  0.070895993            3 
 1153000    1.0536332   -3.9545807    966.24806  0.069835795  0.070881746            1 
 1154000    1.0623913   -3.9457581    967.92804  0.069896595  0.070868105            3 
 1155000    1.0526173   -3.9543783    969.57517  0.069954919  0.070853904            3 
 1156000    1.0917003    -3.955172     968.3184  0.069803806  0.070839764            1 
 1157000    1.0702068   -3.9658999    966.60825    0.0696203  0.070825377            2 
 1158000    1.0562795    -3.959502    968.30497   0.06968228  0.070810474            4 
 1159000    1.0908698   -3.9404179    969.15132  0.069683011    0.0707957            6 
 1160000    1.0719494   -3.9556504    971.16319  0.069767471  0.070781541            2 
 1161000    1.0862988   -3.9542099     973.5733  0.069880369  0.070767513            2 
 1162000    1.0885454   -3.9485372    972.38517  0.069735023  0.070753109            2 
 1163000    1.0533941   -3.9668685    970.03387  0.069506583  0.070738268            2 
 1164000    1.0590995   -3.9523832     974.7284  0.069782961  0.070724215            3 
 1165000    1.0557042   -3.9506662    975.81352  0.069800681  0.070709905            2 
 1166000    1.0594124   -3.9654634     974.6891  0.069660456  0.070696345            3 
 1167000    1.0725833   -3.9740644    976.50722  0.069730593  0.070682333            2 
 1168000    1.0512323   -3.9744445    975.74954  0.069616834  0.070668065            3 
 1169000     1.073884   -3.9795157    975.37721  0.069530739  0.070654028            2 
 1170000    1.0870464   -3.9475933    980.89198  0.069864101  0.070640584            2 
 1171000    1.0346937    -3.958138    980.23695  0.069757825  0.070626793            2 
 1172000    1.0547676   -3.9655232    982.20164  0.069838001  0.070613941            1 
 1173000    1.0703364    -3.966245    976.20219  0.069352244  0.070599992            3 
 1174000    1.0414844   -3.9581726    978.85642  0.069481574  0.070586281            2 
 1175000    1.0835348   -3.9594127    979.52792  0.069470065  0.070572404            3 
 1176000    1.0404693    -3.959101    986.43938   0.06990075  0.070559002            2 
 1177000    1.0705871   -3.9700286    983.08298  0.069603723  0.070545283            2 
 1178000    1.0497788   -3.9598565    984.33632    0.0696333  0.070531545            3 
 1179000    1.0492416   -3.9405371     988.0021   0.06983334  0.070518487            2 
 1180000    1.0402811   -3.9779744    982.89447  0.069413451  0.070504794            3 
 1181000    1.0641042   -3.9927236    984.34691  0.069457163  0.070490712            3 
 1182000     1.057619   -3.9766282    983.54746  0.069342038    0.0704764            4 
 1183000    1.0406581   -3.9585429    991.98472  0.069877763  0.070462039            2 
 1184000    1.0707532   -3.9542517    985.35814  0.069352346  0.070448449            2 
 1185000    1.0614136   -3.9747265    989.03022  0.069552055  0.070434431            3 
 1186000    1.0779009   -3.9423251    987.98469  0.069419947   0.07042094            2 
 1187000    1.0398893   -3.9582383    991.90328  0.069636569  0.070407535            4 
 1188000    1.0698593   -3.9806301    989.49891  0.069409295   0.07039399            3 
 1189000    1.0696302   -3.9836862    992.44728  0.069557561   0.07037998            1 
 1190000    1.0549195   -3.9737012    989.83536  0.069316202  0.070365708            2 
 1191000    1.0967957   -3.9532199    993.02306  0.069481042  0.070351957            4 
 1192000    1.0613128   -3.9889253    993.72105   0.06947155  0.070338252            5 
 1193000    1.0603167   -3.9572088    993.78634  0.069417878   0.07032437            2 
 1194000    1.0588521   -3.9732999    992.77107  0.069288879  0.070310262            3 
 1195000    1.0665837     -3.96546    995.73129  0.069437328  0.070295863            5 
 1196000    1.0552737   -3.9628472    997.41901  0.069496865  0.070282015            3 
 1197000    1.0515865   -3.9694744    996.09212   0.06934643  0.070268173            2 
 1198000    1.0435887   -4.0051516    997.47698  0.069384876  0.070254236            6 
 1199000    1.0671704   -3.9834112    993.90974  0.069079076  0.070239995            3 
 1200000    1.0480484   -3.9428661    997.43401   0.06926625  0.070225569            2 
 1201000    1.0425519   -3.9649593     995.5279  0.069076319  0.070211155            2 
 1202000    1.0545793   -3.9669288    993.52429  0.068879943  0.070196071            3 
 1203000    1.0414614   -3.9730661    998.70061  0.069181256  0.070181467            3 
 1204000    1.0390995   -3.9644336    1001.4597  0.069314764  0.070166652            2 
 1205000    1.0763491   -3.9398235    997.41859  0.068977772  0.070151729            2 
 1206000    1.0498534   -3.9849307    998.62967  0.069004261  0.070136535            2 
 1207000    1.0584609    -3.970735    999.19496   0.06898612  0.070121455            2 
 1208000    1.0929391   -3.9744381    998.27665  0.068865663  0.070106589            3 
 1209000    1.0697145   -3.9874117    999.96365  0.068924983  0.070091758            2 
 1210000    1.0372018   -3.9834617    998.89011  0.068794084  0.070076435            3 
 1211000    1.0448016   -3.9680104    994.47115  0.068433193  0.070060981            4 
 1212000    1.0727412    -3.951229    1001.5627  0.068864323  0.070045725            3 
 1213000    1.0443218   -3.9627853    1003.6793  0.068952962  0.070030299            4 
 1214000    1.0677512   -3.9914583    1000.9114  0.068706166  0.070015019            4 
 1215000    1.0627794   -3.9703906    1001.1245   0.06866423  0.069999929            2 
 1216000    1.0781171   -3.9620721    1003.6737  0.068782466  0.069984485            3 
 1217000    1.0659893   -4.0121279    1002.0936  0.068617745  0.069969322            2 
 1218000    1.0448713   -3.9926425    1001.9598  0.068552255  0.069954243            4 
 1219000    1.0639054   -3.9727938    1008.6203  0.068951347  0.069939093            3 
 1220000    1.0599795   -3.9321986    1012.3913  0.069152409  0.069923919            2 
 1221000    1.0723444   -3.9934474    1005.3853  0.068617618  0.069908751            4 
 1222000     1.084829   -3.9794193    1007.2852  0.068691023  0.069893654            2 
 1223000    1.0683832   -3.9749061    1006.4073  0.068575039  0.069878385            3 
 1224000    1.0545893   -3.9901172    1007.1838  0.068571879  0.069863188            1 
 1225000    1.0381194   -3.9796343    1008.4576   0.06860256  0.069847984            1 
 1226000    1.0578797   -3.9873568    1010.0347  0.068653801  0.069833021            2 
 1227000    1.0555333   -3.9691875    1011.6464  0.068707306  0.069817407            3 
 1228000    1.0431944   -3.9635264    1011.2448  0.068624106   0.06980189            3 
 1229000    1.0415196   -3.9485799    1011.8483  0.068609185  0.069787093            2 
 1230000     1.072869   -3.9479419    1015.6433  0.068810522  0.069771736            3 
 1231000    1.0262019   -3.9843956    1013.9468  0.068639778  0.069756448            5 
 1232000    1.0516072   -3.9624878    1015.1343   0.06866439  0.069741292            4 
 1233000    1.0488769    -3.961407     1016.132  0.068676126   0.06972635            3 
 1234000    1.0607313   -3.9474073    1017.5741  0.068717859  0.069711616            3 
 1235000    1.0722746     -3.98358    1013.9513  0.068417763  0.069696838            6 
 1236000    1.0637945   -3.9603748    1019.0975  0.068709378  0.069682066            2 
 1237000    1.0489403   -3.9517529     1023.425  0.068945366  0.069667491            3 
 1238000    1.0553784   -3.9795136    1020.9752  0.068724771  0.069653038            3 
 1239000    1.0554042   -3.9693096    1020.7641  0.068655106  0.069638101            3 
 1240000    1.0521259   -3.9916223    1019.3544  0.068504998  0.069623598            3 
 1241000    1.0436343    -3.984097    1022.5392   0.06866366  0.069609085            2 
 1242000    1.0500583   -3.9891993    1021.7423  0.068554902  0.069594329            3 
 1243000    1.0407525   -3.9743076    1023.1219  0.068592242  0.069579292            2 
 1244000    1.0406134   -3.9798318    1022.1967  0.068475126  0.069564951            3 
 1245000    1.0445878   -3.9700545    1022.5393  0.068443061  0.069550275            2 
 1246000     1.032423   -3.9695729    1019.3979   0.06817803  0.069535503            2 
 1247000    1.0735697   -3.9410762    1029.1891  0.068777672   0.06952088            4 
 1248000     1.059577   -3.9707361    1029.4892  0.068742602  0.069506021            2 
 1249000    1.0477822   -4.0236307    1023.7289  0.068303238   0.06949122            1 
 1250000     1.024345   -3.9662623    1022.1752  0.068145012  0.069476285            3 
 1251000     1.047736   -3.9947144    1024.6518  0.068255518  0.069461093            1 
 1252000      1.04591    -3.973368    1032.0039  0.068690358   0.06944642            3 
 1253000    1.0460415   -3.9726326    1029.5291  0.068470946  0.069431293            2 
 1254000    1.0531975   -4.0041926    1024.9752  0.068113717  0.069416645            2 
 1255000    1.0525437   -4.0001687     1025.161  0.068071781   0.06940125            2 
 1256000    1.0071391    -3.979416    1026.8587  0.068130225  0.069385774            2 
 1257000    1.0523887   -3.9453073    1030.2582  0.068301395  0.069371045            1 
 1258000    1.0526407   -3.9633746    1033.5906  0.068467846  0.069355959            1 
 1259000    1.0440097   -4.0158681    1028.0806  0.068048755  0.069340041            3 
 1260000    1.0291133   -3.9837441    1029.0377  0.068058049  0.069324254            3 
 1261000    1.0402356   -3.9881242    1029.7472  0.068050962  0.069309005            2 
 1262000    1.0329613   -3.9690397    1033.8372  0.068267118  0.069293685            2 
 1263000    1.0787213   -3.9884762    1031.0974   0.06803229  0.069278451            2 
 1264000    1.0527059   -3.9978479    1030.5836  0.067944594  0.069263402            2 
 1265000    1.0540556   -3.9792019    1035.6263  0.068223077  0.069248324            2 
 1266000    1.0529001   -3.9892812    1034.5152  0.068096048   0.06923328            2 
 1267000    1.0284108   -3.9937558    1037.1884  0.068218124  0.069218338            2 
 1268000    1.0614467   -3.9905547    1035.4943  0.068052988  0.069203675            1 
 1269000    1.0590518   -3.9959865    1040.8785  0.068352935  0.069188883            2 
 1270000    1.0434488   -3.9844559    1037.7815  0.068095901  0.069173962            5 
 1271000    1.0275782   -3.9576277    1040.2627  0.068205004  0.069159311            5 
 1272000    1.0611738   -3.9823813    1039.0033  0.068068873  0.069144806            2 
 1273000    1.0513207   -3.9891209    1041.5189  0.068180081  0.069130197            4 
 1274000    1.0452321   -3.9673045    1039.5911  0.068000463  0.069114927            4 
 1275000    1.0525624   -3.9894606    1036.9211  0.067772622  0.069100371            6 
 1276000    1.0475178   -3.9957093    1043.4202   0.06814395  0.069085818            4 
 1277000    1.0265498   -3.9919005    1039.1355  0.067810984  0.069070523            4 
 1278000    1.0358469   -4.0113369    1038.8749   0.06774093  0.069055115            2 
 1279000    1.0537427   -4.0084886    1041.8239  0.067880107  0.069039531            2 
 1280000    1.0426479   -3.9979281    1042.4595  0.067868457  0.069024021            2 
 1281000    1.0246739   -3.9711062    1040.6933  0.067700581   0.06900823            1 
 1282000     1.062873   -4.0132629    1042.6172  0.067772828  0.068992873            2 
 1283000    1.0392556    -4.008443    1045.6481  0.067916869  0.068977765            1 
 1284000    1.0515906   -3.9907245    1043.6968  0.067737333  0.068962464            3 
 1285000    1.0193352   -3.9658231    1049.5255  0.068062612  0.068947372            1 
 1286000    1.0451034   -4.0205649    1047.6296  0.067886833  0.068932114            3 
 1287000    1.0351267   -3.9879909    1048.1792  0.067869668  0.068917078            3 
 1288000    1.0387341   -3.9791771    1043.8846  0.067539116  0.068901984            4 
 1289000    1.0591938   -3.9716715    1053.0481   0.06807914  0.068887061            7 
 1290000    1.0289484   -3.9828028    1049.4546  0.067794226  0.068871818            4 
 1291000    1.0315201   -3.9861347     1049.553  0.067748063  0.068856795            2 
 1292000    1.0278199   -3.9480871    1053.1161  0.067925444  0.068842187            3 
 1293000    1.0639161   -3.9993638    1055.0398  0.067996891  0.068827089            2 
 1294000     1.050564   -4.0153255    1048.7407  0.067538684  0.068812173            3 
 1295000    1.0391893   -3.9997786    1049.0824  0.067508522  0.068797179            2 
 1296000    1.0530374    -3.983707    1056.8762  0.067957572  0.068782451            1 
 1297000    1.0035068   -3.9756239    1053.3224  0.067676843  0.068767571            2 
 1298000    1.0434461   -3.9770579    1054.4505  0.067697127  0.068752542            2 
 1299000    1.0766066   -3.9913551    1055.6965  0.067724947  0.068737692            1 
 1300000    1.0429843   -3.9738771    1059.3199  0.067905119  0.068723619            3 
 1301000    1.0333641    -3.963224    1057.9859  0.067767477  0.068709082            1 
 1302000    1.0529575   -4.0170314    1055.2518  0.067540438  0.068694587            5 
 1303000    1.0338149   -3.9733563    1058.9743  0.067726676  0.068679949            2 
 1304000    1.0147192   -4.0013211    1059.0741  0.067681119   0.06866526            3 
 1305000    1.0506786   -3.9892395    1063.0298  0.067881855  0.068650357            2 
 1306000    1.0518925   -4.0003426    1056.1233  0.067389184   0.06863554            2 
 1307000    1.0395774     -4.02396    1060.0109  0.067585497  0.068620245            5 
 1308000    1.0411565   -3.9945568    1059.2848  0.067487566  0.068604976            2 
 1309000    1.0232616   -4.0031557    1060.2605  0.067498121  0.068589889            2 
 1310000    1.0243833   -4.0388574    1060.7277  0.067476316  0.068574795            7 
 1311000    1.0423709   -4.0030994    1063.5348  0.067603278  0.068559356            1 
 1312000    1.0498292   -4.0050111    1057.5397  0.067170966  0.068543942            3 
 1313000    1.0227565    -4.034976    1063.6075   0.06750492   0.06852898            4 
 1314000    1.0483105   -4.0093667    1062.3808  0.067375747  0.068513729            2 
 1315000      1.06589   -3.9981425    1065.4371  0.067518193   0.06849838            2 
 1316000    1.0590519   -4.0074558    1062.3355  0.067270485  0.068482822            6 
 1317000    1.0454775   -4.0118314    1064.2575  0.067341022  0.068467183            3 
 1318000    1.0528093   -3.9700788    1065.1185  0.067344364  0.068451674            1 
 1319000    1.0647407   -3.9818294    1063.4024  0.067184887  0.068436384            4 
 1320000    1.0416223    -4.003221    1066.7428  0.067344871  0.068420881            3 
 1321000    1.0204079   -3.9804177    1066.7302  0.067293096  0.068404892            3 
 1322000    1.0635613   -3.9914702    1062.3679  0.066967218  0.068389043            5 
 1323000    1.0233695   -3.9701152    1066.6715  0.067187675  0.068373061            3 
 1324000    1.0408285   -3.9881026    1068.4859  0.067251128  0.068357269            3 
 1325000    1.0326274   -3.9805917    1066.9602  0.067104414  0.068341455            3 
 1326000    1.0566714   -3.9902061    1066.3712  0.067016794  0.068325901            3 
 1327000     1.019101   -4.0312976    1066.1727  0.066953825  0.068310034            2 
 1328000    1.0318317    -3.998619    1067.7313  0.067001214  0.068294207            5 
 1329000    1.0270872   -3.9931881    1068.1475  0.066976897  0.068278748            2 
 1330000    1.0272802   -4.0109862    1069.4463  0.067007916  0.068263104            4 
 1331000     1.053409   -4.0195979    1068.3252  0.066887378   0.06824747            4 
 1332000      1.01498   -3.9798488    1070.9656  0.067002354  0.068231894            3 
 1333000    1.0363812   -4.0295229    1068.5973   0.06680403  0.068216204            6 
 1334000    1.0348106   -4.0049289    1076.1257  0.067224241  0.068200409            2 
 1335000     1.045759   -4.0069059     1071.932  0.066912108  0.068184101            3 
 1336000    1.0177228   -3.9814273    1071.4457  0.066831692  0.068167921            2 
 1337000    1.0378121   -3.9910916    1073.9316  0.066936652  0.068152065            4 
 1338000     1.023252   -3.9717745    1076.3297   0.06703598  0.068135652            4 
 1339000    1.0300343   -3.9889067    1074.7353   0.06688669   0.06811989            2 
 1340000    1.0574011   -3.9954428    1077.4703  0.067006858  0.068104194            2 
 1341000      1.03144   -3.9873443    1076.2088  0.066878499  0.068087985            2 
 1342000    1.0154505    -4.021953    1073.0087  0.066629951  0.068071821            2 
 1343000    1.0374254   -3.9752314     1076.534   0.06679908  0.068055618            2 
 1344000    1.0284857   -4.0142788    1076.6887  0.066758969   0.06803959            2 
 1345000    1.0473892   -3.9804067    1077.8183  0.066779324  0.068023314            2 
 1346000    1.0601663   -3.9529187    1084.0464  0.067115305  0.068006826            3 
 1347000     1.065428   -4.0183246    1071.8375  0.066310165  0.067989944            2 
 1348000     1.009105     -4.00261    1074.2682  0.066411237   0.06797294            4 
 1349000    1.0359206   -4.0227781    1073.9654  0.066343304  0.067956119            2 
 1350000    1.0414515    -4.007721    1075.7729  0.066405733  0.067939292            2 
 1351000    1.0343319   -4.0088718    1080.1918   0.06662915  0.067922862            2 
 1352000    1.0360406   -3.9796791    1080.7155  0.066612146  0.067906023            3 
 1353000    1.0097156   -4.0248701    1077.5006  0.066364907  0.067889307            4 
 1354000    1.0377824   -3.9944484    1082.0378  0.066595139  0.067872493            3 
 1355000    1.0405053   -4.0099513    1077.8736  0.066289889  0.067855524            7 
 1356000    1.0343724    -4.006994     1086.793  0.066789144  0.067838826            2 
 1357000    1.0450183   -4.0072917    1081.2959  0.066402352  0.067822152            6 
 1358000    1.0311823   -4.0367998    1081.2329  0.066349587  0.067805146            5 
 1359000    1.0493429   -4.0020162    1079.2953  0.066181954  0.067787658            4 
 1360000    1.0082087   -4.0120265    1083.8584  0.066412892   0.06777077            4 
 1361000   0.98141329   -3.9955661    1083.5848   0.06634734  0.067753558            4 
 1362000    1.0366207    -3.969002    1085.0753  0.066389825  0.067736238            4 
 1363000    1.0314795   -4.0069171    1080.1659  0.066040959   0.06771879            2 
 1364000    1.0434749   -4.0311198    1082.2414   0.06611934  0.067701322            8 
 1365000    1.0426357   -4.0116577    1087.3171  0.066380773  0.067684121            5 
 1366000    1.0330052   -4.0370694    1085.9008  0.066245779  0.067666748            7 
 1367000    1.0173286   -4.0228606    1083.5787  0.066055763  0.067649335           10 
 1368000    1.0501775   -3.9957373    1091.0936  0.066465256  0.067631998            3 
 1369000    1.0245006   -4.0296069    1088.5675  0.066262937  0.067614938            3 
 1370000    1.0243735   -4.0064617    1085.1822  0.066008648  0.067597832            5 
 1371000    1.0218217   -3.9997296    1088.0879  0.066137117  0.067580994            2 
 1372000     1.040579   -3.9987695    1093.7812  0.066434716  0.067563904            3 
 1373000    1.0136032   -4.0217363    1090.9386  0.066213799  0.067546721            2 
 1374000    1.0296497   -3.9971226    1091.0524  0.066172511  0.067529318            2 
 1375000    1.0335034   -4.0226925    1085.9469  0.065814962  0.067512051            4 
 1376000    1.0216744   -3.9878451    1091.0016  0.066073258  0.067494796            4 
 1377000    1.0130999   -4.0094579    1094.8423  0.066257702  0.067478313            2 
 1378000    1.0300239   -3.9746798    1095.4578  0.066246842  0.067461518            6 
 1379000    1.0310724   -3.9925095    1092.0563   0.06599325  0.067444334            2 
 1380000    1.0310386   -4.0491447    1092.5605  0.065975877   0.06742738            5 
 1381000    1.0530433   -4.0408817    1089.4059  0.065737747  0.067410415            2 
 1382000    1.0183349   -3.9940396    1095.3916  0.066051108  0.067393243            2 
 1383000    1.0219686   -4.0264674    1089.9423  0.065674998  0.067376285            4 
 1384000    1.0202629   -4.0128835    1093.8916  0.065865341   0.06735878            2 
 1385000    1.0348525   -4.0002996    1097.1406  0.066013271  0.067341649            7 
 1386000    1.0046783   -4.0507466    1093.8857  0.065769943  0.067324837            3 
 1387000    1.0004243   -4.0463668    1097.3343  0.065929725  0.067307338            2 
 1388000    1.0158499   -4.0388941    1092.0174  0.065563006  0.067290138            2 
 1389000    1.0217648   -4.0200534    1096.9231  0.065810122  0.067272705            4 
 1390000    1.0327732   -4.0267395     1095.672  0.065687768   0.06725554            5 
 1391000    1.0418846   -4.0206112    1093.2355  0.065494576  0.067238146            2 
 1392000    1.0463848   -4.0273502    1098.9154  0.065787561  0.067221152            3 
 1393000    1.0354765   -3.9983705    1098.4269   0.06571111  0.067204138            3 
 1394000    1.0423333   -4.0162129    1102.3933  0.065901082  0.067186793            2 
 1395000    1.0190737   -4.0161167    1103.7561  0.065935249  0.067170376            2 
 1396000    1.0338251   -4.0229204    1102.0684  0.065787275  0.067153758            6 
 1397000    1.0323994   -4.0089384    1107.9086  0.066088559  0.067136978            2 
 1398000    1.0291434   -4.0071569    1104.6882  0.065849322   0.06712036            3 
 1399000    1.0225609   -4.0361867    1101.4813  0.065611227  0.067104001            3 
 1400000    1.0225063   -4.0198547    1109.3833   0.06603472   0.06708774            4 
 1401000    1.0177039   -4.0110997     1108.846  0.065955625  0.067071808            1 
 1402000    1.0552717   -4.0209578    1107.6552  0.065837804  0.067056027            2 
 1403000    1.0440828   -4.0363245    1109.6414  0.065908853  0.067040192            2 
 1404000    1.0489519   -4.0422817    1112.3231   0.06602108  0.067024585            1 
 1405000    1.0263654   -4.0057273    1110.6108  0.065872525  0.067008748            2 
 1406000    1.0335277   -4.0028782    1111.1646  0.065858501  0.066992905            3 
 1407000    1.0376264   -4.0327679    1112.5709  0.065894982  0.066977138            4 
 1408000    1.0219697   -4.0304753    1109.3495  0.065657524  0.066961323            3 
 1409000     1.015156   -4.0149349    1110.7761  0.065695296  0.066945515            3 
 1410000    1.0483308   -4.0139831    1114.3053  0.065857289  0.066929901            3 
 1411000    1.0265065   -4.0213609    1113.7769  0.065779403  0.066914272            4 
 1412000    1.0354125   -4.0203457    1117.2009  0.065934895  0.066898704            2 
 1413000    1.0222628   -4.0620462    1113.9725  0.065697836  0.066883225            6 
 1414000    1.0248242   -4.0092303    1117.4791  0.065858036  0.066867837            4 
 1415000    1.0293634   -3.9922128    1120.3311  0.065979451  0.066852361            1 
 1416000    1.0119319   -4.0384003    1120.1373  0.065921449  0.066836839            2 
 1417000    1.0159293    -4.018239     1116.169  0.065641555   0.06682137            2 
 1418000    1.0432979   -3.9771749    1119.2079  0.065773856  0.066806107            4 
 1419000    1.0258221   -4.0268868    1114.2511  0.065436404  0.066790545            2 
 1420000    1.0450137   -4.0130962    1121.8582   0.06583675  0.066775257            2 
 1421000    1.0405603   -4.0059491    1120.9287  0.065735908  0.066759731            3 
 1422000    1.0300191   -4.0259397    1120.2163  0.065647929  0.066744384            2 
 1423000     1.038134   -4.0411881    1120.8353  0.065638047  0.066728707            3 
 1424000    1.0193879   -4.0396498    1120.0627  0.065546741  0.066712648            2 
 1425000    1.0253183    -4.001073    1125.5185  0.065819797  0.066696838            2 
 1426000    1.0357282   -4.0194238    1122.2522  0.065582762   0.06668145            2 
 1427000    1.0232279   -4.0252664    1125.4447  0.065723239  0.066666001            2 
 1428000    1.0246014   -4.0310285    1125.1458  0.065659769  0.066650419            3 
 1429000    1.0111705   -4.0490019    1125.6257  0.065641805  0.066635297            2 
 1430000    1.0197148   -4.0230998    1127.2083  0.065688128  0.066619784            3 
 1431000    1.0129792   -4.0382006    1123.6721  0.065436298  0.066604184            6 
 1432000    1.0042315   -4.0394629    1127.3857  0.065606707  0.066589155            4 
 1433000    1.0265212   -3.9936354    1133.1577  0.065896584  0.066574187            3 
 1434000    1.0126035   -4.0187793    1135.3074   0.06597556  0.066559244            2 
 1435000    1.0161359   -4.0275272    1134.6951  0.065894027  0.066544339            2 
 1436000    1.0190799   -4.0500498    1129.8706  0.065568165  0.066529274            4 
 1437000     1.012374   -4.0473685    1132.7364  0.065688726  0.066514322            3 
 1438000    1.0451727   -4.0374432    1131.8471  0.065591508  0.066499495            6 
 1439000    1.0053128   -4.0436482    1131.3047  0.065514516  0.066484717            3 
 1440000    1.0174201    -4.017063    1133.3779  0.065588997  0.066469941            2 
 1441000    1.0398319    -4.027765    1134.2276  0.065592622  0.066455012            5 
 1442000   0.99704023   -4.0213933    1133.7793  0.065521225  0.066440451            2 
 1443000    1.0097682   -4.0194017    1139.3327  0.065796532  0.066425822            4 
 1444000    1.0409362   -4.0396842     1138.387  0.065696387  0.066412038            3 
 1445000    1.0152933   -4.0281461    1137.4737  0.065598255  0.066397434            3 
 1446000    1.0157937   -4.0458754    1137.6299  0.065561886  0.066382497            2 
 1447000    1.0206175   -4.0434287    1134.7349  0.065349854  0.066367491            3 
 1448000    1.0243886   -4.0134937    1143.5952  0.065814639   0.06635246            5 
 1449000    1.0120072   -4.0458453    1138.5781  0.065480682  0.066337636            2 
 1450000    1.0047954   -4.0394088    1141.5913  0.065608695  0.066322799            2 
 1451000    1.0167868   -4.0085274    1143.2556   0.06565906  0.066308075            2 
 1452000    1.0155036   -4.0079011      1144.95   0.06571109  0.066293104            1 
 1453000    1.0223063   -4.0486392     1140.539  0.065412882  0.066278721            4 
 1454000    1.0231991   -4.0028382    1144.2449  0.065580291  0.066264124            5 
 1455000    1.0225479   -4.0343775    1141.2024  0.065360963   0.06624948            2 
 1456000      1.03333   -4.0419932    1143.8709  0.065468801  0.066234513            4 
 1457000    1.0088387   -4.0379167    1140.2336  0.065215831    0.0662199            2 
 1458000    1.0146745   -4.0288993    1144.5829   0.06541969  0.066205147            3 
 1459000   0.98427689   -4.0270038    1146.4375  0.065480779  0.066190386            2 
 1460000    1.0213627   -4.0460067     1142.896  0.065233788  0.066175649            5 
 1461000    1.0108139   -4.0145169    1146.5491  0.065397507  0.066160654            5 
 1462000    1.0093935    -4.045693     1141.115  0.065043032   0.06614574            4 
 1463000     0.990117   -4.0189861    1146.3296  0.065295604  0.066130623            5 
 1464000    1.0286229   -4.0581569    1145.8902  0.065225992  0.066115245            2 
 1465000    1.0159036   -4.0412804    1145.7028  0.065170805  0.066100104            3 
 1466000    1.0215337   -3.9922238    1152.0896  0.065489406  0.066084961            4 
 1467000    1.0171213   -4.0207134    1150.9451  0.065379751  0.066070009            2 
 1468000     1.016469   -4.0122694    1149.1754   0.06523475  0.066055036            2 
 1469000   0.98326808   -4.0107954    1149.7041  0.065220335  0.066039946            3 
 1470000    1.0231771   -3.9850682    1157.1175  0.065596231  0.066025068            1 
 1471000    1.0118037   -4.0388487    1151.3551  0.065225192  0.066010262            3 
 1472000     1.013686   -4.0252923    1148.7558  0.065033732  0.065995272            2 
 1473000     1.018788   -4.0321992    1151.6488  0.065153247   0.06598006            2 
 1474000    1.0202491   -4.0342982    1150.8433  0.065063504  0.065964766            3 
 1475000    1.0441327   -4.0310793    1150.7311  0.065013056  0.065949394            3 
 1476000    1.0114521    -4.029904    1148.0321  0.064816629  0.065933403            3 
 1477000    1.0022781   -4.0676909    1149.9838  0.064882858  0.065918189            2 
 1478000    1.0012071    -4.049188    1153.4175   0.06503256  0.065902343            3 
 1479000    1.0236298   -4.0361625    1149.4318  0.064764019  0.065886969            2 
 1480000    1.0267421   -4.0487167    1152.7989   0.06490985  0.065871987            5 
 1481000    1.0169384   -4.0602086    1154.3538  0.064953513  0.065856604            2 
 1482000    0.9966861   -4.0147213    1151.1062  0.064727066  0.065841725            1 
 1483000    1.0104061    -4.023155     1157.722  0.065055182   0.06582669            3 
 1484000    1.0033209   -4.0335575    1162.6578   0.06528851  0.065811795            2 
 1485000    1.0040481   -4.0305381    1157.0526  0.064930001  0.065797519            6 
 1486000    1.0026322   -4.0491729    1160.7738  0.065094985   0.06578305            4 
 1487000    1.0187339   -4.0221993    1159.4164  0.064975138  0.065768406            3 
 1488000   0.99742984    -4.060406    1158.2367  0.064865406  0.065753639            2 
 1489000    1.0136018   -4.0501784    1160.6083  0.064954574  0.065738844            3 
 1490000     1.016174   -4.0394384    1160.4281  0.064900901  0.065723493            2 
 1491000     1.015075   -4.0348388    1163.8945  0.065051115  0.065708796            3 
 1492000    1.0047861   -4.0427896    1163.9786  0.065012207  0.065694104            1 
 1493000    1.0038233    -4.043821    1166.0198  0.065082599  0.065679563            4 
 1494000   0.98544274   -4.0585137    1163.4499   0.06489569  0.065664979            4 
 1495000    1.0253065   -4.0710237    1162.4277    0.0647953  0.065650254            2 
 1496000    1.0115113   -4.0398774    1164.8656  0.064887788  0.065635772            3 
 1497000    1.0124426   -4.0593789    1162.8532  0.064732418  0.065621389            2 
 1498000    0.9967436   -4.0200722    1165.7558   0.06485068  0.065606855            2 
 1499000    1.0284618   -4.0437647     1166.061   0.06482438  0.065592309            7 
 1500000    1.0243702   -4.0535431    1166.9797  0.064832207  0.065577562            3 
 1501000    1.0248782   -4.0395657     1168.565  0.064877027  0.065562855            4 
 1502000    1.0015046   -4.0401895    1166.9178  0.064742441  0.065548252            3 
 1503000    1.0101401   -4.0544715    1168.2099  0.064771006  0.065533569            2 
 1504000    1.0391891   -4.0637967    1170.3816  0.064848269  0.065518911            2 
 1505000    1.0373053   -4.0824292    1166.9838  0.064617041  0.065504266            5 
 1506000    1.0099137   -4.0548349    1168.9412  0.064682446  0.065489627            3 
 1507000    1.0195174   -4.0715659    1170.3997  0.064720178  0.065475586            4 
 1508000    1.0293663   -4.0448172    1168.9926    0.0645995  0.065461199            3 
 1509000     1.009575    -4.054268    1167.6575  0.064482963  0.065446413            4 
 1510000     0.992329   -4.0431175     1172.349   0.06469917  0.065431781            2 
 1511000    1.0147414   -4.0705462    1172.4052  0.064659452  0.065417589            2 
 1512000    1.0153094   -4.0541008     1171.286  0.064555003  0.065403163            3 
 1513000    1.0275175   -4.0582094    1175.9391   0.06476862  0.065388519            2 
 1514000    1.0266544   -4.0489372    1174.1304  0.064626289  0.065374039            2 
 1515000   0.99951138   -4.0728302    1175.7112  0.064670581  0.065359691            1 
 1516000    1.0123131    -4.083253    1171.0442  0.064371383  0.065344824            2 
 1517000    1.0054815   -4.0318152     1173.634  0.064471218   0.06533003            1 
 1518000    1.0230547   -4.0406059    1175.2274  0.064516217  0.065315848            6 
 1519000    1.0106689   -4.0606719    1176.2171  0.064528037  0.065301361            3 
 1520000    1.0244401   -4.0780481     1174.428  0.064387498  0.065287105            5 
 1521000     1.012337   -4.0593956    1179.2238  0.064607925  0.065272917            3 
 1522000   0.99459606   -4.0420453    1181.1851  0.064672858  0.065258769            6 
 1523000   0.99909999   -4.0819772    1176.9362   0.06439791   0.06524447            2 
 1524000    0.9976717     -4.08447    1178.0765  0.064418004  0.065230167            3 
 1525000     1.008207   -4.0899416     1176.935  0.064313386  0.065215691            2 
 1526000    1.0050023   -4.0291062     1179.966  0.064436763  0.065201422            3 
 1527000   0.99809543   -4.0580748    1181.1984  0.064461823  0.065187325            4 
 1528000    1.0087791    -4.083803    1178.9683  0.064298012  0.065173085            4 
 1529000    1.0363171   -4.0276469    1187.0909  0.064698654  0.065158877            1 
 1530000   0.99746962   -4.0681752    1184.4152  0.064510633  0.065144501            2 
 1531000    1.0049657   -4.0793195    1181.9285  0.064333142  0.065129797            4 
 1532000    1.0038549   -4.0559102    1184.5902  0.064435934  0.065114938            3 
 1533000    1.0116689   -4.0487867    1184.2675  0.064376357  0.065100479            3 
 1534000    1.0229913   -4.0576018    1185.0732   0.06437816  0.065086038            3 
 1535000    1.0028869   -4.0890747    1187.2934  0.064456755  0.065071135            3 
 1536000    1.0112475   -4.0627415    1182.6386   0.06416225  0.065056411            2 
 1537000    1.0056133   -4.0915337    1182.0401  0.064088056    0.0650418            2 
 1538000   0.99122882   -4.0479372    1185.4186  0.064229441  0.065026968            5 
 1539000   0.99874711   -4.0611541      1187.85  0.064319365  0.065012744            3 
 1540000    1.0261152   -4.0307274    1191.0278  0.064449554  0.064998308            3 
 1541000   0.99421197   -4.0352162    1195.7799  0.064664714  0.064983914            3 
 1542000    1.0220832   -4.0588851    1185.8625  0.064086819  0.064969592            3 
 1543000    1.0157514   -4.0555776    1187.7816  0.064148931  0.064954898            4 
 1544000   0.99965627    -4.073885    1191.1319  0.064288207  0.064940271            3 
 1545000    1.0047545   -4.0602218    1191.1722  0.064248768  0.064925703            3 
 1546000   0.99892369   -4.0485387    1193.7359  0.064345401  0.064911093            3 
 1547000    1.0239967   -4.0662762    1187.9322  0.063991179  0.064896749            2 
 1548000   0.95709928   -4.0396924    1197.1569  0.064446432  0.064882041            4 
 1549000   0.98117114   -4.0523535    1193.5434  0.064210425  0.064867737            4 
 1550000    1.0184523   -4.0340412     1193.111  0.064145752  0.064853065            5 
 1551000    1.0050767   -4.0632918    1192.1393  0.064052187  0.064838478            3 
 1552000    1.0136149   -4.0577003    1191.0232  0.063950989  0.064823632            2 
 1553000   0.99179813   -4.0536184    1193.4395  0.064039467  0.064809022            2 
 1554000   0.98606687   -4.0610906    1197.2039  0.064200126  0.064794524            6 
 1555000   0.99621419   -4.0711591    1195.4972  0.064067376  0.064779819            6 
 1556000   0.99672078   -4.0433182     1196.663  0.064088634   0.06476514            4 
 1557000    1.0001437   -4.0402488    1194.8834  0.063952229  0.064750351            2 
 1558000   0.98585676   -4.0509289    1197.0636  0.064027794  0.064735436            3 
 1559000   0.99213393    -4.070999    1197.1706  0.063992444  0.064720214            5 
 1560000   0.99618501   -4.0526662    1196.8725  0.063935499  0.064705297            3 
 1561000     1.000175   -4.0719793    1191.3143  0.063597816  0.064690035            5 
 1562000   0.99520864    -4.062771    1196.5237  0.063835025  0.064674927            2 
 1563000    1.0034123   -4.0931475    1190.5708  0.063476798  0.064659252            4 
 1564000    1.0148017   -4.0408823    1197.4112  0.063800679  0.064644048            2 
 1565000     1.004486   -4.0307254     1206.911  0.064265763  0.064629002            3 
 1566000   0.98377507   -4.0482117    1200.8687  0.063903187  0.064614092            2 
 1567000   0.99655063   -4.0497708    1205.2216  0.064093897   0.06459934            2 
 1568000   0.98360421    -4.040854    1201.4601  0.063853111  0.064584784            2 
 1569000    1.0006467    -4.044415    1203.7246  0.063932683  0.064570269            4 
 1570000   0.99577415   -4.0468611    1203.6341  0.063887162  0.064555716            4 
 1571000    1.0022797   -4.0495971    1207.9776  0.064076892  0.064541389            1 
 1572000   0.98776927   -4.0354976    1203.9183  0.063820944   0.06452669            4 
 1573000   0.99194059     -4.04786    1202.7249  0.063717151  0.064512322            7 
 1574000    1.0000804   -4.0778894    1202.6288  0.063671577  0.064497188            3 
 1575000    1.0049736   -4.0441462     1207.969  0.063913705  0.064482208            1 
 1576000   0.98908188   -4.0297661    1210.9451  0.064030517  0.064467246            3 
 1577000   0.97179154   -4.0549086    1206.0687  0.063732227  0.064452198            2 
 1578000    1.0029728   -4.0991923    1202.7584  0.063517028  0.064437243            2 
 1579000    1.0000622   -4.0743864    1204.0187  0.063543311  0.064422376            3 
 1580000   0.98111808   -4.0421326    1210.9532  0.063868841   0.06440772            2 
 1581000   0.98835638   -4.0093539     1211.146  0.063838602  0.064392869            1 
 1582000     1.001881   -4.0627706    1208.0725  0.063636352  0.064378353            3 
 1583000     1.006007   -4.0489773    1206.9757  0.063538416  0.064363919            2 
 1584000   0.99456129   -4.0794517    1208.3466  0.063570423  0.064349069            4 
 1585000    1.0118554   -4.0699868    1210.4766  0.063642303   0.06433419            3 
 1586000    1.0005835   -4.0411347    1206.9985  0.063419427  0.064319387            4 
 1587000   0.99602119   -4.0802887    1209.1256  0.063491157  0.064304664            4 
 1588000   0.99675721   -4.0584809    1208.1942  0.063402301  0.064289687            2 
 1589000    1.0067735    -4.076962    1208.3221  0.063369107  0.064274897            4 
 1590000    1.0207009   -4.0910322    1210.2041  0.063427887  0.064259932            2 
 1591000    1.0017337   -4.0677215    1211.5477  0.063458398  0.064244839            3 
 1592000   0.98505802   -4.0593921    1218.2325  0.063768451  0.064229936            2 
 1593000    1.0116277   -4.0609908    1213.6616  0.063489308  0.064215078            2 
 1594000    1.0169279   -4.0743292    1214.4815  0.063492339   0.06420039            4 
 1595000   0.99153195   -4.0329226    1215.3921   0.06350011  0.064185692            4 
 1596000    1.0174991   -4.0551206     1217.193  0.063554356  0.064171033            5 
 1597000   0.99491251    -4.073228    1212.9937  0.063295434  0.064156396            2 
 1598000    1.0000146   -4.0461477    1219.1651  0.063577653  0.064141696            4 
 1599000    1.0135211   -4.0568946    1218.8365   0.06352077   0.06412672            2 
 1600000   0.99640228   -4.0614352    1218.2059  0.063448226  0.064112108            6 
 1601000   0.98405206   -4.0579066    1221.9486  0.063603404  0.064097538            3 
 1602000   0.99869554   -4.1005216    1216.1714  0.063263183   0.06408277            2 
 1603000   0.99361687   -4.0919951    1217.1498   0.06327458  0.064068209            3 
 1604000    1.0048734    -4.102535    1216.4203  0.063197232  0.064053434            4 
 1605000   0.98667028   -4.0811512    1220.0377  0.063345675  0.064038759            3 
 1606000    1.0004166    -4.082626    1224.5871  0.063542296  0.064024168            3 
 1607000   0.98863977   -4.0838788    1219.9671  0.063263179  0.064009449            3 
 1608000   0.99683268    -4.089448    1224.8541  0.063477101  0.063994951            3 
 1609000   0.99659368   -4.0747173    1221.2285  0.063249869  0.063980298            3 
 1610000    1.0227867   -4.0660088    1221.9232  0.063246543  0.063965811            3 
 1611000   0.98351969   -4.0854513    1221.6714  0.063194256  0.063951272            4 
 1612000   0.98668933   -4.0622083    1226.4268  0.063400887  0.063936823            2 
 1613000   0.97229868   -4.0614198    1226.6013  0.063370601  0.063922181            6 
 1614000    1.0022436   -4.0747984    1221.8481  0.063085918  0.063907275            3 
 1615000   0.98892563    -4.084525    1228.7426  0.063402612  0.063892861            4 
 1616000   0.97553913     -4.06827    1227.1578   0.06328165  0.063878518            3 
 1617000    1.0050789   -4.0639456    1226.4675  0.063206942  0.063864108            3 
 1618000   0.99325667   -4.0353013    1231.8162  0.063443355  0.063849866            5 
 1619000   0.97684526   -4.0796452    1230.7527  0.063349429  0.063835836            2 
 1620000    0.9953113   -4.0906141    1224.7055  0.062999254  0.063821789            2 
 1621000    1.0023607   -4.0930243    1226.6595   0.06306084  0.063807732            2 
 1622000    1.0075849    -4.057191    1230.7475  0.063231991  0.063793713            3 
 1623000   0.99537994   -4.0670131    1232.9223  0.063304699  0.063779736            1 
 1624000   0.99820235   -4.0942445    1230.3399  0.063133206  0.063765677            3 
 1625000    1.0034437    -4.085781    1232.9662  0.063229038  0.063751413            3 
 1626000      1.00921   -4.0789828    1234.8675  0.063287594  0.063737625            3 
 1627000    1.0075254   -4.0950815    1231.9039  0.063096904  0.063723635            4 
 1628000    1.0031412    -4.042877    1234.5208  0.063192098   0.06370978            5 
 1629000   0.98615462   -4.0729225    1238.2447  0.063343804  0.063696241            3 
 1630000   0.98640412   -4.1042482    1232.8262  0.063027922  0.063682579            3 
 1631000   0.99685334   -4.0918858    1234.1329  0.063056044  0.063668441            6 
 1632000   0.98427967   -4.0733575    1233.7088  0.062995751   0.06365433            2 
 1633000    0.9993444   -4.0844172    1233.2536  0.062933944  0.063640016            3 
 1634000    1.0074367   -4.0968705    1235.5892  0.063014546  0.063625801            4 
 1635000   0.97533558   -4.0560647    1237.0997  0.063052992  0.063611691            4 
 1636000   0.98431617   -4.0576035    1233.2405  0.062817874  0.063597445            7 
 1637000   0.99384184   -4.0457159     1238.212  0.063032579  0.063583018            4 
 1638000   0.99359783   -4.0843044    1241.8544  0.063179404  0.063568986            4 
 1639000   0.97694614   -4.0859508     1240.091  0.063051199  0.063554605            4 
 1640000   0.99085447   -4.1197724    1231.3712  0.062569673  0.063540177            3 
 1641000   0.99965962   -4.0842013     1239.507  0.062944696  0.063525404            2 
 1642000    0.9954324   -4.0702181    1237.0817  0.062783276  0.063511163           11 
 1643000   0.97718419   -4.0809659     1233.847     0.062581  0.063496722            4 
 1644000   0.97961686   -4.0574625     1241.556  0.062933701  0.063482211            2 
 1645000   0.98488108    -4.081963    1239.3476  0.062783565  0.063467406            4 
 1646000    1.0067161   -4.0769301    1243.7161  0.062966591   0.06345321            4 
 1647000   0.99730397   -4.0589475    1246.5594  0.063072223  0.063438592            3 
 1648000    1.0158468   -4.0674105    1240.6942  0.062737371  0.063424079            2 
 1649000   0.99723381    -4.067957    1244.0131  0.062867044  0.063409539            7 
 1650000   0.99294724   -4.0886445    1245.0222  0.062879907  0.063394929            2 
 1651000   0.98107028   -4.0516629    1242.1018  0.062694415  0.063380531            3 
 1652000   0.96433318   -4.1065457    1242.7473  0.062689026  0.063366002            2 
 1653000   0.98645821   -4.1132218    1241.3438  0.062580348  0.063351127            7 
 1654000   0.98708237   -4.0732923    1241.2691   0.06253875  0.063336525            2 
 1655000   0.98615305   -4.0932806    1245.9536  0.062736838  0.063321984            2 
 1656000    0.9771621   -4.1041127    1241.5308   0.06247639  0.063307399            6 
 1657000   0.98698042   -4.1076444    1241.0915   0.06241659   0.06329273            6 
 1658000   0.98542491   -4.0898697    1242.6935  0.062459465  0.063278436            3 
 1659000   0.98617543   -4.0496803    1245.6413  0.062569888  0.063263818            3 
 1660000   0.99177064   -4.0911188    1243.9788  0.062448735  0.063249041            3 
 1661000   0.97773166   -4.0841807    1246.6696  0.062546137  0.063234247            4 
 1662000    1.0270575   -4.0917321    1244.3803  0.062393716  0.063219297            4 
 1663000    1.0075898   -4.0574118    1246.2407  0.062449423  0.063204635            2 
 1664000   0.97808634   -4.0831252    1251.9213  0.062696379  0.063189801            4 
 1665000    1.0069946    -4.099812    1248.7458   0.06249979  0.063175189            4 
 1666000     1.011839   -4.0727389    1252.3629  0.062643203  0.063160546            6 
 1667000   0.99221313    -4.088047     1251.997  0.062587335  0.063145859            5 
 1668000   0.97309534   -4.0624007    1252.3548  0.062567683  0.063131257            3 
 1669000   0.96701137    -4.084356    1253.0202  0.062563424  0.063116691            2 
 1670000   0.97147099   -4.0864018    1246.7551  0.062213329  0.063102057            4 
 1671000   0.98516442   -4.0825349    1252.1828  0.062446779  0.063087259            4 
 1672000   0.99532693   -4.0846645     1255.827   0.06259106  0.063072613            2 
 1673000    0.9754773   -4.0893865     1249.028  0.062214982  0.063058205            3 
 1674000   0.97756337   -4.0775351      1256.03  0.062526382  0.063043868            2 
 1675000   0.97661896   -4.1373595    1245.8231  0.061981247  0.063029392            2 
 1676000    1.0042697    -4.090899    1253.1328  0.062307716  0.063014663            2 
 1677000   0.96197272   -4.0992081    1255.4836  0.062387381  0.063000189            3 
 1678000   0.99246228   -4.0844768    1255.5637  0.062354176  0.062985696            4 
 1679000   0.97844284   -4.0966758    1258.2482  0.062450279  0.062971401            2 
 1680000   0.97669918   -4.0931722    1255.3121  0.062267467  0.062956926            3 
 1681000   0.98305003   -4.0915547    1257.4375  0.062335787   0.06294273            3 
 1682000   0.98914687   -4.0681539    1260.2002  0.062435603  0.062928217            3 
 1683000   0.96652501   -4.0956296    1255.9205  0.062186595  0.062914002           10 
 1684000   0.99229683   -4.1081658    1259.1377  0.062308874  0.062899436            4 
 1685000    0.9737056   -4.0649118    1262.3927  0.062432872  0.062885157            1 
 1686000    1.0116206   -4.0893534    1259.3638  0.062246135  0.062870825            2 
 1687000   0.97561326   -4.0615978    1261.3061  0.062305182  0.062856469            2 
 1688000   0.97642495    -4.078833    1263.4456  0.062373894  0.062841989            2 
 1689000   0.98645704   -4.0814213    1260.8952  0.062211132  0.062827592            2 
 1690000   0.98392648   -4.1033645    1260.7787  0.062168575  0.062813202            2 
 1691000   0.96212211   -4.0860799    1259.0209  0.062045185  0.062798789            3 
 1692000   0.98142357   -4.0955501    1263.6086  0.062234468   0.06278447            2 
 1693000   0.97464065   -4.1120013    1259.2917  0.061985217  0.062770083            8 
 1694000    0.9788834   -4.0899581    1261.4661  0.062055596  0.062755492            4 
 1695000   0.98151653   -4.0855741    1261.5486  0.062023038  0.062741179            3 
 1696000   0.98249402   -4.0866061    1262.6561  0.062040885  0.062726767            4 
 1697000   0.98722663    -4.043771    1268.5387    0.0622932  0.062712414            4 
 1698000   0.98201537   -4.1002461    1265.5527  0.062109966  0.062698231            3 
 1699000   0.99437905   -4.1049145    1268.2777  0.062207067  0.062683936            5 
 1700000   0.98669606    -4.083125    1264.2803  0.061974524  0.062669776            2 
 1701000   0.99182192   -4.1117799    1270.9923  0.062266915  0.062655489            2 
 1702000   0.97409087   -4.1242264     1265.149  0.061944232  0.062641058            3 
 1703000   0.96959241   -4.1407466    1272.0253  0.062244338  0.062626682            3 
 1704000   0.96810482   -4.0989588    1272.2052  0.062216609  0.062612521            3 
 1705000   0.96245889   -4.0955955    1272.4596  0.062192549  0.062598383            2 
 1706000   0.97868278   -4.0973661    1275.2982  0.062294752  0.062584182            4 
 1707000    1.0017202   -4.1010449    1272.5258  0.062122917  0.062570463            2 
 1708000   0.98231008   -4.0758764    1273.6111  0.062139494   0.06255669            3 
 1709000   0.96512139   -4.1012788    1269.9821  0.061926182  0.062542858            9 
 1710000    0.9743773   -4.0856099    1275.8145  0.062174194  0.062529139            4 
 1711000   0.95653411    -4.113678    1273.0808  0.062004713   0.06251533            3 
 1712000   0.99026345   -4.1054287    1273.4349  0.061985733  0.062501595            7 
 1713000   0.98715589   -4.0670873    1278.1165  0.062177298   0.06248786            3 
 1714000   0.98821013   -4.1403863    1274.1173  0.061946581  0.062473727            4 
 1715000   0.97149645   -4.0673304    1279.4232  0.062168278  0.062459857            1 
 1716000   0.99323956   -4.1268568    1275.2042  0.061927165  0.062445525            2 
 1717000   0.98436416   -4.1231021    1277.7776  0.062015999  0.062431553            7 
 1718000   0.96591727   -4.1118963     1272.917  0.061744129  0.062417572            2 
 1719000   0.96857186   -4.1067459    1273.9024  0.061755983  0.062403283            3 
 1720000   0.95352141   -4.1000889     1276.429  0.061842489  0.062389217            2 
 1721000   0.98057927   -4.1073184    1283.8745  0.062167076   0.06237538            6 
 1722000   0.97392606   -4.1146735     1274.393  0.061672135   0.06236177            4 
 1723000   0.97567005   -4.0954862    1279.8057  0.061898129   0.06234785            3 
 1724000   0.97307485   -4.1007815    1281.0461   0.06192218  0.062333965            2 
 1725000   0.95629713   -4.1046048    1277.1111  0.061696188  0.062320306            4 
 1726000   0.98390854   -4.0780278    1281.0724  0.061851701  0.062306279            7 
 1727000   0.97911285   -4.1000635     1278.994  0.061715597  0.062292546            4 
 1728000   0.95361028   -4.1148415    1283.7083  0.061907229  0.062278472            4 
 1729000   0.96493029   -4.0982174    1283.9053  0.061880916  0.062264366            2 
 1730000   0.98980091   -4.1117081    1281.5639  0.061732366  0.062250189            5 
 1731000   0.98294258   -4.0886215      1285.91  0.061905932  0.062236272            2 
 1732000   0.98064519   -4.1181959    1281.3179  0.061649245  0.062222204            3 
 1733000   0.98355515   -4.0971218    1281.4081   0.06161801  0.062207915            3 
 1734000   0.98928421   -4.0888695    1277.6966  0.061404104  0.062193656            2 
 1735000   0.98143915   -4.0997114    1285.8247  0.061759113  0.062179524            2 
 1736000   0.96855495   -4.1261863    1281.3498  0.061508725  0.062164836            2 
 1737000   0.95507961   -4.1069489    1280.8279  0.061448278  0.062150214            5 
 1738000   0.98721768   -4.1009131    1280.7738  0.061410327  0.062135737            2 
 1739000   0.96371814   -4.0861428    1282.3146  0.061448849  0.062120878            4 
 1740000   0.99785892   -4.0986342    1285.1195  0.061547866  0.062106601            2 
 1741000   0.98801564   -4.0990191    1282.1861   0.06137211  0.062092062            2 
 1742000   0.98714823   -4.1271217    1285.0748  0.061475066  0.062077932            2 
 1743000   0.95971719   -4.0947676    1286.9904  0.061531383  0.062063757            3 
 1744000   0.99679646   -4.1404671    1284.4619  0.061375282   0.06204944            3 
 1745000   0.97107143   -4.1225512     1289.237  0.061568145  0.062034821            4 
 1746000   0.96416742   -4.0930483    1286.6012  0.061407081  0.062020247            4 
 1747000    0.9825982   -4.0968503    1285.3179   0.06131072  0.062005427            3 
 1748000   0.98040085   -4.1010278    1284.0772  0.061216496  0.061990836            2 
 1749000   0.97573188   -4.1226553     1288.723  0.061402849  0.061976234            7 
 1750000    1.0009114   -4.0918954    1290.2231  0.061439193  0.061961527            2 
 1751000   0.98191246   -4.1286063    1288.4334  0.061318932  0.061947092            4 
 1752000   0.97130733   -4.0998294    1285.9293  0.061164825  0.061932496            3 
 1753000   0.95269894   -4.0870203    1292.9378    0.0614631  0.061918061            5 
 1754000   0.97000558   -4.1097652    1290.7617  0.061324671  0.061903496            3 
 1755000   0.98162365   -4.1076818    1292.8453  0.061388667   0.06188886            3 
 1756000   0.98958853   -4.0916915    1292.3155  0.061328565  0.061874243            6 
 1757000   0.96193274   -4.0986345    1286.4482  0.061015376  0.061859738            5 
 1758000   0.97317213   -4.1211887    1290.1918  0.061158126  0.061844828            3 
 1759000   0.98139408   -4.0973786    1293.4558  0.061277988  0.061830083            2 
 1760000   0.97535296   -4.1270386    1288.2722  0.060997735  0.061815429            1 
 1761000   0.97237714   -4.1169844    1291.0578  0.061094916  0.061800529            6 
 1762000   0.97136144    -4.098127    1289.7076  0.060996386  0.061785608            2 
 1763000   0.98240538   -4.1092004    1291.5252  0.061047701  0.061771042            3 
 1764000   0.96131374   -4.1103228    1293.5601  0.061109228  0.061756292            5 
 1765000   0.96306483   -4.1218566    1293.1362  0.061054591  0.061741238            3 
 1766000   0.96640969   -4.1118975    1296.4781  0.061177714  0.061726361            4 
 1767000   0.96308428   -4.1161135    1294.7734  0.061062697  0.061711158            3 
 1768000   0.96830635    -4.118389    1292.6863  0.060929786  0.061695931            4 
 1769000   0.93313436   -4.1231132    1298.4327  0.061166038  0.061680802            4 
 1770000   0.96245849   -4.1027618    1295.0693  0.060973129  0.061665812            3 
 1771000   0.97134985   -4.1140779    1292.8468  0.060834124  0.061650938            9 
 1772000   0.97263271   -4.1360716    1292.9788  0.060806002  0.061636084            2 
 1773000    0.9872367   -4.1243037     1289.127  0.060590665  0.061621124            3 
 1774000    0.9585977   -4.1306102    1296.3378  0.060895234  0.061605928            2 
 1775000    0.9652971   -4.1189081    1301.2281   0.06109052   0.06159104            6 
 1776000    0.9601393   -4.1074355    1297.5351  0.060882841  0.061576219            9 
 1777000   0.97135138    -4.096968    1297.6857   0.06085564  0.061561191            5 
 1778000   0.95778291   -4.1005175    1300.6532  0.060960499  0.061546027            2 
 1779000   0.96212698   -4.1042472    1299.5511  0.060874608  0.061531004            5 
 1780000   0.94914335   -4.1541862     1299.404  0.060833519  0.061515811            4 
 1781000   0.99185544   -4.0781089     1301.635  0.060903751   0.06150076            3 
 1782000   0.95981695   -4.1447658    1296.7852   0.06064278  0.061485607            2 
 1783000   0.96142114   -4.0924844     1303.612  0.060927836  0.061470716            2 
 1784000   0.96088369   -4.1210418     1300.641  0.060754905  0.061455893            5 
 1785000   0.96309158   -4.1180225    1301.3127  0.060752228  0.061440742            3 
 1786000   0.96786742   -4.0923588    1300.7074  0.060689969  0.061425696            2 
 1787000   0.95308082   -4.1481263    1296.4354   0.06045679   0.06141052            3 
 1788000    0.9571851   -4.1215279    1298.1562  0.060503177  0.061395425            6 
 1789000   0.97125968   -4.1116276    1304.5383  0.060766643  0.061380111            2 
 1790000    0.9588528   -4.0952183    1305.6634  0.060785075  0.061364962            3 
 1791000   0.95901417   -4.1055722    1305.0351  0.060721901  0.061349768            4 
 1792000   0.97020295   -4.1309485    1304.3279   0.06065513  0.061334865            8 
 1793000   0.98258083   -4.1247111    1305.3201  0.060667414   0.06132011            1 
 1794000   0.97555324   -4.1190105    1303.0673  0.060528953  0.061305155            3 
 1795000   0.97875769   -4.1267299    1302.4083  0.060464636  0.061290148            2 
 1796000   0.95486794   -4.1325369    1302.3361   0.06042762  0.061275283            3 
 1797000   0.96587599   -4.1138616    1303.9076  0.060466869  0.061260183            3 
 1798000   0.96593783   -4.1187977    1306.4505  0.060551098  0.061245211            3 
 1799000    0.9764535   -4.1117775    1304.2422  0.060415148  0.061230135            4 
 1800000   0.98543496    -4.111612    1308.4723  0.060577423  0.061215203            3 
 1801000   0.97980115   -4.1290597    1304.4193  0.060356253  0.061200528            6 
 1802000   0.96929784   -4.1157291     1309.874   0.06057501    0.0611857            4 
 1803000   0.98651391   -4.1202852    1308.3304   0.06047007  0.061171047            3 
 1804000   0.96772323   -4.1162841    1305.2059  0.060292216  0.061156243            5 
 1805000   0.97188455    -4.135008     1309.292  0.060447461  0.061141436            4 
 1806000   0.94741486   -4.1568815    1310.1358  0.060452925  0.061126574            2 
 1807000   0.95733454   -4.1356469    1310.3995  0.060431631  0.061111709            2 
 1808000   0.95469849   -4.1017265    1315.8031  0.060647267  0.061097149            4 
 1809000   0.96882622   -4.1359218    1308.3494  0.060270381  0.061082597            4 
 1810000   0.95727448   -4.1371166      1310.14  0.060319523  0.061067997            3 
 1811000   0.98486898   -4.1048787    1315.2918  0.060523273  0.061053305            2 
 1812000   0.95747293   -4.1465923    1311.5906  0.060319658  0.061038671            5 
 1813000   0.96404829   -4.0897989    1321.0169  0.060719659  0.061024402            3 
 1814000   0.97006925   -4.1397681    1314.9936  0.060409482  0.061009902            3 
 1815000   0.95589274   -4.1144357    1313.7054  0.060317052  0.060995543            2 
 1816000   0.97225489   -4.1157109    1316.6048  0.060416887  0.060980889            2 
 1817000   0.96998539   -4.1494612    1314.9237  0.060306536  0.060966112            2 
 1818000   0.96062054   -4.1542327    1314.0551  0.060233549  0.060951388            2 
 1819000    0.9485886   -4.1162535    1316.2215  0.060299685  0.060936692            5 
 1820000   0.96761867   -4.1192935    1318.1644  0.060355511   0.06092207            4 
 1821000   0.95317639   -4.1150376     1317.132  0.060275126  0.060907385            3 
 1822000   0.95008986   -4.1394428    1318.3091  0.060295879  0.060892689            4 
 1823000   0.95983599   -4.1268574    1317.8758  0.060242998  0.060878265            4 
 1824000   0.96499748   -4.1299383    1318.6473  0.060245215  0.060863727            3 
 1825000   0.97281009   -4.1149351    1317.8759  0.060176981  0.060849452            1 
 1826000   0.96055664   -4.1143512    1322.2213  0.060342339  0.060835071            5 
 1827000   0.96916664   -4.1509611    1321.7326  0.060287018  0.060820865            3 
 1828000   0.97621983   -4.1272146    1327.7793  0.060529689  0.060806515            3 
 1829000   0.96721343   -4.1310396    1323.1298  0.060284755  0.060792497            7 
 1830000   0.94381971   -4.1206306     1329.396  0.060537158  0.060778336            4 
 1831000   0.94675701   -4.1397272    1326.4044   0.06036794  0.060764003            4 
 1832000   0.94668003   -4.1271746    1327.5303  0.060386202  0.060749716            7 
 1833000   0.94990032   -4.1308359    1325.0675  0.060241292  0.060735591            2 
 1834000   0.96466278   -4.0753164    1332.0247  0.060524568  0.060721292            6 
 1835000   0.97320411    -4.117744    1324.7304  0.060160328  0.060707228            4 
 1836000   0.98324499   -4.1160711     1326.772  0.060220223  0.060692859            2 
 1837000   0.95187723   -4.1137758    1325.8465   0.06014546  0.060678327            2 
 1838000   0.97006329   -4.1004121    1329.1345   0.06026181  0.060664253            2 
 1839000   0.95344988   -4.1435318    1324.1588   0.06000357  0.060650054            6 
 1840000   0.94102843   -4.1476719    1323.2638  0.059930426  0.060635622            1 
 1841000   0.94953371   -4.1792936    1323.0913  0.059890063  0.060621112            2 
 1842000   0.95864036   -4.1270302    1330.0648  0.060173035   0.06060659            3 
 1843000   0.96979321   -4.1471846    1329.6751  0.060122764  0.060592067            5 
 1844000   0.96366971   -4.1029802    1332.8941  0.060235632  0.060577732            3 
 1845000    0.9476436   -4.1327884    1330.7335  0.060105397  0.060563499            8 
 1846000   0.95890722   -4.1334973    1331.7171  0.060117241  0.060549194            2 
 1847000    0.9337719   -4.1485399    1332.4406  0.060117334  0.060535005            2 
 1848000   0.96476898   -4.1758136    1331.9513  0.060062738  0.060520498            8 
 1849000   0.96188848   -4.1407459    1331.9874  0.060031882  0.060506163            4 
 1850000   0.94417181   -4.0829824    1333.2835  0.060057817  0.060491625            8 
 1851000   0.93798763   -4.1233662    1333.9144  0.060053772   0.06047736            2 
 1852000    0.9380651    -4.173396    1331.7875  0.059925643  0.060462948            2 
 1853000   0.94166744   -4.1411164    1335.3315  0.060052686  0.060448565            3 
 1854000   0.96220625   -4.1221505    1335.4868  0.060027274  0.060433933            3 
 1855000   0.98227082   -4.1468524    1338.0492  0.060110027  0.060419719            3 
 1856000   0.94496155   -4.1629687    1333.3304  0.059865769    0.0604054            4 
 1857000   0.98378483   -4.1405801    1335.8022  0.059944454  0.060391365            3 
 1858000   0.95027601    -4.108328    1338.1929  0.060019415  0.060377103            5 
 1859000   0.94289382   -4.1375592    1336.0538   0.05989124  0.060362967            3 
 1860000    0.9609995   -4.1595233    1334.2036  0.059776146  0.060348725            5 
 1861000   0.92881239   -4.1657237    1332.9326  0.059687111  0.060334314            3 
 1862000   0.95568432   -4.1369641    1337.6963  0.059868257  0.060319965            2 
 1863000   0.94186752   -4.1438839    1337.1615  0.059812198  0.060305494            4 
 1864000   0.96069011   -4.1437844    1340.5455  0.059931396  0.060291256            4 
 1865000   0.94115407   -4.1369325    1335.4491  0.059671544  0.060277062            3 
 1866000   0.93076602   -4.1538104    1333.2545  0.059541554  0.060262592            4 
 1867000   0.95864603   -4.1246087    1339.7121  0.059797897  0.060248109            3 
 1868000   0.94828535   -4.1418575     1338.456   0.05970985  0.060234052            3 
 1869000   0.94317359   -4.1774335    1339.3351  0.059717099  0.060219752            2 
 1870000    0.9518592   -4.1175715    1339.6389  0.059698703  0.060205637            4 
 1871000   0.96793196   -4.1393981    1346.3624  0.059966257  0.060191877            5 
 1872000   0.95503977   -4.1352292    1343.2801  0.059797015  0.060178032            5 
 1873000   0.93172547   -4.1409601    1348.5096   0.05999776   0.06016405            2 
 1874000    0.9345582   -4.1340202     1342.157  0.059683254   0.06015002            4 
 1875000   0.96248161   -4.1180431     1342.709  0.059675957  0.060136057            4 
 1876000   0.94506669   -4.1124803    1348.0537   0.05988156  0.060122034            3 
 1877000   0.94699052   -4.1195397    1348.2633  0.059858963   0.06010812            2 
 1878000   0.95924562   -4.1364435    1348.3233  0.059829753  0.060094315            3 
 1879000    0.9741885   -4.1393236    1345.9501   0.05969266  0.060080382            4 
 1880000    0.9521216   -4.1437239    1349.2507  0.059807211  0.060066344            4 
 1881000   0.92788562   -4.1581085    1341.9891  0.059453709  0.060052041            5 
 1882000   0.95449027   -4.1448324    1348.9039    0.0597283  0.060037771            3 
 1883000   0.96773692   -4.1603501    1340.8386  0.059339644  0.060023614            5 
 1884000   0.93132804   -4.1471937    1346.0572  0.059538976  0.060009176            3 
 1885000   0.95705976   -4.1475646      1349.09  0.059641469   0.05999513            4 
 1886000   0.94718245   -4.1671247    1346.5076   0.05949574  0.059981111            5 
 1887000   0.95301604   -4.1664897    1344.7392  0.059386115  0.059966781            4 
 1888000   0.94455766   -4.1497629    1351.3504   0.05964647  0.059952659            3 
 1889000    0.9712056   -4.1550373    1339.9733  0.059112993  0.059938276            7 
 1890000   0.94622056   -4.1515727    1347.3679  0.059407756  0.059924072            2 
 1891000   0.93781321   -4.1646107      1349.74  0.059480874  0.059909773            2 
 1892000   0.93290952   -4.1267372    1349.7328  0.059449121   0.05989536            5 
 1893000   0.95977648   -4.1209382    1353.7485  0.059594493  0.059881436            2 
 1894000   0.95897839   -4.1465871    1349.4721  0.059374874   0.05986722            3 
 1895000   0.94990093   -4.1351181    1349.7757  0.059356891   0.05985286            4 
 1896000   0.94786026   -4.1548651    1351.7587   0.05941274  0.059838453            5 
 1897000   0.94308269   -4.1405626     1352.445   0.05941157  0.059824292            4 
 1898000   0.93274129   -4.1514795    1350.0198  0.059273789  0.059810067            2 
 1899000   0.95261889   -4.1258513    1358.2683   0.05960454  0.059795841            3 
 1900000   0.96091686   -4.1446257    1351.9361  0.059295442  0.059781853            4 
 1901000   0.90196024   -4.1364571     1353.023  0.059311899  0.059767863            5 
 1902000   0.95910419   -4.1522682    1352.9457  0.059277326  0.059753733            3 
 1903000    0.9581614   -4.1376107    1357.9929  0.059467196  0.059739676            5 
 1904000    0.9565525   -4.1170567    1356.1448  0.059355078  0.059725707            3 
 1905000   0.94273515   -4.1406214    1356.0755  0.059320889  0.059711514            3 
 1906000   0.95619897   -4.1363028    1358.5031  0.059395903   0.05969765            8 
 1907000   0.96111442   -4.1398537    1363.1731  0.059568828  0.059683814            4 
 1908000   0.95893401   -4.1572945    1355.3348  0.059195266  0.059670078            2 
 1909000   0.93567545   -4.1496914    1360.9278  0.059408407  0.059656297            6 
 1910000   0.93135792   -4.1659191    1360.9889  0.059379968  0.059642502            4 
 1911000   0.93131514   -4.1421347    1360.4553  0.059325628  0.059628652            4 
 1912000   0.94081489   -4.1804251    1364.0255  0.059450206  0.059614803            3 
 1913000   0.95242074    -4.161909    1364.1485  0.059424485  0.059601159            8 
 1914000   0.95011758   -4.1667642    1361.0497  0.059258523   0.05958717            1 
 1915000   0.93445355   -4.1445238    1363.9058  0.059351863  0.059573425            7 
 1916000   0.95894515   -4.1593822    1356.5419  0.059000603  0.059559611            7 
 1917000   0.92676542   -4.1378448    1362.2542  0.059218144  0.059545584            3 
 1918000   0.94006687   -4.1628185    1357.5588  0.058983262   0.05953164            5 
 1919000   0.95329365   -4.1551302     1363.712  0.059219733  0.059517665            2 
 1920000    0.9612525   -4.1408753    1368.0075  0.059375324  0.059503788            3 
 1921000   0.93870638   -4.1536439    1362.2303  0.059093802  0.059489992            5 
 1922000   0.94304491   -4.1549658    1364.2839  0.059152092  0.059475998            3 
 1923000   0.94267902   -4.1373267    1365.7336  0.059184155  0.059462012            2 
 1924000   0.93962188   -4.1802256    1362.5179  0.059014117  0.059448119            3 
 1925000   0.93265309   -4.1724471    1364.0827  0.059051199  0.059434326            4 
 1926000   0.94664645   -4.1396556     1364.219  0.059026435  0.059420291            3 
 1927000   0.96486703   -4.1642832    1360.9682  0.058855223  0.059406421            3 
 1928000   0.94206132   -4.1459882    1365.7634  0.059031958  0.059392453            4 
 1929000   0.94091852   -4.1701994     1365.309  0.058981727  0.059378547            3 
 1930000   0.93330433   -4.1827604     1367.287  0.059036572  0.059364741            2 
 1931000   0.94654532   -4.1600434    1374.2341  0.059305804  0.059350751            3 
 1932000   0.94564233   -4.1242653    1372.4866  0.059199731  0.059337154            4 
 1933000   0.93926306   -4.1762997    1369.3354  0.059033254  0.059323566            4 
 1934000   0.94750775   -4.1557478    1371.7251  0.059105701  0.059309903            7 
 1935000   0.91530029   -4.1450196    1371.8822  0.059081921  0.059296227            4 
 1936000   0.96644348   -4.1752735    1368.3574   0.05889968  0.059282848            4 
 1937000   0.93610178   -4.1731954    1369.8043  0.058931521  0.059269563            3 
 1938000   0.92592907   -4.1618196    1374.2129  0.059090683  0.059256237            2 
 1939000   0.95971492   -4.1856619    1375.5342  0.059116992  0.059242804            3 
 1940000    0.9191468   -4.1680648    1372.6453  0.058962427  0.059229396            8 
 1941000     0.939839   -4.1500545    1375.8173  0.059068234  0.059215955            4 
 1942000   0.95767255   -4.1697826    1375.0557  0.059005136  0.059202599            5 
 1943000   0.92940406   -4.1726813    1375.5439  0.058995706  0.059189096            2 
 1944000   0.91438067   -4.1538628    1376.8371  0.059020794  0.059175856            2 
 1945000   0.92907157   -4.1388988    1382.0672  0.059214535  0.059162607            3 
 1946000   0.94014862   -4.1736243    1380.5034  0.059117138  0.059149394            3 
 1947000   0.96988067   -4.1824521       1374.8  0.058842665   0.05913613            4 
 1948000   0.92346051   -4.1756319    1380.7382  0.059066486  0.059122779            2 
 1949000   0.95191202   -4.1366529    1386.3972  0.059278142  0.059109776            3 
 1950000   0.91459164   -4.1469432    1385.4404  0.059206855  0.059096737            3 
 1951000   0.96134782   -4.1884654    1379.6351  0.058928546  0.059083537            3 
 1952000   0.95959039   -4.1663553    1382.9634  0.059040445  0.059070294            4 
 1953000   0.94486917   -4.1518569    1382.0639  0.058971835   0.05905696            4 
 1954000   0.95879203   -4.1741058    1379.7433  0.058842685  0.059043743            5 
 1955000     0.940651   -4.1499078    1385.1467  0.059042912  0.059030574            3 
 1956000   0.93954312   -4.1700728     1379.387   0.05876734  0.059017546            4 
 1957000   0.91487833   -4.1683151    1384.2111   0.05894273  0.059004267            4 
 1958000   0.93407911   -4.1566878    1382.6426   0.05884587  0.058991173            3 
 1959000   0.93763931   -4.1790887    1377.0915  0.058579698  0.058977866            4 
 1960000   0.92064296   -4.1987986    1378.6722  0.058617017  0.058964621            3 
 1961000   0.94085398   -4.1586122    1383.3409  0.058785522  0.058951298            2 
 1962000   0.91139417   -4.1599568    1385.4243  0.058844048  0.058938016            2 
 1963000   0.94468538   -4.1748462    1383.7833   0.05874441  0.058924656            4 
 1964000   0.94983086    -4.164137    1386.3649  0.058824036  0.058911192            4 
 1965000    0.9419202    -4.183977    1381.3536   0.05858158  0.058898034            3 
 1966000   0.94545629   -4.1640733    1388.5118  0.058855196  0.058884817            2 
 1967000   0.93261977   -4.1700437    1383.7376  0.058623012   0.05887117            2 
 1968000   0.91863648   -4.1694122    1389.5417  0.058838995   0.05885768            1 
 1969000    0.9265767   -4.1813937    1385.3969  0.058633694  0.058844182            4 
 1970000   0.95250088   -4.1775187    1385.1601  0.058593913  0.058830694            4 
 1971000   0.92475577   -4.1792017    1385.5831  0.058582069   0.05881721            2 
 1972000   0.95897673   -4.1593756    1390.8381   0.05877443   0.05880394            2 
 1973000   0.94590724   -4.1857312    1383.2609  0.058424601  0.058790826            4 
 1974000   0.94932785   -4.1840263    1388.8803  0.058632232  0.058777421            6 
 1975000   0.93544157   -4.1563512    1387.1497  0.058529522  0.058764325            4 
 1976000   0.93208979   -4.1604335    1393.3485  0.058761323  0.058750948            3 
 1977000   0.95098414   -4.1541047    1393.8472  0.058752623  0.058737831            4 
 1978000   0.94159918    -4.169321    1390.0229  0.058561799  0.058724605            3 
 1979000   0.93535587   -4.1885577    1387.9834  0.058446329  0.058711428            4 
 1980000   0.91713534   -4.1184195    1397.1216  0.058801414  0.058698162            3 
 1981000   0.91548885   -4.1699112    1391.5004  0.058535268  0.058685133            6 
 1982000   0.94343573    -4.163434    1394.8306  0.058645752  0.058672138            4 
 1983000   0.91689802   -4.1227802    1395.9742  0.058664237  0.058659203            3 
 1984000   0.94373156   -4.1816626    1392.0453  0.058469643  0.058646354            4 
 1985000   0.94518208   -4.1472211    1396.9423  0.058645771  0.058633279            5 
 1986000   0.91626219   -4.1817161    1397.8751  0.058655385  0.058620482            3 
 1987000    0.9223485   -4.1920703    1397.3644  0.058604446  0.058607586            4 
 1988000   0.96481335   -4.1700959    1399.8624  0.058679677  0.058594776            4 
 1989000   0.95617766   -4.1240743    1400.3057  0.058668749  0.058581748            4 
 1990000   0.92938563   -4.1721739    1392.8164  0.058325643  0.058568759            3 
 1991000   0.93860053   -4.1550198    1396.1442  0.058435635  0.058555475            2 
 1992000   0.91871114   -4.1541563    1399.8664  0.058562016  0.058542635            2 
 1993000   0.92110957   -4.1635749    1397.3914  0.058429144  0.058529529            4 
 1994000    0.9519336   -4.1660318    1399.4795  0.058487106   0.05851658            3 
 1995000   0.91676839   -4.2175486    1393.1353  0.058192785  0.058503272            1 
 1996000   0.94740106   -4.1447726    1396.7405  0.058314149   0.05849008            2 
 1997000   0.93756832   -4.1630907     1400.331  0.058434775  0.058477235            3 
 1998000   0.94093454   -4.1678131    1397.8534  0.058302194  0.058464223            4 
 1999000   0.94014155   -4.1729085    1398.4385  0.058297419  0.058451116            6 
 2000000   0.93007295   -4.1618625     1401.351  0.058389624  0.058438064            3 
 2001000   0.92340603   -4.1567437    1396.4488  0.058156291  0.058424774            3 
 2002000   0.93407061   -4.1688654    1404.2095   0.05845028  0.058411817            5 
 2003000   0.92150688   -4.1948705    1400.1936   0.05825402  0.058398736            4 
 2004000   0.91997989    -4.184397    1403.9337  0.058380478  0.058385674            4 
 2005000   0.92150983   -4.1724404    1410.9361    0.0586424  0.058372856            3 
 2006000   0.92034158   -4.1724553    1404.6215  0.058350842   0.05835976            3 
 2007000   0.92297609   -4.1542232    1406.4215  0.058396506  0.058346843            4 
 2008000   0.90140657   -4.1947053    1402.9146  0.058221887  0.058333766            4 
 2009000   0.91663615   -4.1740131    1406.1464  0.058326964  0.058320848            3 
 2010000   0.92929266   -4.1664934    1407.1646  0.058340159  0.058307963            5 
 2011000   0.94339005   -4.1845109    1402.4827  0.058117133  0.058295031            2 
 2012000   0.93904211    -4.159787    1404.0661  0.058153829  0.058282164            4 
 2013000   0.92279642   -4.2023587     1408.613  0.058313171   0.05826932            5 
 2014000   0.92760884   -4.1833606    1407.8461  0.058252486   0.05825659            3 
 2015000   0.97028727   -4.1846663    1414.2749   0.05848945  0.058243871            2 
 2016000    0.9276493   -4.1773047    1407.6482  0.058186517  0.058230965            1 
 2017000   0.95501366   -4.1665752    1404.7274  0.058036994  0.058218188            2 
 2018000   0.91528629   -4.1886934    1413.0845  0.058353341  0.058205349            4 
 2019000   0.93370989   -4.1739798     1409.346  0.058170133  0.058192503            5 
 2020000   0.95401732   -4.1858553    1412.4414  0.058269037  0.058179967            2 
 2021000   0.92231243   -4.1817233    1404.6604  0.057919362   0.05816698            3 
 2022000    0.9433012   -4.1678525    1412.5479  0.058215791  0.058154227            3 
 2023000   0.90785652   -4.1540332    1420.0055  0.058494211  0.058141618            2 
 2024000   0.92830887   -4.1769275    1415.0594  0.058261667  0.058129203            3 
 2025000   0.94558215    -4.182234    1414.7414  0.058219811  0.058116642            3 
 2026000   0.92795172   -4.1924825    1416.4203  0.058260131  0.058104146            3 
 2027000   0.91924246   -4.1747493    1416.4197  0.058231362  0.058091548            3 
 2028000    0.9272242    -4.177454    1420.3741  0.058365141  0.058079085            3 
 2029000   0.91309061   -4.1946615    1410.7815  0.057942397  0.058066568            3 
 2030000   0.92277174   -4.1610163    1427.1419  0.058585464  0.058054349            2 
 2031000   0.92715788   -4.1929386    1419.6975  0.058251169  0.058042039            3 
 2032000   0.92808411   -4.1873067    1420.7606    0.0582661  0.058029746            2 
 2033000    0.9067819    -4.144326    1421.5669  0.058270491  0.058017433            4 
 2034000   0.92837934   -4.1833681    1420.8876  0.058214011   0.05800522            3 
 2035000   0.91896341    -4.216905    1418.4816   0.05808688  0.057992778            3 
 2036000   0.93384118   -4.1608227    1423.3653  0.058258239  0.057980323            2 
 2037000   0.93520563   -4.1499047    1418.7556  0.058041056  0.057968096            3 
 2038000   0.93227273   -4.1880296    1422.2528  0.058155578  0.057955677            3 
 2039000   0.93197976   -4.2076555    1425.1177  0.058244144  0.057943198            4 
 2040000   0.93126081   -4.1933532    1421.2264  0.058056635  0.057930489            5 
 2041000   0.92024249   -4.1768846    1424.2988  0.058153635  0.057917914            3 
 2042000   0.93219907   -4.1787177    1417.6163  0.057852443  0.057905532            2 
 2043000    0.9051111   -4.1992926    1419.4838  0.057900303  0.057892722            2 
 2044000   0.91108354   -4.1830218    1420.4232  0.057910276  0.057880042            9 
 2045000   0.91903464   -4.2116706    1420.1971  0.057872741   0.05786751            5 
 2046000   0.94960527   -4.1670727    1426.7938   0.05811314  0.057855111            3 
 2047000   0.93919861   -4.2130778    1422.0522  0.057891718  0.057842758            2 
 2048000    0.9477165   -4.2016567    1424.2989  0.057954869   0.05783047            5 
 2049000   0.93308246   -4.1949591    1423.4318  0.057891322  0.057818093            5 
 2050000   0.91491366   -4.1836929    1428.4933  0.058068834  0.057805809            4 
 2051000   0.91907028   -4.1425472    1430.8294  0.058135437  0.057793426            4 
 2052000    0.9270235   -4.1754619    1424.8341  0.057863634  0.057781085            4 
 2053000   0.94232595   -4.2252545    1428.1879  0.057971584  0.057768548            3 
 2054000   0.93325187    -4.202212    1430.0497  0.058018893  0.057756143            9 
 2055000   0.92733394   -4.1893909    1428.0606      0.05791  0.057743772            5 
 2056000   0.90960412   -4.1787379    1430.1759  0.057967569  0.057731355            4 
 2057000   0.91691131   -4.1848499     1430.044  0.057934045  0.057719021            3 
 2058000   0.93863434   -4.1727747      1430.69  0.057932055  0.057706756            1 
 2059000   0.91040862   -4.1985687    1429.0097   0.05783591  0.057694335            5 
 2060000   0.90252396   -4.2265474    1427.6014  0.057750867  0.057681765            3 
 2061000   0.91205562   -4.2046569    1431.7553    0.0578908  0.057669343            4 
 2062000   0.93550896   -4.1654088    1427.5184  0.057691496  0.057656811            2 
 2063000   0.95612353   -4.1699214    1434.7205  0.057954455  0.057644583            4 
 2064000   0.92487198   -4.1731186    1431.2363  0.057785705  0.057632054            2 
 2065000   0.91961321   -4.1835714    1425.7405  0.057535937  0.057619713            3 
 2066000   0.92662891   -4.2019245     1431.665  0.057747056  0.057607239            4 
 2067000   0.91042121   -4.1939313    1430.6991  0.057680179  0.057594627            2 
 2068000   0.92555121   -4.1779726    1435.8407  0.057859474  0.057582167            2 
 2069000   0.92237627    -4.194767    1431.6418  0.057662389  0.057569616            8 
 2070000   0.92715188   -4.1743485    1436.6015    0.0578342  0.057557389            6 
 2071000    0.9278605   -4.2156184    1432.2314  0.057630427  0.057545067            3 
 2072000   0.93320555   -4.1901663    1435.4147  0.057730644  0.057532804            7 
 2073000   0.92195292   -4.2052777    1433.9441  0.057643675  0.057520766            2 
 2074000   0.92246111   -4.1944722    1434.2106   0.05762659  0.057508397            9 
 2075000   0.93984955   -4.1866115    1430.1751  0.057436751   0.05749605            3 
 2076000   0.90792396   -4.1677805    1434.1598  0.057569034  0.057483891            5 
 2077000   0.90559102   -4.1707194    1437.1926  0.057662999  0.057471853            2 
 2078000   0.92283897   -4.1448055    1445.4068  0.057964663  0.057459809            9 
 2079000    0.9071632   -4.1791252    1435.1081  0.057523976  0.057447686            2 
 2080000    0.9105765    -4.178451    1445.5222  0.057913549  0.057435604            6 
 2081000   0.92022867   -4.1568715    1443.0681  0.057787445  0.057423522            2 
 2082000   0.91043876   -4.2029543    1440.0999  0.057640885  0.057411297            4 
 2083000   0.91797359   -4.1994229    1442.5694  0.057712011  0.057399086            3 
 2084000   0.90027491   -4.2213157    1441.3743  0.057636527   0.05738674            3 
 2085000   0.91825163   -4.1936545    1439.0986   0.05751793  0.057374549            6 
 2086000   0.90502015   -4.1844438    1445.5372  0.057747572  0.057362608            2 
 2087000   0.90199653   -4.2271076    1438.6944   0.05744667  0.057350411            5 
 2088000   0.92502034   -4.2357711    1443.9588  0.057629264  0.057338343            4 
 2089000   0.89829576   -4.1789429    1445.8377  0.057676626  0.057326269            2 
 2090000   0.94134361   -4.1899197    1450.6228  0.057839825  0.057314504            7 
 2091000   0.91598746   -4.1994636    1445.7934  0.057619694  0.057302482            2 
 2092000    0.9119298   -4.1770249    1447.6485  0.057666049  0.057290359            5 
 2093000    0.9008976    -4.221315    1444.2637  0.057503729  0.057278484            3 
 2094000   0.92910194    -4.193896    1448.3065  0.057637157  0.057266485            3 
 2095000   0.90280095   -4.2047434    1445.8298  0.057511131   0.05725439            3 
 2096000    0.8887566    -4.224406    1442.2228  0.057340284  0.057242359            3 
 2097000   0.90706703   -4.2358882    1444.7315  0.057412634  0.057230268            3 
 2098000    0.9177636   -4.1722525    1449.5958  0.057578481  0.057218103            4 
 2099000   0.91824635    -4.220332    1447.4978  0.057467755  0.057206084            2 
 2100000   0.89648368   -4.2009537    1444.7525   0.05733145  0.057194131            5 
 2101000   0.91368991   -4.2123777    1448.7903  0.057464316  0.057182029            3 
 2102000   0.91344839   -4.2099353    1451.1638  0.057531075  0.057169922            4 
 2103000   0.89694793   -4.2212921    1449.0685  0.057420688  0.057157875            3 
 2104000    0.9377473   -4.2218437    1447.7293  0.057340357  0.057145859           11 
 2105000   0.90561256    -4.184973    1450.7678  0.057433403  0.057133773            4 
 2106000   0.92608722   -4.2228125    1459.6233  0.057756542  0.057121918            5 
 2107000    0.9259876   -4.2075937    1457.1814   0.05763255  0.057110075            4 
 2108000   0.90066568   -4.1849924    1452.6228  0.057425001  0.057098182            5 
 2109000    0.8981966   -4.1963531    1453.6287  0.057437516  0.057086392            3 
 2110000   0.90747009   -4.2021761    1454.7964  0.057456413  0.057074375            4 
 2111000   0.91467582   -4.2192239    1452.0056  0.057319028  0.057062312            4 
 2112000   0.91330548   -4.2168988    1455.8132  0.057442125  0.057050633            3 
 2113000   0.91164691   -4.2113623    1455.8214  0.057415261  0.057038854            3 
 2114000   0.92038861   -4.2077231    1453.3691  0.057291433  0.057026933            3 
 2115000   0.92346171   -4.2018305    1456.1874  0.057375391  0.057015291            3 
 2116000   0.90840391   -4.2225171    1455.5099  0.057321592    0.0570036            5 
 2117000   0.90497827    -4.211577     1458.136  0.057397891  0.056991773            4 
 2118000   0.92221584   -4.1999522    1458.1651  0.057371933  0.056979997            3 
 2119000   0.91870434   -4.2183899    1453.3363  0.057154961  0.056968094            5 
 2120000   0.89857547   -4.1956497    1458.3905  0.057326671  0.056956301            3 
 2121000   0.90542433    -4.224695    1457.1463   0.05725076  0.056944513            3 
 2122000   0.91489048   -4.2256939      1456.76   0.05720861  0.056932753            5 
 2123000   0.91101384   -4.1895162    1458.7657   0.05726039   0.05692085            7 
 2124000    0.9295841   -4.2157379    1458.6946  0.057230641  0.056908933            4 
 2125000   0.90138341   -4.2385503    1459.9171   0.05725165  0.056897213            4 
 2126000   0.92211593   -4.2096488    1464.2369  0.057394047  0.056885857            6 
 2127000   0.90537434   -4.2420456     1458.759  0.057152445  0.056874321            2 
 2128000   0.90506372   -4.2113766    1462.7096  0.057280296  0.056862776            5 
 2129000   0.92223727   -4.2267807    1463.4517  0.057282435  0.056851376            4 
 2130000   0.90863779   -4.1972373    1467.9729  0.057432429  0.056840001            3 
 2131000   0.88935968   -4.2223971    1466.6435  0.057353494  0.056828445            3 
 2132000   0.88937441   -4.2000293    1472.6557  0.057561589  0.056817102            5 
 2133000   0.91006708   -4.2609646    1461.9909  0.057117942  0.056805588            3 
 2134000     0.927656   -4.2011798    1466.5094  0.057267627  0.056794007            4 
 2135000   0.91506047   -4.2203989    1467.6107  0.057283791  0.056782561            5 
 2136000   0.90888135    -4.219745    1466.8111  0.057225776  0.056771052            4 
 2137000   0.91465565   -4.1924641    1466.9429  0.057204136  0.056759634            4 
 2138000   0.90538686   -4.2299858    1462.3235  0.056997328  0.056747982            3 
 2139000   0.90235588   -4.1774939    1473.4435  0.057403906  0.056736365            4 
 2140000   0.91884086   -4.1682962    1471.0679  0.057284574  0.056724855            5 
 2141000    0.9010946   -4.2450779    1463.5458  0.056965041   0.05671328            6 
 2142000   0.93171494   -4.2072339    1468.1479  0.057117487  0.056701554            4 
 2143000   0.90140476   -4.2088069    1465.6329  0.056993035  0.056689937            7 
 2144000   0.89360837   -4.2144537    1468.3899  0.057073613   0.05667821            5 
 2145000   0.89809474   -4.2238746    1469.2964  0.057082221  0.056666648            5 
 2146000   0.89780139   -4.2035939    1469.6806  0.057070542  0.056654924            9 
 2147000   0.91986878   -4.2267601    1468.2261  0.056987508  0.056643343            7 
 2148000    0.9003709   -4.1902806    1471.4583   0.05708637  0.056631746            2 
 2149000   0.91966655   -4.2236634    1470.6294  0.057027664   0.05662028            3 
 2150000   0.90283894   -4.2189389    1478.3875   0.05730184  0.056608813            4 
 2151000   0.92042489   -4.2388325    1472.2794  0.057038563  0.056597285            3 
 2152000   0.93264742   -4.2187472    1472.8346   0.05703356  0.056585762            4 
 2153000    0.9050803   -4.2025868    1473.7624   0.05704298  0.056574264            1 
 2154000    0.8893174   -4.2046155    1472.8824  0.056982452  0.056562878            9 
 2155000    0.8950332   -4.1898338    1475.3608  0.057051849  0.056551263            4 
 2156000   0.88925189   -4.2129019    1468.8234  0.056772704  0.056539663            5 
 2157000   0.92000579   -4.2312852     1473.051  0.056909714  0.056528155            5 
 2158000   0.90053514   -4.1884633    1479.0886   0.05711649  0.056516762            4 
 2159000   0.89119953   -4.2019542     1478.251  0.057057704  0.056505455            6 
 2160000   0.89739531   -4.2052325    1480.3395  0.057111863   0.05649403            4 
 2161000   0.91376819   -4.1925814    1476.9135  0.056953319  0.056482485            3 
 2162000   0.91705619   -4.2345544    1478.4248  0.056985229  0.056470871            5 
 2163000   0.89711208   -4.2445482     1475.938  0.056863078  0.056459269            2 
 2164000   0.91402101   -4.2099492    1476.8602  0.056872313  0.056447628            4 
 2165000    0.8917776   -4.2070071    1475.0088  0.056774781  0.056436073            5 
 2166000   0.89794465   -4.2508929    1476.5726  0.056808733  0.056424534            4 
 2167000   0.90375004   -4.2243257    1480.3126  0.056926343  0.056412903            4 
 2168000   0.90164272   -4.2164788    1484.0738  0.057044656  0.056401328            3 
 2169000   0.90055387   -4.2118535    1476.6458   0.05673297   0.05638984            3 
 2170000   0.89882013   -4.2154277    1479.4044  0.056812765  0.056378312            3 
 2171000   0.90439326   -4.2204466    1474.9064  0.056613941  0.056366819            5 
 2172000    0.9071188    -4.234327    1484.8296    0.0569686  0.056355395            2 
 2173000   0.92854402    -4.214462    1484.7184   0.05693812  0.056344034            4 
 2174000   0.90468252   -4.1943915    1489.7434  0.057104547  0.056332702            4 
 2175000   0.91454297   -4.2155082    1482.0535   0.05678366  0.056321337            2 
 2176000   0.90400725   -4.2321799    1481.6404  0.056741745  0.056309727            4 
 2177000   0.89601574   -4.2141439     1479.077  0.056617556  0.056298037            2 
 2178000   0.92900153   -4.2707817    1477.7675  0.056541458  0.056286302            5 
 2179000   0.90838687   -4.2269742    1482.5215  0.056697317  0.056274523            3 
 2180000   0.91574016   -4.2101523    1479.8731  0.056570071  0.056262887            3 
 2181000   0.91450857    -4.230172    1481.1116  0.056591457  0.056251149            5 
 2182000   0.91659172   -4.2382521     1481.236   0.05657027  0.056239309            4 
 2183000   0.89831012   -4.2361972    1484.5257  0.056669939   0.05622731            4 
 2184000   0.89428332   -4.2283172    1482.3251  0.056560025  0.056215509            3 
 2185000   0.91960394   -4.2396869    1477.8214  0.056362372  0.056203717            2 
 2186000   0.88864305   -4.2334119     1480.805  0.056450327  0.056191912            5 
 2187000   0.92536448   -4.2049288     1484.947  0.056582344  0.056180053            4 
 2188000   0.90991396   -4.2229879    1486.2486  0.056606055  0.056168363            3 
 2189000   0.88775045   -4.2501414    1486.6408  0.056595126   0.05615666            4 
 2190000   0.92255965    -4.211554    1483.7077  0.056457673  0.056145044            4 
 2191000    0.9017278   -4.2269941    1487.4658  0.056574844  0.056133294            2 
 2192000   0.87852678   -4.2355591     1488.757   0.05659812  0.056121626            5 
 2193000   0.89558684   -4.2273657    1484.2086  0.056399476  0.056110036            2 
 2194000   0.91874381   -4.2655294    1488.8401  0.056549686  0.056098305            3 
 2195000    0.8869511   -4.2442643    1487.4084  0.056469566  0.056086769            6 
 2196000   0.89719546   -4.2358801    1490.9844  0.056579555  0.056075267            3 
 2197000   0.90502172    -4.224228    1488.2311  0.056449365  0.056063578            1 
 2198000   0.88504334   -4.2106102    1492.5547  0.056587605  0.056051746            2 
 2199000    0.8997615   -4.2419695    1490.5286  0.056485091  0.056039962            6 
 2200000   0.92085351   -4.2023999    1492.8531  0.056547465  0.056028406            3 
 2201000   0.89930306   -4.2179409    1488.7891  0.056367905  0.056016824            3 
 2202000   0.89798381   -4.2086694    1491.7378    0.0564539  0.056005215            3 
 2203000   0.90176495   -4.2189052    1496.8937  0.056623307  0.055993637            3 
 2204000   0.89021503   -4.2641689    1492.1481  0.056418184  0.055981899            3 
 2205000   0.89580399   -4.2677614    1491.1223  0.056353829  0.055970233            3 
 2206000   0.92256172    -4.223536    1492.6264    0.0563851  0.055958502            4 
 2207000   0.91328715   -4.2264115    1489.9545  0.056258664  0.055946681            3 
 2208000   0.90775157   -4.2003054    1494.6457  0.056410239  0.055935076            5 
 2209000   0.88087752   -4.1961068     1496.778  0.056465143  0.055923324            3 
 2210000   0.90834606   -4.2103688    1495.1405  0.056377846  0.055911727            5 
 2211000    0.8914582    -4.208015    1495.2882  0.056357915  0.055900233            8 
 2212000   0.90468525   -4.2089504     1495.062  0.056323915  0.055888553            2 
 2213000   0.91255019   -4.2521568    1492.4503  0.056200115   0.05587702            4 
 2214000   0.90569769   -4.2598834    1495.1973  0.056278127  0.055865474            4 
 2215000   0.90402914    -4.225829    1497.6709  0.056345784  0.055853755            6 
 2216000   0.88387616   -4.2504395    1500.5764  0.056429618  0.055842118            3 
 2217000   0.89199908   -4.2513474    1497.7418  0.056297618  0.055830416            4 
 2218000   0.89261453   -4.2352202    1499.5164  0.056338908  0.055819085            2 
 2219000   0.86573261    -4.235013    1498.7492  0.056284708  0.055807522            5 
 2220000    0.9151123   -4.2875553    1495.9429  0.056154012  0.055796281            3 
 2221000   0.89048465   -4.2449752    1502.2521  0.056365455  0.055784638           12 
 2222000   0.91512492   -4.2446055    1499.8167  0.056248752  0.055773155            3 
 2223000   0.90233236   -4.2299633    1496.8721  0.056113065  0.055761776            6 
 2224000   0.89085641   -4.2332499    1507.9086   0.05650137   0.05575051            2 
 2225000   0.88532291    -4.237376    1495.6899   0.05601835  0.055739132            3 
 2226000   0.92252131   -4.2346702    1501.0713  0.056194641  0.055727805            6 
 2227000   0.87835429   -4.2528869    1500.5439  0.056149673  0.055716116            2 
 2228000   0.90997203   -4.2343843    1504.8692  0.056286253  0.055704762            4 
 2229000   0.89996249   -4.2659784    1496.9008  0.055963092  0.055693388            5 
 2230000   0.90462874   -4.2320433    1502.9276  0.056163212  0.055681802            3 
 2231000   0.90438544   -4.2281391    1500.0712  0.056031345  0.055670214            3 
 2232000   0.89640476   -4.2186071    1508.5127  0.056321413  0.055658504            4 
 2233000   0.88290959   -4.2179147    1496.6496  0.055853471  0.055647047            5 
 2234000   0.92705513   -4.2781259    1501.1306   0.05599562  0.055635362            3 
 2235000   0.87637432   -4.2595645    1504.6035  0.056100057  0.055623537            5 
 2236000   0.89435553   -4.2240834     1508.855  0.056233417  0.055611951            3 
 2237000   0.91240137   -4.2322633    1509.8405  0.056244988  0.055600229            4 
 2238000   0.90718192   -4.2664222    1502.7375  0.055955372  0.055588472            3 
 2239000   0.89360145   -4.2407445    1501.1596  0.055871653  0.055576557            3 
 2240000   0.91023562   -4.2345408    1500.9068  0.055837308   0.05556473            3 
 2241000   0.89777244   -4.2451437    1505.0813  0.055967621  0.055552846            6 
 2242000   0.90671282   -4.2386774    1505.1395  0.055944823  0.055540988            3 
 2243000   0.88511581   -4.2191033    1506.2828  0.055962355  0.055529144            7 
 2244000   0.89046681   -4.2339233    1507.2307   0.05597262  0.055517246            6 
 2245000   0.86587844   -4.2218607    1506.0182  0.055902681  0.055505379            2 
 2246000   0.87510207   -4.2445415    1505.0606  0.055842262  0.055493611            6 
 2247000   0.88899896    -4.220432    1504.6911  0.055803705   0.05548168            4 
 2248000   0.88750423   -4.2216879    1505.3035  0.055801584  0.055469917            3 
 2249000   0.87777104   -4.2496047    1504.9532   0.05576379  0.055458098            2 
 2250000   0.89266563   -4.2536562    1501.6671  0.055617298  0.055446337            4 
 2251000   0.89551169   -4.2167042    1507.8564  0.055821723  0.055434408            9 
 2252000   0.89451606   -4.2574076    1512.6452   0.05597414  0.055422578            3 
 2253000   0.87906776    -4.259572     1504.673  0.055654423  0.055410654            3 
 2254000   0.87743477     -4.22438    1509.1173  0.055794044  0.055398728            3 
 2255000   0.89236249   -4.2434041    1507.3948  0.055705648  0.055386631            3 
 2256000   0.89639271   -4.2410873    1505.3615  0.055605848  0.055374608            6 
 2257000   0.89264443   -4.2367449    1511.5074  0.055808131  0.055362692            5 
 2258000    0.8954937   -4.2574936    1510.0313  0.055728938  0.055350776            7 
 2259000   0.88878344   -4.2781673    1507.7918  0.055621653  0.055338778            5 
 2260000   0.89956706   -4.2107506    1510.0509  0.055680342  0.055326895            3 
 2261000   0.87753833   -4.2589674    1505.6316  0.055492834  0.055315019            2 
 2262000   0.89016528   -4.2301006    1509.8977  0.055625469  0.055303046            3 
 2263000   0.88825363   -4.2388958    1509.3011  0.055578919  0.055291023            4 
 2264000   0.86636672   -4.2319719    1507.8048  0.055499295  0.055279269            3 
 2265000   0.85446001   -4.2568743    1505.2606  0.055381186  0.055267419            6 
 2266000    0.8905443   -4.2749352     1509.608  0.055516621  0.055255369            4 
 2267000   0.90397656   -4.2257701    1506.8923  0.055392307   0.05524355            4 
 2268000   0.88539643   -4.2577415    1515.0278  0.055666806  0.055231637            1 
 2269000    0.9107353   -4.2372544    1513.4207  0.055583248  0.055220113            3 
 2270000   0.89405983   -4.2460855    1509.6994  0.055422152  0.055208386            3 
 2271000   0.89286154   -4.2647886    1512.6793  0.055507094  0.055196857            6 
 2272000   0.90571568   -4.2565725    1511.3745  0.055434802  0.055185063            9 
 2273000   0.90059344   -4.2747293    1510.2855  0.055370489  0.055173298            3 
 2274000    0.8813587   -4.2599221    1512.7174   0.05543526  0.055161623            3 
 2275000   0.90071346   -4.2637105     1514.964  0.055493188  0.055149846            2 
 2276000   0.88119859    -4.258965    1520.4852  0.055670956  0.055138222            5 
 2277000   0.90507108   -4.2422977    1515.3785  0.055459614  0.055126555            4 
 2278000   0.90164802    -4.248729    1519.0935  0.055571169  0.055115004            5 
 2279000   0.89369122    -4.262245    1515.2945  0.055407872  0.055103235            4 
 2280000   0.89173448   -4.2659068    1519.8088  0.055548568  0.055091353            6 
 2281000   0.89406838   -4.2646956    1519.1844  0.055501402  0.055079648            7 
 2282000   0.88934934   -4.2699312     1523.177  0.055622882  0.055068142            4 
 2283000   0.87499043   -4.2632349    1524.5469  0.055648522  0.055056615            4 
 2284000   0.88601783   -4.2686304    1522.8002  0.055560426  0.055045004            2 
 2285000   0.88696023   -4.2805706    1519.8039  0.055426838  0.055033372            4 
 2286000   0.89274971   -4.2555589     1522.363   0.05549588  0.055021906            2 
 2287000   0.87070084   -4.2612009    1517.4011  0.055290816  0.055010255            4 
 2288000   0.89435713   -4.2286371    1527.8837  0.055648445  0.054998764            3 
 2289000   0.87832865   -4.2688517    1513.5809  0.055103426   0.05498721            7 
 2290000   0.87463762   -4.2728399    1516.0543   0.05516937  0.054975411            4 
 2291000   0.88430336   -4.2452079    1527.8023  0.055572614  0.054963758            5 
 2292000   0.90286346   -4.2521636    1525.4853  0.055464125  0.054952111            2 
 2293000   0.89462518   -4.2739526    1520.1287  0.055245264  0.054940271            8 
 2294000   0.87853965   -4.2895103    1519.3598   0.05519325   0.05492861            4 
 2295000   0.90362636   -4.2477109    1525.7367  0.055400751  0.054916924            2 
 2296000   0.89703329    -4.259749    1526.3437  0.055398652  0.054905044            7 
 2297000   0.89064089   -4.2580685    1524.1281  0.055294154  0.054893294            5 
 2298000   0.87798062   -4.2666119    1522.7173  0.055218934  0.054881518            2 
 2299000   0.90051727   -4.2517372    1526.7355  0.055340565  0.054869786            9 
 2300000   0.87233315    -4.261297    1523.2335  0.055189619  0.054858166           11 
 2301000   0.88043735   -4.2757398    1526.3964  0.055280182  0.054846505            6 
 2302000   0.85459423   -4.2592483    1526.6974  0.055267066  0.054834828            4 
 2303000   0.89145009    -4.241844    1526.9379  0.055251769  0.054823302            4 
 2304000   0.87510465   -4.2860278    1524.3454  0.055134019  0.054811684            6 
 2305000   0.88622884   -4.2665696    1523.2182  0.055069349  0.054800117            7 
 2306000   0.88219902   -4.2710939    1526.9271  0.055179498  0.054788439            6 
 2307000   0.87721132   -4.2558548    1523.8372  0.055043966  0.054776687            2 
 2308000   0.88064647   -4.2346738    1528.2674  0.055180077  0.054765136            7 
 2309000   0.85008116   -4.2476211    1529.1114  0.055186638  0.054753523            5 
 2310000   0.88784357   -4.2817192    1525.2163  0.055022235  0.054741799            4 
 2311000   0.89041114   -4.2875658    1524.8963  0.054986885   0.05473014            3 
 2312000   0.89759989   -4.2892364    1527.6668  0.055062963  0.054718647            1 
 2313000   0.89829697   -4.2492213    1532.6679  0.055219336  0.054707051            4 
 2314000   0.89766324   -4.2558549    1528.2486  0.055036321  0.054695558            3 
 2315000   0.87911329   -4.2698966    1526.7815  0.054959736  0.054683962            3 
 2316000   0.87341617   -4.2503043    1537.6877  0.055328431  0.054672426            1 
 2317000   0.87728867   -4.2653464    1532.2057  0.055107384  0.054660766            4 
 2318000    0.8939626   -4.2691673    1535.1899  0.055190895  0.054649201            2 
 2319000   0.86019381   -4.2839511    1527.6725  0.054896956  0.054637528            4 
 2320000   0.89486112   -4.2633221    1530.5928  0.054978188  0.054625738            3 
 2321000   0.87702215   -4.2516652    1532.5899  0.055026206   0.05461404            3 
 2322000   0.91012399   -4.2538047    1536.0028  0.055124991  0.054602476            6 
 2323000   0.88354029   -4.2739837    1536.9861  0.055136538  0.054590824            4 
 2324000   0.86814758   -4.2657854    1535.6179  0.055063752  0.054579262            5 
 2325000   0.88762124   -4.2727288    1536.3519  0.055066375  0.054567918            3 
 2326000   0.88056206   -4.2703112    1532.9964  0.054922485  0.054556429            5 
 2327000   0.87304748   -4.3031541    1528.3139  0.054731194  0.054544787           12 
 2328000   0.86771772   -4.2677373     1533.969  0.054910116  0.054533092            2 
 2329000   0.88388641   -4.2572661    1527.1324   0.05464192  0.054521405            3 
 2330000   0.89597741   -4.2416043    1539.4601  0.055059373  0.054510006            3 
 2331000   0.87796191   -4.2307618    1539.5128  0.055037638  0.054498573           11 
 2332000   0.87901988   -4.2756295    1533.7508  0.054808133  0.054487018            3 
 2333000   0.89367633   -4.2430999     1533.479  0.054774933  0.054475474            3 
 2334000   0.89064455   -4.2579616    1537.9779  0.054912094  0.054464026            4 
 2335000   0.88026276    -4.254327    1541.5261  0.055015208  0.054452694            1 
 2336000   0.86822551   -4.2917352    1537.8407  0.054860185  0.054441428            2 
 2337000   0.86159767   -4.2806805    1541.4102  0.054963994  0.054429977            7 
 2338000   0.88857683    -4.257487    1545.4515  0.055084526  0.054418594            5 
 2339000   0.87690191   -4.2786463    1540.8543  0.054897188  0.054407356            5 
 2340000   0.87131806   -4.2527612    1543.8695  0.054981107   0.05439604            4 
 2341000   0.89228425   -4.2492482    1548.2253  0.055112676  0.054384677            4 
 2342000   0.88180846   -4.2788847    1544.4773  0.054955784  0.054373589            2 
 2343000   0.89112055   -4.2906688    1544.0634  0.054917606  0.054362126            3 
 2344000   0.90383926   -4.2873386    1542.2631  0.054830172  0.054350641            7 
 2345000   0.88669692   -4.2820863    1540.1525  0.054731787   0.05433934            2 
 2346000   0.88165582   -4.2675031     1541.371   0.05475174  0.054328158            4 
 2347000   0.87301952   -4.2610628    1546.2234  0.054900702  0.054316922            5 
 2348000   0.88329723   -4.2740904    1543.5681   0.05478308  0.054305731            4 
 2349000   0.86002776   -4.2596528     1549.168  0.054958422  0.054294549            4 
 2350000   0.87286323   -4.2855406    1542.0092  0.054681176  0.054283267            4 
 2351000   0.87556697   -4.2797446     1545.239    0.0547724  0.054271939            4 
 2352000   0.86975711   -4.2901687     1544.776  0.054732708  0.054260712            4 
 2353000    0.8902291   -4.2770605    1545.8339  0.054746914  0.054249377            3 
 2354000   0.87758948   -4.2737474    1546.8828  0.054760791  0.054238155            3 
 2355000   0.84482543   -4.2691699    1546.1051  0.054710017  0.054226846            8 
 2356000    0.8761923   -4.2891505     1547.294  0.054728847  0.054215399            3 
 2357000   0.86742607   -4.2814505    1543.0236  0.054554645  0.054204083            4 
 2358000   0.87839829   -4.3009933    1546.6424    0.0546594  0.054192704            3 
 2359000   0.88601485   -4.2432333    1549.6269  0.054741661  0.054181547            2 
 2360000   0.88416699   -4.2534875    1548.2596  0.054670185  0.054170317            3 
 2361000   0.85793529   -4.2626556    1555.9256  0.054917606   0.05415923            5 
 2362000   0.89045118   -4.2924072    1552.6401  0.054778441  0.054147999            4 
 2363000   0.91331763   -4.2842752    1547.5887  0.054577115  0.054136628            4 
 2364000   0.89274923   -4.2560266    1552.4674  0.054726009  0.054125412            4 
 2365000   0.86423825    -4.270888    1550.2421  0.054624458   0.05411427            4 
 2366000   0.87025835   -4.2808985    1553.4264  0.054713525  0.054103189            4 
 2367000   0.88157448   -4.2931729    1556.8756  0.054811844  0.054092115           10 
 2368000   0.86407805   -4.2505725    1552.1893   0.05462378   0.05408096            3 
 2369000   0.86947713   -4.2541231    1554.8113  0.054692953  0.054069908            3 
 2370000   0.86700317   -4.2930786    1552.7222  0.054596422   0.05405883            5 
 2371000   0.87527044   -4.2863417    1556.3682  0.054701538  0.054047724            8 
 2372000   0.87290282   -4.2889435    1554.1176  0.054599408  0.054036625            7 
 2373000   0.87259439   -4.2537808    1555.5214  0.054625698  0.054025667            2 
 2374000   0.88473512   -4.2703883    1560.8999  0.054791487  0.054014837            5 
 2375000   0.88501375   -4.2936762    1552.5764  0.054476364  0.054003846            2 
 2376000   0.87748509   -4.2916926    1555.7602  0.054565103  0.053992781            5 
 2377000   0.87514014   -4.2993833    1560.6311  0.054712912   0.05398178            1 
 2378000   0.87943442   -4.2669182    1555.4101  0.054506943   0.05397084           16 
 2379000   0.86203858   -4.2762098    1559.4822  0.054626671  0.053959749            3 
 2380000   0.87575665   -4.3044286    1562.1623  0.054697559  0.053948829            6 
 2381000   0.87950928   -4.2997361    1561.8032  0.054662018  0.053937938            3 
 2382000   0.88743609   -4.2745802    1559.3013  0.054551542  0.053926895            3 
 2383000   0.85205644   -4.2975425    1557.1434  0.054453189  0.053915771            5 
 2384000   0.88382614   -4.2744768    1561.5786   0.05458538  0.053904734            3 
 2385000   0.86462717   -4.2978996    1558.3151  0.054448465  0.053893642            3 
 2386000   0.88053453   -4.2881933    1557.9869  0.054414184  0.053882598            9 
 2387000   0.87080085   -4.3011254    1561.5077  0.054514304  0.053871589            2 
 2388000   0.88141828    -4.294798    1559.6517  0.054426705  0.053860666            9 
 2389000    0.8564921   -4.2900961     1555.586  0.054262106  0.053849475            4 
 2390000   0.86272499   -4.2858359    1561.8625  0.054458245  0.053838492           10 
 2391000   0.86250415   -4.2777036    1565.1007  0.054548331  0.053827502            3 
 2392000   0.84745204   -4.2467821    1563.5822  0.054472623  0.053816315            9 
 2393000   0.86546045   -4.2935896    1559.2492  0.054298969  0.053805192            4 
 2394000   0.86204305   -4.3160513    1561.8921  0.054368285   0.05379411            3 
 2395000   0.86489936   -4.2869486    1566.8172  0.054516951  0.053783105            7 
 2396000   0.86107985   -4.2680183    1565.2609   0.05444007  0.053772033            4 
 2397000   0.87435353   -4.2767482    1563.7624  0.054365263   0.05376109            5 
 2398000   0.86677483   -4.2718092    1568.8585  0.054519685  0.053750078            2 
 2399000    0.8744637   -4.2782058     1564.142  0.054333126  0.053739139            5 
 2400000   0.83501445   -4.2857251    1565.4396  0.054355541  0.053728228            5 
 2401000   0.87225632   -4.2792317     1570.701  0.054515515  0.053717335            4 
 2402000   0.86774066   -4.2861212    1567.4677  0.054380646  0.053706469            1 
 2403000    0.8580441   -4.3137931    1566.2084  0.054314342  0.053695559            4 
 2404000   0.87229201   -4.2768748    1567.3145  0.054330091  0.053684772            3 
 2405000   0.85401288   -4.2884859    1567.0778    0.0542993  0.053673837            5 
 2406000   0.87717116   -4.3024583    1571.2868  0.054422513  0.053662818            3 
 2407000   0.87141695   -4.3067462    1567.9445  0.054284189  0.053652085            3 
 2408000   0.86485026   -4.2850243     1567.238  0.054237196  0.053641033            2 
 2409000   0.85931926   -4.2621244    1574.8977   0.05447965  0.053630166            3 
 2410000   0.88334918   -4.2905785    1568.8028  0.054246293  0.053619282            6 
 2411000    0.8714753   -4.2829027    1567.0983  0.054164879  0.053608499            3 
 2412000   0.86667491   -4.2834971    1574.7238   0.05440588  0.053597741            2 
 2413000   0.87957365   -4.2912013    1574.5053  0.054375789  0.053586983            5 
 2414000   0.87236055   -4.2908287    1571.1018  0.054235772  0.053576322            5 
 2415000   0.87307871   -4.2977336    1570.8651  0.054205143  0.053565412            4 
 2416000   0.86716942   -4.2921492    1576.5846  0.054379987  0.053554575           10 
 2417000   0.87853825   -4.2915002    1573.8397   0.05426285   0.05354367            4 
 2418000   0.87839275   -4.3063393    1569.0183  0.054074247  0.053532551            4 
 2419000   0.87418958   -4.2986543    1573.5882  0.054209323   0.05352141            4 
 2420000   0.85445418    -4.278696    1572.3109  0.054142937  0.053510409            4 
 2421000   0.85292398   -4.3066881    1575.5094  0.054230668  0.053499349            4 
 2422000   0.87378818   -4.2949834    1574.6902  0.054180093  0.053488296            3 
 2423000   0.86787694   -4.3019789    1572.2123  0.054072509  0.053477302            4 
 2424000    0.8608801   -4.3019659    1567.8792  0.053901236  0.053466197            3 
 2425000   0.86717529   -4.3132695     1571.448  0.054001649  0.053455286            7 
 2426000   0.86173296   -4.3235851    1571.3508  0.053976051  0.053444174            3 
 2427000      0.85435   -4.2864368     1572.062  0.053978231  0.053433065           10 
 2428000     0.856383   -4.2925879    1576.1637  0.054096777  0.053421923            5 
 2429000    0.8549908   -4.3141445    1572.2474  0.053940146  0.053410811            6 
 2430000   0.84421715   -4.2907763    1573.6483   0.05396599  0.053399756            7 
 2431000   0.87789716    -4.308381     1575.947  0.054022591  0.053388774            2 
 2432000   0.85359331   -4.2948663    1575.3176  0.053978812  0.053377845            3 
 2433000   0.85664609   -4.3115758    1575.4665  0.053961723  0.053366753            4 
 2434000   0.86388175   -4.2726874    1585.4482  0.054281298  0.053355758            3 
 2435000   0.84593035    -4.303065    1584.1855  0.054215794    0.0533447            3 
 2436000   0.87068969   -4.2614646    1582.7088  0.054143022  0.053333796            2 
 2437000   0.85514273   -4.3064719    1583.7412  0.054156107  0.053322988            4 
 2438000   0.86774905    -4.315763    1571.7221  0.053723069  0.053312108            7 
 2439000   0.86952689   -4.3150536     1579.551  0.053968531  0.053301251            6 
 2440000   0.86975387   -4.2945106    1581.0827  0.053998727  0.053290331            6 
 2441000   0.85018059   -4.3101105    1581.8015  0.054001144  0.053279518            3 
 2442000   0.85273632   -4.3107189    1579.7745   0.05390986  0.053268617            4 
 2443000   0.86913415     -4.30193    1582.9396  0.053995757  0.053257835            3 
 2444000   0.87862549    -4.299294    1579.5741  0.053858909  0.053247077            5 
 2445000   0.86563383   -4.2950784    1580.6391  0.053873179  0.053236051            3 
 2446000   0.84824718   -4.2889843    1584.7732  0.053991999  0.053225187           13 
 2447000   0.86266399   -4.3017705    1581.3415  0.053853067  0.053214343            6 
 2448000   0.86688815   -4.3109512    1578.5246   0.05373518  0.053203427            4 
 2449000   0.87061731   -4.2772313    1582.8746  0.053861256  0.053192564            3 
 2450000   0.85608313   -4.2772237    1587.1585  0.053984982  0.053181744            3 
 2451000   0.87409199   -4.2818372    1581.5845  0.053773441  0.053170769            2 
 2452000   0.85943729   -4.2962531      1578.31  0.053640224   0.05315975            4 
 2453000   0.85039856   -4.3181888    1586.8784  0.053909444  0.053148741            4 
 2454000   0.87363815   -4.3170836    1584.3729  0.053802394  0.053137891            7 
 2455000   0.86988487   -4.3106117    1583.9444  0.053765935  0.053126902            2 
 2456000   0.85448846   -4.3267873    1581.0667  0.053646402  0.053115908            5 
 2457000   0.88017856   -4.3070464    1582.8956  0.053686597  0.053104909            5 
 2458000   0.85729674   -4.2938069    1585.9098  0.053766945  0.053093865            7 
 2459000    0.8636896   -4.2984699    1584.9435  0.053712334  0.053082794            6 
 2460000   0.85755774   -4.2951717    1583.1318  0.053629127  0.053071795            4 
 2461000   0.85383775   -4.2856922    1584.7199   0.05366111   0.05306077            5 
 2462000    0.8636923   -4.3220888    1585.4731  0.053664809   0.05304976            3 
 2463000   0.85916863   -4.3277361    1587.7724  0.053720813  0.053038653            4 
 2464000   0.85855853   -4.2565458    1584.1578  0.053576766  0.053027549            8 
 2465000   0.86953836   -4.2933439    1587.8451  0.053679687  0.053016526            6 
 2466000   0.85036742   -4.3156196     1581.874  0.053456137  0.053005343            3 
 2467000   0.87014492   -4.3047316    1585.1094  0.053543759   0.05299422            4 
 2468000    0.8480774   -4.3181771    1589.2748  0.053662709  0.052983054            2 
 2469000    0.8451193   -4.3155872    1581.6012  0.053381977  0.052971857            3 
 2470000   0.84480238   -4.3149255    1583.8841  0.053437386  0.052960652            3 
 2471000   0.86146598   -4.2979739    1584.5807  0.053439253  0.052949505            7 
 2472000   0.85214104   -4.3063696    1582.9481  0.053362598  0.052938448            2 
 2473000   0.84747688   -4.3279435    1584.4461  0.053391498  0.052927134            6 
 2474000   0.85757102   -4.3148497    1583.1335  0.053325704  0.052916144            7 
 2475000   0.84546317   -4.3082523    1589.2803  0.053511121  0.052905074            8 
 2476000   0.85507622   -4.3077403    1593.7098  0.053638592  0.052894028            3 
 2477000   0.86412245   -4.3144997    1587.2007  0.053397951  0.052882819            9 
 2478000   0.84521608   -4.3284958    1585.0945  0.053305573  0.052871589            5 
 2479000   0.84598954   -4.3255275     1589.228  0.053423022  0.052860316            2 
 2480000   0.84558301   -4.3097752     1589.312  0.053404302  0.052849349            4 
 2481000   0.86500918   -4.3230092    1591.0135  0.053439926  0.052838309            5 
 2482000   0.84918025   -4.2923294    1591.5831  0.053437519  0.052827321            3 
 2483000   0.86078156   -4.2821805    1590.0603   0.05336489  0.052816403            3 
 2484000   0.85038674   -4.3265183    1587.1722  0.053246518  0.052805308            5 
 2485000   0.85469133   -4.3300829    1589.2295   0.05329408   0.05279419            4 
 2486000   0.83790814    -4.304816    1594.3326  0.053443705  0.052783127            9 
 2487000   0.83826806   -4.2983059     1594.571  0.053430203   0.05277208            3 
 2488000    0.8619308   -4.3221746    1590.3619   0.05326775  0.052760992            5 
 2489000   0.84869185   -4.2987513    1600.0188  0.053569668  0.052749992            5 
 2490000   0.87897235   -4.3040925    1595.7911  0.053406662  0.052739049            3 
 2491000   0.85139761    -4.294847    1600.7611   0.05355149  0.052728058            6 
 2492000   0.85856073   -4.3042261    1597.2844  0.053413738  0.052717132            3 
 2493000   0.86020889   -4.3361657    1588.0037  0.053082087  0.052705901            3 
 2494000   0.86480112   -4.3126489    1592.4012  0.053207738  0.052694831            3 
 2495000   0.84362535   -4.3570528    1594.9602  0.053271883   0.05268378            7 
 2496000   0.84859008   -4.3072327    1601.6117  0.053472613  0.052672857            3 
 2497000    0.8403314   -4.3445252    1595.0493  0.053232188  0.052661793            3 
 2498000   0.87061632   -4.2913098    1600.0565   0.05337792  0.052650807            4 
 2499000   0.84826273   -4.3506607     1595.831  0.053215651  0.052639813            7 
 2500000   0.85744294   -4.2868898    1598.3852  0.053279507  0.052629078            8 
 2501000   0.85090071   -4.3176246    1596.1167  0.053182617  0.052618145            2 
 2502000   0.83148574   -4.2921743     1600.418  0.053304623   0.05260729            4 
 2503000   0.85415889   -4.3409719    1597.1831  0.053175625  0.052596303            6 
 2504000   0.85581983   -4.3185018    1599.5777  0.053234081  0.052585362            3 
 2505000   0.84409548   -4.3126494    1595.6679  0.053082764  0.052574468            5 
 2506000   0.85051313   -4.3179156    1599.7251  0.053196499  0.052563586            8 
 2507000   0.85499923   -4.3423565    1602.1289  0.053255181  0.052552638            3 
 2508000   0.84385306   -4.3234579    1602.5536   0.05324806  0.052541734            3 
 2509000   0.85632933   -4.3525105    1604.0419  0.053276269  0.052530798            4 
 2510000   0.86076603   -4.3295566    1600.6644  0.053142909  0.052519786            4 
 2511000   0.85829737   -4.3168682    1601.5867  0.053152353  0.052508861            4 
 2512000   0.85065598   -4.2942235    1598.8893  0.053041709   0.05249791            3 
 2513000   0.82897216   -4.3138255    1603.9288  0.053187718  0.052487001            3 
 2514000   0.84063614   -4.3263516    1597.6751  0.052959263  0.052476054            1 
 2515000   0.84657655   -4.3328767    1599.4703  0.052997692  0.052465102            6 
 2516000   0.87188287   -4.3307033    1599.2286  0.052968621  0.052454121            4 
 2517000   0.85044044   -4.3358534    1602.9365  0.053070339  0.052443183            4 
 2518000   0.85461747   -4.2889312    1607.2931  0.053193444  0.052432271            4 
 2519000   0.85519117   -4.3242715    1603.0621  0.053032357  0.052421438            4 
 2520000   0.85904143   -4.3395139    1601.5292  0.052960621  0.052410574            6 
 2521000   0.84179498   -4.3222573    1606.6725  0.053109628  0.052399683            3 
 2522000   0.84508169   -4.3307297    1603.3932  0.052980214  0.052388743            6 
 2523000   0.86129698   -4.3043613    1603.6179  0.052966637  0.052377671            6 
 2524000   0.85537723   -4.3292064    1599.2213  0.052800494   0.05236664            6 
 2525000   0.84316662   -4.2966028    1605.9367   0.05300121  0.052355589            4 
 2526000   0.86838881   -4.3245241    1605.1092  0.052952928  0.052344727            5 
 2527000   0.84668542   -4.3396584    1608.1137  0.053031054  0.052333921            2 
 2528000   0.86719213   -4.3301206    1603.9495  0.052872809  0.052322941            3 
 2529000   0.82779909   -4.2933829    1606.1676   0.05292499  0.052312099            3 
 2530000   0.84672539   -4.3299341    1607.0174  0.052932061  0.052301109            3 
 2531000   0.83157428   -4.3419673    1600.9022  0.052709804  0.052290123            5 
 2532000   0.85100487   -4.2960182    1607.9409  0.052920647  0.052279049            4 
 2533000    0.8341107   -4.3405053    1601.1041   0.05267483  0.052268095            4 
 2534000   0.85781893    -4.363704     1600.941  0.052648676  0.052257011            4 
 2535000   0.86210817   -4.2781257    1609.7134  0.052916285   0.05224612            5 
 2536000   0.83818005   -4.3232549    1605.7334  0.052764635   0.05223527            4 
 2537000   0.85690185   -4.3216949    1608.7271  0.052842172  0.052224335            8 
 2538000   0.85384774    -4.298585    1608.9988  0.052830275  0.052213364            7 
 2539000   0.82946398    -4.325153    1610.9769  0.052874391  0.052202361            3 
 2540000   0.83012358   -4.3368752    1610.0697  0.052823809  0.052191338            7 
 2541000    0.8654394    -4.329657    1608.2452  0.052743184  0.052180302           22 
 2542000   0.85048028   -4.3156617    1613.8166   0.05290508  0.052169313            6 
 2543000   0.86146905   -4.3461938    1608.7025  0.052716689  0.052158231            6 
 2544000   0.84477488   -4.3311761    1608.9339  0.052703548  0.052147245            2 
 2545000   0.82801303   -4.3279238    1610.0808  0.052720392  0.052136179            3 
 2546000   0.83305679   -4.3294485    1607.9746  0.052630747  0.052125194            6 
 2547000   0.84570556   -4.3043598    1606.8811  0.052574306    0.0521141            6 
 2548000   0.84250898   -4.3266622    1609.0768  0.052625484  0.052103016            3 
 2549000   0.83761414   -4.3520665    1602.9148  0.052403387  0.052092025            3 
 2550000   0.82789043   -4.3245779    1614.8235   0.05277201  0.052080911            8 
 2551000   0.82968688   -4.3611045    1611.1271  0.052630573  0.052069829            9 
 2552000   0.83670053    -4.335657    1612.6099  0.052658368  0.052058834            3 
 2553000   0.84031714   -4.3448869    1615.0927  0.052718785  0.052047865            6 
 2554000    0.8181899   -4.3271551    1612.6865  0.052619633   0.05203684            5 
 2555000   0.85777903   -4.3096487    1613.4236  0.052623078  0.052025891            9 
 2556000   0.83214821   -4.3525244    1609.2739  0.052467198  0.052014741            3 
 2557000   0.83760309   -4.3362446    1613.9147  0.052597923  0.052003619            2 
 2558000   0.85257537   -4.3559354     1609.413  0.052430707  0.051992458            4 
 2559000   0.84625536   -4.3732184    1610.6293  0.052449826  0.051981293            5 
 2560000   0.83540081    -4.308369    1617.3934  0.052649524  0.051970104            4 
 2561000   0.85212522   -4.3460588    1616.5227  0.052600634  0.051959052            4 
 2562000   0.84784489   -4.3325495    1613.1514  0.052470447  0.051947938            8 
 2563000   0.84620814   -4.3274377    1609.1194  0.052318879  0.051936932            4 
 2564000   0.83992256   -4.3397948     1615.848   0.05251716  0.051925933            6 
 2565000   0.83025561   -4.3386533    1617.7908  0.052559806  0.051914923            6 
 2566000   0.83145005   -4.3313693    1617.2926  0.052523143  0.051903903            2 
 2567000   0.83372994   -4.3386376    1617.9169   0.05252295  0.051892767            3 
 2568000   0.83929621   -4.3357003    1620.8303  0.052597036  0.051881818            6 
 2569000   0.82088494   -4.3610423    1617.3394  0.052463324  0.051870838            4 
 2570000    0.8578645   -4.3588713    1614.9993  0.052367033  0.051859826            6 
 2571000   0.85429872   -4.3380468    1614.4456  0.052328718  0.051848818            3 
 2572000   0.86317916   -4.3534199     1617.448  0.052405652  0.051837752            4 
 2573000   0.83395344   -4.3400809    1619.3828  0.052447948  0.051826721            3 
 2574000   0.85983901   -4.3307847    1620.8032  0.052473555  0.051815726            6 
 2575000   0.82855916     -4.34017    1618.1264  0.052366551  0.051804883            3 
 2576000   0.84038755   -4.3473321    1622.0124  0.052471933  0.051793967            8 
 2577000   0.84786496   -4.3309797    1617.5097  0.052305966  0.051783067            3 
 2578000   0.84160034   -4.3266869     1619.608  0.052353505   0.05177209            6 
 2579000   0.83654349   -4.3492403    1618.1507  0.052286117  0.051761109            8 
 2580000   0.84552354   -4.3228169    1621.9025  0.052387031  0.051750082            3 
 2581000   0.83564341   -4.3587523    1622.9549  0.052400713  0.051739094            3 
 2582000   0.86233858   -4.3638385    1622.5909  0.052368671  0.051728183            7 
 2583000   0.83162578   -4.3483993    1619.0488  0.052234119  0.051717188            6 
 2584000   0.84691855   -4.3434406    1620.0514  0.052246239  0.051706292            4 
 2585000   0.84878516   -4.3128763    1622.7145  0.052311879  0.051695252            7 
 2586000    0.8399607   -4.3641815    1622.7839  0.052293888  0.051684325            6 
 2587000   0.84721552   -4.3393791    1619.0905  0.052154701  0.051673306            4 
 2588000    0.8499669   -4.3468349    1619.3021  0.052141362  0.051662347            4 
 2589000   0.84163535   -4.3443344    1616.2673  0.052023538  0.051651161            4 
 2590000   0.83239068   -4.3473822    1622.5528  0.052205689  0.051640079            3 
 2591000   0.82993057   -4.3138649    1624.9464  0.052262524  0.051628966            8 
 2592000   0.84485206   -4.3445803    1623.0258  0.052180614     0.051618            6 
 2593000   0.84285962   -4.3450327    1624.6233   0.05221183  0.051606919            5 
 2594000   0.82854497   -4.3131826    1625.7589  0.052228183  0.051596048            4 
 2595000   0.85845467   -4.3516589    1626.2647  0.052224299  0.051585068            3 
 2596000   0.84333474   -4.3363869     1627.601   0.05224708  0.051574024            3 
 2597000   0.83560724   -4.3553401    1624.2646  0.052119902  0.051562963            5 
 2598000   0.84830872   -4.3434059    1627.8651  0.052215328   0.05155195            5 
 2599000   0.82183404   -4.3494723    1623.8614  0.052066866  0.051540726            6 
 2600000   0.83567768   -4.3400754    1626.1192  0.052119207  0.051529637            4 
 2601000   0.83128418   -4.3368836     1623.722  0.052022364  0.051518665            4 
 2602000   0.83241483   -4.3476165    1626.8153  0.052101438  0.051507689            3 
 2603000   0.83639298   -4.3519396    1626.6813  0.052077131  0.051496782            5 
 2604000   0.84237728   -4.3441928     1628.173  0.052104869  0.051485629            4 
 2605000   0.83315475   -4.3597052    1625.1413  0.051987886  0.051474664            5 
 2606000   0.84413548   -4.3669926    1623.9218  0.051928941  0.051463577            5 
 2607000   0.82366078   -4.3256212    1627.8934  0.052035974  0.051452587            4 
 2608000   0.82585865   -4.3548982    1625.3673  0.051935304   0.05144145            6 
 2609000   0.83255813   -4.3335727     1628.505   0.05201562  0.051430432            5 
 2610000    0.8369398    -4.363123    1632.4366  0.052121219  0.051419303            5 
 2611000   0.81342403   -4.3751061    1624.8955  0.051860574  0.051408213            5 
 2612000   0.82061891   -4.3333982    1631.7615  0.052059773  0.051397194            9 
 2613000   0.81750707    -4.356479    1628.9662  0.051950702  0.051386225            7 
 2614000   0.84063288   -4.3501127    1630.2923  0.051973104  0.051375214            6 
 2615000   0.84325516   -4.3304011    1625.0829  0.051787218  0.051364235            4 
 2616000   0.82830283   -4.3777358    1630.5682  0.051942157  0.051353298            3 
 2617000   0.83769068   -4.3595856    1634.2367  0.052039125  0.051342347            6 
 2618000    0.8219975   -4.3079065    1636.6467   0.05209596  0.051331462            5 
 2619000   0.85029681   -4.3388041    1635.3893  0.052036059  0.051320763            9 
 2620000   0.85217979   -4.3520937    1635.4763  0.052018965  0.051309924            6 
 2621000   0.84102707   -4.3769572    1633.8771  0.051948275   0.05129916            1 
 2622000   0.83508157   -4.3737614     1631.225  0.051844173  0.051288504            5 
 2623000    0.8407646   -4.3792554    1635.3279  0.051954757   0.05127776            6 
 2624000   0.83069516   -4.3463918    1637.9044  0.052016781   0.05126709            6 
 2625000   0.81696382   -4.3380997    1636.3614  0.051947981  0.051256459            2 
 2626000   0.84004829    -4.351747    1634.0354  0.051854386  0.051245764            4 
 2627000   0.83937588   -4.3413578    1637.5095   0.05194485  0.051234934            6 
 2628000   0.82561471   -4.3609937    1633.8745  0.051809821  0.051224196            4 
 2629000   0.84702942   -4.3391216    1640.7324  0.052007494  0.051213497            3 
 2630000   0.83098691   -4.3597193    1635.5233  0.051822666  0.051202716            4 
 2631000   0.83077492   -4.3302475    1636.4526  0.051832402  0.051192051            3 
 2632000   0.82489892   -4.3374379    1641.0536  0.051958382  0.051181387            7 
 2633000   0.83605392   -4.3574355    1639.4797  0.051888837  0.051170604            4 
 2634000   0.83297482   -4.3527832    1636.1136  0.051762641  0.051159986            3 
 2635000   0.83275096   -4.3522487    1641.8928  0.051925768  0.051149199            8 
 2636000   0.82609301   -4.3397338    1642.3434  0.051920314  0.051138638            4 
 2637000   0.81691948   -4.3296063    1641.3161  0.051868161   0.05112791            4 
 2638000   0.84832906    -4.354135    1642.7449  0.051893634  0.051117292            3 
 2639000   0.80746146   -4.3582176    1641.7968  0.051844032   0.05110659            5 
 2640000   0.82840421   -4.3349344    1642.4137  0.051843867  0.051095841            3 
 2641000   0.83218035    -4.334429     1639.533   0.05173334  0.051084998            6 
 2642000    0.8377727   -4.3539881    1638.9839   0.05169644  0.051074125            6 
 2643000   0.83443361   -4.3456662     1645.362   0.05187798   0.05106329            1 
 2644000   0.82883289   -4.3648134    1637.1959  0.051600979  0.051052484            8 
 2645000   0.83460198    -4.339663     1636.848  0.051570512  0.051041706            4 
 2646000   0.84107842    -4.367874    1636.9489  0.051554197  0.051030825            5 
 2647000   0.81750183   -4.3459363    1640.4008  0.051643395  0.051019879            5 
 2648000   0.82021724   -4.3597338    1642.7163  0.051696761  0.051009034            7 
 2649000   0.81372735   -4.3392329    1639.7124  0.051582749   0.05099812            4 
 2650000   0.81387507   -4.3616592    1638.0802  0.051511955  0.050987177            2 
 2651000   0.82955208   -4.3546161    1639.9558  0.051551484  0.050976126            6 
 2652000   0.84270085   -4.3646455    1641.5438  0.051581946  0.050965248            2 
 2653000   0.82379291   -4.3757902    1643.1445  0.051612782  0.050954284            3 
 2654000   0.82548498   -4.3336422     1645.913  0.051680264  0.050943468            7 
 2655000   0.83401065   -4.3406268    1644.2009  0.051607058  0.050932647            4 
 2656000   0.81904742   -4.3592376    1643.1693  0.051555263  0.050921882            5 
 2657000   0.81913328   -4.3434147    1647.0382  0.051657202   0.05091113            6 
 2658000   0.80591315   -4.3571036    1643.4282  0.051524587  0.050900234            5 
 2659000   0.85825876   -4.3734921    1644.1444  0.051527655  0.050889198            6 
 2660000   0.82374208   -4.3944118    1645.4466  0.051549078  0.050878288            4 
 2661000   0.81770353   -4.3739719    1645.1896  0.051521657  0.050867477            9 
 2662000   0.82888418   -4.3515362     1644.014  0.051465502  0.050856719            6 
 2663000   0.82144139   -4.3678209    1649.8044  0.051627376  0.050845936            3 
 2664000   0.83099772   -4.3597981    1643.1307  0.051399234  0.050835087            7 
 2665000   0.82075581   -4.3715151    1644.3993  0.051419615   0.05082429            8 
 2666000   0.82433326   -4.3617266    1648.0751  0.051515227  0.050813513            5 
 2667000   0.83243617   -4.3316983    1646.1458  0.051435628  0.050802851            7 
 2668000   0.82087667   -4.4118085    1642.2878  0.051295845  0.050792028            4 
 2669000   0.80880051   -4.3694332    1643.6942  0.051320538  0.050781158            4 
 2670000   0.83423886   -4.3747776     1645.858  0.051368851  0.050770352           11 
 2671000   0.83344608   -4.3606437    1654.1126  0.051607158  0.050759558            5 
 2672000   0.82984588    -4.396586    1647.0772  0.051368427   0.05074887            5 
 2673000   0.82745431   -4.3775017    1647.2682  0.051355163  0.050737998            4 
 2674000   0.83141787   -4.3787501     1647.445  0.051341468  0.050727034            9 
 2675000   0.82974982   -4.3816922    1649.2638  0.051378934  0.050716108           10 
 2676000   0.81666619    -4.373598    1649.2472  0.051359216  0.050705193            5 
 2677000   0.82241078   -4.3655941    1651.6711  0.051415487  0.050694289            4 
 2678000   0.82541069    -4.361039    1645.7924  0.051213354  0.050683518            5 
 2679000   0.82949267   -4.3724848    1652.1741  0.051392749  0.050672689            4 
 2680000   0.82933011   -4.3615787    1651.9805  0.051367553  0.050661919            2 
 2681000   0.82576517   -4.3768968    1651.4612  0.051332253  0.050651223            3 
 2682000   0.80944633   -4.3373346    1655.4133   0.05143591  0.050640507            4 
 2683000   0.84289266   -4.3567945    1649.5819  0.051235615   0.05062979            6 
 2684000   0.83062064   -4.3810148    1650.2165   0.05123623  0.050619003            5 
 2685000   0.82166476   -4.3844587    1656.2028  0.051402941  0.050608161            9 
 2686000   0.81321258   -4.3491093    1654.2423  0.051322982  0.050597343            4 
 2687000   0.81195191   -4.3513683    1657.0613  0.051391307  0.050586644            4 
 2688000   0.83071925   -4.3932495    1652.5894   0.05123355  0.050575987            4 
 2689000   0.82867523   -4.3882395    1651.8282  0.051190908  0.050565078            4 
 2690000   0.80729812   -4.3606058    1650.5527  0.051132364   0.05055434            3 
 2691000   0.83446955   -4.3967588    1654.5824  0.051238151   0.05054357            4 
 2692000   0.80126203   -4.3655763    1653.9478  0.051199474  0.050532663            5 
 2693000   0.84329356   -4.3567647    1652.7522  0.051143466  0.050521924           10 
 2694000   0.80855714    -4.375856    1653.9458  0.051161401  0.050511013            6 
 2695000    0.8257915   -4.3609713     1660.323  0.051339609  0.050500179            4 
 2696000   0.83284922   -4.3534853    1657.3308  0.051228077  0.050489302            5 
 2697000   0.82080164   -4.3706039    1651.2965  0.051022632  0.050478551            5 
 2698000   0.80575805   -4.3798726    1649.4519  0.050946748  0.050467691            4 
 2699000   0.82805483   -4.3843388    1655.7451  0.051122178  0.050456884           11 
 2700000    0.8314492   -4.3597522    1658.0829  0.051175397  0.050446052            9 
 2701000   0.82476269   -4.3595642    1652.7784  0.050992794  0.050435265            5 
 2702000   0.81721156   -4.3828567    1653.6047  0.050999404  0.050424526            5 
 2703000   0.81316008   -4.3739522    1655.8702  0.051050384  0.050413565            3 
 2704000   0.83075698   -4.3814916    1653.1283  0.050947003  0.050402786            9 
 2705000   0.82752842   -4.3527899    1656.9654  0.051046377  0.050391875            4 
 2706000   0.81931798   -4.3620389    1656.2034  0.051004047  0.050381019            4 
 2707000   0.81454366    -4.373185     1654.002  0.050917437  0.050370018            6 
 2708000   0.82647834   -4.3719615    1656.6746  0.050980879  0.050359075            2 
 2709000   0.80140693   -4.3683352    1653.0432  0.050850352  0.050348229            5 
 2710000   0.80641025   -4.4017332    1661.2774  0.051084792  0.050337363            3 
 2711000   0.82434529   -4.3926761    1653.8794  0.050838541  0.050326418            4 
 2712000    0.8082348   -4.3920034    1660.6834  0.051028865  0.050315626            5 
 2713000    0.8218579   -4.3673114    1655.8955  0.050862989  0.050305011            9 
 2714000   0.81893724   -4.3891772     1654.761  0.050809413  0.050294147            7 
 2715000   0.83655657   -4.3545109    1659.1967  0.050926848  0.050283392           13 
 2716000   0.81315071   -4.3935025    1659.7951  0.050926458  0.050272757            3 
 2717000   0.81931325   -4.3857341    1657.4982  0.050837266  0.050261933            4 
 2718000   0.81182285   -4.3928826    1665.7408  0.051071279  0.050251162            3 
 2719000   0.81148012     -4.40059    1661.9473   0.05093623  0.050240316            3 
 2720000   0.80111423   -4.3966949    1662.8693   0.05094575  0.050229676            9 
 2721000   0.82478564   -4.3691722    1663.9456  0.050959989   0.05021912            7 
 2722000   0.82386395   -4.3574552     1665.016  0.050974038  0.050208529           12 
 2723000    0.8222911   -4.4135926    1667.4105    0.0510286  0.050197914            3 
 2724000   0.81366744   -4.3763923     1665.045    0.0509375  0.050187251            8 
 2725000   0.82228603   -4.3683584    1668.2134  0.051015699  0.050176694            5 
 2726000   0.79087724    -4.379225    1667.6155  0.050978707  0.050166215            5 
 2727000   0.82250436   -4.4054772    1661.1397  0.050762122  0.050155549            5 
 2728000    0.8122073   -4.3876303     1664.719  0.050852854  0.050144778            5 
 2729000   0.80767532    -4.376936    1664.7002  0.050833645  0.050134144            4 
 2730000   0.81366757   -4.3806913    1664.8602  0.050819908  0.050123616            3 
 2731000   0.81299798    -4.358823    1664.7009   0.05079644  0.050113133            8 
 2732000   0.81396691    -4.399711    1664.8578  0.050782633  0.050102472           21 
 2733000   0.80690232   -4.3670086    1665.6121  0.050787049  0.050091738            4 
 2734000   0.82078817   -4.3936395    1666.5741  0.050797796  0.050081039            6 
 2735000   0.81733079   -4.3945379    1667.7106  0.050813852  0.050070274           10 
 2736000   0.79510773   -4.3849615     1669.579  0.050852186  0.050059636            4 
 2737000   0.82635053   -4.4059691    1668.8244  0.050810632  0.050049122            3 
 2738000   0.81882325   -4.3803252    1674.4359  0.050962867  0.050038558            6 
 2739000   0.82933506   -4.3624132    1670.0578  0.050811056  0.050028045            3 
 2740000   0.81713731   -4.3681835    1670.8594  0.050816893  0.050017533            9 
 2741000    0.8138088   -4.3873382     1670.392  0.050784142  0.050007087            2 
 2742000   0.81911534   -4.3831534    1676.6817  0.050956773  0.049996597           10 
 2743000    0.8110125   -4.3452862    1673.5652  0.050843517  0.049986197            4 
 2744000   0.79905205   -4.3650249    1673.6243  0.050826783  0.049975921            4 
 2745000   0.79218989   -4.4178023    1669.6083  0.050686347  0.049965521            8 
 2746000   0.82021634   -4.3875962    1672.0727  0.050742677  0.049954945            9 
 2747000    0.8173625   -4.3896076    1673.2416  0.050759665  0.049944508            3 
 2748000    0.8074726   -4.3860816    1673.5094  0.050749316  0.049934074            6 
 2749000   0.83208684   -4.3992388    1673.7687  0.050738716  0.049923717            3 
 2750000    0.8035131   -4.3752124    1675.5627  0.050774626  0.049913407            2 
 2751000   0.81540488   -4.4101027    1676.1415  0.050773702  0.049903062            3 
 2752000   0.81369474   -4.3709198    1675.7547   0.05074354  0.049892658            5 
 2753000   0.79859491   -4.3895247    1674.6158  0.050690633  0.049882359            4 
 2754000   0.80520215    -4.401936     1677.522  0.050760166   0.04987202            7 
 2755000   0.81282618   -4.3733374    1675.2239  0.050672229  0.049861763            6 
 2756000   0.81424444   -4.3976032    1674.0068  0.050617041  0.049851459            6 
 2757000   0.81406188   -4.3938304    1673.8561  0.050594126  0.049840959            6 
 2758000   0.79597791   -4.3879386    1676.5044  0.050655801  0.049830474            7 
 2759000   0.81492279   -4.3825492    1675.1237  0.050595739  0.049820084            5 
 2760000   0.81319095   -4.4037625    1676.1602    0.0506087  0.049809571           10 
 2761000   0.80487923   -4.4181449    1673.8704  0.050521262  0.049799082            5 
 2762000   0.80997317   -4.3473802    1681.7909   0.05074194  0.049788696            4 
 2763000     0.803514   -4.4009927    1672.4484  0.050441802  0.049778212            5 
 2764000   0.79297288   -4.3963139    1675.6761  0.050520867  0.049767657            5 
 2765000   0.80214166   -4.3840278     1677.099   0.05054548  0.049757133            7 
 2766000   0.81841125   -4.4015734    1679.6391  0.050603731  0.049746651            6 
 2767000   0.81881633   -4.3982151    1679.1008  0.050569231  0.049736157            3 
 2768000   0.80534672   -4.3937244    1673.1899  0.050373009  0.049725707            6 
 2769000   0.80567328   -4.4084577    1681.8858  0.050616523  0.049715196            3 
 2770000   0.82620489   -4.3823034    1679.7072  0.050532708  0.049704705            5 
 2771000   0.79586145   -4.3896376    1675.0732  0.050375111  0.049694173            5 
 2772000   0.82673695   -4.4086312    1677.0542  0.050416493  0.049683581           12 
 2773000   0.80970654   -4.4252116    1681.8633  0.050542832  0.049672959            3 
 2774000   0.81428061   -4.4054457    1676.3271    0.0503583  0.049662368            3 
 2775000   0.80684172    -4.387243    1678.3112  0.050399735  0.049651719           10 
 2776000   0.80475156    -4.373648    1678.8253  0.050397014  0.049641256            4 
 2777000   0.79093204   -4.3959885    1679.4589  0.050397877  0.049630775            2 
 2778000   0.80601888   -4.4107074    1674.5683  0.050233031  0.049620168            3 
 2779000   0.81814052   -4.3788392    1679.7012  0.050368875  0.049609578            8 
 2780000    0.8077298   -4.3889005    1682.3022  0.050428723  0.049598957            4 
 2781000   0.80805823   -4.4076894    1680.4241  0.050354311   0.04958844            8 
 2782000   0.81506487   -4.4066895    1677.9377  0.050261732   0.04957793            8 
 2783000   0.79894956   -4.3934084    1683.1614  0.050400089    0.0495674            6 
 2784000   0.80787485   -4.3872563    1684.4077  0.050419291  0.049556881            3 
 2785000   0.82182482   -4.4027123    1678.1325  0.050213421  0.049546203            7 
 2786000     0.806295   -4.4187651    1677.1176  0.050165039   0.04953567            4 
 2787000   0.79622579   -4.4006952    1682.9214  0.050320578  0.049525178            4 
 2788000   0.80820143   -4.3955936    1689.9236  0.050511825  0.049514791            5 
 2789000   0.81641687   -4.4101907    1682.0928  0.050259733  0.049504336            6 
 2790000   0.80810744   -4.4190062    1684.2014  0.050304701  0.049494029            4 
 2791000   0.78955242   -4.4063189    1679.2196  0.050137932  0.049483556            6 
 2792000   0.79228552   -4.3873006    1688.4213  0.050394617  0.049473104            4 
 2793000   0.79762995   -4.4305242    1684.6213  0.050263196  0.049462738            6 
 2794000   0.80225375   -4.4101739    1689.0587  0.050377557  0.049452372            4 
 2795000   0.78892363   -4.4000464    1681.7585  0.050141875  0.049441902           15 
 2796000   0.81230406   -4.4313524    1684.9274  0.050218388   0.04943143           11 
 2797000   0.80125171    -4.409982    1691.2635  0.050389211  0.049420928            8 
 2798000   0.80458495   -4.4233838    1685.8061  0.050208664  0.049410653            3 
 2799000   0.81189946   -4.3791421    1689.7929  0.050309424  0.049400241            8 
 2800000   0.80888528   -4.4032962    1692.0949  0.050359968  0.049389947           12 
 2801000   0.80958035   -4.4212099    1685.4178  0.050143335  0.049379502           10 
 2802000   0.80478754    -4.389453    1690.2981  0.050270584   0.04936914            3 
 2803000   0.79221064   -4.3886397    1689.5873  0.050231517  0.049358723            4 
 2804000    0.8045503   -4.3961298    1691.1369  0.050259655  0.049348376            4 
 2805000   0.79670305   -4.4019484     1687.252  0.050126322  0.049338097            6 
 2806000   0.80649056   -4.3896094    1685.5284   0.05005727  0.049327608            3 
 2807000   0.80966243   -4.3921239    1690.6564  0.050191675  0.049317201            3 
 2808000   0.81132804   -4.3759838    1686.8767  0.050061629   0.04930676            4 
 2809000   0.80791073   -4.4026851    1688.2059  0.050083242  0.049296391            4 
 2810000   0.78553276   -4.4031047    1693.7155  0.050228811  0.049286002            7 
 2811000   0.79172653   -4.4332368    1684.8183  0.049947181  0.049275503           10 
 2812000    0.8164214    -4.389913     1687.482  0.050008358  0.049264973            3 
 2813000   0.80148515     -4.41875    1687.7867  0.049999607  0.049254414            8 
 2814000   0.80360118   -4.4409657    1686.2557  0.049936499  0.049243992            2 
 2815000   0.80503405   -4.4147214    1690.6263  0.050048143  0.049233617            7 
 2816000   0.80647923   -4.4057268    1689.8942  0.050008706  0.049223082            4 
 2817000   0.79550566   -4.4165079    1691.0373  0.050024769   0.04921264            7 
 2818000   0.79918583   -4.4279923    1684.8991  0.049825499  0.049202175            4 
 2819000   0.79023594   -4.4022872    1696.2203  0.050142494  0.049191742            4 
 2820000   0.81565953   -4.4156804    1693.4133  0.050041763  0.049181368           10 
 2821000   0.80460563   -4.3833795    1698.6707  0.050179329  0.049171006            4 
 2822000   0.79626833    -4.406406    1698.5802  0.050158876  0.049160676            8 
 2823000   0.79806202   -4.4063018    1697.8754  0.050120305  0.049150368            3 
 2824000   0.79468208   -4.4173687    1694.2092  0.049994371   0.04914002            5 
 2825000   0.79790548   -4.3943696     1692.013  0.049911888  0.049129701            5 
 2826000   0.78478599   -4.3990298    1692.4752  0.049907857  0.049119339            6 
 2827000   0.81484988   -4.4199008    1693.6377  0.049924469  0.049108875            5 
 2828000   0.79798551   -4.4091882    1689.3908  0.049781672  0.049098392            4 
 2829000   0.81805115   -4.3816139    1693.7798  0.049893361  0.049088006            4 
 2830000   0.80054389   -4.4097118    1698.4248  0.050012509   0.04907769            4 
 2831000   0.79589863   -4.4021836    1695.5105  0.049909056  0.049067282            5 
 2832000   0.79658186   -4.4323491    1691.6677  0.049778357  0.049056874            4 
 2833000   0.78165766   -4.4068715     1699.148   0.04998082  0.049046478            5 
 2834000   0.81391797   -4.4303899    1691.6132  0.049741626   0.04903607           13 
 2835000   0.80104316   -4.4160105    1697.0265  0.049883201  0.049025587            3 
 2836000   0.80217635   -4.4487799     1689.847   0.04965465  0.049015085           10 
 2837000   0.78079928   -4.4036514    1697.5034  0.049862042  0.049004737           12 
 2838000   0.79213463   -4.4145966    1695.0228  0.049771635   0.04899445            4 
 2839000   0.79157138   -4.4101039    1699.5792  0.049887848  0.048984157            5 
 2840000    0.7990016   -4.3851693    1695.8769  0.049761647  0.048973842            3 
 2841000   0.81328774    -4.409362    1698.9741  0.049834979  0.048963555            3 
 2842000   0.76881217   -4.3965358    1698.9544  0.049816866  0.048953175            4 
 2843000   0.79937111   -4.4061743    1696.4998  0.049727393  0.048942874            5 
 2844000   0.80757655   -4.4091107    1702.6893   0.04989127  0.048932507            5 
 2845000   0.79240557   -4.4200598    1691.9637  0.049559568  0.048922267            6 
 2846000   0.79178379   -4.3983539    1700.3507  0.049787735  0.048911869           10 
 2847000    0.8055728   -4.3859047    1702.9658  0.049846791  0.048901613            4 
 2848000   0.80349179   -4.4036571     1702.586  0.049818176   0.04889137            4 
 2849000   0.80441001   -4.4227186    1699.1552  0.049700338  0.048881221            8 
 2850000   0.81303742    -4.438222    1696.1378  0.049594674  0.048870882            5 
 2851000   0.80056415   -4.4334836    1700.4386  0.049702986  0.048860449            5 
 2852000   0.78748972   -4.4039984    1701.7162  0.049722892  0.048850193            4 
 2853000   0.78028204   -4.4216497     1701.318  0.049693832  0.048839861            8 
 2854000   0.80341736   -4.4088662    1704.3569  0.049765152  0.048829607            4 
 2855000   0.79018912   -4.3786841    1706.4116  0.049807694   0.04881944            2 
 2856000   0.79439518   -4.4211209    1707.6654  0.049826838  0.048809243            3 
 2857000   0.79154964   -4.4089425    1696.1558  0.049473684  0.048798959            6 
 2858000   0.80402366   -4.4346815    1705.5647  0.049730718  0.048788674            3 
 2859000   0.79516666   -4.4214575    1698.0256  0.049493575  0.048778403            2 
 2860000   0.78579429   -4.4212729    1697.0508  0.049447868   0.04876807            5 
 2861000   0.79506797   -4.4270477    1708.1559  0.049754046  0.048757768            5 
 2862000   0.78861932   -4.4250206    1704.7742  0.049638196  0.048747425            6 
 2863000   0.79742357   -4.4307281    1704.6961  0.049618583  0.048737157            6 
 2864000   0.78654613   -4.4403049    1703.7236  0.049572963  0.048726841            6 
 2865000   0.80895761   -4.4033153    1705.1037  0.049595804  0.048716463            5 
 2866000    0.7835285   -4.4200519    1706.9347  0.049631736  0.048706253            3 
 2867000   0.78225897   -4.4372934    1705.6616  0.049577422  0.048695921            6 
 2868000   0.80569931    -4.400265    1711.1967  0.049720964  0.048685629            7 
 2869000   0.80185814   -4.4191742    1704.5648  0.049511001  0.048675305            6 
 2870000   0.78532393   -4.4487333    1707.8295  0.049588546  0.048664961           10 
 2871000   0.78474481    -4.431944    1702.3293  0.049411624  0.048654722            6 
 2872000   0.80977039   -4.4187208    1707.5678  0.049546419  0.048644469           10 
 2873000   0.78278201   -4.4284406    1701.3057  0.049347538   0.04863414            5 
 2874000    0.7838179   -4.4249851    1700.7812  0.049315158  0.048623862            8 
 2875000   0.80048816   -4.4161196    1710.9275  0.049592101   0.04861358            4 
 2876000   0.79411933   -4.4314414    1705.8307  0.049427177   0.04860325            4 
 2877000   0.78038296   -4.4240448    1707.4509  0.049456925  0.048592928            7 
 2878000   0.78801274   -4.3989032    1706.8018  0.049420947   0.04858266            4 
 2879000   0.79095053   -4.4402667    1703.3447  0.049303712  0.048572222            3 
 2880000   0.77491232   -4.4097199     1700.763  0.049211892  0.048561753            4 
 2881000   0.78677827   -4.4148297     1701.767   0.04922385  0.048551386            3 
 2882000   0.78766005   -4.4081106    1707.9916  0.049386758   0.04854116            6 
 2883000   0.78619023   -4.4115434      1707.44  0.049353684  0.048530793            3 
 2884000   0.80092199   -4.4283059    1707.8779  0.049349223  0.048520431            5 
 2885000   0.77946527   -4.4376966    1704.1273  0.049223781  0.048510003           11 
 2886000   0.79793029   -4.4349344    1704.4658  0.049216498  0.048499568            4 
 2887000   0.79316326   -4.4080769    1707.1067  0.049275681  0.048489154            5 
 2888000   0.80154979   -4.4321413    1707.8098  0.049278908  0.048478777            3 
 2889000   0.77068972   -4.4316494    1707.8328  0.049262514  0.048468318            4 
 2890000   0.79226082    -4.427297    1705.9622  0.049191527  0.048457851            5 
 2891000   0.80814548   -4.4203873    1708.4188  0.049245324  0.048447402            5 
 2892000   0.80552159   -4.4378342    1704.8281  0.049124831  0.048436962            3 
 2893000   0.77805382   -4.4183206    1705.1637  0.049117517  0.048426468            5 
 2894000   0.80340049   -4.4227939    1711.4761  0.049282312  0.048416114            3 
 2895000     0.787089   -4.4201385    1704.8432  0.049074357   0.04840569            4 
 2896000   0.77329091   -4.4209292    1706.4191  0.049102759  0.048395239            8 
 2897000   0.79197281    -4.420523    1708.0191  0.049131834  0.048384784            4 
 2898000   0.79482769   -4.4518997     1706.853   0.04908135  0.048374405            8 
 2899000   0.78820193   -4.4033568    1715.4905  0.049312708  0.048364042            5 
 2900000   0.79612505   -4.4282711    1714.4376  0.049265447  0.048353679           11 
 2901000    0.7814556   -4.4485051    1710.6204  0.049138815  0.048343273            6 
 2902000   0.78959694   -4.4658008     1709.721  0.049096054  0.048332984            3 
 2903000   0.77073139   -4.4321203    1714.9526  0.049229321  0.048322671            6 
 2904000   0.78699164   -4.4236468    1714.2214  0.049191385  0.048312422            6 
 2905000   0.79182317   -4.4358682    1714.5562  0.049184056  0.048302131            5 
 2906000     0.786274   -4.4460142    1710.3255  0.049045809  0.048291777            6 
 2907000    0.7783689   -4.4361069    1712.5938  0.049093963  0.048281525            6 
 2908000   0.80545281   -4.4290042    1714.9704  0.049145186  0.048271182            4 
 2909000   0.79957542   -4.4432016    1718.8209  0.049238596  0.048261055            9 
 2910000   0.78733897    -4.443962     1717.106  0.049172565  0.048250854            7 
 2911000   0.78331804   -4.4640378    1717.8313  0.049176436  0.048240585            5 
 2912000   0.81591909   -4.4436003    1717.5217  0.049150689  0.048230329            7 
 2913000   0.79216548   -4.4394566    1711.1952  0.048952833      0.04822            8 
 2914000   0.78917032   -4.4235159    1715.4036  0.049056384  0.048209684            4 
 2915000   0.79763658   -4.4755224    1715.8271   0.04905166  0.048199439            6 
 2916000   0.77769772   -4.4475326    1716.8145  0.049063057  0.048189158            8 
 2917000   0.77206737   -4.4393789      1722.16  0.049198948  0.048178933            4 
 2918000   0.80276778   -4.4556334    1717.8706  0.049059591  0.048168746            8 
 2919000   0.77794945   -4.4107726    1721.1204   0.04913556  0.048158577            5 
 2920000   0.78496853   -4.4188464    1722.7275  0.049164598  0.048148566            4 
 2921000   0.79666366   -4.4475622    1720.9332  0.049096577  0.048138282            9 
 2922000   0.77451838   -4.4435726    1717.1722  0.048972514  0.048127955           10 
 2923000   0.77908605   -4.4459652    1718.9679  0.049006954  0.048117656            5 
 2924000   0.78848834   -4.4301604     1718.519    0.0489774  0.048107424            3 
 2925000   0.78985319   -4.4442424    1715.5132  0.048875021  0.048097147           11 
 2926000   0.79295384    -4.439465    1716.2036  0.048877978  0.048086838            4 
 2927000   0.79471947   -4.4425726    1713.6802  0.048789437  0.048076675            8 
 2928000   0.77623433   -4.4477987    1716.9359  0.048865435  0.048066352            4 
 2929000   0.77608949   -4.4434233    1722.4389  0.049005317  0.048056031            4 
 2930000   0.76902293   -4.4242188    1717.9711  0.048861523  0.048045697            4 
 2931000   0.79387184   -4.4472192    1718.4144  0.048857456  0.048035395            5 
 2932000   0.77520625   -4.4338148    1718.5219  0.048843847  0.048025184            5 
 2933000   0.77982464   -4.4330064    1722.9277  0.048952371  0.048015053            3 
 2934000    0.7863912   -4.4495738    1725.0252  0.048995263  0.048005019            5 
 2935000   0.78193292   -4.4320713    1726.1557  0.049010667  0.047994961            5 
 2936000   0.75898328   -4.4580724    1720.5988  0.048836251  0.047984704            5 
 2937000   0.75499573   -4.4057043    1724.1742  0.048921071  0.047974591            7 
 2938000   0.79381333   -4.4227362    1724.2059  0.048905318  0.047964544            5 
 2939000   0.79567572   -4.4511141    1717.8363  0.048708073  0.047954533            8 
 2940000   0.77730055   -4.4404934    1718.8825  0.048721158  0.047944352            4 
 2941000   0.77627908   -4.4536665    1725.7196  0.048898322  0.047934305            5 
 2942000   0.75242478    -4.470038      1727.45  0.048930715  0.047924202            5 
 2943000   0.78453113   -4.4535815    1725.7516  0.048865999  0.047914115            5 
 2944000   0.77477462   -4.4325895    1729.3766  0.048952011  0.047903969            6 
 2945000   0.77618779   -4.3934453     1724.872  0.048807922  0.047894013            3 
 2946000   0.77622848   -4.4353959    1722.8164  0.048733208  0.047884042            8 
 2947000   0.77593361   -4.4409332    1727.9587  0.048862082  0.047873914            5 
 2948000   0.78760004    -4.457956    1723.2461  0.048712292  0.047863979            6 
 2949000   0.79258392   -4.4408671     1728.604  0.048847179  0.047853834            4 
 2950000   0.77611639   -4.4548294    1726.1781  0.048762094  0.047843763            7 
 2951000   0.78734429     -4.45789    1726.1162  0.048743821  0.047833729            5 
 2952000   0.77243351    -4.460701    1724.2522   0.04867469  0.047823653            7 
 2953000   0.79912633   -4.4274997    1729.5385  0.048807386  0.047813557            6 
 2954000   0.79319841    -4.479459    1724.5824  0.048651051    0.0478034            5 
 2955000   0.79192992   -4.4553813    1726.6184  0.048692003  0.047793206            9 
 2956000   0.77179392    -4.455045    1724.0776  0.048603901   0.04778311            5 
 2957000   0.78339306   -4.4266323    1724.5855  0.048601777  0.047773039            5 
 2958000   0.77956191   -4.4286964    1729.8115  0.048732576  0.047762996            3 
 2959000   0.78455504   -4.4556769    1729.4037  0.048704622  0.047752938            4 
 2960000   0.78871499   -4.4632974    1730.5087  0.048719277  0.047742948            8 
 2961000   0.78794975   -4.4492161     1724.435  0.048531888  0.047732926            4 
 2962000   0.76602708   -4.4331696    1729.1177  0.048647245  0.047722749            6 
 2963000   0.77980869   -4.4604267    1727.3454  0.048580981  0.047712848            7 
 2964000   0.79127682   -4.4601097    1736.7855  0.048830002  0.047702865            1 
 2965000   0.77735895   -4.4420931    1736.6513  0.048809761  0.047692898            5 
 2966000   0.78157983   -4.4690113    1731.4442  0.048647004  0.047682915            4 
 2967000   0.78952302   -4.4559787    1724.9416  0.048447973  0.047672835           11 
 2968000   0.75685181   -4.4319118     1731.183  0.048606892  0.047662877            5 
 2969000    0.7769385   -4.4862563    1729.0882  0.048531722  0.047652925            8 
 2970000   0.78063083   -4.4488327    1730.6976  0.048560539  0.047642803            5 
 2971000   0.77642211   -4.4824113     1730.957  0.048551469  0.047632774            6 
 2972000    0.7824001   -4.4382858     1732.254  0.048571501  0.047622681            5 
 2973000   0.76900256   -4.4429632    1732.5887  0.048564546  0.047612608            4 
 2974000   0.79937412   -4.4987133    1725.9256  0.048361512  0.047602494            7 
 2975000   0.78254705   -4.4462687    1728.7247   0.04842366   0.04759238            2 
 2976000   0.76874408   -4.4553153    1728.8767  0.048411645  0.047582315            3 
 2977000   0.78653347   -4.4480259    1730.9907   0.04845456  0.047572232            5 
 2978000    0.7734997   -4.4625704    1733.3822  0.048505211  0.047562009            3 
 2979000   0.77752879   -4.4549807    1735.1267  0.048537729  0.047551799            4 
 2980000   0.76821735   -4.4470187    1734.4647  0.048502927  0.047541687            4 
 2981000   0.78567183   -4.4547744    1739.3375  0.048622877  0.047531602            3 
 2982000   0.77796466   -4.4711978    1734.1214  0.048460804  0.047521539            4 
 2983000    0.7804162   -4.4309742    1735.3748  0.048479574  0.047511372            5 
 2984000   0.77927934   -4.4231993    1739.7074  0.048584322  0.047501373           10 
 2985000   0.78154083   -4.4544933    1734.2266  0.048415037  0.047491396            4 
 2986000   0.77245988     -4.43675    1735.6605  0.048438841  0.047481448            4 
 2987000   0.77013092   -4.4822001    1738.2121   0.04849381  0.047471416            5 
 2988000    0.7880811   -4.4377478    1740.8599  0.048551425  0.047461387            8 
 2989000     0.759738   -4.4579132    1732.8159  0.048310914  0.047451335            5 
 2990000   0.78842346    -4.420134    1740.1932  0.048500368  0.047441338            6 
 2991000   0.77160981   -4.4700772    1730.2592  0.048207378  0.047431354            7 
 2992000   0.76840839    -4.455427    1735.5478  0.048338564  0.047421404            5 
 2993000   0.77002592   -4.4696121    1733.5453  0.048266657  0.047411415            6 
 2994000   0.77541485   -4.4579217    1742.0267  0.048486603  0.047401386            5 
 2995000   0.77844833   -4.4194266    1738.2263  0.048364672  0.047391338            4 
 2996000   0.76288818    -4.459264    1734.4165  0.048242559  0.047381352            4 
 2997000    0.7690761   -4.4425323    1743.5847   0.04848139  0.047371367            5 
 2998000   0.78967711   -4.4523976    1736.3166  0.048263192  0.047361392            7 
 2999000   0.76289812   -4.4603281    1740.1726  0.048354246  0.047351397            5 
 3000000   0.76514298   -4.4651439      1733.04      0.04814  0.047341423            6 
 3001000   0.77147362   -4.4953596    1733.0365   0.04812386  0.047331345           17 
 3002000   0.76249769   -4.4868614    1740.6952  0.048320431  0.047321312            4 
 3003000   0.77836816   -4.4367249    1741.7017  0.048332269  0.047311325            6 
 3004000   0.77857059   -4.4652617    1734.9772  0.048129639  0.047301354            3 
 3005000   0.77384117   -4.4655839    1739.6728  0.048243838  0.047291311            6 
 3006000   0.77596027   -4.4565742    1740.5001  0.048250722  0.047281292           11 
 3007000    0.7684511     -4.47447      1735.26  0.048089459  0.047271231            8 
 3008000   0.74362446   -4.4550208    1737.2614  0.048128918  0.047261141            7 
 3009000   0.77355446    -4.473092    1740.0011  0.048188796  0.047251122            4 
 3010000   0.76322488   -4.4713184    1737.5073  0.048103745  0.047241002            7 
 3011000   0.76982669   -4.4912905    1741.8582  0.048208188   0.04723087            3 
 3012000   0.76414847   -4.4851383    1738.1993   0.04809095  0.047220757           29 
 3013000    0.7653639   -4.4719059    1740.7683  0.048146041  0.047210703           10 
 3014000   0.77766202   -4.4357028    1738.1018  0.048056342  0.047200696            4 
 3015000   0.76882609   -4.4765522    1741.5413  0.048135469  0.047190679            8 
 3016000   0.77078453   -4.4765344     1745.419  0.048226654  0.047180538            3 
 3017000   0.77381738   -4.4652231    1742.2302  0.048122589  0.047170409            8 
 3018000   0.75663467   -4.4742612    1739.1337  0.048021142  0.047160382            5 
 3019000   0.76839156   -4.4599047    1747.8596  0.048246098  0.047150446            9 
 3020000   0.76529564   -4.4836461    1735.3482  0.047884885  0.047140374           11 
 3021000   0.76194807   -4.4790211     1738.582  0.047958236  0.047130409            7 
 3022000   0.76328982   -4.4726863    1738.5279  0.047940876  0.047120407            6 
 3023000   0.76647589   -4.4675139    1745.5355  0.048118192  0.047110472           10 
 3024000   0.77487233   -4.4814573     1741.249  0.047984154  0.047100582            5 
 3025000   0.74082698   -4.4790409    1737.6386  0.047868831  0.047090577            5 
 3026000   0.78420176   -4.4790634    1743.7301  0.048020768  0.047080459            5 
 3027000   0.76529782   -4.4832028    1743.1238  0.047988211  0.047070449            6 
 3028000   0.76615884   -4.4708424    1741.8341   0.04793687  0.047060586            6 
 3029000    0.7558911   -4.4507095    1748.2775  0.048098313  0.047050694            4 
 3030000   0.74406281   -4.4810847    1746.0219  0.048020403  0.047040647            9 
 3031000   0.78357064   -4.4641658     1747.889  0.048055895  0.047030658            4 
 3032000   0.76904908   -4.4765273    1747.3117  0.048024177  0.047020676            6 
 3033000   0.77933372   -4.4903944    1745.9531  0.047971017  0.047010669            6 
 3034000    0.7534329   -4.4926996    1746.1174  0.047959718  0.047000709            4 
 3035000    0.7694915   -4.4800109    1749.5625  0.048038508  0.046990753            7 
 3036000   0.76663301   -4.5038903    1743.6127  0.047859374  0.046980797            8 
 3037000     0.769093   -4.4579344    1751.0174  0.048046796  0.046970827            6 
 3038000   0.76367868   -4.4579374    1744.6395  0.047856031  0.046960893            3 
 3039000   0.76300835   -4.4839894    1745.4503  0.047862517  0.046950931            7 
 3040000   0.75809047   -4.4788805    1744.5981  0.047823412  0.046940925            4 
 3041000   0.77165143   -4.4640629    1747.8384   0.04789648   0.04693092            4 
 3042000   0.77072902   -4.4705411    1747.9915  0.047884931  0.046920906            5 
 3043000   0.77272549   -4.4547356      1751.22  0.047957609  0.046910946            6 
 3044000   0.76009166   -4.4443055    1746.3893  0.047809606  0.046900912            7 
 3045000   0.74796555   -4.4844289    1749.5785  0.047881186  0.046890818            4 
 3046000   0.76258228   -4.4976291     1748.136  0.047826002  0.046880836            5 
 3047000   0.75247269     -4.45234    1748.4715   0.04781948    0.0468709            9 
 3048000   0.76883006   -4.5099948    1743.9416  0.047679943  0.046860972            6 
 3049000   0.75454648   -4.4760574    1746.8037   0.04774253  0.046850998            6 
 3050000   0.77501465   -4.4835335    1749.5157  0.047800975  0.046841091            6 
 3051000   0.76069718   -4.4824719    1749.8621  0.047794769  0.046831087            4 
 3052000   0.76766694   -4.4840485    1750.3916  0.047793567  0.046821253            9 
 3053000   0.77094662    -4.462081    1751.7303  0.047814453  0.046811265            4 
 3054000    0.7697019   -4.4783878    1749.3384  0.047733531  0.046801318           16 
 3055000   0.77575893   -4.5001266    1754.4343  0.047856909  0.046791306            8 
 3056000   0.74262245   -4.4821681    1751.8911  0.047771899  0.046781413            5 
 3057000    0.7632997   -4.4622658    1753.0155  0.047786922   0.04677155            4 
 3058000   0.74850947   -4.4736402    1754.7322  0.047818078  0.046761685            6 
 3059000   0.74395595   -4.4680978    1752.9827  0.047754787  0.046751866            4 
 3060000   0.75479748   -4.4855927    1742.1924  0.047445326  0.046741886            5 
 3061000    0.7725347   -4.4874642    1749.7628  0.047635925  0.046731812            6 
 3062000   0.76671038   -4.4797055    1754.7872  0.047757109  0.046721722            4 
 3063000   0.74756911   -4.4909367    1750.9632  0.047637479  0.046711678            5 
 3064000   0.76176678   -4.4824985    1749.6854  0.047587179  0.046701696            3 
 3065000   0.75574268   -4.4874131     1750.413  0.047591436  0.046691721            6 
 3066000   0.75329865   -4.5005799    1750.2867  0.047572479  0.046681727            4 
 3067000   0.78525012   -4.4667974    1755.2946  0.047693038  0.046671713            4 
 3068000    0.7695818    -4.517796    1754.8298  0.047664869  0.046661722            6 
 3069000   0.76210918   -4.4869798    1751.9314  0.047570638  0.046651667            4 
 3070000   0.78568621   -4.5109568     1751.637  0.047547151  0.046641696            6 
 3071000   0.77548767   -4.5088243    1749.2854  0.047467856  0.046631672           11 
 3072000   0.76502733   -4.4932714    1756.1034  0.047637354  0.046621738            6 
 3073000   0.76819734   -4.4693732    1753.2921  0.047545616  0.046611846            6 
 3074000   0.75711254    -4.516629    1755.6248  0.047593384  0.046601975            6 
 3075000   0.74531476   -4.5145476    1748.7031  0.047390328  0.046591968            4 
 3076000    0.7598131   -4.4855438    1757.8125  0.047621708  0.046582001            8 
 3077000   0.76518845   -4.4955876    1755.2193     0.047536  0.046572166            7 
 3078000   0.75401529   -4.4857558    1752.4039  0.047444334  0.046562231            6 
 3079000   0.75088167   -4.4934493    1759.6175  0.047624162  0.046552392            7 
 3080000   0.75489054   -4.5088392     1752.067   0.04740441  0.046542509            3 
 3081000   0.74977002   -4.4926747    1755.8734  0.047491978  0.046532525            6 
 3082000    0.7759313   -4.4927402    1756.9084  0.047504554  0.046522565            2 
 3083000   0.76642033   -4.4857666    1761.5569  0.047614793  0.046512664            9 
 3084000   0.76121228   -4.4635771    1753.6707   0.04738626  0.046502815            4 
 3085000   0.76273473   -4.4865393    1756.3501  0.047443278  0.046492998           12 
 3086000   0.75042403   -4.4897458    1764.3172  0.047643043  0.046483076            5 
 3087000     0.762373   -4.4578239    1758.9359  0.047482344  0.046473232            4 
 3088000    0.7508958   -4.4744212    1758.9121  0.047466323  0.046463406            3 
 3089000   0.76950681   -4.5142311    1757.0655  0.047401142  0.046453587           12 
 3090000   0.74829351   -4.4749688    1756.5364  0.047371532  0.046443729            5 
 3091000   0.76359327   -4.5040887    1757.2807  0.047376271  0.046433748            5 
 3092000   0.79072858   -4.4856539     1760.363  0.047444022  0.046423756            4 
 3093000   0.73096364   -4.4915745    1766.2046  0.047586069  0.046413871            5 
 3094000   0.76132458   -4.4713474    1762.4216  0.047468799  0.046403986            4 
 3095000   0.75944571   -4.5009971    1762.3179   0.04745067  0.046394029            9 
 3096000     0.740097   -4.5048109    1761.3153  0.047408358  0.046384143            8 
 3097000   0.75708761      -4.4828    1766.0373  0.047520107  0.046374201            2 
 3098000   0.75231997   -4.4927594    1759.1913  0.047320617  0.046364302            6 
 3099000     0.763137   -4.4885003    1760.2387  0.047333513  0.046354356            5 
 3100000    0.7515956   -4.5017195    1761.0202  0.047339252  0.046344348            6 
 3101000   0.74665723   -4.4892304     1758.763  0.047263328  0.046334371            4 
 3102000   0.75559004   -4.5136957    1763.3742   0.04737197  0.046324508            4 
 3103000   0.76378314   -4.4907367    1757.3652  0.047195326  0.046314594            7 
 3104000    0.7443589   -4.4989948    1758.0847  0.047199439  0.046304607            6 
 3105000   0.75838425   -4.4779268    1766.3845  0.047406991  0.046294801            6 
 3106000   0.74103399   -4.5102597    1765.6518   0.04737207  0.046284875            8 
 3107000   0.75787963   -4.5219597    1764.4654  0.047325004  0.046274983            3 
 3108000   0.75216284   -4.5088425    1758.0817  0.047138612  0.046265068            7 
 3109000   0.76111095   -4.5073665    1764.5329  0.047296369  0.046255118            7 
 3110000   0.74258491   -4.4921152    1760.9643  0.047185539  0.046245295            7 
 3111000   0.74738706   -4.4761936     1760.995  0.047171192  0.046235391            5 
 3112000   0.74481459   -4.5022495    1757.0878  0.047051409  0.046225437            8 
 3113000   0.75523935   -4.5217847    1763.4017  0.047205315  0.046215484            6 
 3114000   0.74660578    -4.514382    1759.7873  0.047093431  0.046205529            7 
 3115000   0.75070271   -4.4773846    1762.5202  0.047151422  0.046195644            9 
 3116000   0.76150087   -4.4716633     1768.722   0.04730215  0.046185729            6 
 3117000    0.7472341    -4.489141    1765.6263  0.047204211  0.046175946            5 
 3118000   0.76504217   -4.4918097    1759.3096  0.047020247  0.046165987            9 
 3119000   0.74954043   -4.5019266    1761.5887  0.047066066  0.046155982            3 
 3120000   0.76841606   -4.5037008    1764.8028  0.047136827  0.046146139           17 
 3121000   0.75610705   -4.5074448    1763.0397  0.047074648  0.046136271            5 
 3122000   0.74303687   -4.5238207    1766.7706  0.047159154  0.046126369            6 
 3123000   0.75756734   -4.4934196    1764.3579  0.047079676  0.046116514            9 
 3124000   0.73940568   -4.4757307    1773.7557  0.047315292  0.046106628            7 
 3125000   0.77567293    -4.516093     1763.802   0.04703472  0.046096767           10 
 3126000   0.76284195   -4.5202587    1763.6442  0.047015468  0.046086931            7 
 3127000   0.74648415   -4.5253581    1764.6109  0.047026194  0.046077092            7 
 3128000   0.73479281   -4.4774928    1767.8743  0.047098101  0.046067237            4 
 3129000   0.73775867   -4.5014047    1767.8337  0.047081967  0.046057453            3 
 3130000   0.75107567   -4.4911703    1768.3702   0.04708121  0.046047651            9 
 3131000   0.73888325   -4.4916222    1769.8063  0.047104395    0.0460379            6 
 3132000   0.75057939   -4.4773876    1770.1807  0.047099316  0.046028148            4 
 3133000    0.7562972   -4.4817814    1776.8026  0.047260416   0.04601846            7 
 3134000   0.73508131   -4.5039673     1769.559  0.047052728  0.046008693           11 
 3135000   0.74670332   -4.5032218     1770.935  0.047074295  0.045998931            5 
 3136000   0.73687518   -4.4872387    1773.0249   0.04711482  0.045989171            7 
 3137000   0.75558696   -4.5126161     1770.453   0.04703148  0.045979419            6 
 3138000   0.73893748   -4.5118709    1766.8709  0.046921365  0.045969663            6 
 3139000   0.73208876   -4.5083436    1769.2079   0.04696846  0.045959849            6 
 3140000   0.76010662   -4.5028192     1769.733  0.046967436  0.045949984            5 
 3141000    0.7442942   -4.5095723    1771.3755  0.046996061  0.045940223            4 
 3142000   0.75432469   -4.5036954    1773.3874  0.047034464  0.045930566            8 
 3143000   0.75049406   -4.5017772    1773.4278  0.047020571  0.045920905            4 
 3144000   0.74955518   -4.5159252    1770.9067  0.046938791  0.045911206            6 
 3145000   0.76022958   -4.5186168    1769.8068  0.046894722  0.045901391            4 
 3146000   0.74418377   -4.4899508    1775.5595  0.047032197  0.045891685            4 
 3147000   0.77397344   -4.5158768    1772.5833  0.046938442  0.045882015            7 
 3148000   0.72408938   -4.5060422    1771.9783  0.046907515  0.045872227            9 
 3149000    0.7497792   -4.5057539    1772.4773  0.046905823  0.045862451            9 
 3150000   0.75542621    -4.474547    1774.6499   0.04694841  0.045852701            9 
 3151000   0.75933162   -4.5035413    1772.4814  0.046876161   0.04584307            4 
 3152000   0.74600139   -4.5300193    1769.3062  0.046777342  0.045833346            5 
 3153000    0.7402424   -4.5063354    1768.0702   0.04672984  0.045823501            6 
 3154000   0.75040305    -4.509413     1776.168   0.04692898  0.045813737            9 
 3155000   0.74393695   -4.5160865    1780.7775  0.047035855  0.045804029            4 
 3156000   0.75314096    -4.500002    1777.3383  0.046930142  0.045794241            6 
 3157000   0.72846973   -4.5082052    1776.9042  0.046903817  0.045784432            6 
 3158000   0.73798858   -4.5161306    1774.3769  0.046822273  0.045774667            5 
 3159000   0.74390857   -4.5095558    1775.5283  0.046837825  0.045764854            5 
 3160000   0.75614287   -4.5111151     1770.006  0.046677375  0.045755099           10 
 3161000   0.75565694   -4.5180596     1773.885  0.046764868  0.045745366            6 
 3162000   0.73234703   -4.5179802    1770.9798  0.046673513   0.04573562            3 
 3163000   0.72457437   -4.5131539    1778.5263   0.04685758  0.045725882            8 
 3164000   0.73271685   -4.5003806    1780.4664  0.046893869  0.045716208            5 
 3165000    0.7394368   -4.5093423    1776.2016  0.046766761  0.045706479            6 
 3166000   0.73427996   -4.4972114    1778.1085  0.046802182  0.045696729            8 
 3167000   0.74794199    -4.521792    1775.3449  0.046714685  0.045686942            8 
 3168000   0.73698132   -4.5351532     1771.252  0.046592277  0.045677128            4 
 3169000    0.7399331   -4.5033428    1772.1981  0.046602453  0.045667245            9 
 3170000   0.73122889   -4.5105309    1777.5222  0.046727714  0.045657485            9 
 3171000   0.74619194   -4.5334083    1774.5106  0.046633831  0.045647728            8 
 3172000   0.74171728    -4.523545    1774.0519   0.04660708  0.045637913            8 
 3173000   0.73533389   -4.4933974    1779.2514  0.046728947  0.045628141           11 
 3174000   0.74142945   -4.5161071    1772.7807  0.046544337  0.045618358            6 
 3175000    0.7372813   -4.4948202    1773.4529   0.04654732  0.045608594            9 
 3176000   0.72300242   -4.5292664    1773.8403  0.046542829  0.045598825            3 
 3177000   0.75284644   -4.5140215     1773.862  0.046528749  0.045589057            8 
 3178000   0.73947407    -4.528317    1776.0216  0.046570735  0.045579301            6 
 3179000   0.75288471   -4.5154815    1780.1417  0.046664091  0.045569622            5 
 3180000   0.73845205   -4.5138516    1775.3126  0.046522867  0.045559842            4 
 3181000    0.7475397   -4.5349033    1778.4664  0.046590862  0.045550084            6 
 3182000    0.7549793   -4.5411508    1776.5213  0.046525281  0.045540329            3 
 3183000   0.76343729   -4.5204178    1776.7925  0.046517765  0.045530575            5 
 3184000   0.74657347   -4.5207895    1781.0325  0.046614125  0.045520822            5 
 3185000   0.74618085   -4.5158961    1786.8991  0.046752987  0.045511132            6 
 3186000   0.74268667   -4.5081917     1778.415    0.0465164  0.045501466            6 
 3187000   0.74962458     -4.50252    1786.7098  0.046718697  0.045491792            6 
 3188000   0.74990845   -4.5280797    1783.4245  0.046618165   0.04548203           10 
 3189000   0.74867865    -4.542024     1775.821  0.046404856  0.045472304            7 
 3190000   0.73907541   -4.5347236    1776.7878  0.046415563  0.045462517           19 
 3191000   0.73995522   -4.5319264     1780.649  0.046501853  0.045452794            5 
 3192000   0.71440119   -4.5237588    1776.7235  0.046384802  0.045443011            7 
 3193000   0.72956775   -4.5070791    1778.7427  0.046422974  0.045433246            4 
 3194000   0.74232363   -4.5292012    1779.5788  0.046430255  0.045423514            7 
 3195000    0.7340943   -4.5032509    1785.3265  0.046565636  0.045413818            6 
 3196000   0.74079511   -4.5312651    1784.7013  0.046534766  0.045404095            6 
 3197000   0.74341468   -4.5319347    1781.1981  0.046428895  0.045394381            9 
 3198000   0.72993881   -4.5215053    1784.7655  0.046507336  0.045384656            6 
 3199000   0.76194011   -4.5138759    1783.4326  0.046458075  0.045374916           14 
 3200000   0.76247787   -4.5247101    1778.6561  0.046319168  0.045365168            5 
 3201000   0.75703133    -4.537619    1781.5981   0.04638129  0.045355337           13 
 3202000   0.74234182   -4.5191885    1778.7327   0.04629223  0.045345554            3 
 3203000   0.74457252   -4.5211483    1784.9368  0.046439192  0.045335677           13 
 3204000   0.74678312   -4.5282419    1778.1484  0.046248139  0.045325876            4 
 3205000   0.73397779   -4.4950651    1785.9058  0.046435407  0.045316154           12 
 3206000   0.73666726   -4.5213552    1781.4594   0.04630535  0.045306426           13 
 3207000   0.73958619    -4.513226    1781.0364   0.04627992  0.045296711            5 
 3208000   0.74185933   -4.5294546    1784.4228  0.046353459  0.045286959           20 
 3209000   0.75558331   -4.5361384    1779.8928  0.046221379  0.045277331            7 
 3210000   0.74550755   -4.5257238    1784.4919  0.046326373  0.045267646            5 
 3211000   0.73409666   -4.5262554    1786.9311   0.04637525  0.045257908            4 
 3212000   0.74403204   -4.4976222    1785.9851  0.046336267  0.045248188            4 
 3213000   0.72606751   -4.5453813      1784.41  0.046280994   0.04523845            6 
 3214000   0.74468277   -4.5334132    1779.1514  0.046130247  0.045228771           10 
 3215000   0.73622151   -4.5333759    1785.2398  0.046273712  0.045219129           12 
 3216000   0.73885058   -4.5552627    1782.1468  0.046179178  0.045209425            8 
 3217000   0.74195972   -4.5266708    1790.3389  0.046377032  0.045199717            5 
 3218000   0.73413603   -4.5269169    1784.3933  0.046208651  0.045190076           11 
 3219000   0.74567452   -4.5466172    1783.5998  0.046173754  0.045180227            7 
 3220000   0.72766391   -4.5126648    1784.0794  0.046171828  0.045170509           11 
 3221000   0.74650206   -4.5109719      1790.33  0.046319208  0.045160818            6 
 3222000   0.71685564   -4.5324823    1789.6226  0.046286534  0.045151058            8 
 3223000   0.73354037    -4.518476    1790.9366  0.046306148  0.045141286            5 
 3224000    0.7330294    -4.518995    1788.1247  0.046219104  0.045131559            8 
 3225000   0.73130662   -4.5526916    1780.9557  0.046019527  0.045121754            5 
 3226000   0.72529324   -4.5696508    1783.9308  0.046082113  0.045111828            3 
 3227000   0.74308886   -4.5307473    1783.1487  0.046047636   0.04510202            4 
 3228000   0.73697908    -4.536998     1778.886  0.045923328  0.045092243            5 
 3229000   0.75011286   -4.5445649    1789.2945  0.046177724  0.045082403            5 
 3230000   0.71523612   -4.5618341    1782.9095  0.045998696  0.045072542            2 
 3231000   0.71289466    -4.540856    1785.1564  0.046042412  0.045062694            7 
 3232000   0.72230771   -4.5595857    1781.5245  0.045934522  0.045052842            4 
 3233000   0.73827131   -4.5131504    1786.9227  0.046059458   0.04504301            8 
 3234000   0.73283413   -4.5255217    1786.9651  0.046046307  0.045033188            8 
 3235000   0.73301876   -4.5219078    1780.8952  0.045875713   0.04502333           12 
 3236000   0.73955412    -4.529288    1783.5986  0.045931155  0.045013561            3 
 3237000   0.74139899   -4.5305028    1788.5038  0.046043245  0.045003714            4 
 3238000    0.7381748   -4.5305171    1779.2191  0.045790073  0.044993844            9 
 3239000   0.73377297   -4.5567344     1786.851   0.04597229  0.044983988            3 
 3240000   0.72269274   -4.5215571    1787.8009  0.045982533  0.044974158            6 
 3241000   0.73658781   -4.5378964     1787.642  0.045964259   0.04496434           21 
 3242000   0.74150662   -4.5289432    1785.7964  0.045902643  0.044954557            4 
 3243000   0.73488955   -4.5343382    1791.0483  0.046023442  0.044944787            7 
 3244000   0.73561543   -4.5424788    1785.7939  0.045874278  0.044934971            6 
 3245000   0.73832427    -4.539435     1787.968  0.045915973  0.044925314            8 
 3246000   0.72965334   -4.5277067    1787.2419  0.045883187  0.044915527           15 
 3247000   0.72791003   -4.5085239    1791.9969  0.045991093  0.044905801            5 
 3248000   0.73619725   -4.5356846    1786.1583  0.045827133   0.04489599            9 
 3249000   0.74136174   -4.5552998    1786.1723  0.045813385  0.044886202            8 
 3250000   0.71327358   -4.5294272    1788.4281  0.045857131  0.044876356            3 
 3251000   0.73597082   -4.5327658    1787.6428  0.045822894  0.044866495            6 
 3252000   0.74634657   -4.5441179    1786.5574  0.045780991  0.044856643            8 
 3253000   0.73879644   -4.5268987    1787.8579  0.045800232  0.044846795           15 
 3254000    0.7471184   -4.5499899    1788.8928  0.045812661  0.044836962            5 
 3255000   0.71657165   -4.5413782    1790.3111  0.045834898  0.044827115            7 
 3256000   0.73999674    -4.560168    1787.4572   0.04574778  0.044817254            7 
 3257000    0.7272005   -4.5143477    1788.9493   0.04577191  0.044807431            8 
 3258000    0.7263659   -4.5375876     1788.888  0.045756293  0.044797669           16 
 3259000   0.73040459   -4.5326951    1796.7883  0.045944264   0.04478793            7 
 3260000   0.73218581   -4.5345237     1790.007  0.045756825  0.044778176            7 
 3261000   0.73411082   -4.5350399    1794.2581  0.045851428  0.044768468            6 
 3262000   0.74540249   -4.5499657    1793.9315  0.045829028  0.044758752            4 
 3263000   0.74043665   -4.5394057    1786.2301  0.045618299  0.044749017            7 
 3264000   0.71772619   -4.5497002    1790.5933  0.045715718  0.044739292            5 
 3265000   0.73252355    -4.547487    1798.1425  0.045894397  0.044729664            6 
 3266000   0.72459618     -4.57011     1789.885  0.045669652  0.044719945            9 
 3267000   0.71381772   -4.5328919    1788.4176  0.045618244  0.044710205           13 
 3268000   0.72416407   -4.5822051     1789.413  0.045629666  0.044700492            5 
 3269000   0.72197335    -4.538735    1795.9161  0.045781486  0.044690816            5 
 3270000   0.71432041   -4.5470874    1792.9402  0.045691647  0.044681142            4 
 3271000   0.73134814   -4.5413733    1798.6358  0.045822781  0.044671503           11 
 3272000   0.73740065   -4.5331423    1791.9614   0.04563879  0.044661814            9 
 3273000   0.72837663   -4.5640783    1793.1287  0.045654566  0.044652114            9 
 3274000    0.7215495   -4.5486327    1793.8178  0.045658159  0.044642486           10 
 3275000    0.7167161   -4.5521745    1796.0689  0.045701498  0.044632756            9 
 3276000   0.72378614   -4.5534077     1794.912  0.045658119  0.044623044            6 
 3277000     0.735385   -4.5499674    1794.2246  0.045626705  0.044613358            5 
 3278000   0.72659818   -4.5078297    1798.1329  0.045712145  0.044603663            5 
 3279000   0.72269296    -4.548876    1792.1092  0.045545115  0.044593952            7 
 3280000   0.74645968     -4.53237     1795.211  0.045610034  0.044584177            5 
 3281000    0.7299755   -4.5619812    1786.5159   0.04537529  0.044574426           11 
 3282000   0.73668482   -4.5433412    1795.7646  0.045596297  0.044564668            8 
 3283000   0.72918798   -4.5546694    1799.5349  0.045678112  0.044554989            6 
 3284000   0.72105711   -4.5422522    1795.6301  0.045565116  0.044545298           10 
 3285000   0.74013325   -4.5393954    1796.4986  0.045573277  0.044535555            4 
 3286000   0.71736065   -4.5614159    1787.8416  0.045339865  0.044525716            5 
 3287000   0.73310548   -4.5498945    1791.0934  0.045408513  0.044515788            4 
 3288000   0.73800127   -4.5672703    1794.5171  0.045481476  0.044505971            4 
 3289000   0.72469797   -4.5155472    1798.2836  0.045563078  0.044496153            4 
 3290000   0.73986354   -4.5527738    1794.4793  0.045452869  0.044486373            6 
 3291000   0.74715828   -4.5439694    1793.4597   0.04541324  0.044476573            7 
 3292000    0.7088228   -4.5523457    1791.7973  0.045357363  0.044466716            6 
 3293000   0.73259667   -4.5363383    1801.5263  0.045589793   0.04445701            4 
 3294000    0.7265833   -4.5556388    1793.0962  0.045362684  0.044447258            6 
 3295000   0.73189004   -4.5391552    1791.9285  0.045319385  0.044437487            7 
 3296000   0.72457254   -4.5736622    1791.8657  0.045304048  0.044427721           10 
 3297000   0.72043493    -4.570126    1791.6281  0.045284302  0.044417871            6 
 3298000   0.71397445   -4.5317154    1794.2743  0.045337435  0.044408016            5 
 3299000   0.73359839   -4.5382579    1793.9334   0.04531508  0.044398199            8 
 3300000   0.71518434   -4.5283202    1798.4335  0.045414988  0.044388432            7 
 3301000   0.72946079   -4.5373553    1795.9877  0.045339487  0.044378701            6 
 3302000   0.72037561   -4.5599154    1791.7652  0.045219192    0.0443689           11 
 3303000   0.72460806   -4.5618005    1792.2919  0.045218788  0.044359058            8 
 3304000   0.70864551   -4.5631168    1797.3964  0.045333848  0.044349234            9 
 3305000   0.71903956   -4.5418109    1789.7442  0.045127187  0.044339427            4 
 3306000   0.71441275   -4.5426402    1803.9496  0.045471607  0.044329622            9 
 3307000   0.71871323   -4.5702662    1798.5751  0.045322426  0.044319815           11 
 3308000   0.72524502   -4.5597738    1796.3137  0.045251757  0.044310008            8 
 3309000   0.73280846   -4.5493736    1800.3288  0.045339196  0.044300219            6 
 3310000   0.71739022   -4.5569316    1796.6956  0.045234027  0.044290493            4 
 3311000   0.72387875   -4.5552802    1794.5948  0.045167493    0.0442807            5 
 3312000   0.71117979   -4.5591075    1800.2778  0.045296846  0.044270959            6 
 3313000   0.71621672   -4.5435611    1795.0128  0.045150738  0.044261112            7 
 3314000   0.71662552   -4.5711933    1797.1079  0.045189799    0.0442513            5 
 3315000   0.74139414   -4.5555159    1799.4652  0.045235426  0.044241443            7 
 3316000   0.70516619   -4.5604363    1798.9367  0.045208501  0.044231582           26 
 3317000   0.71584729   -4.5561446     1799.705  0.045214174  0.044221755            8 
 3318000   0.73271309   -4.5440699    1802.1021  0.045260751   0.04421202           22 
 3319000   0.72079396   -4.5441968    1795.9342  0.045092252  0.044202241            6 
 3320000    0.7209176   -4.5419158    1801.0727  0.045207649  0.044192515            4 
 3321000    0.7154885   -4.5832659    1798.8547   0.04513838    0.0441827            9 
 3322000   0.72521552   -4.5840506    1803.6629  0.045245408   0.04417289            6 
 3323000   0.73296014   -4.5485064    1800.4714  0.045151755  0.044163168            5 
 3324000   0.71691196   -4.5398609    1807.1695  0.045306094  0.044153464            5 
 3325000   0.71047189   -4.5716214    1800.2228  0.045118366  0.044143741           15 
 3326000   0.72720424   -4.5686217    1795.8643  0.044995597   0.04413404            8 
 3327000   0.73565564   -4.5698975     1800.188  0.045090373  0.044124332            4 
 3328000   0.73230359   -4.5706228    1796.2528  0.044978285  0.044114644            6 
 3329000   0.71477214   -4.5498684    1802.9005  0.045131184  0.044104905            6 
 3330000   0.71789382    -4.551349    1807.1134  0.045223058  0.044095198            4 
 3331000   0.72070581   -4.5774507    1804.1281  0.045134798  0.044085528           20 
 3332000    0.7108551   -4.5670399    1800.3314  0.045026296  0.044075812            6 
 3333000   0.72220844   -4.5658054    1801.0466  0.045030669  0.044066067            8 
 3334000    0.7175052   -4.5714157    1806.8474  0.045162152  0.044056442           12 
 3335000   0.72550337   -4.5733337    1807.2377  0.045158364  0.044046753            7 
 3336000   0.73042416   -4.5494992    1806.1413  0.045117437   0.04403705           10 
 3337000   0.70158376   -4.5773433     1800.025  0.044951179   0.04402735            6 
 3338000   0.72456804   -4.5538931    1803.3421  0.045020524   0.04401767            4 
 3339000   0.70815445   -4.5799933    1804.7569   0.04504235  0.044007959           10 
 3340000    0.7157747      -4.5661    1801.4972  0.044947535  0.043998249            5 
 3341000    0.7163931   -4.5494436    1802.3771  0.044956028  0.043988551            4 
 3342000   0.71438556   -4.5934747    1800.4461  0.044894427  0.043978814            6 
 3343000    0.7266938   -4.5492832    1806.7155  0.045037278   0.04396909            7 
 3344000   0.71842651   -4.5901752    1802.8628    0.0449278  0.043959434            8 
 3345000   0.72156222   -4.5491991    1805.7562  0.044986453  0.043949754            6 
 3346000   0.71783641   -4.5763715    1804.5292  0.044942448   0.04394011            9 
 3347000   0.70709995   -4.5653556    1804.8781  0.044937707  0.043930421            5 
 3348000   0.71517007   -4.5717688    1806.2083  0.044957395  0.043920836            5 
 3349000   0.72235798   -4.5623176    1806.6445  0.044954825  0.043911229           11 
 3350000   0.74208451    -4.553293    1807.6409  0.044966192  0.043901674            4 
 3351000   0.72227132   -4.5770392    1807.2439  0.044942899  0.043891996            6 
 3352000   0.72704766    -4.576879    1806.4641  0.044910105  0.043882295           15 
 3353000   0.70284407   -4.5733135     1809.251  0.044965977  0.043872665            4 
 3354000   0.70573599   -4.5809791    1807.6464  0.044912701  0.043863068            7 
 3355000   0.71214776   -4.5640576    1809.8784  0.044954755  0.043853405            5 
 3356000    0.7203829   -4.5782119    1808.4705  0.044906399  0.043843792            4 
 3357000   0.70208828    -4.574635    1813.0491  0.045006681  0.043834209           10 
 3358000   0.70644877   -4.5576365    1808.9847  0.044892413  0.043824615            5 
 3359000   0.71560872   -4.5768979    1812.3534  0.044962622  0.043814995           10 
 3360000   0.72817344   -4.5771791    1806.0089  0.044791887  0.043805351            5 
 3361000   0.72151565   -4.5758664    1809.3291  0.044860883  0.043795801            9 
 3362000   0.71601881   -4.5910974     1806.981  0.044789337  0.043786184            7 
 3363000   0.70906522   -4.5944067    1810.7178  0.044868614  0.043776581            6 
 3364000   0.72040248   -4.5701676     1811.521  0.044875173  0.043766894            4 
 3365000   0.69731492    -4.569127    1810.9006  0.044846474  0.043757239           11 
 3366000   0.71606462   -4.5673905    1811.6444  0.044851564  0.043747746            6 
 3367000   0.72625359   -4.5711855     1810.133  0.044800837  0.043738204            8 
 3368000    0.7180215   -4.5866201    1813.5242  0.044871442  0.043728672            4 
 3369000   0.71273766   -4.5952683    1810.1734  0.044775241  0.043719117           14 
 3370000    0.7103993    -4.569939    1811.2893  0.044789547  0.043709579           15 
 3371000   0.68550762   -4.5777582    1811.0285  0.044769813  0.043699971            9 
 3372000   0.69559981   -4.5681913     1810.542  0.044744514  0.043690356            4 
 3373000   0.69732024   -4.5615595    1815.2921  0.044848605  0.043680795           16 
 3374000   0.71458891   -4.5904888    1809.7581  0.044698629  0.043671154           11 
 3375000   0.70555281    -4.584799    1809.2787  0.044673549   0.04366145           11 
 3376000   0.71428466   -4.5887462    1816.8397  0.044846953  0.043651787            9 
 3377000   0.70612437   -4.5706631    1809.4874  0.044652241  0.043642138            4 
 3378000   0.71827877   -4.5684047    1807.6224  0.044593015  0.043632466            8 
 3379000   0.69832086   -4.5826798    1812.3617  0.044696699  0.043622842            7 
 3380000   0.71942196   -4.5657283    1814.3049  0.044731384  0.043613246            6 
 3381000   0.70822234   -4.5697472    1805.0799  0.044490779  0.043603581            4 
 3382000   0.71829245   -4.5801729    1807.1115  0.044527684  0.043594007            7 
 3383000   0.70845836   -4.5889479    1807.7482  0.044530205  0.043584423            6 
 3384000   0.71243844   -4.5886559    1809.3803  0.044557239  0.043574721            9 
 3385000   0.71040768   -4.5745544    1812.8024   0.04462832  0.043565096            8 
 3386000   0.70070744   -4.5681126    1809.3643  0.044530526   0.04355543            8 
 3387000   0.69778746   -4.5740264    1812.0954  0.044584574   0.04354568            8 
 3388000   0.70314964   -4.5629404    1811.2116  0.044549676  0.043536046            6 
 3389000   0.71321564   -4.5919811    1803.8298  0.044355017  0.043526334           10 
 3390000   0.71170244   -4.5610651    1816.5054  0.044653525  0.043516663            4 
 3391000   0.70984594   -4.5951329    1810.3017  0.044487901  0.043506959            7 
 3392000   0.70768752   -4.5963557    1811.6826  0.044508711  0.043497274            6 
 3393000   0.70515706   -4.5831988    1810.3793  0.044463584  0.043487553            3 
 3394000   0.72235668   -4.5981135    1814.5298  0.044552391  0.043477809            6 
 3395000   0.69835282   -4.5848973    1812.1103  0.044479879   0.04346812            8 
 3396000   0.68986975   -4.5995058    1813.2187  0.044493981  0.043458462            9 
 3397000   0.70452204   -4.5771995    1802.3111  0.044213302  0.043448779            7 
 3398000   0.71092649   -4.6067295    1810.9677  0.044412588  0.043439086            5 
 3399000   0.71064764   -4.5900591    1814.1121  0.044476614  0.043429373            7 
 3400000   0.72563295   -4.5683093    1814.3942  0.044470445   0.04341966           19 
 3401000   0.69938605   -4.5977695    1807.1962  0.044281001  0.043409988           12 
 3402000   0.70775324   -4.5818182    1809.9628  0.044335752  0.043400272            5 
 3403000   0.72345992   -4.5869439    1814.8847  0.044443252  0.043390649            9 
 3404000   0.72446961   -4.6036173    1811.4877  0.044347036  0.043381008            8 
 3405000   0.72127164   -4.5758577    1814.4056  0.044405423  0.043371406            8 
 3406000   0.70368564   -4.5807569    1816.4785  0.044443104   0.04336189            7 
 3407000   0.69613041   -4.5861555    1813.5958   0.04435955   0.04335235            6 
 3408000   0.71177732     -4.61975     1817.148  0.044433392  0.043342878           10 
 3409000   0.71596252   -4.5893368    1813.4814  0.044330727  0.043333335           13 
 3410000    0.7154934   -4.6057342    1815.4836  0.044366657   0.04332373            5 
 3411000   0.70187023   -4.5936906    1813.0248   0.04429358   0.04331406            6 
 3412000   0.71418402   -4.5828215    1821.9946  0.044499672  0.043304443           10 
 3413000   0.71405933   -4.5853837    1818.5751  0.044403143  0.043294864           10 
 3414000   0.71123961   -4.5987327    1814.6792  0.044295039  0.043285299            6 
 3415000   0.69999433   -4.5681457    1819.4133   0.04439759  0.043275804            7 
 3416000   0.72173709   -4.5889028    1816.0851  0.044303403  0.043266193            7 
 3417000   0.70819456   -4.5743465    1820.9226  0.044408415  0.043256679            7 
 3418000   0.69102727   -4.5940415    1814.9213  0.044249106  0.043247119            6 
 3419000   0.70198454   -4.5837813    1820.9183  0.044382331   0.04323756            5 
 3420000   0.69972384   -4.5899884    1816.4134  0.044259586  0.043227985            7 
 3421000   0.69785588   -4.5877819    1817.5652  0.044274705  0.043218266            8 
 3422000   0.72331548   -4.5904798    1816.6434  0.044239319  0.043208661            9 
 3423000   0.69341584   -4.5862333    1817.0319  0.044235854  0.043199079           10 
 3424000    0.7055715    -4.579513    1818.5658  0.044260265  0.043189474            6 
 3425000   0.70104335   -4.5879543    1822.5024  0.044343124  0.043179977           10 
 3426000   0.71463139   -4.6084168    1818.9923  0.044244801  0.043170385            6 
 3427000   0.70024647   -4.5869909    1815.2736  0.044141464  0.043160838            6 
 3428000    0.7100925   -4.5823734    1817.4431  0.044181327  0.043151339            6 
 3429000   0.70087411   -4.5690036    1816.3375  0.044141575  0.043141773            4 
 3430000   0.70727331   -4.5992883    1818.6139  0.044184011  0.043132152           15 
 3431000   0.67987864   -4.6005793    1814.7124  0.044076372  0.043122559            8 
 3432000   0.69888003   -4.5673854    1824.8864  0.044310567  0.043112889           11 
 3433000   0.70779359   -4.5860195    1818.6784  0.044146967  0.043103305            5 
 3434000   0.68971931   -4.5762077    1821.7821  0.044209428  0.043093704            7 
 3435000   0.71186201   -4.5691722    1820.5149  0.044165815  0.043084118            9 
 3436000    0.6998799   -4.5898682    1821.9211  0.044187066  0.043074437           15 
 3437000   0.71046759   -4.5915703     1815.209  0.044011468  0.043064813            7 
 3438000   0.69348176   -4.6220595     1817.105  0.044044623  0.043055234            6 
 3439000   0.72011068   -4.5977467    1819.5693   0.04409153  0.043045529            4 
 3440000    0.7038992   -4.6139472    1814.1282  0.043946904  0.043035869            6 
 3441000    0.7075544   -4.5816666    1822.7052  0.044141849  0.043026308           10 
 3442000    0.7070706   -4.5891176    1828.9416  0.044280012  0.043016779            6 
 3443000   0.69787683   -4.6003659    1827.2271  0.044225653  0.043007323            5 
 3444000   0.69397894   -4.5744048    1821.0069  0.044062304  0.042997832            8 
 3445000   0.70110931   -4.5928568    1821.9124  0.044071417  0.042988319            5 
 3446000   0.70062418   -4.6093688    1816.9443  0.043938487  0.042978755           12 
 3447000   0.69388703   -4.5867923    1824.6735  0.044112597  0.042969305            8 
 3448000   0.70067403    -4.588979    1823.4665  0.044070634  0.042959879            8 
 3449000   0.71288718   -4.6016624    1822.5578    0.0440359  0.042950354            5 
 3450000   0.70607133   -4.5923188    1823.8857  0.044055211   0.04294087           17 
 3451000   0.68393816   -4.5998224    1821.7313  0.043990421  0.042931345            6 
 3452000   0.69745701   -4.6268119    1823.0483  0.044009471  0.042921768           27 
 3453000   0.69783728   -4.5986261    1831.9805  0.044212292  0.042912276           12 
 3454000   0.70764452   -4.6040968    1826.7637  0.044073628  0.042902772            8 
 3455000   0.72308844   -4.6002208    1822.5381   0.04395895   0.04289323            8 
 3456000   0.69487444   -4.6139996    1821.4344  0.043919618  0.042883709            9 
 3457000   0.70689941   -4.5695292    1830.8695  0.044134353  0.042874244           15 
 3458000   0.68941422   -4.5892692    1827.4335  0.044038786  0.042864785            5 
 3459000   0.68869742   -4.6151112    1819.2401  0.043828661  0.042855273           12 
 3460000     0.705303   -4.6089033    1823.5715  0.043920316  0.042845684           16 
 3461000   0.70019672   -4.6102093    1821.2768  0.043852375  0.042836075            8 
 3462000   0.70070862   -4.6098433    1821.8705  0.043853999  0.042826436            6 
 3463000   0.69039309   -4.6103462     1824.964  0.043915777  0.042816804           11 
 3464000   0.69077154   -4.6165432    1822.3502  0.043840218  0.042807075           11 
 3465000   0.72354246   -4.6067768    1821.4853  0.043806766  0.042797423           11 
 3466000   0.69039841   -4.5995317    1824.4575  0.043865588  0.042787842            6 
 3467000   0.70051906   -4.6076166    1820.3325  0.043753785  0.042778192            6 
 3468000   0.68683918   -4.6133072    1820.9625  0.043756308  0.042768591            5 
 3469000   0.68909941   -4.6011707      1818.99   0.04369631  0.042758899            7 
 3470000   0.69181652   -4.5936073    1824.6723  0.043820179  0.042749398            8 
 3471000     0.709715   -4.5851053    1824.2801   0.04379814  0.042739833            9 
 3472000   0.70210074   -4.6069515     1829.912  0.043920699  0.042730286            4 
 3473000   0.69410816   -4.5937706    1826.7667  0.043832583  0.042720732            5 
 3474000   0.68961908   -4.6155474    1823.2122    0.0437347  0.042711102            7 
 3475000   0.69381906   -4.6182915    1823.5149  0.043729375  0.042701553            5 
 3476000   0.70637972    -4.577931    1828.7258  0.043841719  0.042691959            7 
 3477000   0.69162167   -4.5988433    1822.4968  0.043679821   0.04268241           13 
 3478000   0.69937823   -4.6264484     1821.195  0.043636069   0.04267286            9 
 3479000    0.6980116   -4.6292328    1825.4207  0.043724745  0.042663258            4 
 3480000   0.68198228   -4.5997318    1829.4903  0.043809635  0.042653661            7 
 3481000   0.68859446   -4.5859453    1829.7416  0.043803065  0.042644077            5 
 3482000   0.67773733   -4.6093481    1827.4481  0.043735596  0.042634524            7 
 3483000    0.6859456   -4.6011951    1832.3371  0.043840011   0.04262499           16 
 3484000   0.69321458   -4.6195924    1830.2624  0.043777804  0.042615471            9 
 3485000   0.69320138   -4.6079334    1825.9778  0.043662788  0.042605945            6 
 3486000    0.7007715   -4.6212514    1825.9492   0.04364958  0.042596433            5 
 3487000   0.70692133   -4.5985576    1825.6329  0.043629502  0.042586898            8 
 3488000   0.69425752   -4.6123814    1827.4073  0.043659388  0.042577367           11 
 3489000    0.6833791   -4.6123372     1825.893  0.043610704  0.042567868            2 
 3490000   0.69230731    -4.616998    1828.0742  0.043650292  0.042558316            6 
 3491000   0.68170365   -4.6366224    1828.8793  0.043657005  0.042548793            9 
 3492000   0.67776281   -4.6206428    1826.2038  0.043580657  0.042539321           15 
 3493000   0.70779732   -4.6249739    1828.3618  0.043619662  0.042529778            4 
 3494000   0.69077943   -4.6156725    1829.4338  0.043632746  0.042520258            4 
 3495000   0.66863706   -4.6335762    1827.3258  0.043570001  0.042510699            6 
 3496000   0.69020571   -4.5878002    1829.5767  0.043611192  0.042501211            7 
 3497000   0.67452525   -4.6017844    1830.9184  0.043630692  0.042491726            3 
 3498000   0.68111945   -4.6265551    1827.6979  0.043541497  0.042482318            7 
 3499000   0.69325271   -4.6094203    1832.6628  0.043647299  0.042472834           16 
 3500000   0.68370474   -4.6143296    1829.2913  0.043554555  0.042463314            9 
 3501000   0.68488216   -4.6310522    1832.5554  0.043619809  0.042453791            7 
 3502000   0.70438815   -4.6114473    1829.8409  0.043542758  0.042444314            5 
 3503000     0.706661   -4.6253049    1828.1492  0.043490085  0.042434843            6 
 3504000   0.70238491   -4.6212455    1828.7287  0.043491456  0.042425313            7 
 3505000   0.70190743   -4.6167994    1829.6144  0.043500105  0.042415948            6 
 3506000    0.6993008   -4.5969443    1836.8266  0.043659123  0.042406568            5 
 3507000   0.70020282   -4.6036401    1834.6999  0.043596139  0.042397239            5 
 3508000   0.67945932   -4.6289176    1829.9477  0.043470822  0.042387768           10 
 3509000   0.68623614   -4.6102602    1835.7724  0.043596762  0.042378285            8 
 3510000   0.69577875   -4.6472139    1828.2938  0.043406786  0.042368865            6 
 3511000   0.69697053   -4.6284297    1833.8736  0.043526858  0.042359416            7 
 3512000   0.68683546   -4.5985546    1829.7641  0.043416955  0.042350065           16 
 3513000   0.69816855    -4.644814    1832.9155   0.04347935  0.042340682            5 
 3514000    0.6876494   -4.6226397     1833.517  0.043481242  0.042331318            5 
 3515000   0.68306337   -4.6159398       1835.4  0.043513514  0.042321922            6 
 3516000   0.68194339   -4.6051487    1832.9887  0.043443987  0.042312513           14 
 3517000    0.7042184   -4.6201201    1827.5668  0.043303166  0.042303101            5 
 3518000   0.68177476   -4.6061236    1836.1445  0.043494042  0.042293743            7 
 3519000   0.69225857   -4.6224051    1832.2795  0.043390157  0.042284293            6 
 3520000   0.70167249   -4.6232081    1836.9742  0.043488973  0.042274869           14 
 3521000   0.68744744   -4.6009936    1830.4441   0.04332207  0.042265441           10 
 3522000   0.68083515   -4.6390408    1833.5809  0.043383989   0.04225604            4 
 3523000   0.69419688   -4.6514684    1833.7101   0.04337473  0.042246603            4 
 3524000   0.69762654   -4.6549289     1826.488  0.043191638  0.042237093            9 
 3525000   0.68849899    -4.624563    1833.6525   0.04334876  0.042227572           17 
 3526000   0.67631152   -4.6223799    1836.2622  0.043398143  0.042218038           10 
 3527000   0.68697446   -4.6150903    1832.8209   0.04330453   0.04220862            4 
 3528000    0.6933572   -4.6355601     1830.733  0.043242938  0.042199206            9 
 3529000   0.67306757   -4.6155845    1835.5979  0.043345562  0.042189785            9 
 3530000   0.69230909   -4.6429482    1835.2156  0.043324259  0.042180373            8 
 3531000   0.69075486   -4.6209811    1835.7188  0.043323864  0.042170898           10 
 3532000   0.68782911   -4.6443514     1836.667   0.04333397   0.04216146            6 
 3533000    0.6742947   -4.6233262    1838.2702   0.04335952  0.042152118           11 
 3534000   0.70433102   -4.6329804    1836.3971  0.043303081   0.04214274           15 
 3535000   0.69164714   -4.6200641    1834.1714  0.043238365  0.042133378            3 
 3536000   0.69408029   -4.6300077    1839.4447  0.043350413  0.042124019            9 
 3537000   0.68725268    -4.610317    1834.3403  0.043217895  0.042114586            8 
 3538000   0.69797119   -4.6227524    1837.3166  0.043275783  0.042105182            9 
 3539000   0.68377573   -4.6196723      1839.96  0.043325798  0.042095759            9 
 3540000   0.69297722   -4.6334794    1837.8783  0.043264556  0.042086381            7 
 3541000   0.69326057   -4.6434807    1833.0377   0.04313842  0.042077017            6 
 3542000   0.67844751   -4.6410588    1833.5143  0.043137454  0.042067609           10 
 3543000   0.68406762   -4.6198026    1844.0041  0.043372004  0.042058276            9 
 3544000   0.68162861   -4.6133142    1835.1811  0.043152301  0.042048931            9 
 3545000   0.71142923   -4.6587182      1839.09  0.043232016  0.042039578            4 
 3546000   0.68193065   -4.6524833    1838.8017  0.043213049  0.042030175            7 
 3547000   0.69163975   -4.6254414    1839.8294  0.043225013  0.042020914            7 
 3548000   0.68973643   -4.6649507    1838.2373  0.043175434  0.042011704           19 
 3549000   0.67910158   -4.6212541    1842.9744  0.043274499  0.042002437            6 
 3550000   0.68401052    -4.633908    1844.3672  0.043295005   0.04199314            7 
 3551000   0.68541248   -4.6435412    1842.7147  0.043244032  0.041983868           15 
 3552000   0.68255627     -4.64829    1838.2402  0.043126883  0.041974578            8 
 3553000   0.68462581   -4.6222626    1844.3546  0.043258152  0.041965289            4 
 3554000   0.67247019   -4.6392984    1839.7163  0.043137222  0.041955998            7 
 3555000   0.68125637   -4.6564901    1843.0001  0.043202065  0.041946762            6 
 3556000   0.69776968   -4.6595941     1841.277  0.043149536  0.041937524           13 
 3557000   0.68075226   -4.6197635    1843.0512  0.043178971  0.041928271            4 
 3558000   0.69435756   -4.6115037    1841.0018  0.043118835  0.041919049            6 
 3559000   0.69393436   -4.6617245    1838.3182  0.043043884  0.041909792            5 
 3560000   0.69025158   -4.6552103    1840.5062  0.043083009  0.041900481           17 
 3561000   0.68007975   -4.6473852    1843.4489  0.043139775  0.041891224            3 
 3562000   0.68141322   -4.6285809     1847.594   0.04322464  0.041881939           10 
 3563000   0.68893675   -4.6155345    1843.2008  0.043109757  0.041872692           12 
 3564000   0.67224955   -4.6337437    1844.4731  0.043127411  0.041863417            7 
 3565000   0.69350488   -4.6335054    1843.3011  0.043087917  0.041854151            6 
 3566000   0.69168015   -4.6410709    1843.7378  0.043086039  0.041844919            7 
 3567000   0.68646572   -4.6601761    1840.6142  0.043000987  0.041835585            8 
 3568000   0.68076392   -4.6349514     1843.204  0.043049422  0.041826335            3 
 3569000   0.69118474   -4.6221445    1849.1661  0.043176568  0.041817131           12 
 3570000   0.69366314   -4.6371532    1843.9462  0.043042629  0.041807956            3 
 3571000    0.6960446   -4.6231389    1842.4099  0.042994723  0.041798707            4 
 3572000   0.69250783    -4.633497    1842.5885  0.042986854  0.041789519           16 
 3573000   0.68612956   -4.6437031    1841.8719   0.04295811  0.041780281           10 
 3574000   0.68544164    -4.633615    1847.7118  0.043082255  0.041771071            7 
 3575000   0.68031461   -4.6613362    1843.5091  0.042972241  0.041761831            8 
 3576000   0.67835823   -4.6347441    1849.9256  0.043109751  0.041752599           10 
 3577000   0.66162581    -4.646405    1841.7666  0.042907617  0.041743375            5 
 3578000   0.67937155   -4.6075416    1848.6713  0.043056439   0.04173421            9 
 3579000   0.67520926    -4.635787    1840.8381   0.04286202  0.041724918           13 
 3580000    0.6812159   -4.6778364    1839.2548  0.042813193  0.041715659            7 
 3581000   0.67772512   -4.6351319    1845.5374  0.042947441  0.041706359            4 
 3582000   0.68889396   -4.6464542    1841.9656  0.042852355  0.041697097            7 
 3583000   0.66295585   -4.6717403    1842.8125  0.042860092  0.041687858            6 
 3584000    0.6727698   -4.6402914    1840.3849  0.042791687  0.041678573            6 
 3585000   0.68670256    -4.633589    1848.9583  0.042979041  0.041669361            5 
 3586000   0.69046781   -4.6393846    1850.4968  0.043002806  0.041660129           10 
 3587000    0.6865332   -4.6234878     1844.429   0.04284985   0.04165094           13 
 3588000   0.68610185   -4.6444062     1843.669  0.042820257  0.041641705            6 
 3589000   0.67573034    -4.644386    1846.4403  0.042872674  0.041632396            5 
 3590000   0.66469307   -4.6645596    1845.4922  0.042838723  0.041623061            8 
 3591000   0.68672418    -4.652117    1843.1919  0.042773413  0.041613765            6 
 3592000   0.66389385   -4.6455994    1841.4278  0.042720578  0.041604437            9 
 3593000   0.67197552    -4.652199    1841.4122  0.042708326  0.041595103            8 
 3594000   0.66369275   -4.6732557     1840.471   0.04267462  0.041585795           17 
 3595000   0.69299401   -4.6512849    1845.9035  0.042788676  0.041576479            4 
 3596000   0.67762924   -4.6488262    1846.3102  0.042786203  0.041567197           10 
 3597000   0.68384251   -4.6639032    1843.6092  0.042711731   0.04155792            9 
 3598000   0.67181441   -4.6461581    1841.7069  0.042655801  0.041548679            5 
 3599000   0.68477522   -4.6469265    1851.0877  0.042861158  0.041539435            8 
 3600000   0.67788091   -4.6178368    1851.3077  0.042854346  0.041530247           12 
 3601000   0.66288565   -4.6557789    1846.3564  0.042727862  0.041521054            8 
 3602000    0.6735797   -4.6436248    1852.6354  0.042861268  0.041511874            7 
 3603000   0.65668801   -4.6293341    1843.6698  0.042642006  0.041502655            8 
 3604000   0.67702135   -4.6769502      1846.11  0.042686598  0.041493397            6 
 3605000   0.68748348   -4.6579797    1845.3565   0.04265734  0.041484139            5 
 3606000   0.67087906   -4.6404245     1848.946  0.042728462  0.041474926            8 
 3607000   0.66853572   -4.6415268    1851.6702  0.042779554  0.041465669            7 
 3608000   0.67621149   -4.6391595    1845.6646  0.042628986  0.041456367            6 
 3609000   0.68148049   -4.6474835    1842.1145  0.042535202  0.041447082            5 
 3610000   0.67383518   -4.6569624    1848.6057  0.042673261  0.041437869            6 
 3611000   0.67995805    -4.651834    1845.9808  0.042600868  0.041428668            5 
 3612000   0.67821412   -4.6618939    1850.1368  0.042684957  0.041419411            6 
 3613000   0.67110932   -4.6526044    1850.9772  0.042692526  0.041410222            4 
 3614000   0.67775289   -4.6512495    1847.5629  0.042601986  0.041400967            3 
 3615000   0.69118056   -4.6680535    1849.5389  0.042635753  0.041391797           14 
 3616000   0.68055614   -4.6488019    1843.8686  0.042493285  0.041382569            5 
 3617000   0.67060008   -4.6759309    1850.1301  0.042625797    0.0413733            6 
 3618000   0.67482469   -4.6525703    1848.4707  0.042575795  0.041364087            7 
 3619000   0.68714904   -4.6673868    1850.5517  0.042611948  0.041354876            8 
 3620000   0.67006761   -4.6763243     1845.167  0.042476221  0.041345651            9 
 3621000   0.66981649   -4.6711974    1854.4125  0.042677265  0.041336436            5 
 3622000   0.66505454   -4.6586451    1847.3703  0.042503457  0.041327241            7 
 3623000   0.66720878   -4.6640398    1850.5911   0.04256581  0.041317978            6 
 3624000   0.67277425   -4.6685917    1849.1076  0.042519951  0.041308747           12 
 3625000    0.6798204   -4.6701411    1848.8963  0.042503362  0.041299538           15 
 3626000   0.68355679     -4.64237    1849.7343    0.0425109  0.041290375           10 
 3627000   0.66876236   -4.6502425     1852.171  0.042555164  0.041281188           18 
 3628000   0.67598743   -4.6607016    1851.8482   0.04253602  0.041272021            6 
 3629000   0.69386576   -4.6436297    1854.1211  0.042576492   0.04126287            9 
 3630000   0.68067885   -4.6511931    1852.2915  0.042522762  0.041253748           10 
 3631000    0.6874236    -4.642713    1855.4436  0.042583394  0.041244595            9 
 3632000   0.67298913   -4.6615337    1854.2624  0.042544568  0.041235487            4 
 3633000   0.67447154    -4.676309    1851.7788  0.042475888  0.041226321           10 
 3634000   0.65828284   -4.6450529     1852.025  0.042469845  0.041217098            4 
 3635000   0.67345267   -4.6763193    1847.4997  0.042354417  0.041207903            5 
 3636000   0.68168464   -4.6803431     1845.775  0.042303241  0.041198614            9 
 3637000   0.67464012   -4.6633467    1851.7253  0.042427946   0.04118938           24 
 3638000   0.67248777   -4.6531395    1852.9705  0.042444807  0.041180155            9 
 3639000   0.68043265   -4.6566508    1852.4943  0.042422238   0.04117099            3 
 3640000   0.67229458   -4.6581075    1850.0634  0.042354932  0.041161773           12 
 3641000   0.67019934   -4.6543295    1854.0916  0.042435494  0.041152582            9 
 3642000    0.6690015   -4.6681777    1851.6714  0.042368464  0.041143418            6 
 3643000   0.66462605    -4.658718    1853.9747  0.042409522  0.041134255            4 
 3644000    0.6520929   -4.6491397    1852.2857  0.042359259  0.041125102            8 
 3645000   0.68454457   -4.6746374    1854.8697  0.042406715  0.041115957           12 
 3646000   0.65996261   -4.6553751    1852.7062  0.042345633  0.041106762            5 
 3647000   0.66227181   -4.6525788    1854.8423  0.042382833  0.041097638            8 
 3648000   0.69312877   -4.6726017     1850.066  0.042262106  0.041088486           14 
 3649000   0.68352909   -4.6370816    1856.8717  0.042405949  0.041079351            5 
 3650000   0.66323623   -4.6553916    1855.1665    0.0423554  0.041070254            7 
 3651000   0.67431322   -4.6725856    1855.1625  0.042343707   0.04106108            9 
 3652000   0.65048474   -4.6557086    1855.8451  0.042347688  0.041051971            5 
 3653000   0.66713732   -4.6827724    1852.6178  0.042262473   0.04104285            8 
 3654000   0.67669479   -4.6652704    1855.9413  0.042326704  0.041033706           21 
 3655000   0.66469927    -4.661865    1853.7752  0.042265736  0.041024526            6 
 3656000   0.65702758   -4.6739619    1854.3742  0.042267829  0.041015384            8 
 3657000   0.66672314   -4.6519724     1855.884  0.042290674  0.041006227           10 
 3658000   0.67306939    -4.673757    1855.2872  0.042265519  0.040997125           12 
 3659000   0.67936812   -4.6692995    1854.8662  0.042244378  0.040988012           17 
 3660000    0.6725874   -4.6651381    1854.0026  0.042213173  0.040978873            5 
 3661000   0.67297495   -4.6654916    1859.8927  0.042335717  0.040969778            6 
 3662000   0.65821334   -4.6649352    1851.5846  0.042135094  0.040960619            8 
 3663000   0.66487535   -4.6622725    1858.4243  0.042279195  0.040951494            7 
 3664000    0.6670377   -4.6697773    1854.2076  0.042171752  0.040942378           12 
 3665000   0.68518796   -4.6868254    1859.3787  0.042277824  0.040933242            8 
 3666000   0.65202189   -4.6641824    1853.4444  0.042131397  0.040924064            5 
 3667000   0.65588048   -4.6501854     1859.641  0.042260726    0.0409149           18 
 3668000   0.65903751   -4.6863066     1851.752  0.042069975  0.040905754           11 
 3669000   0.65212286   -4.6769513    1852.6513  0.042078935  0.040896543           12 
 3670000   0.66600763   -4.6900288    1849.0818  0.041986418  0.040887274           10 
 3671000   0.65858258    -4.675402     1853.892  0.042084174  0.040878065           20 
 3672000   0.66685761   -4.6898718     1848.775  0.041956585  0.040868877            8 
 3673000   0.66831267   -4.6708172      1856.06  0.042110445  0.040859693           18 
 3674000    0.6518211   -4.6851235    1856.5677  0.042110499  0.040850505           12 
 3675000   0.66698461   -4.6631027    1854.7342  0.042057465   0.04084135            3 
 3676000     0.666318   -4.6756055    1850.0085  0.041938895  0.040832207            7 
 3677000   0.66117521   -4.6603675    1855.2805   0.04204697  0.040823091            6 
 3678000   0.65490822   -4.7006423    1852.4972  0.041972477  0.040813866           10 
 3679000   0.66069903   -4.6555079    1852.4021  0.041958913   0.04080468            9 
 3680000   0.66506169   -4.6687393    1853.9245  0.041981986  0.040795531           27 
 3681000   0.66766775    -4.677004    1855.9759  0.042017022  0.040786415            7 
 3682000   0.65717812   -4.6825633    1857.6657  0.042043855  0.040777259            6 
 3683000    0.6635765   -4.6862532    1855.0886   0.04197413  0.040768069            6 
 3684000   0.65490397   -4.6763945    1855.9407   0.04198201  0.040758959            7 
 3685000   0.65087444   -4.6592394    1857.1335  0.041997593  0.040749824            6 
 3686000   0.66828638   -4.6725292    1856.8198  0.041979105  0.040740697            8 
 3687000   0.66635204   -4.6841086    1853.6089  0.041895146  0.040731569            6 
 3688000   0.64876092   -4.6808695    1858.1358  0.041986077  0.040722367           14 
 3689000   0.64919871   -4.6851795    1859.0793  0.041996008  0.040713137            5 
 3690000   0.65038125   -4.6915938    1854.1488   0.04187328  0.040703906            9 
 3691000    0.6411669   -4.6724806    1857.9388  0.041947502  0.040694738           12 
 3692000   0.65781425   -4.6804592    1852.0749  0.041803786  0.040685533            9 
 3693000   0.66018459   -4.6711197    1859.1663  0.041952485  0.040676341            7 
 3694000   0.67102037   -4.6704855    1854.9517   0.04184605  0.040667138            5 
 3695000   0.67859976   -4.6711392    1854.9827  0.041835423  0.040657951           13 
 3696000   0.65517612    -4.685875    1855.1007  0.041826765  0.040648759           12 
 3697000   0.67347226   -4.6684447    1856.6174   0.04184964  0.040639676            8 
 3698000   0.66358051   -4.6773004    1859.8042  0.041910135  0.040630539           12 
 3699000   0.65804977   -4.7107258    1851.4034  0.041709547  0.040621269           10 
 3700000   0.66904986   -4.6921566    1856.1234   0.04180458  0.040612032           17 
 3701000   0.66574862   -4.6991673    1855.0578  0.041769292  0.040602805           10 
 3702000   0.65217269   -4.6632284    1856.7526  0.041796159   0.04059362           11 
 3703000   0.67747521   -4.6811927    1855.8059  0.041763567  0.040584444            5 
 3704000   0.64739092   -4.6858808    1858.8238  0.041820191  0.040575262           14 
 3705000   0.66018657   -4.6638239    1859.8965  0.041833029  0.040566061            8 
 3706000    0.6601869   -4.6652629    1855.4928   0.04172272  0.040556924            8 
 3707000   0.65093571   -4.6928616    1851.0794  0.041612251  0.040547759            5 
 3708000   0.66043004   -4.6782957    1857.6481  0.041748653  0.040538597            6 
 3709000   0.65251103   -4.6785047    1858.3995   0.04175428  0.040529453           10 
 3710000   0.67268611   -4.6949648    1859.7443  0.041773233  0.040520336           10 
 3711000   0.66328326   -4.6813309    1859.9556  0.041766721  0.040511231            8 
 3712000   0.64510088   -4.6925941    1856.8722  0.041686248  0.040502098           15 
 3713000    0.6605789   -4.6810059     1861.338  0.041775249  0.040493021            5 
 3714000   0.65909604   -4.6834752     1858.237  0.041694421  0.040483901            7 
 3715000   0.66283031   -4.6643939    1858.6705  0.041692924  0.040474783           26 
 3716000   0.64494533   -4.6704037     1861.248  0.041739506  0.040465739           14 
 3717000   0.65286106   -4.6980902    1855.3754  0.041596614  0.040456629            7 
 3718000   0.64794715   -4.7076923    1860.5592  0.041701613  0.040447521           19 
 3719000   0.66868638   -4.6731396    1862.0219  0.041723177  0.040438361           14 
 3720000   0.66858378   -4.7046867    1857.5647  0.041612112  0.040429276           11 
 3721000   0.65882014   -4.6872734    1859.4278  0.041642654  0.040420236           18 
 3722000   0.65577735   -4.7080796    1861.3378   0.04167423   0.04041118            9 
 3723000   0.65320117   -4.6943899    1862.9284  0.041698639  0.040402104            6 
 3724000   0.66197314   -4.7190602    1853.7806  0.041482738  0.040392981            8 
 3725000   0.65814013   -4.7120032     1863.378  0.041686309  0.040383838           16 
 3726000   0.65756804   -4.7096304    1862.3053   0.04165113  0.040374726           12 
 3727000   0.65430774   -4.6825059    1862.0291  0.041633778    0.0403657           14 
 3728000    0.6625889   -4.6855508    1866.9137  0.041731798   0.04035665            7 
 3729000   0.66718946   -4.6915434      1859.28  0.041550013  0.040347513            8 
 3730000   0.65100438   -4.6860407    1864.7559  0.041661214  0.040338419            8 
 3731000   0.65421327   -4.6789641    1861.8807  0.041585829  0.040329287           17 
 3732000   0.64739079   -4.6877709     1864.894   0.04164197  0.040320162           11 
 3733000   0.65005079   -4.6778543     1865.361   0.04164124  0.040311024            8 
 3734000   0.66445134   -4.6760428    1857.2779  0.041449695  0.040301888           11 
 3735000   0.64679256   -4.6664281    1865.4312  0.041620509  0.040292765            5 
 3736000   0.64349848   -4.6884725    1859.2716  0.041471976   0.04028366            4 
 3737000   0.65411996   -4.7118438    1859.5298  0.041466635  0.040274457           13 
 3738000   0.64746955   -4.7147187    1863.3298  0.041540258  0.040265284            6 
 3739000   0.65278147    -4.707266    1861.0963  0.041479369  0.040256031           12 
 3740000   0.65387471    -4.652147    1863.6139  0.041524374  0.040246894           10 
 3741000   0.65715149   -4.6907536    1861.5236  0.041466711  0.040237724           13 
 3742000    0.6596992   -4.6909568    1857.4605  0.041365145  0.040228519           12 
 3743000   0.65247026   -4.7049389    1855.2123   0.04130404  0.040219307            8 
 3744000   0.66710821   -4.6899841     1862.428  0.041453615  0.040210149            7 
 3745000   0.65088855    -4.664321    1868.4371   0.04157626  0.040201017           13 
 3746000   0.65052621   -4.7027292    1863.7188  0.041460197  0.040191883            8 
 3747000   0.65098055    -4.678189    1863.6071  0.041446648  0.040182766            8 
 3748000   0.64458415   -4.6876743    1864.9007  0.041464352  0.040173608            6 
 3749000    0.6513114   -4.6985114    1863.2581   0.04141678  0.040164479           12 
 3750000   0.65113046   -4.6863539    1860.9312  0.041354028   0.04015532            5 
 3751000   0.65631681   -4.6924242     1863.931  0.041409645  0.040146206            8 
 3752000   0.64778734   -4.6888755    1864.9701  0.041421688  0.040137092           14 
 3753000   0.65888882   -4.7031628    1862.4953    0.0413557  0.040127931            7 
 3754000   0.64804871   -4.6827448    1860.5423   0.04130133  0.040118749            7 
 3755000   0.65863993   -4.7160509    1854.3584  0.041153093  0.040109529           14 
 3756000   0.65126759   -4.6853999    1868.4547  0.041454888  0.040100324           11 
 3757000   0.64336157   -4.6929696    1862.0038  0.041300768  0.040091187            9 
 3758000   0.64693684    -4.713003    1864.2188  0.041338894  0.040082041            8 
 3759000   0.64070984   -4.7110808    1862.3038  0.041285443  0.040072847           11 
 3760000   0.64574367   -4.6948055    1860.6836  0.041238555  0.040063661           10 
 3761000   0.63982913   -4.7071074    1866.3082  0.041352217  0.040054482            6 
 3762000   0.65405001   -4.7035685    1866.2103  0.041339056  0.040045359           10 
 3763000   0.64944307   -4.7124731    1867.0549  0.041346774  0.040036241            8 
 3764000   0.65352132   -4.7066872    1864.6733  0.041283062  0.040027123            6 
 3765000   0.65085525   -4.6876376    1864.0389  0.041258054   0.04001802            9 
 3766000   0.65964574   -4.6915486    1860.8523  0.041176587  0.040008921           14 
 3767000   0.64222177    -4.702662    1862.8036  0.041208823  0.039999769            7 
 3768000    0.6657723   -4.7114541    1865.6612  0.041261085  0.039990605            3 
 3769000   0.65185752   -4.6897998    1859.3392  0.041110356  0.039981504            4 
 3770000    0.6596346   -4.7015819     1861.547  0.041148253  0.039972381           11 
 3771000   0.64214089   -4.6897426    1864.3686  0.041199696  0.039963248            7 
 3772000   0.64262865   -4.6953097     1866.044  0.041225787  0.039954187           14 
 3773000   0.64819435    -4.715828     1864.421  0.041179013  0.039945019           12 
 3774000   0.63213028   -4.6918056    1864.8642  0.041177888   0.03993599            9 
 3775000   0.65837739    -4.692125    1866.9141  0.041212232  0.039926963            9 
 3776000   0.64190316   -4.7309954    1861.7054  0.041086367  0.039917851           17 
 3777000   0.62940577   -4.7205999    1864.9555  0.041147196  0.039908702           19 
 3778000   0.64899769   -4.7032737    1862.0929  0.041073163  0.039899568           13 
 3779000   0.63877479   -4.7365972    1860.7455  0.041032582   0.03989042           23 
 3780000    0.6526446   -4.6999176    1859.1949  0.040987541  0.039881284           12 
 3781000   0.65219768   -4.7199568    1862.6406  0.041052644   0.03987217            8 
 3782000   0.64239256   -4.7100008    1867.8188  0.041155887  0.039863034           11 
 3783000    0.6477647    -4.682593    1862.1767  0.041020723  0.039853979            6 
 3784000   0.63600162   -4.6953906    1864.1782  0.041053961  0.039844906           10 
 3785000   0.63845632    -4.734399    1865.0919  0.041063229  0.039835817           15 
 3786000   0.63826271   -4.7271838    1865.5187  0.041061778  0.039826724            5 
 3787000   0.64753063    -4.711478    1862.9895  0.040995279  0.039817606            9 
 3788000   0.64770216   -4.7190888    1868.1575  0.041098151  0.039808517           15 
 3789000   0.64571657   -4.6897073     1867.665  0.041076471  0.039799422           14 
 3790000   0.65574279   -4.6980946    1868.5272  0.041084591  0.039790342            7 
 3791000   0.64294245   -4.6998809    1869.2763   0.04109022  0.039781269           14 
 3792000   0.64022009   -4.7109413    1867.0282   0.04102998  0.039772124            5 
 3793000   0.64757588   -4.7359517    1865.4426  0.040984327     0.039763            6 
 3794000   0.64187957   -4.7132359    1865.0864    0.0409657  0.039753912            8 
 3795000   0.63981817   -4.6933048    1867.6852  0.041011972  0.039744838           11 
 3796000   0.64460453    -4.710658     1864.349  0.040927928  0.039735734            9 
 3797000   0.64145296   -4.7101021    1864.9235  0.040929758  0.039726699           12 
 3798000   0.64400998    -4.721392    1867.0066  0.040964688  0.039717508           11 
 3799000   0.63254966   -4.7070053    1868.3211  0.040982739  0.039708423            8 
 3800000   0.64967567   -4.7043298    1872.9515  0.041073497  0.039699326           13 
 3801000   0.64834264   -4.7388771    1868.7934   0.04097153   0.03969025           31 
 3802000   0.63751307   -4.7268447    1866.0471  0.040900559  0.039681142            9 
 3803000   0.64302122   -4.7192493    1871.0851    0.0410002  0.039672099            8 
 3804000   0.64628837   -4.7165591    1868.9918  0.040943564  0.039663048            6 
 3805000   0.65173827   -4.7256037    1865.8429  0.040863838  0.039653981           12 
 3806000   0.64205912   -4.7008234    1870.0689  0.040945631  0.039644922            8 
 3807000   0.64924496   -4.7018782     1870.621  0.040946961   0.03963595            6 
 3808000    0.6428583   -4.7213645    1867.9251  0.040877213  0.039626931           11 
 3809000   0.65661636   -4.7145837    1870.5997  0.040924995  0.039617921           10 
 3810000   0.63964481   -4.7276474    1870.2363  0.040906306  0.039608906           10 
 3811000   0.64370503   -4.7095666     1871.762  0.040928935  0.039599873            4 
 3812000    0.6339065   -4.7356461    1866.1818   0.04079621  0.039590841            6 
 3813000   0.65422495   -4.7126561    1870.7615    0.0408856  0.039581836            7 
 3814000    0.6515326   -4.7167127    1866.2124  0.040775486   0.03957283           10 
 3815000   0.64281522   -4.7243682    1867.3439  0.040789512  0.039563806           14 
 3816000   0.64784762   -4.7262735    1871.7276  0.040874554  0.039554789           13 
 3817000    0.6528705   -4.7421905    1866.1042  0.040741075   0.03954577            8 
 3818000   0.63285418   -4.7113771    1875.6686   0.04093916  0.039536732            5 
 3819000   0.64226876   -4.7331292    1870.8587  0.040823487  0.039527719           14 
 3820000   0.63573653   -4.7285161    1874.3884    0.0408898  0.039518702            9 
 3821000    0.6563262   -4.7223087    1870.2992  0.040789915   0.03950968            6 
 3822000   0.64835795   -4.7156033    1869.5201  0.040762256  0.039500614           12 
 3823000   0.64629671   -4.7274963    1869.9452   0.04076086  0.039491549           10 
 3824000   0.64379041   -4.7243798    1869.8343  0.040747784  0.039482508            7 
 3825000   0.63734014   -4.7241316    1870.7587   0.04075727  0.039473487           21 
 3826000   0.62384599   -4.7290254     1864.668  0.040613957  0.039464497            8 
 3827000   0.64796379   -4.6933581     1873.847  0.040803219  0.039455545           15 
 3828000   0.62446124   -4.7369784    1872.1784  0.040756235    0.0394465            9 
 3829000   0.63460957   -4.7206801    1872.8549  0.040760315  0.039437516            6 
 3830000   0.63332747   -4.7170509    1868.3126   0.04065084  0.039428582            5 
 3831000   0.64435934    -4.710148     1874.851  0.040782455  0.039419594            6 
 3832000   0.64595463   -4.7070614    1872.3116  0.040716589  0.039410634            5 
 3833000   0.64134074   -4.7213431    1871.3254  0.040684525  0.039401637           10 
 3834000   0.64378027   -4.7035816    1869.4481  0.040633109  0.039392637            5 
 3835000   0.63499743   -4.7506757     1866.985  0.040568991  0.039383567           12 
 3836000   0.64195036    -4.719564    1871.6829  0.040660474  0.039374482           14 
 3837000   0.63975539   -4.7441101    1869.4338   0.04060103  0.039365423            7 
 3838000   0.63254192   -4.7183841    1871.6328  0.040638196  0.039356372            6 
 3839000    0.6241966   -4.7413988    1868.4277  0.040558038  0.039347274           19 
 3840000   0.63136491   -4.7337663    1870.6496  0.040595696  0.039338206           13 
 3841000   0.62400276   -4.7333595     1868.306  0.040534279  0.039329131           12 
 3842000   0.63743536   -4.7409057    1866.6401  0.040487595  0.039320025           13 
 3843000   0.63717776   -4.7235802    1875.0702  0.040659862   0.03931099            6 
 3844000   0.63999342   -4.7288766    1869.8702  0.040536555  0.039301988           10 
 3845000   0.64339651    -4.720627     1869.156  0.040510532  0.039292983           10 
 3846000    0.6445508   -4.7189567    1872.3511  0.040569231  0.039283929           16 
 3847000   0.64517943   -4.7269725    1875.4251  0.040625273  0.039274944           14 
 3848000   0.63465615   -4.7106661    1877.8876  0.040668044   0.03926595           10 
 3849000   0.63350233   -4.7236655    1871.3673  0.040516309  0.039256906            7 
 3850000   0.62172133   -4.7266034    1869.1669  0.040458158  0.039247877            8 
 3851000    0.6292595   -4.7212376     1875.373  0.040581948  0.039238847           12 
 3852000   0.63696401   -4.7141095    1877.5242  0.040617951  0.039229878            4 
 3853000   0.61999326   -4.7376187    1874.2222  0.040535993  0.039220868           13 
 3854000   0.63972662   -4.7408791    1870.9995  0.040455792   0.03921183           18 
 3855000    0.6454038   -4.7322366    1873.4828  0.040498979  0.039202834           12 
 3856000    0.6315184   -4.7314702    1871.3411  0.040442191  0.039193868           18 
 3857000   0.64145399    -4.716609    1877.6676  0.040568396  0.039184901           14 
 3858000   0.63810871   -4.7244484    1873.6456  0.040471004  0.039175913           10 
 3859000   0.65302065   -4.7402131    1875.6851  0.040504558  0.039166901           33 
 3860000   0.63731424   -4.7315062    1872.0195  0.040414928  0.039157852            9 
 3861000   0.63092199   -4.7168998    1877.0246  0.040512488   0.03914882            7 
 3862000   0.62059067   -4.7246224    1871.3269  0.040379054    0.0391398           14 
 3863000   0.62714301   -4.7170412    1881.1436   0.04058037  0.039130836            7 
 3864000   0.62469232   -4.7374222    1870.5465  0.040341325  0.039121889           12 
 3865000   0.63309172   -4.7332581    1869.7577  0.040313878  0.039112929            7 
 3866000   0.63092162   -4.7201108    1871.0272  0.040330815  0.039103949            8 
 3867000   0.64146256   -4.7298161    1875.9951  0.040427445  0.039094993            3 
 3868000   0.62991199   -4.7537433    1877.5639   0.04045079  0.039086066            9 
 3869000   0.64888595    -4.739854    1875.8199  0.040402771    0.0390771           11 
 3870000   0.63050806   -4.7454289      1878.25  0.040444661   0.03906815            9 
 3871000    0.6307167   -4.7360797    1874.9523  0.040363221  0.039059145           12 
 3872000    0.6493191   -4.7237896    1870.8622  0.040264768  0.039050188            7 
 3873000   0.60519544   -4.7409045       1874.1  0.040324039  0.039041216           11 
 3874000   0.62137436   -4.7283089     1876.432  0.040363792  0.039032258           12 
 3875000   0.63472429   -4.7381168    1873.6719   0.04029402  0.039023283           11 
 3876000   0.63730708   -4.7411224    1876.5579  0.040345671   0.03901422           19 
 3877000   0.63365432   -4.7512992    1870.7964  0.040211425   0.03900516           17 
 3878000   0.62206588   -4.7591411    1871.7073  0.040220632  0.038996047            9 
 3879000   0.62995469   -4.7473752    1872.4966  0.040227218   0.03898698            8 
 3880000   0.63343198   -4.7518431    1871.7304  0.040200395  0.038977964           10 
 3881000   0.62176923   -4.7352279    1875.9209  0.040280016  0.038968949            9 
 3882000   0.62933363   -4.7528575    1877.0009  0.040292824  0.038959895           32 
 3883000   0.62593133   -4.7440595    1874.4274  0.040227216   0.03895087            6 
 3884000   0.63260922   -4.7617886    1873.2889  0.040192433  0.038941789            4 
 3885000   0.62683464    -4.755528    1871.2853  0.040139109  0.038932761            9 
 3886000   0.62203916   -4.7546376    1873.2431  0.040170766  0.038923753            8 
 3887000   0.62361866   -4.7442192    1871.4683  0.040122381  0.038914759            7 
 3888000   0.61744144   -4.7211634    1878.7011  0.040267085  0.038905777            7 
 3889000   0.62837701   -4.7325364    1881.6726  0.040320403  0.038896778           13 
 3890000   0.63503729     -4.73061    1877.2177  0.040214603  0.038887801            5 
 3891000   0.63688544   -4.7578195    1873.4273  0.040123089  0.038878803            7 
 3892000   0.62872386   -4.7470361    1876.2874  0.040174019  0.038869747            7 
 3893000   0.62597192   -4.7407633     1875.568    0.0401483  0.038860737           17 
 3894000    0.6428406   -4.7452828    1877.9217  0.040188361  0.038851771            5 
 3895000   0.64944208   -4.7360089    1869.6075  0.040000161  0.038842786            7 
 3896000   0.62269668   -4.7374394    1880.1265   0.04021489  0.038833776            8 
 3897000   0.61537388   -4.7413943    1871.5752  0.040021708  0.038824753           16 
 3898000   0.63044377   -4.7577284    1871.6447  0.040012928  0.038815704           10 
 3899000   0.63504098   -4.7609242    1876.0938  0.040097756  0.038806693           23 
 3900000   0.60952374   -4.7550002    1878.1081  0.040130515  0.038797677            8 
 3901000   0.62433657   -4.7519887    1876.5977  0.040087961  0.038788692           22 
 3902000   0.61684744   -4.7403252    1878.3483  0.040115076  0.038779754            5 
 3903000   0.63463223   -4.7453922    1875.2231  0.040038071  0.038770813           15 
 3904000   0.63349175   -4.7733067    1876.0065  0.040044538  0.038761772            8 
 3905000    0.6302991   -4.7252903    1875.2323  0.040017761  0.038752744            7 
 3906000   0.63024121   -4.7641238    1876.6562  0.040037895  0.038743718            9 
 3907000    0.6344714   -4.7680988    1875.2349  0.039997332  0.038734697           10 
 3908000   0.63028801   -4.7504885    1874.8843   0.03997962  0.038725727            6 
 3909000     0.627842   -4.7523456    1875.8879  0.039990788  0.038716735            5 
 3910000   0.63383032     -4.78388    1874.5302  0.039951625  0.038707712           11 
 3911000    0.6202719   -4.7576654    1876.6704  0.039987012  0.038698679           20 
 3912000   0.62040209   -4.7753184     1879.138  0.040029353  0.038689659           13 
 3913000   0.63219156   -4.7465727      1880.01  0.040037695  0.038680682           14 
 3914000   0.64069309   -4.7759026    1876.2104  0.039946569  0.038671679           11 
 3915000   0.63914563   -4.7296545    1876.4025  0.039940453   0.03866266           10 
 3916000    0.6151546   -4.7355705    1876.2951  0.039927969  0.038653644           10 
 3917000    0.6247885   -4.7353412    1877.7659  0.039949065   0.03864457           10 
 3918000   0.62457507   -4.7596829     1876.347  0.039908691  0.038635545           20 
 3919000   0.61927393   -4.7655569    1873.1756  0.039831071  0.038626509           11 
 3920000   0.62209249   -4.7458777    1871.6917  0.039789365  0.038617485           10 
 3921000   0.63996955   -4.7622247    1871.6362  0.039778038  0.038608417           12 
 3922000   0.62596121   -4.7578557    1874.7032  0.039833062  0.038599318           13 
 3923000   0.62724152   -4.7836515     1873.651  0.039800556  0.038590317           16 
 3924000   0.61344839   -4.7807521    1870.9396  0.039732831  0.038581223            9 
 3925000   0.63947561   -4.7596974    1876.2633   0.03983574   0.03857217            8 
 3926000   0.62499767   -4.7379535    1874.7506  0.039793483  0.038563187           15 
 3927000    0.6170029   -4.7702794      1873.86  0.039764452  0.038554168           11 
 3928000    0.6299853   -4.7275077    1876.2385  0.039804789  0.038545142            5 
 3929000    0.6209991   -4.7614782    1874.0584  0.039748418   0.03853617            9 
 3930000   0.62605065   -4.7633459    1876.8815  0.039798167  0.038527131            7 
 3931000   0.62940944    -4.772531    1875.2186  0.039752789   0.03851811            8 
 3932000   0.61450868    -4.729816    1876.8575  0.039777414  0.038509075           12 
 3933000   0.62267746   -4.7580549    1879.2447  0.039817881  0.038500087            9 
 3934000   0.62776547   -4.7619327    1874.4876  0.039706991   0.03849108           19 
 3935000   0.62178574   -4.7431537    1880.1559   0.03981694  0.038482086            7 
 3936000   0.61595074   -4.7744357     1873.311  0.039661902  0.038473118           10 
 3937000     0.620901   -4.7394225    1885.1713  0.039902873  0.038464209            9 
 3938000   0.62060971   -4.7497787    1879.5861  0.039774548  0.038455292           13 
 3939000   0.62144819   -4.7616844    1877.5124   0.03972058  0.038446334           10 
 3940000   0.62353576   -4.7828207    1876.1075  0.039680784  0.038437337           14 
 3941000   0.63699061   -4.7628854    1881.4625  0.039783949  0.038428389            6 
 3942000   0.62391522   -4.7601802    1882.5653  0.039797168  0.038419508           11 
 3943000   0.60762083   -4.7614685    1879.5565  0.039723487  0.038410661            9 
 3944000   0.61015436   -4.7365807    1882.9365  0.039784832  0.038401794            7 
 3945000   0.62092687   -4.7529845    1881.6509   0.03974759  0.038392936           11 
 3946000   0.60506988   -4.7755214    1878.1256  0.039663067  0.038384005           12 
 3947000   0.62486137   -4.7616316    1878.8126  0.039667524  0.038375097           14 
 3948000   0.61386393   -4.7750917    1876.5193  0.039609071   0.03836624           13 
 3949000   0.61349693   -4.7555265    1886.4862  0.039809365  0.038357388            4 
 3950000   0.62008967   -4.7665314    1878.4759  0.039630294  0.038348477           15 
 3951000   0.63895022   -4.7628258    1884.3048  0.039743205  0.038339586            8 
 3952000   0.63748261    -4.749531    1877.8793  0.039597656  0.038330704           12 
 3953000   0.61431205   -4.7575726    1882.7688  0.039690717  0.038321812            4 
 3954000   0.62008119   -4.7610472    1878.2347  0.039585118  0.038312908            7 
 3955000   0.61736634   -4.7595599    1879.8139  0.039608384  0.038303969           19 
 3956000   0.62879576    -4.770543    1885.2212  0.039712277  0.038295095            8 
 3957000   0.61917932   -4.7537615     1879.861  0.039589357  0.038286229            7 
 3958000   0.62640631   -4.7578589    1881.7675  0.039619495  0.038277385           28 
 3959000   0.62769374    -4.764567    1879.1838  0.039555103   0.03826852            5 
 3960000   0.63153158   -4.7669581    1882.6079   0.03961717  0.038259677           15 
 3961000    0.6099257   -4.7762001    1880.8113   0.03956937   0.03825083            8 
 3962000   0.62759559   -4.7643063    1878.6404  0.039513722  0.038241976           10 
 3963000   0.62553081   -4.7852489    1882.8775  0.039592848  0.038233133            7 
 3964000   0.61529646   -4.7693248    1882.8627  0.039582549  0.038224303           12 
 3965000   0.62293781   -4.7633258    1883.2056  0.039579774  0.038215493           20 
 3966000   0.61372994   -4.7541954    1887.1005  0.039651633  0.038206634            9 
 3967000   0.62756061   -4.7818135    1878.0796  0.039452138  0.038197747           16 
 3968000   0.62273007   -4.7672619    1885.7657  0.039603614   0.03818891            9 
 3969000   0.60317962   -4.7875638    1879.9085  0.039470658  0.038180087           11 
 3970000   0.62942228   -4.7741165    1880.9877  0.039483369  0.038171238            9 
 3971000   0.61905981   -4.7697086     1884.068  0.039538068  0.038162412            4 
 3972000   0.62277246   -4.7642599       1884.8   0.03954347  0.038153634           17 
 3973000   0.62010868   -4.7550858    1885.0998  0.039539806  0.038144847            7 
 3974000   0.61601013   -4.7577474    1886.3038  0.039555104    0.0381361           25 
 3975000   0.62386069   -4.7628808     1886.176  0.039542474  0.038127331            6 
 3976000   0.61078571   -4.7501029     1885.698  0.039522509  0.038118544            7 
 3977000   0.61962309    -4.771536    1882.5675  0.039446977  0.038109777           11 
 3978000   0.60108141   -4.7729865    1884.1308   0.03946981  0.038100991           10 
 3979000   0.60441919   -4.7650076    1885.5029  0.039488626  0.038092145           18 
 3980000   0.61299005   -4.7639763    1884.3106   0.03945374  0.038083304           11 
 3981000   0.60400143   -4.7851515    1888.2826  0.039526975  0.038074406            5 
 3982000   0.62893622     -4.78112    1886.4218  0.039478106  0.038065604            6 
 3983000   0.60628339   -4.7630748     1891.513  0.039574714  0.038056826            9 
 3984000   0.61259568   -4.7693475    1887.2776  0.039476189  0.038048052           11 
 3985000   0.61041012   -4.7768709    1880.6313  0.039327295  0.038039258            4 
 3986000   0.60796743   -4.7699833    1883.5539  0.039378531  0.038030501            7 
 3987000   0.60840713   -4.7602843     1879.703  0.039288165  0.038021678           11 
 3988000   0.61610404   -4.7622552     1886.115    0.0394123  0.038012866            7 
 3989000   0.59713059   -4.7885453    1883.1401  0.039340272  0.038004084           12 
 3990000    0.6178452   -4.7775079    1881.6649  0.039299601  0.037995301           19 
 3991000   0.61350506   -4.7874834    1883.7076  0.039332407  0.037986518           15 
 3992000   0.61292711   -4.7850629    1882.8067  0.039303746  0.037977727            8 
 3993000   0.60689235   -4.7523954     1891.454  0.039474371  0.037968955            6 
 3994000   0.62470491   -4.7702453    1888.8356  0.039409857  0.037960276           12 
 3995000   0.61450583   -4.7585351    1887.3909  0.039369856  0.037951513           15 
 3996000   0.61205983    -4.783458     1884.127  0.039291937  0.037942743           10 
 3997000   0.61618527    -4.769877    1883.4937  0.039268904  0.037933913           19 
 3998000   0.62724188   -4.8038395    1880.4932  0.039196539  0.037925043            5 
 3999000   0.61375202   -4.7790312    1886.8487  0.039319177  0.037916221           10 
 4000000   0.61201001   -4.8006876    1877.4637  0.039113828  0.037907409           10 
 4001000   0.60857229   -4.7876584    1882.1942  0.039202579  0.037898559            9 
 4002000   0.62030115   -4.7763929      1884.64  0.039243712  0.037889709           14 
 4003000   0.60862755   -4.7629488     1887.348  0.039290281  0.037880976            8 
 4004000   0.61389201   -4.7814107    1883.2846  0.039195901  0.037872154            6 
 4005000   0.60475529   -4.7558628    1890.2897   0.03933187  0.037863407           35 
 4006000   0.61752943   -4.7631444    1889.0034  0.039295296  0.037854632           19 
 4007000   0.62224792   -4.7881833     1882.657  0.039153501  0.037845845           14 
 4008000   0.61300379   -4.7607081    1885.3673  0.039200086  0.037837074            7 
 4009000   0.61476568   -4.7638489    1885.3981  0.039190948  0.037828323           13 
 4010000   0.61001859   -4.7766325    1887.6391  0.039227745  0.037819505           45 
 4011000   0.60686819   -4.8049274    1887.9535  0.039224497  0.037810736           40 
 4012000   0.60202513    -4.804701    1888.0542  0.039216812   0.03780198           26 
 4013000   0.60544359   -4.7845454     1891.289  0.039274214  0.037793193           12 
 4014000   0.60817702   -4.7915222    1887.8233  0.039192478  0.037784425            7 
 4015000   0.62085329   -4.7719466    1886.6311  0.039157972  0.037775645           14 
 4016000   0.62299547   -4.7630236    1890.8145  0.039235028  0.037766873           11 
 4017000   0.61474971   -4.7586854    1882.2718  0.039048041  0.037758103            9 
 4018000   0.60864991   -4.7796466    1882.9758  0.039052925  0.037749277            8 
 4019000   0.60435175   -4.7651335    1886.4193  0.039114608  0.037740483           10 
 4020000   0.60616638   -4.8030568    1890.8868  0.039197487  0.037731662           10 
 4021000   0.60308826    -4.781114    1886.0235   0.03908695  0.037722849            6 
 4022000   0.61672886   -4.7909598    1889.0071  0.039139049   0.03771409           10 
 4023000   0.60596751   -4.7712422    1884.7026  0.039040157   0.03770527           21 
 4024000   0.61546274   -4.7753093    1887.4632  0.039087624  0.037696459            8 
 4025000   0.60588129   -4.8078156    1881.4711  0.038953853  0.037687673            6 
 4026000   0.60353558   -4.7925418    1884.3929  0.039004655  0.037678841           37 
 4027000   0.60975223   -4.8029053    1884.2524  0.038992061  0.037670035            7 
 4028000    0.6063706   -4.7962717    1877.4731  0.038842129   0.03766117           14 
 4029000   0.60977973   -4.7852045    1883.9486  0.038966423  0.037652336           20 
 4030000   0.59857694   -4.8243205    1888.3177  0.039047099  0.037643472           10 
 4031000    0.5911783   -4.7964007    1881.5473  0.038897446  0.037634602            7 
 4032000     0.607273   -4.7919157    1881.1935  0.038880487   0.03762571           17 
 4033000   0.61126343   -4.7984158    1884.1753   0.03893246    0.0376168           15 
 4034000   0.59439291   -4.7902638    1882.5138  0.038888485  0.037607947            6 
 4035000   0.62036238    -4.766826    1887.1339  0.038974264  0.037599125           18 
 4036000   0.60329256   -4.8066275    1883.7493  0.038894725  0.037590284            9 
 4037000    0.5996723   -4.8118608    1884.4399  0.038899346  0.037581472            9 
 4038000   0.61067072   -4.7961051    1888.2928  0.038969225    0.0375727            9 
 4039000   0.60851432   -4.7931195    1886.9308  0.038931477  0.037563868            7 
 4040000   0.59382931   -4.8113211    1880.4962  0.038789113  0.037555023           27 
 4041000   0.59894113    -4.806883    1884.0579  0.038852963  0.037546176            8 
 4042000   0.59005033   -4.7761144    1890.8828  0.038984059  0.037537325            8 
 4043000   0.61601046   -4.7947019     1884.573  0.038844361  0.037528508            9 
 4044000   0.59979686   -4.7860826    1888.2352  0.038910221  0.037519685           13 
 4045000    0.6024646    -4.795601    1886.8579  0.038872228  0.037510884           16 
 4046000   0.60122119   -4.8114711    1883.0473  0.038784134  0.037502097           26 
 4047000   0.60863911   -4.8152451    1884.8722  0.038812128  0.037493288           19 
 4048000    0.6048288   -4.7852363    1886.7323  0.038840833  0.037484482           10 
 4049000   0.59185787   -4.7900974    1886.6342  0.038829221  0.037475687            6 
 4050000   0.59859594   -4.7937644    1891.6773  0.038923401   0.03746693           10 
 4051000    0.5968333    -4.800164    1891.6195  0.038912604  0.037458169            7 
 4052000   0.61792594   -4.8240996    1884.6991  0.038760677   0.03744943            6 
 4053000   0.60190254   -4.7786973    1888.5425  0.038830136  0.037440668            8 
 4054000   0.59856471   -4.7863731    1888.7805  0.038825451  0.037431911            5 
 4055000    0.6076751   -4.8087039    1886.4842  0.038768684   0.03742315           30 
 4056000    0.6004729   -4.7818909    1890.8291  0.038848395  0.037414415            8 
 4057000   0.59998309   -4.7925114    1892.6728   0.03887669  0.037405671           13 
 4058000   0.59581229   -4.8174911     1892.778   0.03886927  0.037396966            8 
 4059000   0.60416853   -4.8124904    1885.4027  0.038708277  0.037388219           41 
 4060000   0.60216179   -4.7784328    1897.4353  0.038945716  0.037379518            5 
 4061000   0.60792668   -4.8035052    1890.5797  0.038795447  0.037370849           22 
 4062000   0.60925836   -4.8125608    1888.5973  0.038745226  0.037362185            8 
 4063000     0.598903   -4.7998965    1885.7759  0.038677822  0.037353465           17 
 4064000   0.60788108   -4.8094476    1894.8033  0.038853414  0.037344798           10 
 4065000   0.60831763   -4.7861444    1892.4901  0.038796435  0.037336126            8 
 4066000   0.59905094   -4.8178166    1887.1997  0.038678466  0.037327397           22 
 4067000   0.59972116   -4.7945246    1888.5704  0.038697041  0.037318682            8 
 4068000   0.58243826   -4.8056885    1888.1405  0.038678722  0.037310034            9 
 4069000   0.61170177   -4.8234157    1892.9946  0.038768629  0.037301358           39 
 4070000   0.61044358   -4.7889561    1893.7564  0.038774701  0.037292695            9 
 4071000   0.60122821   -4.8017409     1891.189  0.038712623  0.037284008            8 
 4072000    0.6063817   -4.8175403    1891.5151  0.038709789  0.037275301           10 
 4073000   0.60632479   -4.7964385    1892.6573  0.038723654  0.037266612            7 
 4074000   0.59422461   -4.8161033    1892.5542  0.038712039  0.037257964           22 
 4075000   0.60254443      -4.7936    1892.0471   0.03869217  0.037249256           14 
 4076000   0.60820177   -4.8015221    1893.0382  0.038702941  0.037240554            9 
 4077000   0.60742308   -4.7772009    1890.9524  0.038650813  0.037231873            6 
 4078000   0.58621016   -4.7997187    1890.7794  0.038637801  0.037223245           16 
 4079000   0.59490754   -4.8003564    1892.6321  0.038666179  0.037214586           17 
 4080000   0.60245197   -4.8087674    1891.4188  0.038631921  0.037205916            7 
 4081000   0.59427323   -4.8218062    1891.2163  0.038618318  0.037197233            7 
 4082000     0.575899   -4.7936081    1894.5756  0.038677438  0.037188533           11 
 4083000   0.60803224   -4.8206196    1896.3208  0.038703585  0.037179855           21 
 4084000   0.59475749   -4.7914694    1887.5792  0.038515737  0.037171124           14 
 4085000   0.60653132   -4.8073005    1892.9442  0.038615752  0.037162405           10 
 4086000   0.59753072   -4.8011014    1892.8488  0.038604356  0.037153691            8 
 4087000   0.59039481   -4.7995746    1890.3038  0.038543018  0.037145004           15 
 4088000   0.59989082   -4.7992242    1888.7358  0.038501627  0.037136274           16 
 4089000   0.60213249   -4.8168568     1891.593  0.038550441  0.037127549           16 
 4090000   0.59905667   -4.8039297    1891.3234  0.038535522  0.037118889           22 
 4091000    0.5844267   -4.8145177    1891.2141  0.038523875  0.037110217            8 
 4092000   0.62467034   -4.7975087    1892.5015  0.038540679  0.037101527           22 
 4093000   0.59366332   -4.8052992    1891.0734  0.038502186  0.037092802           17 
 4094000   0.60829497     -4.81043    1894.8394  0.038569438  0.037084099           11 
 4095000   0.60566579   -4.8097996    1886.8011   0.03839644  0.037075371            8 
 4096000   0.60358815   -4.8205059    1891.6022  0.038484746   0.03706663            7 
 4097000   0.58909403   -4.8134008    1893.5499  0.038514969  0.037057917           16 
 4098000   0.58169689   -4.8160701    1885.9085  0.038350182  0.037049187           10 
 4099000    0.5815983   -4.8234404    1888.4597   0.03839269  0.037040432            7 
 4100000   0.60191958   -4.8363173    1892.8111  0.038471771  0.037031659           11 
 4101000   0.59986757   -4.8123025    1888.0388  0.038365415    0.0370229           12 
 4102000   0.60930032     -4.80332     1891.994  0.038436413   0.03701417           10 
 4103000   0.59847228   -4.8218316    1890.8349  0.038403503  0.037005511           23 
 4104000   0.59027557   -4.8245168    1887.9632  0.038335836  0.036996786           25 
 4105000   0.59071658   -4.8100491    1897.5475  0.038521062  0.036988082           10 
 4106000   0.59408157   -4.8267684    1892.2783   0.03840474  0.036979398            9 
 4107000   0.60376458   -4.8293145    1886.9619  0.038287515  0.036970674            7 
 4108000   0.59946184   -4.7918462    1895.8378  0.038458248  0.036961983            8 
 4109000   0.57916461    -4.807678    1889.1682  0.038313624   0.03695325            6 
 4110000   0.58642202   -4.8002235     1894.498  0.038412369  0.036944527           16 
 4111000   0.59846559   -4.8253565    1891.3229  0.038338663  0.036935844           13 
 4112000    0.5958014   -4.8186158    1895.2008  0.038407928  0.036927161           16 
 4113000   0.60289997   -4.8159984    1892.4181   0.03834221  0.036918473           18 
 4114000   0.59246708   -4.8182964     1892.804  0.038340706  0.036909809           13 
 4115000   0.58356354   -4.8119974    1893.9963  0.038355534  0.036901138            8 
 4116000   0.60419713   -4.8288904    1890.9632  0.038284807  0.036892461           15 
 4117000   0.59055884   -4.8156294    1895.3831  0.038364972  0.036883774           23 
 4118000   0.58882368   -4.8124946    1891.5617  0.038278326  0.036875079           12 
 4119000   0.58408753   -4.8121663    1889.1988  0.038221226    0.0368664           12 
 4120000    0.5843268    -4.835418    1892.1714  0.038272074  0.036857706           10 
 4121000   0.60038635   -4.8292313    1891.9243  0.038257792  0.036849008           12 
 4122000   0.58635062   -4.8253452    1895.9333  0.038329558  0.036840315           13 
 4123000   0.59006511   -4.8145399    1892.6387  0.038253673  0.036831647            7 
 4124000   0.58774599   -4.8219051    1890.5689  0.038202571   0.03682295           20 
 4125000   0.59365912   -4.8263226    1887.9558  0.038140522  0.036814264           12 
 4126000   0.58722266   -4.8051836    1897.3933  0.038321887  0.036805631           21 
 4127000   0.59593317   -4.8145809    1891.5431  0.038194473  0.036796957           13 
 4128000   0.58030807   -4.8259621    1889.7851  0.038149731   0.03678828            9 
 4129000   0.59679464   -4.8108258    1895.9511  0.038264936  0.036779621           16 
 4130000   0.59384238   -4.8204832     1890.672  0.038149152  0.036770975            8 
 4131000   0.58922396   -4.8247805    1891.1357  0.038149271  0.036762348           11 
 4132000   0.59107895   -4.8270646    1889.8961  0.038115039  0.036753716           10 
 4133000   0.59245975   -4.8261536    1894.5321  0.038199291  0.036745067           20 
 4134000   0.59555873   -4.8062999    1890.7032  0.038112869  0.036736466            6 
 4135000   0.59274436   -4.8249362    1894.4381  0.038178922  0.036727869           14 
 4136000   0.59649182   -4.8362377    1895.8797  0.038198737   0.03671927           19 
 4137000   0.59723522   -4.8263691    1895.6902  0.038185685  0.036710641           13 
 4138000   0.60273806   -4.8272864    1894.7357  0.038157237  0.036701987           19 
 4139000   0.59144431   -4.8129737     1893.141   0.03811591  0.036693342           11 
 4140000   0.59591348    -4.821756    1892.4458  0.038092708  0.036684719           13 
 4141000    0.5776334   -4.8157517    1892.2176  0.038078918  0.036676073           20 
 4142000   0.58753085   -4.8038134    1896.5552  0.038156994  0.036667423           11 
 4143000   0.59132407   -4.8370915    1898.0135  0.038177116  0.036658806           13 
 4144000   0.58834436   -4.8408064    1895.4055  0.038115457  0.036650177            9 
 4145000   0.59370205   -4.8158245    1896.4676  0.038127615  0.036641606           20 
 4146000   0.59465297   -4.8263557    1892.1372   0.03803138  0.036633013           16 
 4147000   0.59493845   -4.8339698    1894.3822  0.038067322  0.036624389           25 
 4148000   0.59466942   -4.8042747    1895.6509  0.038083634  0.036615818           14 
 4149000   0.59327813   -4.8175556    1894.4498  0.038050329  0.036607215            4 
 4150000    0.5957734   -4.8289737    1894.4288   0.03804074  0.036598583           24 
 4151000   0.58019477   -4.8531525    1896.3915  0.038070977  0.036589963           13 
 4152000   0.59030429   -4.8204923    1894.5179  0.038024202  0.036581365            9 
 4153000   0.58853857    -4.837261    1894.6216  0.038017129  0.036572743            8 
 4154000   0.57765814   -4.8314107    1893.0287  0.037976022  0.036564101           18 
 4155000   0.58921203   -4.8328918    1898.9103  0.038084844  0.036555521           10 
 4156000   0.60345287   -4.8445741    1895.0792  0.037998861  0.036546917           24 
 4157000   0.58035199   -4.8107737    1895.3373  0.037994895  0.036538337           18 
 4158000   0.58631481   -4.8049205    1896.5042  0.038009142  0.036529769           15 
 4159000    0.5815495   -4.8408928    1887.5681  0.037820952  0.036521188            7 
 4160000   0.59148761   -4.8318094    1896.2697  0.037986172    0.0365126           12 
 4161000    0.5849826   -4.8562732    1892.4982   0.03790151  0.036503967           15 
 4162000   0.58378506   -4.8296098    1896.4261  0.037971049  0.036495338            9 
 4163000   0.58070026   -4.8422141     1891.464  0.037862599  0.036486664           10 
 4164000   0.59842479   -4.8419124    1892.4121   0.03787248   0.03647798           13 
 4165000   0.57469466   -4.8519943    1890.4755  0.037824639  0.036469285           20 
 4166000   0.59124659   -4.8240793    1890.4027  0.037814105   0.03646062           20 
 4167000   0.57643336    -4.812286     1896.091  0.037918786  0.036451971           10 
 4168000   0.58525951   -4.8308722    1891.5431  0.037818761  0.036443306           11 
 4169000    0.5818543   -4.8398636    1893.9312  0.037857423  0.036434622           20 
 4170000   0.58060962   -4.8487615    1892.9768  0.037829273  0.036425923           16 
 4171000   0.58203591    -4.839852    1896.0043   0.03788069  0.036417248           19 
 4172000    0.6015589   -4.8326791     1893.923  0.037830038  0.036408568           19 
 4173000   0.58313295   -4.8481372    1890.3838  0.037750296   0.03639989           11 
 4174000   0.59029382   -4.8251355    1893.6901  0.037807261  0.036391247           10 
 4175000   0.58299342    -4.842199    1894.5076  0.037814522  0.036382576           10 
 4176000   0.58380362   -4.8373299    1892.4834  0.037765073  0.036373933           17 
 4177000   0.58547595    -4.828152    1894.9024  0.037804294  0.036365295            7 
 4178000   0.58147684   -4.8152765    1898.4793   0.03786659  0.036356674           12 
 4179000   0.57888235   -4.8153397    1895.3529  0.037795183  0.036348019           12 
 4180000   0.58860092   -4.8555397    1890.9357  0.037698081  0.036339326            8 
 4181000   0.59772247   -4.8448179    1890.9167  0.037688685  0.036330655            9 
 4182000   0.58284098   -4.8385735    1892.6513  0.037714237  0.036321979           14 
 4183000   0.58124007   -4.8150145     1895.669   0.03776534  0.036313351            9 
 4184000   0.59453234   -4.8287774    1896.8827  0.037780488  0.036304739           28 
 4185000   0.57801213   -4.8439416    1896.5977  0.037765785  0.036296109           18 
 4186000   0.59087196   -4.8670495    1890.7547  0.037640443  0.036287456           11 
 4187000    0.5768181   -4.8396548    1894.3085  0.037702183  0.036278758           11 
 4188000   0.57368711   -4.8500289    1892.2825  0.037652868  0.036270068           11 
 4189000   0.57074167   -4.8395779    1892.0838  0.037639926  0.036261419           16 
 4190000   0.57970058    -4.852855    1891.5292  0.037619912  0.036252812            9 
 4191000   0.58695008   -4.8355687    1893.4491  0.037649112  0.036244154           16 
 4192000   0.57691764    -4.861897    1890.4443  0.037580397  0.036235526           11 
 4193000   0.58432766   -4.8307201    1890.8452  0.037579401  0.036226867           11 
 4194000   0.58169372   -4.8800485    1891.3934  0.037581335  0.036218172           21 
 4195000   0.57489088    -4.836028    1891.4517  0.037573535  0.036209498           24 
 4196000    0.5699256   -4.8433109    1891.3897  0.037563348  0.036200869           26 
 4197000   0.56836944   -4.8384222    1892.5143  0.037576727  0.036192224           12 
 4198000   0.57679886   -4.8501403    1896.4076   0.03764506  0.036183552           24 
 4199000   0.57288123   -4.8488249    1893.4807  0.037578008  0.036174871           15 
 4200000   0.56780745    -4.843943    1890.5165  0.037510249  0.036166228           26 
 4201000   0.58051621    -4.844249     1895.648  0.037603111  0.036157609           14 
 4202000   0.57876226   -4.8376444    1892.3053   0.03752787  0.036148986            8 
 4203000   0.58528696   -4.8558164    1897.2964  0.037617901  0.036140339            8 
 4204000   0.57788319   -4.8623656    1889.2212  0.037448883  0.036131713           23 
 4205000   0.58194922   -4.8345423    1892.7153  0.037509221  0.036123039           10 
 4206000   0.57129914   -4.8396536    1893.6876  0.037519568  0.036114401           14 
 4207000   0.58539553   -4.8629411    1893.2599  0.037502176  0.036105754           16 
 4208000   0.58920317   -4.8501483    1896.1123  0.037549752  0.036097122           17 
 4209000   0.57894646   -4.8389685    1902.6372  0.037670017  0.036088528           10 
 4210000   0.58083661   -4.8656769    1898.8185  0.037585481  0.036079952           17 
 4211000   0.57526586     -4.85337     1894.025  0.037481695  0.036071325           14 
 4212000   0.57429976   -4.8571602     1894.966  0.037491413  0.036062725           10 
 4213000   0.57470173   -4.8549343    1895.6192  0.037495434  0.036054085           15 
 4214000   0.57290529   -4.8308658    1894.7274  0.037468901  0.036045506            8 
 4215000   0.58722013   -4.8314459    1900.7803  0.037579683  0.036036919           16 
 4216000    0.5831565    -4.846402    1895.3162  0.037462764  0.036028348           11 
 4217000   0.57942052    -4.852493    1892.4282   0.03739681  0.036019763            6 
 4218000   0.57305477   -4.8648576    1896.1203  0.037460889  0.036011173           12 
 4219000   0.57614959   -4.8319876    1897.5246  0.037479746  0.036002581           26 
 4220000   0.58087529     -4.84461    1896.0193  0.037441139  0.035993954           22 
 4221000   0.58229273   -4.8457606    1891.3458  0.037340002  0.035985331           20 
 4222000   0.57681578   -4.8443419    1898.1756  0.037465965  0.035976688           37 
 4223000   0.57519289   -4.8540215     1895.297  0.037400288  0.035968042           21 
 4224000   0.58639233   -4.8635319    1896.1138  0.037407547  0.035959391            7 
 4225000   0.56909108    -4.851326    1897.9824  0.037435551  0.035950771           21 
 4226000   0.58311223   -4.8445636    1896.3004  0.037393525  0.035942172            5 
 4227000   0.57911432   -4.8495209    1891.0886   0.03728193  0.035933611           15 
 4228000   0.57513833   -4.8475952    1897.4272  0.037398044  0.035925039           10 
 4229000   0.57244093   -4.8849013    1891.8441  0.037279186  0.035916418           13 
 4230000   0.58025609   -4.8749047    1891.0994  0.037255702   0.03590776           15 
 4231000   0.57911289    -4.836454    1896.4237  0.037351763  0.035899141           16 
 4232000   0.57706444   -4.8368543     1896.157  0.037337684  0.035890562           15 
 4233000   0.58322171   -4.8392276    1897.8423  0.037362042  0.035881985           13 
 4234000   0.56704932   -4.8479063    1895.6985  0.037311023   0.03587339           11 
 4235000   0.58632153   -4.8595636    1897.8311  0.037344178  0.035864805           19 
 4236000   0.57232582   -4.8550338    1895.3317  0.037286192  0.035856191           11 
 4237000    0.5708214   -4.8598015    1894.6323  0.037263635  0.035847569           12 
 4238000    0.5729895   -4.8207034    1895.0986  0.037264013  0.035838965           15 
 4239000   0.57126104   -4.8336539    1895.6891   0.03726683  0.035830417           19 
 4240000   0.58123021    -4.869981    1897.3591  0.037290864   0.03582185            9 
 4241000   0.58840942   -4.8755682    1892.9943  0.037196305  0.035813225           19 
 4242000   0.56143696   -4.8528036     1895.653  0.037239765    0.0358046           12 
 4243000   0.56359922   -4.8540533    1898.9352  0.037295451  0.035796013           52 
 4244000   0.57262931   -4.8657125    1896.3816  0.037236522  0.035787409           11 
 4245000   0.57321452   -4.8540895    1898.2727  0.037264875  0.035778812            9 
 4246000   0.56592003   -4.8329026     1898.126  0.037253218  0.035770192           15 
 4247000   0.57065353   -4.8711236    1893.6295  0.037156219   0.03576159            9 
 4248000    0.5742051   -4.8527635    1894.7406  0.037169268  0.035753035           11 
 4249000   0.58161863   -4.8534766    1898.3838  0.037231973  0.035744466            8 
 4250000   0.57473367   -4.8686464     1897.988  0.037215451  0.035735905            6 
 4251000   0.55965229   -4.8715361    1896.5129   0.03717778  0.035727304           22 
 4252000   0.56554979   -4.8566109    1897.4859  0.037188105  0.035718756           13 
 4253000   0.57038243   -4.8709522     1899.475  0.037218336  0.035710196            6 
 4254000   0.57749938   -4.8472265    1893.6894   0.03709625  0.035701604           25 
 4255000    0.5791206   -4.8856707    1895.9925  0.037132639  0.035692977            8 
 4256000   0.56597202    -4.854965     1895.798  0.037120105  0.035684388           53 
 4257000   0.58103472   -4.8733628    1895.4143  0.037103873  0.035675773           26 
 4258000   0.58900912   -4.8618705    1894.7515  0.037082189  0.035667177            8 
 4259000   0.56861095     -4.87739    1894.8289  0.037074996  0.035658574           25 
 4260000   0.56682824   -4.8660501    1892.8326  0.037027241  0.035649951           30 
 4261000   0.57930153   -4.8881218    1891.9901  0.037002075  0.035641355            6 
 4262000   0.57521068   -4.8634207    1894.0821  0.037034297  0.035632802           13 
 4263000    0.5688829   -4.8670119    1898.0908  0.037103973  0.035624292            9 
 4264000   0.56823355   -4.8807015    1897.7755  0.037089109  0.035615751           20 
 4265000   0.57567297   -4.8812241    1892.3446  0.036974298  0.035607177            9 
 4266000   0.56887255   -4.8670718    1899.9787  0.037114758  0.035598618            7 
 4267000   0.56770827   -4.8752641    1894.5138  0.036999331  0.035590007            9 
 4268000   0.57060682   -4.8754772    1894.2376   0.03698527  0.035581435           12 
 4269000   0.56863366   -4.8716713    1904.1666  0.037170427  0.035572889           12 
 4270000   0.55997942    -4.860935     1895.127  0.036985304  0.035564353           15 
 4271000   0.56968351   -4.8800304    1896.2089  0.036997754  0.035555775           12 
 4272000   0.55038386   -4.8606894    1900.3826  0.037070509  0.035547262            7 
 4273000   0.59299534   -4.8568514    1897.6091  0.037007744  0.035538752           10 
 4274000   0.55767915    -4.873373    1897.8231  0.037003258  0.035530225           16 
 4275000   0.56876808   -4.8711359    1897.3736   0.03698584  0.035521676           10 
 4276000   0.56844738   -4.8685582    1893.8037  0.036907617  0.035513104           11 
 4277000   0.56866356   -4.8634847    1898.9636  0.036999525  0.035504578           18 
 4278000   0.56804966   -4.8695409    1896.2023  0.036937088  0.035496035           14 
 4279000   0.55828715   -4.8869719    1896.0395  0.036925284  0.035487498           13 
 4280000   0.56343709   -4.8949682    1893.8833  0.036874675  0.035478951           29 
 4281000   0.56881948   -4.8813469    1893.3754  0.036856174  0.035470398           30 
 4282000   0.55662618   -4.8693959    1898.1706  0.036940888  0.035461839            8 
 4283000   0.57610901   -4.8868326    1899.0555  0.036949481  0.035453278           14 
 4284000   0.55734346   -4.8670063    1901.5276  0.036988944   0.03544474           23 
 4285000   0.58071812   -4.8764518    1897.8211  0.036908228   0.03543622            8 
 4286000   0.56363131   -4.8622978    1896.4031  0.036872047  0.035427695           10 
 4287000   0.56323722   -4.8797022    1897.6448  0.036887583  0.035419183           20 
 4288000   0.57622993   -4.8789367    1896.4143  0.036855067  0.035410664           15 
 4289000    0.5675005   -4.8851361    1904.8658  0.037010682  0.035402203           11 
 4290000   0.55409513   -4.8958922    1899.3781  0.036895456  0.035393707           45 
 4291000   0.55991915   -4.8925576    1896.9375  0.036839461  0.035385204           18 
 4292000   0.55739004   -4.8889383    1902.2356  0.036933746  0.035376706           67 
 4293000   0.57347205   -4.8746114     1898.569  0.036853968  0.035368204           39 
 4294000   0.56179439   -4.8786909    1897.5554  0.036825714  0.035359707           49 
 4295000   0.55903039   -4.8886406    1898.6157  0.036837712  0.035351206           77 
 4296000   0.57188461   -4.8789017    1907.0048  0.036991868  0.035342727           23 
 4297000    0.5690539   -4.8785647    1902.1948  0.036889978  0.035334286           11 
 4298000   0.56219691   -4.8661573    1903.0619  0.036898206  0.035325865            8 
 4299000   0.55623438   -4.8798396    1900.3757  0.036837553  0.035317421           10 
 4300000   0.56334492   -4.9014641    1902.9925    0.0368797  0.035308951            9 
 4301000   0.55401144   -4.8740154    1897.3373  0.036761554  0.035300518            7 
 4302000   0.56115528   -4.8788845    1898.4758  0.036775062  0.035292042           14 
 4303000   0.57616217   -4.8764575    1897.8306   0.03675402  0.035283562           24 
 4304000   0.56939206   -4.8927361    1896.8389   0.03672628  0.035275055           12 
 4305000   0.57099592    -4.897622    1896.1255  0.036703939  0.035266562           13 
 4306000    0.5678948   -4.8581122    1901.3733  0.036796975   0.03525811           10 
 4307000   0.55936789   -4.9073893    1900.2326  0.036766361   0.03524963           19 
 4308000   0.55782799   -4.8900889    1897.1471   0.03669814  0.035241136           15 
 4309000   0.57428939   -4.8864144    1897.7561  0.036701403  0.035232628           19 
 4310000   0.56956646   -4.9086969    1898.5431  0.036708104  0.035224116           11 
 4311000   0.54954034   -4.8624785    1894.6296  0.036623939  0.035215632           11 
 4312000   0.56940168   -4.8957799    1899.9633  0.036718524  0.035207156           41 
 4313000   0.56196323   -4.8749236    1896.1034  0.036635432  0.035198703           16 
 4314000   0.57679515   -4.8893037    1894.6361  0.036598595  0.035190248           41 
 4315000   0.56924173   -4.8800559    1896.5939  0.036627924  0.035181789           51 
 4316000   0.56521803   -4.8950058    1896.9741  0.036626779  0.035173304           18 
 4317000   0.56416454   -4.8778552    1894.1504  0.036563786  0.035164778           26 
 4318000   0.56305996   -4.8896056    1897.5865  0.036621633   0.03515626           49 
 4319000   0.55394986   -4.8831806    1897.6503  0.036614384  0.035147783           14 
 4320000   0.56602936   -4.9014432    1899.2933  0.036637603  0.035139315           13 
 4321000   0.55762788   -4.8772418    1903.1103  0.036702736  0.035130836           11 
 4322000   0.56625299   -4.8957251    1899.7109  0.036628699  0.035122357           14 
 4323000   0.55542806   -4.8946024    1895.1209  0.036531747  0.035113857            9 
 4324000   0.54787304   -4.8943443    1900.8001   0.03663275   0.03510534           42 
 4325000   0.56362477   -4.9033389    1901.7091  0.036641795  0.035096849           25 
 4326000   0.55454787   -4.8822292    1902.3021  0.036644746  0.035088356           74 
 4327000   0.55461268   -4.8852742    1899.6639  0.036585469  0.035079862           22 
 4328000   0.55586261   -4.8881063    1901.0828  0.036604337    0.0350714           10 
 4329000    0.5575129   -4.9027754     1894.303  0.036465369  0.035062933           53 
 4330000   0.55941037   -4.8922395     1901.528  0.036595997  0.035054459           28 
 4331000    0.5613776   -4.9019288    1897.4385  0.036508861  0.035045956           11 
 4332000   0.56268185   -4.8911521    1894.8373  0.036450395   0.03503748            9 
 4333000   0.55789926   -4.9021407    1902.7214   0.03659361  0.035028976           30 
 4334000   0.55818444    -4.902429    1898.4441  0.036502924  0.035020503           10 
 4335000   0.55308695    -4.890004    1900.3513  0.036531166   0.03501203           13 
 4336000   0.56253659   -4.9051496    1901.8549  0.036551639  0.035003534           26 
 4337000    0.5585312   -4.8953273    1894.2431  0.036396954  0.034995016            7 
 4338000   0.55964818   -4.9037994    1898.9672  0.036479315  0.034986535            8 
 4339000   0.54927677   -4.8888261    1894.2004  0.036379357  0.034978042           13 
 4340000   0.56033213   -4.9015297    1900.3564  0.036489178  0.034969516           10 
 4341000   0.55570692   -4.8913274    1899.5541  0.036465371  0.034961006           20 
 4342000    0.5499326    -4.895929    1896.6738  0.036401692  0.034952492           16 
 4343000   0.55484568   -4.9098328    1900.4796  0.036466337  0.034943964           11 
 4344000    0.5586801   -4.8963795    1894.3264  0.036339903  0.034935463           15 
 4345000   0.56675112   -4.9052908    1898.2153  0.036406124  0.034926925           19 
 4346000   0.55734489    -4.899066     1895.346  0.036342729  0.034918369           17 
 4347000   0.55153383   -4.8935606    1896.7898  0.036362046  0.034909841           20 
 4348000   0.54676231   -4.8818438     1897.252  0.036362543  0.034901295           17 
 4349000   0.54834926   -4.9050146    1898.9976  0.036387629  0.034892753           34 
 4350000   0.53962105   -4.9041045    1900.1471  0.036401285  0.034884236           33 
 4351000   0.55727164   -4.9018108    1896.4705  0.036322502    0.0348757           16 
 4352000   0.54512383   -4.9070658    1889.0216  0.036171523  0.034867153           23 
 4353000   0.55914026   -4.9100975    1898.7392  0.036349246   0.03485858           15 
 4354000   0.53960215   -4.8958235    1896.2994    0.0362942  0.034850044           13 
 4355000   0.55327048   -4.8994319    1894.8534  0.036258198  0.034841508           27 
 4356000   0.54654328   -4.9046341    1895.4925  0.036262101  0.034832974           42 
 4357000   0.55383826   -4.8880789    1899.1619   0.03632396  0.034824479           13 
 4358000   0.54538607   -4.9238735     1897.394  0.036281819  0.034815975           15 
 4359000   0.54370227   -4.8929358    1899.0234  0.036304646  0.034807481            9 
 4360000    0.5594139   -4.9059763    1899.1363  0.036298477  0.034798974           10 
 4361000   0.55791195   -4.9245048    1895.6267   0.03622309  0.034790435           26 
 4362000   0.55481179   -4.9041941    1899.4704  0.036288216  0.034781916           24 
 4363000   0.56078981   -4.9212335     1897.178  0.036236114  0.034773412           14 
 4364000   0.54746558   -4.8935134    1896.4391  0.036213701  0.034764907           31 
 4365000   0.57049445   -4.8891677    1893.9053  0.036157031  0.034756377           18 
 4366000   0.56291072   -4.9029112    1895.8595  0.036186049  0.034747829           21 
 4367000   0.56320035   -4.9109772    1900.6994  0.036270121  0.034739286           33 
 4368000   0.54633206   -4.9007118     1896.923  0.036189771  0.034730735           16 
 4369000   0.55547295   -4.9009495    1894.9747  0.036144326  0.034722242           24 
 4370000    0.5531938   -4.9202145    1897.1581  0.036177691  0.034713701           18 
 4371000   0.55454196   -4.9095041    1894.3083  0.036115083  0.034705165           12 
 4372000   0.54771479   -4.9098508    1900.9934  0.036234245  0.034696675           11 
 4373000     0.558972   -4.9211329    1895.9695  0.036130222  0.034688152           29 
 4374000   0.55629691   -4.9230909    1894.0849  0.036086055   0.03467966           22 
 4375000   0.55550851    -4.897787    1894.4983  0.036085683  0.034671148            9 
 4376000   0.55473611   -4.9003821    1895.0382  0.036087717  0.034662646           32 
 4377000   0.54820142   -4.8824054    1899.3655  0.036161859  0.034654157           14 
 4378000   0.54481911   -4.9140182    1894.3486  0.036058104  0.034645655            9 
 4379000   0.55033345   -4.8903767    1897.2885  0.036105817  0.034637116           13 
 4380000   0.56538579    -4.907279    1894.2527  0.036039816  0.034628574           17 
 4381000   0.55398152   -4.9024691    1898.1315   0.03610537  0.034620033           11 
 4382000   0.55004394   -4.9215966    1894.0927  0.036020324  0.034611531            5 
 4383000   0.55130253   -4.8884782    1898.5668   0.03609717  0.034603059            9 
 4384000    0.5517015   -4.8905819    1900.4499  0.036124732  0.034594593            8 
 4385000   0.54858916   -4.9039526    1895.2244  0.036017188  0.034586112           18 
 4386000   0.55331073   -4.9056877    1899.3899  0.036088119  0.034577612            9 
 4387000   0.54599739   -4.9026713    1899.8026  0.036087733  0.034569127           14 
 4388000   0.55733699   -4.8857298    1898.9118  0.036062591   0.03456065            9 
 4389000   0.54779738   -4.9047892    1895.2071  0.035984034  0.034552179            8 
 4390000   0.55796007   -4.9238221    1898.1272  0.036031268  0.034543696           11 
 4391000   0.52898009   -4.9304926     1893.817  0.035941262  0.034535202           18 
 4392000   0.54900817   -4.9258506    1892.4315  0.035906791  0.034526663           29 
 4393000   0.56265514   -4.8988814    1891.1891   0.03587505  0.034518143            8 
 4394000   0.52883596   -4.9059523    1898.3052  0.036001843  0.034509634           23 
 4395000   0.53623278   -4.9205722    1892.7034  0.035887436  0.034501142           14 
 4396000   0.55480781   -4.9296385    1896.3066  0.035947578  0.034492635           15 
 4397000   0.55164156   -4.9037446    1896.3611  0.035940434  0.034484139           10 
 4398000   0.55308957   -4.9096842    1893.3505  0.035875219  0.034475642           14 
 4399000   0.55809173   -4.9076028    1897.5759  0.035947108  0.034467197           27 
 4400000   0.56233849   -4.8865073    1898.4566  0.035955618  0.034458753           32 
 4401000   0.53326918   -4.8959903    1899.0729  0.035959118   0.03445033           13 
 4402000   0.54339703   -4.8900567     1900.036  0.035969181  0.034441935            9 
 4403000   0.55541371   -4.9078938    1895.6447  0.035877899  0.034433504           14 
 4404000   0.54581936   -4.9196645    1895.8734  0.035874081  0.034425025           17 
 4405000   0.54602066   -4.9136334    1894.3607  0.035837319   0.03441655           15 
 4406000   0.53352737   -4.9337673    1894.2572  0.035827227  0.034408022           37 
 4407000   0.54473443   -4.9309721    1899.6017  0.035920159  0.034399488           25 
 4408000   0.54550189   -4.9301898    1895.4871  0.035834224  0.034390973            8 
 4409000   0.54257852    -4.936149    1893.1073  0.035781117  0.034382455            6 
 4410000   0.55508362   -4.9341694    1891.6562  0.035745583  0.034373948           12 
 4411000    0.5440577   -4.9354015    1891.7695  0.035739619  0.034365431           13 
 4412000   0.53168373   -4.9142438    1894.7886  0.035788543  0.034356929            8 
 4413000    0.5519223   -4.9266712    1896.6631  0.035815831  0.034348467           15 
 4414000   0.54815106   -4.9174198    1899.0064  0.035851957  0.034339987           12 
 4415000   0.53587483   -4.9118675    1889.4812  0.035664047  0.034331516           16 
 4416000   0.55708371   -4.9173216    1889.7117   0.03566032  0.034323004           33 
 4417000   0.54544322   -4.9342758    1897.7698  0.035804274  0.034314495           15 
 4418000   0.55058111   -4.9236796    1893.2883  0.035711641  0.034306037           34 
 4419000   0.54408529   -4.9267192    1897.4747  0.035782506  0.034297587           16 
 4420000   0.55824129   -4.9141017    1900.9247  0.035839455  0.034289134           24 
 4421000   0.54946678   -4.9097628    1897.3732  0.035764405  0.034280702           24 
 4422000   0.54729797   -4.9233814    1895.6402  0.035723659  0.034272266           20 
 4423000    0.5471852   -4.9338318    1894.5638  0.035695301  0.034263776           12 
 4424000   0.53509794   -4.9395381    1893.7977  0.035672802   0.03425529           29 
 4425000   0.54156439   -4.9208186    1895.0987   0.03568924  0.034246808           38 
 4426000   0.53912362   -4.9187637    1891.2151  0.035608056  0.034238333           15 
 4427000   0.53887893   -4.9301796     1896.795  0.035705049  0.034229837           12 
 4428000   0.53376403    -4.919368    1896.8212  0.035697478  0.034221354           17 
 4429000   0.54145353   -4.9315393    1892.3587  0.035605455  0.034212881           19 
 4430000   0.54572694   -4.9259898    1895.4763  0.035656062  0.034204408           14 
 4431000   0.54204836   -4.9116418    1895.9317   0.03565658  0.034195947           22 
 4432000   0.54035505   -4.9289051    1898.8184  0.035702814  0.034187534           23 
 4433000   0.55110204   -4.9243806    1897.4634  0.035669287  0.034179098           24 
 4434000   0.53647508   -4.9384656    1899.5417  0.035700303  0.034170711           13 
 4435000   0.54321776   -4.9098309    1894.6538   0.03560041  0.034162308           33 
 4436000   0.54171241   -4.9258704    1894.1782   0.03558345  0.034153892            9 
 4437000   0.55123188   -4.9190566     1899.393  0.035673371  0.034145472           17 
 4438000   0.55056028   -4.9313903    1896.6963  0.035614696  0.034137061           17 
 4439000   0.55969645   -4.9234383    1901.3943   0.03569487  0.034128641            6 
 4440000   0.54407898   -4.9006966    1891.7204  0.035505264  0.034120195            9 
 4441000   0.53514823   -4.9279397    1900.5678  0.035663284   0.03411175           12 
 4442000   0.53529471   -4.8985619     1897.574  0.035599092  0.034103364           11 
 4443000   0.54165985   -4.9242103    1898.2526  0.035603808  0.034094982           21 
 4444000   0.53284903   -4.9415018    1897.3119  0.035578155   0.03408655           11 
 4445000    0.5415286   -4.9432352    1895.0706  0.035528133  0.034078093            7 
 4446000   0.54413973   -4.9496152    1891.2822  0.035449135  0.034069626           17 
 4447000   0.54030871   -4.9328901    1898.2049  0.035570889  0.034061154           12 
 4448000   0.53599033   -4.9401354    1894.5463  0.035494347  0.034052661           21 
 4449000   0.53332304   -4.9466995    1898.1381  0.035553647  0.034044196           11 
 4450000   0.54567717   -4.9324104    1898.6338  0.035554941  0.034035765           38 
 4451000   0.55123771   -4.9369379     1894.664  0.035472627   0.03402731           34 
 4452000    0.5376015   -4.9343777    1893.5406  0.035443633  0.034018897           19 
 4453000   0.54514765   -4.9219728    1896.8434  0.035497482  0.034010476           14 
 4454000   0.53369436   -4.9466819    1893.4294  0.035425636  0.034002034           38 
 4455000   0.54093694   -4.9240995    1896.2519   0.03547048  0.033993595           11 
 4456000   0.53876023   -4.9404523    1895.2396  0.035443589  0.033985154           17 
 4457000   0.54724791    -4.941636    1895.5491  0.035441424  0.033976715           13 
 4458000   0.53969015   -4.9500928    1894.1183  0.035406727  0.033968237            9 
 4459000   0.54037294   -4.9290725    1898.7733  0.035485783  0.033959776           12 
 4460000   0.54569561   -4.9332976    1899.3188   0.03548802   0.03395133           26 
 4461000   0.52334655   -4.9216912    1898.1859  0.035458901  0.033942897           16 
 4462000   0.52039433   -4.9263682    1893.4834   0.03536313   0.03393447           27 
 4463000   0.54252034   -4.9313533    1899.9277  0.035475534  0.033926076           18 
 4464000   0.55092292   -4.9200656     1895.903  0.035392454  0.033917664           14 
 4465000   0.53033991   -4.9251583    1897.2488  0.035409646  0.033909249           19 
 4466000   0.54093959   -4.9404655    1895.3287  0.035365889  0.033900823           42 
 4467000   0.53264182   -4.9283947    1896.4449  0.035378795  0.033892375           33 
 4468000   0.54371861   -4.9323355    1893.9919  0.035325126   0.03388396           14 
 4469000   0.54089196   -4.9215072    1893.3009  0.035304336  0.033875507            9 
 4470000   0.53345398   -4.9489055    1894.7661  0.035323753  0.033867057           25 
 4471000    0.5339919   -4.9530434    1894.8894  0.035318151  0.033858603           22 
 4472000   0.54547372   -4.9382126    1897.3194  0.035355535  0.033850162           23 
 4473000    0.5278967   -4.9305462    1897.5506  0.035351938  0.033841741           10 
 4474000   0.54202706   -4.9290674     1896.895  0.035331824  0.033833357           23 
 4475000    0.5375227   -4.9387795    1895.6826  0.035301353  0.033824935           17 
 4476000    0.5458512   -4.9392736    1894.6126  0.035273545  0.033816495           17 
 4477000   0.54199555   -4.9430344    1895.2878  0.035278232   0.03380808            8 
 4478000    0.5422531   -4.9271266    1900.1053  0.035360006  0.033799695           10 
 4479000   0.54471763   -4.9396695    1895.9918  0.035275579  0.033791307           19 
 4480000   0.52292345   -4.9303183    1897.1156  0.035288609   0.03378289           22 
 4481000   0.52485142   -4.9508521    1894.2961  0.035228299  0.033774481           17 
 4482000   0.53991025   -4.9396033    1898.0447  0.035290137  0.033766049           14 
 4483000   0.53234707   -4.9361856    1894.3121   0.03521288  0.033757655           16 
 4484000   0.54861188   -4.9602916    1893.8892  0.035197169  0.033749243            6 
 4485000   0.53017874    -4.938096    1894.4206  0.035199193  0.033740826            7 
 4486000   0.54093952   -4.9533318    1896.4184  0.035228458  0.033732412           11 
 4487000   0.52918428   -4.9299318     1893.479  0.035166016  0.033723984           22 
 4488000   0.52838614   -4.9470922    1894.4071  0.035175415  0.033715579           28 
 4489000   0.53380341   -4.9423372    1895.9611  0.035196427    0.0337072           14 
 4490000   0.53143861   -4.9289065    1895.0176  0.035171077  0.033698833           20 
 4491000   0.52903519   -4.9389948    1901.2582  0.035279043  0.033690471           32 
 4492000    0.5211854   -4.9438973     1895.383  0.035162196  0.033682091           13 
 4493000     0.530552   -4.9186329    1897.4228  0.035192202  0.033673703           14 
 4494000   0.54324278   -4.9681821    1894.4125   0.03512855  0.033665343           22 
 4495000    0.5286157   -4.9462153    1899.2156   0.03520978  0.033656971           13 
 4496000   0.53476548   -4.9571885     1898.304  0.035185053   0.03364859           12 
 4497000   0.54484727   -4.9433537    1892.9754  0.035078486  0.033640217           27 
 4498000   0.53665909   -4.9528866    1898.7222  0.035177157  0.033631806           15 
 4499000   0.53273169   -4.9444946    1896.0021  0.035118954  0.033623422           13 
 4500000   0.53707658   -4.9496658    1897.9188  0.035146645  0.033615057            8 
 4501000   0.52171661   -4.9498345    1899.0249  0.035159315  0.033606675           13 
 4502000   0.53425326   -4.9443117    1893.0648  0.035041182  0.033598284            9 
 4503000   0.52720466   -4.9676082    1892.8989   0.03503033  0.033589918           19 
 4504000   0.52651585   -4.9478088    1897.6052  0.035109628  0.033581534           24 
 4505000   0.53389734   -4.9358026    1900.2507  0.035150772  0.033573156           19 
 4506000   0.52984002   -4.9487106    1901.5284  0.035166601  0.033564776           17 
 4507000   0.53325324   -4.9423977    1893.0965  0.035002893  0.033556401           15 
 4508000   0.52686023    -4.954243    1896.3136  0.035054599  0.033548025           17 
 4509000   0.53590086   -4.9540961    1895.5508  0.035032727   0.03353968           12 
 4510000   0.53070679   -4.9254037    1897.4881  0.035060756  0.033531322           12 
 4511000   0.52751114   -4.9746381    1901.9131  0.035134728   0.03352297           18 
 4512000   0.52969686   -4.9530933    1896.5251  0.035027429  0.033514617           28 
 4513000   0.53392119   -4.9521069    1897.8731  0.035044558  0.033506251           20 
 4514000    0.5268084   -4.9362784    1896.1413  0.035004825  0.033497908           10 
 4515000   0.51555401   -4.9441845    1897.8013  0.035027709  0.033489587           28 
 4516000   0.52264042   -4.9463955    1895.4184  0.034975982   0.03348125           10 
 4517000   0.52215256   -4.9401596    1901.4779  0.035080029  0.033472872           33 
 4518000   0.54455456   -4.9662588    1897.5255  0.034999364  0.033464516           10 
 4519000   0.53480623   -4.9644058    1896.2262  0.034967659  0.033456122           22 
 4520000    0.5375308   -4.9493197    1899.1327  0.035013509  0.033447755           26 
 4521000   0.54235033    -4.970642    1897.1414  0.034969059   0.03343941           20 
 4522000   0.53001336   -4.9711902    1895.4841  0.034930785  0.033431046            9 
 4523000   0.52753552   -4.9548798    1891.8207  0.034855567  0.033422682           14 
 4524000   0.52691518   -4.9592541    1899.2543   0.03498479  0.033414369           16 
 4525000   0.53551867   -4.9587566     1898.897  0.034970478  0.033406055           14 
 4526000   0.52796037   -4.9356708    1896.1923  0.034912954  0.033397723           12 
 4527000   0.52709313   -4.9808605    1895.3678  0.034890063  0.033389398           33 
 4528000   0.51416688    -4.963645    1893.4075  0.034846281  0.033381032           22 
 4529000   0.53680259   -4.9695557    1897.3507  0.034911141  0.033372666           22 
 4530000    0.5118974   -4.9351269    1897.8806  0.034913183  0.033364336           13 
 4531000   0.53180203   -4.9476294    1894.9496   0.03485157  0.033356038           10 
 4532000   0.53954799   -4.9523664    1902.4793  0.034982334  0.033347754           12 
 4533000   0.53245819   -4.9510686    1900.0234  0.034929468  0.033339458           13 
 4534000   0.52578189   -4.9661497    1900.3836  0.034928385  0.033331159           24 
 4535000   0.53578592    -4.944007    1898.1038  0.034878792  0.033322815           21 
 4536000   0.52834111   -4.9537731    1891.9956  0.034758885  0.033314473           31 
 4537000   0.52140466   -4.9693271    1897.2236  0.034847249  0.033306099           15 
 4538000   0.53349173   -4.9771504    1894.8687  0.034796325  0.033297742           16 
 4539000   0.52328164   -4.9750109    1898.4897  0.034855138  0.033289389           23 
 4540000   0.51868296    -4.965533    1900.2555  0.034879873  0.033281066           18 
 4541000   0.53346346   -4.9480697    1900.8635   0.03488335  0.033272792           10 
 4542000   0.52850748   -4.9495277    1899.4311  0.034849389  0.033264489           20 
 4543000   0.52982259   -4.9543509     1902.524  0.034898451   0.03325622            6 
 4544000    0.5359051   -4.9592125    1898.3036  0.034813373  0.033247951           13 
 4545000   0.51879461   -4.9329312    1900.1996  0.034840476  0.033239691           24 
 4546000   0.53340561   -4.9482223    1898.4041    0.0347999  0.033231425           30 
 4547000   0.54804978   -4.9601026    1897.1299  0.034768893  0.033223156           37 
 4548000   0.52181932   -4.9585066    1897.7685  0.034772949  0.033214876           30 
 4549000   0.52272119   -4.9808358    1897.8078  0.034766026  0.033206557           30 
 4550000   0.52652472     -4.97708    1896.3672     0.034732  0.033198265           28 
 4551000   0.52777928   -4.9622749     1895.232  0.034703582  0.033189997           43 
 4552000   0.52266879   -4.9702703    1900.2385  0.034787611  0.033181715           14 
 4553000   0.52935533   -4.9635673    1901.6293  0.034805427  0.033173454           13 
 4554000   0.52795217   -4.9783204    1896.6898  0.034707396  0.033165177           15 
 4555000   0.53178282   -4.9737339    1896.6917  0.034699812  0.033156891           23 
 4556000   0.53775393   -4.9759379    1897.0357  0.034698488  0.033148605           15 
 4557000   0.51423988    -4.954181    1893.2945  0.034622459  0.033140301           15 
 4558000   0.52750676   -4.9966951       1896.2  0.034667984  0.033131988           45 
 4559000   0.52296754   -4.9581177    1896.1712  0.034659853  0.033123672           33 
 4560000   0.51539854   -4.9833401    1895.1986  0.034634478   0.03311535           18 
 4561000   0.51013225   -4.9702514    1894.8402  0.034620336  0.033107058           16 
 4562000   0.52365076   -4.9707247    1895.7275  0.034628954  0.033098802           29 
 4563000    0.5255191   -4.9530648    1904.6569  0.034784441  0.033090578           18 
 4564000   0.50881562   -4.9749399     1895.901  0.034616948  0.033082353           18 
 4565000   0.52970748   -4.9713787    1896.3017   0.03461668  0.033074092           17 
 4566000   0.52497427   -4.9573357    1897.0436  0.034622638  0.033065839           24 
 4567000   0.51976239   -4.9641743    1899.6686  0.034662955  0.033057566           20 
 4568000   0.52255131   -4.9660532    1894.6318  0.034563481  0.033049307           19 
 4569000   0.52027544    -4.975323     1897.771  0.034613172  0.033041041           12 
 4570000   0.51894245    -4.965202    1896.7194  0.034586422  0.033032804           21 
 4571000   0.50856771   -4.9889404    1892.0119  0.034493033  0.033024489           25 
 4572000   0.51751335   -4.9765456    1897.7184  0.034589502  0.033016172           22 
 4573000   0.52415698   -4.9748678     1896.591  0.034561394  0.033007888           16 
 4574000   0.51859049   -4.9761348    1892.2635  0.034474995  0.032999593           18 
 4575000   0.52017968   -4.9818937    1899.5961  0.034601021    0.0329913           43 
 4576000   0.51826574   -4.9721322    1895.9102  0.034526337  0.032982999           22 
 4577000   0.52103244   -4.9905145    1896.3465  0.034526737  0.032974704           27 
 4578000   0.53273028   -4.9555827    1898.7167   0.03456234  0.032966417           44 
 4579000   0.51483515   -4.9618008    1895.3839  0.034494138  0.032958119           21 
 4580000   0.51798085   -5.0007326    1895.1084  0.034481594  0.032949794           69 
 4581000   0.51362992    -4.973391    1896.1255   0.03449257  0.032941512           12 
 4582000   0.52164216   -4.9689994    1897.9905   0.03451896  0.032933226           17 
 4583000   0.52762107    -4.993429    1890.5477  0.034376095  0.032924899           18 
 4584000   0.53254244   -4.9871279    1893.5472  0.034423124  0.032916564           19 
 4585000   0.50902271   -4.9820594    1895.0939  0.034443727  0.032908244           16 
 4586000   0.51229215   -4.9771557    1901.0142  0.034543797  0.032899975           29 
 4587000   0.50563272   -4.9762128    1892.9669  0.034390067  0.032891701           15 
 4588000   0.52990776   -4.9828058    1894.7802  0.034415507  0.032883417           23 
 4589000   0.52288082   -4.9894355    1897.0489  0.034449206  0.032875132           25 
 4590000   0.51790856   -4.9882866     1895.614  0.034415649  0.032866819           52 
 4591000   0.52000697   -4.9802695    1895.2391  0.034401348  0.032858527           54 
 4592000   0.51738759   -4.9962871    1895.1251  0.034391789  0.032850223           40 
 4593000   0.51916844   -4.9911997    1895.6272  0.034393409  0.032841938           29 
 4594000   0.51134011   -4.9949354     1899.804  0.034461688  0.032833661           66 
 4595000   0.51450913   -4.9807708    1898.8178  0.034436303  0.032825374           89 
 4596000   0.53121517   -5.0001395    1896.4201  0.034385337  0.032817116           44 
 4597000   0.52451235   -4.9979192    1896.3833   0.03437719  0.032808858           27 
 4598000   0.51594317   -4.9943588    1896.6158  0.034373927  0.032800608           67 
 4599000   0.51704947   -4.9720996    1897.6091  0.034384451  0.032792373           12 
 4600000   0.50653383   -4.9809713    1898.7235  0.034397165  0.032784156           13 
 4601000   0.51715697   -4.9708327    1899.3193   0.03440048  0.032775965           20 
 4602000   0.51684522   -4.9716394    1900.6064  0.034416312  0.032767819           33 
 4603000   0.51340504   -4.9871328    1894.8265  0.034304195  0.032759651           17 
 4604000   0.51578024   -4.9697381    1897.5051  0.034345226  0.032751459           28 
 4605000   0.51564292   -4.9871032    1896.2986  0.034315935  0.032743258           31 
 4606000   0.50782169   -4.9865138    1894.3862  0.034273886  0.032735053           27 
 4607000   0.51820699    -4.996215    1896.6201  0.034306854  0.032726828           12 
 4608000   0.51017841    -4.990915    1895.5074  0.034279285  0.032718614           15 
 4609000   0.51301879   -4.9900713    1901.1511   0.03437389  0.032710418           28 
 4610000   0.51872466   -4.9655726     1896.108  0.034275272  0.032702217           44 
 4611000   0.52082936   -4.9973501    1898.6996  0.034314676  0.032694021           16 
 4612000   0.51796134   -4.9894537    1896.6734  0.034270624  0.032685817           33 
 4613000   0.52181415   -5.0067956    1899.0963  0.034306964  0.032677628           18 
 4614000   0.51808097   -4.9719882     1898.623   0.03429098  0.032669415           37 
 4615000   0.52614248    -4.977231    1896.0923  0.034237854  0.032661192           26 
 4616000   0.50982473   -4.9809276    1898.4108  0.034272292  0.032652984           44 
 4617000   0.51900383   -5.0021888     1897.744  0.034252834   0.03264476           32 
 4618000   0.51945493   -4.9911573    1897.0869  0.034233559  0.032636563           20 
 4619000   0.51004158   -4.9968454     1901.401   0.03430398  0.032628373           10 
 4620000   0.51814285   -4.9909014    1897.1677  0.034220197  0.032620174           14 
 4621000   0.51954258   -4.9958571    1896.2634  0.034196483  0.032611979           13 
 4622000   0.51240138   -4.9983147    1899.4238  0.034246066  0.032603791            9 
 4623000   0.51091201   -4.9939868    1893.3064  0.034128387  0.032595573           24 
 4624000     0.529911   -5.0006222    1895.3922  0.034158597  0.032587344           13 
 4625000    0.5086732   -4.9826295    1899.2155  0.034220099  0.032579155           18 
 4626000    0.5080314   -4.9795583    1894.3459   0.03412498  0.032570975            9 
 4627000    0.5036535   -4.9925682    1901.2666  0.034242248  0.032562804           29 
 4628000   0.51105274   -4.9792656     1899.257  0.034198664   0.03255462           32 
 4629000   0.50828205   -4.9826048    1893.2879  0.034083817  0.032546415           12 
 4630000   0.52469022   -4.9925909    1899.3546  0.034185648  0.032538226           14 
 4631000   0.51866492   -4.9960544    1898.0016  0.034153919  0.032530043           20 
 4632000   0.51324288   -4.9909342    1895.5239   0.03410197   0.03252185           36 
 4633000   0.50046538   -4.9872588    1895.1403   0.03408771  0.032513677           23 
 4634000   0.49660882   -5.0018686    1896.2713  0.034100692  0.032505483           35 
 4635000   0.50482565   -5.0040088     1895.875   0.03408621   0.03249725           39 
 4636000   0.51832159   -5.0121536    1892.4998  0.034018187  0.032489013           28 
 4637000   0.51199723   -5.0000519    1897.0901  0.034093344  0.032480793           25 
 4638000   0.52266607   -4.9837688     1894.182  0.034033742  0.032472578           27 
 4639000   0.50485299   -5.0088267    1895.4344  0.034048904   0.03246438           40 
 4640000    0.5065638   -4.9843418    1899.6581  0.034117422  0.032456217           35 
 4641000   0.51386003   -5.0155494    1895.6353  0.034037838  0.032448056           45 
 4642000   0.50954243   -4.9852645    1894.7166  0.034014013  0.032439874           36 
 4643000   0.50422991   -5.0074977    1896.8654  0.034045254  0.032431676           29 
 4644000   0.51053164   -4.9858462    1893.8818  0.033984385  0.032423513           58 
 4645000   0.51111178   -5.0137704    1896.9069   0.03403134  0.032415343           37 
 4646000   0.50752575   -4.9990433    1895.4614  0.033998087  0.032407155           47 
 4647000   0.50009856   -4.9837786    1898.4904   0.03404509  0.032398974           49 
 4648000   0.51178806   -5.0031978    1894.1014  0.033959076  0.032390791           24 
 4649000   0.50283327   -5.0032698    1898.2685  0.034026467  0.032382595           45 
 4650000   0.50854049   -4.9793168    1897.4371  0.034004249  0.032374439           35 
 4651000   0.51042399   -4.9889836    1898.4657  0.034015368  0.032366266           27 
 4652000   0.50451305   -5.0171732    1894.6972  0.033940549  0.032358063           33 
 4653000   0.50898409    -4.999633     1894.536  0.033930367  0.032349845           36 
 4654000   0.51471799   -5.0168192     1893.021   0.03389595  0.032341629           33 
 4655000   0.49860026   -5.0029591    1897.3207   0.03396564  0.032333438           56 
 4656000   0.51805684   -5.0115427    1892.2383  0.033867382  0.032325216           25 
 4657000    0.5011562   -4.9935735    1894.8188  0.033906285  0.032316994           20 
 4658000   0.51086121   -5.0044327    1896.3302  0.033926045  0.032308813           69 
 4659000   0.49763707   -5.0125601    1892.3964  0.033848401  0.032300615           57 
 4660000   0.49780252   -5.0063847    1895.3595  0.033894126  0.032292393           36 
 4661000   0.51181626   -5.0236746    1892.7283   0.03383981  0.032284187           36 
 4662000   0.49855098   -5.0136623    1894.3071  0.033860774  0.032275971           75 
 4663000   0.50533235   -5.0145608    1894.1674  0.033851015  0.032267745           16 
 4664000   0.50278377   -5.0266459    1895.4029  0.033865832  0.032259542           22 
 4665000   0.50326649   -5.0296333    1889.8101  0.033758665  0.032251296           13 
 4666000   0.50344705   -5.0221418    1896.4678  0.033870335  0.032243072           56 
 4667000   0.51472426    -5.010495    1892.9611  0.033800463  0.032234855           76 
 4668000   0.50080509   -5.0110189     1891.599  0.033768905  0.032226645           40 
 4669000   0.50333869   -5.0311426    1892.9247  0.033785335   0.03221842           49 
 4670000   0.51150301    -5.015342     1894.382  0.033804104  0.032210193           23 
 4671000    0.5052142   -5.0183393    1892.3213  0.033760104  0.032201975           31 
 4672000   0.50507781   -5.0050309    1896.1023  0.033820318  0.032193781           34 
 4673000   0.51704253   -5.0098147    1893.7429  0.033771006  0.032185614           25 
 4674000   0.48620361   -4.9983504    1892.2096  0.033736442  0.032177446           17 
 4675000   0.49943984   -5.0002699    1892.0931  0.033727149  0.032169253           12 
 4676000   0.50766068   -4.9928476     1895.457  0.033779887   0.03216107           26 
 4677000   0.50671591   -5.0035597    1896.8196  0.033796942   0.03215289           56 
 4678000   0.50041825   -5.0184983    1891.6277   0.03369723  0.032144706           43 
 4679000   0.51092969   -5.0094347     1889.334  0.033649177  0.032136501           32 
 4680000   0.50127987   -5.0127527    1894.3818   0.03373187  0.032128296           51 
 4681000   0.51421462   -5.0252776    1887.1485  0.033595894  0.032120096           44 
 4682000   0.49567183   -5.0120659    1894.1237  0.033712867  0.032111889           33 
 4683000   0.49833596   -5.0128149    1888.7295  0.033609679  0.032103695          121 
 4684000   0.48934051   -5.0147127    1892.5668  0.033670773  0.032095498           53 
 4685000   0.50746847   -5.0262344    1893.4087  0.033678562  0.032087296           66 
 4686000   0.49679681   -5.0255669    1891.8656  0.033643933  0.032079099           72 
 4687000   0.49372085   -5.0119386    1897.6405  0.033739431  0.032070917           78 
 4688000    0.4968617   -5.0069667    1890.1111  0.033598392  0.032062731           83 
 4689000   0.50364448   -5.0204026    1894.3001  0.033665673  0.032054555           94 
 4690000   0.49056467   -5.0104368    1893.7244  0.033648265  0.032046388           50 
 4691000   0.49486664   -5.0129124    1890.5203  0.033584173  0.032038206           78 
 4692000   0.49439661   -5.0193108      1896.89  0.033690146  0.032030018           79 
 4693000   0.48327117    -5.010913    1894.5095  0.033640696  0.032021829           49 
 4694000   0.50922083   -5.0216179    1892.0691  0.033590206   0.03201364           86 
 4695000   0.49789508   -5.0351269    1895.6751  0.033647056  0.032005442           97 
 4696000   0.49163805   -5.0242997    1887.9723  0.033503199  0.031997244          101 
 4697000   0.49419315    -5.027969    1890.5301  0.033541446  0.031989063           29 
 4698000   0.49602235   -5.0343757    1889.0992  0.033508925  0.031980905           23 
 4699000   0.48912547    -5.020066    1894.7867  0.033602659  0.031972735           26 
 4700000   0.50754405    -5.017832    1895.5757  0.033609497  0.031964589           70 
 4701000   0.50541794   -5.0306519    1897.6984  0.033639977  0.031956424           34 
 4702000   0.49234414   -5.0239973    1892.8475   0.03354685  0.031948288           51 
 4703000   0.49447511   -5.0291503    1893.7797  0.033556236   0.03194014           28 
 4704000   0.50541717   -5.0153719    1896.6191  0.033599403  0.031931979           15 
 4705000   0.50686243   -5.0209099    1890.0869  0.033476566  0.031923857           30 
 4706000   0.50473569   -5.0162323    1896.4122   0.03358146  0.031915724           46 
 4707000   0.50429982   -5.0289252    1891.4336  0.033486184  0.031907547           28 
 4708000    0.4861898   -5.0175708    1897.6018  0.033588251  0.031899388           54 
 4709000   0.50062502   -5.0291387    1893.8815  0.033515281  0.031891235           32 
 4710000   0.50110854   -5.0308119    1892.4447  0.033482744  0.031883106           26 
 4711000   0.49574226   -5.0119542    1898.9393  0.033590521   0.03187496           31 
 4712000   0.49577939    -5.007002    1896.3016  0.033536743  0.031866852           43 
 4713000   0.50617472   -5.0200878    1897.6249  0.033553026  0.031858727           80 
 4714000   0.49754853   -5.0205287    1897.5898  0.033545287  0.031850601           78 
 4715000   0.49753902   -5.0251893     1895.951  0.033509208  0.031842479          101 
 4716000   0.49642088   -5.0223873    1897.8904  0.033536372  0.031834372          151 
 4717000   0.48680901   -5.0246117    1895.8648  0.033493477  0.031826276           30 
 4718000   0.49980691     -5.02062    1893.5281  0.033445106  0.031818159          110 
 4719000   0.49889003   -5.0335919    1894.1551  0.033449091  0.031810026           24 
 4720000    0.5058002   -5.0257787    1894.6235  0.033450273   0.03180189           73 
 4721000   0.49698743    -5.031749    1893.4679   0.03342279  0.031793744           32 
 4722000   0.49584416   -5.0608216    1892.6982  0.033402129  0.031785591           91 
 4723000   0.50320623   -5.0541445    1892.1174  0.033384808  0.031777427           78 
 4724000   0.48891514   -5.0148221    1896.0476  0.033447071  0.031769275           94 
 4725000   0.49815405   -5.0518207    1898.4111  0.033481677  0.031761132           79 
 4726000   0.49006662   -5.0398686    1892.2462  0.033365887  0.031753013           39 
 4727000    0.4792274   -5.0243598    1894.3066  0.033395152  0.031744903           64 
 4728000   0.49801016   -5.0446397    1892.3826  0.033354177  0.031736793           36 
 4729000   0.49583527   -5.0447942    1894.1296  0.033377909  0.031728682           43 
 4730000   0.48803171   -5.0340297    1894.0177  0.033368881  0.031720568           38 
 4731000   0.48612403   -5.0472673     1894.312  0.033367012  0.031712464           49 
 4732000   0.49755915   -5.0258515    1893.7079  0.033349323  0.031704385           43 
 4733000   0.49207794   -5.0326138    1892.4027  0.033319296   0.03169629           23 
 4734000   0.49192294   -5.0174727    1895.6292  0.033369054  0.031688226           23 
 4735000   0.49393595   -5.0280276    1892.2479  0.033302497  0.031680165           17 
 4736000   0.50229062   -5.0161602    1896.1498  0.033364122  0.031672106           23 
 4737000   0.48802028   -5.0299053    1893.9986  0.033319234  0.031664069           20 
 4738000   0.49360791   -5.0400715    1897.0386  0.033365671  0.031656023            9 
 4739000   0.49322551   -5.0360178    1898.6287  0.033386591  0.031647942           19 
 4740000   0.50468421   -5.0275821    1897.9788  0.033368122  0.031639893           17 
 4741000   0.49376953   -5.0515193    1893.4522  0.033281519  0.031631823           44 
 4742000   0.48186163   -5.0529677     1895.218  0.033305532  0.031623722           21 
 4743000   0.49251652   -5.0528493     1891.836  0.033239089  0.031615639           29 
 4744000   0.49471414   -5.0301779    1900.6654  0.033387181  0.031607577           15 
 4745000   0.48910823   -5.0394525    1892.3102  0.033233406  0.031599522           18 
 4746000   0.48150958   -5.0336862    1892.5819  0.033231175   0.03159145           30 
 4747000    0.4921967   -5.0251215     1889.272   0.03316607  0.031583364           32 
 4748000   0.50003815   -5.0386108    1895.9953  0.033277088  0.031575289           47 
 4749000   0.48812947   -5.0378827    1895.1453  0.033255165  0.031567218           31 
 4750000   0.49985698   -5.0559657    1893.0653  0.033211672  0.031559136           20 
 4751000   0.49309805   -5.0243061    1893.7734  0.033217101   0.03155106           18 
 4752000   0.49659657   -5.0467238    1898.4314  0.033291797  0.031542989           22 
 4753000   0.48945232     -5.03067    1895.0674  0.033225811  0.031534924           13 
 4754000   0.48491508   -5.0257026     1892.888  0.033180619  0.031526865           18 
 4755000    0.4944008   -5.0545341    1894.5072   0.03320202  0.031518815           19 
 4756000   0.48983123   -5.0454332    1891.3233   0.03313925  0.031510753           13 
 4757000   0.49747212   -5.0468281    1892.1734  0.033147177  0.031502707           34 
 4758000   0.49030909   -5.0322355    1891.7584  0.033132942  0.031494657           46 
 4759000   0.49648897   -5.0373705    1897.9269  0.033233993  0.031486614           35 
 4760000    0.4983161   -5.0296094    1891.0373  0.033106395   0.03147856           26 
 4761000   0.48426119   -5.0400277    1891.4706  0.033107026  0.031470513           17 
 4762000   0.49325425   -5.0206714    1894.4875  0.033152867  0.031462473           40 
 4763000   0.48985977    -5.028522    1892.9704  0.033119365  0.031454427           14 
 4764000   0.49101209   -5.0424557    1891.0082  0.033078089  0.031446363           32 
 4765000   0.48588848   -5.0255383    1893.0037  0.033106045  0.031438286           20 
 4766000   0.49415812   -5.0368597    1894.6611   0.03312808  0.031430223           24 
 4767000   0.49214197   -5.0403281     1892.133  0.033076935   0.03142217           19 
 4768000   0.48439327    -5.057635    1890.0493  0.033033579  0.031414108           50 
 4769000    0.4914859   -5.0329225     1889.365  0.033014695  0.031406052           51 
 4770000   0.48956008   -5.0401406     1889.994  0.033018763  0.031397989           34 
 4771000   0.49087394   -5.0379594    1893.7295  0.033077089  0.031389941           90 
 4772000    0.4828225   -5.0410966    1893.3401  0.033063357  0.031381918          111 
 4773000   0.49170528   -5.0418506    1890.9908  0.033015413  0.031373893           55 
 4774000   0.49233371   -5.0500399    1893.4569  0.033051545  0.031365874           77 
 4775000   0.47729808   -5.0418278    1890.0055  0.032984389  0.031357836           81 
 4776000   0.48644167   -5.0289195    1896.2785  0.033086937  0.031349809           55 
 4777000   0.48697589   -5.0263674    1891.8535  0.033002817  0.031341787           40 
 4778000   0.48640091   -5.0438505    1896.1128  0.033070197  0.031333767           27 
 4779000   0.48192994   -5.0515899    1891.9156  0.032990088   0.03132574           31 
 4780000   0.48742359   -5.0523127    1890.3195  0.032955362  0.031317701           36 
 4781000    0.4810728   -5.0533802     1892.978  0.032994806  0.031309644           33 
 4782000   0.47880979   -5.0511017    1891.4203  0.032960761  0.031301583           20 
 4783000   0.48745525   -5.0388806    1891.9891   0.03296378  0.031293546           27 
 4784000   0.47915931   -5.0475374    1891.8049   0.03295368  0.031285505           47 
 4785000   0.49085892   -5.0549204    1887.1432  0.032865607  0.031277467           45 
 4786000   0.49051765   -5.0404602    1891.7196  0.032938425  0.031269428           74 
 4787000   0.48442382   -5.0171424    1893.3673  0.032960228  0.031261405          195 
 4788000   0.49407162   -5.0396291    1894.1368  0.032966736  0.031253391           35 
 4789000   0.47967074   -5.0426294    1890.0583  0.032888882  0.031245369           42 
 4790000   0.48552499   -5.0384361    1892.7143  0.032928224  0.031237335           52 
 4791000   0.47844809   -5.0437426    1891.0678  0.032892711  0.031229319          128 
 4792000   0.48344917   -5.0560222    1893.4235  0.032926814  0.031221286          160 
 4793000    0.4891239   -5.0505571    1892.9833   0.03291229  0.031213238          107 
 4794000   0.48098043   -5.0493801    1894.8759  0.032938324  0.031205231           92 
 4795000   0.47947696   -5.0462857    1892.1786  0.032884578  0.031197199           50 
 4796000   0.48420712   -5.0517766    1893.0957  0.032893657  0.031189157           52 
 4797000   0.47351848   -5.0607926    1891.5092  0.032859239  0.031181132           38 
 4798000   0.47581416   -5.0600413     1889.254   0.03281322  0.031173103           46 
 4799000   0.49365929   -5.0531238    1893.8478  0.032886153  0.031165076           80 
 4800000   0.48062837   -5.0564589    1891.9839  0.032846943   0.03115706           62 
 4801000   0.47606831   -5.0477455    1889.6047  0.032798804  0.031149056           54 
 4802000   0.48668399   -5.0525139    1892.3035  0.032838808  0.031141033           61 
 4803000   0.48708568   -5.0511326    1895.3297  0.032884476  0.031133027           67 
 4804000   0.48925572   -5.0401553    1895.1779  0.032874998  0.031125047           42 
 4805000   0.48567175   -5.0589265    1897.1023  0.032901531  0.031117062           54 
 4806000   0.47651908   -5.0489544    1893.2039  0.032827089  0.031109066          102 
 4807000   0.49031824   -5.0453091    1888.6593  0.032741475  0.031101069           88 
 4808000   0.48325078   -5.0543026     1892.647  0.032803781  0.031093074           57 
 4809000   0.48181703   -5.0588522    1894.2973  0.032825559  0.031085087           98 
 4810000   0.48123889   -5.0554712    1892.8878  0.032794314  0.031077083           28 
 4811000   0.47351108   -5.0523164    1890.2265    0.0327414  0.031069083           43 
 4812000   0.49468203   -5.0336725    1894.2912  0.032804988  0.031061115           57 
 4813000   0.49244699   -5.0435349    1890.5217  0.032732906  0.031053157           58 
 4814000   0.48692882   -5.0581442     1892.255   0.03275611  0.031045189          121 
 4815000   0.48022151   -5.0554388    1894.9212  0.032795451  0.031037227           57 
 4816000   0.47382038   -5.0561108    1894.4054  0.032779718  0.031029277          101 
 4817000   0.47744559   -5.0625098    1889.9059  0.032695071  0.031021295           76 
 4818000   0.49169255   -5.0700476    1891.2076  0.032710801  0.031013292           55 
 4819000   0.48127168    -5.077579    1892.9426  0.032734015  0.031005298          149 
 4820000   0.48331191   -5.0687844    1892.2406  0.032715087  0.030997301           54 
 4821000   0.48524245   -5.0740819    1888.8205  0.032649182  0.030989279           43 
 4822000   0.47522543   -5.0556258    1891.2187  0.032683858  0.030981283           55 
 4823000   0.48723049    -5.061768    1885.7419  0.032582451  0.030973287           52 
 4824000    0.4764476   -5.0632594     1893.084  0.032702529  0.030965286           38 
 4825000   0.47311234   -5.0600261    1893.0989  0.032696009  0.030957292           41 
 4826000   0.48292788   -5.0646596    1890.9438  0.032652021  0.030949314           35 
 4827000   0.47797998   -5.0686631    1891.5072  0.032654983  0.030941343           22 
 4828000   0.47255048   -5.0628699    1892.7097  0.032668975  0.030933355           18 
 4829000   0.46450141   -5.0690704    1889.8948  0.032613634   0.03092538           13 
 4830000   0.47355274   -5.0706208    1885.3109  0.032527793  0.030917396           18 
 4831000   0.47550628   -5.0770995     1890.431  0.032609381  0.030909413           16 
 4832000   0.48183788   -5.0715237    1892.6534  0.032640959  0.030901438           19 
 4833000   0.46469558   -5.0727873    1888.1304  0.032556217  0.030893444           46 
 4834000   0.47409476   -5.0679182    1888.2838  0.032552128   0.03088545           17 
 4835000   0.47586354   -5.0736107    1887.6248  0.032534036  0.030877451           38 
 4836000   0.47697491   -5.0809096    1888.5213  0.032542758  0.030869452           32 
 4837000    0.4776011   -5.0807076    1890.3362  0.032567297  0.030861448           73 
 4838000    0.4763765   -5.0646939    1887.7108  0.032515345  0.030853462           28 
 4839000   0.47520639   -5.0686627    1889.5168  0.032539725  0.030845482           22 
 4840000   0.48049629   -5.0750771     1891.299  0.032563689  0.030837493           42 
 4841000   0.47350549   -5.0874089      1888.09  0.032501722  0.030829487           39 
 4842000   0.48547137   -5.0814298    1892.9173   0.03257809  0.030821499           36 
 4843000   0.47991436   -5.0926485    1885.9076  0.032450747  0.030813503           44 
 4844000   0.47978813   -5.0809617    1888.7755  0.032493385  0.030805518          119 
 4845000   0.46370449   -5.0865871    1889.0956  0.032492184  0.030797534           55 
 4846000   0.47724381   -5.0745325    1893.1262  0.032554791  0.030789548           76 
 4847000   0.47601917   -5.0897247     1890.899  0.032509782  0.030781608           69 
 4848000   0.46741483   -5.0711415    1889.0959  0.032472082  0.030773649           59 
 4849000   0.48003046   -5.0870018    1889.1316     0.032466  0.030765702           59 
 4850000   0.47514967   -5.0684223    1892.0126  0.032508807  0.030757754           45 
 4851000   0.46808731     -5.07575    1889.6567  0.032461635  0.030749777           61 
 4852000   0.47386347   -5.0908771    1888.8491  0.032441075   0.03074179           73 
 4853000    0.4870633   -5.0691828    1887.9713  0.032419316   0.03073382           39 
 4854000   0.46907496   -5.0933032    1886.2165  0.032382511   0.03072585          100 
 4855000   0.46642147    -5.077914    1888.7821  0.032419879  0.030717872           65 
 4856000   0.47770098   -5.0851985    1890.2677  0.032438696  0.030709906           80 
 4857000   0.47863423   -5.0898358    1891.7632  0.032457676  0.030701937           49 
 4858000   0.49053496   -5.0598895    1887.2267  0.032373177  0.030693955           17 
 4859000   0.46659863   -5.0810707    1888.3329  0.032385486  0.030686013           30 
 4860000   0.46829262   -5.0831522    1890.3323  0.032413105  0.030678039           68 
 4861000   0.47119437   -5.0783253    1889.9718  0.032400257  0.030670096           63 
 4862000   0.47864759     -5.09615    1888.6248  0.032370506  0.030662125          118 
 4863000   0.47778034   -5.0703507    1887.9411  0.032352133  0.030654176           36 
 4864000    0.4714145   -5.0875195    1891.8837   0.03241303  0.030646263           28 
 4865000   0.46778421   -5.0833262    1891.1671  0.032394093  0.030638352           38 
 4866000   0.47188973   -5.0816098    1888.7609  0.032346227  0.030630424           14 
 4867000   0.47492349   -5.0959367    1891.3622  0.032384121   0.03062251           21 
 4868000   0.47117956   -5.0964551    1887.2068  0.032306333   0.03061457           19 
 4869000   0.48425262   -5.0848004    1890.4458  0.032355134  0.030606649           46 
 4870000   0.48081879   -5.0833477    1890.4265  0.032348161  0.030598739           19 
 4871000   0.46622257   -5.0804164     1888.752  0.032312871  0.030590822           12 
 4872000   0.46571554   -5.0941062    1890.5993  0.032337837    0.0305829           22 
 4873000   0.47138925   -5.0757939    1888.8877   0.03230193  0.030574991           28 
 4874000   0.46762565   -5.0977314    1893.2933  0.032370628  0.030567088           36 
 4875000   0.46764486   -5.0915541    1887.4466  0.032264045   0.03055918           23 
 4876000   0.47204896    -5.082451    1894.4658  0.032377388  0.030551272           59 
 4877000   0.47409833   -5.0924546    1890.9158  0.032310092  0.030543371           44 
 4878000   0.46768876    -5.100355     1893.613  0.032349546  0.030535476           30 
 4879000    0.4751211   -5.1052897    1889.4384  0.032271614  0.030527582           46 
 4880000   0.47101884   -5.0958361    1889.3986  0.032264321  0.030519677           74 
 4881000   0.48488528    -5.098117    1893.1294  0.032321406  0.030511783           60 
 4882000   0.47131496   -5.0851832    1886.4166  0.032200202  0.030503871           96 
 4883000   0.47252979   -5.0896809    1889.8409  0.032252046  0.030495951           84 
 4884000   0.47163707    -5.105362    1893.7023  0.032311328  0.030488034           51 
 4885000   0.46644812   -5.1145264    1888.7721  0.032220609  0.030480108           71 
 4886000   0.46788697   -5.0806213    1888.9417  0.032216908   0.03047221           86 
 4887000   0.46405615   -5.0797703    1889.3842   0.03221786  0.030464313           91 
 4888000   0.47296859   -5.0795885    1890.5554  0.032231236  0.030456408          199 
 4889000   0.47095887   -5.0804799    1888.7382  0.032193669  0.030448524          122 
 4890000   0.46342056   -5.0931944    1893.0368   0.03226034  0.030440613           79 
 4891000   0.46827895   -5.0850075    1887.6154  0.032161374  0.030432701           80 
 4892000   0.48171738    -5.072131    1889.2796   0.03218315  0.030424809           96 
 4893000   0.46181113    -5.085828    1888.7934  0.032168292  0.030416918           91 
 4894000   0.46129319    -5.094708    1886.4186  0.032121281  0.030408997          153 
 4895000    0.4795358   -5.0891511    1891.2253   0.03219655  0.030401094          101 
 4896000   0.47299672   -5.1112254    1883.0381  0.032050621  0.030393165          111 
 4897000   0.45745877   -5.0905511    1891.2447  0.032183729  0.030385232          172 
 4898000   0.46107537   -5.1066928    1884.4117  0.032060904  0.030377312           99 
 4899000   0.46475009   -5.0833898    1888.6401  0.032126286  0.030369384          153 
 4900000   0.46214495   -5.0960643    1889.1807  0.032128923  0.030361479          245 
 4901000    0.4704006   -5.0894584    1886.7871  0.032081668  0.030353549          100 
 4902000   0.46859457     -5.10119    1885.9887  0.032061552  0.030345636          167 
 4903000   0.46601818   -5.0884164    1887.0645  0.032073296  0.030337719          191 
 4904000   0.46711102    -5.117875    1887.6657  0.032076974  0.030329788          288 
 4905000   0.47384057   -5.1031929    1891.7724  0.032140204  0.030321874          160 
 4906000   0.47681551   -5.1055136      1886.64  0.032046473  0.030313974          165 
 4907000    0.4794629    -5.088707    1886.0592  0.032030079  0.030306077          215 
 4908000    0.4568671   -5.0764252    1891.2621  0.032111895  0.030298193          151 
 4909000   0.46870358   -5.0896804    1888.7714  0.032063071  0.030290318          163 
 4910000   0.47376874   -5.1155686    1886.4438  0.032017037  0.030282442          109 
 4911000   0.45501187   -5.1050636     1885.199  0.031989395  0.030274551          142 
 4912000   0.47166049   -5.0854063    1885.6416  0.031990391  0.030266652          100 
 4913000   0.45987743   -5.1108957    1886.8414  0.032004229  0.030258762          267 
 4914000   0.46614994   -5.1080974    1885.7849    0.0319798  0.030250867          117 
 4915000   0.46422883   -5.0973518    1885.0615  0.031961029  0.030242953          225 
 4916000   0.45810197   -5.1082034    1887.9857  0.032004096  0.030235053          114 
 4917000   0.46645431   -5.1127397    1884.7769  0.031943205   0.03022713           71 
 4918000   0.46295878   -5.1029102     1885.323  0.031945964  0.030219231          317 
 4919000    0.4533582   -5.1086939    1887.3516  0.031973835  0.030211317          189 
 4920000   0.45906432   -5.1027008    1886.1783  0.031947464  0.030203394          109 
 4921000   0.46774418    -5.117996    1885.1776  0.031924026   0.03019548          187 
 4922000   0.45783025   -5.1150423    1883.4354  0.031888043  0.030187556          427 
 4923000   0.45907433   -5.1089628    1883.6015  0.031884378  0.030179631          410 
 4924000   0.46142814   -5.1158485    1886.1595  0.031921194  0.030171706          302 
 4925000   0.46396816    -5.132622    1881.8724  0.031842172  0.030163763          331 
 4926000   0.45796476   -5.1241664    1886.9913  0.031922306  0.030155839          199 
 4927000   0.46709557   -5.1047795    1885.9975  0.031899018  0.030147918          329 
 4928000   0.46372475   -5.1242739    1883.5503  0.031851161  0.030140021          323 
 4929000   0.45995023    -5.110416    1884.4112  0.031859256  0.030132121          350 
 4930000   0.46847456   -5.1159597     1887.362   0.03190267   0.03012423          332 
 4931000   0.46920434   -5.1284147     1884.375  0.031845721  0.030116337          199 
 4932000   0.46420422   -5.1171286    1889.9015  0.031932643  0.030108437          293 
 4933000   0.45581266    -5.108586    1889.3407  0.031916695  0.030100558          136 
 4934000   0.46419924   -5.1110877    1880.3621  0.031758581  0.030092663          201 
 4935000    0.4652296   -5.1007076    1886.8962  0.031862482  0.030084761          342 
 4936000   0.45792516   -5.1166762    1885.1924  0.031827263  0.030076865          118 
 4937000   0.45585151   -5.1202515     1886.186  0.031837586  0.030068972          272 
 4938000   0.46372596   -5.1120612     1882.205  0.031763956   0.03006107          144 
 4939000   0.46264996   -5.1209289    1888.5246  0.031864152   0.03005318          378 
 4940000   0.45448262   -5.1001943    1883.6101    0.0317748  0.030045293          228 
 4941000   0.45654594   -5.1179867    1884.6333  0.031785626   0.03003741          127 
 4942000   0.47904749   -5.1189337    1884.5549  0.031777872  0.030029533          169 
 4943000   0.45851096   -5.1276077    1888.1992  0.031832881  0.030021654          264 
 4944000   0.47986268   -5.1099311    1886.1268  0.031791511  0.030013789          182 
 4945000    0.4545027   -5.1068519    1885.0366  0.031766711  0.030005927          291 
 4946000    0.4557832   -5.0999257    1884.4234  0.031749955  0.029998069          355 
 4947000   0.46073668   -5.1168561    1885.3554  0.031759238  0.029990208          230 
 4948000   0.45938203   -5.1058323    1886.5498  0.031772935  0.029982364          307 
 4949000   0.46168484   -5.1177215     1885.264  0.031744865  0.029974531          241 
 4950000   0.46406297   -5.1148493    1887.7132  0.031779683  0.029966696          284 
 4951000   0.46018583   -5.1173882    1888.6142  0.031788429  0.029958842          322 
 4952000   0.45646739   -5.1116529    1886.4013  0.031744771  0.029950989          192 
 4953000   0.46415855   -5.0967404    1887.7197  0.031760544  0.029943136          179 
 4954000   0.45738039    -5.113465    1884.0022  0.031691599  0.029935271          221 
 4955000   0.45986081   -5.1261543    1886.0565  0.031719753  0.029927411          290 
 4956000    0.4603508   -5.1172968     1884.829  0.031692712   0.02991957          204 
 4957000   0.45608707   -5.1233651    1884.7737   0.03168539  0.029911697          225 
 4958000   0.47068085   -5.1176538    1882.0544  0.031633293  0.029903853          273 
 4959000   0.45962196    -5.132246    1883.9924  0.031659482  0.029896014          344 
 4960000   0.46785886   -5.1071309    1884.5647  0.031662713   0.02988816          351 
 4961000   0.45446197   -5.1123995    1884.0779  0.031648154  0.029880317          220 
 4962000   0.45943441   -5.1237605    1887.1843  0.031693946   0.02987247          290 
 4963000   0.45441178   -5.1118135    1886.3855  0.031674146   0.02986464          183 
 4964000   0.45615137   -5.1076574    1881.5002  0.031585755  0.029856811          302 
 4965000   0.45895808   -5.1246281    1885.8431  0.031652285  0.029848956          304 
 4966000   0.45973567   -5.1183981    1881.5612  0.031574057  0.029841111          256 
 4967000   0.46265871   -5.1277851    1878.6724  0.031519234  0.029833281          338 
 4968000   0.44893314   -5.1108029    1887.8785  0.031667313  0.029825435          344 
 4969000   0.45119143    -5.115575    1882.7291   0.03157458  0.029817575          297 
 4970000   0.45600758   -5.1088621    1882.8958  0.031571022  0.029809749          396 
 4971000   0.45650902   -5.1280186    1888.7415  0.031662668   0.02980192          341 
 4972000   0.46808782   -5.1229912    1884.4414  0.031584228  0.029794102          175 
 4973000    0.4566052   -5.1149227    1886.7117  0.031615921   0.02978629          370 
 4974000   0.45530588   -5.1378536    1880.3737  0.031503379  0.029778459          461 
 4975000    0.4659244   -5.1271049    1885.1558   0.03157715  0.029770629          278 
 4976000    0.4650209   -5.1219353    1884.1437  0.031553854  0.029762815          298 
 4977000   0.46293392   -5.1128212     1884.203  0.031548507  0.029754995          284 
 4978000   0.45365087   -5.1357514    1883.1175  0.031523998   0.02974719          195 
 4979000    0.4567077   -5.1327154    1886.7948  0.031579213  0.029739359          174 
 4980000   0.46721888   -5.1152734    1882.8607  0.031507041  0.029731538          172 
 4981000   0.45075084   -5.1053771    1886.9235  0.031568686  0.029723721          230 
 4982000   0.46625782   -5.1121807    1883.5216  0.031505446  0.029715927          106 
 4983000   0.45560182   -5.1127851    1880.6193  0.031450587  0.029708116           85 
 4984000   0.46058294   -5.1347441    1881.2212  0.031454341  0.029700288          168 
 4985000   0.45805394    -5.115065    1881.2691  0.031448831  0.029692466           83 
 4986000   0.45279639    -5.132966    1879.6437  0.031415359  0.029684655          192 
 4987000   0.45470643    -5.129693    1877.6823  0.031376283  0.029676825          260 
 4988000    0.4560441   -5.1183839    1883.1319  0.031461038  0.029668993          189 
 4989000   0.45424107   -5.1414761     1878.149    0.0313715  0.029661161          248 
 4990000   0.44994956   -5.1368962    1882.3845  0.031435947  0.029653328          235 
 4991000   0.46563277   -5.1305332    1880.9224  0.031405236  0.029645495          224 
 4992000   0.45791239   -5.1242396    1878.8075   0.03136364   0.02963767          221 
 4993000   0.44444299   -5.1328428    1880.9764  0.031393557  0.029629834          181 
 4994000   0.44792457   -5.1206641    1884.1992   0.03144105   0.02962201          210 
 4995000   0.45668452   -5.1393389    1882.9945  0.031414657  0.029614192          319 
 4996000   0.45199168   -5.1393847    1886.1016  0.031460196  0.029606372          148 
 4997000   0.44098096   -5.1221545    1883.4439  0.031409578   0.02959856          155 
 4998000   0.45053069   -5.1328654    1881.5434  0.031371605  0.029590768          178 
 4999000   0.45071595   -5.1457109    1883.1735  0.031392503  0.029582955           77 
 5000000    0.4492055   -5.1314052    1885.4947  0.031424911  0.029575156          226 
 5001000   0.45824018   -5.1356086    1882.5319  0.031369257  0.029567365          331 
 5002000    0.4435691   -5.1248907    1884.2404  0.031391451  0.029559577          306 
 5003000   0.45320461   -5.1377696    1882.2456  0.031351949  0.029551776          391 
 5004000   0.45451265   -5.1533851    1879.4593  0.031299282  0.029543958          452 
 5005000   0.45210481   -5.1368265    1884.1202  0.031370632  0.029536135          370 
 5006000   0.45122895   -5.1275296     1883.148  0.031348182  0.029528324          339 
 5007000   0.44619225   -5.1271788    1879.6702  0.031284039  0.029520508          407 
 5008000   0.45344839   -5.1347041    1881.8803  0.031314568    0.0295127          223 
 5009000   0.44573217   -5.1178205     1881.799  0.031306965  0.029504893          334 
 5010000    0.4522798   -5.1243093    1882.4558   0.03131164  0.029497077          315 
 5011000   0.45111155   -5.1440116    1879.6659  0.031258995  0.029489269          207 
 5012000    0.4501025   -5.1406003    1884.9601  0.031340783  0.029481473          225 
Loop time of 12486.5 on 48 procs for 5000000 steps with 4000 atoms

Performance: 69194.709 tau/day, 400.432 timesteps/s
99.4% CPU use with 48 MPI tasks x no OpenMP threads

MPI task timing breakdown:
Section |  min time  |  avg time  |  max time  |%varavg| %total
---------------------------------------------------------------
Pair    | 836.67     | 916.58     | 962.92     |  95.5 |  7.34
Neigh   | 84.107     | 87.665     | 93.203     |  22.1 |  0.70
Comm    | 817.43     | 867.08     | 949.17     | 107.7 |  6.94
Output  | 14.3       | 14.305     | 14.398     |   0.4 |  0.11
Modify  | 10465      | 10485      | 10504      |   8.6 | 83.97
Other   |            | 116.2      |            |       |  0.93

Nlocal:        83.3333 ave          91 max          77 min
Histogram: 3 2 8 3 11 10 5 3 1 2
Nghost:        2282.73 ave        2302 max        2264 min
Histogram: 2 3 4 4 9 9 13 2 1 1
Neighs:        15449.1 ave       17204 max       13643 min
Histogram: 3 6 2 7 9 4 2 5 7 3
FullNghs:      30902.4 ave       34383 max       28221 min
Histogram: 1 3 7 10 10 10 4 1 1 1

Total # of neighbors = 1483314
Ave neighs/atom = 370.82850
Neighbor list builds = 269800
Dangerous builds = 0

#clear
#
#next RN
#
#jump SELF
Total wall time: 3:28:09
