
units lj                  # Use reduced LJ style units
atom_style atomic         # Uncharged point particles
atom_modify map hash      # Needed for indexing of clusters etc
                          # Used to be able to find where atoms are in relation to each other.

lattice fcc 1.0 spacing 1 1 1
Lattice spacing in x,y,z = 1.5874011 1.5874011 1.5874011
region box block 0 10 0 10 0 10 units lattice
create_box 2 box
Created orthogonal box = (0.0000000 0.0000000 0.0000000) to (15.874011 15.874011 15.874011)
  3 by 4 by 4 MPI processor grid
create_atoms 1 box
Created 4000 atoms
  using lattice units in orthogonal box = (0.0000000 0.0000000 0.0000000) to (15.874011 15.874011 15.874011)
  create_atoms CPU = 0.016 seconds
set type 1 type/fraction 2 0.16 78393
Setting atom values ...
  677 settings made for type/fraction
mass 1 1.0
mass 2 1.0
pair_style lj/cut  3.5
pair_modify tail  yes
pair_coeff 1  1  1.0  1.0   # Intearaction between 1 and 1 set with epsilon = 1 and sigma = 1
pair_coeff 1  2  1.5  0.8
pair_coeff 2  2  0.5  0.88

write_data data.0
System init for write_data ...
Neighbor list info ...
  update every 1 steps, delay 10 steps, check yes
  max neighbors/atom: 2000, page size: 100000
  master list distance cutoff = 3.8
  ghost atom cutoff = 3.8
  binsize = 1.9, bins = 9 9 9
  1 neighbor lists, perpetual/occasional/extra = 1 0 0
  (1) pair lj/cut, perpetual
      attributes: half, newton on
      pair build: half/bin/atomonly/newton
      stencil: half/bin/3d
      bin: standard
WARNING: Not all mixed pair coeffs generated from mixing. Use write_data with 'pair ij' option to store all pair coeffs. (../write_data.cpp:312)


#############################
#   M E L T   S Y S T E M   #
#############################

velocity all create 2.4 3143649 mom yes dist gaussian # Assign velocities
                                                    # Temperature 2.4, random number seed, zero linear momentum
                                                                                # Gaussian distribution

timestep 0.002   # simulation timestep
thermo 1000       # output thermodynamic data every 1000 steps bf 100

# Define a fix  in this case with index 1 applied to all
# particles in the simulation. This fix is for simulations
# in the anisotropic NPT ensemble. Note that we use the MTK
# correction.
fix 1 all npt temp 2.4 2.4 0.1 iso 5.68 5.68 0.5 mtk yes tchain 5 pchain 5 # Use NPT ensemble
                                                                         # Set temperature and pressure and damping
                                                                         # Numbers of thermostats in chain and in barostat
run 10000          # run for 10000 steps
Per MPI rank memory allocation (min/avg/max) = 3.642 | 3.644 | 3.648 Mbytes
Step Temp E_pair E_mol TotEng Press Volume 
       0          2.4   -7.2871769            0   -3.6880769   -3.4159639         4000 
    1000    2.4461235   -4.7117504            0   -1.0434824    5.7947111    4623.6084 
    2000    2.4186701   -4.7400791            0    -1.112981    5.7151296    4600.7455 
    3000    2.4189283   -4.7921158            0   -1.1646304    5.6910739    4595.8529 
    4000    2.3896336   -4.7858733            0    -1.202319    5.6000773     4598.034 
    5000    2.3992425   -4.7774112            0   -1.1794471    5.5037713    4617.0711 
    6000    2.3723626   -4.7421813            0    -1.184527    5.6804735    4618.7281 
    7000     2.413676   -4.7891058            0   -1.1694969    5.5982497     4602.755 
    8000    2.4076155   -4.7451047            0   -1.1345842    5.8190206     4590.835 
    9000    2.4088915   -4.7468292            0   -1.1343954    5.8391507    4597.6374 
   10000    2.4065608   -4.7188877            0   -1.1099489    5.7220599    4629.5737 
Loop time of 2.5615 on 48 procs for 10000 steps with 4000 atoms

Performance: 674605.039 tau/day, 3903.964 timesteps/s
99.3% CPU use with 48 MPI tasks x no OpenMP threads

MPI task timing breakdown:
Section |  min time  |  avg time  |  max time  |%varavg| %total
---------------------------------------------------------------
Pair    | 0.94803    | 1.0019     | 1.0566     |   2.6 | 39.11
Neigh   | 0.19537    | 0.20184    | 0.20791    |   0.7 |  7.88
Comm    | 0.74354    | 0.82152    | 0.89317    |   4.1 | 32.07
Output  | 0.00024634 | 0.00025262 | 0.00032538 |   0.0 |  0.01
Modify  | 0.44824    | 0.49893    | 0.5524     |   3.8 | 19.48
Other   |            | 0.03706    |            |       |  1.45

Nlocal:        83.3333 ave          95 max          75 min
Histogram: 2 4 8 8 9 5 6 4 1 1
Nghost:        1486.33 ave        1526 max        1454 min
Histogram: 1 4 8 4 12 7 8 2 1 1
Neighs:        8235.79 ave        9270 max        7259 min
Histogram: 3 1 6 11 5 7 4 7 2 2

Total # of neighbors = 395318
Ave neighs/atom = 98.829500
Neighbor list builds = 907
Dangerous builds = 219

# Equilibrate just above the melting temperature to avoid step fn in T

fix 1 all npt temp 1.25 1.25 0.1 iso 5.68 5.68 0.5 mtk yes tchain 5 pchain 5
run 2000
Per MPI rank memory allocation (min/avg/max) = 3.642 | 3.644 | 3.648 Mbytes
Step Temp E_pair E_mol TotEng Press Volume 
   10000    2.4065608   -4.7188877            0   -1.1099489    5.7220599    4629.5737 
   11000    1.2709955   -6.4043102            0   -4.4982936    5.7473881    3779.3753 
   12000    1.2481986   -6.4390347            0   -4.5672048    5.6788365    3766.9645 
Loop time of 0.500283 on 48 procs for 2000 steps with 4000 atoms

Performance: 690808.970 tau/day, 3997.737 timesteps/s
99.6% CPU use with 48 MPI tasks x no OpenMP threads

MPI task timing breakdown:
Section |  min time  |  avg time  |  max time  |%varavg| %total
---------------------------------------------------------------
Pair    | 0.20671    | 0.23571    | 0.26537    |   2.1 | 47.12
Neigh   | 0.031766   | 0.033945   | 0.037782   |   0.6 |  6.79
Comm    | 0.14909    | 0.17233    | 0.2006     |   2.9 | 34.45
Output  | 5.0377e-05 | 5.2155e-05 | 6.7263e-05 |   0.0 |  0.01
Modify  | 0.03839    | 0.053817   | 0.07235    |   4.1 | 10.76
Other   |            | 0.004431   |            |       |  0.89

Nlocal:        83.3333 ave          89 max          74 min
Histogram: 1 0 3 6 4 4 11 2 8 9
Nghost:        1708.83 ave        1730 max        1685 min
Histogram: 2 2 3 3 11 10 5 5 5 2
Neighs:        10128.5 ave       11171 max        8716 min
Histogram: 1 2 2 6 4 10 8 6 7 2

Total # of neighbors = 486166
Ave neighs/atom = 121.54150
Neighbor list builds = 143
Dangerous builds = 11

#############################
# L I N E A R  Q U E N C H  #
#############################

# Define solid atoms. This closely follows ten Wolde  Ruiz-Montero and Frenkel  Faraday Discuss  1996  104  93-110
# Compute components of the per-atom q6 vector
compute q6 all orientorder/atom degrees 1 6 components 6 nnn NULL cutoff 1.3 # compute the Q6 parameter.
                                                                             # Use all neighbours within 1.3 unit cell.

# get number of connections
compute coord_number all coord/atom orientorder q6 0.5

# An atom is solid if it has 8 or more connections (of a possible 14)
variable is_solid atom c_coord_number>=8
group solid dynamic all var is_solid    # Must be dynamic to update
dynamic group solid defined

# do clustering
compute cluster solid cluster/atom 1.3 # Create a cluster where all atoms within are solid and max 1.3 units from another member

# define chunks one chunk per cluster
compute clus_chunks solid chunk/atom c_cluster nchunk every compress yes  # Says which atoms are in which chunk

# count the size of each chunk
compute size_chunks solid property/chunk clus_chunks count


# Find the maximum entry in the vector of chunk sizes
variable max_n equal max(c_size_chunks)


# Thermo style which includes this variable
# thermo_style custom step temp pe vol v_max_n

thermo ${N}  # Print the thermo information every 100 steps
thermo 1000  

# Reset the npt fix at a lower temperature (below freezing)
fix 1  all npt temp  ${temp} ${temp}  0.1  iso  5.68  5.68  0.5  mtk yes tchain  5  pchain  5
fix 1  all npt temp  0.45 ${temp}  0.1  iso  5.68  5.68  0.5  mtk yes tchain  5  pchain  5
fix 1  all npt temp  0.45 0.45  0.1  iso  5.68  5.68  0.5  mtk yes tchain  5  pchain  5

dump dmp2 all dcd ${N} traj.dcd
dump dmp2 all dcd 1000 traj.dcd


compute msd all msd com yes
variable twopoint equal c_msd[4]/6/(step*dt+1.0e-6)
fix 9 all vector 10 c_msd[4]
variable fit equal slope(f_9)/6/(10*dt)
thermo_style custom step temp pe c_msd[4] v_twopoint v_fit v_max_n

fix 1 all npt temp 1.25 ${temp} 0.1 iso 5.68 5.68 0.5 mtk yes tchain 5 pchain 5
fix 1 all npt temp 1.25 0.45 0.1 iso 5.68 5.68 0.5 mtk yes tchain 5 pchain 5
run 5000000 # 5000000  # Run for this many steps
Neighbor list info ...
  update every 1 steps, delay 10 steps, check yes
  max neighbors/atom: 2000, page size: 100000
  master list distance cutoff = 3.8
  ghost atom cutoff = 3.8
  binsize = 1.9, bins = 9 9 9
  4 neighbor lists, perpetual/occasional/extra = 1 3 0
  (1) pair lj/cut, perpetual
      attributes: half, newton on
      pair build: half/bin/atomonly/newton
      stencil: half/bin/3d
      bin: standard
  (2) compute orientorder/atom, occasional
      attributes: full, newton on
      pair build: full/bin/atomonly
      stencil: full/bin/3d
      bin: standard
  (3) compute coord/atom, occasional
      attributes: full, newton on
      pair build: full/bin/atomonly
      stencil: full/bin/3d
      bin: standard
  (4) compute cluster/atom, occasional
      attributes: full, newton on
      pair build: full/bin/atomonly
      stencil: full/bin/3d
      bin: standard
Per MPI rank memory allocation (min/avg/max) = 9.763 | 9.770 | 9.777 Mbytes
Step Temp PotEng c_msd[4] v_twopoint v_fit v_max_n 
   12000    1.2481986   -6.4390347 1.1434539e-30 7.9406516e-33 8.3333333e+20            3 
   13000    1.2164229    -6.419352   0.54218076 0.0034755176  0.044895852            1 
   14000    1.2589856   -6.4290515    1.1316419 0.0067359635  0.046742157            3 
   15000    1.2353913   -6.4357941     1.685924 0.0093662441   0.04688797            4 
   16000    1.2596757   -6.4025271    2.2445089   0.01169015  0.046930337            3 
   17000    1.2603659   -6.4362664    2.7344073  0.013403957  0.046405084            3 
   18000    1.2429576   -6.4502678    3.2954928   0.01525691  0.045920088            1 
   19000     1.218645    -6.381208    3.8643773  0.016949023  0.045799593            2 
   20000    1.2221904   -6.4274334    4.3722872  0.018217863  0.045744619            2 
   21000    1.2163495   -6.4275827    4.8758952   0.01934879  0.045357435            2 
   22000     1.272142   -6.4477755    5.2796245  0.019998577  0.044845187            2 
   23000    1.2413008   -6.4118204     5.740728  0.020799739  0.044099288            2 
   24000    1.2405697   -6.4564841    6.3444641  0.022029389   0.04364468            2 
   25000    1.2447049   -6.3853172    6.9132537  0.023044179  0.043538646            2 
   26000    1.2541752   -6.4413577    7.4379607  0.023839617  0.043513475            2 
   27000    1.2446908   -6.4815431    7.9485909  0.024532688  0.043599759            2 
   28000    1.2494085   -6.4252493     8.485261  0.025253752  0.043631924            3 
   29000    1.2531256   -6.4261583     9.050516  0.026007229  0.043647175            1 
   30000    1.2290575    -6.419879    9.3910145  0.026086151  0.043583716            4 
   31000    1.2411911   -6.4446244    9.8868151   0.02657746   0.04341279            2 
   32000    1.2759127    -6.417829    10.349748  0.026952469  0.043269829            2 
   33000     1.258978   -6.3995953    10.768701  0.027193689  0.043009982            2 
   34000    1.2394103   -6.4299673    11.221808   0.02750443  0.042776094            2 
   35000    1.2422898   -6.4601943    11.763563  0.028008482  0.042609795            3 
   36000    1.2625129   -6.4504741    12.327767  0.028536498  0.042489609            4 
   37000    1.2283565   -6.4515103    12.868243  0.028982529  0.042401527            3 
   38000    1.2593418   -6.4778416    13.325679  0.029222981  0.042336116            2 
   39000    1.2209829   -6.4282337    13.978685  0.029868984  0.042298002            2 
   40000    1.2380738   -6.4193952     14.39952  0.029998999  0.042300808            4 
   41000    1.2347802   -6.4568239     14.85006  0.030183049  0.042258924            2 
   42000    1.2668331   -6.4329629    15.394854  0.030545345  0.042199549            3 
   43000    1.2220191   -6.4390159    15.905921  0.030825429   0.04218102            5 
   44000    1.2496906    -6.424941    16.287907  0.030848309  0.042127456            5 
   45000    1.2405219   -6.4038247    16.727964   0.03097771  0.042050617            1 
   46000    1.2707811    -6.437299    17.229942  0.031213662  0.041967924            2 
   47000    1.2433531   -6.4392802    17.861897  0.031670031  0.041952017            3 
   48000    1.2833314   -6.4507344    18.453452  0.032037242  0.041949048            1 
   49000    1.2533672   -6.4078893    19.128561  0.032531566  0.042001634            1 
   50000    1.2389985   -6.4223819    19.775905  0.032959841  0.042084268            3 
   51000    1.2389301   -6.4346818    20.188076  0.032987052  0.042172874            3 
   52000    1.2624098   -6.3883978    20.813547  0.033355042  0.042264501            4 
   53000    1.2234389   -6.4349496    21.285426  0.033467651  0.042361475            3 
   54000    1.2384635    -6.450721    21.894676   0.03378808  0.042437656            2 
   55000    1.2066659   -6.4585062    22.454142  0.034021427  0.042525535            3 
   56000    1.2580638   -6.4636427    22.975726  0.034190068  0.042633611            2 
   57000    1.2252399   -6.4701469    23.455629  0.034291855  0.042705111            2 
   58000    1.2169693   -6.4532568    24.036252  0.034534845  0.042787024            1 
   59000    1.2786053   -6.4523352    24.461892  0.034550694  0.042842374            1 
   60000    1.2439301   -6.4387645    25.081187  0.034834982  0.042881109            2 
   61000    1.2357475   -6.4318945    25.325003  0.034596998  0.042898964            2 
   62000    1.2338275   -6.4553291    25.861035  0.034759455  0.042908161            3 
   63000    1.2668775   -6.4159957    26.558658    0.0351305   0.04291947            1 
   64000    1.2313557   -6.4250374    27.074565   0.03525334  0.042939852            3 
   65000    1.2139954   -6.4778651    27.754778  0.035583049  0.042989503            1 
   66000    1.2410802   -6.4717959    28.366746  0.035816598  0.043055609            3 
   67000    1.2482299   -6.4236694    28.877686  0.035917519  0.043114602            4 
   68000    1.2557355   -6.4507753     29.34694  0.035964387  0.043166513            3 
   69000     1.245677   -6.4512353     29.90653  0.036118998  0.043220162            2 
   70000    1.2304826   -6.4722868     30.07182  0.035799786  0.043249513            2 
   71000    1.2508086   -6.4844428    30.365883  0.035640707  0.043238131            4 
   72000    1.2428866   -6.4461374    31.159148  0.036063829  0.043230478            1 
   73000    1.2579958   -6.4124216    31.376335  0.035817733  0.043212725            2 
   74000    1.2312339   -6.4717526    31.963619  0.035995066  0.043186839            1 
   75000     1.224194   -6.4134773    32.487657  0.036097396  0.043164276            2 
   76000    1.2646566    -6.435983    32.857947   0.03602845   0.04313651            1 
   77000    1.2156875   -6.4551851    33.480955  0.036234799  0.043105576            3 
   78000     1.228142     -6.45537    34.065848  0.036395137  0.043080404            3 
   79000    1.2298193   -6.4650066    34.260911  0.036140201  0.043053343            3 
   80000    1.2434499   -6.4098599    34.788802  0.036238336  0.043019609            1 
   81000    1.2424053   -6.4767532    35.467644  0.036489346  0.042992335            2 
   82000    1.2119191   -6.4395783    35.984636  0.036569752  0.042969152            3 
   83000    1.2338704   -6.4399654    36.650881  0.036798073   0.04295731            1 
   84000    1.2460992   -6.4270883    36.929112  0.036636023  0.042934513            2 
   85000    1.2603699   -6.4781303    37.201631  0.036472187  0.042897119            2 
   86000    1.2158292   -6.4517684    37.831815  0.036658735   0.04285848            1 
   87000    1.2115284   -6.4431662    38.292552   0.03667869   0.04282425            3 
   88000    1.2648476   -6.4359977    38.658144  0.036608091  0.042774993            4 
   89000    1.2266109   -6.4850278    38.876411  0.036401134  0.042714023            1 
   90000    1.2388296   -6.4320827    39.365209  0.036449267  0.042650246            2 
   91000     1.229782   -6.4797128    39.978988  0.036610795  0.042593472            1 
   92000    1.2268016   -6.4375103    40.325595  0.036526807  0.042538307            2 
   93000    1.2408157   -6.4359076    40.892611  0.036642124  0.042482135            1 
   94000    1.2273345   -6.4596692    41.275545  0.036591795  0.042423823            3 
   95000     1.239938   -6.4420273     41.95337  0.036801202  0.042372195            1 
   96000    1.2372864   -6.4396812    42.369262  0.036778873  0.042330518            1 
   97000    1.2376043   -6.4562573    42.768134  0.036742383  0.042279073            1 
   98000    1.2277723   -6.4690893    43.306412   0.03682518   0.04222817            1 
   99000    1.2269785    -6.452733    43.910862  0.036962005  0.042191427            2 
  100000    1.2442616   -6.4230785    44.619716  0.037183097  0.042157388            1 
  101000    1.2541642    -6.428272    44.869631  0.037021148  0.042128803            3 
  102000    1.2075746   -6.4041058    45.570983  0.037231195  0.042099849            4 
  103000    1.2319248   -6.4582884    45.918299  0.037150727  0.042074499            4 
  104000    1.2220616    -6.456978    46.373356  0.037158138  0.042051507            2 
  105000    1.2500022   -6.4817573    46.884903   0.03721024  0.042029679            1 
  106000    1.2218867   -6.4458784    47.226572  0.037127808  0.042002782            2 
  107000    1.2308531   -6.4213099      47.7141  0.037160514  0.041976012            2 
  108000    1.2343733   -6.4814732    48.137694  0.037143282  0.041944086            1 
  109000     1.233057   -6.4700009    48.761416   0.03727937  0.041915747            3 
  110000    1.2421111   -6.4581138     49.27999  0.037333326  0.041892771            2 
  111000    1.2162282   -6.4508731    49.768457  0.037363706  0.041873107            2 
  112000    1.2656731   -6.4479907    50.267445  0.037401372  0.041849142            2 
  113000    1.2532971    -6.410822    50.671269  0.037368192  0.041820345            1 
  114000    1.2244258   -6.4459481    51.104935  0.037357409  0.041793161            1 
  115000    1.2405697   -6.4465994    51.574162  0.037372581  0.041764312            2 
  116000     1.224348   -6.4572177    52.119026  0.037441829  0.041740747            2 
  117000    1.2263747   -6.4609017    52.726005  0.037554134  0.041718926            2 
  118000    1.2171721     -6.46594    53.246956  0.037603783  0.041698763            3 
  119000    1.2271169   -6.4593855    53.740884  0.037633672   0.04168392            2 
  120000    1.2295003    -6.456768    54.319045  0.037721559  0.041671129            1 
  121000    1.2176651   -6.4568203    54.673288  0.037653779  0.041660263            1 
  122000    1.2308836   -6.4903103    55.400252  0.037841702  0.041651336            2 
  123000    1.2377355   -6.5025983    55.851473  0.037839751  0.041648342            2 
  124000    1.2560772   -6.4766258     56.31315  0.037844859  0.041641803            3 
  125000    1.2289237   -6.4637803    56.942899  0.037961933  0.041633492            1 
  126000    1.2376164   -6.4719324    57.347434  0.037928197  0.041626712            1 
  127000    1.2027442   -6.4757325      58.0136  0.038066667  0.041626415            2 
  128000    1.2181362   -6.5296594    58.528902  0.038104754  0.041629386            1 
  129000    1.2131109   -6.4522682    58.745638  0.037949379  0.041622516            1 
  130000    1.2356478   -6.4683105    59.502617  0.038142703  0.041617324            2 
  131000     1.213927   -6.4722179    59.739582  0.038002278  0.041611738            1 
  132000    1.2379296   -6.4624406    60.411245  0.038138412  0.041607786            2 
  133000    1.2473909   -6.4590801    60.818538  0.038106853  0.041605032            1 
  134000    1.2066003   -6.4433216    61.226716  0.038076316  0.041600114            4 
  135000    1.2529871   -6.4575365    61.775316  0.038132911   0.04159495            2 
  136000    1.2146431    -6.455354    62.235987  0.038134796  0.041589922            2 
  137000    1.2411341   -6.4833744    62.878454  0.038247234  0.041585611            1 
  138000    1.2113695    -6.458718    63.181894  0.038153318  0.041574839            1 
  139000     1.250552   -6.4656448    63.519358   0.03808115  0.041568401            2 
  140000    1.2451995   -6.4939261    64.121605  0.038167622  0.041559184            1 
  141000     1.230841   -6.4778121    64.912609  0.038364426  0.041553448            1 
  142000    1.2307848   -6.4465178     65.29348   0.03831777  0.041552006            4 
  143000    1.2313981   -6.4927563    65.732607  0.038305715  0.041546749            1 
  144000    1.1876329    -6.479736    66.223762  0.038323936  0.041540852            1 
  145000    1.2291218   -6.4747785    66.910199  0.038454137  0.041536729            3 
  146000    1.2364392     -6.45584    67.373093  0.038454961  0.041531034            2 
  147000    1.2663646   -6.4316953    67.785341  0.038427064  0.041522373            5 
  148000    1.2294511   -6.4295193    68.284342  0.038448391  0.041512075            3 
  149000    1.2522131   -6.4486793    68.495672  0.038308541  0.041498823            1 
  150000    1.2462505   -6.4885339    68.369465  0.037983036  0.041482706            4 
  151000    1.2595007   -6.4843188    69.296214  0.038242944  0.041461623            1 
  152000     1.222627   -6.5123044    69.582659  0.038148387   0.04144855            3 
  153000    1.2237925   -6.4513499    70.179934  0.038224365  0.041436129            1 
  154000    1.2271769   -6.4575381    71.118802    0.0384842  0.041427615            2 
  155000    1.2316169   -6.4744697     71.49155  0.038436317   0.04142217            4 
  156000    1.2477074   -6.4504072    71.923939  0.038420908  0.041421026            3 
  157000     1.233464   -6.4627757    72.989226  0.038741627  0.041418704            2 
  158000    1.2118581   -6.4802903    73.359443  0.038691689  0.041419119            1 
  159000    1.2232087   -6.4426182    73.698292  0.038625939  0.041419428            1 
  160000    1.2135445   -6.4490174    74.402612   0.03875136  0.041420831            2 
  161000    1.2192411   -6.4862851    74.777526  0.038704723   0.04142363            4 
  162000    1.2210403   -6.5271108    75.015941  0.038588447  0.041425408            1 
  163000    1.2367902   -6.4638902    75.708669  0.038705863  0.041423484            3 
  164000    1.2191428   -6.4608783    76.400382  0.038821332  0.041424687            1 
  165000    1.2419021   -6.4669262    76.791794  0.038783734  0.041423121            2 
  166000    1.1990728   -6.4995511    76.991722  0.038650463  0.041420778            3 
  167000    1.2285785   -6.4643949    78.207162   0.03902553  0.041423505            2 
  168000     1.206178   -6.5012626    78.570346  0.038973386  0.041431864            1 
  169000    1.2418671   -6.4889845    78.968456  0.038939081   0.04143941            4 
  170000    1.2170575    -6.498958    79.353732  0.038898888   0.04144367            1 
  171000    1.2367425   -6.4861146     79.92355  0.038949098  0.041447554            3 
  172000    1.2572965   -6.4827421    80.387504  0.038947434  0.041449862            2 
  173000    1.2181049   -6.4832882    80.853595  0.038946819  0.041454387            4 
  174000    1.2283582   -6.4974458    81.434925  0.039001401  0.041457365            1 
  175000    1.2081912   -6.4735842    81.970037  0.039033351  0.041459425            1 
  176000    1.1927176   -6.4855555    82.404743  0.039017397  0.041464933            2 
  177000    1.2181394   -6.4739601     83.07228  0.039111243  0.041473398            2 
  178000    1.2103394   -6.4791938    83.752734  0.039210082   0.04148415            2 
  179000    1.2461084   -6.4685115    84.734484  0.039448084  0.041497125            2 
  180000    1.2172682   -6.4668128    84.871383  0.039292307  0.041512365            4 
  181000     1.206827   -6.4882301    85.655716  0.039436333  0.041527784            1 
  182000    1.2390592   -6.4913207    86.151227  0.039446532  0.041540572            1 
  183000    1.2333968   -6.4757321    86.643382  0.039455092  0.041554195            2 
  184000    1.2137571   -6.5026371    87.319182  0.039546731  0.041570275            2 
  185000    1.2499519   -6.5207168    87.267131  0.039309519  0.041584179            3 
  186000    1.2389991   -6.4795533    88.067366  0.039456705  0.041594637            1 
  187000    1.2195065   -6.4875615    88.601857  0.039483894  0.041607487            2 
  188000    1.2189918   -6.4778602    89.142056  0.039513322  0.041618005            2 
  189000     1.229345    -6.421109    89.748179  0.039571507  0.041628474            2 
  190000    1.2104836   -6.4863957    90.440423  0.039666852  0.041642339            1 
  191000    1.2337428   -6.4805339    91.393513  0.039875005  0.041658109            1 
  192000    1.2195676   -6.4717742    91.881896  0.039879295  0.041675531            2 
  193000    1.2198783   -6.4688566    92.689463  0.040021357  0.041694652            1 
  194000    1.2229988   -6.4760372    92.978693  0.039939301  0.041717719            3 
  195000    1.2349833   -6.4421404    93.549748  0.039978524  0.041740139            2 
  196000    1.2306392   -6.5113624    93.537777  0.039769463  0.041757988            3 
  197000    1.2329912   -6.4730714    94.278063  0.039880737  0.041771021            3 
  198000    1.2016277   -6.4800275    94.305502  0.039690868  0.041781253            3 
  199000     1.232757   -6.5345715    94.876728  0.039730623  0.041791966            2 
  200000       1.2182   -6.4858562    95.406037  0.039752515  0.041804788            2 
  201000    1.2195081    -6.466892    96.084407  0.039835989  0.041817958            2 
  202000    1.2376307   -6.4846955    96.583607  0.039844722  0.041829001            3 
  203000    1.2079719   -6.4913899    96.719793  0.039704348  0.041839331            1 
  204000    1.2385758   -6.5190837    97.257167  0.039729235  0.041845573            1 
  205000    1.2304374   -6.5076803    97.433336  0.039607047  0.041851243            2 
  206000    1.1985105   -6.4650031    98.174704  0.039714686  0.041855949            1 
  207000    1.2273269   -6.4684574    98.995818  0.039853389  0.041860732            1 
  208000    1.2098441   -6.4562217    99.466093  0.039850197  0.041865556            2 
  209000    1.2079875   -6.4937396    99.459447  0.039656877   0.04186924            4 
  210000    1.2063272   -6.5119954    99.735019  0.039577388  0.041870188            2 
  211000    1.2283561   -6.4967983    100.11015  0.039537975  0.041872141            2 
  212000    1.2086145   -6.4595135    101.36879  0.039846224  0.041873756            2 
  213000    1.2234777   -6.4785902     101.7307  0.039800744  0.041877538            3 
  214000    1.2421241   -6.4542697    102.73462  0.040005694  0.041882032            2 
  215000    1.2209721   -6.4555765    102.91626  0.039890022  0.041888996            2 
  216000    1.2258275   -6.4382826    103.35839  0.039875922  0.041895407            2 
  217000    1.2242278   -6.5149472    104.00123  0.039939027  0.041901133            2 
  218000    1.2498873   -6.5091148    104.21036  0.039835766  0.041906475            3 
  219000    1.2043407   -6.4743829    104.75587   0.03986144   0.04191003            2 
  220000    1.2300229    -6.475079    104.92907  0.039745861  0.041911959            1 
  221000    1.2043212   -6.5069015    105.11746  0.039637052  0.041911697            1 
  222000    1.1926036    -6.473343    105.73762  0.039691299  0.041911163            2 
  223000    1.2103776   -6.4918316    106.76173  0.039896014  0.041912595            2 
  224000    1.2174179   -6.4914315    107.18213  0.039874305  0.041913121            1 
  225000    1.2029341   -6.5098503    107.81283  0.039930678  0.041912837            1 
  226000    1.1996348   -6.4902825    107.94426  0.039802456  0.041913786            1 
  227000    1.1939864   -6.5242439    108.15701  0.039705216  0.041914368            2 
  228000    1.2242898   -6.5013821    109.07893   0.03986803  0.041912984            2 
  229000    1.2316144   -6.5135895    109.34735  0.039791614  0.041911909            4 
  230000    1.2031975   -6.4752199    109.94189  0.039834018  0.041912116            2 
  231000    1.1985797    -6.519521    110.48853  0.039858778  0.041911889            3 
  232000    1.2428748   -6.5090059    110.60296  0.039728074   0.04191121            2 
  233000    1.2435775   -6.5029834    111.36261   0.03982926  0.041910191            4 
  234000    1.2182131   -6.4741741    112.28362  0.039987043  0.041909686            1 
  235000    1.2217917   -6.4945622    112.29333  0.039820331  0.041910657            2 
  236000     1.213078   -6.4485219    112.72145  0.039802771  0.041909544            3 
  237000    1.1889486   -6.5123799    112.94808  0.039714515  0.041907371            2 
  238000    1.1970081   -6.5151872    113.42586  0.039714935  0.041903831            4 
  239000    1.2124414   -6.4945642    114.39418  0.039886396   0.04190236            1 
  240000    1.2078138   -6.5155558    115.10048  0.039965443  0.041902551            2 
  241000    1.2003443   -6.4849492    115.54364   0.03995285   0.04190501            2 
  242000    1.2040071   -6.5387918    115.97593  0.039936614  0.041907356            5 
  243000    1.2114024   -6.5028484     117.2878  0.040222155  0.041910084            2 
  244000    1.1931575   -6.5281288    117.18127  0.040020924  0.041914374            2 
  245000    1.2016615   -6.4953014    118.06481    0.0401581  0.041917994            2 
  246000    1.1973199   -6.4632991    118.00222  0.039973653  0.041922061            2 
  247000    1.2222855   -6.4814973    119.00727  0.040150901  0.041924095            5 
  248000    1.2311619   -6.5037586    118.76367  0.039907147  0.041924153            2 
  249000    1.2273585   -6.4684689    120.13657  0.040206349  0.041926023            2 
  250000    1.2073934   -6.4688853     120.7458  0.040248601  0.041930062            1 
  251000     1.209729   -6.4856763    121.21193  0.040243004  0.041933979            2 
  252000    1.2180677   -6.5296748    121.79683  0.040276729  0.041938261            1 
  253000    1.1916187   -6.5053848    121.95765  0.040170503  0.041943506            2 
  254000    1.2232683     -6.46183    122.29966  0.040124559  0.041947291            3 
  255000    1.2272852   -6.5263365    122.75903   0.04011733  0.041948557            5 
  256000    1.2241562   -6.5139927     123.3794  0.040162564  0.041951293            4 
  257000    1.2422842   -6.4887507    124.30667  0.040306961  0.041956179            2 
  258000    1.1943168     -6.50473    124.51345  0.040217523  0.041960754            1 
  259000    1.1834074   -6.4878675    124.97505  0.040210764   0.04196443            4 
  260000    1.2051167   -6.4599558    125.59348  0.040254319  0.041966448            3 
  261000    1.2020901   -6.4823319    126.16352  0.040282095  0.041967936            1 
  262000    1.2064435   -6.4582536    126.77569  0.040323057  0.041971856            1 
  263000     1.212247   -6.4721277    127.22357   0.04031165   0.04197536            2 
  264000    1.2093048   -6.5193805    127.47228  0.040237461  0.041977932            3 
  265000    1.2111487   -6.5249253    127.72389  0.040164744  0.041979688            2 
  266000    1.1815998   -6.5190639    128.31442  0.040198754  0.041981917            1 
  267000    1.2268555   -6.4953947    128.53164  0.040115993  0.041985561            1 
  268000    1.2287438   -6.4838945    129.77066  0.040351572  0.041988248            1 
  269000    1.2158432   -6.4766736    129.58897  0.040145281  0.041989895            3 
  270000    1.2135986   -6.4830768    129.87529  0.040084965  0.041988206            2 
  271000    1.2264953    -6.471649    130.62814  0.040168556  0.041986802            2 
  272000    1.1893698   -6.5261677    130.85752  0.040091153  0.041985227            1 
  273000    1.1887107   -6.5230421    130.90517  0.039958844  0.041982351            2 
  274000    1.2264062   -6.4890139    131.95018  0.040130834  0.041980145            3 
  275000    1.2090717   -6.5190872    132.13306  0.040040322  0.041976356            2 
  276000    1.2101429   -6.5331449    132.79007  0.040093619  0.041972923            3 
  277000    1.2123593   -6.5002438    133.19511   0.04007073  0.041967448            4 
  278000    1.1810659   -6.4843964     133.5211  0.040024311  0.041960585            2 
  279000    1.1835213   -6.4931531    133.86169  0.039982584  0.041954804            3 
  280000    1.2051521   -6.5174275    134.33949  0.039981991  0.041949841            3 
  281000    1.2105591   -6.5069671    134.93351  0.040015868  0.041944949            2 
  282000    1.2216474   -6.4942494    134.95589  0.039880581  0.041938542            1 
  283000    1.1934296    -6.470044     135.2926   0.03983881  0.041929955            1 
  284000    1.1896375   -6.5134593     135.7529  0.039833598  0.041921415            2 
  285000    1.2095856   -6.5307642    136.66316  0.039959987  0.041912346            2 
  286000    1.2228243   -6.5339343    136.59621  0.039800761  0.041904382            1 
  287000    1.1876012   -6.5033541    137.29484  0.039864936  0.041898409            2 
  288000    1.1938667   -6.5252961     138.1029   0.03996033  0.041892592            4 
  289000    1.1869242   -6.5223891    138.93197  0.040061121   0.04188765            1 
  290000    1.2032217   -6.5094212     139.3005  0.040028881  0.041882533            2 
  291000    1.2013519   -6.5468064    139.37013  0.039911263     0.041876            1 
  292000    1.2181564   -6.4980568    140.17271  0.040003628  0.041868781            2 
  293000    1.2016878   -6.5249278     139.9633  0.039807538  0.041860855            2 
  294000    1.1816834   -6.5009624    140.78113  0.039903948  0.041852304            3 
  295000    1.2021919   -6.5161301    140.73866  0.039756685  0.041843587            2 
  296000    1.1999155   -6.5150319    141.05489    0.0397114  0.041832089            2 
  297000    1.2038417   -6.5079127    141.21437  0.039622437  0.041819804            2 
  298000    1.1901243   -6.5344005    142.45536  0.039836511  0.041808546            2 
  299000    1.2183363   -6.5346061    142.52166  0.039721756  0.041796961            2 
  300000    1.2051401   -6.4837401    143.07709  0.039743636  0.041786924            2 
  301000    1.2080186   -6.5307566    143.75555  0.039799432   0.04177613            3 
  302000    1.2034678    -6.544173    144.48709  0.039869507  0.041765126            2 
  303000    1.2133438   -6.5062668    144.41854  0.039719071  0.041755096            1 
  304000     1.202917   -6.4829232    145.46011  0.039873934   0.04174583            2 
  305000    1.2251906   -6.5223321    145.64789  0.039794504  0.041736396            3 
  306000    1.1907232   -6.4952793    146.21366  0.039818536  0.041726498            2 
  307000    1.2120646   -6.5226436      146.794  0.039846363  0.041716317            1 
  308000    1.2168992   -6.5439958    146.97728   0.03976658  0.041708965            1 
  309000    1.2246621   -6.5367778    148.02861  0.039921416  0.041703255            2 
  310000    1.2000786   -6.5161563    148.63354  0.039955254  0.041696637            4 
  311000    1.1966391    -6.521541    148.80715  0.039873298  0.041690625            1 
  312000    1.1898136   -6.5063034     149.7748  0.040003954  0.041684939            1 
  313000    1.1766819   -6.5223759    149.58213  0.039824848  0.041677791            1 
  314000    1.2072586   -6.4929239    150.39456   0.03991363  0.041670353            3 
  315000    1.1787639   -6.5487544    150.71979  0.039872961   0.04166363            3 
  316000    1.2152666   -6.5185704    151.58913  0.039976036  0.041656786            2 
  317000      1.26077   -6.5009163    151.76005  0.039894862  0.041650192            1 
  318000    1.2051958   -6.5473331    151.86727  0.039797503  0.041642001            2 
  319000    1.1922308   -6.5137033    152.33809   0.03979574  0.041633716            1 
  320000    1.2257545    -6.512871    153.06332   0.03986024  0.041626199            3 
  321000    1.1786966   -6.5141486    153.44015  0.039833891   0.04161825            2 
  322000    1.1926231    -6.490247    154.22622  0.039913618  0.041611152            1 
  323000    1.2124047   -6.4784927    154.44114  0.039845495  0.041603832            8 
  324000    1.1905363   -6.5054876    154.38455  0.039707961   0.04159651            6 
  325000    1.1772026   -6.5238008    154.82535  0.039698807   0.04158728            2 
  326000    1.2066135   -6.5155252    155.13145  0.039655279  0.041576143            6 
  327000    1.2032255   -6.5036888    155.97367  0.039748642  0.041565829            4 
  328000    1.2320892   -6.4968672    156.57359  0.039779876   0.04155466            3 
  329000    1.1967241   -6.5436408    156.19225  0.039562373  0.041541698            2 
  330000    1.2156232   -6.4984391    156.99958  0.039646359  0.041529257            1 
  331000    1.2090986   -6.5536181    156.75072  0.039463927  0.041516604            4 
  332000    1.2252012   -6.5175999    157.29469  0.039481598  0.041502704            1 
  333000    1.1906445   -6.4924373    157.76791  0.039481458  0.041489241            1 
  334000      1.19246   -6.5127136    158.34744  0.039507844  0.041475228            4 
  335000      1.19019   -6.5070601    158.35066  0.039390712  0.041461073            2 
  336000    1.2023458   -6.5293916    158.56278  0.039326086  0.041446168            2 
  337000    1.1967556   -6.4757337    159.28362  0.039387642  0.041430966            3 
  338000    1.1906628   -6.4948317    160.31964  0.039526539  0.041416761            1 
  339000    1.2019005   -6.5240821    160.73113  0.039511093  0.041402579            4 
  340000    1.1799258   -6.5342374    161.03401   0.03946912  0.041388985            3 
  341000    1.2115907   -6.5233899    161.25091   0.03940638  0.041375209            2 
  342000    1.2102733   -6.5528702    161.26919  0.039295612  0.041360965            2 
  343000    1.2300488   -6.5411865    162.50703  0.039481787  0.041346832            2 
  344000    1.1940667   -6.5395779    162.62774  0.039396254  0.041332776            2 
  345000    1.2048609   -6.5213963    162.82759  0.039330337  0.041317984            1 
  346000    1.1607881   -6.5564949    163.06536  0.039273931  0.041303054            3 
  347000     1.179453   -6.5193996    163.21935  0.039197731  0.041287271            3 
  348000    1.2053483   -6.4992995    163.92585  0.039254275  0.041271029            1 
  349000    1.1691427   -6.5524376    163.85785  0.039125562  0.041254655            3 
  350000    1.1947344   -6.5411133    164.68725  0.039211251  0.041238176            2 
  351000    1.2016003   -6.6019876    164.65723  0.039092409   0.04122011            4 
  352000    1.1789852   -6.5015944    165.90689    0.0392772  0.041203059            5 
  353000    1.1453391   -6.4970445    166.12373  0.039217122   0.04118642            3 
  354000    1.2102979     -6.49405    166.99786  0.039312115  0.041170651            3 
  355000    1.1915266   -6.5253113    167.72965  0.039373157  0.041155709            1 
  356000    1.1977974   -6.4979671    167.81266  0.039281991  0.041139976            2 
  357000    1.2062836   -6.5197406    167.44204  0.039085443  0.041124239            2 
  358000    1.1826294   -6.5630233    168.30511  0.039177167  0.041107261            1 
  359000    1.2002083   -6.5147503    169.14321  0.039262584  0.041091221           10 
  360000    1.2006752   -6.4902997    169.40263  0.039213571  0.041075106            2 
  361000    1.1725787   -6.5126587    169.91738  0.039223771  0.041058893            2 
  362000    1.1937553   -6.5355055    170.12627  0.039163506  0.041043434            1 
  363000    1.1989244   -6.5300784    170.38314  0.039114586  0.041027491            6 
  364000    1.1976009   -6.5244909    170.66987  0.039072771  0.041012186            1 
  365000    1.1864742   -6.5575125    171.80551  0.039225003  0.040996558            2 
  366000     1.181482   -6.5112162    171.35743  0.039015809  0.040980065            3 
  367000    1.1907291   -6.5687144    171.72607  0.038993203  0.040963996            1 
  368000    1.1910804   -6.5413401    172.56149  0.039076423  0.040948374            2 
  369000    1.1854714   -6.5093254    173.12504  0.039097795  0.040933961            2 
  370000    1.1826235   -6.5803164    173.24792  0.039019802   0.04091903            2 
  371000    1.2085718   -6.5194876     174.0132  0.039086524  0.040904279            1 
  372000    1.1923647    -6.524111    174.12752  0.039007062  0.040888378            2 
  373000    1.1673366   -6.5610532     174.7551  0.039042694  0.040873033            2 
  374000    1.1778885   -6.5346261    175.15726  0.039027911  0.040858608            3 
  375000    1.2056277   -6.5464126    175.80129  0.039066954  0.040844379            2 
  376000    1.1925917   -6.5254926    176.53203  0.039125007  0.040830936            2 
  377000    1.1979661   -6.5570764    176.77305  0.039074503  0.040818112            2 
  378000     1.174672   -6.5331355    177.67827  0.039170694  0.040804014            2 
  379000    1.1822795   -6.5695311    177.64654  0.039060365  0.040790837            5 
  380000    1.1977124   -6.5274336    177.90375   0.03901398   0.04077698            3 
  381000    1.1871868   -6.4944776    178.39535  0.039019105  0.040764116            3 
  382000    1.1972678   -6.5679544    178.34631  0.038906264  0.040749988            2 
  383000    1.1891782   -6.5414292    179.48843  0.039053183  0.040734702            1 
  384000    1.1666486   -6.5497312     179.4541  0.038944031  0.040719897            2 
  385000    1.1789351   -6.5320194    180.93212  0.039162797  0.040705532            3 
  386000    1.1732114   -6.5833002    180.84504  0.039042539  0.040692752            3 
  387000    1.1788529   -6.5928217    180.54933  0.038877978  0.040679374            2 
  388000    1.1827011   -6.5442234    182.02013   0.03909367  0.040665063            1 
  389000    1.1966134   -6.5468675    182.17343  0.039026013  0.040650727            2 
  390000    1.1817248   -6.5654031    182.60091  0.039017289  0.040636426            2 
  391000    1.1823714   -6.5365378    182.78552  0.038956845  0.040622311            6 
  392000    1.2001773   -6.5378073    183.50575  0.039010577  0.040608955            4 
  393000    1.1950887   -6.5644119    183.72903  0.038958657  0.040595396            3 
  394000    1.1788688   -6.5662148    183.60311  0.038833144  0.040580868            2 
  395000    1.1785447    -6.533846    185.23516  0.039079147  0.040567459            2 
  396000    1.1776879   -6.5465528     185.2263  0.038978598  0.040554905            3 
  397000    1.1872788   -6.5268911    185.29679  0.038895211  0.040542453            2 
  398000    1.1695562   -6.5442926    186.68697  0.039088562  0.040529264            1 
  399000    1.1928478   -6.5416544    186.37159  0.038924727  0.040517697            3 
  400000    1.1922935   -6.5325734    187.39392  0.039040399  0.040505143            2 
  401000    1.2006444   -6.5576619    187.61256  0.038988478   0.04049317            1 
  402000    1.1921769    -6.548896    188.97623  0.039174177  0.040481287            1 
  403000    1.2214337   -6.6022907    189.03737  0.039089613  0.040469865            2 
  404000    1.1816125   -6.5293285    189.36054  0.039059517  0.040458502            3 
  405000    1.2040622   -6.5140998     189.8333   0.03906035  0.040447736            2 
  406000    1.1611705   -6.5578374    189.28905  0.038852431  0.040435931            4 
  407000    1.1599083   -6.5128095    190.35057  0.038974317  0.040424475            5 
  408000    1.1576415   -6.5639233    190.76216  0.038962859  0.040412898            2 
  409000    1.1837401   -6.5763477    191.29633  0.038976433  0.040401307            2 
  410000    1.1761267   -6.5598747    191.64517   0.03895227  0.040390916            2 
  411000    1.1783455   -6.5622832     192.7358  0.039078628  0.040379767            1 
  412000    1.1895612   -6.5782705     192.3607  0.038907909   0.04036919            1 
  413000    1.1920566    -6.542422    192.67666  0.038877453  0.040357351            4 
  414000    1.1871179   -6.5546155    193.48382  0.038946018  0.040345174            2 
  415000    1.1907484    -6.508814    194.01292  0.038958417  0.040332324            2 
  416000    1.1876137   -6.5537233    193.99605  0.038861389  0.040319653            2 
  417000    1.1988171   -6.5689152    194.53466  0.038875831  0.040307807            4 
  418000    1.1828372   -6.5750366    195.66919  0.039009009  0.040296994            3 
  419000    1.1833943   -6.5399017    195.74935  0.038931851  0.040286685            3 
  420000     1.194232   -6.5414538    196.92244  0.039071912  0.040276706            2 
  421000    1.1831655   -6.5503873    196.57272  0.038909882  0.040266876            1 
  422000     1.192747   -6.5062931    197.49271  0.038999351  0.040256756            2 
  423000     1.186125   -6.5303101    197.64236  0.038936635  0.040246377            2 
  424000    1.1736966   -6.5650509    198.19977  0.038954356  0.040235197            2 
  425000    1.1703489   -6.5486804     198.8385  0.038987942  0.040225446            4 
  426000    1.2043183    -6.519925    199.75133  0.039074985  0.040216636            1 
  427000     1.178861   -6.5541809    199.83462  0.038999731  0.040207792            2 
  428000    1.1607832   -6.5518423    200.07616  0.038955639  0.040197158            2 
  429000     1.179993   -6.5150572    200.98833  0.039042022  0.040187268            2 
  430000    1.1708076   -6.5508176    200.52116   0.03886069  0.040177803            2 
  431000    1.1703481   -6.5877838    200.39687  0.038746494  0.040166754            2 
  432000    1.1801234   -6.5708739    201.46135  0.038862144   0.04015684            4 
  433000    1.2009562    -6.504111    201.65068  0.038808831  0.040146711            2 
  434000    1.2025598    -6.540512    202.29733  0.038843573   0.04013663            3 
  435000    1.1593188   -6.5415772    203.11788  0.038911471  0.040126949            2 
  436000    1.1962357   -6.5974302    202.52738  0.038709362  0.040116603            3 
  437000    1.1750642   -6.5691523    203.53184  0.038812327  0.040106033            2 
  438000      1.19239   -6.5172165    203.87961   0.03878988  0.040095453            2 
  439000     1.194881   -6.5583362    204.52442  0.038823921  0.040085158            2 
  440000     1.198778   -6.5797645    204.44738  0.038721094   0.04007425            2 
  441000    1.1904597   -6.5489758    204.87663  0.038714404  0.040062819            2 
  442000    1.1695502   -6.5734983    205.53282  0.038750532  0.040051066            3 
  443000    1.1947067   -6.5500113    205.97407  0.038746062  0.040039039            1 
  444000    1.1861444   -6.5649405    206.34498  0.038728412  0.040027518            2 
  445000    1.1835069   -6.5475963    207.39081   0.03883723  0.040016162            3 
  446000    1.1673908    -6.582141    207.11814  0.038699204  0.040005089            5 
  447000    1.1630923   -6.5457564     207.5476  0.038692693   0.03999412            4 
  448000    1.1606379   -6.5479973    207.94051  0.038679409  0.039982925            2 
  449000     1.201421   -6.5536477    209.18764  0.038824729  0.039971817            3 
  450000    1.1752741   -6.5668671    209.14077  0.038729772  0.039960683            1 
  451000    1.1636987    -6.538346    209.15242   0.03864605  0.039950522            2 
  452000    1.2036025   -6.5785503    210.22175  0.038757698  0.039940243            1 
  453000    1.2031267   -6.5661244    210.58613  0.038739171  0.039930748            3 
  454000    1.1925356   -6.5645238    211.76394  0.038870033  0.039921494            8 
  455000    1.1909143   -6.5784953    211.36832  0.038712147  0.039911573            3 
  456000    1.1513676   -6.5424776    212.51638  0.038837057  0.039901653            2 
  457000    1.1778264   -6.5751263    212.33278  0.038718596  0.039892399            4 
  458000    1.1821248    -6.571524    213.19995  0.038791839  0.039882744            1 
  459000    1.1944753   -6.5564898    213.35312  0.038735134  0.039874612            1 
  460000    1.1991165   -6.5458429    214.54812  0.038867412  0.039867144            3 
  461000    1.1673405   -6.5479163    214.48971  0.038772544  0.039859337            2 
  462000    1.1788326   -6.5940979    215.04279  0.038788382  0.039852139            3 
  463000    1.1657337   -6.5467984    215.97355  0.038872129  0.039844067            1 
  464000    1.1874478   -6.5472515    216.73383  0.038924897  0.039836189            1 
  465000    1.1882797   -6.5572016    217.01987   0.03889245  0.039828496            2 
  466000    1.1788146   -6.5357236    217.33106  0.038864639  0.039821365            2 
  467000    1.1733654   -6.5672679    217.43977  0.038800815  0.039813197            3 
  468000    1.1604109   -6.5708254    217.91912  0.038803262  0.039805859            2 
  469000    1.1742749    -6.562678    218.02925  0.038740094  0.039798395            1 
  470000     1.194546   -6.5844365    218.59353  0.038757718  0.039790959            2 
  471000    1.1672325   -6.5813078    218.86035  0.038722638  0.039783305            5 
  472000    1.1965303    -6.572193    220.35054  0.038903696  0.039775344            2 
  473000    1.1636618   -6.5742661    219.32038  0.038639954   0.03976743            2 
  474000    1.1685575   -6.5643556    219.91928  0.038663726  0.039758868            2 
  475000    1.1691805   -6.5971101    220.04663  0.038604673  0.039749687            1 
  476000    1.1597459   -6.5580261     220.5453  0.038610872  0.039740119            5 
  477000    1.1643108   -6.5793338    221.19072  0.038642684  0.039730058            2 
  478000    1.1897427   -6.5570121    222.00254  0.038703371  0.039721756            1 
  479000    1.1643774   -6.5652322    221.71979  0.038573381  0.039713168            6 
  480000    1.1724237   -6.5723141     222.3649  0.038605018  0.039703407            4 
  481000    1.1709287   -6.5780379    222.23994  0.038503108  0.039694469            4 
  482000    1.1699169   -6.5767545     223.4194  0.038627144  0.039684364            2 
  483000    1.1451068   -6.5703719    224.36897  0.038711002  0.039675107            1 
  484000    1.1898089   -6.5729436    223.88259  0.038547279  0.039666466            4 
  485000    1.1932249   -6.5679808    225.04007  0.038666678  0.039657664            2 
  486000    1.1610789   -6.5691906    224.68414  0.038526086  0.039648664            2 
  487000    1.1629289   -6.5613656    225.72534  0.038625143  0.039639409            3 
  488000    1.1787807   -6.5197805    226.09641  0.038609359  0.039630004            3 
  489000    1.1536115   -6.5580668    225.76387  0.038473734  0.039620524            4 
  490000    1.1691274   -6.5856497    226.96152  0.038598898  0.039611053            6 
  491000    1.1599292   -6.5860882    226.99959  0.038526746  0.039601697            1 
  492000    1.1472591   -6.5539816    227.25581  0.038491838  0.039592361            2 
  493000    1.1496257   -6.5402462    227.35749  0.038430948  0.039582112            1 
  494000    1.1432867   -6.5676731    226.85143  0.038267785  0.039571666            2 
  495000    1.1829714   -6.5577829    228.43699  0.038457406   0.03956058            3 
  496000    1.1904796   -6.5698538    228.18638  0.038337766  0.039549407            2 
  497000    1.1722878   -6.5716856    228.96689  0.038391497  0.039538763            4 
  498000     1.191726    -6.564386    229.25781  0.038363088  0.039527526            2 
  499000    1.2195175   -6.5905357    229.06206  0.038253517  0.039517129            5 
  500000    1.1703538   -6.5402252    229.95404  0.038325674   0.03950658            2 
  501000    1.1789278   -6.5614708     231.8549  0.038565352  0.039496593            2 
  502000     1.170961   -6.5606324    231.79972  0.038479369  0.039486427            2 
  503000    1.1944557   -6.6173262    231.20409   0.03830419  0.039476015            3 
  504000    1.1538704   -6.5422191    232.05942  0.038369613  0.039466049            3 
  505000    1.1932299   -6.5679448    232.38802  0.038347857  0.039456139            2 
  506000    1.1728324   -6.5554277    233.75982  0.038497994  0.039446612            1 
  507000    1.1781822   -6.5755905    233.90244  0.038445503  0.039437845            1 
  508000    1.1636414   -6.5976965    234.14444  0.038409521  0.039428688            3 
  509000    1.1903834   -6.5845461    234.68665   0.03842283   0.03941971            3 
  510000    1.1719071   -6.5723827    235.16393  0.038425479  0.039411059            8 
  511000    1.1840832   -6.5798987     235.6644  0.038431899  0.039402293            4 
  512000      1.17521   -6.5890071    236.05086  0.038419736  0.039394025            2 
  513000    1.2048539   -6.5660327    237.08397  0.038512666  0.039385622            2 
  514000    1.1550875   -6.5881922    237.48795  0.038503234  0.039377684            1 
  515000    1.1713085   -6.5524807    238.37359  0.038571778   0.03937011            2 
  516000    1.1876468   -6.5734057    237.46372  0.038350083  0.039362107            1 
  517000    1.1839772   -6.5920015    238.21335  0.038396737  0.039353613            2 
  518000    1.1580988   -6.6083773    238.89692   0.03843258  0.039345425            2 
  519000    1.1553434   -6.5723414    239.49608  0.038454733   0.03933695            5 
  520000     1.171334   -6.6169497    239.35973  0.038358932   0.03932914            5 
  521000    1.1545281   -6.5978427    239.28282  0.038273004  0.039321284            1 
  522000    1.1427307   -6.5844265    241.28558  0.038519409  0.039313121            5 
  523000    1.1945295   -6.5897896    240.50781  0.038321831  0.039304332            4 
  524000    1.1741325   -6.5723459     241.3482  0.038382348  0.039295762            3 
  525000    1.1762097   -6.5930306     241.0492  0.038261777  0.039287499            2 
  526000    1.1569193   -6.5590956    241.77315   0.03830373   0.03927922            4 
  527000      1.15965   -6.5927602    242.87335  0.038405021  0.039270836            2 
  528000    1.1906935   -6.5885123    242.94403  0.038343438  0.039262765            1 
  529000    1.1546822   -6.5991755    243.41494  0.038345139  0.039253936            2 
  530000    1.1656177   -6.5577524    243.64294  0.038308638  0.039245274            3 
  531000    1.1527934   -6.5648952    243.76507  0.038255661  0.039236294            2 
  532000    1.1741435   -6.5753662    244.89308  0.038360445  0.039227562            2 
  533000    1.1630127   -6.5447342    246.26021  0.038502222  0.039218562            3 
  534000    1.1415862   -6.6005033    245.81559  0.038360735  0.039210217            3 
  535000    1.1564182   -6.5651872    245.43612  0.038229925  0.039201582            1 
  536000    1.1677639   -6.6003148    246.44672  0.038315721  0.039192786            3 
  537000    1.1496615   -6.6044739    245.92662  0.038163659  0.039183854            4 
  538000    1.1447062   -6.6042661    247.05917  0.038268149  0.039175062            5 
  539000    1.1411797   -6.5629898    247.61635  0.038283295  0.039166128            1 
  540000    1.1580265   -6.5709583    248.28897  0.038316199   0.03915634            3 
  541000     1.175594   -6.6031492    247.97735  0.038197374   0.03914689            1 
  542000    1.1615397   -6.5821249    248.90289  0.038269202  0.039138281            3 
  543000    1.1623869   -6.5756384    250.01043  0.038368698  0.039129403            2 
  544000    1.1910684   -6.5912776    249.91031  0.038282829  0.039120624            3 
  545000    1.1591409   -6.6156681    249.96502  0.038220952   0.03911249            1 
  546000     1.185383   -6.6319777    250.29565  0.038201411  0.039104814            3 
  547000    1.1682491   -6.6244618    251.52731  0.038319213  0.039097232            3 
  548000    1.1629798   -6.5830768    251.98671  0.038319147  0.039089978            3 
  549000     1.166183   -6.5881944    253.11229  0.038420202  0.039083084            2 
  550000    1.1591991   -6.5862503    252.57044  0.038268248  0.039075777            2 
  551000    1.1721319   -6.5994426    254.26867  0.038455637  0.039068944            2 
  552000    1.1709283   -6.6115505    254.20467  0.038376309  0.039062468            3 
  553000    1.1768908   -6.5357931    254.90283   0.03841212  0.039055584            3 
  554000    1.1738721    -6.557517    255.41872  0.038420386  0.039049092            1 
  555000    1.1619277   -6.6110441    255.43509  0.038353617  0.039042857            2 
  556000    1.1762848   -6.5702914    256.69948  0.038474142  0.039036284            1 
  557000    1.1497276   -6.5878178    256.44098  0.038366394  0.039030394            2 
  558000    1.1759815   -6.6139076    257.20634  0.038411938  0.039024357            2 
  559000    1.1599751    -6.639352    257.23171  0.038347005   0.03901915            2 
  560000    1.1416944   -6.6148297    257.75019  0.038355683  0.039013607            4 
  561000    1.1538867   -6.5876897    259.30316  0.038517998  0.039008348            2 
  562000    1.1702115   -6.6019425    259.42113  0.038466952  0.039003353            3 
  563000    1.1549177   -6.5929396    259.14283  0.038357435  0.038998634            4 
  564000    1.1667323   -6.6002921    260.19949  0.038445551  0.038994106            2 
  565000    1.1472832   -6.5954927    261.43973  0.038560432  0.038990472            2 
  566000    1.1706594    -6.575509     261.8355  0.038550575  0.038986912            4 
  567000    1.1502868   -6.5610687    262.29717  0.038550437  0.038983598            3 
  568000    1.1569647   -6.6021956    262.22155  0.038471472  0.038979718            4 
  569000    1.1643527   -6.5678593    263.56536  0.038600668  0.038975731            1 
  570000    1.1665861   -6.5389616    263.25018  0.038486869   0.03897204            2 
  571000    1.1501757   -6.6534867    263.64861  0.038477614  0.038967964            2 
  572000    1.1678833   -6.6265928    263.85105  0.038439839  0.038963378            2 
  573000    1.1509821   -6.5842607    265.12228  0.038557633  0.038958897            4 
  574000    1.1445561   -6.6017822    265.18759  0.038499941  0.038954761            2 
  575000    1.1659929   -6.5925658    265.65989  0.038501433  0.038950036            2 
  576000    1.1718032   -6.6199867    265.82314  0.038458209  0.038945548            3 
  577000    1.1406757   -6.6158576    266.12135  0.038434626  0.038940471            4 
  578000    1.1429059   -6.6085875    266.20949  0.038380837  0.038935426            2 
  579000    1.1605563    -6.555145    266.71015  0.038386607  0.038930039            2 
  580000    1.1522176   -6.6089149    267.63154  0.038452808  0.038925293            2 
  581000    1.1584415   -6.5964342    267.66357  0.038391217  0.038919712            2 
  582000    1.1842031   -6.6044136    268.41471  0.038432804  0.038914814            1 
  583000    1.1817146   -6.5861589    268.49466  0.038378311  0.038910254            3 
  584000    1.1765336   -6.5756917    269.45333  0.038449391   0.03890533            2 
  585000     1.143188   -6.5834512    269.69307  0.038417816  0.038900108            2 
  586000    1.1886063   -6.5653675    270.35083  0.038445795  0.038895004            4 
  587000    1.1816706   -6.5677834     270.6966  0.038429386  0.038889701            2 
  588000    1.1864956   -6.5999522    270.05338  0.038272871  0.038883646            2 
  589000    1.1570207   -6.5980595    270.25616  0.038236581  0.038877441            6 
  590000    1.1444929   -6.6004304    271.50761  0.038348532  0.038872389            4 
  591000    1.1584451   -6.6138529    271.15238  0.038233556  0.038866997            1 
  592000    1.1772157   -6.6087689    272.38839   0.03834296  0.038862113            1 
  593000    1.1741364   -6.5838181    272.38033  0.038277169  0.038856833            2 
  594000    1.1662757   -6.6098332    273.11966   0.03831645  0.038851845            3 
  595000    1.1294185   -6.6015752    272.91691  0.038223657  0.038846636            3 
  596000    1.1406413    -6.622001    274.17954  0.038336065  0.038840945            2 
  597000    1.1434656   -6.5943879    274.39455  0.038301864  0.038835574            3 
  598000    1.1613417     -6.64192    274.26789  0.038220163  0.038829695            5 
  599000       1.1357     -6.59355    275.03506  0.038263085  0.038823639            6 
  600000    1.1479652   -6.6142809     274.7131  0.038154597  0.038817082            3 
  601000    1.1351789   -6.6059877    274.51123  0.038063121  0.038810376            3 
  602000    1.1520767    -6.605308    275.55374  0.038144206  0.038803974            2 
  603000    1.1605567   -6.5636542    277.39598  0.038335541  0.038797666            3 
  604000    1.1606028   -6.6170892    276.47678  0.038145251  0.038791499            4 
  605000    1.1761189   -6.6128965    277.23101   0.03818609   0.03878593            1 
  606000    1.1648277   -6.5799828    278.14623  0.038248932  0.038780724            2 
  607000    1.1387144   -6.6273449      278.487  0.038232702  0.038775536            1 
  608000    1.1552286   -6.5766778    279.03408  0.038244803  0.038770641            2 
  609000    1.1374368    -6.631252    279.03726  0.038182439  0.038765095            8 
  610000    1.1319506   -6.6125696    279.57164  0.038192846   0.03875923            2 
  611000    1.1546155     -6.60139    280.34326  0.038235578  0.038753594            1 
  612000    1.1442773   -6.6036289     280.7248  0.038225054  0.038747573            3 
  613000    1.1633027   -6.6173056    281.03798  0.038205272  0.038742265            3 
  614000    1.1417363   -6.6123938    281.49248  0.038204734  0.038736553            1 
  615000    1.1593586   -6.5901395     281.8272  0.038187967  0.038730833            2 
  616000    1.1445835   -6.5799846    282.14383  0.038168808  0.038724654            3 
  617000    1.1817594   -6.6285974    282.09378  0.038100187   0.03871863            4 
  618000    1.1519365   -6.6375442    283.03314  0.038165202   0.03871279            6 
  619000    1.1427692   -6.6392629    283.86098  0.038214995  0.038707283            3 
  620000    1.1464763   -6.6083675    283.87584  0.038155355   0.03870152            2 
  621000    1.1259204   -6.6165818    283.69054  0.038069047  0.038695242            2 
  622000    1.1338651   -6.5799889    283.38567  0.037966997  0.038688337            1 
  623000    1.1156555   -6.6303656    283.94048  0.037980268  0.038681726            1 
  624000    1.1650894   -6.6067952    284.38251  0.037978434  0.038675154            7 
  625000    1.1621067   -6.6331512    285.27043  0.038036058  0.038668552            2 
  626000    1.1632493   -6.6082636    285.95275  0.038066128  0.038661656            1 
  627000     1.162403   -6.6225062    285.62575  0.037961955  0.038655282            2 
  628000    1.1169436   -6.6237728    287.39238  0.038135931  0.038649167            1 
  629000    1.1293845   -6.6150774    288.15693  0.038176594  0.038642943            3 
  630000    1.1660348   -6.6064298    288.37981  0.038145477  0.038637148            2 
  631000    1.1707445   -6.5892027    288.32688  0.038078034  0.038631334            4 
  632000    1.1320141   -6.6059512    288.37701  0.038024395  0.038625792            2 
  633000    1.1387227   -6.6277667    288.42231  0.037970288  0.038619784            2 
  634000    1.1703029   -6.6109468    289.98279  0.038115508  0.038613723            2 
  635000    1.1360896   -6.6214502    288.79962  0.037900213  0.038607227            1 
  636000    1.1465943   -6.6220663    289.77041  0.037967821  0.038601099            3 
  637000    1.1447989   -6.6122687    292.04735  0.038206089   0.03859503            3 
  638000    1.1601035   -6.6191387    291.91613  0.038129067  0.038589244            3 
  639000    1.1566104    -6.603877    291.61298  0.038029862   0.03858375            3 
  640000    1.1531691   -6.6243957    291.84395  0.038000514  0.038577832            2 
  641000    1.1382328   -6.5998014    292.93283  0.038082791  0.038571913            2 
  642000    1.1384864   -6.6165527    293.22957   0.03806199   0.03856578            1 
  643000    1.1389087   -6.6118944    292.23529  0.037873936  0.038559416            3 
  644000    1.1605253   -6.6355347    292.37255  0.037832887  0.038552286            2 
  645000    1.1371596   -6.6287117    293.08701  0.037866538  0.038544964            1 
  646000    1.1495938   -6.5989738    294.77762  0.038026008  0.038537932            1 
  647000    1.1173393   -6.6314635    294.60598  0.037945129  0.038531193            1 
  648000    1.1713941   -6.6218279    294.45621  0.037867311  0.038524104            3 
  649000    1.1424417   -6.6130058    294.76032  0.037848012  0.038517377            2 
  650000    1.1554871   -6.6241263    294.80783  0.037795875  0.038510364            1 
  651000    1.1611418   -6.6097073     295.6163  0.037841308   0.03850347            3 
  652000    1.1456253   -6.6428695    295.29831  0.037742626  0.038496545            5 
  653000    1.1326863   -6.6381123    296.25449  0.037806852  0.038489382            3 
  654000    1.1526155   -6.6224253     297.6375  0.037925268  0.038482454            3 
  655000    1.1415203   -6.6320864    297.00109  0.037786398  0.038475478            2 
  656000    1.1543815     -6.62753    297.78763  0.037828713  0.038468262            4 
  657000    1.1327163    -6.582291    298.40555  0.037849512  0.038461354            2 
  658000    1.1668839   -6.6295522    299.08939  0.037878596  0.038454773            1 
  659000    1.1225169   -6.5976588    298.69394   0.03777111   0.03844814            3 
  660000    1.1334398   -6.5962624    299.77136  0.037849919  0.038441396            1 
  661000    1.1554208   -6.6175833    300.02757  0.037824959  0.038434605            2 
  662000    1.1231851   -6.6173297    301.38522  0.037938723  0.038428135            2 
  663000    1.1787933   -6.6315304    300.15514   0.03772689  0.038421178            2 
  664000    1.1591965   -6.6205942    301.29514  0.037813146  0.038414456            1 
  665000    1.1416461   -6.5945265    302.10733  0.037858061  0.038407135            2 
  666000    1.1323583   -6.6194967    301.71094  0.037751619  0.038399703            3 
  667000    1.1517942   -6.6290039    300.70092  0.037568831  0.038391787            4 
  668000    1.1426144   -6.6360407    301.60852  0.037625814   0.03838376            3 
  669000    1.1314996   -6.6267021    301.60601  0.037569258  0.038375593            1 
  670000    1.1577504   -6.6354946    302.99733  0.037686235  0.038367656            2 
  671000    1.1333617   -6.6447918    303.25215  0.037661718  0.038359471            8 
  672000    1.1400512   -6.6607973     302.8892  0.037560664  0.038351461            4 
  673000    1.1591909    -6.614642    304.02615  0.037645635   0.03834356            2 
  674000    1.1055774   -6.6146423    305.53388  0.037776197   0.03833621            3 
  675000     1.152707   -6.6521807    304.01817  0.037533107  0.038328519            3 
  676000    1.1380774    -6.646448    304.38112  0.037522327  0.038320245            2 
  677000     1.129859   -6.6287351    304.77111  0.037514907  0.038311824            4 
  678000    1.1251179   -6.6080112    305.28293  0.037522484  0.038303356            2 
  679000    1.1460424   -6.5904764    305.66586  0.037514219   0.03829486            5 
  680000    1.1658231   -6.6070312    306.55506  0.037568022  0.038286519            2 
  681000    1.1575525   -6.6152823    306.78367  0.037540831  0.038278321            2 
  682000    1.1371672   -6.6911121    307.20411  0.037537159   0.03827012            3 
  683000     1.130601   -6.6329487    307.87317  0.037563833  0.038262139            2 
  684000    1.1322356   -6.6257514    307.13833  0.037419387  0.038254021            2 
  685000    1.1671561   -6.6227655    309.17948  0.037613075  0.038246691            1 
  686000    1.1407978   -6.6472495    310.58708  0.037729238  0.038239397            2 
  687000    1.1317672   -6.5977843    309.07943  0.037491439  0.038231847            1 
  688000     1.139959   -6.6304712    310.36153   0.03759224  0.038224314            2 
  689000     1.169948   -6.6380442    310.14602  0.037511613  0.038216194            3 
  690000    1.1325747   -6.6399328    310.56913  0.037508349  0.038208213            3 
  691000    1.1245941   -6.6917331    309.91034  0.037374619  0.038199753            6 
  692000    1.1434393   -6.6332478    309.80847  0.037308342  0.038190478            3 
  693000    1.1629411   -6.6455235    310.10075  0.037289652  0.038181424            2 
  694000    1.1228161   -6.6543543    310.27535  0.037256887   0.03817212            1 
  695000    1.1451134   -6.6403233    309.86891  0.037154546   0.03816261            2 
  696000     1.109276   -6.6510661     310.6057   0.03718938  0.038152257            4 
  697000    1.1410284   -6.6181992    312.35476  0.037345141  0.038142526            2 
  698000    1.1612317    -6.589119    312.34703  0.037290715  0.038132785            1 
  699000    1.1437036   -6.6796927     312.2722  0.037228445  0.038122904            5 
  700000    1.1637793   -6.6146844    313.24563  0.037291147  0.038113444            2 
  701000    1.1591958   -6.6699082    312.27095  0.037122082  0.038103874            4 
  702000    1.1370637   -6.6069951    313.64391  0.037232183  0.038094284            3 
  703000    1.1270065   -6.6421583    313.80079  0.037197818  0.038084934            2 
  704000    1.1408692    -6.613162    314.91897   0.03727734  0.038075706            3 
  705000    1.1330465    -6.619002    315.40567  0.037281994  0.038066827            1 
  706000    1.1303316   -6.6450979    315.09048  0.037191983  0.038057618            2 
  707000    1.1461142   -6.5898148    316.55073  0.037311496  0.038048043            4 
  708000    1.1415771   -6.6372582    316.09432  0.037205075   0.03803909            4 
  709000    1.1256457   -6.6188243    318.21313  0.037401638   0.03802992            2 
  710000      1.12378   -6.6534331     316.7156  0.037173193  0.038020853            3 
  711000      1.14518   -6.6650621    318.03106  0.037275089   0.03801219            2 
  712000    1.1206164   -6.6083562    318.33166  0.037257919  0.038003729            2 
  713000    1.1191381   -6.6603689    317.14126  0.037066534  0.037994823            3 
  714000    1.1204146   -6.6101992    319.15603  0.037249769  0.037986253            3 
  715000     1.127286   -6.6537766    319.69786  0.037260822  0.037977605            2 
  716000    1.1308681   -6.6110943    320.22922  0.037270626  0.037968641            3 
  717000    1.1242382    -6.652484    320.41337  0.037240047  0.037960066            2 
  718000    1.1155384   -6.6672142    320.46324  0.037193969  0.037951484            2 
  719000    1.1405473   -6.6510067    321.15446  0.037222353  0.037942976            2 
  720000    1.1459335    -6.640676    321.66803  0.037230096  0.037934386            3 
  721000    1.1251266   -6.6447222    321.88692  0.037203759  0.037925875            1 
  722000    1.1477343   -6.6068877    322.34212  0.037204769  0.037916851            3 
  723000    1.1461848   -6.6147444     322.8585  0.037212828  0.037908325            2 
  724000    1.1427187   -6.6274917    323.17933  0.037198357  0.037899647            3 
  725000    1.1493498   -6.6582291    323.34938  0.037166595  0.037890919            2 
  726000    1.1580788   -6.6590414     323.3355  0.037113809  0.037881848            1 
  727000    1.1415124   -6.6175288     324.5186  0.037198372    0.0378733            2 
  728000    1.1445129   -6.6301149    325.66894  0.037278953  0.037864983            2 
  729000    1.1269327   -6.6554005    324.90046   0.03713997  0.037856673            1 
  730000    1.1483301   -6.6496334    326.05626  0.037221034  0.037848158            2 
  731000    1.1402282   -6.6463666     325.6637  0.037125365  0.037839937            3 
  732000    1.1204931   -6.6370823    325.93699  0.037105759  0.037831482            4 
  733000    1.1089993   -6.6132212    326.37154  0.037104541  0.037822984            3 
  734000    1.1109158   -6.6441545    326.70038  0.037091324  0.037814301            2 
  735000    1.1320071   -6.6295359    326.22054  0.036986455  0.037805361            3 
  736000    1.1354105   -6.6438136    327.56454  0.037088377  0.037796395            3 
  737000    1.1206308   -6.6621919    327.36177  0.037015125  0.037787545            1 
  738000    1.1262466   -6.6486549     328.7553  0.037122324  0.037778606            2 
  739000     1.143541    -6.637774    328.03461  0.036990822  0.037769283            2 
  740000    1.1477225   -6.6415396    328.18377  0.036957632  0.037760135            1 
  741000     1.160443   -6.6653456    329.04421  0.037004522  0.037750895            2 
  742000    1.1556626   -6.6447851    328.78421  0.036925451  0.037741711            2 
  743000    1.1156688   -6.6542758    328.42679  0.036835665  0.037731767            2 
  744000     1.153254   -6.6467237    329.83886  0.036944317  0.037722421            2 
  745000    1.1437289   -6.6979783    330.53177  0.036972234  0.037713207            2 
  746000    1.1072433   -6.6415214    330.20591  0.036886272  0.037704228            4 
  747000    1.1449095   -6.6242108    332.01246  0.037038427  0.037695231            3 
  748000    1.1298653   -6.6229968    332.05281  0.036993406   0.03768666            4 
  749000    1.1417684   -6.6525609    331.74492  0.036909759  0.037677751            4 
  750000    1.1295151   -6.6380876    332.93939  0.036993265  0.037668939            5 
  751000    1.1276932   -6.6694496    332.34275  0.036877801  0.037659924            5 
  752000    1.1279821   -6.6624941    332.32008   0.03682625  0.037650826            2 
  753000    1.1347268   -6.6605855    332.56331  0.036804262  0.037641485            2 
  754000    1.1556927   -6.6372326    333.69587  0.036880622  0.037632192            4 
  755000    1.1331056   -6.6464224    333.76044  0.036838901  0.037622959            1 
  756000    1.1318865    -6.676009    332.81744  0.036686226  0.037613437            2 
  757000    1.1390829   -6.6564853    335.06424  0.036885099  0.037603884            2 
  758000    1.1433778   -6.6740238    334.08508   0.03672879   0.03759464            1 
  759000    1.1336894    -6.689262    336.16837  0.036909131   0.03758599            4 
  760000    1.1176489   -6.6526912    335.13358  0.036747103  0.037577564            2 
  761000    1.1440341   -6.6316715    336.59033  0.036858337    0.0375688            8 
  762000    1.1289913   -6.6697232    336.77977  0.036830683  0.037559656            5 
  763000     1.136468   -6.6629455    336.44693  0.036746061  0.037550662            3 
  764000    1.1138145    -6.700549    336.36279  0.036688786  0.037541511            2 
  765000    1.1086135   -6.6576653     337.9855  0.036817593  0.037532297            3 
  766000    1.1181323    -6.650991    338.39182  0.036813732  0.037523221            1 
  767000    1.1623415   -6.6797913    337.78796  0.036700126     0.037514            2 
  768000     1.122325   -6.6550191    338.58728  0.036739071  0.037504515            3 
  769000    1.1345033   -6.6537024    338.15266  0.036644198  0.037494681            2 
  770000    1.1246898   -6.6545841    339.98616  0.036795039  0.037485331            2 
  771000    1.1022744   -6.7113179    339.55361  0.036700563  0.037475711            1 
  772000    1.1293725   -6.6217524    339.07013  0.036600834  0.037465804            5 
  773000    1.1205646   -6.6424554    339.00989  0.036546991  0.037456017            3 
  774000    1.1352741   -6.6463322    339.88136    0.0365936   0.03744568            2 
  775000     1.109417   -6.6330537    341.42694  0.036712574  0.037435289            4 
  776000    1.1327162   -6.6378724    340.29939  0.036544179  0.037425286            1 
  777000     1.135869   -6.6472237    340.60834   0.03653028  0.037414948            2 
  778000    1.1129423   -6.6374644    341.81313  0.036612375  0.037404801            4 
  779000    1.1469018     -6.65348    341.03367  0.036481993  0.037394647            2 
  780000    1.1278557   -6.6703488    341.94987  0.036533105  0.037384589            2 
  781000    1.1108267   -6.6796677    340.83674  0.036367556  0.037374356            1 
  782000    1.1251816    -6.642092    343.09443   0.03656164  0.037363939            5 
  783000    1.1310299   -6.6357361    343.57087  0.036565652  0.037353879            2 
  784000    1.1041309   -6.6495224     344.5236  0.036620281  0.037344245            2 
  785000    1.1210521   -6.6857394    342.95421  0.036407029  0.037334499            2 
  786000    1.1448489   -6.6645982    345.27331  0.036606585  0.037324472            2 
  787000    1.0922486    -6.660254    344.62626  0.036491557  0.037314911            4 
  788000    1.1266573   -6.6999069    344.34366  0.036415361  0.037305457            3 
  789000    1.1248581   -6.6226591     345.8923  0.036532774  0.037295732            2 
  790000    1.1098502   -6.6755088     346.4245  0.036542668   0.03728581            2 
  791000    1.1245148   -6.6690148    347.13161  0.036570966  0.037276296            2 
  792000    1.1332764   -6.6566714    347.61562  0.036575718  0.037266898            2 
  793000    1.1227425   -6.6434482    347.42273  0.036509324  0.037257467            3 
  794000    1.1270612   -6.6621774    347.89197  0.036512591    0.0372481            2 
  795000    1.1305431   -6.6551657    347.75736  0.036452553  0.037238707            1 
  796000    1.1050711   -6.6420917    348.72878  0.036508457  0.037229196            2 
  797000    1.1367306   -6.6595669    348.53279  0.036442158  0.037219587            1 
  798000    1.1243121   -6.6987075    347.76263  0.036316064  0.037209453            2 
  799000    1.1314818   -6.6778485    349.12507  0.036412711  0.037199522            1 
  800000    1.1330499   -6.6377056    350.45989  0.036506239  0.037190191            1 
  801000    1.1076251    -6.662872    350.69475  0.036485097   0.03718081            2 
  802000     1.106495   -6.6765514    350.92383  0.036463407  0.037171418            5 
  803000    1.1453352   -6.6463723    351.32505  0.036459636  0.037162209            2 
  804000    1.0973232   -6.6745844     351.1366  0.036394755  0.037152857            3 
  805000    1.1272275   -6.6871416    351.37182  0.036373895  0.037143521            3 
  806000    1.1475613   -6.6618012    352.13707  0.036407886  0.037133663            3 
  807000    1.1310841   -6.6711399    351.89703  0.036337984  0.037123974            3 
  808000     1.128838   -6.6719245    353.30842  0.036438575  0.037114877            7 
  809000    1.1103451   -6.6549003    353.97333  0.036462025  0.037106249            5 
  810000    1.1040922   -6.6655682    353.95121  0.036414734  0.037097304            3 
  811000    1.1053862   -6.6863253    354.10667  0.036385807  0.037088445            5 
  812000    1.1304767    -6.694776    354.41645  0.036372789  0.037079606            1 
  813000    1.1306438   -6.6971942    354.01996  0.036287408  0.037070432            1 
  814000    1.1113017   -6.6740628    355.04541   0.03634781  0.037061272            1 
  815000    1.1229893   -6.6789508    355.66931  0.036367005  0.037052184            3 
  816000     1.140789   -6.6681296    357.19605  0.036478355  0.037043251            2 
  817000    1.0951921    -6.663799    357.25598  0.036439818  0.037034416            2 
  818000    1.1161111   -6.6737886    358.24025  0.036495543  0.037026093            3 
  819000    1.1317311   -6.6974957     357.7804  0.036404192  0.037017499            3 
  820000    1.1311536   -6.7154591    358.55744  0.036438764  0.037008926            4 
  821000    1.1203538   -6.6851936     358.9437  0.036433587  0.037000416            1 
  822000    1.1273204   -6.6318172    360.26815  0.036523535  0.036991981            3 
  823000    1.1554637   -6.6959088    359.70874  0.036422513  0.036983709            1 
  824000    1.1164955   -6.6513715     360.5199  0.036460346  0.036975113            1 
  825000    1.1061369   -6.6796275    359.51162  0.036314305  0.036966763            2 
  826000    1.1356286    -6.694759    360.01295  0.036320919  0.036958103            4 
  827000    1.1290937   -6.6800543    360.50513  0.036326595  0.036949617            3 
  828000    1.0917872   -6.6707323    360.51559  0.036283776  0.036940804            2 
  829000    1.1377116   -6.7098271    362.01414  0.036390646  0.036932026            2 
  830000    1.1524932   -6.6575788     363.3343  0.036479348   0.03692392            3 
  831000    1.1017861   -6.6278024    363.47311  0.036449369  0.036916049            3 
  832000    1.1295523   -6.6840875     363.8671  0.036445022  0.036908365            2 
  833000    1.0966946   -6.6931276    362.70461  0.036284975  0.036900549            2 
  834000    1.1058723   -6.6870027    365.40444  0.036511235  0.036892388            3 
  835000    1.0937593   -6.6489974    365.55338  0.036482373  0.036884497            2 
  836000     1.104554     -6.66905    364.14323  0.036298169  0.036876661            3 
  837000    1.1294978    -6.680398    364.77828  0.036318028   0.03686849            4 
  838000     1.101597   -6.6767956    365.70946  0.036367289  0.036860265            2 
  839000    1.1496702   -6.6712083    365.80212  0.036333146  0.036852278            4 
  840000    1.1283217   -6.6702134    365.60637  0.036270473  0.036844017            2 
  841000    1.1173672   -6.6974802    367.14334  0.036379642  0.036835866            2 
  842000    1.1374734    -6.701227    366.37387   0.03626028  0.036828063            2 
  843000    1.1377762   -6.6836866    368.40163  0.036417717  0.036820305            5 
  844000    1.1181836   -6.6602965    368.10764  0.036345541  0.036812209            2 
  845000    1.1129335   -6.6920072    367.53509  0.036246064  0.036804035            3 
  846000    1.1300218   -6.6700734    368.03361  0.036252325  0.036796119            1 
  847000    1.1262038   -6.6537687     369.9377  0.036396862  0.036788243            3 
  848000    1.1385238   -6.6729312     369.3367   0.03629488  0.036780455            2 
  849000    1.1351945   -6.6581602    369.95789  0.036313102  0.036772326            1 
  850000    1.1223865   -6.6790973     370.1386  0.036288098   0.03676461            1 
  851000    1.1262795   -6.6964167    370.27282    0.0362586   0.03675688            2 
  852000    1.1081407   -6.6907384    371.57882  0.036343781  0.036749056            1 
  853000    1.1104842    -6.686047    371.82261  0.036324991  0.036741238            1 
  854000    1.1009438    -6.692054    370.64742  0.036167781  0.036733147            5 
  855000     1.116144   -6.6965295    371.06198  0.036165885  0.036724932            6 
  856000    1.1044277   -6.7099868    371.26565  0.036143463  0.036716828            2 
  857000    1.1129401   -6.6497751    372.50851  0.036222142  0.036708572            3 
  858000    1.1056586   -6.6935989    373.51525  0.036277705   0.03670073            2 
  859000    1.1368624   -6.6493235    374.97855  0.036377431  0.036693389            7 
  860000    1.1299391   -6.6647347    373.42871  0.036184953   0.03668578            2 
  861000    1.1141873   -6.6445129    375.47059  0.036340553   0.03667862            2 
  862000    1.1301135   -6.6812893    375.14221  0.036266648  0.036671337            2 
  863000    1.1111489   -6.6792592    375.39795  0.036249319  0.036663947            2 
  864000    1.1189003   -6.6824248    374.39714  0.036110835  0.036656193            2 
  865000    1.1077724   -6.6843867    376.30874   0.03625325  0.036648436            2 
  866000    1.1502266   -6.7096003    376.38556   0.03621878  0.036640999            3 
  867000    1.1063945   -6.6520874    377.67182  0.036300636   0.03663348            1 
  868000    1.1010526   -6.6916686    376.96615  0.036191066  0.036625874            1 
  869000    1.1188759   -6.7021641    377.49685  0.036200312  0.036618207            4 
  870000    1.1011523   -6.6697007    377.75791  0.036183708  0.036610589            1 
  871000    1.1059808   -6.6633151    378.34561  0.036198394  0.036603384            3 
  872000    1.0970905   -6.6252409     379.8219  0.036297964  0.036595932            2 
  873000     1.118688   -6.6874054    379.55201  0.036230623  0.036588925            2 
  874000    1.1266326   -6.6748871    380.12453  0.036243758  0.036581716            2 
  875000    1.1070017    -6.709804    379.07552   0.03610243  0.036574444            2 
  876000    1.1034243   -6.7120857    379.14725  0.036068041  0.036566969            3 
  877000    1.1012352   -6.7116517    380.37991  0.036144043  0.036559613            2 
  878000    1.1078532   -6.6714611    380.41227  0.036105948  0.036552358            5 
  879000    1.1252434   -6.6230426    382.49643   0.03626246  0.036545281            2 
  880000    1.1034788   -6.6674306    382.30899  0.036203503  0.036538496            2 
  881000    1.1530983   -6.7258287     382.0283  0.036135858  0.036531267            2 
  882000    1.1083257   -6.6765142    384.10445  0.036291048  0.036524175            3 
  883000    1.1147092   -6.6884517    383.85759  0.036226651  0.036517509            2 
  884000    1.1007172   -6.6912217    384.51557  0.036247697   0.03651053            3 
  885000    1.0953793   -6.6623792    385.08865  0.036260701  0.036503602            1 
  886000    1.1125977   -6.6947519    383.61997  0.036081638  0.036496205            3 
  887000     1.116849   -6.6880505    384.08232  0.036084396  0.036488818            4 
  888000    1.0845536   -6.6559712     385.4053  0.036167915  0.036481722            3 
  889000     1.114486   -6.7021233    385.66443  0.036151521  0.036474561            4 
  890000    1.1117488    -6.667977    386.93003  0.036229404  0.036467388            1 
  891000    1.1049538   -6.6876219    387.55303   0.03624701  0.036460737            2 
  892000    1.0838845   -6.7109731    387.40363  0.036192417  0.036454333            2 
  893000    1.0936181   -6.6790479    386.74682  0.036090595   0.03644796            3 
  894000    1.0998455   -6.7054753    387.07711  0.036081013  0.036441515            4 
  895000    1.1053763    -6.711971    389.10684  0.036229688  0.036435218            3 
  896000    1.0900159   -6.7046905     389.6509  0.036239853  0.036428883            6 
  897000    1.0973685   -6.7088413    389.22955  0.036160308  0.036422569            3 
  898000    1.1055829   -6.6977587    389.47391  0.036142716  0.036415958            3 
  899000    1.1012095   -6.6970975    390.91919  0.036236484  0.036409729            2 
  900000    1.1079939   -6.7220899    389.01182  0.036019613  0.036403581            3 
  901000    1.0989805   -6.7182191    389.87945  0.036059883  0.036397136            2 
  902000    1.0979304     -6.69828    390.97774  0.036121372  0.036390591            3 
  903000    1.1460743   -6.6726274    391.16853  0.036098978  0.036383812            1 
  904000    1.1189525   -6.7365807    391.21171  0.036063027   0.03637766            3 
  905000    1.0950943   -6.6916369    391.69705  0.036067868  0.036371243            3 
  906000     1.115669   -6.6786523    392.03991  0.036059595  0.036364672            4 
  907000    1.1033165   -6.6832328    392.67058  0.036077782  0.036358011            2 
  908000    1.0850219   -6.7069399    392.61072  0.036032555   0.03635132            2 
  909000    1.1036946   -6.7082209    392.57085  0.035989261  0.036344483            2 
  910000    1.1068346   -6.6745807    393.07306  0.035995701  0.036337387            4 
  911000    1.1121049   -6.7342306    393.63099  0.036007226  0.036330461            2 
  912000    1.0963162   -6.7330875    394.55172  0.036051875  0.036323476            2 
  913000     1.124852   -6.7112428    395.03943  0.036056903  0.036316483            2 
  914000    1.0927184    -6.678065    395.39814  0.036050158  0.036309606            2 
  915000    1.1185767   -6.6933458    395.92403  0.036058655  0.036302943            3 
  916000    1.0816421   -6.6834747      395.936  0.036020379  0.036295984            2 
  917000    1.0732508    -6.711356    394.65872  0.035865023  0.036288815            1 
  918000    1.0721373   -6.6764075    395.84758  0.035933876  0.036281865            2 
  919000    1.1013179   -6.6991711    397.11536  0.036009736  0.036274744            2 
  920000    1.0845439   -6.6658909    396.65022  0.035928462  0.036267709            3 
  921000    1.0881592    -6.675598    397.35394  0.035953125  0.036260596            3 
  922000    1.1079974   -6.7194573    397.38206  0.035916672    0.0362536            3 
  923000    1.1003457   -6.7083607    398.32932  0.035963282  0.036246706            2 
  924000    1.1239479   -6.7357284    397.67215  0.035865093  0.036239886            2 
  925000    1.1080115   -6.7204036    398.77364  0.035925553  0.036233066            2 
  926000     1.128707   -6.6889001    399.63363   0.03596415  0.036226479            2 
  927000    1.1218566   -6.7114407    399.45211  0.035909035  0.036219676            5 
  928000    1.0871351   -6.7145746    400.14579  0.035932632  0.036212849            2 
  929000    1.1012983   -6.7058082    400.28983  0.035906874  0.036205858            1 
  930000    1.1026354    -6.732999    400.04198  0.035846055  0.036198679            3 
  931000    1.1176324   -6.7242222    400.91923  0.035886075  0.036191747            3 
  932000    1.1005763   -6.6827486    402.30591  0.035971559  0.036184713            3 
  933000     1.098788   -6.7167446    401.42004   0.03585388  0.036178012            4 
  934000    1.1035497   -6.7198402    401.52103  0.035824503  0.036170921            4 
  935000    1.0839864   -6.7010589    402.72651  0.035893628  0.036163997            2 
  936000    1.1167898   -6.7021513    403.69724  0.035941705  0.036156951            3 
  937000    1.1225797   -6.7176412    402.58286  0.035804239  0.036149968            4 
  938000    1.0926151   -6.7141459    401.99688  0.035714008  0.036142985            4 
  939000    1.1049564   -6.7310384    402.90785   0.03575682  0.036135817            3 
  940000     1.085683   -6.7301388     403.5262  0.035773599  0.036128702            4 
  941000    1.1025044   -6.7215438    403.80481  0.035760255  0.036121576            2 
  942000     1.095746   -6.7002444    404.81507  0.035811666  0.036114506            2 
  943000    1.1135317   -6.7242175    403.73174  0.035677955  0.036107453            2 
  944000    1.1205377   -6.7147138    405.00072  0.035752182   0.03610028            2 
  945000    1.0819946   -6.6950981    405.23248  0.035734787  0.036093203            4 
  946000    1.0893767   -6.6862393    405.85719  0.035752043  0.036086268            3 
  947000    1.0934454   -6.7049472    407.36734  0.035847179  0.036079285            4 
  948000    1.1089024   -6.7200595    406.36026  0.035720839  0.036072163            5 
  949000    1.0645373   -6.7487245    405.91147  0.035643789  0.036064898            3 
  950000    1.0981593   -6.7188223    406.61157  0.035667682  0.036057516            4 
  951000    1.0800933   -6.7026877    408.24333  0.035773162  0.036050365            3 
  952000    1.0801216   -6.6960935    407.54279  0.035674264  0.036043302            2 
  953000    1.1026256   -6.7034393    408.43606   0.03571494  0.036036319            2 
  954000    1.0771538   -6.7291312    408.57491  0.035689632  0.036029365            2 
  955000    1.1179247   -6.6816674    409.17145  0.035704315  0.036022472            3 
  956000      1.10868   -6.6953675    410.15175  0.035752419  0.036015503            2 
  957000    1.0884374   -6.7162503    411.03466  0.035791942  0.036008363            2 
  958000    1.0720867   -6.7363677    410.51378  0.035709271  0.036001377            1 
  959000    1.1152904   -6.6738182    409.66934  0.035598657  0.035994424            4 
  960000    1.1019697   -6.7169843    410.48016  0.035631958  0.035987364            4 
  961000    1.1185589   -6.6949568      411.393  0.035674037  0.035980117            2 
  962000    1.0976729   -6.7233428    410.78749  0.035584502  0.035972939            2 
  963000    1.1004624   -6.7119715    411.37872  0.035598712  0.035965885            3 
  964000    1.0994314   -6.7552885     413.2194  0.035720902  0.035958664            3 
  965000    1.1248714   -6.6916388     412.0936  0.035586667  0.035951363            1 
  966000    1.0955106   -6.7399018    412.36912  0.035573596  0.035944315            4 
  967000    1.0911253   -6.7244517    413.25386  0.035613052  0.035937253            2 
  968000    1.0967164   -6.7552962    411.52686  0.035427587  0.035930024            3 
  969000    1.1029547    -6.709935    413.51944  0.035562387   0.03592265            3 
  970000    1.1111463   -6.6807125    413.73753  0.035544461  0.035915431            4 
  971000    1.0947955   -6.7580383    412.80133  0.035427508  0.035907814            1 
  972000    1.0864716   -6.7103723    414.87334  0.035568702  0.035900168            1 
  973000    1.0809368   -6.7321946    414.87119  0.035531962  0.035892759            3 
  974000    1.0930546   -6.7403558    414.84073  0.035492876  0.035885219            2 
  975000    1.0896588   -6.7216061    416.33929  0.035584554  0.035878009            3 
  976000    1.1035743   -6.7226347    417.13965  0.035616432  0.035870981            3 
  977000    1.0709825   -6.6953587    416.32638  0.035510609  0.035863784            2 
  978000    1.0746465   -6.6975006    417.47637  0.035572288  0.035856626            4 
  979000     1.092361   -6.7224242    417.44495  0.035533278  0.035849456            3 
  980000    1.0950903   -6.7196908    416.29391  0.035399142  0.035842115            3 
  981000    1.0964369    -6.752631    418.72452  0.035569531  0.035834996            1 
  982000    1.0869989   -6.7008094    418.56422  0.035519706  0.035827945            4 
  983000    1.1218493   -6.7218965    418.94352  0.035515728  0.035821199            1 
  984000    1.0991343   -6.7248677    419.84334  0.035555839  0.035814309            3 
  985000    1.1220746   -6.7175604    420.60216  0.035583939   0.03580758            2 
  986000    1.0821287   -6.7105389    421.82463  0.035651169  0.035800971            2 
  987000    1.0875674   -6.6958889    419.44493  0.035414127  0.035794182            3 
  988000    1.1080412   -6.6896267    422.55874  0.035640919  0.035787693            1 
  989000    1.0977468    -6.725068    422.12221    0.0355681  0.035781424            2 
  990000    1.0845836   -6.6959818    422.66257  0.035577658  0.035775112            3 
  991000    1.1277541   -6.7470407    422.87352  0.035559495  0.035768322            2 
  992000    1.0883379    -6.714948    422.76825  0.035514806  0.035761599            4 
  993000    1.1000778   -6.7476907     422.5724  0.035462605  0.035754745            1 
  994000    1.0709055   -6.6731802    422.99772  0.035462585  0.035747928            3 
  995000    1.1025816   -6.7425343    423.24627  0.035447761  0.035740995            4 
  996000    1.0838673    -6.772847    423.51269  0.035434462  0.035733923            3 
  997000    1.0901638   -6.7489329    423.59331  0.035405659  0.035726696            2 
  998000    1.0793755   -6.6873955    424.91036  0.035480157  0.035719552            2 
  999000    1.0739763   -6.7598577      424.574  0.035416584   0.03571256            5 
 1000000    1.1078577    -6.761105    424.35011  0.035362509  0.035705737            3 
 1001000    1.0806894   -6.7504214     424.6365  0.035351024  0.035698626            4 
 1002000    1.1011583   -6.7160553     423.2274  0.035198553  0.035691328            1 
 1003000    1.0699144   -6.7407824    425.88491  0.035384256  0.035684232            2 
 1004000    1.0881867   -6.7180507    425.55149  0.035321339  0.035677011            4 
 1005000    1.0760825   -6.7768058    426.62101  0.035374876  0.035669692            2 
 1006000    1.0718838   -6.7447656    425.39121   0.03523784  0.035662103            4 
 1007000    1.0685831    -6.699638    427.39056  0.035368302  0.035654967            1 
 1008000    1.0664763   -6.7254476    428.32834  0.035410742  0.035647812            2 
 1009000    1.0956596   -6.7193856    427.09685  0.035273939  0.035640786            4 
 1010000    1.0843304   -6.7550633    427.65692  0.035285224  0.035633529            3 
 1011000    1.0952842   -6.7352685    427.53445  0.035240229  0.035626184            2 
 1012000    1.0731402    -6.740571    427.59156  0.035210109  0.035618538            3 
 1013000    1.0860473   -6.7100415    429.50574  0.035332818  0.035611149            5 
 1014000    1.0905101    -6.714616    429.03976  0.035259678  0.035603852            3 
 1015000     1.112451   -6.7370282    428.48262  0.035179197   0.03559648            2 
 1016000    1.0707374   -6.7198432    429.96916  0.035266499  0.035588929            3 
 1017000    1.0833563   -6.7280448    430.41952  0.035268725   0.03558139            2 
 1018000    1.0809894   -6.7620879    430.22527  0.035218178  0.035573859            3 
 1019000    1.0625786   -6.7364816    430.96317  0.035243962  0.035566241            3 
 1020000    1.0602895   -6.6768363    430.56791  0.035177117  0.035558522            2 
 1021000     1.106133   -6.7179992    430.18429  0.035111353  0.035550772            5 
 1022000    1.0756219   -6.7533659     430.8577  0.035131906  0.035543091            3 
 1023000    1.0925968   -6.7812421    431.52102  0.035151598  0.035535379            2 
 1024000    1.0897275   -6.7099098    431.91126  0.035149028  0.035527813            4 
 1025000    1.1137124   -6.7043613    431.57951  0.035087765  0.035520492            5 
 1026000    1.1078184   -6.7475985     432.9047    0.0351612  0.035512884            2 
 1027000     1.108502    -6.730739    432.44741  0.035089858  0.035505251            2 
 1028000    1.0876839   -6.7450535    433.71556  0.035158524  0.035497657            2 
 1029000    1.0933595   -6.7245105    434.10672  0.035156035  0.035489823            2 
 1030000    1.0863425   -6.7313889    432.96086  0.035029196   0.03548205            2 
 1031000    1.0726653   -6.7351083    434.78257  0.035142464  0.035474409            5 
 1032000    1.1025803   -6.7792818    433.15441  0.034976939  0.035466963            2 
 1033000    1.1177784   -6.7433659     435.6531  0.035144651  0.035459456            3 
 1034000    1.1041001   -6.7574994    434.78537  0.035040729   0.03545191            4 
 1035000    1.0863764    -6.707145    435.72445  0.035082484  0.035444398            1 
 1036000    1.0880659   -6.7575642    436.12433  0.035080786  0.035436801            3 
 1037000    1.0826674   -6.7541019    436.33068  0.035063539  0.035429088            4 
 1038000    1.0795332    -6.736581    436.28001  0.035025691  0.035421391            2 
 1039000    1.0880459    -6.727087    435.75239  0.034949663  0.035413648            2 
 1040000    1.0862693    -6.699724    435.65584   0.03490832  0.035406232            2 
 1041000    1.0770799   -6.7493849    435.68819  0.034877377   0.03539845            2 
 1042000    1.0924771   -6.7088653    437.50041  0.034988836  0.035390764            2 
 1043000    1.0707802   -6.7259609    439.67344   0.03512891  0.035383312            3 
 1044000    1.0876238   -6.6873043    439.75718  0.035101946   0.03537597            4 
 1045000    1.0937748    -6.717177    439.99971  0.035087696  0.035368613            3 
 1046000    1.0814451   -6.7429833    441.68341   0.03518829  0.035361256            2 
 1047000    1.1035906   -6.7401083    440.26235  0.035041575  0.035354054            2 
 1048000    1.0929394   -6.7344278    441.53582  0.035109401  0.035347164            2 
 1049000    1.0967796   -6.7027877    440.80108  0.035017563  0.035340408            6 
 1050000    1.0784399    -6.764892    442.42077  0.035112759  0.035333698            2 
 1051000    1.0857908   -6.7821878    442.02267  0.035047785  0.035327323            4 
 1052000    1.0891247    -6.729937    443.62513  0.035141407  0.035320865            2 
 1053000    1.0844553   -6.7436413    443.84376  0.035125337  0.035314365            2 
 1054000    1.0765442   -6.7777106    442.65505  0.034998027  0.035307928            4 
 1055000    1.0806479   -6.7583372    443.58168  0.035038047  0.035301182            2 
 1056000     1.072525   -6.7086921    447.98104  0.035352039   0.03529448            1 
 1057000    1.0758194    -6.790063    445.02027  0.035085168  0.035287963            3 
 1058000    1.0931319   -6.7368232    446.30959  0.035153559  0.035281648            3 
 1059000    1.0778324   -6.6880301    446.81209  0.035159906  0.035275355            2 
 1060000    1.0879505   -6.6847183    446.93553  0.035136441  0.035269056            2 
 1061000    1.0896177   -6.7660968     447.3626  0.035136868  0.035262761            3 
 1062000    1.0840723   -6.7563077    447.42296  0.035108519  0.035256162            4 
 1063000    1.0681337   -6.7439205    447.72883  0.035099469  0.035249514            2 
 1064000    1.0870361    -6.796619    447.81178  0.035072978  0.035243042            3 
 1065000    1.0742219   -6.7192049     448.0759  0.035060712  0.035236639            1 
 1066000    1.1045061   -6.7349907    448.35736  0.035049825  0.035230033            3 
 1067000    1.0801941   -6.7195241     449.0362  0.035069993  0.035223477            2 
 1068000    1.0641231   -6.7347587    448.12546  0.034966094  0.035216932            3 
 1069000    1.0853439   -6.7347148    449.21503  0.035018321  0.035210324            3 
 1070000    1.0931004   -6.7281302    449.97285  0.035044615  0.035203583            3 
 1071000    1.1028962   -6.7135242     450.8378  0.035079194  0.035197239            2 
 1072000    1.0751062   -6.7474909    448.63302   0.03487508   0.03519056            7 
 1073000    1.0942758   -6.7372121    450.44172  0.034983047  0.035184016            3 
 1074000    1.0711523    -6.725215     450.2158  0.034932945  0.035177253            5 
 1075000    1.0839977   -6.7478558    450.99642  0.034960963  0.035170591            4 
 1076000    1.0881522   -6.7875344    451.14557  0.034940023  0.035163823            7 
 1077000    1.0829595   -6.7539459    451.48986   0.03493422  0.035157332            4 
 1078000    1.1014085   -6.7190395    451.62323  0.034912124  0.035150677            2 
 1079000    1.0852044   -6.7890053    451.43423   0.03486517  0.035144003            5 
 1080000    1.0627667   -6.7565655    453.25127  0.034973092   0.03513701            2 
 1081000     1.093067   -6.7719901    452.50269  0.034883032  0.035130291            2 
 1082000    1.1042042   -6.7544123    453.14068  0.034899929  0.035123393            3 
 1083000    1.0833133   -6.7182569     454.0711  0.034939297  0.035116685            3 
 1084000    1.0659973   -6.7312447     455.1254  0.034988115  0.035110037            7 
 1085000    1.0568092   -6.7611346     454.7107  0.034924017  0.035103301            3 
 1086000    1.0695414   -6.7776234    453.21504   0.03477709  0.035096477            1 
 1087000    1.0534242   -6.7330738    454.07515  0.034811036  0.035089362            5 
 1088000    1.0655265   -6.7440453    454.96587  0.034847263  0.035082314            2 
 1089000    1.0748141   -6.7785566    453.40878  0.034696111  0.035075015            2 
 1090000    1.0892206   -6.7760682    454.71429  0.034764089  0.035067767            2 
 1091000    1.0540785   -6.7824856      453.876  0.034668194  0.035060559            4 
 1092000    1.0964785   -6.7382723    455.02816  0.034724371  0.035053055            3 
 1093000    1.0427755   -6.7410959    455.18752  0.034704751  0.035045544            4 
 1094000    1.0716091   -6.7679796     455.5792  0.034702864   0.03503803            2 
 1095000    1.0897865   -6.7510641    455.84695  0.034691549  0.035030398            2 
 1096000    1.0857928   -6.7227275    456.66537  0.034722124  0.035022807            3 
 1097000    1.0658922   -6.7560854    455.72192  0.034618803  0.035015204            5 
 1098000    1.0556389   -6.7740599      456.704   0.03466181  0.035007573            3 
 1099000    1.0651829   -6.7642284    456.59888  0.034622299  0.034999884            3 
 1100000    1.0646304   -6.7497398    456.96661  0.034618683  0.034992252            3 
 1101000    1.0623415   -6.7604214     457.7021  0.034642908  0.034984603            2 
 1102000    1.0832679   -6.7442353    458.27356  0.034654685  0.034977217            3 
 1103000     1.098338   -6.7686072    458.72934  0.034657702  0.034969738            3 
 1104000    1.1002509   -6.7763876    459.07702  0.034652553  0.034962264            3 
 1105000    1.0746658   -6.7520957    460.38182  0.034719594  0.034955134            3 
 1106000    1.1091933   -6.7853301    459.80624  0.034644834  0.034947888            2 
 1107000    1.0583471   -6.7571134    460.97382  0.034701432  0.034940522            3 
 1108000    1.0658833   -6.7681575      459.624  0.034568592   0.03493314            2 
 1109000    1.0434604    -6.712982    461.10691  0.034648851  0.034926077            2 
 1110000    1.0755364   -6.7169269    461.34368  0.034635412  0.034918885            1 
 1111000    1.0979615   -6.7562199    461.92246  0.034647649  0.034911531            5 
 1112000    1.0840931   -6.7499282    460.95628  0.034544085   0.03490426            2 
 1113000    1.0749697   -6.7298196    462.74586   0.03464704  0.034896817            2 
 1114000    1.0575447   -6.7855208    461.38171  0.034513892  0.034889497            2 
 1115000    1.0731583   -6.7647166    462.11337  0.034537621  0.034881939            3 
 1116000    1.0884708   -6.7567232     463.2501  0.034591555  0.034874519            2 
 1117000    1.0594258   -6.7361509    464.16108   0.03462855  0.034867325            3 
 1118000    1.0634707   -6.7873667    462.83698   0.03449888  0.034860196            5 
 1119000    1.0660314   -6.7839723    463.05473  0.034484266   0.03485285            2 
 1120000    1.0625988   -6.7956467    463.43535  0.034481797  0.034845312            1 
 1121000    1.0608926   -6.7366716    463.73933  0.034473635  0.034837793            2 
 1122000    1.0749214   -6.7623722    462.87965  0.034379059  0.034830385            2 
 1123000    1.0866344   -6.7824676    462.47133  0.034318146  0.034822784            2 
 1124000    1.0587966   -6.7745489    464.18516  0.034414677  0.034814851            3 
 1125000    1.0943126   -6.7514624    465.66904  0.034494003  0.034806943            4 
 1126000    1.0701371   -6.7121483    465.56088  0.034455364  0.034799101            3 
 1127000    1.0730499   -6.7993372    465.67101  0.034432934  0.034791379            3 
 1128000    1.0731629   -6.7571992    465.87268  0.034417308   0.03478387            3 
 1129000    1.0722543   -6.7665925    465.97902  0.034394673  0.034776413            2 
 1130000    1.0586198   -6.8001279    465.73657  0.034346355  0.034768591            2 
 1131000    1.0939946   -6.7232103    469.47815   0.03459167  0.034760995            2 
 1132000    1.0781926   -6.7653875    467.30566  0.034401182  0.034753696            2 
 1133000     1.043651   -6.8143603    466.68393   0.03432509  0.034746212            5 
 1134000    1.0930538   -6.7747267    468.35345  0.034417508  0.034738735            3 
 1135000    1.0659883   -6.7723538    470.38901  0.034536638  0.034731165            2 
 1136000    1.0646583   -6.7928786    468.15585  0.034342418  0.034723431            1 
 1137000    1.0587496   -6.8261193    468.45103  0.034333849  0.034715528            2 
 1138000    1.0724026   -6.7811075    468.30993  0.034293346  0.034707725            2 
 1139000    1.0645876   -6.8044663    470.42592  0.034418051  0.034699976            2 
 1140000    1.0805104   -6.7577445    469.75657  0.034338931  0.034692249            4 
 1141000    1.0564429   -6.7387425    471.76186  0.034455292  0.034684606            4 
 1142000     1.091408   -6.7707997    471.59729  0.034413112   0.03467724            2 
 1143000    1.0682455   -6.7721676    472.16261  0.034424221  0.034669905            3 
 1144000    1.0700607    -6.787242    470.68003  0.034286133  0.034662639            2 
 1145000    1.0564119   -6.7996701    470.64087  0.034253338  0.034655217            2 
 1146000    1.0421009   -6.7448298    471.97652  0.034320573  0.034647505            2 
 1147000    1.0706316   -6.7666162     472.5279  0.034330711  0.034639999            3 
 1148000    1.0582937   -6.8312367    472.74599  0.034316637  0.034632452            2 
 1149000    1.0681629   -6.7740003    471.97372   0.03423076   0.03462487            3 
 1150000     1.058425   -6.7569165    473.88635   0.03433959  0.034617662            3 
 1151000    1.0461119   -6.7772797    473.07044  0.034250684  0.034610258            4 
 1152000    1.0515472   -6.7868409    474.47146  0.034322299   0.03460283            2 
 1153000    1.0759718   -6.7735042     475.2482   0.03434867  0.034595314            4 
 1154000    1.0798445   -6.7464002    474.55651  0.034268957  0.034587905            2 
 1155000    1.0718008   -6.8173034    475.20506  0.034286079  0.034580529            3 
 1156000     1.049288   -6.7701197    475.19885  0.034255973  0.034573295            2 
 1157000    1.0629734   -6.8200402    474.61741  0.034184487  0.034565841            1 
 1158000    1.0538393   -6.7660945    476.04756  0.034257884  0.034558498            2 
 1159000    1.0692483   -6.7745674    477.65529  0.034343923  0.034551119            2 
 1160000    1.0410506   -6.8090822    476.64646  0.034241844  0.034543946            5 
 1161000    1.0725731   -6.7971521    477.32845  0.034261301  0.034536995            3 
 1162000    1.0643381   -6.7921477    478.36249  0.034305973  0.034529823            5 
 1163000    1.0664837   -6.7581724    478.87008  0.034312846  0.034522871            2 
 1164000    1.0848579   -6.7664808    479.54927  0.034331992  0.034515917            2 
 1165000    1.0462076   -6.7556817      479.317  0.034285909  0.034508948            5 
 1166000    1.0604762     -6.76695    481.31468  0.034399277  0.034501855            2 
 1167000    1.0435662   -6.8119841    478.77595  0.034188514  0.034494937            3 
 1168000    1.0870839   -6.7752902    480.52459  0.034284004  0.034487746            2 
 1169000    1.0783312   -6.8132386    478.91506  0.034139939  0.034480691            3 
 1170000     1.063504    -6.733902    481.41571  0.034288868  0.034473487            4 
 1171000    1.0855534    -6.817228    481.63201  0.034274979  0.034466174            1 
 1172000    1.0886897   -6.7521032    480.08556  0.034135776  0.034458726            3 
 1173000    1.0846886    -6.805685    480.14782  0.034111098  0.034451102            6 
 1174000    1.0872925   -6.7792481    480.44411  0.034103074  0.034443422            2 
 1175000    1.0854715   -6.7952475    480.62797   0.03408709  0.034435668            4 
 1176000    1.0558045   -6.7738353    481.93849   0.03415097  0.034427884            4 
 1177000    1.0811315   -6.7872486    480.82655  0.034043227  0.034420369            2 
 1178000    1.0665608   -6.8265067    479.23865  0.033901998  0.034412548            2 
 1179000    1.0624943   -6.7674578    480.86915   0.03398849  0.034404666            3 
 1180000    1.0525115   -6.7593456     481.4686   0.03400202  0.034396896            4 
 1181000    1.0633984   -6.7795253    482.88563  0.034073217   0.03438896            2 
 1182000    1.0660628   -6.8020036    482.53082  0.034019375  0.034381177            1 
 1183000    1.0616542   -6.8097964    482.02959   0.03395531  0.034373095            6 
 1184000    1.0741235   -6.7960483    482.24263  0.033941626  0.034365162            5 
 1185000    1.0518082   -6.7607853    482.61707  0.033939316  0.034357282            3 
 1186000    1.0603112   -6.7448547    482.54464   0.03390561  0.034349412            3 
 1187000    1.0570626   -6.7497625    483.48507  0.033943068  0.034341595            5 
 1188000    1.0801147   -6.7452419    485.77947   0.03407544  0.034333763            3 
 1189000    1.0713347   -6.7968452    485.26985  0.034011063  0.034325932            3 
 1190000    1.0603016   -6.8062244    483.83543  0.033882033  0.034317925            3 
 1191000    1.0947879   -6.7856258    485.07231  0.033940128  0.034309776            1 
 1192000    1.0499655   -6.8033072    483.69936  0.033815671  0.034301688            3 
 1193000    1.0342864   -6.7638641    484.05744  0.033812339  0.034293448            1 
 1194000    1.0633929   -6.7447713    484.81474  0.033836875  0.034285152            4 
 1195000    1.0533596   -6.7616619    485.01042  0.033822205  0.034276923            2 
 1196000    1.0378117    -6.831048    485.07154  0.033798184  0.034268642            3 
 1197000    1.0623091   -6.7700457    486.16504  0.033846076   0.03426037            5 
 1198000    1.0551645   -6.7856951    486.72275  0.033856619  0.034252258            4 
 1199000    1.0573669    -6.795137    486.24945  0.033795486  0.034244016            1 
 1200000    1.0615206   -6.8144146    486.72668  0.033800464  0.034235845            4 
 1201000    1.0681462   -6.7826919    487.08587  0.033797243  0.034227935            1 
 1202000    1.0642233   -6.7762493    487.82942  0.033820675  0.034220036            4 
 1203000    1.0595368   -6.7891983    488.00782   0.03380492  0.034211913            4 
 1204000    1.0310406   -6.7449123    488.52378  0.033812554  0.034204051            4 
 1205000    1.0588947   -6.7956479    488.02181  0.033749779  0.034196135            2 
 1206000     1.088099   -6.7808576    486.96774  0.033648959  0.034188043            3 
 1207000    1.0629515   -6.8023491    488.43791  0.033722584  0.034179708            4 
 1208000    1.0343741   -6.7531427    490.46758  0.033834684  0.034171601            3 
 1209000    1.0818662   -6.7817573    489.24843  0.033722665  0.034163404            2 
 1210000    1.0446129   -6.7830397    488.54591  0.033646413   0.03415524            2 
 1211000    1.0442395   -6.8123034    488.85603  0.033639969  0.034146779            2 
 1212000    1.0805654   -6.7712229    489.40435  0.033649914  0.034138364            5 
 1213000    1.0522811   -6.8168261    487.89107   0.03351821  0.034129945            4 
 1214000    1.0489249   -6.8356521    489.22784  0.033582361  0.034121507            2 
 1215000    1.0339678   -6.7886144    490.02811   0.03360961  0.034112952            2 
 1216000    1.0687175   -6.8241605    490.34183  0.033603469  0.034104685            3 
 1217000    1.0462405   -6.7613774    491.75737  0.033672786  0.034096422            3 
 1218000    1.0514676    -6.781235    491.01172  0.033594124  0.034088176            7 
 1219000    1.0473454   -6.7567704    493.47873  0.033735216  0.034079878            3 
 1220000    1.0822811   -6.8015739    490.18837  0.033482812  0.034071512            1 
 1221000    1.0586066   -6.8306323    491.58633    0.0335508  0.034062966            3 
 1222000    1.0593936   -6.8201851    491.81544  0.033538969  0.034054387            6 
 1223000    1.0618573   -6.8172446    491.86988  0.033515255  0.034045981            3 
 1224000    1.0562629   -6.8075662    492.27483  0.033515443   0.03403747            1 
 1225000    1.0740562    -6.798575    492.20843  0.033483567  0.034028965            1 
 1226000    1.0540382   -6.7979212    492.80456  0.033496775  0.034020486            4 
 1227000    1.0459033   -6.8292544    493.38584  0.033508954  0.034012007            2 
 1228000    1.0398262   -6.8549389    492.50406  0.033421828  0.034003485            2 
 1229000    1.0337344   -6.7782986    493.49441  0.033461785  0.033994886            2 
 1230000     1.064657    -6.811783    494.31713  0.033490321  0.033986416            3 
 1231000    1.0381102   -6.7730485    495.72163  0.033558193  0.033978005            2 
 1232000    1.0429528   -6.7790867    494.29023  0.033434133  0.033969647            3 
 1233000    1.0745958   -6.7803271     495.3385  0.033477866  0.033961301            3 
 1234000     1.059176   -6.7947793    495.44275  0.033457776  0.033952968            3 
 1235000    1.0360717   -6.7815812    496.21845  0.033483026  0.033944524            2 
 1236000    1.0795322   -6.8308652    495.66021  0.033418299   0.03393602            3 
 1237000    1.0527058    -6.806079    496.39041  0.033440475   0.03392739            2 
 1238000    1.0406709   -6.8116434    496.28406  0.033406305  0.033918738            2 
 1239000    1.0151001   -6.8106846     496.7107  0.033408037  0.033910247            3 
 1240000    1.0438632   -6.7727754    498.85213  0.033525009  0.033901634            1 
 1241000    1.0819978   -6.8143159    497.29449  0.033393398  0.033892975            4 
 1242000    1.0539045   -6.7993296     497.9175  0.033408313   0.03388448            4 
 1243000    1.0781051   -6.8127385      497.797  0.033373358  0.033875929            3 
 1244000    1.0373544   -6.7859248    498.19779  0.033373378   0.03386749            3 
 1245000    1.0580967   -6.7628028    499.77026  0.033451825  0.033859161            2 
 1246000    1.0503636   -6.8073679    498.95076  0.033370169    0.0338507            6 
 1247000    1.0659356   -6.8034119    499.28466  0.033365722  0.033842231            4 
 1248000    1.0600827   -6.8002401    501.01856  0.033454765  0.033834044            2 
 1249000    1.0490498   -6.7750871    501.20376  0.033440336  0.033825893            4 
 1250000    1.0694329   -6.7534196    500.36442  0.033357628  0.033817435            2 
 1251000    1.0684411   -6.7714303    502.04517  0.033442924  0.033809252            2 
 1252000    1.0441595   -6.8033135    502.53563  0.033448857  0.033801208            3 
 1253000    1.0555149   -6.8413896    503.24599  0.033469406  0.033793097            2 
 1254000      1.07885   -6.7790621     502.7725  0.033411251  0.033785031            3 
 1255000     1.054278   -6.7805142    502.16032  0.033343979  0.033776935            2 
 1256000    1.0551347   -6.8086951    502.72504  0.033354899  0.033768626            4 
 1257000    1.0431989   -6.8000596    503.93331  0.033408467  0.033760645            3 
 1258000    1.0578419   -6.8019173    502.47378  0.033285226  0.033752568            5 
 1259000    1.0497469   -6.7659874    504.63065  0.033401552  0.033744426            2 
 1260000    1.0585336   -6.7900947    503.94542  0.033329724  0.033736385            2 
 1261000    1.0664366   -6.8392127    505.04215   0.03337577   0.03372816            2 
 1262000    1.0475657   -6.7789788     505.3056   0.03336672  0.033720039            2 
 1263000     1.083126   -6.8312803    504.27402  0.033272237  0.033711758            5 
 1264000    1.0681665    -6.820717    504.28216   0.03324645  0.033703479            3 
 1265000    1.0565427   -6.8294531    504.34564   0.03322435  0.033695206            3 
 1266000    1.0580807    -6.792647    504.95011  0.033237896  0.033687132            3 
 1267000    1.0472571   -6.8197822    506.52974  0.033315558  0.033679169            4 
 1268000    1.0467852   -6.7893136    506.70473  0.033300784  0.033671261            3 
 1269000    1.0486947   -6.8095333    507.12131  0.033301898  0.033663056            3 
 1270000     1.053835    -6.815461    507.55604  0.033304202   0.03365502            4 
 1271000    1.0575713    -6.837008    507.56283  0.033278444   0.03364709            5 
 1272000    1.0376131     -6.78036    509.03091  0.033348461  0.033639264            3 
 1273000    1.0481896   -6.8048894    509.71966  0.033367352  0.033631488            4 
 1274000    1.0461377   -6.8096245    508.07364  0.033233493   0.03362363            6 
 1275000      1.03314   -6.8086058    510.34213  0.033355695  0.033615826            2 
 1276000    1.0528579   -6.8105106     509.5583  0.033278363  0.033607859            3 
 1277000    1.0337095   -6.8335487     509.5572  0.033252232   0.03360006            3 
 1278000    1.0476598   -6.7752858    511.03989  0.033322893  0.033592234            3 
 1279000    1.0493244   -6.7908946    510.77091  0.033279314  0.033584436            3 
 1280000    1.0673894    -6.845382    510.33206  0.033224743    0.0335768            2 
 1281000    1.0330464   -6.8095246    511.57927  0.033279942   0.03356889            4 
 1282000    1.0543605   -6.7982103    512.37948  0.033305999  0.033560965            3 
 1283000    1.0643594   -6.7925511     513.0529  0.033323779  0.033552998            7 
 1284000    1.0339982   -6.8168409    509.85334   0.03309017   0.03354483            5 
 1285000    1.0712299   -6.8149078    511.52596   0.03317289  0.033536781            5 
 1286000    1.0257766   -6.8138158    512.84812  0.033232771  0.033528742            2 
 1287000    1.0559417   -6.8049184    511.88026   0.03314428  0.033520823            3 
 1288000    1.0643292   -6.8173014    512.34616   0.03314869  0.033512848            1 
 1289000    1.0358016    -6.810673    513.85065  0.033220239  0.033504797            4 
 1290000    1.0569889   -6.8111963    514.62098  0.033244249   0.03349695            3 
 1291000    1.0252181   -6.8248891    511.63886  0.033026004  0.033488974            6 
 1292000    1.0399151   -6.8257353    513.56494  0.033124674  0.033480984            6 
 1293000    1.0461976   -6.7766478    513.32742  0.033083747  0.033473086            3 
 1294000     1.056201   -6.8039662    513.37364  0.033061157  0.033465319            3 
 1295000    1.0242349   -6.8402459    514.37158  0.033099844  0.033457597            3 
 1296000    1.0580025   -6.8327845    514.14665  0.033059841  0.033449726            2 
 1297000     1.024953   -6.8377899    515.38485  0.033113907  0.033441691            3 
 1298000    1.0426278   -6.8233887    514.87947   0.03305595  0.033433486            1 
 1299000    1.0352288   -6.8075274    515.49224  0.033069813   0.03342547            3 
 1300000    1.0464744   -6.8112026     515.7656  0.033061897  0.033417346            2 
 1301000    1.0731293   -6.8266238    516.31387  0.033071603  0.033409336            1 
 1302000    1.0343154   -6.8216705    515.55952  0.032997921  0.033401312            4 
 1303000    1.0395722   -6.8111957    516.12213  0.033008578  0.033393088            4 
 1304000    1.0238651   -6.8291791    516.73716  0.033022569  0.033384866            3 
 1305000    1.0527221   -6.8559536     514.6321  0.032862842  0.033376638            3 
 1306000    1.0321431   -6.8404144    516.76074  0.032973503   0.03336852            6 
 1307000    1.0501058   -6.8092498    516.70812   0.03294492  0.033360359            4 
 1308000    1.0349981   -6.8373046    516.46441  0.032904206  0.033352252            2 
 1309000    1.0348136    -6.795851    515.44194  0.032813977  0.033343937            4 
 1310000    1.0402878   -6.8397653    516.88087  0.032880463  0.033335696            3 
 1311000    1.0707456   -6.8301021    516.00472   0.03279969  0.033327434            2 
 1312000    1.0433206   -6.8508938    519.23687  0.032979984  0.033319137            2 
 1313000    1.0333559   -6.8432492    517.51098  0.032845327  0.033310852            2 
 1314000    1.0507167   -6.7981546    518.49859  0.032882965  0.033302548            2 
 1315000    1.0357718    -6.840162    519.02068  0.032891044  0.033294188            2 
 1316000      1.03693    -6.849682    518.39168  0.032826221  0.033285912            3 
 1317000    1.0391967   -6.8298584    520.18603  0.032914833  0.033277719            2 
 1318000    1.0531668   -6.8130905    520.60953  0.032916637  0.033269537            4 
 1319000    1.0114022    -6.835923    519.76895  0.032838574  0.033261306            1 
 1320000    1.0293932   -6.8483044    520.74807   0.03287551  0.033253018            3 
 1321000    1.0529775   -6.8420122    520.29745  0.032822196  0.033244771            5 
 1322000    1.0244136   -6.8348322    522.60948  0.032943109  0.033236599            4 
 1323000    1.0339854    -6.839107    522.54724  0.032914288  0.033228621            1 
 1324000    1.0256293   -6.8234654     522.4985  0.032886361  0.033220713            6 
 1325000    1.0458892   -6.8130872    522.73536  0.032876438  0.033212691            4 
 1326000   0.99866587   -6.8552248    521.80474  0.032793158  0.033204533            2 
 1327000    1.0304394   -6.8232964    521.70911  0.032762441  0.033196407            3 
 1328000    1.0357941   -6.7951736    523.80874  0.032869524   0.03318846            2 
 1329000    1.0391833   -6.8013075    523.67522   0.03283642  0.033180381            2 
 1330000     1.049236   -6.8488975    522.13271  0.032715082  0.033172129            6 
 1331000    1.0409953   -6.8047345    523.62179  0.032783733  0.033163766            6 
 1332000    1.0329206     -6.82609    521.41034  0.032620767  0.033155369            5 
 1333000    1.0622718   -6.8361637       523.97  0.032756314  0.033146933            4 
 1334000    1.0437297   -6.8284032    523.88405   0.03272639  0.033138563            3 
 1335000    1.0361927   -6.8278952    523.19088  0.032658606  0.033130366            2 
 1336000    1.0589868   -6.8584082    524.55377  0.032719173  0.033122224            2 
 1337000     1.049789   -6.8600245    524.16373  0.032670389  0.033113996            2 
 1338000    1.0533775    -6.813767    526.49171  0.032790964  0.033105811            3 
 1339000    1.0242236   -6.8617105     524.3848   0.03263535  0.033097613            3 
 1340000    1.0360425   -6.8352199    525.54137  0.032682921   0.03308938            4 
 1341000    1.0313528    -6.818705    524.58814  0.032599313  0.033081261            6 
 1342000    1.0313694   -6.8465679    526.07129  0.032667119  0.033073076            5 
 1343000    1.0364123   -6.8420739    526.98758  0.032699652  0.033064879            4 
 1344000    1.0446351   -6.8543906    527.66809  0.032717515  0.033056709            9 
 1345000    1.0470774   -6.8048588    528.87554  0.032768001  0.033048635            2 
 1346000    1.0369778   -6.8049395    527.49808  0.032658376  0.033040631            5 
 1347000    1.0168526   -6.8481692    530.81813  0.032839528  0.033032654            4 
 1348000    1.0373394   -6.8610576     528.1232  0.032648566  0.033024746            2 
 1349000    1.0330419   -6.8213777    527.77426  0.032602808  0.033016935            2 
 1350000    1.0179838   -6.8427764    531.07667   0.03278251  0.033009139            1 
 1351000    1.0497629    -6.842472    530.30551  0.032710678  0.033001212            3 
 1352000     1.026755   -6.8299472    530.11979  0.032675037  0.032993323            3 
 1353000    1.0331241   -6.8420341    531.78642  0.032753537  0.032985409            5 
 1354000    1.0395615   -6.8440394    529.33844  0.032578683  0.032977428            2 
 1355000     1.021593   -6.8420812    531.04325  0.032659486   0.03296935            3 
 1356000     1.039365   -6.8360156     530.7573  0.032617828  0.032961188            2 
 1357000    1.0285364   -6.8671309    530.35218  0.032568913  0.032953095            2 
 1358000    1.0615278    -6.842652    531.70938  0.032628214  0.032945156            2 
 1359000    1.0325161   -6.8836725    530.83428  0.032550544  0.032937291            2 
 1360000    1.0203396   -6.8535757    532.47539  0.032627169  0.032929362            3 
 1361000    1.0163191   -6.8320358    533.76068  0.032681893   0.03292147            5 
 1362000    1.0352164   -6.8470309    533.23977  0.032626026  0.032913733            2 
 1363000    1.0483669   -6.8237404    534.30471  0.032667199  0.032906018            3 
 1364000    1.0064758   -6.8369472    534.45717  0.032652564  0.032898219            4 
 1365000    1.0163886   -6.8004134    534.38587   0.03262429  0.032890533            3 
 1366000    1.0441717   -6.8415291     534.3649  0.032599127  0.032882566            2 
 1367000     1.037329   -6.8550087    532.06523  0.032435091  0.032874465            5 
 1368000    1.0291411   -6.8408282    533.29269  0.032486153  0.032866283            3 
 1369000    1.0506018   -6.8729689    535.05602   0.03256976   0.03285824            8 
 1370000    1.0159133   -6.8500461    535.52459  0.032574489  0.032850429            2 
 1371000    1.0369783   -6.8390168    534.46318  0.032486213  0.032842439            6 
 1372000    1.0586221   -6.8352054    535.62322  0.032532994  0.032834616            2 
 1373000    1.0284421   -6.8754181    535.77603  0.032518574   0.03282678            1 
 1374000    1.0298121   -6.8599567    534.31516  0.032406305  0.032818907            3 
 1375000    1.0357367   -6.8226536    535.07799  0.032428969  0.032810997            3 
 1376000    1.0260582   -6.8514234    536.79426  0.032509343  0.032803143            1 
 1377000    1.0384438   -6.8404157    537.04796  0.032501087  0.032795301            3 
 1378000    1.0556048    -6.838814    535.24106   0.03236823  0.032787384            4 
 1379000    1.0067673   -6.8712522    535.84982  0.032381546  0.032779357            5 
 1380000    1.0517526   -6.8543501    536.81526  0.032416381  0.032771389            3 
 1381000    1.0327634   -6.8276564    538.84783  0.032515558  0.032763463            2 
 1382000    1.0391725   -6.8441003    538.42239  0.032466376  0.032755728            6 
 1383000    1.0392101   -6.8374702    540.76133  0.032583835  0.032747985            3 
 1384000     1.024551   -6.8532766    538.10803  0.032400531  0.032740186            2 
 1385000    1.0214685   -6.8576164     540.8791  0.032543869  0.032732435            3 
 1386000    1.0438549   -6.8546725    538.24274  0.032361877  0.032724553            4 
 1387000    1.0433257   -6.8418023    540.73543   0.03248831  0.032716791            4 
 1388000    1.0330062    -6.827284    540.90612  0.032475151  0.032709132            5 
 1389000    1.0559985   -6.8362655    540.72418  0.032440856  0.032701294            3 
 1390000    1.0245539   -6.8625259    542.00981  0.032494593  0.032693622            3 
 1391000    1.0272106   -6.8453215    543.38327  0.032553515  0.032685964            3 
 1392000    1.0335133   -6.8393172    541.65127  0.032426441  0.032678313            2 
 1393000    1.0244529    -6.854813    542.68253  0.032464856  0.032670734            6 
 1394000    1.0073645   -6.8963551    540.27872  0.032297867  0.032663134            6 
 1395000    1.0319512   -6.8133893    544.29892   0.03251487  0.032655533            3 
 1396000    1.0461948   -6.8422795    542.71769  0.032397188  0.032647926            4 
 1397000     1.014153   -6.8363178    543.50988  0.032421253  0.032640234            7 
 1398000    1.0329903   -6.8835804     541.1494  0.032257356  0.032632628            4 
 1399000     1.033861   -6.8597609    542.57645  0.032319302  0.032624818            3 
 1400000    1.0517784   -6.8542271    543.34883  0.032342192  0.032616946            2 
 1401000    1.0686454   -6.8452241    543.82702   0.03234755  0.032609102            3 
 1402000   0.99923198   -6.8722476    542.62341  0.032252937  0.032601213            4 
 1403000    1.0384856   -6.8360411     544.4052   0.03233578  0.032593441            3 
 1404000    1.0204193   -6.8403097    544.82945   0.03233793  0.032585647            4 
 1405000    1.0272138    -6.829261    545.71084  0.032367191   0.03257792            2 
 1406000    1.0332759   -6.8364482    544.89249  0.032295667  0.032570141            7 
 1407000    1.0145668   -6.8592078    543.89018  0.032213349  0.032562301            5 
 1408000    1.0447025   -6.8524166    543.32101  0.032156783  0.032554317            4 
 1409000    1.0460988   -6.8268075    545.94807  0.032289335   0.03254648            4 
 1410000    1.0353781   -6.8525342     545.3557  0.032231424   0.03253862            5 
 1411000      1.03641   -6.8404291    546.97715  0.032304344  0.032530964            3 
 1412000    1.0171272    -6.836272    547.73141  0.032325981  0.032523267            6 
 1413000    1.0025106   -6.8414699    546.75002  0.032245224   0.03251532            6 
 1414000    1.0429446   -6.8518721    547.58537  0.032271651  0.032507457            2 
 1415000    1.0347186   -6.8626184    546.06271   0.03215917  0.032499668            3 
 1416000    1.0320893   -6.8660455    547.32492  0.032210742  0.032491753            5 
 1417000    1.0304584   -6.8730544    546.34045  0.032130114   0.03248375            4 
 1418000    1.0213303   -6.8676389     547.1168   0.03215308  0.032475768            2 
 1419000   0.99944721   -6.8402788    548.44119  0.032208198  0.032467846            3 
 1420000    1.0051894    -6.881983    546.50214  0.032071722  0.032459898            2 
 1421000     1.016152   -6.8937542     549.4577  0.032222478  0.032452103            2 
 1422000     1.033509   -6.8427657    549.57392  0.032206629  0.032444288            3 
 1423000    1.0367628   -6.8706472    549.37743   0.03217249  0.032436583            2 
 1424000    1.0376433   -6.8023113    549.96287  0.032184157  0.032428828            3 
 1425000    1.0173073   -6.8458494    550.59813  0.032198721  0.032421238            5 
 1426000    1.0183688   -6.8844625    549.00297  0.032082923  0.032413464            8 
 1427000     1.020723   -6.8782277    548.53362  0.032033031  0.032405504            4 
 1428000    1.0338067   -6.8760578    550.20444  0.032108102  0.032397513            1 
 1429000    1.0327792   -6.8619359    550.60538  0.032109015  0.032389527            3 
 1430000     1.034813   -6.8413592    552.93792  0.032222489  0.032381641            2 
 1431000      1.03617   -6.8609853    549.76158     0.032015  0.032373823            8 
 1432000    1.0359871    -6.855767    551.52945  0.032095522  0.032365833            3 
 1433000    1.0313687   -6.8451637    550.22795  0.031997439  0.032357941            3 
 1434000    1.0191083   -6.8337378     551.5724  0.032053254  0.032349984            5 
 1435000    1.0298956   -6.8717778    551.24363  0.032011825  0.032342004            2 
 1436000    1.0357908   -6.8738586    552.44298  0.032059133  0.032333984            3 
 1437000    1.0245314    -6.848225    551.92149  0.032006581  0.032325922            2 
 1438000    1.0277643   -6.8307521    551.71024  0.031972081   0.03231787            1 
 1439000    1.0117585   -6.8071164    552.69924  0.032007137  0.032309887            1 
 1440000    1.0200974   -6.8649052    550.54697  0.031860357  0.032301744            2 
 1441000    1.0189615    -6.863376    552.71839  0.031963821  0.032293672            2 
 1442000    1.0517817   -6.8744266    551.35933  0.031863114  0.032285504            3 
 1443000    0.9819157   -6.8600336    553.91678  0.031988726  0.032277334            1 
 1444000      1.00374    -6.861236    553.93197   0.03196745  0.032269253            5 
 1445000    1.0222301   -6.8944307    552.20764  0.031845885   0.03226118            3 
 1446000     1.028915   -6.9152945    552.13533  0.031819694  0.032252965            1 
 1447000    1.0333858   -6.8940026    553.04571  0.031850133  0.032244653            2 
 1448000    1.0210977   -6.8128313    554.14106  0.031891175  0.032236518            6 
 1449000    1.0321138   -6.8871903    554.60858  0.031896054  0.032228572            4 
 1450000    1.0068527   -6.8893508    556.22787  0.031967119  0.032220609            2 
 1451000     1.014626    -6.859503    557.28054  0.032005544  0.032212745            4 
 1452000    1.0284259   -6.8861449    556.67625  0.031948821  0.032204939            7 
 1453000    1.0236091   -6.8801319    556.12671  0.031895315  0.032197288            3 
 1454000    1.0334449   -6.8807322    556.88042  0.031916576  0.032189429            3 
 1455000    1.0365241   -6.8591716    556.62282  0.031879887  0.032181515            5 
 1456000    1.0172933   -6.8492387    556.71275  0.031863138  0.032173656            1 
 1457000    1.0269309   -6.8584139    558.01878  0.031915968  0.032165891            1 
 1458000   0.99494677    -6.871026    557.74156  0.031878233  0.032158164            4 
 1459000    1.0056992   -6.8640632    557.97692  0.031869826  0.032150614            3 
 1460000    1.0258326   -6.8725562    560.61367  0.031998497  0.032142979            3 
 1461000    1.0150168   -6.8616858    560.29595  0.031958473  0.032135382            5 
 1462000   0.99472638   -6.8364823    560.11007  0.031926019  0.032127812            3 
 1463000    1.0111327   -6.8952176    559.79143  0.031886046  0.032120229            3 
 1464000    1.0193286   -6.8770255    560.42631  0.031900405  0.032112688            5 
 1465000    1.0107332   -6.8572179    560.88777  0.031904879  0.032105215            2 
 1466000   0.99708374   -6.8531119    559.21384  0.031787962  0.032097532            4 
 1467000    1.0068898   -6.8799894    561.34224  0.031887198  0.032089739            4 
 1468000    1.0123707   -6.8668907    561.06241  0.031849592  0.032082022            2 
 1469000    1.0208734   -6.8747777    560.79912  0.031812975  0.032074322            2 
 1470000    1.0129543   -6.9158951    559.77752   0.03173342  0.032066563            4 
 1471000    1.0243213   -6.8855392    561.08477  0.031785904  0.032058866            2 
 1472000   0.99939249   -6.8970922    563.28254  0.031888731  0.032051251            3 
 1473000    1.0188486    -6.865146    562.92563   0.03184689  0.032043626            3 
 1474000    1.0066383   -6.8828695     563.6593  0.031866763  0.032036022            2 
 1475000    1.0139902   -6.8866831    565.20635  0.031932562  0.032028453            4 
 1476000    1.0238627   -6.8931774    563.95134  0.031840071  0.032020959            2 
 1477000    1.0244528   -6.8470743    564.52366  0.031850804  0.032013299            2 
 1478000     1.010507   -6.8596531    563.02575  0.031744798  0.032005611            4 
 1479000    1.0068818   -6.9175716    562.76516  0.031708652  0.031997838            4 
 1480000    1.0221333   -6.8755425    564.62018  0.031791677  0.031990275            7 
 1481000     1.010314   -6.8678686    563.59944  0.031712775  0.031982582            4 
 1482000    1.0224055   -6.8743096    563.41772  0.031681158   0.03197474            3 
 1483000   0.99590882   -6.8589105    562.76504   0.03162312  0.031966833            4 
 1484000    1.0178634   -6.8572826     564.0683  0.031674994  0.031958956            2 
 1485000   0.99173105    -6.905768    565.02044  0.031707095  0.031951088            3 
 1486000    1.0046096   -6.8922475    564.63776  0.031664298  0.031943203            2 
 1487000    1.0189576   -6.8550126     565.5621  0.031694805  0.031935404            3 
 1488000    1.0046071   -6.8789986    563.90405  0.031580648  0.031927469            3 
 1489000    1.0274363   -6.9119255    565.01597  0.031621668  0.031919512            3 
 1490000    1.0011997   -6.9195952     564.5011   0.03157165  0.031911564            3 
 1491000    1.0113452    -6.894536    566.26454  0.031649035  0.031903664            6 
 1492000    1.0212185    -6.912029    564.86729  0.031549782  0.031895586            4 
 1493000    1.0177698   -6.9220542    565.72035  0.031576264  0.031887602            2 
 1494000   0.98914615   -6.8828828    566.16329  0.031579835   0.03187967            4 
 1495000    1.0045329   -6.8949127    566.26353  0.031564299  0.031871664            2 
 1496000    1.0181227   -6.8725964    566.13903  0.031536265  0.031863631            4 
 1497000   0.99006646    -6.901406    566.26535   0.03152223  0.031855594            3 
 1498000    1.0269045   -6.9153864    567.10496  0.031547895    0.0318476            3 
 1499000    1.0302433   -6.8309482    567.54675  0.031551409  0.031839582            2 
 1500000    1.0173645   -6.9157563    566.96095  0.031497831  0.031831597            4 
 1501000    1.0019974    -6.921643    567.43641  0.031503243  0.031823497            3 
 1502000    1.0013096   -6.8862953    568.99083   0.03156851  0.031815475            2 
 1503000    1.0277886   -6.8876951    569.28025  0.031563553  0.031807616            3 
 1504000    1.0039208   -6.9161057     568.1736   0.03148125    0.0317998            5 
 1505000    1.0035716    -6.866586    570.97054  0.031615201  0.031791985            5 
 1506000   0.99833497   -6.9114517    569.03901  0.031487329  0.031784093            4 
 1507000    0.9842058   -6.8738241    569.20955  0.031475866  0.031776142            2 
 1508000    1.0117905   -6.8504938    570.45612   0.03152388  0.031768397            3 
 1509000    1.0157257   -6.8783289     570.4606  0.031503236  0.031760682            4 
 1510000    1.0092546   -6.9028882    569.68675  0.031439666   0.03175277            2 
 1511000     1.007784   -6.8561992    570.10594  0.031441978  0.031744838            2 
 1512000    1.0308547    -6.866448    568.26474  0.031319706  0.031736948            2 
 1513000    1.0133001   -6.8926479    570.01754  0.031395547   0.03172898            3 
 1514000    1.0237468   -6.8823672    570.29669  0.031390175  0.031720948            2 
 1515000   0.99508254   -6.9129932    570.53093  0.031382339  0.031712838            3 
 1516000   0.99937058    -6.883394    570.32051  0.031350072    0.0317048            2 
 1517000   0.99507308   -6.9002781    571.44913  0.031391404  0.031696707            3 
 1518000    1.0266583   -6.8779605    570.91887  0.031341616  0.031688619            2 
 1519000   0.97345898   -6.9057411    571.56976  0.031356691  0.031680456            2 
 1520000    1.0070677   -6.8995586    573.06393  0.031417979  0.031672447            4 
 1521000    1.0137437   -6.9027215     571.4853  0.031310832  0.031664448            2 
 1522000     0.993292   -6.8930962    573.05838   0.03137639  0.031656489            2 
 1523000     1.007368   -6.8557056    573.90783  0.031402267  0.031648556            3 
 1524000   0.99673438   -6.8944586    573.96065   0.03138455  0.031640715            4 
 1525000   0.98780898   -6.9175976    575.43753  0.031444674  0.031632894            3 
 1526000    1.0055145   -6.9056114    574.22229  0.031357705  0.031625122            2 
 1527000   0.97828753       -6.891    577.43343  0.031512412  0.031617366            3 
 1528000    1.0258662   -6.8755435    575.36798  0.031379144    0.0316097            2 
 1529000    1.0037241   -6.8749991    576.97586  0.031446253  0.031602122            3 
 1530000   0.99976159    -6.863687    576.44328  0.031396693  0.031594363            3 
 1531000    1.0027023   -6.9195081    576.77464  0.031394222  0.031586587            4 
 1532000    1.0072617   -6.9143931    575.24745  0.031290658   0.03157875            4 
 1533000    1.0161007   -6.8712137     576.9472  0.031362644  0.031570951            3 
 1534000    1.0111561   -6.8840426    576.99978  0.031345055  0.031563148            2 
 1535000   0.99600693   -6.8916032    576.27515  0.031285296  0.031555409            2 
 1536000   0.99262346   -6.8577616    579.90424  0.031461818  0.031547736            6 
 1537000    1.0061244   -6.9298086    577.73678  0.031323833  0.031540125            3 
 1538000    1.0100955   -6.9163263     577.8253  0.031308263  0.031532492            5 
 1539000   0.98696266   -6.8929433    578.50336  0.031324635   0.03152489            3 
 1540000    1.0157863   -6.8785023    578.54427  0.031306508  0.031517266            3 
 1541000    1.0029228   -6.8951315    577.93244  0.031253106   0.03150961            2 
 1542000   0.99211136   -6.9324151    577.09034  0.031187329  0.031501872            4 
 1543000   0.98724797   -6.8870565    577.83103   0.03120712  0.031493986            4 
 1544000    1.0305212     -6.91444    577.52984  0.031170652  0.031486069            3 
 1545000    1.0117614   -6.8997234    578.93775  0.031226416    0.0314783            2 
 1546000    1.0050997   -6.9083899    579.83735  0.031254708  0.031470521            4 
 1547000    0.9973726   -6.9274738    578.26205  0.031149647  0.031462707            3 
 1548000    1.0036075    -6.925653    580.07578  0.031227163  0.031454917            2 
 1549000    1.0062474   -6.8862154    580.57588  0.031233908  0.031447136            3 
 1550000    1.0002287    -6.903946    580.47938  0.031208569  0.031439295            4 
 1551000   0.99993699   -6.9238028    579.44267  0.031132746  0.031431515            2 
 1552000    1.0173714    -6.933133    582.15289  0.031258209  0.031423707            2 
 1553000    1.0095687   -6.8734858    581.33342  0.031194109   0.03141608            4 
 1554000   0.99951129   -6.9054564    582.25899  0.031223669  0.031408498            3 
 1555000    1.0187175   -6.9140584    582.10677  0.031195433  0.031400804            4 
 1556000   0.97763242    -6.897146    580.80308  0.031105564  0.031393029            6 
 1557000   0.99885536   -6.8914037    583.93192  0.031253046  0.031385253            2 
 1558000    1.0071957   -6.8869748    583.53573  0.031211795   0.03137762            2 
 1559000    1.0347027   -6.9250736    581.15462  0.031064497  0.031369778            3 
 1560000    1.0238011   -6.9493164    581.85269  0.031081874   0.03136193            6 
 1561000   0.99804029   -6.9029005    581.35252  0.031035262  0.031354224            4 
 1562000    1.0152513   -6.9190934    582.76497  0.031090748  0.031346497            5 
 1563000   0.99902697   -6.8650738    584.49511    0.0311631  0.031338755            2 
 1564000   0.99241571   -6.8786861    583.51726  0.031091073  0.031331036            4 
 1565000   0.97842882   -6.9051567    582.90234  0.031038463  0.031323126            3 
 1566000   0.98464562   -6.8794315    583.75654  0.031064098  0.031315279            4 
 1567000    1.0106395   -6.8939664    584.88901  0.031104499  0.031307567            7 
 1568000    1.0062588    -6.929608    583.75749  0.031024526  0.031299799            2 
 1569000    1.0170077   -6.9083894      585.154  0.031078925  0.031292037            4 
 1570000    1.0084185   -6.9384098    584.49465  0.031024132  0.031284171            4 
 1571000    1.0108289    -6.937548    584.34928  0.030996673  0.031276246            5 
 1572000    1.0031128   -6.9284116    586.35994  0.031083542  0.031268425            2 
 1573000   0.99233607   -6.9079197    586.55734  0.031074239  0.031260545            3 
 1574000     1.022255   -6.8495247    586.77275  0.031065902  0.031252777            4 
 1575000    1.0050691   -6.9093463    586.81395  0.031048357  0.031245012            2 
 1576000   0.99565777   -6.9414831    585.13623  0.030939944  0.031237239            3 
 1577000   0.99177573   -6.9160928    587.39458  0.031039663   0.03122939            4 
 1578000     1.001059   -6.8821882    587.29236  0.031014594  0.031221641            3 
 1579000   0.98986343   -6.9106555    587.12981  0.030986374  0.031213977            2 
 1580000   0.99590313   -6.9220991    586.92194  0.030955798  0.031206258            4 
 1581000   0.98886685   -6.9285481    586.28101  0.030902436  0.031198342            2 
 1582000    1.0087101   -6.9160621    587.00729  0.030921159  0.031190472            6 
 1583000   0.97458623   -6.9517964    587.81415  0.030944101  0.031182631            6 
 1584000    1.0209417   -6.9019866     587.8521  0.030926562  0.031174789            4 
 1585000    1.0153327   -6.8997655    587.85691  0.030907303  0.031166845            4 
 1586000    1.0077649   -6.9348417    585.66965   0.03077289  0.031158734            3 
 1587000   0.98884713   -6.9114496    589.93793  0.030977627  0.031150765            1 
 1588000    1.0175197   -6.9124233     586.6157  0.030783779  0.031142765            4 
 1589000    1.0156192      -6.8948     588.0193  0.030838017  0.031134786            4 
 1590000   0.98504655   -6.9038772    588.80927  0.030860024  0.031126803            4 
 1591000   0.98761327   -6.9054656    587.68459  0.030781719  0.031118812            7 
 1592000    0.9887527   -6.9133161    589.80096  0.030873166  0.031110841            2 
 1593000   0.99479727   -6.9197193    588.73086  0.030797806  0.031102746            3 
 1594000    1.0056896   -6.9144024    588.07548  0.030744222  0.031094674            4 
 1595000   0.97718416   -6.9456401    589.00847  0.030773692   0.03108654            5 
 1596000   0.99128289   -6.9048333    588.21092  0.030712767  0.031078473            3 
 1597000    1.0085346    -6.907042    588.71078  0.030719619  0.031070334            9 
 1598000    1.0020307   -6.9077725    590.68602  0.030803401  0.031062134            3 
 1599000   0.98767935   -6.9367003    590.86728  0.030793584  0.031054046            3 
 1600000   0.99371352   -6.9140579    590.51038  0.030755749  0.031046124            6 
 1601000    1.0000077   -6.9274446    591.96275  0.030812136  0.031038212            4 
 1602000    1.0158879   -6.9381693    590.16418  0.030699344  0.031030194            1 
 1603000    1.0119636   -6.8905917    592.96575  0.030825834  0.031022359            3 
 1604000      1.01034   -6.9427923    590.73978  0.030690969  0.031014531            4 
 1605000   0.99155246   -6.9037409    592.04976  0.030739863  0.031006685            6 
 1606000   0.98565367   -6.9223193    593.38967  0.030790248  0.030998866            6 
 1607000   0.99558055   -6.8658505    593.12122  0.030757168  0.030991199            2 
 1608000   0.98973161   -6.9283462    594.00616  0.030783901  0.030983356            2 
 1609000    0.9809133   -6.9556972    593.09281  0.030717465   0.03097544            4 
 1610000    1.0161257   -6.9135898    593.66109    0.0307278  0.030967569            2 
 1611000   0.99614097   -6.9171893    591.78942  0.030611909  0.030959716            4 
 1612000    0.9974194   -6.9367059    592.28999  0.030618796   0.03095183            5 
 1613000   0.99318827   -6.9412769     595.6569   0.03077376  0.030943921            7 
 1614000   0.98211265   -6.9274406    595.17805   0.03072997  0.030936157            2 
 1615000   0.99241929     -6.90066    594.35553    0.0306685  0.030928371            4 
 1616000   0.98968328   -6.8619357    596.61902  0.030766245   0.03092058            5 
 1617000    1.0087552   -6.9289895    593.13892  0.030567869   0.03091268            3 
 1618000   0.99050442   -6.9810259    593.22524  0.030553422  0.030904617            2 
 1619000    1.0121438   -6.9906191    595.17894  0.030635111  0.030896614            3 
 1620000   0.96384147    -6.922726     596.5395  0.030686188  0.030888705            3 
 1621000   0.99412203   -6.9156683    595.79567  0.030629019  0.030880948            4 
 1622000    0.9934825   -6.9585881    596.37664  0.030639983  0.030873268            2 
 1623000   0.98363854     -6.96717    596.81301  0.030643511  0.030865433            3 
 1624000    1.0002148   -6.8890697    598.29059  0.030700461  0.030857728            2 
 1625000    1.0052356   -6.9542301    596.91277  0.030610911  0.030850151            2 
 1626000    1.0082768   -6.9271877    597.54177  0.030624322  0.030842427            3 
 1627000   0.97688456   -6.9395223    597.29808  0.030593018  0.030834676            4 
 1628000    1.0071392   -6.9194803      597.338  0.030576269  0.030826846            4 
 1629000   0.99703475   -6.9282557    597.61755    0.0305718  0.030818933            3 
 1630000   0.99045429   -6.9455657     597.6131  0.030552817  0.030811106            4 
 1631000   0.99928704    -6.952521     595.9568  0.030449459  0.030803288            3 
 1632000   0.98247727   -6.9277473    598.67277  0.030569484  0.030795479            5 
 1633000   0.98155672   -6.9321602    598.21948  0.030527632  0.030787661            5 
 1634000   0.98391542     -6.97003    598.63043  0.030529908   0.03077997            3 
 1635000   0.96692024   -6.9181572     600.2276   0.03059264  0.030772262            3 
 1636000   0.99933782   -6.9607222    599.18407  0.030520786  0.030764547            3 
 1637000   0.98895891   -6.9142852    599.48738  0.030517582  0.030756823            3 
 1638000    0.9709573   -6.8830131    600.45537  0.030548197  0.030749219            8 
 1639000    1.0030808   -6.9008872    600.65694  0.030539808  0.030741634            3 
 1640000   0.96675396    -6.913559    601.10729  0.030544069  0.030733923            4 
 1641000   0.97424331   -6.9285765    601.74159  0.030557667  0.030726205            5 
 1642000   0.99635923   -6.9001244     600.5116  0.030476634  0.030718531            3 
 1643000   0.99849403   -6.9415692    600.60654    0.0304629  0.030710854            2 
 1644000   0.95891152   -6.9289053    600.68868  0.030448534  0.030703021            2 
 1645000   0.97793329   -6.9242993    601.44788  0.030468485  0.030695374            5 
 1646000   0.98366328   -6.9215604    601.27969  0.030441459  0.030687654            2 
 1647000   0.99275749   -6.9248852    602.37188  0.030478237  0.030679892            3 
 1648000    0.9932265   -6.9474322    602.25988   0.03045408  0.030672148            2 
 1649000   0.97537891    -6.926738    603.60176  0.030503424  0.030664384            3 
 1650000    1.0112559   -6.9428231    601.36953  0.030372198  0.030656516            1 
 1651000   0.98786047   -6.9513643    602.00436  0.030385845  0.030648667            7 
 1652000   0.96848881   -6.9582628    602.48899  0.030391898   0.03064078            2 
 1653000    0.9836925   -6.9178107    602.17581  0.030357724  0.030632934            6 
 1654000   0.98091055   -6.9565723    603.13241  0.030387566  0.030625112            4 
 1655000   0.98835469   -6.9314552    603.34284  0.030379801   0.03061737           12 
 1656000   0.97919588   -6.9645837    604.63309  0.030426383  0.030609636            4 
 1657000   0.98355827   -6.9279118    607.06862  0.030530508  0.030601955            5 
 1658000    1.0177662   -6.9117215    605.85526  0.030451109   0.03059439            4 
 1659000   0.98684845   -6.9531793    606.89169  0.030484815  0.030586806            5 
 1660000   0.96796232   -6.9671328    605.80101  0.030411697   0.03057918            3 
 1661000   0.98801923   -6.9082075    606.86736  0.030446887  0.030571618            2 
 1662000   0.99399969   -6.9253522    606.91034  0.030430723  0.030564189            5 
 1663000   0.96263278   -6.9085992    607.71695  0.030452844  0.030556791            2 
 1664000   0.97735328   -6.9292212    607.49461  0.030423408  0.030549343            3 
 1665000   0.98630815   -6.9297378     605.7924   0.03031994   0.03054181            6 
 1666000   0.99247956   -6.9452619     608.1704  0.030420688  0.030534316            3 
 1667000   0.98322189   -6.9662208    607.04461  0.030346161  0.030526809            5 
 1668000   0.98793772   -6.9323392    607.29141  0.030340298  0.030519222            7 
 1669000    1.0008307   -6.9615031    607.58024  0.030336541  0.030511614            2 
 1670000   0.99677695    -6.945559    609.65761  0.030422037  0.030504057            3 
 1671000   0.98871644   -6.9705858    607.20777  0.030281656  0.030496532            9 
 1672000   0.97312468   -6.9539888    610.16858  0.030411114  0.030488977            2 
 1673000   0.99178321    -6.971044     609.2547  0.030347415  0.030481495            5 
 1674000    0.9822049    -6.937798    610.22014  0.030377347  0.030473931            5 
 1675000   0.97591009    -6.921705     609.5444  0.030325592  0.030466422            5 
 1676000   0.99323704   -6.9213875    610.20029   0.03034011  0.030458932            4 
 1677000   0.97935783   -6.9385477    609.08655  0.030266674  0.030451393            3 
 1678000   0.97988267    -6.936085    608.41115  0.030215095  0.030443714            2 
 1679000   0.99862327   -6.9511103    609.46448  0.030249379  0.030436051            2 
 1680000   0.98019965   -6.9306238    610.56209  0.030285818  0.030428459            4 
 1681000    1.0009623   -6.9472983    609.55142  0.030217699  0.030420844            6 
 1682000   0.96863798   -6.9449199    611.93017  0.030317587  0.030413333            2 
 1683000   0.97702642   -6.9323593    610.79551   0.03024339  0.030405834            2 
 1684000    0.9863614   -6.9482176    612.81862  0.030325545  0.030398345            3 
 1685000   0.98354756   -6.9371755    613.39513   0.03033606  0.030390766            2 
 1686000   0.97343827   -6.8934826    611.26521  0.030212792   0.03038316            2 
 1687000   0.98286248   -6.9280536    611.39274  0.030201183  0.030375622            2 
 1688000   0.98281633   -6.9413101    612.58197  0.030242001  0.030368037            2 
 1689000   0.98888003   -6.9329421    614.75886  0.030331501  0.030360536            8 
 1690000   0.98017895   -6.9481434    612.41896  0.030198174  0.030353034            7 
 1691000   0.96949668    -6.947873    612.23712  0.030171354  0.030345457            4 
 1692000   0.98833708   -6.9309064     614.3567  0.030257915   0.03033802            4 
 1693000   0.97690756   -6.9329406    612.93226  0.030169928  0.030330479            4 
 1694000   0.96265157   -6.9701387    613.03182  0.030157016  0.030322909            2 
 1695000   0.96024182   -6.9255607    613.87012  0.030180439  0.030315431            3 
 1696000   0.99182106   -6.9406967    614.35674  0.030186554  0.030307959            2 
 1697000   0.99080974   -6.9383731    615.20875  0.030210605  0.030300504            5 
 1698000   0.98259775    -6.929101    614.51789  0.030158907  0.030293104            7 
 1699000   0.98471784   -6.9666613    614.10653   0.03012098  0.030285627            5 
 1700000   0.98132106   -6.9536019    615.76825  0.030184718  0.030278076            3 
 1701000   0.97203178   -6.9268137    615.60639  0.030159043  0.030270514            1 
 1702000   0.97611577   -6.9857498     614.3036  0.030077536  0.030262952            3 
 1703000   0.97319499   -6.9721231    614.20857  0.030055224  0.030255327            5 
 1704000   0.97353849   -6.9566195      615.451  0.030098347  0.030247681            2 
 1705000    0.9861026   -6.9797128    615.29003  0.030072826  0.030240011            5 
 1706000    0.9879263   -6.9326592    615.75312   0.03007782  0.030232448            3 
 1707000   0.96938221   -6.9497417    615.00932  0.030023888  0.030224787            7 
 1708000   0.96479331   -7.0005903    614.80723  0.029996449  0.030217131            4 
 1709000   0.98209564   -6.9837966    614.73317  0.029975286  0.030209347            2 
 1710000   0.96642301    -6.948872    615.34296  0.029987474  0.030201754            4 
 1711000   0.98717535   -6.9158819    617.11955  0.030056475  0.030194105            4 
 1712000   0.97280359    -6.948873    615.97191  0.029983056  0.030186528            5 
 1713000   0.97851801   -6.9780963    618.20992  0.030074427  0.030179007            8 
 1714000   0.98648646    -6.951115    617.71116  0.030032631  0.030171437            5 
 1715000   0.96622412   -6.9834028    619.14533  0.030084807  0.030163871            5 
 1716000   0.98192684    -6.930565    618.13578  0.030018249  0.030156233            3 
 1717000   0.96319116   -6.9532279    618.22484  0.030005088  0.030148743            2 
 1718000     0.962369    -6.951162    619.65664  0.030057074  0.030141243            3 
 1719000   0.94996057   -6.9489184    619.45811  0.030029965  0.030133797            3 
 1720000    0.9803463   -6.9290599    618.95936  0.029988341  0.030126436            3 
 1721000   0.95833748   -6.9574888    620.03331  0.030022918  0.030119081            2 
 1722000   0.97690417   -6.9468673    618.72471  0.029942156  0.030111734            2 
 1723000   0.97980293   -6.9655527     618.6789  0.029922562  0.030104206            2 
 1724000   0.98582918   -6.9418971    621.47587  0.030040404  0.030096742            4 
 1725000   0.97612814   -6.9729152    618.95862  0.029901383  0.030089244            3 
 1726000   0.97202825   -6.9788465     619.6124  0.029915624    0.0300817            6 
 1727000   0.97608416   -6.9535933    619.95711  0.029914935  0.030074166            5 
 1728000   0.95078534   -6.9740954    619.52024  0.029876555  0.030066618            4 
 1729000   0.98889129   -6.9788415      618.971  0.029832803  0.030058999            3 
 1730000   0.96908604   -6.9565541    620.12896  0.029871337  0.030051536            3 
 1731000   0.96392815   -6.9458845    622.08663  0.029948326  0.030044144            4 
 1732000   0.95153335   -6.9965962    620.99599   0.02987856  0.030036682            2 
 1733000   0.97824687    -6.945363     621.7497  0.029897562  0.030029121            6 
 1734000   0.95705303   -6.9591229    621.56834  0.029871604  0.030021566            2 
 1735000   0.97160078    -6.960472    619.50647  0.029755354  0.030014023            3 
 1736000   0.97651677   -6.9080056    622.56529  0.029885047  0.030006553            4 
 1737000   0.99025123   -6.9602496    623.64453  0.029919619  0.029999093            3 
 1738000   0.98296325   -6.9415556    623.15507  0.029878935  0.029991595            3 
 1739000   0.97136442    -6.962923    622.19048   0.02981553  0.029983995            5 
 1740000   0.97398073   -6.9868989    621.86763  0.029782932  0.029976361            3 
 1741000   0.98599815    -6.946195    624.04417  0.029870006  0.029968701            4 
 1742000   0.96584615   -6.9718601    621.55773  0.029733913  0.029961068            5 
 1743000   0.97275029    -6.974347    621.58034  0.029717936  0.029953357            3 
 1744000   0.99101974   -6.9710102    621.64313  0.029703896  0.029945627            3 
 1745000   0.97769839    -6.933275    624.29598  0.029813562  0.029937861            1 
 1746000   0.98126295   -6.9198579    624.18862  0.029791362  0.029930171            3 
 1747000   0.94414421   -6.9677862    624.87478   0.02980704   0.02992249            2 
 1748000   0.97402039   -6.9377078    625.71325  0.029829961  0.029914908            1 
 1749000   0.97649626   -6.9563198    623.02315  0.029684732  0.029907321            2 
 1750000   0.97089209   -6.9699846    623.46765  0.029688936  0.029899648            4 
 1751000   0.96609185   -6.9715752    623.69505  0.029682803  0.029892015            2 
 1752000   0.95158134    -6.972015    623.83464    0.0296725  0.029884381            1 
 1753000   0.96974931   -6.9629532    624.54901  0.029689533  0.029876742            3 
 1754000   0.97291903   -7.0008633    624.30996  0.029661249  0.029869081            4 
 1755000   0.97650238   -6.9777678    625.80506   0.02971534  0.029861478            2 
 1756000   0.98272195   -6.9542482    627.06917  0.029758408  0.029853969            3 
 1757000   0.96191691   -6.9707759    626.16588  0.029698628  0.029846314            3 
 1758000   0.95436758   -6.9830826     625.3367   0.02964243  0.029838619            3 
 1759000   0.94982241   -6.9615098    626.30421  0.029671414  0.029830821            3 
 1760000   0.98350699    -6.985625    627.76688  0.029723811  0.029823022            6 
 1761000   0.97804817   -6.9757488     624.0843  0.029532666  0.029815272            2 
 1762000   0.96408243   -6.9520488     623.7212  0.029498732  0.029807525            9 
 1763000   0.97865203   -6.9421149    628.28562  0.029697751  0.029799873            4 
 1764000   0.95992637   -6.9745181     627.4665  0.029642219  0.029792136            2 
 1765000     0.979897   -6.9598998     627.0473  0.029605633  0.029784455            4 
 1766000   0.95985907   -6.9715972    626.70522  0.029572726  0.029776672            2 
 1767000   0.98179034   -6.9484466    627.44974  0.029591103  0.029768872            3 
 1768000   0.94735998   -6.9804844    626.92269  0.029549524  0.029761167            3 
 1769000   0.96832754   -6.9547037    626.25866  0.029501539  0.029753449            2 
 1770000   0.97129543   -6.9774595    629.28655  0.029627427  0.029745764            3 
 1771000   0.94772935   -6.9850527     628.5345  0.029575311  0.029738071            3 
 1772000   0.97366948   -6.9753862     627.7352  0.029521031  0.029730422            4 
 1773000   0.94800653   -6.9826784    626.74359  0.029457773  0.029722689            7 
 1774000   0.98837927   -7.0238938    627.12025  0.029458862  0.029714812            4 
 1775000   0.95545727   -6.9667692    628.36705  0.029500801  0.029706904            2 
 1776000   0.95164527   -7.0249206    628.08479  0.029470945   0.02969905            2 
 1777000   0.94658258   -6.9511193    629.16589   0.02950506  0.029691143            4 
 1778000   0.97681718    -6.958861    630.12234  0.029533293  0.029683348            3 
 1779000   0.95991374   -6.9837406    629.81519  0.029502304  0.029675449            2 
 1780000   0.96507354   -6.9991089    628.67167  0.029432194  0.029667486            3 
 1781000   0.97315969   -6.9589142    629.55358  0.029456933  0.029659693            2 
 1782000   0.93844983   -7.0115119    629.55262  0.029440358  0.029651876            3 
 1783000     0.976485   -6.9828994    630.12082  0.029450403  0.029644029            2 
 1784000   0.97583411   -6.9904867    629.10337  0.029386368  0.029636104            5 
 1785000   0.94338926   -6.9714521    629.33788  0.029380853  0.029628192            2 
 1786000    0.9577091   -6.9867511    630.02576  0.029396499  0.029620334            4 
 1787000    0.9952348   -7.0008454     628.9875  0.029331631  0.029612558            4 
 1788000   0.96589824   -6.9731432    632.73143   0.02948972  0.029604826            2 
 1789000   0.97727177   -6.9730566    629.48009  0.029321785  0.029597006            4 
 1790000   0.96599544   -6.9567687    631.97823  0.029421705  0.029589176            4 
 1791000   0.96219377    -7.012988    629.86535  0.029306967  0.029581406            3 
 1792000   0.98375189   -6.9974033    629.98764    0.0292963  0.029573542            4 
 1793000   0.96601662   -6.9778226    631.76131  0.029362396  0.029565589            2 
 1794000   0.96856614   -6.9942798    631.14808  0.029317544  0.029557671            2 
 1795000   0.95926354   -6.9783514    630.00049  0.029247934    0.0295498            4 
 1796000   0.96534451   -6.9973056    628.48581  0.029161368  0.029541758            3 
 1797000   0.99747333   -6.9724602    631.65002  0.029291876  0.029533815            3 
 1798000   0.95765105   -6.9498031    632.19834  0.029300998  0.029525873            2 
 1799000   0.96482426   -6.9557362    632.22708  0.029286042  0.029517966            6 
 1800000   0.96362279   -6.9796512    631.52954  0.029237478  0.029510024            4 
 1801000   0.96565793   -6.9573448    632.03975  0.029244852  0.029502124            2 
 1802000   0.92540984   -7.0097505    631.56339  0.029206594  0.029494151            4 
 1803000   0.95480068   -6.9973168    630.91742  0.029160539  0.029486207            8 
 1804000   0.93831177   -6.9803462    632.06936  0.029197587  0.029478306            3 
 1805000   0.94808423   -6.9812604    633.32422  0.029239345  0.029470324            2 
 1806000   0.96278996   -6.9819443    632.56097  0.029187937  0.029462463            2 
 1807000   0.96226984   -6.9732352    635.55388  0.029309808  0.029454555            2 
 1808000   0.94782934   -6.9456061     637.2976  0.029373967  0.029446821            2 
 1809000   0.95404515   -6.9683787    634.29113  0.029219234  0.029439136            7 
 1810000   0.96343929   -7.0154003    636.23676  0.029292669  0.029431374            9 
 1811000   0.96538387    -6.998332    634.61335  0.029201792  0.029423544            2 
 1812000   0.95256968   -6.9934862    634.19923  0.029166631   0.02941574            3 
 1813000   0.96157461   -7.0075847    633.46152  0.029116635  0.029407946            4 
 1814000   0.96322152   -7.0111843     635.4561  0.029192213  0.029400117            5 
 1815000   0.96984768   -6.9950217    635.99047  0.029200664  0.029392465            3 
 1816000   0.96522087   -6.9594926    636.80022  0.029221743  0.029384779            2 
 1817000   0.95852171   -6.9602702    637.53084  0.029239169  0.029377135            2 
 1818000   0.94982217   -7.0034159    638.07687  0.029248115  0.029369478            5 
 1819000   0.94857829   -6.9883006    636.25133  0.029148403  0.029361747            2 
 1820000   0.95429128   -7.0156108    637.28231  0.029179593  0.029354048            7 
 1821000   0.94917209   -6.9675493    636.92867  0.029147385  0.029346427            4 
 1822000   0.97755166   -6.9772348    638.72753  0.029213663  0.029338911            3 
 1823000   0.95767463    -6.988363    638.81946  0.029201841  0.029331428            4 
 1824000   0.98505814   -6.9967151    637.93529  0.029145435  0.029323808            4 
 1825000   0.93889753   -6.9657435    640.31906  0.029238313   0.02931618            8 
 1826000     0.951153   -6.9717846    639.15569  0.029169208  0.029308642            2 
 1827000   0.97547487   -6.9832783    640.23408   0.02920243  0.029301046           13 
 1828000   0.96205649   -6.9991989    639.62585  0.029158728  0.029293531            4 
 1829000   0.96927444   -7.0023791    639.28887  0.029127432  0.029285902            3 
 1830000   0.98451435   -7.0019798    640.11007   0.02914891  0.029278311            2 
 1831000   0.96109501   -7.0097239    640.27204  0.029140362  0.029270725            2 
 1832000   0.97896849   -6.9702731    642.40591   0.02922152  0.029263223            6 
 1833000   0.96376664   -6.9925993    640.68012  0.029127119  0.029255643            2 
 1834000   0.98516045   -7.0150692    640.37264  0.029097266  0.029248116            4 
 1835000   0.95417388   -7.0016317    641.86525  0.029149194  0.029240623            2 
 1836000   0.95267001    -6.999849    642.17767  0.029147498  0.029233174            4 
 1837000   0.96832204   -7.0104627    642.55456  0.029148728  0.029225622            4 
 1838000   0.95440381    -6.992866    641.73258  0.029095601  0.029218078            3 
 1839000    0.9348993   -6.9831875    642.35572  0.029108017  0.029210647            5 
 1840000   0.96748147   -7.0355148    642.82925  0.029113644  0.029203193            5 
 1841000   0.95323414   -7.0107598    642.88418  0.029100316  0.029195635            3 
 1842000   0.97505662    -7.025229    641.30957  0.029013281  0.029188067            2 
 1843000     0.972081   -6.9795406    640.93511  0.028980607  0.029180578            4 
 1844000    0.9929677   -6.9791579    642.96527  0.029056637  0.029173079            4 
 1845000   0.94690676   -7.0013055    642.23011  0.029007683  0.029165463            2 
 1846000   0.97282144   -6.9997836    642.46562  0.029002601  0.029157865            4 
 1847000   0.97456722   -6.9992547    642.78446  0.029001284  0.029150222            2 
 1848000   0.94720842   -7.0144143     642.4537  0.028970676  0.029142658            4 
 1849000   0.97244122   -6.9950029    644.17649  0.029032652  0.029135202            3 
 1850000   0.93825646   -6.9981311    644.35477  0.029024989  0.029127754            3 
 1851000   0.96396625   -6.9795807    644.44799  0.029013506  0.029120243            2 
 1852000   0.96251968    -7.024735    643.29927  0.028946151  0.029112749            8 
 1853000   0.94257066   -7.0013402    644.58006   0.02898813  0.029105223            5 
 1854000   0.95756716   -7.0346693    643.74902  0.028935141  0.029097631            3 
 1855000   0.95624195    -7.002589    645.68056  0.029006315  0.029090048            3 
 1856000   0.96663855   -7.0036918    645.69061  0.028991137  0.029082482            3 
 1857000   0.97767147   -6.9824826     646.5772  0.029015311  0.029074982            3 
 1858000   0.92777279   -6.9960253    645.69658  0.028960198  0.029067472            7 
 1859000    0.9464187    -6.982079    646.68904  0.028989109  0.029059913            3 
 1860000   0.96334032   -7.0288093    645.64877  0.028926916   0.02905238            3 
 1861000   0.95628676   -7.0097457    645.16571  0.028889742  0.029044831            5 
 1862000   0.97319562   -7.0278692    644.43758  0.028841639  0.029037267            6 
 1863000   0.95278527   -6.9891708    646.79033  0.028931398  0.029029669            3 
 1864000   0.95142486   -7.0382321    644.72233  0.028823423  0.029022135            2 
 1865000   0.95962549    -7.000814      646.729  0.028897632  0.029014566            4 
 1866000   0.95532405   -7.0386376    646.70278  0.028880974  0.029007029            5 
 1867000   0.95087549   -6.9991898    647.68585  0.028909384  0.028999503            3 
 1868000   0.95766988   -7.0059322    647.88137  0.028902631  0.028991964            2 
 1869000   0.94059097   -7.0113089    646.90321  0.028843553  0.028984463            4 
 1870000   0.97459283   -6.9939097    649.17493  0.028929364  0.028976969            4 
 1871000   0.96606143   -7.0252701    648.60132  0.028888354  0.028969567            4 
 1872000   0.97178864   -7.0404238    647.84973  0.028839464  0.028962197            2 
 1873000   0.94486867   -7.0088501    648.23745  0.028841317  0.028954732            5 
 1874000   0.94720942   -7.0136731    648.34236  0.028830592  0.028947299            2 
 1875000   0.94451778   -7.0108079    650.06868  0.028891941  0.028939944            3 
 1876000   0.94371635   -7.0249954    650.41584  0.028891962  0.028932626            5 
 1877000   0.95591218   -6.9915925    650.57503  0.028883637  0.028925302            3 
 1878000   0.97034277   -6.9997056     650.6411  0.028871188  0.028917943            5 
 1879000   0.95733163   -7.0005235    650.61978  0.028854878  0.028910574            4 
 1880000   0.95009282   -7.0336126    649.63839  0.028796028  0.028903162            3 
 1881000   0.95633815   -7.0187452    651.17684  0.028848876  0.028895797            5 
 1882000    0.9643246   -7.0178351    650.62686  0.028809195   0.02888839            5 
 1883000   0.95918221   -7.0037741    651.87773  0.028849253  0.028881041            3 
 1884000   0.93798718   -7.0418932    652.13247  0.028845209  0.028873646            7 
 1885000   0.94358417   -7.0030772    651.20801  0.028789037  0.028866265            2 
 1886000   0.94783445   -6.9790227    650.50904  0.028742888  0.028858845            2 
 1887000   0.95638409   -7.0502412     650.0301  0.028706505  0.028851395            5 
 1888000   0.93032949   -7.0245086    651.73727  0.028766652  0.028843833            5 
 1889000   0.92987211    -7.022963    651.16837  0.028726327  0.028836262            3 
 1890000   0.96997839   -7.0420763    651.34013  0.028718701  0.028828694           10 
 1891000   0.96830692   -7.0248703     652.1426  0.028738877  0.028821193            1 
 1892000   0.94905686   -7.0315939    652.44085  0.028736824  0.028813836            6 
 1893000   0.94085083   -7.0259925    651.17008  0.028665702  0.028806321            3 
 1894000    0.9685759   -6.9787584    652.19626  0.028695717  0.028798903            2 
 1895000   0.93990388   -7.0367442    651.86434  0.028665978  0.028791464            4 
 1896000   0.94673433   -7.0104161    653.31948  0.028714815   0.02878405            4 
 1897000   0.93962411    -6.997076    654.39237  0.028746809  0.028776743            7 
 1898000   0.95836773   -7.0494751    653.34623  0.028685732  0.028769402            2 
 1899000   0.96588329   -7.0345419    652.43054  0.028630443  0.028762022            5 
 1900000   0.96556343   -6.9849219     653.0401   0.02864211  0.028754559            6 
 1901000   0.90244013   -7.0254152    652.95327  0.028623236  0.028747092            2 
 1902000   0.92708261   -7.0214976    654.87919  0.028692569  0.028739621            2 
 1903000   0.96325861   -6.9937382    655.13586  0.028688731  0.028732176            5 
 1904000   0.94517656   -6.9814691    655.70827  0.028698716  0.028724721            6 
 1905000   0.93944737   -7.0136877    654.60063  0.028635198  0.028717342            2 
 1906000   0.91969118   -7.0337733    653.07707  0.028553562  0.028709759            4 
 1907000   0.94329104   -7.0057901     653.9143  0.028575175  0.028702189            3 
 1908000   0.96073596   -7.0283975    654.01176  0.028564455  0.028694582            3 
 1909000   0.93449901   -7.0733628    653.18884  0.028513569  0.028687023            3 
 1910000   0.94195691   -7.0504951    654.87819  0.028572347  0.028679461            3 
 1911000   0.95768596   -7.0682985    655.38895  0.028579668  0.028671928            5 
 1912000   0.97577627   -7.0464243     654.5898   0.02852989  0.028664353            3 
 1913000   0.93947891   -6.9822207    655.68558   0.02856271  0.028656856            5 
 1914000   0.94783047   -6.9930671     655.0731  0.028521121  0.028649267            3 
 1915000   0.94360221   -7.0026418    655.49742  0.028524692   0.02864165            4 
 1916000   0.92784616   -7.0444372    654.57024  0.028469478  0.028634049            5 
 1917000   0.93554172   -7.0233997     656.6851  0.028546561  0.028626546            4 
 1918000   0.93799545   -7.0283716    657.45264  0.028565026  0.028619011            1 
 1919000   0.94415613   -7.0314595    657.63678  0.028558137  0.028611502            4 
 1920000   0.94762616    -7.034831    655.42265  0.028447164  0.028603989            3 
 1921000   0.94463257   -7.0105878    657.34643  0.028515809  0.028596516            3 
 1922000   0.95376195   -7.0237588    657.72288  0.028517294  0.028588961            2 
 1923000   0.96142082   -7.0285088    656.85304   0.02846477  0.028581605            2 
 1924000   0.94577988    -7.060144    657.68369  0.028485953  0.028574199            4 
 1925000   0.96459561   -7.0076098    659.48244  0.028549023  0.028566869            4 
 1926000    0.9399592   -7.0561449    659.91464  0.028552901  0.028559549            2 
 1927000   0.94035333    -7.042915    658.90488  0.028494416  0.028552197            4 
 1928000   0.94805095   -6.9897589    660.13484  0.028532799  0.028544885            1 
 1929000   0.97121061   -7.0369366    661.23673  0.028565609  0.028537588            7 
 1930000   0.94142153   -6.9910376    661.04776  0.028542649    0.0285304            3 
 1931000   0.92491436   -7.0398308    659.26305  0.028450848  0.028523221            5 
 1932000    0.9655945   -7.0147892    661.59649   0.02853677  0.028515929            3 
 1933000   0.91730413   -7.0449425    659.69904  0.028440207  0.028508659            4 
 1934000   0.94726937   -7.0080815    660.27668  0.028450391  0.028501356            3 
 1935000   0.92897552    -7.011365    661.15987  0.028473724  0.028494178            4 
 1936000   0.94703899   -7.0533822    661.08653   0.02845586  0.028486992            3 
 1937000   0.92981235   -7.0238949    662.33046  0.028494685  0.028479748            3 
 1938000   0.93934099   -7.0339997    661.39616  0.028439808  0.028472542            3 
 1939000   0.93352921   -7.0445501    662.85517  0.028487845  0.028465313            5 
 1940000    0.9610324   -7.0445439    663.29844  0.028492201  0.028458123            4 
 1941000   0.94640918   -7.0623317    661.15846  0.028385646   0.02845097            2 
 1942000   0.92014164   -7.0320137    663.61045  0.028476247  0.028443751            4 
 1943000   0.95664382   -7.0208712    663.50695  0.028457152  0.028436664            2 
 1944000   0.91908545   -7.0425027    662.13547  0.028383722  0.028429497            3 
 1945000   0.95118729   -7.0294629    662.28805  0.028375666  0.028422266            2 
 1946000   0.94357027   -7.0025639    666.32173  0.028533818  0.028415083            3 
 1947000   0.94115711   -7.0407241    663.37199  0.028392912  0.028407931            2 
 1948000   0.93203504   -7.0135432    665.28331    0.0284601  0.028400839            4 
 1949000   0.95988933   -7.0146058    664.54452   0.02841391  0.028393736            3 
 1950000   0.92924069    -7.021814    665.41219  0.028436418  0.028386625            7 
 1951000    0.9523711   -7.0372284    666.61862  0.028473374  0.028379534            3 
 1952000   0.95427307    -7.016913    665.75952  0.028422111  0.028372483            2 
 1953000   0.94198685   -7.0767256    666.44703  0.028436893  0.028365394            2 
 1954000   0.95236378    -7.038808    664.66056  0.028346151  0.028358343            4 
 1955000   0.92663026   -7.0468851    664.61393  0.028329664  0.028351247            2 
 1956000   0.93010969   -7.0570089    664.98961  0.028331186  0.028344136            4 
 1957000   0.91293424   -7.0583522    663.51859  0.028254071  0.028337051            6 
 1958000   0.93455169   -7.0348587    667.85124   0.02842404  0.028329988            4 
 1959000   0.93023381   -7.0305172    666.49797  0.028351964  0.028322944            3 
 1960000    0.9590062   -7.0558621     666.8707  0.028353346  0.028315907            3 
 1961000   0.94641116   -7.0286524    667.83881  0.028380028  0.028308797            3 
 1962000   0.95770049   -7.0390831    666.06703  0.028290309  0.028301727            4 
 1963000   0.97075279   -7.0236289    666.73776  0.028304371   0.02829463            5 
 1964000   0.93390243   -6.9954875    668.76392   0.02837593  0.028287555            3 
 1965000   0.91497744   -7.0218102    667.69064  0.028315973   0.02828049            3 
 1966000   0.93294698   -7.0284244    667.83023  0.028307487  0.028273414            2 
 1967000    0.9549668   -7.0652357    667.51718  0.028279833  0.028266266            3 
 1968000   0.93913214   -7.0203492    667.34489  0.028258168  0.028259058            2 
 1969000   0.93163151   -7.0066363    668.45962  0.028290995  0.028251926            2 
 1970000   0.93590244   -7.0744565    666.77564  0.028205399  0.028244702            3 
 1971000   0.93362934   -7.0113167    669.79023  0.028318545  0.028237579            4 
 1972000   0.93716623   -7.0412372    668.10678  0.028233045  0.028230442            6 
 1973000   0.93337827   -7.0213038    668.79974  0.028248004  0.028223275            5 
 1974000   0.93730386   -7.0136111    667.90427  0.028195891  0.028216037            3 
 1975000   0.94061199   -7.0732053    667.60521  0.028168996   0.02820881            2 
 1976000   0.93843982   -7.0599381    670.45237  0.028274813  0.028201574            6 
 1977000    0.9500858   -7.0475352    667.71399  0.028145085  0.028194402            3 
 1978000   0.92775124   -7.0250099    670.23653   0.02823713  0.028187227            4 
 1979000    0.9360271   -7.0113551    670.28142  0.028224753  0.028180029            3 
 1980000   0.95267812   -7.0202999    668.46144  0.028133899  0.028172799            3 
 1981000   0.93306114   -7.0471285     668.7697  0.028132665  0.028165517            4 
 1982000   0.94207503   -7.0481306    667.98152  0.028085331  0.028158164            4 
 1983000   0.92889007   -7.0467293    669.78825  0.028147094  0.028150793            3 
 1984000   0.93854234   -7.0175395    670.70833  0.028171553  0.028143499            8 
 1985000   0.93012016   -7.0499306    669.36271  0.028100869  0.028136072            8 
 1986000   0.93390267   -7.0556308    667.79343  0.028020872  0.028128717            5 
 1987000    0.9269252   -7.0727603    667.74379  0.028004688  0.028121368            4 
 1988000   0.94549424   -7.0616799    669.23542  0.028053128   0.02811403            2 
 1989000    0.9443346   -7.0397129    668.73334  0.028017988  0.028106727            7 
 1990000   0.93717926   -7.0240407    669.89925  0.028052732  0.028099396            6 
 1991000    0.9315338   -7.0288469    671.51994  0.028106477  0.028092076            4 
 1992000   0.94102606   -7.0336691    669.67251  0.028015082  0.028084782            2 
 1993000   0.92914423   -7.0529624    671.93191  0.028095497  0.028077367            5 
 1994000   0.92954298   -7.0461892    670.96685  0.028041075  0.028069999            4 
 1995000   0.94408778   -7.0631498    670.78177  0.028019288  0.028062578            5 
 1996000   0.92481517   -7.0395768    670.87329  0.028009072  0.028055279            3 
 1997000   0.94066342   -7.0746373    670.69738  0.027987706   0.02804795            1 
 1998000    0.9314184   -7.0214189    670.50356  0.027965614  0.028040443            4 
 1999000   0.92221934   -7.0529354     670.1828  0.027938253  0.028032955            3 
 2000000   0.92683734   -7.0663887    670.71506  0.027946461  0.028025488            2 
 2001000   0.94066147   -7.0334928    671.20487  0.027952893  0.028017992            2 
 2002000   0.93701295   -7.0771863    670.44031  0.027907106  0.028010593            3 
 2003000   0.94134722   -7.0576307    672.15933  0.027964692   0.02800321            6 
 2004000   0.92419862   -7.0106747    672.90911  0.027981916  0.027995899            9 
 2005000   0.93487231   -7.0438184    671.84933  0.027923912  0.027988514            2 
 2006000   0.92315364   -7.0552925    672.30066  0.027928741  0.027981204            3 
 2007000   0.92849236   -7.0517327     671.9379  0.027899764  0.027973775            2 
 2008000   0.94188252   -7.0747289    670.22011   0.02781458  0.027966379            3 
 2009000   0.92852674   -7.0267026    672.87181  0.027910727  0.027958925            3 
 2010000    0.9377355    -7.054636    670.10007  0.027781927  0.027951545            3 
 2011000   0.92723549   -7.0466346    674.43878  0.027947902   0.02794412            2 
 2012000   0.91433508   -7.0664291     672.8778  0.027869359  0.027936734            4 
 2013000   0.91426975   -7.0582136    672.44657  0.027837662  0.027929332            2 
 2014000   0.94522425   -7.0370754    672.32003  0.027818604  0.027921918            5 
 2015000    0.9555283   -7.0385941    673.99458  0.027874052  0.027914493            6 
 2016000   0.91809447   -7.0655536    673.46649  0.027838397  0.027907142            4 
 2017000   0.93480594   -7.0525621    674.24581  0.027856793  0.027899757            8 
 2018000   0.91213946   -7.0437698    675.76826  0.027905858  0.027892492            4 
 2019000   0.93560335   -7.0594293    675.21577  0.027869233  0.027885174            5 
 2020000   0.94068956   -7.0672005    673.58206  0.027788039   0.02787784            2 
 2021000   0.92171296   -7.0756446    674.30431   0.02780407  0.027870517            4 
 2022000   0.92321867   -7.0366354    675.16625  0.027825843  0.027863109            3 
 2023000   0.95773528   -7.0549418    675.33321  0.027818966  0.027855731            3 
 2024000   0.94525447    -7.067858    675.93029  0.027829804  0.027848389            4 
 2025000   0.92903779   -7.0534881    674.68013  0.027764614  0.027841033            4 
 2026000    0.9215974   -7.0397016    674.62044  0.027748455  0.027833683            7 
 2027000   0.91828169   -7.0162792    676.24891  0.027801715  0.027826351            4 
 2028000   0.92615937   -7.0858015    674.77858  0.027727588  0.027818948            2 
 2029000   0.93438878   -7.0678827    677.18086  0.027812587  0.027811598            3 
 2030000   0.92544092   -7.0556794    677.52989  0.027813214  0.027804245            6 
 2031000   0.91728244   -7.0410136    677.48303  0.027797597  0.027796906           12 
 2032000   0.93591494   -7.0430141    674.46669  0.027660215  0.027789507            5 
 2033000   0.90952272   -7.0420662    677.27103   0.02776156  0.027782087            4 
 2034000   0.92233736   -7.0297187    676.30979   0.02770853  0.027774767            1 
 2035000    0.9018671   -7.0606706    677.29734  0.027735354  0.027767369            3 
 2036000   0.93096416   -7.0780008    675.30343  0.027640121  0.027759955            3 
 2037000   0.91575702   -7.0649118    676.84224  0.027689504  0.027752557            3 
 2038000    0.9378855   -7.0775454     676.4907  0.027661543  0.027745219            5 
 2039000   0.90740882   -7.0703594    676.06185   0.02763045   0.02773782            6 
 2040000   0.93759469   -7.0446766    677.31576  0.027668127  0.027730432            3 
 2041000    0.9154624   -7.1241791    677.33716  0.027655445  0.027722968            4 
 2042000   0.92011482   -7.0518926    676.54652  0.027609636  0.027715497            4 
 2043000   0.91808604   -7.0577795    675.49756  0.027553335  0.027708034            6 
 2044000   0.93082303   -7.0615527     678.2667  0.027652752  0.027700567            4 
 2045000   0.92402816   -7.0906934     676.5988  0.027571263  0.027693058            7 
 2046000   0.93226115   -7.0571249    679.86567  0.027690847  0.027685584            5 
 2047000    0.9156637   -7.0682479    678.30245  0.027613681   0.02767808            6 
 2048000   0.91330397   -7.0807348     676.4741  0.027525802  0.027670553            5 
 2049000   0.93348829   -7.0611421     678.2238  0.027583528  0.027663034            2 
 2050000   0.91979931    -7.080432    678.82871  0.027594663  0.027655524            3 
 2051000   0.90972977   -7.1192918    677.48478  0.027526604  0.027648037            3 
 2052000   0.94979143   -7.0794377    677.92368  0.027531014  0.027640495            6 
 2053000   0.91359336   -7.0867173    677.75587  0.027510792  0.027633119            3 
 2054000   0.92294069   -7.0824918    679.89384  0.027584138  0.027625747            5 
 2055000   0.92296206   -7.0566329     678.5719  0.027517108  0.027618312            2 
 2056000   0.94986238   -7.0343045    679.78978  0.027553088  0.027610934            4 
 2057000   0.90232676   -7.0788848    680.32554  0.027561398  0.027603581            4 
 2058000   0.93389953   -7.0578316     680.1245  0.027539865  0.027596215            4 
 2059000   0.92102251   -7.0698178    681.06771  0.027564664  0.027588913            9 
 2060000   0.92087619   -7.0773705    681.68311  0.027576178  0.027581587            4 
 2061000   0.92230219   -7.0974182    679.46683  0.027473186  0.027574233            3 
 2062000   0.94112147   -7.0728679    680.69655   0.02750956  0.027566906            3 
 2063000   0.91000423   -7.0695357    681.70286  0.027536874   0.02755955            2 
 2064000   0.92117591   -7.0902025     679.7574  0.027444986    0.0275522            4 
 2065000   0.91920343   -7.0620809    680.58989   0.02746529  0.027544898            2 
 2066000   0.91499342   -7.0539211      683.162  0.027555744  0.027537575            5 
 2067000   0.92395996   -7.0773303    682.01312  0.027496094    0.0275303            2 
 2068000   0.93242012   -7.0963412    680.56594  0.027424482  0.027522987            2 
 2069000   0.91877628     -7.07159    681.96524  0.027467587  0.027515629            3 
 2070000   0.92852369   -7.0853304    681.83132  0.027448926  0.027508312            4 
 2071000   0.93525519   -7.0453121    682.69445  0.027470403  0.027501066            4 
 2072000   0.92228517   -7.0782672    681.64889  0.027415094  0.027493768            3 
 2073000   0.90640039   -7.0563245    683.41041  0.027472681  0.027486504            5 
 2074000   0.92231999   -7.0565882    682.94571  0.027440763  0.027479268            3 
 2075000   0.93831846    -7.091698    682.42002  0.027406426  0.027472045            5 
 2076000   0.89882182   -7.0696648    684.53562  0.027478148  0.027464792            4 
 2077000   0.92105426   -7.0844331    682.85949  0.027397668  0.027457455            2 
 2078000   0.92027768   -7.0795904    684.42927  0.027447436  0.027450109            3 
 2079000   0.91097568   -7.0841756     682.7173  0.027365613  0.027442753            5 
 2080000   0.94012416   -7.0906377    682.42813  0.027340871  0.027435431            3 
 2081000   0.94650224   -7.0698965     683.9171  0.027387358  0.027428139            6 
 2082000   0.90984608   -7.0435205    684.95057  0.027415569  0.027420845            5 
 2083000   0.94033097   -7.0817375    684.48285  0.027383695  0.027413481            7 
 2084000   0.89275755   -7.0926733    684.98478  0.027390626   0.02740618            4 
 2085000   0.91427375   -7.0681435    685.88984  0.027413663  0.027398885            4 
 2086000   0.89749323   -7.0583979    685.09894  0.027368926  0.027391671            4 
 2087000   0.91862603   -7.0669301    683.54006  0.027293566  0.027384395            7 
 2088000   0.91061196   -7.0641003    686.79657  0.027410464   0.02737707            3 
 2089000   0.91704722   -7.1055348    683.26711  0.027256547  0.027369677            2 
 2090000   0.91240415    -7.083125    684.30565  0.027284914  0.027362219            2 
 2091000   0.95396974   -7.0531121    685.32572  0.027312519  0.027354906            5 
 2092000   0.90887343   -7.0905563    684.98135  0.027285745  0.027347568            6 
 2093000   0.89435983   -7.0698308    685.70083  0.027301355  0.027340216            3 
 2094000   0.91165416    -7.092437    683.41888  0.027197504  0.027332849            3 
 2095000   0.90411789   -7.0926968     684.7354  0.027236889  0.027325487            6 
 2096000    0.9245817   -7.0905418    686.41212  0.027290558  0.027318176           10 
 2097000    0.9170322   -7.0872369    687.44305  0.027318513  0.027310932            4 
 2098000   0.91753869   -7.0958753    687.19367  0.027295586   0.02730375            3 
 2099000   0.92081953   -7.1099387    688.26022  0.027324926  0.027296533            3 
 2100000   0.90287902   -7.0979648    687.01972  0.027262687  0.027289369            5 
 2101000   0.91644601   -7.1224576    686.90634  0.027245214  0.027282177            4 
 2102000   0.93085421   -7.0942556    686.84441  0.027229798  0.027274879            2 
 2103000   0.91888683   -7.1151764    688.28847  0.027274071  0.027267602            7 
 2104000   0.90876628   -7.0453293    690.40052  0.027344761  0.027260415            2 
 2105000   0.92833915   -7.0893938    688.18257  0.027243966  0.027253258            3 
 2106000   0.90146541   -7.1089129    687.82347   0.02721682  0.027246081            5 
 2107000   0.91092686    -7.094445    686.29627    0.0271435  0.027238903            2 
 2108000   0.92193333    -7.074438    688.73376  0.027226983  0.027231717            4 
 2109000   0.90300759   -7.1074179    689.69296  0.027251974  0.027224532            5 
 2110000   0.91978236   -7.0805428    690.35808  0.027265327  0.027217352            6 
 2111000    0.9148633   -7.0968721    689.91325  0.027234851  0.027210259            3 
 2112000   0.91191532   -7.0810612    690.89023  0.027260505  0.027203107            3 
 2113000    0.9001272   -7.0982819    688.79258  0.027164875  0.027195875            3 
 2114000   0.91859059   -7.0680706    690.73602  0.027228635  0.027188647            4 
 2115000   0.92150986   -7.1063504    691.02141  0.027227006  0.027181476            2 
 2116000   0.90711087    -7.084537    691.17035  0.027220004  0.027174353            4 
 2117000   0.91918268   -7.0684886    692.38804   0.02725508  0.027167198            3 
 2118000   0.93863407   -7.0986027    692.28448  0.027238136  0.027160087            3 
 2119000   0.91365706   -7.0944563    690.41472  0.027151751  0.027153016            2 
 2120000   0.89449371   -7.1344744    689.82169  0.027115632  0.027145826            2 
 2121000   0.89212008   -7.0797779    691.92645  0.027185543  0.027138714            2 
 2122000   0.89264618   -7.1008407    691.20936  0.027144571  0.027131606            5 
 2123000   0.92294506   -7.0929714    692.00906  0.027163175  0.027124506            4 
 2124000   0.92177473   -7.0684824     693.4661  0.027207553  0.027117411            2 
 2125000   0.90058012   -7.0810907    692.47157  0.027155748  0.027110335            3 
 2126000     0.916248   -7.0804955    692.38804  0.027139701  0.027103179            6 
 2127000   0.90293839   -7.0894108    692.21541  0.027120177   0.02709599            3 
 2128000   0.91273517   -7.0701574    693.11041  0.027142481  0.027088815            5 
 2129000   0.89121524   -7.1193597    691.84224  0.027080094  0.027081627            2 
 2130000   0.89773858   -7.0939793    692.16829  0.027080137  0.027074364            2 
 2131000   0.92084135   -7.0848908    692.12019  0.027065548   0.02706711            3 
 2132000   0.89921106   -7.0819084      691.299  0.027020755  0.027059813           12 
 2133000   0.91470632   -7.0826263    690.67937  0.026983879  0.027052562            3 
 2134000   0.90355609   -7.0684261    692.47759  0.027041455  0.027045281           11 
 2135000   0.89084013   -7.1040726    690.74334  0.026961098  0.027038021            5 
 2136000   0.90915245   -7.0982503    693.32965  0.027049378  0.027030701            4 
 2137000   0.89950454   -7.1013692    693.87215  0.027057875  0.027023384            5 
 2138000   0.90573894   -7.1104574     691.7535   0.02696264  0.027016015            3 
 2139000   0.91914307   -7.0758977    692.78832  0.026990351  0.027008757            3 
 2140000   0.92054541   -7.0891416    691.42194   0.02692453  0.027001473            4 
 2141000   0.93732666   -7.0930343    692.66288  0.026960255  0.026994135            6 
 2142000   0.88941592   -7.0976904    693.03617  0.026962192  0.026986799            4 
 2143000   0.92516319   -7.1296853    692.14345  0.026914895  0.026979465            4 
 2144000   0.90197035   -7.1249688    694.27422  0.026985161  0.026972128            4 
 2145000   0.89299131   -7.1116787    693.34799  0.026936596  0.026964884            3 
 2146000   0.92702393   -7.1029735    696.47043  0.027045295  0.026957676            4 
 2147000   0.89636903   -7.0792769    693.31111  0.026910073  0.026950463            5 
 2148000   0.92062697   -7.0952113    693.80281   0.02691662  0.026943256            3 
 2149000   0.91832818   -7.1082062    697.11747   0.02703263  0.026936118            5 
 2150000   0.91749397   -7.0795534    697.89841  0.027050326  0.026928976            3 
 2151000   0.89432386   -7.0996355    692.96009  0.026846431  0.026921883            4 
 2152000   0.89753861   -7.0971577    694.66485  0.026899971  0.026914719            3 
 2153000   0.89694416   -7.0815101    695.41235  0.026916409  0.026907527            4 
 2154000   0.89369147   -7.0865814    696.23465  0.026935726  0.026900414            2 
 2155000   0.88953985   -7.1165341     694.8211  0.026868565  0.026893301            7 
 2156000   0.91094423   -7.0965232    695.50446  0.026882516   0.02688615            4 
 2157000   0.90204904   -7.1240217    693.72786  0.026801416  0.026878957            4 
 2158000   0.90778899   -7.0804113    694.23732   0.02680867  0.026871711            3 
 2159000   0.90552884   -7.1083022    694.84283  0.026819624  0.026864488            3 
 2160000   0.91559527    -7.073241    696.40385  0.026867433  0.026857262            6 
 2161000     0.903994   -7.1150832    695.82843   0.02683281  0.026850017            8 
 2162000   0.89024339   -7.1211412    696.36207  0.026840968  0.026842812            4 
 2163000   0.89729283    -7.110924    695.74591   0.02680482  0.026835558            5 
 2164000   0.90286052   -7.1296939    695.52515  0.026783932  0.026828296            7 
 2165000   0.92210514   -7.0444334    697.60789  0.026851728  0.026821003            3 
 2166000    0.9110794   -7.1099431    694.95272  0.026737177  0.026813749            5 
 2167000   0.90524025   -7.1045552     697.0325  0.026804818  0.026806494            3 
 2168000   0.89289832   -7.1094362    696.69887  0.026779631  0.026799151            8 
 2169000   0.90165912     -7.13294    697.47949  0.026797276  0.026791908            6 
 2170000   0.90146587   -7.0755049    696.30664  0.026739886   0.02678457            6 
 2171000    0.8965536   -7.1310568    696.21636  0.026724104  0.026777289            3 
 2172000   0.89831776   -7.0827162    697.44611  0.026758982  0.026770017            6 
 2173000   0.90210236   -7.0776867     698.0818  0.026771046  0.026762747            5 
 2174000   0.89308626   -7.0889402    697.66737  0.026742846   0.02675549            4 
 2175000    0.9076898   -7.0913713    698.76594  0.026772641  0.026748259            3 
 2176000   0.91819261   -7.1422402    696.70539  0.026681426  0.026741024            5 
 2177000   0.88254292   -7.1082472    700.12446  0.026800048  0.026733775            3 
 2178000   0.91688089   -7.1290678    697.11609  0.026672639  0.026726557            4 
 2179000   0.89527403   -7.1136224    698.96601  0.026731146  0.026719259            3 
 2180000   0.88331783   -7.1282113    698.47396  0.026700075  0.026712002            3 
 2181000    0.8843132   -7.1139665    696.90346  0.026627826  0.026704718            4 
 2182000   0.88055207   -7.1090082      699.713  0.026722923  0.026697427            4 
 2183000    0.8934689    -7.094059    700.61038  0.026744937  0.026690237            9 
 2184000   0.89097468   -7.0758172    698.41996  0.026649113  0.026683034            6 
 2185000   0.89880241   -7.0874836    700.62041  0.026720839  0.026675839            4 
 2186000   0.89597389   -7.1005071    700.87394  0.026718281  0.026668646            7 
 2187000   0.90688727   -7.1395921    699.63153  0.026658723  0.026661419            2 
 2188000   0.91432084   -7.1280804    698.33164  0.026597031  0.026654197            4 
 2189000   0.90458203   -7.1324709    701.35032  0.026699799  0.026647026            4 
 2190000   0.89652284   -7.1384241    701.77314  0.026703696  0.026639865            5 
 2191000      0.90741    -7.125064    700.54074  0.026644635  0.026632594            4 
 2192000    0.8983725   -7.1146583    699.14795   0.02657953  0.026625326            7 
 2193000    0.9028841   -7.1405177    699.93615  0.026597361  0.026618041            4 
 2194000   0.90066663   -7.1577264    700.13735   0.02659288  0.026610749            5 
 2195000   0.91478728     -7.11361    700.08407  0.026578742  0.026603458            5 
 2196000   0.90339323    -7.080241    701.51046  0.026620767  0.026596285            4 
 2197000   0.89674839    -7.136923    702.19501  0.026634616  0.026589126            3 
 2198000   0.90784036   -7.1348179     701.6112  0.026600364  0.026581979            8 
 2199000   0.91654956   -7.1405828    701.30242  0.026576566   0.02657483            5 
 2200000   0.90344755   -7.1215621    703.07908  0.026631783   0.02656774            3 
 2201000   0.90430435   -7.0890698    702.42744  0.026595011  0.026560625            2 
 2202000   0.88772891   -7.1203496    702.28127  0.026577402  0.026553515            4 
 2203000   0.90417725   -7.1399398    700.50111  0.026497999  0.026546329            6 
 2204000    0.8858284    -7.131672    702.09305  0.026546168  0.026539107            6 
 2205000   0.89512498   -7.1347129     703.1931  0.026575703   0.02653191            2 
 2206000   0.89205918   -7.1242367    703.30411   0.02656785  0.026524818            2 
 2207000   0.91007364   -7.0864379    703.61417  0.026567519  0.026517696            7 
 2208000    0.8968985   -7.1263438     701.6717  0.026482175  0.026510596            3 
 2209000   0.87957625    -7.158187    701.27135  0.026455083  0.026503398            2 
 2210000    0.8985077   -7.1436175    701.44141  0.026449525   0.02649622           12 
 2211000   0.92641282   -7.1216785    702.84477  0.026490456  0.026489055            4 
 2212000   0.89590724   -7.1406519    703.96551  0.026520702  0.026481924            3 
 2213000   0.89556901   -7.1387573    703.66201  0.026497289  0.026474742            4 
 2214000    0.9017202   -7.1144609    704.38084  0.026512377  0.026467591            4 
 2215000   0.90532888   -7.0955572    705.37805  0.026537925  0.026460482            2 
 2216000   0.89473921   -7.1474437     705.4422  0.026528362    0.0264534            2 
 2217000   0.88179059   -7.1022116    704.55696  0.026483121  0.026446361            8 
 2218000   0.89750043   -7.1319153    705.76478  0.026516561  0.026439366            3 
 2219000   0.89543465   -7.1350085    705.34004   0.02648866  0.026432288            3 
 2220000   0.88619693   -7.1432897    705.27627  0.026474334  0.026425206            6 
 2221000   0.90597301   -7.1363041    705.97223  0.026488527  0.026418114            4 
 2222000   0.89080682   -7.1453022    705.04199  0.026441719  0.026411012           11 
 2223000   0.87974595   -7.1428403    705.44733  0.026445019  0.026403876            3 
 2224000   0.90333522   -7.1450749    705.64842  0.026440663  0.026396799            4 
 2225000   0.88339067   -7.1327889     706.6834  0.026467543  0.026389697            5 
 2226000   0.89286079   -7.1212455    706.77192  0.026458967  0.026382641            2 
 2227000   0.89770751   -7.1206289    705.62953  0.026404338    0.0263756            3 
 2228000   0.90079649   -7.0837181     707.1423  0.026449069  0.026368573            4 
 2229000   0.89772586   -7.1415907    705.52547  0.026376756  0.026361474            3 
 2230000   0.91372171    -7.151218    705.93115  0.026380088  0.026354356            4 
 2231000   0.90593988   -7.1081562     707.0476  0.026409966  0.026347315            3 
 2232000   0.87947962   -7.1428451    706.65496  0.026383474  0.026340301           10 
 2233000   0.89668999   -7.1222305    706.16142   0.02635324  0.026333267            7 
 2234000    0.8786847    -7.102812    707.87354  0.026405309   0.02632625            5 
 2235000   0.88095462   -7.0804438    709.15207  0.026441166  0.026319275            2 
 2236000   0.89035743   -7.1168875    708.07982  0.026389379  0.026312313            5 
 2237000   0.89546643   -7.1232602    708.68586  0.026400159  0.026305324            2 
 2238000   0.90592277   -7.1132141    710.38187  0.026451514  0.026298374            5 
 2239000   0.90388162   -7.1365952    708.65738  0.026375517  0.026291375            6 
 2240000   0.90250213   -7.1276838    709.28912  0.026387244  0.026284403           16 
 2241000   0.89849403   -7.1144184    708.40795  0.026342702  0.026277406            5 
 2242000   0.89099758   -7.1322149    707.54329  0.026298814  0.026270438            3 
 2243000   0.89439552   -7.1202711    707.99263  0.026303783  0.026263453            7 
 2244000   0.91065381   -7.1331759    708.55999  0.026313131  0.026256562            8 
 2245000   0.89587225   -7.1059198    710.58213  0.026376471  0.026249678            4 
 2246000   0.90079989   -7.1548749    710.28667  0.026353765  0.026242791            7 
 2247000   0.91239253   -7.1541343    709.74492  0.026321945  0.026235882            3 
 2248000   0.88672426   -7.1469512    710.88061  0.026352336  0.026228919            9 
 2249000   0.87451943   -7.1498501    709.55958   0.02629167  0.026221981            5 
 2250000     0.893419   -7.1710679    710.24017  0.026305191  0.026215051            5 
 2251000   0.90781845   -7.1268672    710.00019  0.026284621  0.026208093            4 
 2252000   0.86898978   -7.1193164    710.18512  0.026279793  0.026201157            2 
 2253000   0.87813205   -7.1443827    710.00286  0.026261387  0.026194208            4 
 2254000   0.89761212   -7.1226244    712.75517  0.026351493  0.026187279            4 
 2255000   0.89595249   -7.1324387    710.38339  0.026252158  0.026180355            3 
 2256000   0.89594398   -7.1393374    710.58406  0.026247934  0.026173432            4 
 2257000   0.90587132   -7.1421927    710.96778  0.026250472  0.026166472            7 
 2258000   0.88963015   -7.1435754    711.50331   0.02625861   0.02615957            4 
 2259000   0.88950231   -7.1753553    711.77811  0.026257124   0.02615262            8 
 2260000   0.90161336   -7.1909977    709.48469   0.02616094  0.026145637           13 
 2261000   0.89745662   -7.1628487    711.74392  0.026232638  0.026138603            6 
 2262000    0.8955613   -7.1484511     712.8601  0.026262161  0.026131597            3 
 2263000   0.89893132   -7.1034797    712.97507   0.02625479  0.026124659            6 
 2264000   0.88749684   -7.1398772    714.74199   0.02630823  0.026117795            8 
 2265000   0.90078465   -7.1276326    712.70861  0.026221803   0.02611088            6 
 2266000   0.86567038   -7.1828367    712.16611   0.02619028  0.026103961            8 
 2267000   0.89223296   -7.1652303    712.04962  0.026174446  0.026097022            6 
 2268000   0.88228101   -7.1642527    709.60424  0.026073054  0.026090115            3 
 2269000   0.89266389   -7.1469191    711.77129  0.026141152  0.026083168            6 
 2270000   0.87760031   -7.1523284    713.65917  0.026198942  0.026076254            9 
 2271000   0.90256788   -7.1226619    714.65417  0.026223916  0.026069348           11 
 2272000   0.87493621   -7.1594099    712.24917  0.026124162  0.026062452            4 
 2273000   0.89086715   -7.1103077    714.70822  0.026202824  0.026055545            3 
 2274000   0.89514138   -7.1297913    715.08127  0.026204972  0.026048683            8 
 2275000   0.89339039   -7.1283106    714.55296  0.026174101  0.026041837            4 
 2276000   0.88226701   -7.1387248    714.22163   0.02615047  0.026034961            3 
 2277000    0.8753376   -7.1197306     716.8797  0.026236265  0.026028132            4 
 2278000   0.87787676   -7.1234839    716.24866  0.026201663  0.026021353            3 
 2279000   0.89378481   -7.1384528    716.68082  0.026205968  0.026014606            6 
 2280000    0.9113263   -7.1219865    715.44599  0.026149342  0.026007801            4 
 2281000   0.87678707   -7.1418491    716.15356  0.026163728  0.026000952            6 
 2282000   0.88920559   -7.1260858    716.96943  0.026182056  0.025994125            3 
 2283000   0.88100318   -7.1642909    714.11478  0.026066388  0.025987274            6 
 2284000   0.89225277   -7.1174283    715.48344  0.026104912  0.025980473            2 
 2285000   0.88992787   -7.1552546    715.07997  0.026078774  0.025973553            2 
 2286000   0.88861226    -7.148217    714.84978  0.026058974  0.025966664            5 
 2287000   0.86515306    -7.134552    715.60513  0.026075103  0.025959753            4 
 2288000   0.86253513   -7.1460566    714.89356   0.02603779  0.025952824            5 
 2289000   0.88661559   -7.1725068    715.46643  0.026047271  0.025945839            5 
 2290000   0.89722795    -7.150748     715.0167  0.026019531    0.0259388            5 
 2291000   0.89754567   -7.1652067    713.92244   0.02596837  0.025931795            5 
 2292000   0.88963449   -7.1388359    715.55047  0.026016233   0.02592482            8 
 2293000   0.88984871   -7.1134823    716.63065  0.026044143  0.025917941            2 
 2294000   0.90587899   -7.1279783    714.75029  0.025964483  0.025911022            3 
 2295000   0.89522027   -7.1806552    714.57147  0.025946677  0.025903987            2 
 2296000   0.86886802   -7.1603055    715.33938  0.025963247   0.02589699           10 
 2297000   0.87656014   -7.1540756    718.71815  0.026074523  0.025889973            2 
 2298000   0.90110006   -7.1556938    716.28227  0.025974843  0.025883026            7 
 2299000   0.90114267   -7.1283274    717.28019  0.025999717  0.025876077            6 
 2300000   0.89647659    -7.132537    716.90562  0.025974841  0.025869152            3 
 2301000   0.88225285   -7.1552993    716.54456  0.025950477  0.025862219            3 
 2302000   0.88659756   -7.1464094    717.69412  0.025980818  0.025855306            2 
 2303000   0.89883687   -7.1595891    715.71132   0.02589779  0.025848383            3 
 2304000   0.87228408   -7.1633995    717.42877  0.025948668  0.025841417            3 
 2305000    0.8729028   -7.1563444     717.3904  0.025936023  0.025834437            3 
 2306000   0.87853593   -7.1299527    719.86804  0.026014312  0.025827522            5 
 2307000    0.8788928   -7.1615465    717.95976  0.025934105  0.025820588            4 
 2308000   0.89482732   -7.1661541    717.50325  0.025906385  0.025813708            3 
 2309000   0.86995249   -7.1915246    716.09959  0.025844507  0.025806702            6 
 2310000   0.88681674   -7.1489993     718.8072  0.025930996  0.025799742            7 
 2311000   0.88207111   -7.1294343    718.22795  0.025898888  0.025792815            6 
 2312000   0.90731438   -7.1526746    719.26443  0.025925044    0.0257859            4 
 2313000   0.90006683   -7.1287396    719.18117  0.025910836  0.025779008            6 
 2314000   0.89085382   -7.1623459    718.39021  0.025871154  0.025772137            3 
 2315000    0.8927732   -7.1453361    718.10661   0.02584977  0.025765243            5 
 2316000   0.90377322   -7.1547343    719.25346  0.025879874  0.025758353            3 
 2317000   0.88782669   -7.1641412    718.41758  0.025838641  0.025751423            4 
 2318000   0.88096486   -7.1553264    718.21081  0.025820061  0.025744479            6 
 2319000   0.87812419   -7.1479895    718.68971  0.025826136  0.025737557            6 
 2320000   0.88137368   -7.1208938    721.45703  0.025914405  0.025730669            3 
 2321000   0.87253137   -7.1465207    721.46045  0.025903363  0.025723772            4 
 2322000   0.88539494   -7.1600657    717.97283  0.025767041  0.025716876            5 
 2323000   0.88686224   -7.1712029    719.60784  0.025814602  0.025709936            3 
 2324000   0.87886709   -7.1825097    720.70488  0.025842831  0.025703008            6 
 2325000   0.87362087   -7.1779598     719.2388  0.025779168  0.025696097            8 
 2326000   0.88297277   -7.1617429    720.17986  0.025801801  0.025689153            4 
 2327000   0.87689076   -7.1566256     718.8051   0.02574148  0.025682262            6 
 2328000   0.88127765   -7.2128599    721.15025   0.02581437  0.025675346            5 
 2329000   0.90431338   -7.1691915    720.83417  0.025791977  0.025668348            6 
 2330000   0.87968546   -7.1616673    720.04292  0.025752608  0.025661367            5 
 2331000   0.86826682   -7.1614473    720.98392  0.025775201  0.025654399            4 
 2332000   0.87159915   -7.1544468    721.03983  0.025766146  0.025647455            3 
 2333000   0.86581482   -7.1712077    720.54393  0.025737389  0.025640463            3 
 2334000    0.8857467   -7.1873784    720.52751  0.025725775  0.025633495            6 
 2335000   0.88482829   -7.1913288    720.60885   0.02571766  0.025626564            5 
 2336000    0.8821847   -7.1235137    723.04009  0.025793382  0.025619707            3 
 2337000   0.86203837   -7.1895936    721.29898   0.02572026   0.02561281           17 
 2338000   0.89272449   -7.1975766    719.98173  0.025662309  0.025605876            3 
 2339000   0.87561378   -7.1718904    720.73661  0.025678232  0.025598976            4 
 2340000   0.86665031   -7.1675367    722.33887  0.025724319  0.025592079            3 
 2341000   0.86578254   -7.1566792    723.95354  0.025770808  0.025585236            4 
 2342000   0.85999959   -7.1854216    722.95332  0.025724214  0.025578405            4 
 2343000   0.89372657   -7.1656546    722.10472  0.025683053  0.025571509            7 
 2344000   0.86952454   -7.1605979    723.80739  0.025732629  0.025564589            5 
 2345000   0.88428797   -7.1742124    724.56912  0.025748725  0.025557711            2 
 2346000   0.86196423   -7.1590321    722.68272  0.025670742  0.025550827            3 
 2347000   0.86959596   -7.1665303    722.98177  0.025670422  0.025543927            6 
 2348000   0.87823522   -7.1553353    722.71418  0.025649992  0.025537053            4 
 2349000   0.88219848   -7.1537553    725.97283  0.025754677  0.025530229            3 
 2350000   0.86190714   -7.1484201    723.39707  0.025652378  0.025523376            5 
 2351000   0.85992509   -7.1779771    721.81497  0.025585388  0.025516473            5 
 2352000   0.88442702   -7.1470557    724.50296  0.025669748  0.025509578            5 
 2353000   0.88361894   -7.1716375    722.29132  0.025580511  0.025502663            5 
 2354000   0.88657093   -7.1709462    725.52651  0.025684173  0.025495721            6 
 2355000   0.86907512   -7.1501536    722.41195  0.025563056  0.025488814            4 
 2356000   0.87962063   -7.2010405    723.97637   0.02560754  0.025481944            2 
 2357000   0.87038767   -7.1656925    724.85707  0.025627813  0.025475036            3 
 2358000   0.87635693   -7.1827307    725.14563  0.025627143  0.025468137            6 
 2359000   0.84357204   -7.1609611    723.76762    0.0255676  0.025461294            2 
 2360000   0.88238966   -7.1755084    724.38094  0.025578423  0.025454437            6 
 2361000   0.86885149   -7.1899177    724.38185  0.025567622  0.025447533            4 
 2362000   0.87306252   -7.1496363    725.88404  0.025609795  0.025440663            4 
 2363000   0.88383965   -7.1636432    724.69929  0.025557176  0.025433819            3 
 2364000   0.88331381   -7.1453823    725.27958  0.025566821  0.025426919            5 
 2365000   0.87651795    -7.205723    726.98699  0.025616173  0.025420105            3 
 2366000   0.87345919   -7.1740906    724.75619  0.025526775  0.025413269           16 
 2367000   0.85266636    -7.161115    728.04787  0.025631878  0.025406497            4 
 2368000   0.86352499   -7.2068103    728.04952  0.025621112  0.025399709            3 
 2369000   0.87156026   -7.1943821    725.32487  0.025514453  0.025392898            3 
 2370000   0.87502593   -7.1539184    726.24345  0.025535986  0.025386115            5 
 2371000   0.85430636   -7.1975434    726.56178  0.025536404  0.025379292            4 
 2372000   0.85327651   -7.1891636    726.50687   0.02552371  0.025372465            7 
 2373000   0.89001441   -7.1737925    725.31191   0.02547099  0.025365597            4 
 2374000   0.86812619   -7.1738903    726.58925  0.025505099  0.025358754            6 
 2375000   0.86028503   -7.1811272    725.97351  0.025472755  0.025351936            3 
 2376000   0.87219822   -7.1845923     727.8165  0.025526673  0.025345114            3 
 2377000   0.86863333   -7.1939246    725.69742  0.025441643  0.025338241            6 
 2378000   0.85652221   -7.1544875    726.60911  0.025462893  0.025331348            4 
 2379000   0.85979664   -7.1561884    727.19115  0.025472578  0.025324543            3 
 2380000   0.88292946   -7.1664289    726.67979   0.02544397  0.025317656            3 
 2381000    0.8698479   -7.1980553    725.82484  0.025403361  0.025310798            5 
 2382000   0.88307927   -7.1565895    727.27448  0.025443412  0.025303905            4 
 2383000    0.8795959   -7.1897834    727.00359  0.025423262  0.025297036            6 
 2384000   0.85517602   -7.1903654    726.65443  0.025400393  0.025290141            5 
 2385000   0.88549728   -7.1785703    727.64214  0.025424254   0.02528329            4 
 2386000    0.8728279   -7.1958285     728.6485  0.025448746  0.025276504            3 
 2387000    0.8586572   -7.1759271    728.29249  0.025425656  0.025269655            8 
 2388000   0.87668782   -7.1817667     728.6886  0.025428832  0.025262883            3 
 2389000   0.85566494   -7.1773037    729.34609  0.025441122  0.025256105            4 
 2390000   0.85815524   -7.1248263    730.90509  0.025484836  0.025249327            6 
 2391000   0.86655863   -7.1848042    727.61507   0.02535951  0.025242565            4 
 2392000   0.86896018   -7.1838946    729.59579  0.025417914  0.025235823            4 
 2393000   0.87335724   -7.1774406    729.85501  0.025416319  0.025229065            5 
 2394000   0.85993968   -7.1565172    727.73309   0.02533184  0.025222312            6 
 2395000   0.86685763   -7.1800206    730.24394  0.025408627   0.02521558            3 
 2396000   0.88421006   -7.2026232    729.50076  0.025372174  0.025208795           10 
 2397000   0.87756293   -7.1762305    729.27897  0.025353879  0.025202015            4 
 2398000   0.86315763   -7.1991467    727.97972  0.025298155  0.025195197            4 
 2399000   0.87543273   -7.1952932    730.19602  0.025364597  0.025188355            5 
 2400000   0.86104762   -7.1724749    729.27407  0.025322016   0.02518149            5 
 2401000   0.87031937   -7.2168785    728.62684  0.025289006  0.025174641            3 
 2402000   0.87791742    -7.151688    729.85966  0.025321248  0.025167785            3 
 2403000    0.8507391   -7.1945202    730.01641  0.025316147  0.025161028            3 
 2404000   0.87615415   -7.1557006    730.59515  0.025325678  0.025154247            1 
 2405000   0.86395544   -7.1815028    730.06781  0.025296875  0.025147456            4 
 2406000   0.86622794   -7.1902327    732.98508  0.025387402  0.025140666            4 
 2407000   0.89558286   -7.2054259    729.42297   0.02525353  0.025133878            3 
 2408000   0.86445052   -7.1749857    731.68658  0.025321379  0.025127095            5 
 2409000   0.89033276   -7.1596501    731.70463  0.025311493  0.025120287            4 
 2410000   0.86048307   -7.1588646    731.50249     0.025294  0.025113478            7 
 2411000   0.86547386   -7.2017903    729.67185  0.025220235   0.02510667            4 
 2412000   0.88025663   -7.1973222     731.6395  0.025277761   0.02509986            3 
 2413000   0.83930783   -7.1840595    730.85061   0.02524004  0.025093115            4 
 2414000    0.8647504   -7.1729909    731.85792  0.025264358  0.025086262            6 
 2415000   0.84710909    -7.206145    730.65657  0.025212442  0.025079421            6 
 2416000   0.86403046   -7.2007196    730.93088  0.025211468  0.025072603            4 
 2417000   0.84126154   -7.1811467    729.20767  0.025141624  0.025065744            4 
 2418000   0.86488494   -7.2004759    729.55811  0.025143304  0.025058886            5 
 2419000   0.86939111   -7.1616432    732.42399  0.025231638  0.025052064            6 
 2420000   0.86502851   -7.2169472    730.54808  0.025156614  0.025045272            4 
 2421000   0.87733214   -7.1911331    732.69146  0.025220001  0.025038492            2 
 2422000   0.85651913   -7.1988652    731.77575  0.025178081   0.02503168            4 
 2423000   0.87788073   -7.2047214    729.69768   0.02509622   0.02502481            4 
 2424000   0.86492983   -7.2045572    731.31373  0.025141424  0.025017966            4 
 2425000   0.87419598   -7.2028665     732.5071  0.025172065  0.025011151            4 
 2426000   0.87509701   -7.1629753    732.38132  0.025157369  0.025004317            2 
 2427000   0.84810516   -7.1885165    731.44216  0.025114756  0.024997536            7 
 2428000   0.85794914   -7.1912037    734.61547  0.025213326  0.024990764            5 
 2429000   0.87084218   -7.2125309    732.00892  0.025113521  0.024983968            4 
 2430000   0.85701943   -7.1846196    731.87795  0.025098695  0.024977114            6 
 2431000   0.84332292   -7.1970852    734.25317  0.025169792  0.024970287            8 
 2432000   0.86100103   -7.2005723    733.31385  0.025127256   0.02496344            5 
 2433000   0.84688895    -7.211484     734.1829  0.025146695  0.024956575            3 
 2434000   0.86198976   -7.2177776    731.64595  0.025049505  0.024949724            4 
 2435000   0.85431636   -7.2011946    732.42772  0.025065973  0.024942863            8 
 2436000   0.85615124    -7.186102    731.56517  0.025026176   0.02493601            4 
 2437000    0.8412474    -7.183942    734.06865  0.025101513  0.024929186            7 
 2438000   0.85643767   -7.2175323    732.85547  0.025049749  0.024922395           14 
 2439000   0.85698748   -7.2285818     733.4564  0.025060011  0.024915596            4 
 2440000   0.85782566   -7.2060322    733.77213  0.025060524  0.024908773            8 
 2441000   0.85920053   -7.1637631    735.78824  0.025119085  0.024902007            2 
 2442000   0.84453677   -7.1966976    734.17418  0.025053719  0.024895261            2 
 2443000   0.84580718   -7.2421743    733.80972  0.025031032  0.024888476            7 
 2444000   0.86526344   -7.2345673    733.00931  0.024993498  0.024881644            5 
 2445000   0.85444262   -7.2391978    732.64093   0.02497072  0.024874766            2 
 2446000   0.85085963   -7.1938751    735.90067  0.025071568  0.024867926            4 
 2447000   0.86213323   -7.1964619    733.21745  0.024969944  0.024861136            5 
 2448000   0.85576587   -7.2333184    735.36763   0.02503294  0.024854376            5 
 2449000   0.85927451    -7.207992    736.34711  0.025056047  0.024847646            4 
 2450000   0.87202608   -7.1898934    736.37738   0.02504685  0.024840928            5 
 2451000   0.87527934   -7.1901927    736.48151  0.025040171  0.024834234            5 
 2452000   0.85733781   -7.1752079     737.6257  0.025068845  0.024827591            5 
 2453000   0.86106006   -7.2029125    736.98769  0.025036951  0.024820938            3 
 2454000   0.85015707   -7.2318256    737.56899  0.025046488  0.024814239            6 
 2455000   0.86894889   -7.2150133    735.26121   0.02495795  0.024807535            5 
 2456000   0.85362364   -7.1983592    737.10841  0.025010465  0.024800811            3 
 2457000   0.86938507   -7.2031558    737.36829  0.025009099    0.0247941            6 
 2458000   0.84798168   -7.2298119    736.37062  0.024965101  0.024787351            7 
 2459000   0.86168883   -7.2045806    736.77407  0.024968621   0.02478063            3 
 2460000   0.86690064   -7.2193456    736.98809  0.024965721  0.024773875            4 
 2461000   0.85863076   -7.2134091    736.90332  0.024952706    0.0247671            3 
 2462000   0.84182936   -7.2073772    737.04379  0.024947326  0.024760327            6 
 2463000   0.86290715   -7.2246099    737.57679   0.02495523  0.024753539            5 
 2464000   0.85728722   -7.2133981    734.75291  0.024849598  0.024746798            5 
 2465000   0.86906596   -7.1847116    737.51574  0.024932919  0.024740072            5 
 2466000   0.89071608   -7.2263746    735.71708  0.024862026  0.024733345            5 
 2467000   0.85312672   -7.1902047    738.29594   0.02493906  0.024726623            5 
 2468000   0.86054015   -7.1819649    737.70691  0.024909066  0.024719919            7 
 2469000    0.8617052   -7.2052114    737.51157  0.024892385  0.024713222            5 
 2470000   0.85757452   -7.2271113    738.04606   0.02490034  0.024706566            5 
 2471000   0.86411869   -7.1946764    737.59918  0.024875192  0.024699841            7 
 2472000   0.86408546   -7.2414923     737.4253  0.024859267  0.024693121            6 
 2473000   0.86534487    -7.183346    740.41702  0.024950028  0.024686469            4 
 2474000   0.85117784   -7.2111937     738.2044  0.024865413  0.024679835            3 
 2475000   0.86511033   -7.1872161     737.6583   0.02483698   0.02467313            5 
 2476000    0.8595298   -7.2454149    738.27172  0.024847594  0.024666458            5 
 2477000   0.85815533   -7.2327971     739.2646  0.024870966  0.024659813            5 
 2478000   0.85002464   -7.2122035    739.94899  0.024883945  0.024653128            3 
 2479000   0.84828253    -7.237004    741.03017  0.024910252   0.02464647            5 
 2480000   0.87452303   -7.1834697    742.09354  0.024935939  0.024639898            4 
 2481000    0.8706273   -7.1978307    740.22442  0.024863107  0.024633289            4 
 2482000   0.84877539   -7.2098622    739.47126  0.024827802  0.024626655            4 
 2483000   0.85034057   -7.2145948    741.66717  0.024891501   0.02462007            7 
 2484000   0.85377879   -7.2136738    740.71879  0.024849664  0.024613468            4 
 2485000   0.85878162   -7.2068991    741.54353  0.024867322  0.024606859            4 
 2486000   0.84451478   -7.2372511    738.85617  0.024767236   0.02460022            2 
 2487000   0.86980795   -7.1819656    742.76161  0.024888139  0.024593643            3 
 2488000   0.85518983   -7.2311194    742.09673  0.024855866   0.02458709            5 
 2489000   0.84725645   -7.2037473    740.26548  0.024784568  0.024580512            4 
 2490000   0.85151305   -7.1812151    741.13796  0.024803814  0.024573942            7 
 2491000    0.8616576   -7.2068277    741.03467  0.024790401  0.024567362            3 
 2492000   0.86082707   -7.2318471    740.93885  0.024777249  0.024560811           10 
 2493000   0.86767793   -7.2374753    743.75192  0.024861342  0.024554281            4 
 2494000    0.8501383   -7.2489211    741.06325  0.024761536  0.024547692            5 
 2495000   0.83406224   -7.2048027    744.04985  0.024851365  0.024541203            3 
 2496000   0.84471219   -7.2280154    742.80758  0.024799932  0.024534638            3 
 2497000   0.85740106   -7.2207439    742.30655   0.02477328  0.024528086            8 
 2498000    0.8381962   -7.2199437      742.887  0.024782726  0.024521503            4 
 2499000   0.87701469   -7.2384673    742.34289  0.024754665  0.024514932            2 
 2500000   0.86031423   -7.2299622    744.25235  0.024808412  0.024508369            2 
 2501000   0.85202027   -7.1905766    741.55147  0.024708499  0.024501862            4 
 2502000   0.87212117   -7.2277962    741.53767  0.024698164  0.024495305            4 
 2503000   0.84087867   -7.2335843    742.23516  0.024711518  0.024488747            3 
 2504000   0.85997828   -7.2310237    742.77329  0.024719559  0.024482147            2 
 2505000   0.84546603   -7.1880629    742.57754  0.024703178  0.024475562            4 
 2506000    0.8783044   -7.2325715    743.88823  0.024736906  0.024468996            4 
 2507000   0.84520529   -7.2430828    743.75161  0.024722497   0.02446243            3 
 2508000   0.85803328   -7.2164651    743.56236  0.024706352  0.024455824            5 
 2509000   0.83747802   -7.2153211    743.33518  0.024688959  0.024449255            2 
 2510000   0.84105491   -7.2235743    744.31917  0.024711792  0.024442675            2 
 2511000   0.83809938   -7.2287311    742.75545  0.024650055  0.024436091            6 
 2512000   0.86158749   -7.2304599    742.32385  0.024625924   0.02442953            7 
 2513000   0.85664061   -7.2542912    742.46734  0.024620883  0.024422922            5 
 2514000   0.84332855   -7.2140707    744.03686  0.024663115  0.024416352            5 
 2515000   0.83231403   -7.2475077    743.38983   0.02463187  0.024409819            5 
 2516000   0.85677067   -7.2370591    745.38984  0.024688323  0.024403278            5 
 2517000   0.86823167   -7.2208071    744.79649  0.024658869  0.024396772            5 
 2518000   0.85947109   -7.2058896    746.12696  0.024693108   0.02439029            3 
 2519000   0.85705412   -7.2141624    745.60904  0.024666172  0.024383836            8 
 2520000   0.86989386   -7.2290506    744.93746  0.024634175  0.024377374            7 
 2521000    0.8654086   -7.2147505    745.50346  0.024643113  0.024370894            6 
 2522000   0.85249504   -7.2327069    745.88917  0.024646087  0.024364415            6 
 2523000   0.85779604   -7.2097231    745.75554  0.024631904  0.024357944            2 
 2524000   0.84171567   -7.2257284    745.87136  0.024625969   0.02435144            3 
 2525000   0.86069462   -7.2006632     746.5705   0.02463929  0.024345021            3 
 2526000    0.8724953   -7.2253249     748.0698  0.024678998  0.024338559            5 
 2527000    0.8691569   -7.2429184    746.15923  0.024606227  0.024332036           10 
 2528000   0.82990912   -7.2041715    744.98584  0.024557814  0.024325532            6 
 2529000   0.86252559   -7.2145129    746.08174  0.024584214  0.024318992            7 
 2530000   0.86516114   -7.2578729    746.58538  0.024591086    0.0243125            8 
 2531000   0.84647352   -7.2352641    746.38096   0.02457464  0.024306022            6 
 2532000   0.82730018   -7.2316338    746.33945  0.024563568  0.024299538            2 
 2533000   0.84231213   -7.2219261    747.22822   0.02458311   0.02429307            5 
 2534000   0.86827992   -7.2447035    744.45236  0.024482122  0.024286618            3 
 2535000   0.84487074   -7.2319744    749.23799  0.024629783  0.024280166            4 
 2536000   0.83542278   -7.2370732    748.53338  0.024596917  0.024273706            6 
 2537000   0.84170947   -7.2270848    749.10924  0.024606137  0.024267224            5 
 2538000    0.8470301   -7.2685574    748.44011  0.024574472  0.024260743           11 
 2539000   0.85013942   -7.2212765    747.10607  0.024521008  0.024254247            3 
 2540000   0.83513622   -7.2077213    747.63211  0.024528612  0.024247749            6 
 2541000   0.83476944   -7.2408754    748.53858  0.024548688  0.024241266            6 
 2542000   0.85602379   -7.2103847    747.02212  0.024489317  0.024234879            5 
 2543000    0.8420066   -7.2021238    749.43022    0.0245586  0.024228496            5 
 2544000   0.84792209   -7.2208614    750.03298   0.02456869  0.024222151            4 
 2545000   0.85732446   -7.2216975    750.30444  0.024567925  0.024215805            8 
 2546000   0.83927495   -7.2609302    749.84245  0.024543154  0.024209382            3 
 2547000   0.83796184   -7.2145622    749.77699  0.024531376  0.024202933            4 
 2548000   0.85503596   -7.2383532    748.05984  0.024465589  0.024196522            5 
 2549000   0.84623228   -7.2547574    748.99956  0.024486712  0.024190107            2 
 2550000   0.83457955   -7.2621234    750.38244  0.024522302  0.024183695            2 
 2551000     0.849675   -7.2327623    750.37537  0.024512458  0.024177233            4 
 2552000   0.87995294   -7.2571355    749.53437  0.024475391  0.024170811            6 
 2553000   0.86856703   -7.2351217    749.00922  0.024448662  0.024164369            4 
 2554000   0.84704931   -7.2418394    748.60884  0.024426026  0.024157939           10 
 2555000   0.83511276   -7.2098345    750.27867  0.024470929  0.024151503            5 
 2556000   0.83480783   -7.2404167    749.30725  0.024429683  0.024145133            6 
 2557000   0.83898058   -7.2322839    752.73095  0.024531709  0.024138707            2 
 2558000   0.84525085   -7.2307378    750.47948  0.024448771  0.024132305            2 
 2559000   0.85107405   -7.2246689    750.19603  0.024429987  0.024125952            5 
 2560000   0.86075124   -7.2306896    750.87156  0.024442433    0.0241196            6 
 2561000   0.83926221   -7.2298521    751.72902  0.024460791   0.02411327            8 
 2562000   0.86100684   -7.2488712     751.3915  0.024440265  0.024106919            8 
 2563000   0.85500091   -7.2442141    751.29169  0.024427484   0.02410051            2 
 2564000   0.83836636   -7.2737656    749.18527  0.024349495   0.02409408            3 
 2565000   0.84220048   -7.2394382      751.961  0.024430182  0.024087686            6 
 2566000   0.83812072   -7.2414733    751.55084  0.024407341  0.024081273            6 
 2567000   0.84440836   -7.2257655    750.33887  0.024358488  0.024074868            5 
 2568000   0.83961863   -7.2307094    751.34926  0.024381791  0.024068534            5 
 2569000   0.83802494    -7.247675    752.27499  0.024402329  0.024062168            6 
 2570000   0.82404648   -7.2446804    752.83144  0.024410877  0.024055833            5 
 2571000   0.83976331    -7.259261    753.39473   0.02441964  0.024049467            4 
 2572000   0.82769025   -7.2733835      752.761  0.024389613  0.024043112            4 
 2573000   0.85413303   -7.2476764    751.94149  0.024353591  0.024036778            8 
 2574000   0.84517005     -7.28961    750.11873  0.024285118  0.024030469            3 
 2575000   0.84520262   -7.2649725    752.35519  0.024348065  0.024024096            9 
 2576000   0.84465592   -7.2395861    752.37167  0.024339146  0.024017761            9 
 2577000   0.84534731    -7.252409    752.87327  0.024345921  0.024011425            3 
 2578000   0.83208338    -7.230105    754.16143  0.024378117  0.024005114            4 
 2579000   0.83809032    -7.278029    752.44391  0.024313167  0.023998777            4 
 2580000   0.85405422   -7.2682644    750.84896  0.024252227  0.023992425            4 
 2581000   0.86534731   -7.2254892    753.30899  0.024322259  0.023986096            4 
 2582000   0.82854342   -7.2369554    754.73011  0.024358705   0.02397982            7 
 2583000   0.84176788    -7.233727    751.34399  0.024240031   0.02397347            2 
 2584000   0.83255352   -7.2647294     752.5428  0.024269311  0.023967116            5 
 2585000   0.84365815    -7.213268    754.65836  0.024328122  0.023960798            4 
 2586000   0.84266476    -7.221641    756.04219  0.024363308   0.02395453            6 
 2587000   0.81974014   -7.2442251    752.81644  0.024249982    0.0239482            6 
 2588000   0.84348457   -7.2857115    751.72114  0.024205343   0.02394183            5 
 2589000   0.83093116   -7.2491643    752.91257  0.024234343  0.023935454            7 
 2590000   0.83394262   -7.2630257    754.36315  0.024271658  0.023929068            2 
 2591000   0.82534934   -7.2433374     756.4865  0.024330584  0.023922678            5 
 2592000   0.82935405   -7.2589721    753.16049  0.024214265  0.023916268            5 
 2593000   0.82505087   -7.2759409    752.71687  0.024190669  0.023909833            9 
 2594000   0.82708535   -7.2837418    752.47841  0.024173683  0.023903372            4 
 2595000   0.80751281    -7.261085    752.26472  0.024157506  0.023896892            2 
 2596000   0.84552911   -7.2487322    753.58499  0.024190581  0.023890428            3 
 2597000   0.84170431   -7.2493251    753.36936  0.024174347  0.023883963            5 
 2598000   0.84514677   -7.2102519    753.93798  0.024183282  0.023877537            4 
 2599000   0.83173117   -7.2327647    753.57451  0.024162322  0.023871122            3 
 2600000   0.84714883   -7.2388964     754.4189  0.024180093  0.023864733            5 
 2601000   0.83837855   -7.2472033    755.52439  0.024206215  0.023858375            3 
 2602000   0.82271505   -7.2577358    753.38402  0.024128364  0.023851983            5 
 2603000   0.84630498   -7.2828511    753.83923  0.024133667  0.023845567            8 
 2604000   0.83379873   -7.2792499    753.71931  0.024120562  0.023839118            4 
 2605000   0.83967642   -7.2754949     753.0574  0.024090128  0.023832685            5 
 2606000   0.83689535   -7.2619267    753.52691  0.024095898  0.023826261            6 
 2607000   0.84066138   -7.2714743    756.95067  0.024196096  0.023819858            2 
 2608000   0.82207694   -7.3058644     753.2216  0.024067664  0.023813421            6 
 2609000   0.83772181   -7.2543752    754.73177  0.024106675  0.023807006            4 
 2610000   0.83066035   -7.2330032    755.32127   0.02411626  0.023800596            3 
 2611000   0.85429095   -7.2512138    754.56895  0.024083012  0.023794195            8 
 2612000   0.83619656   -7.2711435    754.32149  0.024065897  0.023787796            4 
 2613000   0.83902897   -7.2491703    757.19115  0.024148206  0.023781431            5 
 2614000   0.82249307   -7.2697578    755.19807   0.02407543  0.023775018            3 
 2615000   0.85135618   -7.2586835    755.53783   0.02407705  0.023768636            5 
 2616000   0.80339561   -7.3114768    755.25557  0.024058855  0.023762267            5 
 2617000   0.84665282   -7.2879234    752.70554  0.023968461  0.023755818            2 
 2618000   0.83785088   -7.2703597    754.81783  0.024026542  0.023749396            6 
 2619000   0.84325136   -7.2820855    756.34898  0.024066087  0.023742984           10 
 2620000   0.83454934   -7.2494359    755.16477  0.024019236  0.023736599            7 
 2621000   0.83174085   -7.2473782    756.04312  0.024037998  0.023730249            6 
 2622000   0.81800918   -7.2966377    756.68248  0.024049151  0.023723801           11 
 2623000   0.82655919   -7.2611703    754.76016   0.02397891  0.023717369            3 
 2624000   0.84746503   -7.2532117    757.62164  0.024060646  0.023710975            5 
 2625000   0.83465848   -7.2619646    756.59154  0.024018779   0.02370461            7 
 2626000   0.82703874   -7.2559103    756.37003  0.024002603  0.023698236           10 
 2627000   0.84008626   -7.2215134    757.54882   0.02403086  0.023691855            7 
 2628000   0.83944302   -7.2534472    757.00186  0.024004372  0.023685468            3 
 2629000   0.83940498   -7.2728426    756.50916  0.023979624  0.023679038            6 
 2630000   0.82118979   -7.2682867    757.02757  0.023986932  0.023672624            5 
 2631000   0.80911546   -7.2833842    757.55698  0.023994583  0.023666238            5 
 2632000   0.83679623   -7.2744219    756.44077  0.023950126  0.023659798            4 
 2633000   0.83400441   -7.2513637    756.29921  0.023936549   0.02365343            1 
 2634000   0.82063693    -7.270542    756.12776  0.023922037  0.023647046            5 
 2635000   0.84357362   -7.2944789    757.40913  0.023953483  0.023640625            5 
 2636000   0.84565872   -7.2895885    756.91176  0.023928672  0.023634192            5 
 2637000   0.81942006   -7.2884151    756.99027  0.023922079  0.023627779            4 
 2638000   0.83147611    -7.274854    758.97341  0.023975657  0.023621386            9 
 2639000   0.84931245   -7.2774648    757.18183  0.023909999  0.023614972            4 
 2640000   0.82437043   -7.2907305    756.64305  0.023883935  0.023608549            4 
 2641000   0.83727554   -7.2896018    755.66761  0.023844112  0.023602145            4 
 2642000   0.81979891   -7.2769493    756.09503  0.023848569  0.023595735            5 
 2643000   0.81192266   -7.2825683    758.25654  0.023907698  0.023589327            8 
 2644000   0.82611209   -7.2525782    758.54866  0.023907862  0.023582978            6 
 2645000   0.83413945   -7.2648744    758.70836  0.023903855  0.023576622            5 
 2646000   0.82841862   -7.2688667    757.47787  0.023856068  0.023570249            5 
 2647000    0.8414529   -7.2656665    758.57471  0.023881586  0.023563897            3 
 2648000   0.80963611   -7.2831141    758.86001  0.023881546  0.023557522            4 
 2649000   0.83894788   -7.2768643    758.14947  0.023850178   0.02355113            3 
 2650000   0.81879074   -7.2496186    759.06036  0.023869823   0.02354473            5 
 2651000   0.80783494   -7.3040845    757.92759   0.02382521  0.023538301            6 
 2652000   0.83948589   -7.3132241     756.4957  0.023771233  0.023531842            4 
 2653000   0.83411645   -7.3123717    755.65733  0.023735938  0.023525365            3 
 2654000    0.8305133    -7.294609    759.23403    0.0238393  0.023518891            4 
 2655000   0.83227079   -7.3050407    757.02966  0.023761132    0.0235124            7 
 2656000   0.84359539   -7.2836696    757.57679  0.023769352  0.023505932            3 
 2657000   0.82418775   -7.2857637    757.99799  0.023773617  0.023499433            7 
 2658000   0.80580384    -7.283051    757.19272  0.023739426  0.023492905            5 
 2659000   0.82848094   -7.2702253    756.65655  0.023713694  0.023486381            5 
 2660000   0.83603379   -7.2830893    758.41977  0.023760018  0.023479895            5 
 2661000   0.81986205   -7.2542237    758.16294  0.023743046  0.023473354            2 
 2662000   0.84212631   -7.2895287    756.93529  0.023695695  0.023466853            5 
 2663000   0.81960658   -7.2664001    759.17546  0.023756899  0.023460379            7 
 2664000   0.84731626   -7.2829549    758.47492  0.023726067  0.023453889            5 
 2665000   0.82509025   -7.2995502    757.70397  0.023693057  0.023447383            9 
 2666000   0.83815734   -7.3185891    759.44412  0.023738563  0.023440849            8 
 2667000   0.82647046   -7.2756188    759.77146  0.023739891  0.023434366            4 
 2668000   0.82284107   -7.2768012    758.82204  0.023701338  0.023427916            5 
 2669000   0.83423027     -7.29382    758.08298  0.023669382  0.023421446            5 
 2670000   0.83403888    -7.273232    759.56893  0.023706895  0.023414996            4 
 2671000   0.80539279   -7.2842858    760.75481  0.023735018  0.023408523            2 
 2672000   0.81454457   -7.2683787    759.33184  0.023681756  0.023402055            4 
 2673000   0.83601019   -7.2759509    759.84486  0.023688891   0.02339564            5 
 2674000   0.81369632   -7.2815427    759.75595  0.023677261  0.023389186            5 
 2675000   0.83950665   -7.2785358    759.57314  0.023662715  0.023382733            8 
 2676000   0.84095667   -7.3062272    760.36957  0.023678674  0.023376301            8 
 2677000   0.80480791   -7.3009965    758.10249  0.023599256  0.023369839            5 
 2678000   0.81586762   -7.2734128    759.71689   0.02364068  0.023363376            5 
 2679000   0.83414539    -7.251676     762.7573  0.023726431  0.023356951            2 
 2680000   0.82841306   -7.2893319    758.75052  0.023592989  0.023350497            4 
 2681000    0.8110564    -7.289016    759.16549  0.023597087  0.023344022            3 
 2682000   0.81789537   -7.2692303    759.24826  0.023590861  0.023337513            6 
 2683000   0.83654576    -7.280581    761.18055  0.023642084  0.023331078           10 
 2684000   0.81346825   -7.2580244    762.42016  0.023671763  0.023324658            5 
 2685000   0.83777841   -7.2985909    760.96341  0.023617735  0.023318187            3 
 2686000   0.79178266   -7.2652615    761.15339  0.023614836  0.023311791            3 
 2687000   0.82903066   -7.2681784    761.49325  0.023616588  0.023305401            3 
 2688000   0.84320073   -7.3027798     760.6488  0.023581622  0.023298982            4 
 2689000    0.8303276   -7.2925499    762.04342  0.023616072  0.023292577            7 
 2690000    0.8271414   -7.2925604    763.01898  0.023637515  0.023286208            5 
 2691000   0.83046913   -7.2893386    762.30027  0.023606474  0.023279869           10 
 2692000    0.8170121   -7.2947137    762.92675  0.023617099  0.023273561            6 
 2693000    0.8196843    -7.277685    762.17302  0.023585005  0.023267173            9 
 2694000   0.81249332   -7.3075991    763.97665  0.023632042  0.023260791            4 
 2695000   0.80863991   -7.2758546    763.23142  0.023600229  0.023254424           11 
 2696000   0.82954043   -7.2616864    762.96205   0.02358315  0.023248107            3 
 2697000   0.82069524   -7.2791606    761.06969  0.023515934  0.023241776            5 
 2698000   0.81616723   -7.3401695    763.19659  0.023572912  0.023235398            5 
 2699000   0.81705559   -7.3017101    761.96488  0.023526148  0.023229008            8 
 2700000   0.80719634   -7.3160334    762.53794  0.023535122  0.023222615            7 
 2701000   0.81803355   -7.2714708       761.69  0.023500247   0.02321624            3 
 2702000   0.82426688   -7.2811259    764.09049  0.023565584  0.023209856            4 
 2703000   0.81718843   -7.2755851    761.01805  0.023462142  0.023203486            9 
 2704000   0.81267547   -7.3060582     763.1017  0.023517681  0.023197095            6 
 2705000   0.82724757   -7.2730288    764.26259   0.02354475  0.023190746            6 
 2706000   0.81993935   -7.2624424    764.02878  0.023528849  0.023184396            3 
 2707000   0.80375614   -7.2813494    763.27485  0.023496948  0.023178017            5 
 2708000   0.81383364   -7.3052672    764.44028  0.023524135  0.023171623            5 
 2709000   0.82554878   -7.2959768    762.80354  0.023465102  0.023165267            2 
 2710000   0.80905208   -7.2957985    763.71621  0.023484508  0.023158901            4 
 2711000   0.81123638    -7.289561    765.36778  0.023526613  0.023152566            4 
 2712000   0.80500662   -7.2767738    764.18263  0.023481521  0.023146245            5 
 2713000   0.82129812   -7.2958744    763.21737  0.023443217   0.02313989            6 
 2714000   0.83409888    -7.275974    763.41508   0.02344065  0.023133521            3 
 2715000   0.80081764   -7.3034865     763.9863  0.023449549  0.023127149            5 
 2716000   0.82046506   -7.3013424    764.20029  0.023447481  0.023120814            3 
 2717000    0.8160686    -7.302999    764.10061  0.023435793  0.023114468            3 
 2718000   0.82159716   -7.2832709    764.51281  0.023439809  0.023108108           10 
 2719000   0.83561622     -7.29495    765.67576  0.023466831  0.023101786            5 
 2720000   0.82387337   -7.2838303    764.78364  0.023430871  0.023095458            7 
 2721000   0.82495139   -7.2840902    765.74959  0.023451844  0.023089153            5 
 2722000   0.83847826   -7.3172746    763.09518  0.023361964  0.023082842            6 
 2723000   0.83318781   -7.2735867    765.18345  0.023417293  0.023076503            4 
 2724000    0.8233776   -7.3125892    762.42619  0.023324345  0.023070167            5 
 2725000   0.82419644   -7.2970981     763.2642  0.023341413  0.023063791            2 
 2726000    0.8324025   -7.3165597    765.85732  0.023412122  0.023057434            6 
 2727000    0.7955543   -7.2897362    764.97889  0.023376693  0.023051103           12 
 2728000   0.82251589   -7.2603701    765.12892  0.023372706  0.023044787            9 
 2729000   0.81183506   -7.3061701    764.99533  0.023360063  0.023038492            4 
 2730000   0.82106435   -7.3011429    765.94781   0.02338058  0.023032147            6 
 2731000    0.8167756   -7.3043878    765.33836  0.023353422  0.023025788            4 
 2732000   0.80793745   -7.3049977    766.97522  0.023394803  0.023019433            6 
 2733000   0.81293854   -7.3025225    764.80743  0.023320144  0.023013054            5 
 2734000   0.80531503    -7.312866    765.56622  0.023334742  0.023006689            6 
 2735000   0.80384981   -7.2886601    765.47342  0.023323383  0.023000315            5 
 2736000    0.7920146   -7.2806848    765.73976   0.02332297  0.022993976            5 
 2737000   0.81125598   -7.3020394    764.36084  0.023272465  0.022987614            3 
 2738000   0.80402472   -7.3078663    763.42931  0.023235613  0.022981205            4 
 2739000   0.80389938   -7.2894603    763.15327  0.023218732  0.022974783            5 
 2740000   0.82775671   -7.3119862    765.22572  0.023273288  0.022968393            4 
 2741000   0.80987169   -7.3012492    766.65813  0.023308346  0.022962048            2 
 2742000   0.81197119   -7.3073912    765.20186  0.023255588  0.022955664            6 
 2743000   0.80617647   -7.3183829    763.74875  0.023202963  0.022949262            4 
 2744000   0.82122974   -7.2918924    765.27524  0.023240866  0.022942904            6 
 2745000   0.82395032   -7.2864741    765.68938  0.023244972  0.022936503            9 
 2746000   0.80915525    -7.292289     764.9671  0.023214588  0.022930125           11 
 2747000   0.81103994   -7.2889815    765.08376  0.023209676  0.022923765            9 
 2748000   0.80838162   -7.2892641     765.4036  0.023210929  0.022917407            8 
 2749000   0.80218531   -7.3228194    765.08732  0.023192898  0.022911014            3 
 2750000   0.81838132   -7.2853315    767.20266  0.023248565  0.022904621            3 
 2751000   0.80786293   -7.3213122    764.84915  0.023168822  0.022898231            3 
 2752000   0.81412326   -7.3094901    766.05688  0.023196974  0.022891805            3 
 2753000   0.82477173   -7.2778124    766.30468  0.023196049  0.022885412            8 
 2754000   0.81279826   -7.2937491    766.58456  0.023196095  0.022879044            7 
 2755000   0.79769492   -7.3382505    763.97297   0.02310868  0.022872627            8 
 2756000   0.79782156    -7.311352    767.27281  0.023200073  0.022866221            6 
 2757000   0.80953871   -7.3096736    766.28642  0.023161843  0.022859817            3 
 2758000   0.81903883   -7.3075539    766.54919  0.023161385  0.022853416            4 
 2759000   0.80854784   -7.2596536    766.23296  0.023143439  0.022847039            5 
 2760000   0.80520208   -7.3081654    767.30804  0.023167513  0.022840652            5 
 2761000   0.80684263   -7.2915231    767.50813  0.023165162   0.02283426            5 
 2762000   0.80602176   -7.3257589    766.37321  0.023122532  0.022827818            7 
 2763000   0.80792768   -7.3412604    765.08757  0.023075388  0.022821379            4 
 2764000   0.80631329   -7.3054487    765.89885  0.023091499  0.022814935            6 
 2765000   0.82020344   -7.2995879    767.38891  0.023128056  0.022808516           19 
 2766000   0.80342585   -7.3150154    765.60995  0.023066099  0.022802089            4 
 2767000   0.80445175   -7.3108655     765.4831  0.023053942  0.022795702            5 
 2768000    0.8352988   -7.3149558    766.16021  0.023065998  0.022789265            9 
 2769000   0.79533306   -7.3181578    766.79302  0.023076713  0.022782856            7 
 2770000   0.82355501   -7.3276433    766.04611  0.023045912  0.022776402            6 
 2771000   0.79742355   -7.3248509    768.57483  0.023113642  0.022769958            6 
 2772000   0.79809248   -7.3275577     766.8793  0.023054332  0.022763538           10 
 2773000   0.80595018   -7.3074721    766.96367  0.023048554  0.022757092            4 
 2774000   0.80550968   -7.3456099    766.28731  0.023019926  0.022750609            9 
 2775000   0.80850917   -7.3335023    767.08458  0.023035573  0.022744149            5 
 2776000   0.78238779   -7.3226075    767.38173  0.023036195  0.022737714            8 
 2777000   0.79094293   -7.3493818    764.96999  0.022955527  0.022731248            4 
 2778000   0.81098968   -7.2876056    767.37539   0.02301942  0.022724808            4 
 2779000   0.81845431   -7.3179773    766.45574  0.022983559  0.022718378            3 
 2780000   0.82638875   -7.3104966    765.76633  0.022954626  0.022711939            7 
 2781000   0.79953599   -7.2954724    767.98973  0.023012997  0.022705491            3 
 2782000   0.80875115   -7.3217307    766.43151  0.022958049  0.022699046           13 
 2783000   0.82609766   -7.3251327    766.25218   0.02294443  0.022692561            5 
 2784000   0.79458175   -7.3352208     767.0131  0.022958965  0.022686065            7 
 2785000   0.78895125   -7.3089907    765.86907  0.022916489  0.022679545            3 
 2786000   0.80272335   -7.3263033    765.91779  0.022909721  0.022673035            4 
 2787000   0.80741626    -7.307149    766.31906  0.022913499  0.022666539            6 
 2788000   0.80872954   -7.3080261    765.81594  0.022890242  0.022660044            6 
 2789000   0.79464264   -7.3494101    765.24075  0.022864848  0.022653533            5 
 2790000   0.79382782   -7.3008871    767.53581  0.022925203  0.022647096            5 
 2791000   0.79758349   -7.3166351    767.80772  0.022925108  0.022640684            6 
 2792000   0.79709409   -7.3093744    770.01601  0.022982808  0.022634267            9 
 2793000   0.81194107   -7.2998169    768.76671  0.022937305  0.022627856            5 
 2794000    0.7946457   -7.2780985    768.38336  0.022917662  0.022621453            6 
 2795000   0.80866866   -7.3320612    765.81615   0.02283292   0.02261502            4 
 2796000   0.80192976   -7.3410086    768.31848  0.022899335  0.022608528            5 
 2797000   0.81434585   -7.3390531     768.1167  0.022885136  0.022602064            3 
 2798000   0.80224881   -7.3242442    766.74327  0.022836052  0.022595584            3 
 2799000   0.80637722   -7.3365015    767.23665  0.022842582  0.022589075            2 
 2800000   0.80340187   -7.3198891    767.89956  0.022854153  0.022582605            5 
 2801000   0.81278581   -7.3513697    766.92909  0.022817122  0.022576131            7 
 2802000   0.81845843   -7.3592662    765.59432  0.022769281   0.02256966            3 
 2803000   0.80296796   -7.3082781    767.99075  0.022832404  0.022563215            5 
 2804000   0.79831012   -7.3196006    768.94047  0.022852486  0.022556767            5 
 2805000   0.79689068   -7.3119302    769.18365  0.022851564   0.02255032           11 
 2806000   0.79848508   -7.3340523    767.75275  0.022800925  0.022543837           13 
 2807000   0.79032696   -7.3386557    768.90611  0.022827043  0.022537378            6 
 2808000   0.79270033   -7.3215608    766.75677  0.022755127  0.022530917            6 
 2809000   0.79414139   -7.3344377    768.25681  0.022791527  0.022524468            5 
 2810000    0.8009139   -7.3167936    767.54574  0.022762329  0.022517987            8 
 2811000   0.80569318   -7.3220001    767.24662  0.022745364  0.022511494            4 
 2812000   0.78957641   -7.3284866     766.4562  0.022713851  0.022505001            6 
 2813000   0.82316534   -7.3032509    770.49266  0.022825354  0.022498515            6 
 2814000   0.80629899   -7.3753936    767.27077   0.02272183  0.022492034            4 
 2815000     0.803619   -7.3454605    767.52697  0.022721343  0.022485542            2 
 2816000   0.81802646   -7.3565473    769.36695  0.022767725  0.022479052            4 
 2817000   0.79136145   -7.3182855    768.60629   0.02273714  0.022472588            7 
 2818000   0.80217575   -7.3642233    767.35556  0.022692085  0.022466111            4 
 2819000   0.81106799    -7.349609    767.22659  0.022680223  0.022459639            5 
 2820000   0.80473124    -7.362358    768.12926  0.022698855  0.022453176            6 
 2821000    0.7847594   -7.3345361    768.42297  0.022699485  0.022446698            4 
 2822000   0.79564505   -7.3323848    768.00381  0.022679064  0.022440188            5 
 2823000   0.80312823   -7.3455624    769.04219  0.022701682  0.022433686            5 
 2824000   0.80766656   -7.3680702    767.40692  0.022645388  0.022427195            4 
 2825000   0.80355908   -7.3220104    768.98422    0.0226839  0.022420696            6 
 2826000   0.79918014   -7.3357742    768.67804  0.022666845  0.022414221            2 
 2827000   0.80586183   -7.3527847     769.0909  0.022670997   0.02240774            4 
 2828000   0.79965369   -7.3332214    769.21228  0.022666557  0.022401281            4 
 2829000   0.80205265   -7.3463633    767.31084  0.022602535  0.022394784            9 
 2830000   0.79498113   -7.3239393    771.18979  0.022708769  0.022388306            5 
 2831000   0.79077708   -7.3451555     769.5067  0.022651204  0.022381844            5 
 2832000   0.79477979   -7.3049468     770.9049  0.022684348    0.0223754            9 
 2833000    0.7851813   -7.3440911    769.24685  0.022627569   0.02236898            5 
 2834000   0.79188656   -7.3139766     769.9828  0.022641226  0.022362547            6 
 2835000    0.8087422   -7.3298769    769.96273  0.022632649  0.022356121           15 
 2836000    0.8033994   -7.3303572    771.56042  0.022671615  0.022349704            2 
 2837000   0.78845345   -7.3198473    771.07089  0.022649245  0.022343288            9 
 2838000   0.81810085   -7.3643005    768.67914  0.022571034  0.022336868           12 
 2839000   0.80258051   -7.3227642    769.80702  0.022596191  0.022330453            9 
 2840000   0.79113492   -7.3170591    771.24694  0.022630485  0.022324038            2 
 2841000   0.80147255   -7.3398707    769.19073  0.022562206  0.022317616           12 
 2842000   0.79367734   -7.3248556    770.22279   0.02258453  0.022311218            5 
 2843000   0.80857245   -7.3138004    772.57394  0.022645502  0.022304833            4 
 2844000   0.79617263    -7.335205    770.96873  0.022590504  0.022298414            7 
 2845000   0.81913403   -7.3433386    767.67042  0.022485953  0.022291991            5 
 2846000   0.78865263   -7.3590209    769.00864  0.022517236  0.022285536            5 
 2847000   0.78986695    -7.334376    770.30088  0.022547152  0.022279076            4 
 2848000   0.78695305   -7.3328603    771.05537  0.022561311  0.022272666           20 
 2849000   0.80781067   -7.3441159    768.21335  0.022470263  0.022266236            5 
 2850000   0.80456844   -7.3613728    769.14293  0.022489559  0.022259805            5 
 2851000    0.7963729   -7.3448052     770.6791  0.022526573  0.022253371            2 
 2852000   0.77419103   -7.3382438    770.85982  0.022523955  0.022246915            4 
 2853000   0.78029434   -7.3438295    771.58949  0.022537373  0.022240466            5 
 2854000    0.8006417    -7.369673    771.39638  0.022523837  0.022234016            8 
 2855000   0.79958021   -7.3384514    771.78121  0.022527181  0.022227608            6 
 2856000   0.81050304   -7.3455524    771.18101   0.02250178  0.022221188            4 
 2857000   0.79530845   -7.3624897    770.13414  0.022463369  0.022214731            3 
 2858000   0.80699239    -7.337521    770.58571  0.022468676  0.022208284            8 
 2859000   0.80200325    -7.333776    771.96893  0.022501135  0.022201789            3 
 2860000   0.81309719   -7.3556341    770.19324  0.022441528  0.022195313            6 
 2861000   0.79536158   -7.3337693    770.77094  0.022450511  0.022188863            3 
 2862000   0.79841896   -7.3259525    771.73117  0.022470626   0.02218245            6 
 2863000   0.80695347    -7.343486     772.0308  0.022471499  0.022176016            6 
 2864000   0.80578281   -7.3229517    771.31459  0.022442813  0.022169576           20 
 2865000   0.80093908    -7.348935    769.49153  0.022381953  0.022163153            5 
 2866000   0.78942079   -7.3597513    772.55964  0.022463353  0.022156702           19 
 2867000   0.78252481   -7.3466972    771.30176  0.022418956  0.022150215            5 
 2868000   0.79893699   -7.3388846    772.34564   0.02244147  0.022143747            8 
 2869000   0.79105689   -7.3509045    769.96578  0.022364522  0.022137306            4 
 2870000   0.77830186   -7.3437567    769.28068  0.022336837  0.022130879            4 
 2871000   0.77493372   -7.3260907    772.01117  0.022408312  0.022124458            2 
 2872000   0.79643605   -7.3857058    771.54525  0.022386991   0.02211806            7 
 2873000   0.80495162   -7.3356528    772.83721  0.022416673  0.022111681            7 
 2874000   0.80131685   -7.3452494    770.96346  0.022354542  0.022105255            4 
 2875000   0.79237058   -7.3555071    772.27704  0.022384842  0.022098827            4 
 2876000   0.79974378   -7.3534111    772.22716  0.022375613  0.022092434            4 
 2877000   0.79677166   -7.3840264    771.19406  0.022337911  0.022086038            4 
 2878000   0.78374486   -7.3640772    770.65737   0.02231461  0.022079591            4 
 2879000   0.78475893   -7.3521743    772.19143  0.022351263  0.022073184            9 
 2880000    0.7812763   -7.3333456    771.83146  0.022333086  0.022066766           15 
 2881000   0.79090668   -7.3448651    772.04783  0.022331593  0.022060361           14 
 2882000   0.79424685   -7.3499401    773.48569   0.02236542   0.02205396            7 
 2883000    0.7674865   -7.3709048    773.50843   0.02235832  0.022047581            5 
 2884000   0.79608109   -7.3666644    772.81881  0.022330641  0.022041178            8 
 2885000   0.77454484   -7.3321518    773.95918   0.02235584  0.022034816            5 
 2886000   0.79717754   -7.3541957    774.17201  0.022354239  0.022028474            4 
 2887000   0.80451258   -7.3639357    775.25407   0.02237773  0.022022111            5 
 2888000   0.78667433   -7.3444713    773.75666  0.022326774  0.022015764            6 
 2889000   0.78351405   -7.3371419    772.13375  0.022272232  0.022009442            5 
 2890000    0.7866829   -7.3687608    773.64779  0.022308183  0.022003078            8 
 2891000   0.79490992   -7.3580384    772.58084  0.022269712  0.021996662           10 
 2892000    0.7995685   -7.3508759    772.80533   0.02226848  0.021990224            9 
 2893000   0.78606123   -7.3450836      775.488  0.022338057  0.021983819            6 
 2894000   0.77782421   -7.3824527    772.47783   0.02224366  0.021977426            3 
 2895000   0.78514539   -7.3511259    773.09818  0.022253834  0.021971003            8 
 2896000   0.80501097   -7.3689758    771.46598  0.022199182  0.021964607           11 
 2897000   0.79698127   -7.3603619    772.28629  0.022215116  0.021958222            5 
 2898000   0.79276722   -7.3558535    773.91462  0.022254274  0.021951828            7 
 2899000   0.78137237   -7.3758712    773.11752  0.022223684  0.021945449            5 
 2900000    0.7660056   -7.3546836     776.4415  0.022311537  0.021939051            5 
 2901000   0.78930669   -7.3592855    773.27893  0.022212999  0.021932698            2 
 2902000   0.78351768   -7.3414422    776.48495  0.022297408  0.021926347            4 
 2903000    0.7905389   -7.3541404    774.56478  0.022234607  0.021920011            3 
 2904000   0.78919832   -7.3364624    774.93227  0.022237496  0.021913655            7 
 2905000   0.78540169   -7.3539327    773.83904  0.022198481  0.021907302            8 
 2906000   0.78025475   -7.3616131    772.51646  0.022152915  0.021900955            4 
 2907000   0.78631683   -7.3804128    774.34824  0.022197805  0.021894607            5 
 2908000   0.79531623   -7.3692418    773.78326  0.022173982  0.021888239            8 
 2909000   0.79353021   -7.3656041    775.94971  0.022228421  0.021881888           14 
 2910000   0.79106533   -7.3773131    773.20883  0.022142292  0.021875545            3 
 2911000   0.76400343   -7.3496554    776.71837  0.022235153  0.021869177            4 
 2912000   0.77055647   -7.3728943    774.19558  0.022155322   0.02186283            4 
 2913000   0.75995558    -7.360522    774.73082  0.022163028  0.021856466            6 
 2914000    0.7997061   -7.3362491    775.73457  0.022184127  0.021850137            7 
 2915000   0.79599695   -7.3635738    776.20169  0.022189871  0.021843824           11 
 2916000   0.77219499   -7.3545167    774.87171  0.022144253  0.021837478            3 
 2917000   0.78792739   -7.3463699     775.3961  0.022151643  0.021831109            4 
 2918000   0.78864026   -7.3707902    776.22423  0.022167701  0.021824743            7 
 2919000   0.78386137   -7.3281353    776.07048  0.022155718  0.021818422            3 
 2920000   0.78185364   -7.3585228    774.51931  0.022103862  0.021812102            3 
 2921000   0.78353913   -7.3498986    776.71429  0.022158915  0.021805785            5 
 2922000   0.77289433   -7.3725706    773.82102  0.022068818  0.021799465            9 
 2923000   0.78122021    -7.394647    774.76221    0.0220881  0.021793095            4 
 2924000   0.77464009   -7.3917446    774.36068  0.022069103  0.021786728            2 
 2925000   0.77688719   -7.3613775    774.91547  0.022077364  0.021780413            3 
 2926000   0.77963811   -7.3524564    774.76031    0.0220654  0.021774071            8 
 2927000   0.79402981   -7.3770461    774.71181   0.02205648  0.021767748            9 
 2928000   0.79133545   -7.3708666    776.02991  0.022086461  0.021761423            7 
 2929000   0.77211425   -7.3679105    775.06836  0.022051564   0.02175511            6 
 2930000   0.78861571    -7.353302     775.6036  0.022059261  0.021748797            8 
 2931000   0.78587146   -7.3769914    774.55593  0.022021947  0.021742474            6 
 2932000    0.7987057   -7.3551905    775.56425  0.022043095  0.021736156            3 
 2933000   0.78285714    -7.346483    776.81215  0.022071035  0.021729845            5 
 2934000   0.78360985   -7.3740348    775.51335  0.022026623  0.021723537            4 
 2935000   0.79274196   -7.3744783    778.13908  0.022093671  0.021717243            4 
 2936000   0.77686885   -7.3724778    777.79481  0.022076374  0.021710965            6 
 2937000   0.79872224   -7.3446517    777.28693  0.022054447  0.021704705            4 
 2938000   0.76550586   -7.3613808    779.07373  0.022097621  0.021698445            3 
 2939000   0.80033985   -7.3532089    778.21212  0.022065672  0.021692183            4 
 2940000   0.77156685   -7.3522052    779.16433  0.022085157  0.021685945           10 
 2941000   0.77834256    -7.368609     777.8271  0.022039757  0.021679721            5 
 2942000   0.77546436   -7.3836229    777.95932  0.022036011  0.021673471            3 
 2943000   0.77155184   -7.3507758    777.91749  0.022027339  0.021667225            8 
 2944000    0.7994188   -7.3841913     775.7154  0.021957524  0.021660962           29 
 2945000   0.78946905   -7.3556632    777.90965  0.022012158  0.021654703           18 
 2946000   0.76733696   -7.3611259    777.12902  0.021982604  0.021648444           18 
 2947000   0.77557928   -7.3660564    777.65583  0.021990042  0.021642181            6 
 2948000   0.78707733   -7.3686317    778.46368  0.022005418  0.021635936            5 
 2949000   0.76278935   -7.3874997    779.80237  0.022035785  0.021629681            9 
 2950000   0.78783544   -7.4013324    778.14471  0.021981489  0.021623437            6 
 2951000   0.78238453   -7.3734225    777.01924  0.021942258  0.021617185            7 
 2952000   0.77115209   -7.3755858    777.45039  0.021946996    0.0216109            2 
 2953000    0.7801807   -7.3589191    779.19231  0.021988721  0.021604644            8 
 2954000    0.7781404   -7.4064659    778.96505  0.021974866  0.021598378            7 
 2955000   0.76953611   -7.3940295    777.01742  0.021912505  0.021592078            5 
 2956000   0.75359795   -7.4022245     778.0988  0.021935577  0.021585779            8 
 2957000   0.77486882   -7.3931498    776.50602  0.021883272  0.021579513            5 
 2958000   0.76346246   -7.4160024    777.90449  0.021915272  0.021573212            9 
 2959000   0.76901485   -7.4329225    777.22281  0.021888668  0.021566934            6 
 2960000   0.76673693   -7.3825752    778.28527  0.021911185  0.021560653            6 
 2961000   0.78866216   -7.3777309    778.78974  0.021917982  0.021554386            7 
 2962000   0.79245268   -7.3644922    777.60662  0.021877296  0.021548129           13 
 2963000   0.77391894   -7.3705929    779.13993  0.021913037   0.02154188            9 
 2964000   0.77209361   -7.3961322    779.07981  0.021903953  0.021535642            6 
 2965000   0.78288587   -7.3854426    779.58833  0.021910858  0.021529442            2 
 2966000   0.77837822   -7.4021906    780.03829  0.021916113  0.021523192            4 
 2967000   0.78397998   -7.4001577    779.66162  0.021898147   0.02151695            8 
 2968000   0.78138822   -7.3991097    780.17738   0.02190525  0.021510684            5 
 2969000   0.76829326   -7.3936101    778.32375  0.021845845  0.021504449            6 
 2970000    0.7622413   -7.4194568    778.21565  0.021835456  0.021498179            5 
 2971000   0.77650232   -7.4010931    776.59045  0.021782521   0.02149191           11 
 2972000   0.76689372   -7.4058399    779.17819  0.021847751  0.021485647            5 
 2973000   0.77217413   -7.3842017    778.10128  0.021810216  0.021479422            4 
 2974000   0.77656739   -7.4231953    779.16435  0.021832671  0.021473181            6 
 2975000   0.77848784   -7.4173897    779.31831  0.021829645  0.021466939            8 
 2976000   0.77962572   -7.4015993    777.96674  0.021784463  0.021460678            8 
 2977000   0.77789286   -7.4162182    778.49849   0.02179203  0.021454433            2 
 2978000   0.77316889   -7.3619536    778.26623  0.021778213  0.021448198            3 
 2979000   0.79595663   -7.3645207    779.79883  0.021813775  0.021441976            5 
 2980000   0.77898886   -7.4009928    780.13505  0.021815857  0.021435772            6 
 2981000   0.79187814   -7.4168838    779.90309  0.021802054  0.021429523            5 
 2982000   0.77203651   -7.4084563    779.24656  0.021776396  0.021423295            6 
 2983000   0.76069354   -7.4186796    779.50232  0.021776241  0.021417043            6 
 2984000    0.7591865   -7.4088778    779.86931  0.021779192  0.021410825            4 
 2985000   0.78899038   -7.3974245    781.30445  0.021811961  0.021404608            5 
 2986000   0.77471964   -7.3716322    780.55339  0.021783696    0.0213984            3 
 2987000   0.76823818   -7.4178575    778.46899  0.021718251  0.021392163            5 
 2988000   0.76844132   -7.3900224    778.37102   0.02170825   0.02138588            9 
 2989000    0.7701999   -7.3954388    777.91439  0.021688257  0.021379596           14 
 2990000   0.77370886   -7.3598307    780.17973   0.02174414  0.021373357            6 
 2991000   0.76757616   -7.3876886     779.3288  0.021713162  0.021367121            3 
 2992000   0.78024667   -7.4095403    779.79387  0.021718858  0.021360883            7 
 2993000    0.7605925   -7.4119236     779.5816  0.021705691  0.021354653            4 
 2994000   0.74652811   -7.3927597     782.4698   0.02177883  0.021348455            6 
 2995000   0.76879732   -7.3731017    781.58419  0.021746917  0.021342237            6 
 2996000   0.77801779   -7.4372997    781.23658  0.021729989   0.02133603            5 
 2997000   0.77355506   -7.3943853     781.5895  0.021732552  0.021329817            6 
 2998000   0.79042568   -7.4207869    780.88491  0.021705718  0.021323632            8 
 2999000   0.75718853   -7.3671723    780.35733   0.02168382  0.021317416            5 
 3000000   0.78309326   -7.4353861    779.59237  0.021655344  0.021311182            6 
 3001000   0.75518131   -7.4296301    779.16624  0.021636294  0.021304958            4 
 3002000   0.78135381   -7.4171851    780.06779  0.021654114  0.021298719            3 
 3003000   0.79054011   -7.4433375    779.34845  0.021626941  0.021292498            4 
 3004000   0.78167123    -7.412623    780.17912  0.021642785  0.021286296            8 
 3005000   0.75446815   -7.3915434    780.29942  0.021638919  0.021280114            5 
 3006000   0.78492831   -7.3696756    781.25225  0.021658135  0.021273923            4 
 3007000   0.76928628   -7.4151592    780.47589  0.021629417  0.021267761            5 
 3008000   0.77056485   -7.4127401    783.17072  0.021696884  0.021261596            2 
 3009000   0.75975782    -7.415159     782.1149  0.021660433  0.021255432            3 
 3010000   0.77971594   -7.4115341    781.36841  0.021632569  0.021249297            4 
 3011000   0.77267862   -7.4011924     782.2986  0.021651129  0.021243155            6 
 3012000   0.76192761   -7.4037424    782.10643  0.021638624  0.021236978            3 
 3013000   0.76406747   -7.4201826    783.29928  0.021664434   0.02123083            6 
 3014000   0.78742705   -7.4104893    782.22376  0.021627509  0.021224673           10 
 3015000   0.77014652   -7.4466072    780.38245  0.021569443  0.021218502            6 
 3016000   0.77579358   -7.4127089    782.28018  0.021614726  0.021212343            7 
 3017000   0.78662489   -7.4106527    782.12198  0.021603192  0.021206203            6 
 3018000   0.75940854   -7.3685183    783.41773  0.021631813  0.021200119            4 
 3019000   0.78299323   -7.4005815      783.151  0.021617285  0.021194045            8 
 3020000   0.77394216   -7.4099735    782.33793  0.021587691  0.021187928            4 
 3021000   0.77537703   -7.4198929    783.22816  0.021605102  0.021181825            5 
 3022000   0.76959243   -7.4166397    783.23897  0.021598251  0.021175707            6 
 3023000   0.77397634   -7.4266951     784.7063  0.021631555  0.021169594            8 
 3024000    0.7620791   -7.3915537    783.91238  0.021602524  0.021163502            5 
 3025000   0.78696226   -7.4006411    783.91414  0.021595431  0.021157427            5 
 3026000   0.77738308   -7.3950373    783.46355  0.021575886  0.021151371           12 
 3027000   0.75701279   -7.4137592    783.99282  0.021583328  0.021145306           11 
 3028000   0.77342333    -7.410675    784.49045  0.021589896  0.021139251            4 
 3029000   0.77005202   -7.3992695    786.24646  0.021631079  0.021133181            4 
 3030000   0.76389037   -7.3905734    782.63878  0.021524719  0.021127102            7 
 3031000   0.76599791   -7.4155946    782.15993  0.021504452  0.021121008            5 
 3032000   0.76465889   -7.4123974    783.22502  0.021526633  0.021114879            4 
 3033000   0.77833147   -7.4150003     784.0383  0.021541881  0.021108787           10 
 3034000   0.75656022   -7.4039956    781.68832  0.021470235   0.02110267            5 
 3035000   0.76419201   -7.3590183    785.18743  0.021559237  0.021096571            4 
 3036000   0.74128178   -7.3648159    783.54096  0.021506943  0.021090488           10 
 3037000   0.76819781   -7.3485965    785.96822  0.021566464  0.021084416            8 
 3038000   0.75295225   -7.4125072    784.75827  0.021526176  0.021078335            7 
 3039000   0.76790732   -7.4041355    784.94829  0.021524303  0.021072272            6 
 3040000   0.75553942    -7.422029    784.46423  0.021503954  0.021066198            9 
 3041000   0.76734527    -7.424353    783.01528  0.021457176  0.021060088           11 
 3042000   0.76799809   -7.3945169    784.11643  0.021480288   0.02105401            9 
 3043000   0.74895143   -7.3798583    785.41298  0.021508735  0.021047958            8 
 3044000   0.75800996   -7.4080825    783.56281  0.021451019  0.021041873            3 
 3045000   0.76482072   -7.4133406    782.62024  0.021418178  0.021035777            6 
 3046000   0.76069895   -7.4052334    784.23596   0.02145535  0.021029676            7 
 3047000    0.7569713   -7.4122252    784.79974  0.021463728  0.021023602            6 
 3048000   0.75796856   -7.4192712    786.45878  0.021502045   0.02101755            5 
 3049000   0.77024208   -7.4058267    785.43289  0.021466953  0.021011518            4 
 3050000   0.75985954   -7.3851072    783.85084   0.02141669  0.021005449            6 
 3051000   0.76324771   -7.4247627    785.30035  0.021449261  0.020999359            6 
 3052000    0.7688759   -7.3912638    786.60994  0.021477991  0.020993266            4 
 3053000    0.7743342   -7.3923777     784.4821  0.021412875  0.020987198            6 
 3054000   0.75799951   -7.4152813    785.61122  0.021436674  0.020981109            6 
 3055000   0.78080876   -7.4433141     785.0595  0.021414607  0.020975031            4 
 3056000   0.74041729   -7.4122919    783.64425  0.021369008  0.020968927           12 
 3057000   0.75157617   -7.4261355    784.92458  0.021396919  0.020962803            3 
 3058000    0.7487419   -7.4160364    785.34225  0.021401304  0.020956671            4 
 3059000   0.75700576   -7.4465579    784.40331  0.021368729  0.020950547            6 
 3060000   0.74652638   -7.4594914    784.45838  0.021363246  0.020944407            6 
 3061000   0.76293202   -7.4114334    785.02626  0.021371726  0.020938294            5 
 3062000   0.76020678   -7.4323862    782.77386  0.021303447  0.020932191            8 
 3063000   0.76011916   -7.4427142    784.73217  0.021349771  0.020926086            4 
 3064000   0.76003061   -7.4370769     785.4233    0.0213616   0.02091999            8 
 3065000   0.76088917   -7.4285872     786.0834  0.021372577   0.02091395            5 
 3066000   0.74036284   -7.4064044    786.94126  0.021388923  0.020907921            5 
 3067000   0.75803918   -7.4291374    786.58243  0.021372199  0.020901917            7 
 3068000   0.78196139   -7.4348756    784.65312  0.021312829  0.020895891            4 
 3069000   0.77215452   -7.4349159    785.47122  0.021328099  0.020889837            3 
 3070000   0.73140982   -7.4515856    784.93865  0.021306695  0.020883764            6 
 3071000   0.74109872   -7.4160766     786.3802  0.021338874  0.020877702            9 
 3072000   0.74960919    -7.414113    784.98005  0.021293947   0.02087166            5 
 3073000   0.74518548   -7.4029629    785.87366   0.02131125  0.020865621            4 
 3074000    0.7691181   -7.4282668    785.42017  0.021292024  0.020859542           11 
 3075000   0.75511459   -7.4385037    785.02947  0.021274511  0.020853455            9 
 3076000   0.76298444   -7.4177838    786.49555  0.021307313  0.020847369            5 
 3077000   0.76364642   -7.4358474    785.52953  0.021274226  0.020841318            6 
 3078000   0.76611368   -7.4287296    786.63225  0.021297169  0.020835289            3 
 3079000   0.76598962   -7.4230973    785.69103  0.021264778  0.020829258            6 
 3080000   0.75691135   -7.4422502    787.01602  0.021293724  0.020823219            4 
 3081000    0.7719499   -7.4181297    787.27445  0.021293802  0.020817201            6 
 3082000   0.75002244   -7.4364128    786.11893  0.021255649  0.020811162            8 
 3083000   0.75193153   -7.4057755    786.34002  0.021254731  0.020805169            3 
 3084000   0.75510302   -7.4521947    784.72245   0.02120413   0.02079914            4 
 3085000   0.74407134   -7.4137528    787.87559  0.021282431  0.020793115            4 
 3086000   0.74644419   -7.4159473    786.02717   0.02122562  0.020787073           13 
 3087000   0.75911202    -7.417261    786.18557   0.02122302  0.020781029            9 
 3088000   0.75659151   -7.4250108    787.39632  0.021248821  0.020774986            7 
 3089000   0.74477576   -7.4178242    787.28497  0.021238938  0.020768959            6 
 3090000   0.74261237   -7.4182475    786.80165   0.02121903  0.020762961           14 
 3091000   0.76222617   -7.4313242    787.86817  0.021240919  0.020756964           13 
 3092000   0.75104997   -7.3869762    787.49048   0.02122387  0.020750957            8 
 3093000   0.75110331    -7.437269    786.88019  0.021200566  0.020744958            5 
 3094000   0.75080613     -7.41649    786.24794  0.021176684  0.020738924            7 
 3095000   0.76617603   -7.4537805    785.98083   0.02116265   0.02073288            5 
 3096000   0.75617238    -7.423535    785.07479  0.021131428  0.020726834            4 
 3097000   0.74834636   -7.4676176    785.20887  0.021128212  0.020720799            3 
 3098000   0.77430955   -7.4177199    786.52099  0.021156687  0.020714748            6 
 3099000    0.7564182   -7.4256329    785.04906  0.021110279  0.020708696            5 
 3100000   0.75251866   -7.4225812    787.74244  0.021175872  0.020702648            4 
 3101000   0.76103783   -7.4689222    784.88125  0.021092154   0.02069659            4 
 3102000   0.73846395   -7.4266756    787.19589  0.021147536  0.020690523            4 
 3103000   0.74858345   -7.4498664    785.14603  0.021085671  0.020684453            4 
 3104000   0.75160452   -7.4423256    787.55002  0.021143418  0.020678415            5 
 3105000    0.7459363   -7.4209331    785.60966  0.021084532  0.020672382            3 
 3106000   0.74692564   -7.4703181    786.65108  0.021105685  0.020666339            4 
 3107000   0.73889621   -7.4486772    786.56528   0.02109659  0.020660307            6 
 3108000   0.76573984   -7.4450164    786.31224  0.021083018  0.020654271            8 
 3109000   0.78287889   -7.4676494    787.03209  0.021095531  0.020648211            4 
 3110000   0.74647748   -7.4730832    786.57049   0.02107638  0.020642141            7 
 3111000   0.76073104   -7.4338054    787.29075  0.021088898  0.020636083           11 
 3112000   0.74669326   -7.4337956    787.70256  0.021093149  0.020630048            3 
 3113000   0.75787886   -7.4589112    787.51386  0.021081322  0.020624021            6 
 3114000   0.74567685   -7.4328897    788.57797  0.021103029  0.020618012            4 
 3115000   0.74935353   -7.4518957    787.92731  0.021078847  0.020611985            4 
 3116000   0.75348029   -7.4599815    786.16849  0.021025045  0.020605958            7 
 3117000   0.75581653   -7.4616107    786.31757  0.021022285  0.020599908            7 
 3118000   0.75806479    -7.447796    788.58398  0.021076117   0.02059386            5 
 3119000   0.75845687   -7.4384821     786.2345  0.021006586  0.020587829            6 
 3120000   0.76829583   -7.4313323    787.20045  0.021025653  0.020581819            5 
 3121000   0.76012858   -7.4463871    787.66252  0.021031254  0.020575826            5 
 3122000   0.73466876   -7.4458635    787.02038  0.021007377  0.020569796            3 
 3123000   0.75485166   -7.4494222    786.18094  0.020978251  0.020563767            6 
 3124000   0.75180389   -7.4452343    787.70456  0.021012179  0.020557757            7 
 3125000   0.74836962   -7.4348812    787.13238  0.020990197  0.020551753            4 
 3126000   0.74820378   -7.4199464     789.1669  0.021037719  0.020545733            6 
 3127000   0.75985469   -7.4567125    788.46465  0.021012276  0.020539714            4 
 3128000   0.74189214   -7.4492461    787.71264  0.020985524  0.020533704            3 
 3129000   0.73642992   -7.4168093    788.46281  0.020998797   0.02052771            4 
 3130000   0.75788762   -7.4345729    789.54586  0.021020923  0.020521727            3 
 3131000   0.75401738   -7.4539278    789.04011  0.021000748   0.02051572           13 
 3132000   0.75554132   -7.4301827    788.42453  0.020977664  0.020509727            5 
 3133000   0.75497851   -7.4239755    788.59071  0.020975389  0.020503753            8 
 3134000   0.76878795   -7.4191826    789.66059  0.020997144  0.020497789            3 
 3135000   0.75749575     -7.45495    787.66561  0.020937417  0.020491816            9 
 3136000   0.73595196   -7.4288656    789.18619  0.020971147  0.020485816            6 
 3137000   0.75264786   -7.4572971    789.61164  0.020975763  0.020479842            9 
 3138000   0.74505178   -7.4530546    788.75785  0.020946406  0.020473846            7 
 3139000   0.74138772   -7.4235315    788.32934  0.020928357  0.020467842            8 
 3140000   0.75241952   -7.4543101    787.51349   0.02090004  0.020461839            5 
 3141000   0.74157912   -7.4305194    789.43454  0.020944353   0.02045583            7 
 3142000    0.7503553    -7.440492    789.47805  0.020938841  0.020449826            9 
 3143000   0.74228212   -7.4483589    788.48333  0.020905805  0.020443839            8 
 3144000   0.76080221   -7.4524849    789.73056  0.020932214  0.020437871            5 
 3145000   0.73607897   -7.4277166    788.77513  0.020900242  0.020431893            7 
 3146000   0.75161995   -7.4593478    787.79903  0.020867743  0.020425921            7 
 3147000    0.7625018   -7.4247639    789.35742  0.020902379  0.020419936           13 
 3148000   0.75402251    -7.435479    788.62491  0.020876348  0.020413963            7 
 3149000   0.73765151   -7.4464224    789.47989  0.020892344   0.02040798            7 
 3150000    0.7447314   -7.4594817    789.54614  0.020887464  0.020402021            8 
 3151000   0.73219421   -7.4610875     788.5266  0.020853872  0.020396044           14 
 3152000   0.73159941   -7.4254623    789.65974  0.020877214  0.020390086            6 
 3153000   0.73892759   -7.4618121    788.36685  0.020836422  0.020384152            7 
 3154000   0.77209092   -7.4098916    788.71951  0.020839133  0.020378219            8 
 3155000   0.76413172   -7.4352751    789.28623  0.020847497  0.020372268            8 
 3156000   0.76476942   -7.4761967    787.50038  0.020793736  0.020366312            4 
 3157000   0.75739371   -7.4451591    789.94501  0.020851679  0.020360334            6 
 3158000   0.73777076   -7.4312415    790.24359  0.020852955  0.020354367            8 
 3159000   0.74791664   -7.4366088    789.87144  0.020836537  0.020348426            9 
 3160000   0.74744582   -7.4804215    789.60885  0.020823018  0.020342462           13 
 3161000   0.74246568   -7.4606668    787.58295  0.020763022  0.020336508           12 
 3162000   0.73776006   -7.4389276    790.72381  0.020839232  0.020330542            7 
 3163000   0.73560765   -7.4626701    789.98068  0.020813065  0.020324596            7 
 3164000   0.74934098   -7.4505318    790.13781  0.020810625   0.02031865            5 
 3165000   0.75399081   -7.4412948    789.89082  0.020797547  0.020312724            7 
 3166000   0.74997258   -7.4538945    789.52792  0.020781425  0.020306806            6 
 3167000   0.73729694   -7.4479159    791.13103  0.020817046  0.020300881            8 
 3168000   0.74201213   -7.4412747    790.99181  0.020806813  0.020294968            9 
 3169000   0.73592877   -7.4445352    791.25217  0.020807094  0.020289056            5 
 3170000    0.7481754   -7.4353663    790.65644   0.02078487  0.020283156            8 
 3171000   0.73620753   -7.4584841    792.38176  0.020823656  0.020277248            5 
 3172000   0.73584227   -7.4624294    789.06017  0.020729828  0.020271334            5 
 3173000   0.75388033   -7.4356619    790.03809  0.020748978  0.020265419            8 
 3174000    0.7402589    -7.449002    790.66038  0.020758779  0.020259491            4 
 3175000   0.74490152   -7.4507623    790.83885  0.020756925  0.020253575            4 
 3176000   0.75212794   -7.4437783    789.18515  0.020706999  0.020247637           11 
 3177000   0.73462562   -7.4578209    790.84368  0.020743985  0.020241726            9 
 3178000   0.74233897    -7.451884    790.80542  0.020736454  0.020235794           12 
 3179000   0.73920771   -7.4599401    789.59039  0.020698081  0.020229865           16 
 3180000   0.75041881     -7.46338    788.53532  0.020663924  0.020223926           14 
 3181000   0.73241222   -7.4707198    790.53539  0.020709824  0.020217992           11 
 3182000   0.73370362   -7.4430969    790.88747  0.020712536  0.020212076           14 
 3183000   0.74531596   -7.4688552    791.31666  0.020717265  0.020206159            9 
 3184000   0.73511587    -7.453929    791.36132  0.020711927  0.020200272            6 
 3185000    0.7464693   -7.4487927    791.53816  0.020710051  0.020194378            6 
 3186000   0.73860782   -7.4717393    791.22525  0.020695367  0.020188479           11 
 3187000   0.74215753   -7.4601765    789.79902   0.02065158    0.0201826            7 
 3188000   0.74326702   -7.4558081    790.84014  0.020672317    0.0201767            6 
 3189000   0.74210368   -7.4313044    792.77702  0.020716448  0.020170818            5 
 3190000   0.73400107   -7.4679804    790.74793  0.020656947  0.020164949            5 
 3191000   0.74619227   -7.4784272    790.92983  0.020655224  0.020159035            7 
 3192000    0.7328646   -7.4811724    791.26336   0.02065746   0.02015313            5 
 3193000   0.72849674   -7.4744967    791.29211  0.020651741   0.02014723            6 
 3194000   0.75201365   -7.4881295    790.56574  0.020626324  0.020141327            4 
 3195000   0.73865637   -7.4938577    790.20293  0.020610405  0.020135429            4 
 3196000   0.74221409   -7.4699061    790.44271  0.020610208  0.020129537            3 
 3197000   0.73720172   -7.4610237    792.81652  0.020665638  0.020123657           18 
 3198000   0.73357937   -7.4637576    791.39738  0.020622196  0.020117777            4 
 3199000   0.73183252   -7.4573356    791.65451  0.020622447  0.020111924            6 
 3200000     0.748741   -7.4433927    792.27319  0.020632114  0.020106068            3 
 3201000   0.74508034    -7.474914    791.27971  0.020599805  0.020100193            5 
 3202000   0.73217897   -7.4697887    792.68705  0.020629998   0.02009433            6 
 3203000     0.740546   -7.4737516    791.29373  0.020587307  0.020088464            6 
 3204000   0.74177666   -7.4738124    791.50456  0.020586365  0.020082594            6 
 3205000   0.74260179   -7.4436468    791.03909  0.020567839  0.020076722            6 
 3206000   0.74457309   -7.4994163    791.54981  0.020574699   0.02007085            6 
 3207000   0.73394652   -7.4532851    791.45631  0.020565854  0.020064998            4 
 3208000   0.73470216   -7.4611484    793.76635   0.02061945  0.020059141            4 
 3209000   0.73457498   -7.4832037    791.41681   0.02055201  0.020053291            5 
 3210000   0.73054193    -7.462395    791.66458   0.02055204  0.020047423            6 
 3211000   0.73133315   -7.4755594    792.46261   0.02056635  0.020041545            5 
 3212000   0.73435957   -7.4593666    793.68033   0.02059154  0.020035675            5 
 3213000   0.73338355   -7.4665415    792.03471   0.02054245  0.020029822            9 
 3214000   0.71237842   -7.4359854    794.93587  0.020611281  0.020023985            8 
 3215000   0.73953032   -7.4711872    792.34199  0.020537636  0.020018161            7 
 3216000    0.7440231   -7.4767933    793.52939  0.020562018  0.020012325            5 
 3217000    0.7286788   -7.4608103    793.09717   0.02054443  0.020006508            7 
 3218000   0.75931263   -7.4741277    791.56696  0.020498419  0.020000675           10 
 3219000   0.75741191   -7.4714702    793.47668   0.02054149  0.019994822           13 
 3220000   0.72263875   -7.4945225    793.12534  0.020526018  0.019988974           11 
 3221000   0.74144781   -7.5078411    791.91178  0.020488248  0.019983111            6 
 3222000   0.72999399   -7.4622787    793.11648  0.020513048  0.019977255            8 
 3223000   0.72289232    -7.474597     792.5337  0.020491615  0.019971426            4 
 3224000   0.70938352    -7.502073    794.78368  0.020543416  0.019965589           17 
 3225000   0.73576545   -7.4510804    792.96848  0.020490141  0.019959757           16 
 3226000   0.75360218   -7.5038092    792.62244  0.020474851  0.019953936            6 
 3227000   0.73523135   -7.4996298    794.31507  0.020512217  0.019948098            5 
 3228000   0.73122804     -7.48754    794.28162  0.020504998  0.019942245            7 
 3229000   0.74021538   -7.4574948    793.72138   0.02048419   0.01993644            5 
 3230000     0.732457   -7.4969924    794.06171  0.020486628   0.01993062            6 
 3231000   0.73526969    -7.482698    793.17108  0.020457317  0.019924797            6 
 3232000   0.73869444   -7.4594457    794.16109  0.020476513  0.019918979            4 
 3233000   0.71991502   -7.4900263    793.48259  0.020452691  0.019913173            9 
 3234000   0.73712039   -7.4801484    794.09495  0.020462146  0.019907342            7 
 3235000   0.72607411   -7.4668855    793.93989  0.020451826  0.019901515           18 
 3236000   0.73644623     -7.47584     793.0858  0.020423511  0.019895687            7 
 3237000   0.73770103   -7.4766362    792.20051  0.020394411  0.019889854           11 
 3238000   0.74908269    -7.486118    794.43058  0.020445506  0.019884047            4 
 3239000   0.74015203   -7.4914892    794.67435  0.020445465  0.019878224            4 
 3240000    0.7398783   -7.4765879    793.61977  0.020412031  0.019872411           10 
 3241000   0.72590932   -7.4707007    794.08267  0.020417635   0.01986659            6 
 3242000   0.71979353   -7.4879684    793.01829  0.020383978  0.019860768            5 
 3243000   0.72792172   -7.4443029    793.94353  0.020401468  0.019854947           17 
 3244000    0.7443227   -7.4579453    793.88926  0.020393785  0.019849159            5 
 3245000    0.7518166   -7.4878176    793.08963  0.020366965   0.01984335            7 
 3246000   0.73185439   -7.4814823    793.49883  0.020371196   0.01983752            6 
 3247000   0.71913304   -7.4759832    794.52767  0.020391327  0.019831696            8 
 3248000   0.73556726   -7.4895021    794.71277  0.020389798  0.019825853            6 
 3249000   0.75496504   -7.4973913    794.05652   0.02036669  0.019820031            6 
 3250000   0.73162805   -7.5012151    793.26745  0.020340191  0.019814211           10 
 3251000   0.71673459   -7.5014825    793.77803  0.020347022  0.019808353            6 
 3252000   0.73049789   -7.4947668     793.5568  0.020335096  0.019802526           16 
 3253000   0.73363505   -7.5024458     793.0869  0.020316808  0.019796702            6 
 3254000   0.74234155   -7.4853833    793.42835  0.020319308  0.019790859            7 
 3255000   0.73618249   -7.4891777    794.50229   0.02034056  0.019785012            6 
 3256000   0.71048279   -7.5010012    792.72907   0.02028893  0.019779178            6 
 3257000   0.72342495   -7.4677856    793.34846  0.020298548  0.019773355            3 
 3258000   0.73604472   -7.4717967    793.90376  0.020306521  0.019767513            4 
 3259000   0.72158211    -7.486139    794.29448  0.020310281  0.019761673            6 
 3260000    0.7296381   -7.4771621    794.33118  0.020304989  0.019755848            7 
 3261000   0.73177136    -7.481771    793.52533   0.02027817  0.019750008            4 
 3262000   0.71979421   -7.4782959    795.28546  0.020316918  0.019744177            7 
 3263000    0.7367315   -7.5199526    792.73269  0.020245497  0.019738318            4 
 3264000   0.73164409   -7.4914501    792.64555   0.02023707  0.019732479            6 
 3265000   0.73450392   -7.4984255    792.44001  0.020225626  0.019726628            6 
 3266000   0.72373528   -7.4813965    792.52723  0.020221658  0.019720804            5 
 3267000   0.72420698   -7.4690421    792.96201  0.020226559  0.019714981            7 
 3268000   0.72825298   -7.5050215     793.0534    0.0202227  0.019709168            5 
 3269000   0.74337233   -7.4995387    793.60648  0.020230613  0.019703357            5 
 3270000   0.72336666   -7.4931396    794.83927  0.020255843  0.019697552            5 
 3271000   0.71815715   -7.5047185    792.88261  0.020199801  0.019691727            6 
 3272000   0.72537687    -7.491809    793.70921   0.02021468  0.019685894            4 
 3273000   0.71196002   -7.5217224    791.77299  0.020159206  0.019680058            3 
 3274000   0.74019534   -7.5049975    792.52479  0.020172185   0.01967421            5 
 3275000   0.73589983   -7.4743389    792.90708  0.020175753  0.019668362            6 
 3276000   0.73063074   -7.4973078     793.1781  0.020176488  0.019662537            7 
 3277000   0.71885061   -7.4917878    793.42051  0.020176495  0.019656672            5 
 3278000   0.72973206   -7.5157932    793.29536  0.020167159   0.01965081            6 
 3279000   0.72281613   -7.5108916    794.41335  0.020189421  0.019644956            5 
 3280000   0.73689103   -7.4972552    793.75091  0.020166436  0.019639103            3 
 3281000    0.7247404   -7.4948218     792.7923  0.020135942  0.019633258            7 
 3282000   0.72085804   -7.4969436    793.45528   0.02014664  0.019627413            9 
 3283000   0.74185389   -7.4982153    792.29299  0.020111001  0.019621582            9 
 3284000   0.73604374   -7.5095376    794.03462  0.020149072   0.01961576            5 
 3285000   0.73592057   -7.5130264    794.85118  0.020163652  0.019609948           10 
 3286000   0.72740458   -7.5013151    793.96979  0.020135164   0.01960414            6 
 3287000   0.72080286   -7.5054192    793.75505  0.020123594  0.019598344           10 
 3288000   0.73629158   -7.5079136    792.47781  0.020085103   0.01959253            6 
 3289000   0.71063835   -7.4997666    795.08254  0.020144992  0.019586725            7 
 3290000   0.74278313   -7.5091039    795.22584  0.020142499  0.019580923            4 
 3291000   0.72465619   -7.4915408    793.49007  0.020092426  0.019575087            7 
 3292000   0.72640521   -7.4992328    793.23605  0.020079892  0.019569267            6 
 3293000   0.72088319   -7.5056106    794.48923  0.020105507  0.019563479            6 
 3294000   0.72497681    -7.526685    794.38294  0.020096715  0.019557646            6 
 3295000   0.74886213   -7.5378019    793.04202  0.020056703  0.019551818            6 
 3296000   0.73128026   -7.5062053    796.15478  0.020129318  0.019545974            7 
 3297000    0.7261466   -7.5187015    795.47603  0.020106057  0.019540151            4 
 3298000    0.7234056   -7.5367532    795.27893   0.02009498  0.019534305            7 
 3299000   0.72109161   -7.5105466    794.64353  0.020072838  0.019528473            6 
 3300000   0.71864576   -7.5053853    792.91521  0.020023111  0.019522634            6 
 3301000   0.73767897   -7.5479691    793.45161  0.020030587  0.019516803            7 
 3302000   0.73330513   -7.5021983    795.57365  0.020078075  0.019510971            7 
 3303000   0.72548426   -7.4804183    794.94052  0.020056023  0.019505143            8 
 3304000   0.71878833   -7.5313529    794.25918  0.020032768  0.019499326            5 
 3305000   0.71998798   -7.5167105    795.21761  0.020050873  0.019493527            9 
 3306000     0.706005   -7.5118663    793.81924  0.020009559  0.019487714           15 
 3307000   0.72249657   -7.5240413    794.67643  0.020025109  0.019481895            8 
 3308000   0.71266871   -7.5173159    794.53833  0.020015577  0.019476085            6 
 3309000   0.71625693    -7.499851    796.00141  0.020046374  0.019470273            5 
 3310000   0.72844638   -7.5143062    793.86557  0.019986545  0.019464456            7 
 3311000   0.71770159   -7.5020204    794.16934  0.019988154  0.019458644           19 
 3312000   0.71039908   -7.4979762    794.19954  0.019982879  0.019452823            7 
 3313000   0.72218036   -7.5024608    795.67522  0.020013966  0.019447034            6 
 3314000   0.71760011   -7.5256599    796.16095   0.02002014  0.019441244            7 
 3315000   0.71817689   -7.4968839    796.21125  0.020015366  0.019435441            6 
 3316000   0.71669427   -7.5013676    793.65574  0.019945108  0.019429635            7 
 3317000   0.70688256   -7.5167035    794.88745  0.019970039  0.019423816           10 
 3318000   0.71645737   -7.5147245     794.1562  0.019945655  0.019418013           14 
 3319000   0.71596959   -7.5122003    794.29984  0.019943252  0.019412229            7 
 3320000   0.71576349   -7.5359974    793.70307  0.019922266  0.019406451            6 
 3321000    0.7053629   -7.4942596    796.11865  0.019976881  0.019400692            8 
 3322000   0.72997359   -7.5031546    795.03394  0.019943657  0.019394909            9 
 3323000   0.71642075   -7.5178115    794.65401  0.019928127  0.019389117           16 
 3324000   0.73633704   -7.4994626    795.23231   0.01993663  0.019383332            4 
 3325000   0.72388952    -7.501028    795.73155  0.019943147  0.019377572            7 
 3326000   0.71744638    -7.511823    796.74587  0.019962564  0.019371819            4 
 3327000   0.71930994   -7.4816307    797.24499  0.019969066  0.019366075            5 
 3328000   0.71733663   -7.4918396      796.772  0.019951222  0.019360336            6 
 3329000   0.71188188   -7.5045078    796.65951  0.019942413   0.01935458            4 
 3330000   0.73790002   -7.4588681    795.39578  0.019904799  0.019348826            8 
 3331000   0.72326888   -7.5206972    794.79972  0.019883912  0.019343069            4 
 3332000   0.72242857    -7.516048    793.95288  0.019856765    0.0193373            7 
 3333000   0.70774231   -7.5197762     794.8973   0.01987442  0.019331536           11 
 3334000   0.72418598   -7.5020404     795.5402  0.019884528  0.019325757           13 
 3335000   0.73894715   -7.5169299    796.57145  0.019904334  0.019319969            4 
 3336000   0.72121725   -7.5228842     796.2349  0.019889961  0.019314204           13 
 3337000   0.71902913   -7.5150484    796.62151  0.019893655   0.01930842            9 
 3338000   0.72433286   -7.5178281    793.62114   0.01981279  0.019302637            7 
 3339000   0.72686286   -7.5425012    795.55039  0.019855006  0.019296884            5 
 3340000   0.71906649   -7.5173997    794.12422  0.019813479   0.01929111            5 
 3341000   0.71489328   -7.5426274    793.03487  0.019780377  0.019285309            6 
 3342000   0.70383644     -7.49539     796.0045  0.019848506   0.01927951            5 
 3343000   0.73239169   -7.5065381    796.40368   0.01985252  0.019273735           10 
 3344000   0.70631473   -7.5152136    795.96589  0.019835673  0.019267965            5 
 3345000   0.72490052   -7.4927648    797.00412  0.019855608  0.019262198            8 
 3346000   0.71827514   -7.5166582    793.03947  0.019750933  0.019256427            9 
 3347000   0.71727908    -7.534375    793.80391  0.019764065  0.019250629            4 
 3348000   0.70518455   -7.5364303     795.4202  0.019798392  0.019244857            6 
 3349000   0.72119093   -7.5027005    796.56506  0.019820968    0.0192391            4 
 3350000   0.71171627   -7.4908148    797.01408  0.019826221  0.019233358            4 
 3351000   0.72145972   -7.5182675    795.28962   0.01977742  0.019227618            7 
 3352000   0.72866849    -7.500606     795.4195  0.019774749  0.019221889            5 
 3353000   0.70447211   -7.4924405    796.77529  0.019802547  0.019216147            5 
 3354000   0.72158403    -7.516709    796.05677  0.019778791  0.019210411            4 
 3355000    0.7345068    -7.542598    794.42592  0.019732388  0.019204666            5 
 3356000   0.73432242   -7.5268001    795.62682  0.019756327  0.019198904           10 
 3357000   0.71869222   -7.5069078     796.5805  0.019774116  0.019193168            6 
 3358000   0.70730336   -7.5383145    797.38464  0.019788183   0.01918744            5 
 3359000   0.72028897   -7.4927354     796.7804  0.019767302  0.019181722            7 
 3360000   0.71053434     -7.52794    797.12636  0.019769999  0.019176005            8 
 3361000   0.71812113   -7.5118541     796.4034  0.019746192  0.019170286            5 
 3362000   0.71908426   -7.5550863      796.688  0.019747373  0.019164544            5 
 3363000   0.71615898   -7.5319695    796.02062  0.019724963  0.019158796            8 
 3364000   0.72656118   -7.5410763    794.45971  0.019680433  0.019153031           14 
 3365000   0.71226643   -7.5628717    797.42986  0.019748139  0.019147263            7 
 3366000   0.69220949   -7.5423686    794.19843  0.019662271  0.019141513           12 
 3367000   0.71151851   -7.5358098    796.55836  0.019714839  0.019135773            8 
 3368000   0.71968532   -7.5495816    796.21928  0.019700596  0.019130035           15 
 3369000   0.71337593   -7.5261793    795.40792  0.019674679  0.019124307            5 
 3370000   0.70844049   -7.5430536    794.30178  0.019641488  0.019118587           10 
 3371000   0.69872635   -7.5298056    797.63181  0.019717982  0.019112854            3 
 3372000   0.71102259   -7.5253451    796.85449  0.019692924  0.019107144            9 
 3373000   0.71073475   -7.5355637    796.36811   0.01967507  0.019101438            8 
 3374000   0.72149129   -7.5501678    797.43867   0.01969568  0.019095714           11 
 3375000   0.69984076   -7.5102097    796.92086  0.019677058  0.019089997            8 
 3376000   0.71462133   -7.5341488    795.30678  0.019631388  0.019084299            7 
 3377000   0.71182688   -7.5101816    795.99473  0.019642551  0.019078606           12 
 3378000   0.70348176   -7.5335223    797.02619  0.019662181  0.019072888           11 
 3379000   0.70990151   -7.5223445    797.39271  0.019665402  0.019067195            9 
 3380000     0.697243   -7.5234963    796.80577  0.019645113  0.019061485           14 
 3381000   0.70803443   -7.5211408    796.26866  0.019626064  0.019055782           12 
 3382000   0.70535384   -7.5294818    796.80869  0.019633567  0.019050077           10 
 3383000   0.71922843   -7.5359987      797.093  0.019634767  0.019044358            7 
 3384000   0.70937403   -7.5219307    797.39349  0.019636364  0.019038683            6 
 3385000   0.71697307   -7.5141834    797.08017   0.01962285  0.019033015            5 
 3386000   0.71407985    -7.525188    796.69979  0.019607693  0.019027344            8 
 3387000   0.73036375   -7.5044132     796.3384  0.019593012  0.019021662            6 
 3388000   0.70621147    -7.542987    797.21745  0.019608851  0.019015962           14 
 3389000   0.72487516   -7.5368473    796.83784  0.019593731  0.019010279            6 
 3390000   0.71017471   -7.5078631     797.0484  0.019593127  0.019004595            7 
 3391000   0.71447768   -7.5296254    796.89711  0.019583631  0.018998941           14 
 3392000   0.71746333   -7.4962598    796.46206  0.019567169  0.018993263           12 
 3393000   0.69778305   -7.5298207    797.96469  0.019598307  0.018987587            8 
 3394000   0.70962541   -7.5342162     796.3967  0.019554034  0.018981912           15 
 3395000   0.70618988   -7.5104128    796.80465  0.019558288  0.018976244            4 
 3396000   0.71460582   -7.5128161    797.04689  0.019558473  0.018970578            6 
 3397000   0.71196434    -7.539711     795.7059  0.019519819  0.018964893            5 
 3398000   0.70782632   -7.5448711    797.81709   0.01956585  0.018959203            8 
 3399000   0.70616385   -7.5289502    796.62871  0.019530958  0.018953496            4 
 3400000   0.71049883   -7.5720679    795.87417   0.01950672   0.01894778           14 
 3401000    0.7209434   -7.5284685    798.06743  0.019554725  0.018942071            2 
 3402000     0.709192   -7.5518419    797.68664  0.019539649  0.018936372            8 
 3403000   0.71295295   -7.5447703    796.80667  0.019512359  0.018930677           11 
 3404000   0.71069249   -7.5360315    797.80551  0.019531079  0.018924966            9 
 3405000   0.69913418   -7.5476564    796.99671  0.019505548  0.018919263            6 
 3406000   0.70507534   -7.5346168    796.15661  0.019479267  0.018913571            6 
 3407000   0.71570901   -7.5625147    798.43509   0.01952928  0.018907871           12 
 3408000   0.71429628   -7.5137612    796.33644  0.019472233   0.01890217            6 
 3409000   0.70851149    -7.532052     797.5279  0.019495646   0.01889647            7 
 3410000   0.71570044   -7.5348281    797.10839  0.019479677  0.018890757            4 
 3411000   0.70284611   -7.5412067    795.94093  0.019445444  0.018885054           10 
 3412000   0.70103816   -7.5591149    797.52078  0.019478331  0.018879339            8 
 3413000   0.69358595   -7.5364587    796.74286   0.01945363  0.018873597            4 
 3414000   0.71347842    -7.554491    795.89502  0.019427236  0.018867886            9 
 3415000   0.70250971   -7.5368609     795.6772  0.019416232  0.018862165            9 
 3416000    0.7132693   -7.5458367    795.23124  0.019399669  0.018856454            7 
 3417000    0.6996014    -7.527705     796.5391  0.019425888  0.018850739            6 
 3418000   0.71296638   -7.5450413    796.13636  0.019410385  0.018845023           10 
 3419000   0.69700001   -7.5466205    796.67829  0.019417917  0.018839299            7 
 3420000   0.68223978   -7.5324336    797.91506  0.019442375  0.018833586            8 
 3421000   0.70261992   -7.5355717    795.95471  0.019388939  0.018827896           12 
 3422000   0.69990196   -7.5283891    797.32362  0.019416609  0.018822217            4 
 3423000   0.70543547   -7.5236637    799.91439  0.019474009  0.018816563            8 
 3424000   0.70699628   -7.5125024    796.83906  0.019393474  0.018810897            5 
 3425000   0.70465972   -7.5441031    796.57207  0.019381316  0.018805241            6 
 3426000   0.70925215   -7.5572422    796.80717  0.019381377  0.018799575            5 
 3427000   0.69648848   -7.5414699    798.67321  0.019421097  0.018793915            9 
 3428000    0.6886296   -7.5061859    799.03677   0.01942427  0.018788259            7 
 3429000   0.70846648   -7.5505149    799.83729   0.01943806  0.018782617            5 
 3430000   0.68803899   -7.5450782    798.22666  0.019393262  0.018776962            4 
 3431000   0.70257249   -7.5360375    798.13578  0.019385402  0.018771323            7 
 3432000   0.71585527   -7.5547219    797.78455  0.019371225  0.018765661            5 
 3433000   0.70539731   -7.5798778    797.47414  0.019358048  0.018760014            7 
 3434000   0.69687565   -7.5526613     797.0882  0.019343045  0.018754369            9 
 3435000   0.70845807   -7.5099064    800.18004  0.019412422  0.018748739            2 
 3436000   0.70797851   -7.5265127    798.05652  0.019355271   0.01874312            7 
 3437000   0.70384894   -7.5636369    797.71199  0.019341286   0.01873749            7 
 3438000    0.6927683   -7.5509204    797.16987   0.01932252   0.01873182            6 
 3439000   0.69623283   -7.5714704    798.29222  0.019344098  0.018726154            6 
 3440000   0.69172159   -7.5509502    798.71071  0.019348612  0.018720507            6 
 3441000   0.70165891   -7.5580173    798.59362  0.019340154   0.01871485            4 
 3442000   0.68227221   -7.5497842    799.32701  0.019352291  0.018709199           12 
 3443000   0.70874897   -7.5569642    796.92736  0.019288589  0.018703552            5 
 3444000   0.69373126   -7.5694234    798.19596  0.019313685  0.018697902            6 
 3445000   0.69959509    -7.563776    796.69634  0.019271803  0.018692239            7 
 3446000   0.70598377   -7.5386322    797.30369  0.019280898  0.018686586            4 
 3447000   0.69847292    -7.594019    798.43814   0.01930273  0.018680937           11 
 3448000    0.6904855   -7.5435991    798.55497  0.019299956  0.018675303            7 
 3449000   0.69315087   -7.5763289    797.34379  0.019265096  0.018669657            4 
 3450000   0.69259636   -7.5635215    799.31971  0.019307239  0.018664008            7 
 3451000   0.69598117    -7.577193    796.35258  0.019229996  0.018658363            4 
 3452000    0.6997943   -7.5509144    799.47922  0.019299904  0.018652733            9 
 3453000   0.70750844   -7.5449012      798.615  0.019273458  0.018647119            5 
 3454000   0.68800541   -7.5393961    798.13009  0.019256179  0.018641511           12 
 3455000   0.70162984   -7.5649131    798.94382  0.019270232  0.018635889           12 
 3456000   0.68511651   -7.5368244    798.79237  0.019261004  0.018630254            7 
 3457000   0.69464476   -7.5712098    798.06506    0.0192379  0.018624646            7 
 3458000    0.7146448   -7.5545594     798.1979  0.019235538  0.018619012            6 
 3459000   0.69962133   -7.5659315     797.3329  0.019209138  0.018613365            7 
 3460000   0.70665561   -7.5669292     796.7609   0.01918981  0.018607717            7 
 3461000   0.69315746   -7.5808068    797.70481  0.019206992  0.018602065            5 
 3462000   0.70134033   -7.6017274    796.55117  0.019173675  0.018596409            6 
 3463000   0.70289613   -7.5526799    797.06115  0.019180411   0.01859073           15 
 3464000   0.70616603   -7.5730634    799.63816  0.019236869  0.018585082           11 
 3465000   0.68437211   -7.5821487    798.25924  0.019198154  0.018579416           11 
 3466000   0.69185941   -7.5773106    797.58022  0.019176289  0.018573764           11 
 3467000   0.69785407   -7.5686424    797.95167  0.019179686   0.01856811            6 
 3468000   0.68181955   -7.5745308    797.56282  0.019164812   0.01856246            6 
 3469000   0.69914699   -7.5595275    799.37397  0.019202795  0.018556813           10 
 3470000   0.69817754   -7.5708708    796.64444  0.019131711   0.01855117            5 
 3471000     0.716376   -7.5412164    797.20165  0.019139577  0.018545522            7 
 3472000   0.70956242   -7.6007643    798.56056   0.01916668  0.018539873           13 
 3473000   0.70629078    -7.577902    799.11135  0.019174377  0.018534206            9 
 3474000   0.69404938   -7.5804316    797.61294  0.019132914   0.01852854            7 
 3475000   0.69042058   -7.5770594    798.06609  0.019138276  0.018522886            9 
 3476000   0.69379035    -7.589984    797.16215  0.019111099   0.01851722            8 
 3477000    0.6982588   -7.6003628    796.60253   0.01909219  0.018511545           12 
 3478000   0.69510632   -7.5585451    797.62615  0.019111227  0.018505899            7 
 3479000   0.69512316   -7.5766909    798.73149   0.01913221  0.018500242           11 
 3480000   0.68387291   -7.5605648    798.11641  0.019111983  0.018494604            7 
 3481000   0.68473106   -7.5672674    797.98524  0.019103352  0.018488982            4 
 3482000    0.7093544   -7.5446165    798.24749  0.019104143  0.018483355            7 
 3483000   0.68016408    -7.587024    799.06851  0.019118301  0.018477746            7 
 3484000   0.69847266   -7.5805875    798.61313  0.019101921  0.018472145            9 
 3485000   0.69047943   -7.5853424     798.0363  0.019082647   0.01846651            8 
 3486000   0.67835604    -7.578693    797.58974  0.019066498   0.01846088            5 
 3487000    0.7077468   -7.5951837    797.98406  0.019070453  0.018455229            9 
 3488000   0.70802229   -7.5847056    799.53179  0.019101964  0.018449604            6 
 3489000   0.69397086   -7.5534885     797.8232   0.01905568  0.018443986            5 
 3490000   0.69678483    -7.577943    796.73744  0.019024294  0.018438364            4 
 3491000   0.67871437   -7.5899915    797.18341   0.01902949  0.018432742           11 
 3492000   0.67936452   -7.5782255    797.62102  0.019034484   0.01842711            6 
 3493000   0.69351127   -7.5848203    798.04499   0.01903915  0.018421498            8 
 3494000   0.67479358    -7.571552    798.77282  0.019051059  0.018415878           11 
 3495000   0.69328921   -7.5705228    798.98811  0.019050742  0.018410253            6 
 3496000   0.69348978   -7.5916767    798.89472  0.019043066  0.018404615            7 
 3497000    0.6886227    -7.577715    797.78913  0.019011275  0.018398995           12 
 3498000   0.68415071   -7.5777613    797.70373  0.019003805   0.01839337           14 
 3499000   0.70324449   -7.5968084    797.00385  0.018981706  0.018387766           12 
 3500000   0.68807685   -7.5721213    800.29451  0.019054631  0.018382159           14 
 3501000   0.69199722   -7.5862378     797.5518  0.018983905  0.018376561            6 
 3502000   0.68421948    -7.535766    799.32737  0.019020735  0.018370976            6 
 3503000   0.68390451   -7.5628314    798.20044  0.018988497  0.018365392            7 
 3504000   0.70340911   -7.5700865     799.5762  0.019015796  0.018359815            5 
 3505000   0.69833638   -7.5725215    798.44198  0.018983404  0.018354222           10 
 3506000   0.70152082   -7.5755668    797.43899   0.01895415  0.018348623            8 
 3507000   0.69378256   -7.5658142    797.97065  0.018961378   0.01834302            5 
 3508000   0.69495328   -7.5974282    796.60117  0.018923441  0.018337424            5 
 3509000   0.69866067   -7.5693385    797.57047  0.018941067  0.018331818            5 
 3510000   0.70076819   -7.5754614    798.55653  0.018959082  0.018326208           10 
 3511000   0.67756736   -7.5605631    799.05394  0.018965488  0.018320605           16 
 3512000   0.68274328   -7.5702454    797.57863  0.018925081  0.018315003           10 
 3513000   0.69023002   -7.6045888    797.88847  0.018927044  0.018309379           21 
 3514000   0.69238971   -7.5739575    798.10571   0.01892681  0.018303762           17 
 3515000   0.68566731   -7.5956514    797.15447  0.018898873  0.018298133            7 
 3516000   0.69330421   -7.5877965     797.8168  0.018909196  0.018292536            8 
 3517000   0.69174538    -7.566365    799.10281  0.018934291  0.018286932            9 
 3518000   0.69496007    -7.568509    797.77563  0.018897471   0.01828133            8 
 3519000   0.68217567   -7.5815281    797.47708  0.018885031  0.018275724           14 
 3520000   0.68859376   -7.5725062    797.87283  0.018889035  0.018270115            7 
 3521000   0.67992915   -7.5847662    798.18388  0.018891032  0.018264525            7 
 3522000   0.68872645   -7.5741855    796.47082  0.018845136  0.018258929           12 
 3523000   0.68778594   -7.5799665    796.90829  0.018850135   0.01825331           13 
 3524000   0.68551765   -7.6067617    796.74814  0.018840998  0.018247699            4 
 3525000   0.69493089   -7.6138981    796.96591  0.018840802  0.018242071            7 
 3526000   0.69989712   -7.5953342     797.3575  0.018844713  0.018236449            9 
 3527000   0.68176567   -7.5879032    798.09629  0.018856826  0.018230831           12 
 3528000   0.69340713   -7.5775465    798.41753  0.018859069  0.018225213            5 
 3529000   0.69578399   -7.5949498    797.25553  0.018826285  0.018219583            4 
 3530000   0.69617992   -7.5962292    798.18836  0.018842974  0.018213963            6 
 3531000   0.68819171    -7.586228    797.77315  0.018827838  0.018208341            8 
 3532000   0.66849838   -7.6212985    797.14126  0.018807599  0.018202732            8 
 3533000   0.67795614   -7.6284055    799.27106  0.018852511  0.018197103            7 
 3534000   0.68628205   -7.6057677    796.93675  0.018792132  0.018191494           13 
 3535000   0.68843177   -7.6296104     797.2628  0.018794503  0.018185895            6 
 3536000   0.69387015    -7.597956    797.73558  0.018800329  0.018180302           12 
 3537000   0.67484358   -7.6061977    797.36304  0.018786237  0.018174707            4 
 3538000   0.69594896   -7.6069757    796.60288  0.018763023  0.018169101            8 
 3539000   0.68997272   -7.6063659    797.01884  0.018767515   0.01816351            4 
 3540000   0.68701546   -7.6004215    796.09104  0.018740373  0.018157913            5 
 3541000   0.68173783    -7.597996    797.62542   0.01877119  0.018152332            8 
 3542000   0.69513673   -7.5961371    798.22296  0.018779949  0.018146766           10 
 3543000   0.68237312   -7.6191972    797.55512  0.018758941   0.01814118           10 
 3544000   0.67265138   -7.5998803    797.74361   0.01875808  0.018135591            5 
 3545000   0.68601359   -7.5728756    799.51449  0.018794417  0.018130015            5 
 3546000    0.6790911   -7.6041584     799.1947  0.018781601  0.018124434           11 
 3547000   0.68316412   -7.6055563    798.50358  0.018760069  0.018118854            5 
 3548000   0.68259827   -7.6145605    797.94046  0.018741555  0.018113244            9 
 3549000   0.67019212   -7.5877817    798.10718  0.018740189  0.018107651            3 
 3550000   0.68807523    -7.599906    798.74067  0.018749781  0.018102063            5 
 3551000   0.69751781   -7.6005194    798.87016   0.01874754  0.018096478            4 
 3552000   0.67094172   -7.5923303    797.95144  0.018720707  0.018090903            8 
 3553000   0.68233059   -7.6003417    797.73734  0.018710417  0.018085328           15 
 3554000   0.68828782   -7.6113519     798.5961  0.018725288  0.018079762           22 
 3555000   0.66259599   -7.5784288    796.26624  0.018665407  0.018074209            4 
 3556000   0.67705491   -7.5702981    798.26548  0.018707009  0.018068644            4 
 3557000   0.69118027   -7.5768589    799.28018  0.018725522  0.018063101            6 
 3558000   0.67059408   -7.5886856    797.29789  0.018673831  0.018057535            6 
 3559000   0.67456368    -7.622474    798.47365  0.018696114  0.018051961            5 
 3560000   0.68846756   -7.5719783    798.12031  0.018682591  0.018046401            4 
 3561000   0.67909238   -7.6202576    797.33983  0.018659081  0.018040822            7 
 3562000   0.68690409   -7.5863866    798.45722  0.018679984  0.018035228            4 
 3563000   0.69082447   -7.6215173    797.61013  0.018654929  0.018029625            5 
 3564000   0.67296525   -7.6231455    797.12182  0.018638277  0.018024022           12 
 3565000   0.69105895   -7.6088581    795.98762  0.018606536  0.018018434            8 
 3566000   0.68076011   -7.5951892    795.79422  0.018596799  0.018012851            7 
 3567000   0.67767406   -7.6156885     796.0922  0.018598547  0.018007268            8 
 3568000   0.67486369    -7.604266    797.96442  0.018637061  0.018001683           11 
 3569000   0.66635007   -7.6018703    799.03789  0.018656904  0.017996101            5 
 3570000   0.68404774   -7.6035629    798.08704  0.018629483  0.017990531            5 
 3571000   0.66093926   -7.5824836    799.33321  0.018653347   0.01798497            7 
 3572000   0.67562851   -7.5913494    796.70605  0.018586834  0.017979414            7 
 3573000   0.67720486   -7.6103918     798.1762   0.01861592  0.017973861           10 
 3574000    0.6758151   -7.6069528    797.72534  0.018600199  0.017968305           16 
 3575000   0.68628348   -7.6090621      797.628  0.018592727   0.01796275            7 
 3576000   0.68819108   -7.5614656    796.67674   0.01856536  0.017957229            8 
 3577000   0.67633366   -7.6184006    799.73578  0.018631436  0.017951692           10 
 3578000   0.68331634   -7.5947712    798.26704  0.018592022  0.017946153            9 
 3579000   0.67164584   -7.6139661    797.49038  0.018568743  0.017940619           13 
 3580000   0.67634699   -7.6025524    799.30568  0.018605812  0.017935079            7 
 3581000    0.6823502   -7.5992566    799.16444  0.018597329  0.017929546            4 
 3582000     0.686742   -7.6110141    798.92872  0.018586654  0.017924008           10 
 3583000   0.66208422   -7.6026344    797.11652  0.018539318  0.017918456            5 
 3584000   0.66485753   -7.6147289    798.16397    0.0185585  0.017912917            7 
 3585000   0.68491788   -7.6055781    797.00534  0.018526391  0.017907387            3 
 3586000   0.66679602   -7.6039004    799.04145  0.018568541  0.017901861            6 
 3587000   0.66250998   -7.5949503    799.24539  0.018568102  0.017896345            5 
 3588000   0.68125941    -7.596592    798.64854  0.018549065  0.017890829            5 
 3589000   0.67330426   -7.6020837    797.63178  0.018520288  0.017885317            7 
 3590000   0.68279831   -7.6037654    799.02287   0.01854742  0.017879788            6 
 3591000   0.67002257    -7.606527    799.91291   0.01856291  0.017874277            5 
 3592000   0.67372641   -7.6354393    799.34512  0.018544569  0.017868748            2 
 3593000    0.6633576   -7.6171325    798.63354  0.018522904  0.017863216           17 
 3594000   0.68598449    -7.606819    797.12275   0.01848272  0.017857697            9 
 3595000   0.66656832   -7.6053025    799.31512  0.018528399  0.017852166            7 
 3596000   0.67614994   -7.6047579    797.58201  0.018483083  0.017846642            8 
 3597000   0.67150749    -7.634924    797.79875  0.018482966  0.017841108            6 
 3598000   0.67235107   -7.6267981    798.11942  0.018485256  0.017835592            4 
 3599000   0.67479814   -7.6106222    798.96077  0.018499601  0.017830098           10 
 3600000   0.68198127   -7.6012554    797.53657  0.018461495  0.017824599            4 
 3601000   0.68289483   -7.6136378    799.05202  0.018491438   0.01781907            9 
 3602000   0.68055914   -7.5974698    798.93245  0.018483538  0.017813575            7 
 3603000   0.66476613    -7.610263    797.80597  0.018452354  0.017808063           18 
 3604000   0.67028361   -7.6028297    798.44526  0.018462016  0.017802557            7 
 3605000    0.6759298   -7.6310993    797.82942  0.018442659  0.017797054            4 
 3606000   0.67467353   -7.6046415    799.31748  0.018471933  0.017791569            5 
 3607000    0.6628715   -7.6135303    798.31776  0.018443715  0.017786079            6 
 3608000   0.66787043   -7.5957868    799.01614  0.018454734  0.017780598            7 
 3609000   0.66355284    -7.623025    799.52206  0.018461302   0.01777512           14 
 3610000   0.67509957   -7.6309527    800.12966  0.018470214  0.017769637           15 
 3611000    0.6834385   -7.6033286    798.86107  0.018435823  0.017764162           15 
 3612000   0.68363019   -7.6105829    799.43983  0.018444071  0.017758676            7 
 3613000   0.66208617   -7.6286281    798.05381  0.018406998  0.017753195           11 
 3614000   0.68492789   -7.6143398    801.15397   0.01847339  0.017747705            6 
 3615000   0.68182235    -7.584198    799.08982  0.018420697  0.017742231            6 
 3616000   0.68155774   -7.5968085    798.67873  0.018406129  0.017736759           14 
 3617000   0.67056228   -7.5886387    799.44776  0.018418758  0.017731295            5 
 3618000   0.65553811   -7.6052713    798.65672  0.018395447  0.017725834            7 
 3619000   0.66530685   -7.6113803    799.63921  0.018412987  0.017720368            4 
 3620000   0.68836859   -7.6277482    800.88535  0.018436587  0.017714893            5 
 3621000   0.68755103   -7.6518585    798.22613  0.018370297  0.017709436            7 
 3622000   0.67460966   -7.6185568    800.57595  0.018419288   0.01770397           16 
 3623000   0.65787841   -7.6259646    799.10312  0.018380328  0.017698501            5 
 3624000   0.68988072   -7.6220208    799.08937   0.01837494  0.017693043            6 
 3625000   0.66752098   -7.6268967    799.22858  0.018373071  0.017687596            9 
 3626000   0.67319912    -7.620692    798.93978  0.018361367   0.01768213            8 
 3627000   0.67299719   -7.6348376    796.52794   0.01830089  0.017676665           10 
 3628000   0.67713979   -7.6138485    799.22064  0.018357696    0.0176712           14 
 3629000   0.67502091   -7.6136954    799.01232  0.018347853  0.017665742            6 
 3630000   0.68073983   -7.6166299    798.50586  0.018331172  0.017660278            7 
 3631000   0.67626202   -7.6411721    798.90075  0.018335187  0.017654815            7 
 3632000   0.66691124   -7.6151289    798.90707  0.018330283  0.017649353            9 
 3633000   0.66293336   -7.6208237    799.24173  0.018332914  0.017643906            8 
 3634000   0.66427036   -7.6163956    800.84619  0.018364662  0.017638462            5 
 3635000   0.67511899   -7.6167243    798.36314  0.018302685   0.01763302            8 
 3636000   0.67610568   -7.6352292    798.51913  0.018301227  0.017627568            9 
 3637000   0.68821011   -7.6308595    798.24802  0.018289983  0.017622117            6 
 3638000   0.66129304   -7.6134557    798.38384  0.018288067  0.017616655            4 
 3639000   0.66065329   -7.6168603    799.78853  0.018315209  0.017611196            6 
 3640000   0.67265996   -7.6125912    799.90154  0.018312764  0.017605734            6 
 3641000   0.66415909     -7.61924    799.34276  0.018294946  0.017600273            6 
 3642000   0.69007152   -7.6180895    799.85222  0.018301579  0.017594818            6 
 3643000   0.66462009   -7.6316403    799.37372   0.01828561  0.017589369            9 
 3644000   0.67261274   -7.6055371    799.45206  0.018282383   0.01758392            8 
 3645000   0.66050273   -7.6403361    799.49073  0.018278252  0.017578472            8 
 3646000   0.67838645   -7.6005573    799.14985  0.018265447   0.01757304           11 
 3647000   0.67388197   -7.6301937    799.35726  0.018265178  0.017567597            5 
 3648000   0.67499417   -7.6244164    799.11055  0.018254536  0.017562155            8 
 3649000   0.67522618   -7.6408649    798.43294  0.018234058  0.017556712            8 
 3650000   0.66385998   -7.6570693    799.97741  0.018264324  0.017551261            5 
 3651000   0.66718229   -7.6436641    801.07636  0.018284405  0.017545817            6 
 3652000   0.66379316   -7.6381721    798.82859  0.018228108  0.017540386            8 
 3653000   0.66961536   -7.6545831    800.68675  0.018265507  0.017534954            6 
 3654000   0.66593616   -7.6304052      800.055    0.0182461  0.017529512            5 
 3655000   0.66475111   -7.6566201    799.82187  0.018235793  0.017524069           12 
 3656000   0.66968265    -7.625901    798.79385  0.018207373  0.017518639           15 
 3657000   0.67537861   -7.6460951    799.66655   0.01822228  0.017513202            9 
 3658000   0.66635781   -7.6351679    800.15916  0.018228521  0.017507763            8 
 3659000   0.65611882    -7.629891     799.7108  0.018213328  0.017502338            5 
 3660000   0.66343691   -7.6148483    798.66646  0.018184573  0.017496898            6 
 3661000   0.65568435   -7.6385068    798.68994  0.018180141  0.017491475            8 
 3662000   0.67302586   -7.6336985    799.76472  0.018199634  0.017486037            6 
 3663000   0.64231779   -7.6212325       800.78  0.018217763  0.017480602            5 
 3664000   0.67138457   -7.6483301    798.75291  0.018166687  0.017475173           11 
 3665000    0.6587175   -7.6355837    800.19708  0.018194568   0.01746974            7 
 3666000    0.6669221   -7.6373431    798.56993  0.018152617  0.017464323           18 
 3667000   0.65798667   -7.6344701    798.89219   0.01815499  0.017458912           14 
 3668000   0.66961985   -7.6491676    799.76406  0.018169849  0.017453482            8 
 3669000   0.66899786   -7.6336171    798.44149  0.018134857  0.017448071           13 
 3670000    0.6540661   -7.6355282    798.70941  0.018135999  0.017442662           12 
 3671000   0.65952362   -7.6316641    800.77422  0.018177931  0.017437257            4 
 3672000   0.64950201   -7.6333181    800.25538  0.018161206  0.017431853           10 
 3673000   0.67079426   -7.6446412    799.61029  0.018141625  0.017426453            8 
 3674000   0.66323084   -7.6299156    799.90518  0.018143376  0.017421052            8 
 3675000   0.65837785   -7.6512736    798.90298  0.018115714  0.017415646            7 
 3676000   0.68734865   -7.6230493    800.62662   0.01814986  0.017410241            7 
 3677000   0.66567148   -7.6325266    799.95692  0.018129746   0.01740484           11 
 3678000   0.66868142   -7.6309032    799.56147  0.018115857  0.017399449           16 
 3679000   0.65721679   -7.6590874    800.43102  0.018130629  0.017394054            9 
 3680000   0.66204861    -7.644297    800.17812  0.018119975  0.017388669           10 
 3681000   0.68847592   -7.6317337    800.60745  0.018124772  0.017383284           10 
 3682000   0.65967466   -7.6306751     798.5348   0.01807294  0.017377902            9 
 3683000   0.65559097   -7.6421251    799.92156  0.018099411  0.017372521            5 
 3684000   0.66066144   -7.6461731    800.03453  0.018097053  0.017367131           11 
 3685000   0.65999196   -7.6430506    798.03366  0.018046894  0.017361734           11 
 3686000   0.65599231   -7.6348747     800.6429  0.018100988  0.017356355           12 
 3687000   0.66354436    -7.638841    798.33484  0.018043912  0.017350986            6 
 3688000   0.66331755   -7.6387754    800.69583  0.018092368  0.017345626           13 
 3689000   0.64456718   -7.6434477    799.47668  0.018059923  0.017340266           10 
 3690000     0.660098   -7.6246794    801.67776  0.018104737    0.0173349           12 
 3691000   0.66087477   -7.6222792    801.38007  0.018093111  0.017329551            8 
 3692000   0.65201059   -7.6377037    798.65641  0.018026734   0.01732419           11 
 3693000    0.6535051   -7.6369546    799.57808   0.01804265  0.017318826           11 
 3694000   0.65381938   -7.6390716    799.31336  0.018031794  0.017313466            4 
 3695000   0.65486092   -7.6384515    800.53241  0.018054407  0.017308109           11 
 3696000   0.65234965   -7.6596175    800.56864  0.018050339  0.017302744            6 
 3697000   0.65971678   -7.6583553    800.00636  0.018032782  0.017297373            6 
 3698000   0.65348957   -7.6450754    799.41529  0.018014587  0.017291997            7 
 3699000   0.66648485    -7.665391    801.49973  0.018056676  0.017286627            6 
 3700000   0.65971372   -7.6382675    800.46112  0.018028404  0.017281246            7 
 3701000   0.68302059   -7.6490811    798.32801  0.017975502  0.017275871           11 
 3702000   0.65095258   -7.6424834    798.20157  0.017967801  0.017270501            6 
 3703000   0.67183311   -7.6444834    798.67122  0.017973517  0.017265137            6 
 3704000   0.67817083   -7.6522613     799.7395  0.017992699  0.017259779            8 
 3705000   0.65915722    -7.640184    799.88358  0.017991084  0.017254426            4 
 3706000   0.64971213   -7.6521297    799.80852  0.017984541  0.017249077           10 
 3707000   0.65814942   -7.6481891    800.02658  0.017984592  0.017243737            7 
 3708000   0.66601357   -7.6433991    801.54794  0.018013932  0.017238384           11 
 3709000   0.65497459   -7.6621745    799.48659  0.017962762  0.017233026            5 
 3710000    0.6586285   -7.6616682    798.32449  0.017931817  0.017227667            5 
 3711000   0.64282881   -7.6687686    797.90616  0.017917591  0.017222294            9 
 3712000   0.63985947   -7.6634183    800.11557  0.017962365  0.017216922            6 
 3713000   0.66478665   -7.6523202    800.40266   0.01796397  0.017211564            8 
 3714000   0.65794933   -7.6323773    799.79271  0.017945448  0.017206225           12 
 3715000   0.65848659   -7.6333118    801.47032  0.017978249  0.017200896            8 
 3716000   0.65457859   -7.6351959    800.70473  0.017956242  0.017195554           21 
 3717000   0.65403124   -7.6540821     799.1872  0.017917389  0.017190201           12 
 3718000   0.64369857   -7.6913712    800.53398  0.017942756  0.017184846            8 
 3719000   0.66287025   -7.6692928    799.12386  0.017906334  0.017179491           11 
 3720000   0.66133787   -7.6463997     800.5211   0.01793282  0.017174146           10 
 3721000   0.65608441   -7.6506025    800.60939  0.017929978  0.017168807            4 
 3722000   0.65669159   -7.6666109     799.7858  0.017906721  0.017163457            4 
 3723000    0.6745218   -7.6575369     800.6279  0.017920761   0.01715811            5 
 3724000   0.67245482   -7.6739448    800.49839   0.01791305  0.017152769            6 
 3725000   0.66104024   -7.6933812    800.50234   0.01790833  0.017147435            5 
 3726000    0.6687193   -7.6396769     800.4651  0.017902691  0.017142111            8 
 3727000   0.66436718     -7.68321    798.86601  0.017862132  0.017136762            9 
 3728000   0.64964293   -7.6841917    799.88703  0.017880164  0.017131414           15 
 3729000   0.64845688   -7.6593878    800.04579  0.017878917   0.01712608            6 
 3730000   0.65978888    -7.678889    800.04602  0.017874129  0.017120755            5 
 3731000   0.64652749   -7.6548705    799.42101  0.017855379  0.017115443           15 
 3732000   0.65430305   -7.6779643    800.25737   0.01786927  0.017110126            5 
 3733000   0.65822066   -7.6351246     800.1824  0.017862809  0.017104814           13 
 3734000   0.65138431   -7.6666808    801.51556  0.017887778  0.017099495           24 
 3735000   0.63218809   -7.6485818    801.43776  0.017881253  0.017094199            5 
 3736000    0.6616762   -7.6348898    802.56817  0.017901681  0.017088898            7 
 3737000   0.63630143    -7.649595    801.46218  0.017872228  0.017083608            8 
 3738000   0.66070891   -7.6527987    800.93691  0.017855736  0.017078312            6 
 3739000   0.65889131   -7.6451023    800.72403  0.017846216  0.017073031           21 
 3740000   0.64410075   -7.6494156     801.7765  0.017864895  0.017067734           10 
 3741000   0.65061744   -7.6601211    801.10677  0.017845201  0.017062438            7 
 3742000   0.66719474   -7.6499669    799.82592  0.017811908   0.01705714           10 
 3743000   0.65244379   -7.6499975    800.64957  0.017825487   0.01705185           12 
 3744000   0.64337159   -7.6483305    800.59395  0.017819488  0.017046565            5 
 3745000   0.64393626   -7.6717512    801.47478   0.01783433  0.017041282            6 
 3746000   0.65275217   -7.6639023    800.40572  0.017805787  0.017035994            6 
 3747000   0.66905439   -7.6546751    800.71635  0.017807943  0.017030704            7 
 3748000    0.6468241   -7.6780914    800.81004  0.017805275  0.017025412            6 
 3749000   0.65165848   -7.6684028    799.51191   0.01777167  0.017020104            7 
 3750000   0.64727772   -7.6419778    800.32324  0.017784961  0.017014801           12 
 3751000   0.65554631   -7.6612316    799.33851  0.017758342  0.017009521            8 
 3752000   0.64592474   -7.6415958      801.827   0.01780888  0.017004241            9 
 3753000   0.66293009   -7.6579748    801.98933  0.017807739  0.016998966           13 
 3754000   0.66177877   -7.6718179    801.19217  0.017785299  0.016993677            5 
 3755000   0.63819328   -7.6507458    800.54739  0.017766254  0.016988386            9 
 3756000   0.64790697    -7.650238    799.77607   0.01774441  0.016983099           11 
 3757000   0.64517477   -7.6717127    800.43356  0.017754271  0.016977809            4 
 3758000   0.64448378    -7.681336    799.47711  0.017728338  0.016972523            7 
 3759000   0.65300956   -7.6462164    800.49868  0.017746268  0.016967242            9 
 3760000   0.66233462   -7.6524401    800.84669  0.017749262   0.01696197            9 
 3761000   0.63659866   -7.6637083    801.70085  0.017763468  0.016956707            5 
 3762000   0.64953257   -7.6931034    799.89149  0.017718667  0.016951435            7 
 3763000   0.65228723   -7.6919757    801.04953  0.017739603  0.016946157           16 
 3764000   0.65135146    -7.669057    802.13334  0.017758885  0.016940884           15 
 3765000   0.65726485   -7.6426629    800.89336  0.017726723  0.016935627           19 
 3766000    0.6321563   -7.6611447    801.11299  0.017726876  0.016930375           16 
 3767000   0.64415098   -7.6640637    800.59225  0.017710651  0.016925139            9 
 3768000    0.6445029   -7.6869787    801.93013  0.017735539   0.01691988           11 
 3769000   0.66592449   -7.6578402    802.36333  0.017740411  0.016914638            5 
 3770000   0.65442326   -7.6664599    801.18175  0.017709588  0.016909389            5 
 3771000   0.65460855   -7.6628219    800.06475  0.017680207  0.016904152           12 
 3772000   0.65231424   -7.6757666    801.39302  0.017704865   0.01689892            7 
 3773000   0.65164513   -7.6906341    799.56754  0.017659854   0.01689368            4 
 3774000   0.65394022   -7.6788507    802.46835  0.017719227  0.016888439            6 
 3775000   0.64884042   -7.6673848    802.01371  0.017704497  0.016883191           11 
 3776000   0.63714658   -7.6575836     800.1543  0.017658773  0.016877951           11 
 3777000   0.63475235   -7.6747633    800.00028  0.017650699  0.016872718           10 
 3778000   0.64755631   -7.6656061    801.54217  0.017680037  0.016867483           14 
 3779000   0.65814617   -7.6915339    802.11647  0.017688023   0.01686226           10 
 3780000   0.62920161   -7.6618492    801.35044  0.017666456  0.016857039           11 
 3781000   0.62932156   -7.6686825    801.35218  0.017661822  0.016851815           10 
 3782000   0.64587262   -7.6702637     800.7942  0.017644857  0.016846604            6 
 3783000   0.65006338   -7.6726298     801.6972  0.017660085  0.016841381           12 
 3784000   0.64127393   -7.6686678    802.36025   0.01767002  0.016836171           14 
 3785000   0.64177725   -7.6653776    802.17719  0.017661321  0.016830949            7 
 3786000   0.64666182   -7.6660375    800.86541  0.017627782  0.016825742            7 
 3787000   0.63464857   -7.6729287    800.81948  0.017622117  0.016820523            8 
 3788000   0.63084889   -7.6685767    802.42519  0.017652789  0.016815308            6 
 3789000   0.65147683   -7.6712235    802.25228  0.017644327  0.016810096            6 
 3790000    0.6443965   -7.6936484    799.53947  0.017580024  0.016804883           15 
 3791000   0.64271987   -7.6717659     801.5943  0.017620555  0.016799666            8 
 3792000   0.63226197   -7.6785501     801.9723  0.017624215  0.016794449           11 
 3793000   0.62734799   -7.6805076    801.19827  0.017602563  0.016789232           14 
 3794000   0.65344402   -7.6942387    801.68878  0.017608697  0.016784024           12 
 3795000    0.6537974    -7.686104    800.40772  0.017575927  0.016778826           17 
 3796000   0.66053931   -7.6779154    802.85803  0.017625088  0.016773624           34 
 3797000   0.65923606   -7.6821163    802.87261  0.017620767  0.016768429           28 
 3798000   0.63686357   -7.6867514    801.87237  0.017594181  0.016763242           18 
 3799000   0.63851545   -7.6925923    800.49384   0.01755931  0.016758042            9 
 3800000   0.64737505   -7.6831039    802.65865  0.017602163  0.016752855           16 
 3801000    0.6437407   -7.6777378    799.87352  0.017536471  0.016747659           19 
 3802000   0.65452227    -7.708311    802.17502  0.017582304  0.016742451           12 
 3803000   0.64373077   -7.6692853    801.07317  0.017553536  0.016737251           15 
 3804000    0.6376001   -7.6852621    801.28347  0.017553529  0.016732046            6 
 3805000   0.63982454   -7.6867333    801.50726  0.017553817  0.016726847           18 
 3806000   0.64749408   -7.6654518    799.90455  0.017514112  0.016721642           12 
 3807000   0.64641005   -7.6679781      798.654  0.017482138   0.01671645            8 
 3808000   0.63924512   -7.6748024    799.69117  0.017500244  0.016711264           11 
 3809000   0.63170469   -7.6977561     802.2734  0.017552144  0.016706069           18 
 3810000   0.63177612   -7.6602793    801.51963   0.01753105  0.016700886           16 
 3811000   0.63355188   -7.6679228    800.49228  0.017503986  0.016695698            9 
 3812000   0.63763936   -7.6776567    802.11081  0.017534776  0.016690499           12 
 3813000   0.65426695   -7.6855306     799.7365  0.017478287  0.016685306           15 
 3814000   0.64497093   -7.6723276    800.46999  0.017489731  0.016680125           14 
 3815000   0.64965693   -7.6594749    801.74361  0.017512967  0.016674944            9 
 3816000   0.63500323   -7.6841324    802.01566  0.017514318  0.016669751           20 
 3817000   0.63664162   -7.6713988    800.77977  0.017482748  0.016664568           17 
 3818000   0.64092787   -7.6885962     802.1281  0.017507598  0.016659385            6 
 3819000   0.63753535   -7.7080279    800.59907  0.017469649  0.016654177            8 
 3820000    0.6409583   -7.6405858    801.53398  0.017485471  0.016648984            8 
 3821000   0.61533823   -7.6976671    799.49478  0.017436421  0.016643786           12 
 3822000   0.63079996   -7.6791375    801.75191  0.017481073  0.016638584            5 
 3823000   0.62865687   -7.6790794    799.79926  0.017433936  0.016633377            8 
 3824000   0.64439839   -7.7042942    800.40517  0.017442581  0.016628174           19 
 3825000   0.63757665   -7.7002698    801.47999  0.017461438  0.016622975           11 
 3826000   0.62150108   -7.6966612    799.57127    0.0174153  0.016617784           13 
 3827000   0.63456789   -7.6991167    799.63191   0.01741207  0.016612601            9 
 3828000   0.63649342   -7.7050623    800.21264  0.017420164  0.016607411           11 
 3829000   0.63963658   -7.6942342    800.57637   0.01742353   0.01660221           15 
 3830000   0.64901794   -7.6987849    801.65274  0.017442401  0.016597022           17 
 3831000   0.63779092     -7.70711    801.78021  0.017440621  0.016591833            8 
 3832000   0.64090781   -7.6958431     799.1795  0.017379512  0.016586662            7 
 3833000   0.64231935   -7.6839693    800.82404  0.017410732  0.016581498            6 
 3834000   0.63906762   -7.6973989    799.62032  0.017380028  0.016576328           10 
 3835000   0.63103343   -7.6961892    800.49372  0.017394475  0.016571151           12 
 3836000   0.63549288   -7.7024333    801.13919  0.017403962  0.016565966           10 
 3837000   0.64679353   -7.6909158    800.46442  0.017384772  0.016560794            7 
 3838000   0.63563464   -7.6891992    801.44208   0.01740147  0.016555637           16 
 3839000   0.63789258   -7.6932472    800.74852  0.017381882  0.016550461           14 
 3840000   0.62581175    -7.697365    800.96522  0.017382058  0.016545291           12 
 3841000   0.64029798   -7.7093937    801.23832  0.017383457  0.016540116            9 
 3842000   0.65112624   -7.7075689    800.62841  0.017365704  0.016534943           13 
 3843000   0.63752006   -7.7042994    800.31281  0.017354341  0.016529785           13 
 3844000   0.63720174   -7.7095023    800.64493  0.017357027  0.016524622           19 
 3845000   0.64472712   -7.6948009    800.62785  0.017352142  0.016519459            9 
 3846000   0.64135673   -7.7230089    801.38632  0.017364065  0.016514302           10 
 3847000    0.6391818   -7.6910362    800.63854  0.017343353  0.016509155            7 
 3848000    0.6431979   -7.7150375    800.84529  0.017343323  0.016504008            7 
 3849000   0.64768697   -7.7040613    800.94822  0.017341046  0.016498852            6 
 3850000   0.62844595   -7.7165417    801.51471  0.017348803  0.016493707            5 
 3851000    0.6259857   -7.6683313    801.97275   0.01735421  0.016488565            6 
 3852000   0.62977963   -7.7045508     802.4031  0.017359015  0.016483421            7 
 3853000   0.62020114   -7.6924774    801.12375  0.017326839  0.016478286            7 
 3854000   0.64717481    -7.705636     801.0396  0.017320524  0.016473163            9 
 3855000   0.62006021    -7.702716    801.85488  0.017333655  0.016468032            5 
 3856000   0.64137235   -7.6987181    801.46561  0.017320747    0.0164629            5 
 3857000   0.63311614   -7.6933994    802.06283   0.01732916  0.016457787            6 
 3858000   0.62662049   -7.7072091    801.62822   0.01731528  0.016452675           11 
 3859000   0.62836472    -7.722457    800.12943  0.017278428  0.016447544           10 
 3860000   0.62958835   -7.7073081    799.32568  0.017256599  0.016442404            3 
 3861000   0.63839581   -7.7191598     802.4273  0.017319073  0.016437277            5 
 3862000   0.63334722   -7.7130423    800.58651  0.017274869  0.016432147            5 
 3863000   0.63212217   -7.6893293    801.97187  0.017300282   0.01642702            8 
 3864000   0.64676003   -7.7109008    801.80831  0.017292277  0.016421889            5 
 3865000   0.63684507   -7.7161576    800.24074  0.017254005  0.016416758            9 
 3866000   0.63456299   -7.7060009    802.05517  0.017288653  0.016411635           18 
 3867000   0.62142615   -7.7200241    799.80543    0.0172357  0.016406514            5 
 3868000   0.64397375   -7.7249344    800.38138  0.017243653  0.016401389           15 
 3869000   0.63487708   -7.7253994    802.79982  0.017291286  0.016396273            4 
 3870000   0.64362813   -7.7392492    799.76701  0.017221512  0.016391139            5 
 3871000   0.63265685   -7.7154004    801.37385  0.017251654  0.016386012            9 
 3872000   0.62726584   -7.7118807    801.91419  0.017258828  0.016380895            6 
 3873000   0.63550225    -7.726959    801.51625   0.01724581  0.016375771           12 
 3874000   0.63399676   -7.7413454    802.59995  0.017264669  0.016370647            6 
 3875000    0.6231323    -7.741939    799.30939  0.017189449  0.016365514            7 
 3876000   0.63771936   -7.7219831     802.6774  0.017257426  0.016360388            8 
 3877000   0.63918681    -7.723476    801.83513  0.017234871  0.016355275           20 
 3878000   0.61639245   -7.7239257    800.11454  0.017193453  0.016350154            9 
 3879000    0.6416976   -7.7198827    800.65755  0.017200686  0.016345036            7 
 3880000   0.62935361   -7.7174825    801.43902  0.017213037  0.016339925            8 
 3881000   0.65304495   -7.7136118    801.68594  0.017213904  0.016334824           11 
 3882000   0.62702782   -7.7192597     799.9127  0.017171404  0.016329719           11 
 3883000   0.63182466    -7.725358    800.80743  0.017186184  0.016324609            6 
 3884000   0.62807766   -7.7459774    800.72226  0.017179932  0.016319503           14 
 3885000   0.63868896   -7.7050436    800.55122  0.017171841  0.016314389           12 
 3886000   0.63152505   -7.7238941    800.37112   0.01716356  0.016309282           10 
 3887000   0.63130054   -7.7294005    801.12692  0.017175348  0.016304183           12 
 3888000   0.62447013   -7.7351858    801.26835  0.017173961  0.016299082           10 
 3889000   0.64564268   -7.7450986    800.65149  0.017156327  0.016293979           14 
 3890000   0.63362614   -7.7315029    800.73534  0.017153713  0.016288884           21 
 3891000   0.62907097   -7.7219014    800.23678  0.017138627  0.016283798           13 
 3892000   0.63528549   -7.7311641    801.94699  0.017170842  0.016278713           14 
 3893000   0.63777959   -7.7211062     800.4553    0.0171345  0.016273625           14 
 3894000   0.64603608   -7.7343632     800.3048  0.017126879  0.016268543           12 
 3895000    0.6177473   -7.7280822    798.69802  0.017088105  0.016263457           17 
 3896000   0.62618683    -7.738868     799.9855  0.017111257  0.016258358            9 
 3897000   0.63496367   -7.7397859    800.96166   0.01712774   0.01625326           10 
 3898000   0.62070872   -7.7431115    799.23631  0.017086461  0.016248164           10 
 3899000   0.63589337   -7.7260244    799.11528  0.017079492  0.016243069           16 
 3900000   0.62410161   -7.7476174    800.23425  0.017099022   0.01623798            8 
 3901000   0.63023477   -7.7266953    800.53291  0.017101019  0.016232895           11 
 3902000   0.63434742   -7.7372967    799.68347  0.017078495  0.016227808            8 
 3903000   0.63617761   -7.7466031    800.55528  0.017092734  0.016222726           11 
 3904000   0.63245862   -7.7359214     799.9555  0.017075553  0.016217637           19 
 3905000   0.63459608   -7.7195561    801.60639   0.01710641  0.016212554           12 
 3906000   0.62867024   -7.7153016    801.62863  0.017102505  0.016207486            6 
 3907000   0.62838719   -7.7369471    800.35801  0.017071027  0.016202424           22 
 3908000   0.62518503     -7.72461    802.45153    0.0171113  0.016197353           20 
 3909000   0.63097368   -7.7267464     802.5866  0.017109802  0.016192295           28 
 3910000   0.63934987   -7.7487217    802.87329  0.017111536  0.016187241           28 
 3911000   0.62649689   -7.7288082    802.83992   0.01710645  0.016182177           24 
 3912000   0.61926921   -7.7411123    800.60683  0.017054508  0.016177127           17 
 3913000   0.61591248   -7.7432173    801.51499   0.01706949  0.016172081           16 
 3914000    0.6156224   -7.7183404    800.25755  0.017038357  0.016167034           11 
 3915000   0.61347424   -7.7069273    799.18916  0.017011264  0.016161979           18 
 3916000     0.624441   -7.7254486    802.02531  0.017067273  0.016156938            7 
 3917000   0.62803657   -7.7137696    800.55125  0.017031556  0.016151894           20 
 3918000   0.61013485   -7.7379294    801.06077  0.017038046  0.016146848            9 
 3919000   0.61660741   -7.7371893    800.60749   0.01702406  0.016141805           14 
 3920000   0.61962593   -7.7518185    801.40218  0.017036611  0.016136756            7 
 3921000   0.62655564     -7.74016     800.7159   0.01701768  0.016131701           14 
 3922000   0.64025666   -7.7370133    799.14623   0.01697999  0.016126648           14 
 3923000   0.61828698   -7.7412663    799.83391  0.016990269  0.016121589           16 
 3924000   0.62416141   -7.7283864     800.9245    0.0170091  0.016116527           11 
 3925000   0.61994249   -7.7274437    800.13612  0.016988028   0.01611148           21 
 3926000   0.62513932   -7.7583611     799.7893  0.016976339  0.016106422           17 
 3927000   0.63366421   -7.7495516    800.51115  0.016987334  0.016101373           18 
 3928000   0.61819479   -7.7431725    801.45115  0.017002952  0.016096329           18 
 3929000   0.62691015   -7.7626238    800.29005  0.016973998  0.016091281           30 
 3930000   0.62595685   -7.7522964    799.11568  0.016944777  0.016086238           23 
 3931000    0.6077458   -7.7461027    800.50857  0.016969994  0.016081194           19 
 3932000   0.62611989   -7.7454644    799.59198  0.016946253  0.016076147           17 
 3933000   0.61750366   -7.7449967     800.2223  0.016955299  0.016071115           10 
 3934000   0.63284401   -7.7492237    800.17273  0.016949939  0.016066083           25 
 3935000   0.60936008    -7.759427    799.91196  0.016940109   0.01606104           26 
 3936000   0.62700097   -7.7469886    801.63555  0.016972297  0.016056009           16 
 3937000   0.61843972   -7.7436607    800.03108  0.016934025  0.016050975           13 
 3938000   0.61630645   -7.7568686    800.94262  0.016949014  0.016045944           17 
 3939000   0.60941171   -7.7376771     799.8394  0.016921372  0.016040909           10 
 3940000   0.61661263   -7.7277961     801.5995  0.016954304  0.016035882            6 
 3941000   0.61712999   -7.7510651    802.27068  0.016964194  0.016030859           14 
 3942000   0.63051447   -7.7425086    801.05256   0.01693414  0.016025835            9 
 3943000   0.60994085   -7.7417671     800.4986  0.016918138  0.016020817           15 
 3944000   0.61549562   -7.7556745    801.17984  0.016928242  0.016015798            5 
 3945000   0.63226784   -7.7558391    799.88134  0.016896522   0.01601078           11 
 3946000    0.6163469    -7.767244    799.88235  0.016892261  0.016005765            8 
 3947000   0.62077445   -7.7431242    799.29855  0.016875656  0.016000744           15 
 3948000   0.61765612   -7.7044734    800.99987  0.016907292  0.015995729           10 
 3949000   0.60792999   -7.7516697    800.08727  0.016883753  0.015990726           11 
 3950000   0.62160543   -7.7343717    800.89137  0.016896442  0.015985719            9 
 3951000   0.60115693   -7.7558425    800.70324  0.016888198  0.015980706           18 
 3952000   0.61310263    -7.755934    801.14369  0.016893212  0.015975687           17 
 3953000   0.61817553   -7.7289273    802.05109  0.016908067  0.015970681           10 
 3954000   0.62563399   -7.7507257    801.47251  0.016891597  0.015965673           14 
 3955000   0.61652288   -7.7683069    801.75322  0.016893241   0.01596067           14 
 3956000   0.60969675   -7.7546113     800.8073  0.016869045  0.015955662           16 
 3957000    0.6204569   -7.7281682    801.90754  0.016887953  0.015950651           12 
 3958000   0.62586743   -7.7348579    800.66834  0.016857595  0.015945654           12 
 3959000   0.62942016   -7.7369461    801.12528  0.016862955   0.01594066           17 
 3960000   0.61111544   -7.7521456    800.79465  0.016851739  0.015935673           20 
 3961000   0.62499107   -7.7609714    800.69157  0.016845316  0.015930682           10 
 3962000   0.61246791   -7.7459119    801.28592  0.016853565  0.015925695            6 
 3963000   0.60551678   -7.7555279      802.115  0.016866747  0.015920717           10 
 3964000   0.62589098   -7.7662664    800.99969  0.016839045  0.015915739            9 
 3965000   0.61664202   -7.7435976    801.30501  0.016841215  0.015910764            9 
 3966000    0.6148939   -7.7495257    801.20996  0.016834971  0.015905776           12 
 3967000   0.60678171   -7.7671592    801.91893  0.016845621  0.015900783           10 
 3968000   0.61022978   -7.7623902    799.84371  0.016797793  0.015895794           11 
 3969000   0.60931892   -7.7428049    800.20803   0.01680121  0.015890803           10 
 3970000   0.61776799   -7.7745154    801.19232  0.016817639  0.015885818            8 
 3971000   0.61126286   -7.7359265    799.46205  0.016777093  0.015880829           12 
 3972000   0.61608639   -7.7640732    800.60146  0.016796775   0.01587584            8 
 3973000   0.62827998    -7.737052    799.52629  0.016769995  0.015870856            6 
 3974000   0.61900808   -7.7454054    800.44128  0.016784962  0.015865881           12 
 3975000   0.63107856   -7.7426182    802.01991  0.016813835  0.015860897           10 
 3976000   0.61238481   -7.7874242    800.55498  0.016778902  0.015855916           11 
 3977000   0.61946766   -7.7484557    800.91667  0.016782262  0.015850934           10 
 3978000   0.61349461    -7.754982    800.00355  0.016758915  0.015845959           11 
 3979000   0.61783258   -7.7472043    801.33201  0.016782525  0.015840986           11 
 3980000     0.607333   -7.7322444    800.60484  0.016763083  0.015836009           15 
 3981000   0.61683053    -7.751942    801.24049  0.016772178  0.015831024           20 
 3982000   0.61129266   -7.7775303    800.24735  0.016747182  0.015826039           22 
 3983000     0.619782   -7.7662393    800.40533  0.016746283  0.015821056            9 
 3984000   0.62384324   -7.7329802    801.37191  0.016762297  0.015816092           11 
 3985000   0.61682274    -7.769725    801.41698  0.016759033  0.015811133           12 
 3986000   0.59500478   -7.7719289    800.46716  0.016734972  0.015806161           14 
 3987000   0.61087365   -7.7464163    799.68496  0.016714425  0.015801188           29 
 3988000    0.6248865   -7.7500727    800.05975  0.016718066  0.015796216           18 
 3989000   0.60045674   -7.7707453    798.84299  0.016688455  0.015791232           16 
 3990000   0.60936864   -7.7535993    801.83178  0.016746696  0.015786256           15 
 3991000   0.62394273   -7.7537061    800.03488  0.016704979  0.015781293            7 
 3992000   0.61005574   -7.7593184    801.07225   0.01672245  0.015776328           14 
 3993000   0.61772797    -7.745682    800.67499  0.016709971   0.01577137            9 
 3994000   0.60657203   -7.7644759      799.851  0.016688595   0.01576641           13 
 3995000   0.61880763   -7.7705043    798.27845  0.016651615  0.015761444           11 
 3996000   0.61040583   -7.7723442    801.95241  0.016724066  0.015756473            8 
 3997000   0.62429279   -7.7690303    798.21495   0.01664196  0.015751513            6 
 3998000   0.60849741   -7.7777637    799.91402  0.016673212  0.015746548            9 
 3999000   0.60508152   -7.7320042    801.61505   0.01670449  0.015741594            4 
 4000000   0.60799956    -7.770754    800.51266  0.016677347  0.015736648            4 
 4001000   0.60133858   -7.7554996    801.41402  0.016691953  0.015731704           10 
 4002000   0.62625579   -7.7520836    800.67575  0.016672409  0.015726757            6 
 4003000   0.61411921   -7.7638677    799.24729  0.016638506  0.015721818           11 
 4004000   0.62397011    -7.738756    799.49793  0.016639567  0.015716875            7 
 4005000   0.60566146   -7.7940586    799.82722  0.016642264  0.015711944           13 
 4006000   0.60805683   -7.7675653    800.71385  0.016656554  0.015706997            8 
 4007000   0.61520262   -7.7455508    802.07472  0.016680699  0.015702052           10 
 4008000   0.60201881   -7.7826485    799.58881   0.01662485  0.015697107            4 
 4009000   0.61030429   -7.7529193    799.57287  0.016620372  0.015692159            9 
 4010000   0.61429203   -7.7645557    801.78806  0.016662262  0.015687207           11 
 4011000   0.61425276    -7.774666    799.85259  0.016617896  0.015682259            6 
 4012000   0.61685433    -7.762561    800.34263  0.016623933  0.015677305           14 
 4013000   0.61073432   -7.7558682    800.46501  0.016622332  0.015672371            7 
 4014000    0.6131001   -7.7465801    800.28791  0.016614514  0.015667434           11 
 4015000    0.6133626   -7.7671901    799.45415  0.016593071  0.015662502           13 
 4016000   0.60753009   -7.7496951    800.31443   0.01660679  0.015657567           12 
 4017000   0.60685177   -7.7584818    801.10813  0.016619121  0.015652652           10 
 4018000   0.59741137    -7.757785    801.99221  0.016633321  0.015647742           10 
 4019000   0.62178708   -7.7379447    801.02175   0.01660906  0.015642829            9 
 4020000    0.6218313    -7.758723    800.55618  0.016595277  0.015637907           16 
 4021000   0.60808764   -7.7686486    801.16967  0.016603865  0.015632993           16 
 4022000   0.60359927   -7.7492921    799.60022  0.016567218  0.015628076            9 
 4023000   0.61329321    -7.769383    801.34524  0.016599247  0.015623159           13 
 4024000   0.60614429   -7.7806144      801.353  0.016595282  0.015618244           12 
 4025000   0.61790297   -7.7515538    801.46092  0.016593394  0.015613337            5 
 4026000   0.60746383   -7.7768673    801.67423  0.016593687  0.015608442           10 
 4027000   0.60611334   -7.7529757    800.88871  0.016573312  0.015603548            6 
 4028000   0.59866763   -7.7424806    801.95357  0.016591227  0.015598664           10 
 4029000   0.59703885    -7.763277    801.70335  0.016581934  0.015593778            5 
 4030000   0.60545032   -7.7552911    802.18625  0.016587805  0.015588903           10 
 4031000   0.59927184   -7.7661863    801.72482  0.016574151   0.01558402           15 
 4032000   0.60658084   -7.7691899    801.26695  0.016560577  0.015579137            8 
 4033000   0.59850678    -7.766343    801.81383  0.016567771  0.015574252            5 
 4034000   0.60267976   -7.7644923    801.54052  0.016558018  0.015569387            9 
 4035000   0.60474117   -7.7571027    802.41261  0.016571925  0.015564515            7 
 4036000   0.59909104   -7.7513098    800.24428  0.016523048  0.015559642           16 
 4037000   0.61654657   -7.7577931    800.46548  0.016523522  0.015554769           10 
 4038000   0.61078461   -7.7679538    801.03312  0.016531144    0.0155499           13 
 4039000   0.60252178   -7.7891096    800.88272  0.016523948   0.01554503           10 
 4040000   0.60647007    -7.783202    800.64178  0.016514888  0.015540158           24 
 4041000   0.61410192   -7.7766533    800.71089  0.016512227  0.015535289           12 
 4042000   0.60631957   -7.7736613    800.65728  0.016507036  0.015530421           10 
 4043000   0.60323797   -7.7629445    799.98612  0.016489119  0.015525547           12 
 4044000   0.59974524    -7.778078    799.49362  0.016474893  0.015520681            9 
 4045000   0.60694443   -7.7769145    800.13677   0.01648407  0.015515805            8 
 4046000   0.59890298   -7.7780938    802.65381  0.016531838   0.01551095           10 
 4047000   0.60246456   -7.7793062    801.40052  0.016501946   0.01550609           12 
 4048000   0.60520777   -7.7543386    801.66149  0.016503242  0.015501233           11 
 4049000   0.61531962    -7.780583    801.71194  0.016500205   0.01549637            6 
 4050000   0.61539183   -7.7805807    800.92838  0.016480008   0.01549151           16 
 4051000   0.60458122   -7.7629116    800.94525  0.016476287   0.01548666           12 
 4052000   0.58580255   -7.7647846    800.94602  0.016472236  0.015481816            4 
 4053000   0.60435922   -7.7681771    801.03176  0.016469935  0.015476977           14 
 4054000   0.59107063   -7.7874022    803.14571  0.016509326  0.015472132           25 
 4055000   0.60097707   -7.7959779    799.71514  0.016434754  0.015467285           10 
 4056000   0.60646392    -7.782466    800.86141  0.016454253  0.015462433            7 
 4057000   0.59430885   -7.8026072    799.94277  0.016431328  0.015457579            8 
 4058000   0.59225386   -7.7820698    801.26774  0.016454488  0.015452731           15 
 4059000   0.58657281   -7.7634391    801.02334  0.016445416  0.015447883            8 
 4060000    0.5926921   -7.7911644    800.42201  0.016429023  0.015443039            9 
 4061000   0.60413885   -7.7881162    801.68293  0.016450852  0.015438193            9 
 4062000   0.59659611   -7.7903657    800.18995  0.016416173  0.015433347            6 
 4063000   0.59149296   -7.7868217    801.21733  0.016433205  0.015428504            7 
 4064000   0.60987924   -7.7943764    800.55096  0.016415497  0.015423665            5 
 4065000   0.59921804   -7.7950917    801.04564    0.0164216  0.015418823            5 
 4066000   0.59807711   -7.7821864    801.05278  0.016417707  0.015413983            8 
 4067000   0.59282405   -7.7738284    800.65562  0.016405533   0.01540915           12 
 4068000    0.6009845   -7.7792201    801.75629  0.016424047  0.015404316           11 
 4069000   0.60035105   -7.7824771    800.07491  0.016385576   0.01539948            8 
 4070000   0.60805441   -7.7851797    800.60502  0.016392404  0.015394644            5 
 4071000   0.59583098   -7.7698543    800.32624  0.016382671  0.015389809            8 
 4072000   0.59407825    -7.788631      800.324  0.016378602  0.015384977            6 
 4073000   0.60258611   -7.7700712    800.03655  0.016368699  0.015380148            8 
 4074000   0.59568216   -7.7837815    801.21179  0.016388721  0.015375331           10 
 4075000   0.61493631    -7.796359    799.93155  0.016358518  0.015370502            9 
 4076000   0.60549343    -7.791442     801.5527  0.016387649  0.015365665            7 
 4077000   0.59421757   -7.7988152     800.3688  0.016359431  0.015360833            8 
 4078000   0.60407645   -7.7979162    800.72591  0.016362717  0.015356002           10 
 4079000   0.60961707   -7.8105003    800.85411  0.016361324   0.01535117            6 
 4080000    0.5977581   -7.7863359    800.33427  0.016346697  0.015346338           11 
 4081000   0.60613468    -7.788345    799.08919  0.016317267    0.0153415           16 
 4082000   0.60030804   -7.7899911    800.47491  0.016341559  0.015336671            6 
 4083000   0.61007749   -7.7935908     799.5235  0.016318138  0.015331847           16 
 4084000   0.60223272   -7.7931776    801.72067  0.016358975  0.015327028           10 
 4085000   0.59374342   -7.7782292    800.98789  0.016340022  0.015322205            8 
 4086000   0.59762982   -7.8115093     800.7199  0.016330558  0.015317384            9 
 4087000   0.59885147   -7.7896828    799.98042  0.016311484   0.01531256            7 
 4088000   0.59872096   -7.8083512    800.50961  0.016318281  0.015307741            9 
 4089000   0.60209386   -7.8032917    800.75882  0.016319369  0.015302934            7 
 4090000   0.58500477   -7.7871862    800.61214  0.016312391  0.015298132           15 
 4091000   0.60319081   -7.8043943    800.86991  0.016313654  0.015293331           21 
 4092000   0.58515799   -7.7906748    799.82146  0.016288316  0.015288523            7 
 4093000     0.586602   -7.7970962    800.60024  0.016300192  0.015283726            6 
 4094000   0.60027914   -7.8027114    800.02223  0.016284445   0.01527892            6 
 4095000   0.60470434   -7.7908973    799.77905   0.01627552  0.015274112            6 
 4096000   0.59756554   -7.8158196    799.35184  0.016262855  0.015269302            4 
 4097000    0.5941266    -7.805923    801.12969  0.016295047  0.015264494            4 
 4098000   0.58836858   -7.8152736    800.43828  0.016277011  0.015259696            8 
 4099000    0.5981626   -7.7993822    799.41182  0.016252172  0.015254902           10 
 4100000   0.60025615   -7.7871444    799.72384   0.01625455  0.015250103            7 
 4101000   0.59629954    -7.811467     801.3121   0.01628286  0.015245311            8 
 4102000   0.59087193   -7.7941075    800.35557  0.016259458  0.015240514            7 
 4103000   0.60263821    -7.778969    801.08461  0.016270302  0.015235724           12 
 4104000   0.58812391   -7.8007755    801.42752  0.016273301   0.01523094            7 
 4105000   0.59915105   -7.7990146    801.49371   0.01627068  0.015226154            6 
 4106000   0.60406202   -7.8089039    801.20746  0.016260908  0.015221372           12 
 4107000   0.59666175   -7.8158896    800.87964  0.016250297  0.015216583            8 
 4108000   0.59930491   -7.8005262    800.10042  0.016230534  0.015211796            6 
 4109000   0.57314792   -7.7940559    801.00699   0.01624497  0.015207013           17 
 4110000   0.59145026   -7.8076472    800.21203  0.016224899  0.015202234            8 
 4111000   0.59672667   -7.7969452    799.79395  0.016212478  0.015197446           10 
 4112000   0.58309962    -7.814252    800.19226  0.016216607  0.015192653            9 
 4113000   0.60053329   -7.7918136    799.68005  0.016202286  0.015187873            8 
 4114000     0.596108   -7.8143363    800.44282  0.016213799  0.015183086           15 
 4115000   0.58812914   -7.8092154    800.92072  0.016219537  0.015178306            8 
 4116000   0.59163099   -7.8010669    800.81744  0.016213505  0.015173524           11 
 4117000   0.59994574   -7.8078156    799.34506  0.016179764  0.015168733           10 
 4118000   0.60342618   -7.8171576    799.40941  0.016177137  0.015163952           21 
 4119000    0.5884087   -7.8138324    799.47376  0.016174512  0.015159167           16 
 4120000   0.59304103   -7.8269699    798.72704  0.016155482  0.015154382            9 
 4121000   0.58983734   -7.7907157    798.47828  0.016146532    0.0151496           20 
 4122000   0.58978258   -7.8027209    798.38474  0.016140723  0.015144823           10 
 4123000   0.59858731   -7.8049158    798.97726  0.016148784  0.015140051           12 
 4124000   0.59074907   -7.8054711    798.64923   0.01613824  0.015135268           13 
 4125000   0.59201872   -7.7970266    800.00557  0.016161729  0.015130486           11 
 4126000   0.59737302   -7.8070767     799.6567  0.016150765  0.015125704           17 
 4127000    0.5809545   -7.8159594    799.29701  0.016139589   0.01512092           13 
 4128000   0.59239259   -7.8195369    799.06462  0.016130988  0.015116139           17 
 4129000    0.5887648   -7.7921272    800.52184  0.016156491  0.015111359            8 
 4130000   0.58494195   -7.8254742    798.87248    0.0161193  0.015106581           10 
 4131000   0.59811193   -7.8192166    799.34554   0.01612494  0.015101805           10 
 4132000   0.60371692   -7.8089294     799.4212  0.016122564  0.015097038            6 
 4133000   0.59824874   -7.8091865    799.51342  0.016120522  0.015092275           10 
 4134000   0.59556594   -7.8262746    799.16931  0.016109686  0.015087505           10 
 4135000   0.58719777   -7.8100515    799.58641  0.016114196  0.015082737            9 
 4136000   0.60067724    -7.821134    799.67878  0.016112161  0.015077976            5 
 4137000   0.59465224   -7.8071094     798.4336  0.016083184  0.015073219           10 
 4138000   0.59695985   -7.7907525    800.41878  0.016119276  0.015068466           10 
 4139000   0.59864411   -7.8164867    800.38186  0.016114638  0.015063714           12 
 4140000   0.57849974   -7.8019457    800.93242  0.016121828  0.015058964           12 
 4141000   0.57850579   -7.8076126    798.84633  0.016075954  0.015054214           16 
 4142000   0.58091856   -7.8052437    798.16787  0.016058423   0.01504946           13 
 4143000   0.59567168   -7.7962431    800.51847  0.016101828  0.015044706           18 
 4144000   0.58523901   -7.8041583    799.56298  0.016078728  0.015039958            9 
 4145000   0.58367308     -7.82443    800.77751  0.016099266  0.015035222           21 
 4146000   0.58325839   -7.8220398     800.0123  0.016080003  0.015030482           12 
 4147000   0.58430961   -7.8190489    800.29124  0.016081731  0.015025737           14 
 4148000   0.59320605   -7.8211727    799.41535  0.016060257   0.01502099            9 
 4149000   0.58471079   -7.8168695     798.8865  0.016045764  0.015016254           26 
 4150000   0.58755347   -7.8082621      800.123  0.016066727  0.015011515            9 
 4151000   0.57793121     -7.81782    799.39941   0.01604833  0.015006771            8 
 4152000   0.59157911   -7.8116724    798.83186  0.016033074   0.01500203           24 
 4153000   0.59005207   -7.8269603    800.58189  0.016064329  0.014997296            8 
 4154000   0.58477124   -7.8133513    801.29811   0.01607483  0.014992566           14 
 4155000    0.5895792   -7.8130179    799.31126  0.016031112  0.014987836           20 
 4156000   0.59472502   -7.8310846    799.61774    0.0160334  0.014983102           10 
 4157000   0.58810419   -7.8071597    801.04158  0.016058086  0.014978371           22 
 4158000   0.59189363   -7.8208829    799.71526  0.016027643  0.014973642           10 
 4159000   0.58972488   -7.8256163    800.22517  0.016034006  0.014968911           11 
 4160000   0.58229011   -7.8255646    799.69062  0.016019444  0.014964186           10 
 4161000     0.577431   -7.8282577    798.51862  0.015992122  0.014959461           11 
 4162000   0.58927946    -7.824113    801.01835   0.01603833  0.014954732            9 
 4163000   0.59157965   -7.8285364    799.34292  0.016000939   0.01495001           10 
 4164000   0.58555542   -7.8040464    799.50799    0.0160004  0.014945285            9 
 4165000   0.58167646   -7.8254846    799.05804  0.015987556  0.014940568            9 
 4166000   0.59061423   -7.8387596    800.67552  0.016016073  0.014935846           12 
 4167000   0.58875974   -7.8290453    799.24475  0.015983616  0.014931132            6 
 4168000   0.58104939   -7.8309735    799.48354  0.015984556  0.014926406            8 
 4169000   0.59193852   -7.8274948    801.07572  0.016012547  0.014921685            6 
 4170000   0.57023187   -7.8298204    798.76425  0.015962515  0.014916966           17 
 4171000   0.58052436   -7.8033722    800.02815   0.01598394  0.014912249            6 
 4172000   0.57919048   -7.8284985    799.57274  0.015971012  0.014907533            7 
 4173000   0.58155287   -7.8077244    798.87447  0.015953241  0.014902822            5 
 4174000   0.57964865    -7.846893    799.05161  0.015952955  0.014898109            6 
 4175000   0.58172876   -7.8361054    800.06798  0.015969421  0.014893401            8 
 4176000    0.5870693   -7.8228297    800.34562  0.015971137  0.014888695           13 
 4177000   0.57225917   -7.8378447    799.09382  0.015942339  0.014883985           15 
 4178000   0.57800217   -7.8261248    800.13188  0.015959228  0.014879272           10 
 4179000   0.58123834   -7.8427394    799.64995  0.015945799  0.014874564            9 
 4180000   0.59132964   -7.8057846    797.67755  0.015902662  0.014869862            9 
 4181000   0.57112068     -7.82419    799.03904  0.015925995  0.014865168           13 
 4182000   0.59515063   -7.8103896    799.83528  0.015938054  0.014860465           13 
 4183000   0.59246637    -7.822814     799.9542  0.015936613  0.014855771            8 
 4184000   0.58679595   -7.8114361     800.3846  0.015941376  0.014851077           15 
 4185000   0.58942566   -7.8231918    798.50366  0.015900113  0.014846388           12 
 4186000   0.58120081   -7.8175423    799.38081  0.015913776  0.014841695            8 
 4187000   0.58939252   -7.8455458    797.93806  0.015881261  0.014837007           17 
 4188000   0.57394089   -7.8174316    800.13693  0.015921222  0.014832319           13 
 4189000   0.57672465   -7.8286593     799.5714  0.015906171  0.014827636            7 
 4190000   0.58794814   -7.8041546     800.2015  0.015914907  0.014822959           15 
 4191000   0.58214178   -7.8273445    799.47964  0.015896756  0.014818284           12 
 4192000   0.57459429    -7.831318    799.65338  0.015896417    0.0148136           10 
 4193000   0.57519556   -7.8334731    798.85112  0.015876682  0.014808921            8 
 4194000   0.57836014   -7.8408534    799.41759  0.015884152  0.014804248            5 
 4195000    0.5696995   -7.8290728    798.73592  0.015866824  0.014799574           15 
 4196000   0.58851222    -7.820777    798.13972  0.015851202  0.014794902           13 
 4197000   0.58751916   -7.8253064    800.46768  0.015893648  0.014790231           11 
 4198000   0.58035082   -7.8458322     798.2437  0.015845714  0.014785562           15 
 4199000   0.58876392   -7.8287907    799.01162  0.015857181   0.01478089           15 
 4200000   0.57657514   -7.8230071    799.62756  0.015865626  0.014776231           11 
 4201000   0.58689396   -7.8344028    798.67635  0.015842981  0.014771565           11 
 4202000   0.57067712   -7.8512004    798.60791  0.015837853  0.014766897            7 
 4203000   0.58332083   -7.8290543    800.21795  0.015866008  0.014762232           10 
 4204000   0.58014932    -7.832026      799.675  0.015851471  0.014757574            9 
 4205000   0.57096439   -7.8398364    798.25063  0.015819473  0.014752912           14 
 4206000   0.57528454   -7.8194181    799.67536   0.01584394  0.014748258           13 
 4207000   0.57789747   -7.8341017    800.41902  0.015854905  0.014743605           10 
 4208000    0.5698133    -7.841064    798.91688  0.015821389  0.014738954           14 
 4209000   0.58328281   -7.8190467    798.29112  0.015805241    0.0147343           12 
 4210000   0.57006902    -7.833562    799.79578   0.01583127  0.014729652           13 
 4211000   0.57456677   -7.8539918    799.20511  0.015815822   0.01472501           10 
 4212000   0.58346144    -7.825946    799.37635  0.015815455  0.014720365            9 
 4213000    0.5692087   -7.8413417    799.09505  0.015806137  0.014715718           11 
 4214000   0.56960358   -7.8454261    799.90283   0.01581836  0.014711076            7 
 4215000   0.58989781   -7.8593099    799.40619  0.015804788  0.014706427            6 
 4216000   0.57306964     -7.82799    798.30636    0.0157793  0.014701784           18 
 4217000   0.58040594   -7.8455921    797.59214  0.015761444  0.014697141           11 
 4218000    0.5806081   -7.8424324    798.45937  0.015774841  0.014692494           10 
 4219000   0.57307732   -7.8357501    799.44609  0.015790592  0.014687852           16 
 4220000   0.59013927   -7.8326475    799.55149  0.015788931  0.014683217           15 
 4221000   0.57154816   -7.8356933    798.66193  0.015767629  0.014678581            7 
 4222000   0.56569444   -7.8374759    799.93865  0.015789094  0.014673946           19 
 4223000   0.58216834   -7.8378857    799.11101  0.015769023  0.014669314           17 
 4224000    0.5804353   -7.8333628    799.15511   0.01576616  0.014664684            9 
 4225000   0.58175044   -7.8474716    798.97931  0.015758961   0.01466005           10 
 4226000   0.56913479    -7.833281    799.10999  0.015757809   0.01465542           19 
 4227000   0.59143334    -7.849611     798.9227  0.015750388  0.014650791           20 
 4228000   0.57794318   -7.8361037     800.6294  0.015780302  0.014646169            9 
 4229000   0.58285753   -7.8235177    798.74923  0.015739521   0.01464154           12 
 4230000   0.57467665   -7.8437047    800.64744  0.015773196  0.014636917            9 
 4231000   0.56983832   -7.8418599     798.8863  0.015734781  0.014632301            9 
 4232000   0.58032687   -7.8440348    798.72522  0.015727891  0.014627675           13 
 4233000   0.57901733    -7.849352    798.12677  0.015712394  0.014623051           13 
 4234000   0.58191659     -7.83409    798.88053  0.015723519  0.014618429           11 
 4235000   0.57885085   -7.8369464    798.46809   0.01571169  0.014613807           12 
 4236000   0.58695712   -7.8699479     798.6534  0.015711626  0.014609189           12 
 4237000    0.5658417   -7.8469058     797.5091  0.015685412   0.01460457           11 
 4238000   0.57641778   -7.8496134    797.78211  0.015687079  0.014599953            8 
 4239000   0.57798564   -7.8640047    797.80129  0.015683756  0.014595331            9 
 4240000   0.56965782   -7.8468302     798.2049  0.015687989  0.014590704            8 
 4241000   0.57833039   -7.8760561    798.31912  0.015686535  0.014586087           22 
 4242000   0.57085853   -7.8629105    799.91683  0.015714223  0.014581472            8 
 4243000   0.56287127   -7.8572213    798.46808  0.015682066  0.014576854           12 
 4244000    0.5725829   -7.8689552    799.40508  0.015696769  0.014572245           15 
 4245000    0.5719658   -7.8398531    798.96255  0.015684385  0.014567635           13 
 4246000   0.57355611   -7.8638473    798.69436  0.015675427  0.014563022           19 
 4247000   0.57712707   -7.8845606    798.80513   0.01567391  0.014558405           19 
 4248000   0.56801363   -7.8575311    797.94874   0.01565342    0.0145538           12 
 4249000   0.57055081    -7.871799    799.03252  0.015670992   0.01454919           11 
 4250000   0.57892466   -7.8575152    798.18303  0.015650648  0.014544578           10 
 4251000   0.56978032   -7.8626615    798.16697  0.015646651  0.014539973           14 
 4252000    0.5686165   -7.8465007    798.25606  0.015644717  0.014535372           12 
 4253000   0.57891545   -7.8486325     798.6807  0.015649359  0.014530766           16 
 4254000   0.56479023   -7.8546114    799.09464  0.015653789  0.014526175           24 
 4255000   0.56942549   -7.8512143    798.57209  0.015639876  0.014521574           14 
 4256000    0.5585125   -7.8347718    798.58557  0.015636466  0.014516978           35 
 4257000    0.5617243   -7.8542323     798.3324  0.015627836  0.014512382           13 
 4258000   0.58119603   -7.8495306    799.03014  0.015637822   0.01450779           10 
 4259000   0.56304057   -7.8391054    798.34949  0.015620832  0.014503194           10 
 4260000   0.57456703   -7.8576824    797.78377  0.015606099  0.014498609           19 
 4261000   0.56909828   -7.8642481    798.07418  0.015608116  0.014494018           14 
 4262000   0.57146605   -7.8730038    797.99243  0.015602855  0.014489435           23 
 4263000   0.56483774   -7.8643381     798.1018  0.015601333  0.014484852           26 
 4264000   0.56898078   -7.8569698    798.34959  0.015602517  0.014480272           15 
 4265000   0.57372469   -7.8599476    799.72621  0.015625756  0.014475693           21 
 4266000     0.579197   -7.8638799    797.83222  0.015585096   0.01447111           30 
 4267000   0.56068026   -7.8603113    797.91809   0.01558312  0.014466528           15 
 4268000   0.57219602   -7.8455143    798.41352  0.015589143  0.014461943           15 
 4269000   0.57547703   -7.8673878    799.86017   0.01561373  0.014457365           13 
 4270000   0.57216739    -7.853104    797.42456   0.01556254  0.014452785           14 
 4271000   0.57593342    -7.871598    797.93437  0.015568844  0.014448208           15 
 4272000   0.57570875   -7.8358328    798.75565   0.01558122  0.014443635           12 
 4273000   0.56533387   -7.8570514    798.14612  0.015565686  0.014439063           20 
 4274000   0.55260994   -7.8384091    798.82442   0.01557527   0.01443449           14 
 4275000   0.57289454   -7.8563407    799.76658  0.015589992  0.014429924           21 
 4276000   0.57203769   -7.8613848    797.28641  0.015538011  0.014425353           19 
 4277000   0.57226499   -7.8328866    798.57615  0.015559507  0.014420782           26 
 4278000   0.56510674   -7.8764026     798.8672   0.01556154   0.01441622           22 
 4279000   0.56152882   -7.8563259    799.24057  0.015565174  0.014411657           21 
 4280000   0.55827738     -7.86203    797.97231  0.015536844  0.014407101           21 
 4281000   0.55854347   -7.8637923    799.02685  0.015553742  0.014402538           16 
 4282000   0.57173804   -7.8579143    797.91095  0.015528393  0.014397981           15 
 4283000   0.56886457   -7.8524075    798.92982  0.015544591  0.014393432           22 
 4284000   0.56309837   -7.8448214    797.62976  0.015515674  0.014388877            8 
 4285000   0.56628229   -7.8683165    797.12052  0.015502149  0.014384325           19 
 4286000   0.57052559   -7.8420248    799.78597  0.015550357   0.01437978           22 
 4287000   0.56942948    -7.855574    797.88707  0.015509818  0.014375242           27 
 4288000    0.5707509   -7.8709548     799.5303  0.015538135  0.014370709           27 
 4289000   0.56237363   -7.8537868    798.83685  0.015521039  0.014366172           21 
 4290000   0.56359641   -7.8323799    799.48202  0.015529954  0.014361644           19 
 4291000   0.56894028   -7.8580051     799.0466  0.015517878  0.014357112           14 
 4292000   0.56780284   -7.8836734    798.00618  0.015494062  0.014352575           16 
 4293000   0.56063223   -7.8440765    799.35603  0.015516656  0.014348044           21 
 4294000   0.56923138   -7.8632968    798.08032  0.015488284  0.014343509           19 
 4295000   0.57857425   -7.8675885    797.79175  0.015479079  0.014338972           14 
 4296000   0.57524014   -7.8673647    797.42257  0.015468315  0.014334435           22 
 4297000   0.57475886   -7.8877239    797.52664  0.015466733    0.0143299           14 
 4298000    0.5490142   -7.8706413    797.88854  0.015470152  0.014325368           21 
 4299000   0.58257347   -7.8529495     799.2701  0.015493334  0.014320844           11 
 4300000   0.55130728   -7.8571458    797.60094  0.015457382   0.01431632           16 
 4301000    0.5647176   -7.8584774    797.49625   0.01545176  0.014311801           18 
 4302000   0.56412624   -7.8724305    798.29059  0.015463555  0.014307283           19 
 4303000    0.5666784   -7.8821631    797.92759  0.015452932  0.014302769           14 
 4304000   0.56803494   -7.8704074    798.42975  0.015459064  0.014298253           15 
 4305000   0.57047404   -7.8521579    798.36225  0.015454167  0.014293743           15 
 4306000   0.56910308   -7.8548812    797.44934   0.01543291  0.014289225           15 
 4307000    0.5599948    -7.859556    797.48472  0.015430012  0.014284713           12 
 4308000   0.54802073   -7.8664189    798.58478  0.015447709  0.014280202           16 
 4309000   0.57926207   -7.8838045    798.19917  0.015436667   0.01427569           21 
 4310000   0.56363936     -7.85513    797.69184  0.015423276  0.014271183           16 
 4311000   0.56967079   -7.8560903    797.30662  0.015412252  0.014266676           14 
 4312000   0.57267213   -7.8778866    798.48785  0.015431506  0.014262173           21 
 4313000   0.57238963   -7.8579145    797.72587  0.015413206   0.01425767           29 
 4314000   0.56288261    -7.862891    799.52892  0.015444462  0.014253169           19 
 4315000   0.55972567   -7.8705618    798.21449  0.015415498  0.014248669           19 
 4316000   0.55119371   -7.8876074     799.7761  0.015442078   0.01424417           20 
 4317000   0.55783763   -7.8894335    798.48873   0.01541365  0.014239674           19 
 4318000   0.55550663   -7.8628997    797.30784   0.01538729  0.014235182           21 
 4319000   0.55778271   -7.8662906     798.6058  0.015408771  0.014230695           28 
 4320000   0.56215103    -7.878184    796.99595   0.01537415  0.014226201           23 
 4321000    0.5539244   -7.8845852     797.9388  0.015388776  0.014221706           35 
 4322000   0.58099971   -7.8782819    798.53981  0.015396803  0.014217215           37 
 4323000   0.55979181   -7.8650676    798.29367  0.015388497  0.014212721           22 
 4324000   0.55794115   -7.8594046    796.77717  0.015355712  0.014208235           21 
 4325000   0.56209118   -7.8667642    798.24475  0.015380438  0.014203749           48 
 4326000   0.56089966   -7.8656443    797.46094  0.015361784  0.014199262           16 
 4327000   0.57262586   -7.8813167    797.93814  0.015367424  0.014194782           35 
 4328000   0.55118962   -7.8832393    797.61745  0.015357699  0.014190296           17 
 4329000   0.56122117   -7.8749221     799.6958   0.01539416  0.014185819           12 
 4330000   0.55903554   -7.8618912    796.62543  0.015331513  0.014181334           61 
 4331000   0.56150808   -7.8663679    798.51446   0.01536432   0.01417686           41 
 4332000   0.55973372   -7.8741067    798.97882  0.015369706  0.014172383           38 
 4333000    0.5627479    -7.889814    797.58601  0.015339372  0.014167912           31 
 4334000   0.57203572   -7.8755322    798.52635  0.015353914  0.014163438           48 
 4335000   0.55324504   -7.8843781    798.11984  0.015342558  0.014158962           28 
 4336000   0.55951932   -7.8907477      797.726   0.01533145  0.014154487           32 
 4337000   0.55806748   -7.8696546    798.03976  0.015333944  0.014150007           36 
 4338000   0.54425685   -7.8879151    796.30952  0.015297171  0.014145525           53 
 4339000   0.55805326   -7.8976841    798.82712  0.015341997  0.014141048           48 
 4340000   0.56564389   -7.8878709    797.76528  0.015318074  0.014136575           39 
 4341000   0.55400144   -7.8668611    798.21445  0.015323168  0.014132101           36 
 4342000   0.55546315   -7.8771615    797.06269  0.015297534  0.014127635           40 
 4343000   0.56389959   -7.8791195    797.75158   0.01530723  0.014123163           34 
 4344000   0.55689242   -7.8972403    798.58013    0.0153196  0.014118698           39 
 4345000   0.56239023   -7.8712573    797.50823  0.015295517  0.014114233           25 
 4346000   0.55115115   -7.8949968    797.97906  0.015301025  0.014109767           35 
 4347000   0.55467255   -7.8898341    798.03692  0.015298614  0.014105299           33 
 4348000   0.55193366   -7.8818183    797.67777  0.015288212  0.014100834           52 
 4349000   0.54559118   -7.8872785    798.03707  0.015291582  0.014096365           50 
 4350000   0.55166642   -7.8881592    796.96058  0.015267444  0.014091901           64 
 4351000   0.55424543   -7.8817713    797.98423  0.015283541  0.014087443           33 
 4352000   0.56265158   -7.8900475    798.20982  0.015284349  0.014082989           46 
 4353000    0.5528784   -7.8815838    797.44157   0.01526613  0.014078536           39 
 4354000   0.55923948   -7.8852133    796.76478   0.01524967  0.014074081           31 
 4355000   0.56172891   -7.8577062    798.92388  0.015287483  0.014069636           41 
 4356000   0.53704265   -7.8763349    798.04509  0.015267162  0.014065188           15 
 4357000   0.56389865   -7.8833274    797.87011  0.015260311  0.014060739           32 
 4358000   0.55880788    -7.880322    798.92019  0.015276889  0.014056295           45 
 4359000   0.55546497   -7.9012269    797.18828  0.015240275   0.01405185           24 
 4360000   0.55023541   -7.9080681    797.33983  0.015239676  0.014047407           36 
 4361000   0.54856529   -7.8769785    796.40475  0.015218313  0.014042963           22 
 4362000   0.55112734   -7.8848014    797.05085  0.015227167  0.014038523           35 
 4363000   0.54048438   -7.8625873    797.42865  0.015230893  0.014034081           28 
 4364000   0.56702493    -7.869144    798.48552  0.015247585  0.014029646           54 
 4365000   0.56906214   -7.8808488    798.21163  0.015238863  0.014025212           32 
 4366000    0.5452972   -7.8882861    796.65302  0.015205623  0.014020778           14 
 4367000   0.57013839   -7.8864959    798.17676  0.015231218  0.014016343           24 
 4368000   0.54792927   -7.8567931     797.0203  0.015205668  0.014011909           17 
 4369000   0.54330598   -7.9023285    799.21147  0.015243982  0.014007477           43 
 4370000   0.54735723   -7.8870211    797.40412  0.015206028  0.014003046           40 
 4371000   0.54882189   -7.8652354    797.71381  0.015208454  0.013998615           43 
 4372000   0.56066682   -7.8723816    797.37878  0.015198589  0.013994196           29 
 4373000    0.5487721   -7.8641884    797.00957  0.015188078  0.013989779           35 
 4374000   0.55380026   -7.8804816    798.63971  0.015215663  0.013985359           23 
 4375000   0.54563678   -7.8939971    797.74841  0.015195208  0.013980944           47 
 4376000   0.55445726   -7.8794224    797.78569  0.015192445  0.013976522           26 
 4377000   0.55555407   -7.8849696    798.44627  0.015201551  0.013972104           29 
 4378000   0.56361457   -7.8774807    798.13098  0.015192078  0.013967684           34 
 4379000   0.54539182   -7.9016882    796.50567  0.015157678  0.013963267           37 
 4380000   0.54824733   -7.8873495    797.63576  0.015175718  0.013958848           25 
 4381000   0.55104358   -7.8701912     797.6522  0.015172567  0.013954435           26 
 4382000   0.54976196   -7.8994773    796.79953  0.015152889  0.013950021           22 
 4383000   0.55511417   -7.8866351    796.77234  0.015148915  0.013945611           21 
 4384000   0.55268661   -7.8773309    797.46468   0.01515862  0.013941197           22 
 4385000   0.55924247   -7.8814277    796.98123  0.015145976  0.013936786           20 
 4386000   0.57188437   -7.8942515     797.3452  0.015149438  0.013932379           32 
 4387000   0.55485215   -7.8792521    796.15357  0.015123349  0.013927967           36 
 4388000   0.54495506   -7.9093866    797.98905   0.01515476  0.013923554           37 
 4389000   0.55284594   -7.8904619    799.21839  0.015174649  0.013919145           36 
 4390000   0.56195979   -7.8977041    796.80856  0.015125447  0.013914742           44 
 4391000   0.54230146   -7.8886077    796.65073  0.015119007   0.01391034           43 
 4392000    0.5459033   -7.8976978    794.99441  0.015084138  0.013905937           61 
 4393000   0.53492074   -7.8948092    797.85173  0.015134906  0.013901538           41 
 4394000   0.54474028   -7.8956439    798.47973  0.015143372  0.013897144           19 
 4395000   0.56156064   -7.8975484    798.72211  0.015144522  0.013892758           38 
 4396000    0.5567384   -7.8756547    796.18328   0.01509295   0.01388837           41 
 4397000   0.54542663   -7.8936472    797.08745  0.015106653  0.013883982           52 
 4398000   0.55253079   -7.8889237    798.10045  0.015122413  0.013879597           50 
 4399000   0.55386338   -7.8906585    797.89188  0.015115024  0.013875218           18 
 4400000   0.54352878   -7.8776607    797.60879  0.015106227  0.013870837           30 
 4401000   0.53298166   -7.8845288    797.50126  0.015100758  0.013866458           48 
 4402000   0.54377805    -7.884093    797.41193  0.015095637  0.013862073           48 
 4403000   0.55095336    -7.904103     797.8791   0.01510105    0.0138577           42 
 4404000   0.54744346   -7.9057221    797.59341  0.015092216  0.013853321           37 
 4405000   0.55032065   -7.8816813    797.74533  0.015091663  0.013848943           41 
 4406000   0.55498491   -7.8898316    797.52843  0.015084136  0.013844565           32 
 4407000    0.5352012   -7.8999588    797.28891  0.015076184  0.013840196           35 
 4408000   0.55500839   -7.9002833    797.86617  0.015083677  0.013835823           33 
 4409000   0.54598277   -7.9007491    797.10775  0.015065921  0.013831451           54 
 4410000    0.5454062   -7.8781787    796.52478  0.015051489   0.01382708           51 
 4411000   0.53831943   -7.8894278     798.4522   0.01508449  0.013822707           46 
 4412000   0.54128096   -7.8934724    797.60746  0.015065115  0.013818339           34 
 4413000   0.53935635   -7.9099379    797.64941  0.015062494  0.013813964           29 
 4414000   0.54821154   -7.9115315    796.53842  0.015038106  0.013809594           34 
 4415000   0.55354517   -7.8920881    796.75591  0.015038805  0.013805226           51 
 4416000   0.56927068   -7.9131203    797.28786  0.015045438   0.01380086           68 
 4417000    0.5401403   -7.9026258    796.88506  0.015034432  0.013796492           65 
 4418000    0.5533277   -7.9210961    797.79558  0.015048204  0.013792128           42 
 4419000   0.54710811   -7.8920454    798.28236  0.015053978  0.013787769           47 
 4420000   0.54330778   -7.8990075    797.06167  0.015027558  0.013783408           43 
 4421000    0.5440731   -7.9121237    797.29767  0.015028607   0.01377905           54 
 4422000   0.54151325   -7.8955552    797.45244  0.015028125  0.013774694           53 
 4423000   0.53634378   -7.8916888    797.40488  0.015023831  0.013770339           50 
 4424000   0.54229587   -7.8974873    796.47452  0.015002911  0.013765984           61 
 4425000   0.54336858   -7.9109761    798.24111  0.015032789  0.013761631           38 
 4426000   0.54024712   -7.8956616    797.45557  0.015014602  0.013757289           43 
 4427000   0.54506857   -7.9025606    796.55787  0.014994313  0.013752941           73 
 4428000   0.54498367    -7.918303    796.52125  0.014990237   0.01374859           27 
 4429000   0.55448255    -7.896196    796.92243  0.014994401  0.013744249           51 
 4430000   0.55182686   -7.9194529    797.14949  0.014995288  0.013739905           48 
 4431000   0.54737504   -7.9079938     797.3441  0.014995563  0.013735567           51 
 4432000   0.55791826     -7.89945    797.38252  0.014992902   0.01373122           58 
 4433000    0.5487126   -7.8958738    797.57851  0.014993205  0.013726879           25 
 4434000   0.54147733    -7.915732    797.80709  0.014994119  0.013722535           41 
 4435000   0.54967739   -7.9056341    798.21012  0.014998311  0.013718188           19 
 4436000     0.536745   -7.9125383    796.04907  0.014954333  0.013713848           50 
 4437000   0.54207552   -7.9155539     796.9875  0.014968588  0.013709505           46 
 4438000   0.54514529   -7.9055587    796.27527  0.014951842  0.013705166           41 
 4439000   0.55562395    -7.904812    797.83789  0.014977808  0.013700828           23 
 4440000   0.53332103   -7.8986388    795.25139  0.014925889   0.01369649           54 
 4441000   0.54268369   -7.8959074    796.43092  0.014944662  0.013692154           35 
 4442000    0.5505304   -7.9074964     797.6458  0.014964089  0.013687817           30 
 4443000   0.53411668   -7.9242962    797.34616  0.014955101  0.013683483           32 
 4444000   0.52509322   -7.9175731    796.61675  0.014938058  0.013679151           22 
 4445000   0.55017318   -7.9005693    796.15082  0.014925962  0.013674822           47 
 4446000     0.530007   -7.9151482    794.71286  0.014895653  0.013670487           25 
 4447000    0.5410766   -7.9163731    796.23058  0.014920744  0.013666162           66 
 4448000   0.54122924   -7.9051159    796.61334   0.01492456  0.013661837           32 
 4449000   0.54540137   -7.9017814    796.96847  0.014927858  0.013657514           27 
 4450000   0.54608665   -7.8964533    796.63402   0.01491824  0.013653191           67 
 4451000   0.53951756   -7.9075559    795.30733   0.01489005   0.01364887           52 
 4452000   0.53801788   -7.9332691    796.13459   0.01490219  0.013644556           55 
 4453000    0.5393992    -7.911408    795.57237  0.014888322  0.013640235           56 
 4454000     0.542511   -7.9091355    796.76782  0.014907346  0.013635918           40 
 4455000   0.54325371   -7.9155716    795.50365  0.014880353  0.013631604           43 
 4456000   0.54036149   -7.9201385    796.38132  0.014893427  0.013627285           53 
 4457000   0.54357053   -7.9309957    796.84368   0.01489873  0.013622971           37 
 4458000   0.53864482    -7.915153    796.39149  0.014886935  0.013618651           35 
 4459000    0.5363703   -7.9088404     796.9498  0.014894031  0.013614336           15 
 4460000   0.52688801   -7.9168213    796.76236  0.014887189  0.013610023           30 
 4461000   0.53610558   -7.9154556    796.30572  0.014875322  0.013605714           40 
 4462000   0.54422574   -7.9111357    797.47994  0.014893918  0.013601404           31 
 4463000   0.53996018   -7.9333004     795.5507  0.014854558  0.013597095           22 
 4464000   0.54106271   -7.9088558    796.43977  0.014867827  0.013592792           20 
 4465000   0.52831844   -7.9298387    796.03264  0.014856899  0.013588486           15 
 4466000   0.53911645   -7.9030101    794.52011  0.014825349  0.013584174           18 
 4467000   0.54172921   -7.9273546    796.46448  0.014858303  0.013579871           30 
 4468000   0.54046995   -7.9199817    796.44167  0.014854552  0.013575566           28 
 4469000   0.54889445   -7.9091789     795.9489   0.01484204  0.013571261           43 
 4470000   0.54498174   -7.9175627    795.93634  0.014838485  0.013566965           46 
 4471000   0.53215674   -7.9308888    797.93557  0.014872429  0.013562664           59 
 4472000     0.529133   -7.9276957    795.72517  0.014827914  0.013558363           17 
 4473000   0.53658312   -7.9033922    794.96986  0.014810527  0.013554065           33 
 4474000   0.53828852   -7.9161352    795.76124  0.014821957  0.013549772           18 
 4475000     0.535898   -7.9201619    794.83918  0.014801474  0.013545479           24 
 4476000   0.53405464   -7.9087844    795.00739  0.014801299  0.013541186           23 
 4477000   0.54009466   -7.9142715    795.89479  0.014814511  0.013536897           38 
 4478000   0.52955307   -7.9224885     794.9143  0.014792956  0.013532609           28 
 4479000    0.5411401   -7.9426085    796.99704  0.014828404  0.013528317           47 
 4480000    0.5308982   -7.9344846    795.85769    0.0148039  0.013524033           22 
 4481000   0.54439084   -7.9136566    794.92845  0.014783316  0.013519746           46 
 4482000    0.5333929   -7.9199631    795.96449   0.01479928  0.013515458           34 
 4483000   0.53331671   -7.9388022    797.32983  0.014821359   0.01351117           63 
 4484000   0.53431551   -7.9340949    795.33959  0.014781066  0.013506883           18 
 4485000   0.53067333   -7.9108897    795.83506  0.014786976  0.013502597           18 
 4486000    0.5348903   -7.9232429    795.77694    0.0147826  0.013498316           29 
 4487000   0.53231189   -7.9417798    795.41649  0.014772611  0.013494035           19 
 4488000   0.53238263   -7.9341435    796.39922  0.014787567  0.013489754           33 
 4489000   0.53077694   -7.9067228    796.90282  0.014793622  0.013485478           20 
 4490000   0.53123702   -7.9223224    795.46391  0.014763621  0.013481202           16 
 4491000   0.53463821   -7.9381464    795.51677  0.014761315   0.01347693           15 
 4492000   0.53511387   -7.9236381    794.57555  0.014740568  0.013472656           28 
 4493000   0.53585423   -7.9225584    796.70729  0.014776825  0.013468388           17 
 4494000   0.52974917   -7.9382911    795.96048  0.014759688  0.013464118           31 
 4495000   0.52485496   -7.9166746    794.77307  0.014734391  0.013459853           18 
 4496000   0.53621848   -7.9175101    795.18903  0.014738824  0.013455592           54 
 4497000   0.54205627   -7.9247933    797.24622  0.014773668   0.01345133           23 
 4498000   0.53390577   -7.9308858    794.82264  0.014725483  0.013447069           30 
 4499000    0.5276704   -7.9431395    795.90807  0.014742314  0.013442806           27 
 4500000   0.53311378   -7.9334283    795.90282  0.014738941  0.013438548           50 
 4501000   0.52783836   -7.9456454    795.90056  0.014735625  0.013434292           18 
 4502000   0.53282008   -7.9325122    796.68483  0.014746869   0.01343004           18 
 4503000   0.52977538   -7.9207295    795.44804  0.014720705  0.013425785           12 
 4504000   0.53168065   -7.9345092      794.654  0.014702746  0.013421528           39 
 4505000   0.53187183   -7.9190829    795.56373   0.01471631   0.01341728           69 
 4506000   0.54156552   -7.9288901    795.58783   0.01471349  0.013413035           55 
 4507000   0.53121911   -7.9361693    797.94547  0.014753818  0.013408787           31 
 4508000   0.52797686   -7.9252555    794.83418  0.014693031   0.01340454           19 
 4509000   0.51880762   -7.9355053    795.31333  0.014698627  0.013400294           47 
 4510000   0.52112277   -7.9333796    797.26193  0.014731373  0.013396049           35 
 4511000   0.53661908   -7.9241589    797.46514  0.014731862  0.013391809           45 
 4512000   0.54364836    -7.935545    796.03498  0.014702183  0.013387568           49 
 4513000   0.53259599    -7.935377    794.83117  0.014676696  0.013383324           41 
 4514000   0.53130851    -7.930284    794.97536  0.014676107  0.013379091           16 
 4515000   0.52478086   -7.9474961    796.37948  0.014698772  0.013374859           32 
 4516000   0.53234152   -7.9606996    794.95485  0.014669229   0.01337062           23 
 4517000   0.52487415   -7.9371066    795.95697  0.014684469  0.013366386           25 
 4518000   0.52971599   -7.9360287    795.07309  0.014664916  0.013362153           66 
 4519000   0.52973699   -7.9278587    794.83724  0.014657322  0.013357927           55 
 4520000   0.53119444   -7.9270259    795.63738  0.014668831  0.013353695           25 
 4521000   0.52810818   -7.9380106    796.01389  0.014672526  0.013349469           43 
 4522000   0.53220632   -7.9438858    796.19055  0.014672537   0.01334524           18 
 4523000    0.5324873   -7.9293824    795.56604  0.014657787  0.013341013           40 
 4524000   0.52768288   -7.9216252    796.33267  0.014668668  0.013336791           25 
 4525000   0.52367328   -7.9249449    795.43854   0.01464896  0.013332566           46 
 4526000   0.53189642   -7.9349924     797.2915  0.014679841  0.013328345           43 
 4527000   0.52964994   -7.9339508    795.26398  0.014639275  0.013324127           64 
 4528000   0.53268541   -7.9421668    795.23857  0.014635574  0.013319912           69 
 4529000   0.52425257   -7.9373222    794.69356  0.014622315  0.013315695           31 
 4530000   0.53469867   -7.9552909    795.34648  0.014631098  0.013311482           68 
 4531000   0.53009909   -7.9375275    795.50394  0.014630765  0.013307273           57 
 4532000   0.53893951   -7.9427504    795.71607  0.014631437  0.013303064           44 
 4533000   0.52858288   -7.9363272    795.49154  0.014624082  0.013298856           32 
 4534000   0.51669477   -7.9298275    795.25754  0.014616555  0.013294653           30 
 4535000   0.52743758    -7.934063    795.84549  0.014624136  0.013290445           59 
 4536000   0.52131736   -7.9260366    794.72591  0.014600344  0.013286239           28 
 4537000   0.53217925   -7.9272318    795.03211   0.01460275  0.013282036           36 
 4538000   0.51647664   -7.9233449    795.74068  0.014612544  0.013277836           55 
 4539000   0.52112836   -7.9424363    794.35327  0.014583852  0.013273633           47 
 4540000     0.514085    -7.938653    794.19535  0.014577741  0.013269428           62 
 4541000    0.5284743   -7.9238996    795.80699  0.014604107  0.013265229           52 
 4542000   0.51950421   -7.9313485    794.97543  0.014585635   0.01326103           57 
 4543000   0.50152502   -7.9545362    794.51688  0.014574013  0.013256837           53 
 4544000   0.52980572   -7.9434743      795.474  0.014588358  0.013252643           24 
 4545000   0.52868496   -7.9407278    794.51433  0.014567553  0.013248451           76 
 4546000   0.53435197   -7.9511248     795.2628  0.014578069  0.013244259           54 
 4547000   0.53417723    -7.942471    797.27346  0.014611712  0.013240073           55 
 4548000   0.51933128   -7.9359806    795.42696  0.014574666  0.013235888           38 
 4549000   0.52185048   -7.9332677    795.35107  0.014570072  0.013231697           60 
 4550000   0.52814306   -7.9376238    795.11055  0.014562464  0.013227512           29 
 4551000    0.5264506   -7.9300842    794.91389  0.014555663  0.013223328           32 
 4552000   0.51726119   -7.9661308    795.91871  0.014570861  0.013219142           42 
 4553000   0.52434938    -7.947533    795.65198  0.014562779  0.013214963           31 
 4554000   0.51432823   -7.9279676    795.02596  0.014548126   0.01321078           71 
 4555000   0.52307136   -7.9406697    795.47388  0.014553126  0.013206601           56 
 4556000   0.51269846   -7.9499735    794.65392  0.014534934  0.013202418           49 
 4557000   0.51867245   -7.9392095    794.96638  0.014537459  0.013198242           57 
 4558000   0.50499436   -7.9376305    794.75251  0.014530359  0.013194066           49 
 4559000   0.52297648   -7.9498156    794.16736  0.014516476   0.01318989           54 
 4560000   0.51668523   -7.9470028    794.85451   0.01452585  0.013185718           67 
 4561000   0.51383541   -7.9442894    795.36269   0.01453195  0.013181551           35 
 4562000   0.51509208   -7.9359263    796.04085  0.014541152  0.013177385           39 
 4563000   0.53216579   -7.9471519    794.76561  0.014514676  0.013173221           68 
 4564000   0.51627269   -7.9461911    795.13058   0.01451816   0.01316906           52 
 4565000    0.5291649   -7.9321901    794.70199  0.014507156    0.0131649           46 
 4566000   0.52078247   -7.9693883    796.20168  0.014531349  0.013160738           50 
 4567000   0.52767167   -7.9388067    794.59685  0.014498884  0.013156573           67 
 4568000   0.52465004   -7.9493313    796.46844  0.014529853  0.013152414           51 
 4569000   0.51565654   -7.9519315    795.07593  0.014501275  0.013148251           47 
 4570000   0.50775367   -7.9520572    795.25488  0.014501365  0.013144094           54 
 4571000   0.52430338   -7.9540476    794.92612  0.014492199  0.013139936           55 
 4572000   0.52731573   -7.9394373    794.20464  0.014475879  0.013135779           46 
 4573000   0.52109715     -7.93552     794.3344  0.014475078  0.013131623           47 
 4574000   0.52921211   -7.9465078    795.70868  0.014496952  0.013127474           68 
 4575000   0.50905646   -7.9650716    795.96778  0.014498502  0.013123324           37 
 4576000   0.51528183   -7.9504024    794.93837  0.014476587  0.013119175           50 
 4577000   0.51427847   -7.9380882     795.1202  0.014476735  0.013115028           23 
 4578000   0.52058383   -7.9327504    794.70981  0.014466102  0.013110878           33 
 4579000   0.51345478   -7.9555233    795.98569  0.014486163  0.013106732           54 
 4580000    0.5140017   -7.9463291    795.20462  0.014468789  0.013102588           39 
 4581000   0.51213076   -7.9528564    793.15918  0.014428421  0.013098443           71 
 4582000   0.52187154     -7.93325    795.77676  0.014472879  0.013094305           69 
 4583000    0.5219384    -7.939098    795.25626  0.014460256  0.013090168           45 
 4584000   0.52579086   -7.9641994    794.26837  0.014439143   0.01308603           61 
 4585000     0.523092   -7.9510788    795.49022  0.014458201  0.013081898           61 
 4586000   0.51882319   -7.9496499    796.00305  0.014464367  0.013077761           24 
 4587000   0.52383075   -7.9622528    794.53415  0.014434528   0.01307363           27 
 4588000   0.52696511   -7.9374564    795.96205  0.014457317  0.013069495           57 
 4589000   0.50466011   -7.9579648    794.89016  0.014434702  0.013065363           45 
 4590000    0.5217218    -7.949929    793.94543  0.014414405  0.013061231           39 
 4591000   0.52803108   -7.9518295    795.29505  0.014435763  0.013057105           43 
 4592000   0.50807954   -7.9572452    794.21073  0.014412942  0.013052973           31 
 4593000   0.51011421    -7.951532    795.19542  0.014427669  0.013048844           55 
 4594000   0.52432529   -7.9672011    794.40064  0.014410112  0.013044713           41 
 4595000   0.51296751   -7.9726897    795.08717  0.014419426  0.013040585           50 
 4596000    0.5106592   -7.9532959    795.37816  0.014421565  0.013036462           49 
 4597000   0.51728498   -7.9684886    793.29228  0.014380616  0.013032335           55 
 4598000   0.51312401   -7.9564131     796.1311  0.014428938   0.01302821           42 
 4599000    0.5153538   -7.9371894    795.08774  0.014406895  0.013024091           48 
 4600000   0.51763266   -7.9451187    795.37749  0.014409012  0.013019973           49 
 4601000   0.51343711   -7.9483347    795.49015  0.014407921  0.013015861           47 
 4602000   0.51496274   -7.9517814    794.41197  0.014385267  0.013011748           34 
 4603000   0.52085277   -7.9749141    795.85461  0.014408259  0.013007637           63 
 4604000   0.52280608   -7.9670909     795.5944   0.01440042  0.013003528           49 
 4605000   0.52165289   -7.9501988    794.83859  0.014383615  0.012999418           56 
 4606000   0.51416447   -7.9580882    795.90744  0.014399831  0.012995309           52 
 4607000   0.50808226   -7.9494307    794.52513  0.014371701    0.0129912           39 
 4608000   0.52285262   -7.9502599    794.67163  0.014371232  0.012987097           66 
 4609000   0.51332065   -7.9723427    795.93163  0.014390895  0.012982998           45 
 4610000   0.51323021   -7.9665364    795.47439  0.014379508  0.012978898           58 
 4611000   0.49717511   -7.9505042    793.56215   0.01434183  0.012974798           55 
 4612000   0.52031213   -7.9797345    795.42084  0.014372305  0.012970702           74 
 4613000   0.50434377    -7.955401    794.50489  0.014352643  0.012966604           52 
 4614000   0.52339194    -7.955116    794.79307  0.014354737  0.012962514           55 
 4615000   0.50020464   -7.9638687    795.20414  0.014359049  0.012958416           67 
 4616000   0.51749191   -7.9666449    795.73493  0.014365521  0.012954324           63 
 4617000   0.50880688   -7.9800144    794.93945  0.014348052  0.012950234           76 
 4618000   0.51124405   -7.9364587    794.89309  0.014344108  0.012946146           36 
 4619000   0.52098816    -7.958324    795.57894  0.014353376   0.01294206           56 
 4620000   0.50631681   -7.9639361    794.90457  0.014338106  0.012937973           45 
 4621000   0.51996225   -7.9627061    795.47699  0.014345326  0.012933884           40 
 4622000   0.51287211   -7.9582053    794.11922  0.014317742  0.012929799           46 
 4623000   0.51081002   -7.9646174    795.00481  0.014330608  0.012925719           38 
 4624000   0.52462503   -7.9662624    795.16933  0.014330474   0.01292164           41 
 4625000   0.51704816   -7.9722308    795.44692  0.014332377  0.012917563           33 
 4626000   0.52031674   -7.9467138    794.88423  0.014319142  0.012913487           48 
 4627000   0.51790296   -7.9630388    794.84775  0.014315391  0.012909411           38 
 4628000   0.50908256   -7.9595046    794.32978  0.014302971  0.012905337           31 
 4629000   0.50884347   -7.9783293    794.54096  0.014303683  0.012901261           51 
 4630000   0.52231267   -7.9724769    794.52361  0.014300281  0.012897189           51 
 4631000   0.51918909   -7.9526496    795.35607  0.014312173  0.012893117           41 
 4632000   0.50072042   -7.9559436    793.58068  0.014277142  0.012889047           64 
 4633000   0.50386423   -7.9586448    794.62214  0.014292793  0.012884977           37 
 4634000   0.50737724    -7.978376    794.36143  0.014285021  0.012880907           54 
 4635000   0.51137056    -7.953936    794.69817  0.014287993  0.012876842           46 
 4636000   0.50576102   -7.9670721     793.3798  0.014261213  0.012872776           46 
 4637000   0.51424181   -7.9731453    796.07742  0.014306617  0.012868708           42 
 4638000   0.51416871   -7.9633534    793.82422  0.014263048  0.012864644           47 
 4639000   0.50880146   -7.9576249    794.27105     0.014268  0.012860581           49 
 4640000   0.50505391    -7.957313    793.55513  0.014252068  0.012856519           43 
 4641000   0.51910056   -7.9639396    793.80797  0.014253537  0.012852455           61 
 4642000   0.51808898   -7.9854428    793.86713  0.014251528  0.012848391           53 
 4643000    0.5194715   -7.9738844     792.6083  0.014225865  0.012844328           58 
 4644000   0.51839971   -7.9766787    794.56842  0.014257975  0.012840269           41 
 4645000   0.49592873    -7.971326    793.07417  0.014228098  0.012836208           65 
 4646000   0.50283573   -7.9848333    793.94873  0.014240722  0.012832147           73 
 4647000   0.51051741   -7.9805863    794.32797  0.014244458  0.012828094           39 
 4648000   0.50651195   -7.9669002    793.80691  0.014232052  0.012824048           43 
 4649000   0.49748408   -7.9725133    793.78986  0.014228685  0.012820004           39 
 4650000   0.50446398   -7.9834993    794.37776  0.014236161  0.012815957           41 
 4651000   0.51813122   -7.9642948    794.46796  0.014234716  0.012811912           62 
 4652000   0.50948708   -7.9864172    793.56787  0.014215532  0.012807865           37 
 4653000   0.50541086   -7.9648157    794.51305  0.014229405   0.01280382           52 
 4654000   0.50497423   -7.9859634    794.40334  0.014224383   0.01279978           70 
 4655000   0.50579983   -7.9829066    793.32356  0.014201997  0.012795734           49 
 4656000    0.5061327   -7.9688287    794.06443  0.014212207  0.012791694           42 
 4657000   0.50989107   -7.9678222     794.6746  0.014220074  0.012787653           54 
 4658000   0.50985473   -7.9637978    793.66359  0.014198934  0.012783616           47 
 4659000   0.50974394   -7.9720401    792.82432  0.014180874  0.012779581           51 
 4660000   0.50840595   -7.9654135    794.55591  0.014208797  0.012775549           35 
 4661000   0.51357606   -7.9751829    794.83317  0.014210705  0.012771517           47 
 4662000   0.51063359   -7.9712843    794.08344  0.014194256  0.012767489           26 
 4663000   0.50933437   -7.9755689    794.12135  0.014191889  0.012763455           45 
 4664000   0.51418326   -7.9641374    793.59282  0.014179403  0.012759424           38 
 4665000   0.49969604   -7.9800625     795.1779  0.014204678  0.012755396           28 
 4666000   0.50685352   -7.9721794    793.54842  0.014172532  0.012751366           48 
 4667000   0.50368361   -7.9790336    793.66475  0.014171573  0.012747336           45 
 4668000    0.4934758   -7.9749523    793.07903   0.01415808  0.012743313           49 
 4669000   0.50661529   -7.9898392    793.50321  0.014162619  0.012739289           61 
 4670000   0.50560821   -7.9896086    794.05874  0.014169499  0.012735264           44 
 4671000   0.51166969   -7.9693887    793.53809  0.014157177  0.012731244           37 
 4672000   0.50951722    -7.980722    795.07471  0.014181555  0.012727226           33 
 4673000   0.50837982   -7.9811859    794.11223  0.014161356  0.012723211           28 
 4674000   0.48654658   -7.9936448    794.13984  0.014158819  0.012719193           50 
 4675000   0.50721957   -7.9792227    793.20509  0.014139128  0.012715184           43 
 4676000   0.49855972     -7.98871    794.33089  0.014156168  0.012711171           46 
 4677000   0.50581702   -7.9863373    793.84651  0.014144511  0.012707163           52 
 4678000    0.5055737    -7.970998    794.36197  0.014150669  0.012703154           57 
 4679000   0.50428721   -7.9750754    794.83142  0.014156006  0.012699149           50 
 4680000   0.50828562   -7.9818984    793.58704  0.014130823  0.012695145           40 
 4681000   0.50288389    -7.965371    794.00912  0.014135319  0.012691141           22 
 4682000   0.50672093   -7.9875552    794.51409  0.014141287  0.012687142           30 
 4683000   0.49629451   -7.9672436    793.31665  0.014116959  0.012683141           52 
 4684000   0.50772484   -7.9823982    794.49458  0.014134902  0.012679141           38 
 4685000   0.49719676   -7.9812193     794.3225  0.014128824  0.012675143           29 
 4686000   0.50170867   -7.9777436    793.74441  0.014115529  0.012671148           27 
 4687000   0.50283155   -7.9809671    794.45225  0.014125102   0.01266715           53 
 4688000   0.49073523   -7.9947143    793.38059  0.014103039  0.012663158           39 
 4689000   0.49690475   -7.9671613    793.51048   0.01410234  0.012659165           70 
 4690000   0.49853581   -8.0061314    794.34756  0.014114207  0.012655175           48 
 4691000   0.49545176   -7.9833249    792.58532  0.014079893   0.01265118           41 
 4692000   0.50351206   -7.9905461    793.55336  0.014094085  0.012647192           39 
 4693000   0.49532483   -7.9736316    792.79587  0.014077631  0.012643202           64 
 4694000   0.49756089   -7.9867323    793.12653  0.014080502  0.012639217           38 
 4695000    0.4976859   -7.9857975    794.97028  0.014110229  0.012635234           39 
 4696000   0.50248828   -7.9959323    794.02577  0.014090463   0.01263125           37 
 4697000   0.50084704    -7.984033    793.34173  0.014075327  0.012627269           32 
 4698000   0.49888737   -7.9863607    792.92485  0.014064936  0.012623288           37 
 4699000   0.49768303      -7.9884    792.02153  0.014045923   0.01261931           26 
 4700000   0.50216937   -7.9831186    794.46145  0.014086196  0.012615333           58 
 4701000   0.49595857   -7.9906749    793.86302  0.014072591  0.012611356           48 
 4702000   0.50267135   -7.9842243    793.08683  0.014055842  0.012607379           24 
 4703000   0.49196025   -7.9890906    793.13344  0.014053679  0.012603406           32 
 4704000   0.49768775   -7.9875868    793.26233  0.014052975  0.012599435           50 
 4705000    0.5066815   -7.9899008    794.51162  0.014072115  0.012595463           36 
 4706000   0.49733629   -7.9728694    793.79101  0.014056364  0.012591492           35 
 4707000   0.50070343   -8.0011838     793.0521  0.014040296  0.012587523           27 
 4708000   0.49984749   -7.9938652    792.94045  0.014035338  0.012583557           37 
 4709000   0.51091824   -7.9967497    793.01359  0.014033652  0.012579591           42 
 4710000   0.49871545   -7.9897337    794.03424   0.01404873  0.012575625           44 
 4711000   0.49295914   -7.9966284      793.284  0.014032477  0.012571656           42 
 4712000   0.49022596   -7.9960784    792.88851  0.014022505  0.012567696           41 
 4713000   0.48948407   -7.9739418    792.49414  0.014012556  0.012563736           67 
 4714000   0.50133904   -7.9704112    793.58186  0.014028812  0.012559777           50 
 4715000   0.50390069   -8.0013267    793.91361    0.0140317  0.012555816           48 
 4716000   0.49853244   -7.9866738    793.14693  0.014015178  0.012551861           44 
 4717000   0.49681967   -7.9853467    792.60255  0.014002589  0.012547906           51 
 4718000   0.49619364   -7.9788029      792.558  0.013998834  0.012543949           33 
 4719000   0.49979258    -7.974266    793.18903  0.014007011  0.012539995           31 
 4720000   0.50266389   -8.0088068    793.58759   0.01401108  0.012536043           37 
 4721000   0.49962263   -7.9911699      793.707   0.01401022   0.01253209           52 
 4722000   0.49824037   -7.9991828    793.31136  0.014000271  0.012528139           36 
 4723000   0.48955832   -7.9729804    792.66729  0.013985943  0.012524187           30 
 4724000   0.48656645   -7.9770303    792.63317   0.01398238  0.012520245           46 
 4725000   0.50020709   -7.9853124    792.86915  0.013983583  0.012516298           73 
 4726000   0.49363453     -7.98895    791.81757  0.013962082  0.012512358           71 
 4727000   0.49691079   -7.9997142    792.48727  0.013970934  0.012508415           55 
 4728000   0.49310325   -7.9942438    793.65644  0.013988586  0.012504473           58 
 4729000   0.49091956   -7.9948173    791.65469  0.013950354  0.012500538           75 
 4730000    0.4889083   -7.9925838    793.22304  0.013975036  0.012496599           39 
 4731000   0.50337228   -7.9895145    792.29777  0.013955784  0.012492665           53 
 4732000   0.48917764   -7.9910864    793.65351   0.01397671  0.012488731           65 
 4733000   0.50489019   -7.9913627     792.3138  0.013950169  0.012484799           42 
 4734000    0.5007436   -8.0035038    792.56498  0.013951644  0.012480868           55 
 4735000   0.49700104   -7.9780355    792.86839  0.013954037   0.01247694           71 
 4736000   0.49638575   -7.9849139    792.33079  0.013941631  0.012473009           61 
 4737000   0.50363093   -7.9969693    793.44275   0.01395825  0.012469081           65 
 4738000   0.49004089   -8.0052953    792.23102  0.013933991  0.012465152           49 
 4739000   0.48997368   -7.9982169    794.78838  0.013976021  0.012461229           73 
 4740000    0.5000732   -7.9854932    793.80997  0.013955872  0.012457306           61 
 4741000   0.49235694   -7.9970368    792.71304  0.013933647  0.012453381           67 
 4742000   0.49519266   -7.9985147    793.69364  0.013947941  0.012449459           53 
 4743000   0.49075211   -8.0200111    793.78925   0.01394668  0.012445543           56 
 4744000   0.48489717   -7.9895022     793.0439  0.013930647  0.012441625           56 
 4745000   0.48950358   -8.0059294    793.00382  0.013927008  0.012437712           46 
 4746000   0.50215535   -7.9979753     794.3333  0.013947417  0.012433798           54 
 4747000   0.48961206   -7.9800474    793.32654  0.013926805  0.012429888           24 
 4748000   0.49423612   -7.9945019     792.7926  0.013914501  0.012425978           28 
 4749000   0.48418559   -7.9941392    793.59383  0.013925631  0.012422066           23 
 4750000   0.49512702   -8.0038513    792.93494  0.013911139  0.012418159           42 
 4751000    0.4926413   -8.0025964    793.04528  0.013910147  0.012414253           47 
 4752000   0.49527007   -8.0072421     792.9188  0.013905001  0.012410347           38 
 4753000   0.49608468   -8.0067879    793.89579  0.013919205  0.012406441           47 
 4754000   0.48440462   -7.9966608    793.54589  0.013910144   0.01240254           56 
 4755000   0.48987195   -8.0113663    794.02428  0.013915602  0.012398632           39 
 4756000    0.4830227   -8.0138609    793.23837  0.013898906  0.012394729           68 
 4757000    0.4918236   -7.9876184    793.20334  0.013895371  0.012390828           46 
 4758000   0.49368254   -7.9887524     792.2699  0.013876102  0.012386932           49 
 4759000   0.48492886   -8.0038593    792.82682  0.013882938  0.012383032           21 
 4760000   0.49818004   -8.0083854    793.18223  0.013886244  0.012379135           13 
 4761000   0.48596922   -8.0185517    792.16485  0.013865519  0.012375237           13 
 4762000   0.49172391    -8.018352    793.00706  0.013877346  0.012371341           25 
 4763000   0.49477195   -8.0039437    792.04933  0.013857676  0.012367447           24 
 4764000   0.48919418   -8.0196678    792.25412  0.013858349  0.012363553           54 
 4765000   0.48546292   -8.0057914    792.53565  0.013860365  0.012359664           54 
 4766000    0.4826504   -8.0019261    792.31339   0.01385357  0.012355778           45 
 4767000   0.49247571   -8.0102297    792.72403  0.013857843  0.012351887           58 
 4768000   0.48135244   -8.0107819    793.01692  0.013860055  0.012348004           12 
 4769000   0.48727489   -8.0093808    791.60049  0.013832398   0.01234412           11 
 4770000   0.48602527   -8.0053207    792.19265  0.013839844  0.012340237           71 
 4771000   0.49333944    -7.994222     793.6484   0.01386237  0.012336357           12 
 4772000   0.49093661   -8.0016825    791.36048  0.013819511  0.012332477           21 
 4773000   0.49025021   -8.0144685    792.12485  0.013829961  0.012328599           24 
 4774000   0.50532733   -8.0042062    793.19478   0.01384574  0.012324723           10 
 4775000   0.48148123   -7.9979683     791.6803   0.01381641  0.012320852           11 
 4776000   0.48676702   -8.0109342    793.29197  0.013841638  0.012316976           26 
 4777000   0.49583169   -8.0068409    792.70208   0.01382845  0.012313103           56 
 4778000   0.49711427   -8.0152908    793.67488  0.013842523  0.012309231           46 
 4779000   0.49512246   -8.0046318    792.10053  0.013812174   0.01230536           42 
 4780000   0.48607347    -7.992619    791.23873   0.01379426  0.012301492           60 
 4781000   0.48613661   -8.0215959    792.67858  0.013816471  0.012297627           45 
 4782000   0.50000794   -7.9992311    791.82948  0.013798785  0.012293761           51 
 4783000   0.48940597   -8.0032467     792.4482   0.01380668  0.012289893           40 
 4784000   0.48962562   -8.0148437    792.99117  0.013813252   0.01228603           48 
 4785000   0.47838066   -8.0216982    792.66917  0.013804757  0.012282169           53 
 4786000    0.4880783   -8.0177707    792.87391  0.013805438  0.012278303           69 
 4787000   0.47643807   -8.0104847    791.45191  0.013777799  0.012274443           62 
 4788000   0.48734811   -8.0118774    791.81069  0.013781166  0.012270583           35 
 4789000   0.49387872   -8.0139922    793.14647  0.013801532  0.012266726           10 
 4790000   0.48979169   -7.9898591    792.61954  0.013789484  0.012262876           44 
 4791000   0.48368827   -8.0055253    792.33852  0.013781718  0.012259021           68 
 4792000   0.48146713   -8.0241444    792.81017  0.013787044  0.012255168           33 
 4793000   0.47623824   -8.0036558    793.08051  0.013788868  0.012251317           63 
 4794000   0.49707381   -7.9907399    791.40427  0.013756854  0.012247469           34 
 4795000   0.48226248   -8.0056845    790.85246  0.013744395  0.012243619           59 
 4796000   0.47835641   -8.0130337    793.03715  0.013779489  0.012239773           47 
 4797000   0.48161727   -8.0115913    790.78735  0.013737533  0.012235927           44 
 4798000   0.49009157   -7.9978499    792.62131  0.013766523  0.012232083           64 
 4799000   0.48226433   -8.0083395    793.83536  0.013784736  0.012228237           61 
 4800000   0.47678904   -8.0103225    792.09309  0.013751616  0.012224395           72 
 4801000   0.49181801   -8.0190099    792.23113  0.013751148  0.012220556           42 
 4802000   0.48471817   -8.0150834    791.40544  0.013733955  0.012216719           49 
 4803000   0.46962715   -8.0069523    791.77909  0.013737579  0.012212881           42 
 4804000   0.48725111   -8.0214064    793.79242  0.013769644  0.012209042           42 
 4805000   0.47151644    -8.011079    792.89803  0.013751267  0.012205209           52 
 4806000   0.48542474   -8.0143762    791.77758  0.013728977  0.012201377           50 
 4807000   0.48496569   -8.0070235    792.92065  0.013745937   0.01219755           38 
 4808000   0.47790212   -8.0265162    791.94227  0.013726121   0.01219372           51 
 4809000   0.47978206   -8.0196154    792.89883  0.013739842   0.01218989           32 
 4810000   0.48682455   -8.0106332    791.99069  0.013721252  0.012186066           51 
 4811000   0.48550648    -8.018958    791.12157  0.013703346  0.012182236           47 
 4812000   0.47280226   -8.0120927    792.99651  0.013732968  0.012178411           43 
 4813000   0.48857024   -8.0070561    792.46831  0.013720969  0.012174591           21 
 4814000    0.4708033   -7.9983944    792.17187  0.013712988  0.012170771           39 
 4815000   0.47878622   -8.0081877    792.76702   0.01372044  0.012166949           33 
 4816000   0.47180769   -8.0005878    791.37811  0.013693558   0.01216313           58 
 4817000   0.47567222   -8.0214289    792.22078  0.013705293  0.012159311           30 
 4818000   0.48117041   -8.0084243    791.02463   0.01368176  0.012155493           31 
 4819000   0.49158128   -8.0351242    793.01982  0.013713423  0.012151681           63 
 4820000   0.48188448   -8.0372023    792.74857  0.013705888  0.012147867           70 
 4821000   0.48492163   -8.0222034    791.72612  0.013685372  0.012144055           39 
 4822000   0.48414898   -8.0241595    792.01509  0.013687527  0.012140245           44 
 4823000   0.48089575   -8.0114035    791.91006  0.013682875  0.012136438           37 
 4824000   0.47628652   -8.0224725    792.30642  0.013686885   0.01213263           47 
 4825000   0.48230839   -8.0091649    791.67157  0.013673084  0.012128825           30 
 4826000   0.47865825   -8.0138811     790.7751  0.013654771   0.01212502           45 
 4827000   0.48217146   -8.0092079    792.79807  0.013686867  0.012121213           41 
 4828000     0.485097   -8.0054679    792.94272  0.013686529  0.012117409           75 
 4829000   0.46901801   -8.0104078    791.95043  0.013666571  0.012113608           32 
 4830000   0.48540442   -8.0112562    792.41217  0.013671708  0.012109809           63 
 4831000    0.4755039   -8.0042803    791.06239  0.013645594  0.012106013           44 
 4832000   0.48242075   -8.0159039    792.08531  0.013660412  0.012102222           56 
 4833000   0.47298252   -8.0103072    792.16882  0.013659025  0.012098427           47 
 4834000   0.47004495   -8.0189481      791.278  0.013640843  0.012094632           33 
 4835000    0.4741537   -8.0106178    792.80746  0.013664382  0.012090841           49 
 4836000    0.4812613   -8.0202034    791.94617  0.013646715  0.012087049           40 
 4837000   0.47692792   -8.0041897    793.47202  0.013670182   0.01208326           44 
 4838000   0.47809071   -8.0179417    791.41462  0.013631918  0.012079474           28 
 4839000   0.48848295   -8.0111264    792.24047  0.013643323  0.012075689           40 
 4840000   0.47651396   -8.0241781    792.06569  0.013637495  0.012071904           21 
 4841000   0.47209669   -8.0130467    790.52686  0.013608188  0.012068122           67 
 4842000   0.47220557   -8.0221771    791.81521  0.013627551  0.012064337           73 
 4843000   0.47564083   -8.0244244    792.28137  0.013632758  0.012060557           79 
 4844000   0.47235521   -8.0253302    792.58117  0.013635101  0.012056779           49 
 4845000   0.47488176   -8.0361574     792.4567  0.013630146  0.012053002           51 
 4846000   0.47849662    -8.018385    791.79625  0.013615976  0.012049222           45 
 4847000    0.4822788   -8.0106018    791.39297  0.013606234   0.01204545           52 
 4848000   0.47240313    -8.019751    791.58454   0.01360672  0.012041675           72 
 4849000   0.48488135    -8.013997    791.57947  0.013603827  0.012037902           57 
 4850000   0.47951845   -8.0205894     792.6977  0.013620235  0.012034131           51 
 4851000   0.47706424   -8.0344935    791.25089  0.013592574   0.01203036           59 
 4852000   0.47382105   -8.0091118     792.8389  0.013617046  0.012026592           43 
 4853000   0.47829393   -8.0217265    792.76746  0.013613014  0.012022826           39 
 4854000   0.47868119   -8.0245838    792.20052  0.013600476  0.012019062           48 
 4855000   0.47271568    -8.022076    790.78819  0.013573433  0.012015297           45 
 4856000   0.46749605   -8.0275688    792.83492  0.013605761  0.012011535           52 
 4857000   0.47243372   -8.0179555    792.56435  0.013598318  0.012007773           57 
 4858000   0.46969496   -8.0241981    792.94519  0.013602051  0.012004017           50 
 4859000   0.47762834   -8.0273898    791.54694  0.013575272  0.012000263           39 
 4860000   0.47712956   -8.0146694    792.01043  0.013580426  0.011996506           65 
 4861000   0.47542839   -8.0235857    792.53917  0.013586696  0.011992752           42 
 4862000   0.47166824   -8.0332209    793.22767  0.013595703  0.011988995           45 
 4863000   0.45654726   -8.0138765    791.76063  0.013567767  0.011985242           49 
 4864000   0.46819238   -8.0195734    791.97836  0.013568708   0.01198149           51 
 4865000   0.47159466   -8.0159801     792.5309  0.013575384  0.011977741           40 
 4866000   0.46664118   -8.0256782     790.9361  0.013545282  0.011973988           25 
 4867000   0.47212403   -8.0238038     791.0815  0.013544988   0.01197024           32 
 4868000   0.46521553    -8.028615    791.73755  0.013553437  0.011966493           38 
 4869000    0.4684481   -8.0270037    791.38907  0.013544689  0.011962751           31 
 4870000   0.46884154   -8.0066425     790.9804  0.013534914  0.011959007           45 
 4871000   0.48001216   -8.0306469    791.49688  0.013540972  0.011955266           45 
 4872000   0.47904639   -8.0112682     792.5322  0.013555901  0.011951522           34 
 4873000    0.4662531   -8.0406143    792.10963  0.013545893  0.011947781           38 
 4874000   0.48031918   -8.0321482     791.7018  0.013536141  0.011944043           51 
 4875000   0.47354312   -8.0159698    790.84262  0.013518677  0.011940305           66 
 4876000   0.47888321   -8.0301593    791.68306  0.013530268  0.011936572           35 
 4877000   0.46705327   -8.0234766    791.33599  0.013521564  0.011932837           38 
 4878000   0.47091118   -8.0400886     792.4329  0.013537531  0.011929101           50 
 4879000   0.47527254   -8.0272329    793.69304  0.013556279  0.011925367           33 
 4880000   0.47900422   -8.0228305    790.63439   0.01350127  0.011921638           35 
 4881000   0.46342835   -8.0350562    790.92271  0.013503427  0.011917905           26 
 4882000   0.47235254   -8.0187485    791.08648  0.013503456  0.011914174           47 
 4883000   0.46057891   -8.0214457    791.41798  0.013506348  0.011910449           56 
 4884000   0.46979585   -8.0243355      793.329   0.01353619  0.011906723           41 
 4885000   0.47962544   -8.0235697    792.20693  0.013514277  0.011902999           42 
 4886000   0.46769834   -8.0191848    791.30059  0.013496053  0.011899275           34 
 4887000   0.47634849   -8.0246027    792.09218   0.01350679  0.011895554           73 
 4888000   0.47803994   -8.0426407    791.12369  0.013487515  0.011891833           49 
 4889000   0.46715829   -8.0309074    792.95779  0.013516019  0.011888109           46 
 4890000   0.48124067    -8.028132    791.08268    0.0134813  0.011884387           56 
 4891000   0.46215207   -8.0181331    790.33355   0.01346578  0.011880665           55 
 4892000    0.4659775   -8.0278499    790.51871  0.013466181  0.011876947           26 
 4893000   0.46465612   -8.0268884    790.36188  0.013460758  0.011873231           45 
 4894000     0.465337   -8.0435383    791.24495  0.013473044  0.011869514           34 
 4895000   0.46699919   -8.0220104    790.81736  0.013463013  0.011865801           25 
 4896000   0.47613323   -8.0320259    790.44861  0.013453986  0.011862083           44 
 4897000   0.47755406    -8.036947    790.78011   0.01345688   0.01185837           36 
 4898000   0.47252894   -8.0433356    789.83101  0.013437985  0.011854656           73 
 4899000   0.45860058   -8.0538336    790.94664  0.013454219  0.011850945           40 
 4900000   0.46300119   -8.0162096    790.53307   0.01344444  0.011847237           36 
 4901000   0.46934979   -8.0421266    791.62732  0.013460303  0.011843533           20 
 4902000   0.47023838    -8.033663    791.42877  0.013454182  0.011839826           26 
 4903000   0.47506193   -8.0441064    790.64962  0.013438195   0.01183612           58 
 4904000   0.47016062   -8.0269025    791.28617  0.013446271  0.011832416           46 
 4905000     0.468669   -8.0283815    790.59956  0.013431865  0.011828715           57 
 4906000   0.46806586    -8.024373    790.82218  0.013432908  0.011825014           39 
 4907000   0.47905915   -8.0500208    791.17276  0.013436125  0.011821316           46 
 4908000   0.46574976   -8.0352354    790.64637  0.013424449  0.011817617           39 
 4909000   0.47023158   -8.0388758    790.98247   0.01342742  0.011813922           39 
 4910000   0.47563335   -8.0306707    790.01483  0.013408262  0.011810224           39 
 4911000   0.46843285   -8.0449093    791.39602  0.013428969  0.011806532           51 
 4912000   0.46894963   -8.0365631    790.63191  0.013413272  0.011802841           58 
 4913000   0.47085958   -8.0197139    790.85535  0.013414332   0.01179915           31 
 4914000   0.46396455   -8.0277121    791.13581  0.013416358  0.011795459           55 
 4915000   0.46876028   -8.0482762    790.84193  0.013408646   0.01179177           31 
 4916000   0.46917478   -8.0309022    792.06409  0.013426636  0.011788081           60 
 4917000   0.46841998   -8.0442582    791.79438  0.013419334  0.011784398           23 
 4918000   0.47155928   -8.0338942    790.56811  0.013395827  0.011780714           23 
 4919000   0.46846305   -8.0365808    791.59303  0.013410467  0.011777033           42 
 4920000   0.46291893   -8.0389669    790.35838  0.013386829  0.011773353           39 
 4921000   0.45611889   -8.0373638    792.11856  0.013413916  0.011769676           22 
 4922000   0.46474408    -8.052266    791.25188  0.013396517  0.011766001           43 
 4923000   0.45261344   -8.0347889    790.70145  0.013384479  0.011762328           32 
 4924000   0.45634335   -8.0216944    790.61054  0.013380222  0.011758651           38 
 4925000   0.45602568   -8.0511855    790.19135  0.013370412  0.011754977           44 
 4926000   0.45837042    -8.034522    791.40127  0.013388166  0.011751303           51 
 4927000   0.46484503   -8.0324877    791.05151  0.013379533  0.011747632           40 
 4928000   0.45892479   -8.0338758    790.12509  0.013361152  0.011743965           34 
 4929000   0.46447412   -8.0609553    791.05107  0.013374097  0.011740297           33 
 4930000   0.46497755   -8.0539114    791.48347  0.013378693   0.01173663           63 
 4931000   0.46182926   -8.0517273    790.13575  0.013353203  0.011732961           41 
 4932000   0.47057429   -8.0582972    792.37351  0.013388306  0.011729299           67 
 4933000   0.46289478   -8.0326793    790.64269  0.013356353  0.011725634           49 
 4934000   0.46303846   -8.0428274    790.83493  0.013356893  0.011721974           39 
 4935000   0.46205695   -8.0343576     791.2463  0.013361133  0.011718314           35 
 4936000   0.47193817   -8.0293356    790.38266  0.013343846  0.011714656           45 
 4937000   0.45757196   -8.0306776    791.49277  0.013359881  0.011710994           30 
 4938000   0.46899991   -8.0475045    791.28683    0.0133537  0.011707341           64 
 4939000   0.46565565   -8.0395113     791.4078  0.013353037  0.011703683           29 
 4940000   0.46306388   -8.0384701    790.58539  0.013336461  0.011700027           38 
 4941000   0.45688975   -8.0314923    792.25211  0.013361872  0.011696377           47 
 4942000   0.46271167    -8.047568     791.7785  0.013351182  0.011692728           28 
 4943000   0.45366419   -8.0291155    789.96409  0.013317892  0.011689084           30 
 4944000   0.46404171   -8.0717072    790.77915  0.013328937  0.011685438           40 
 4945000   0.46076944   -8.0326017    790.22212  0.013316854  0.011681791           49 
 4946000   0.45758728    -8.042311    791.47481  0.013335268  0.011678146           56 
 4947000   0.46032892   -8.0346031    791.30445  0.013329702  0.011674502           25 
 4948000   0.46427838   -8.0461825     790.4891  0.013313276  0.011670858           32 
 4949000   0.45913682   -8.0470157    790.43145  0.013309616  0.011667215           31 
 4950000   0.46326171   -8.0349217    791.18343  0.013319586  0.011663578           28 
 4951000    0.4618419   -8.0531809    791.33632   0.01331947  0.011659936           49 
 4952000    0.4553651   -8.0479069    790.04926  0.013295121  0.011656299           59 
 4953000   0.46105546   -8.0404143    789.72239  0.013286937   0.01165266           39 
 4954000   0.45953706   -8.0578166    790.80304  0.013302433  0.011649024           75 
 4955000   0.45275136   -8.0419605     791.6832  0.013314551   0.01164539           29 
 4956000   0.46241481   -8.0438188    790.08542  0.013284998  0.011641759           24 
 4957000    0.4591207   -8.0518807    790.68627  0.013292419  0.011638131           36 
 4958000   0.45045879   -8.0386405    790.54901  0.013287431  0.011634499           40 
 4959000    0.4601493   -8.0339048    790.11089  0.013277389  0.011630873           34 
 4960000   0.45768776   -8.0524848    791.44442  0.013297117  0.011627246           40 
 4961000   0.45287494   -8.0402268    790.72861  0.013282413  0.011623623           30 
 4962000    0.4624189   -8.0373997    791.01339  0.013284519      0.01162           33 
 4963000   0.46379371   -8.0439272    789.69016  0.013259624  0.011616378           30 
 4964000   0.45794217   -8.0412223    790.55242  0.013271428  0.011612755           42 
 4965000   0.45844802   -8.0548101    791.01857  0.013276579  0.011609133           45 
 4966000   0.45679276   -8.0598838     790.1826  0.013259877  0.011605514           25 
 4967000    0.4588021   -8.0566131    790.06382  0.013255215  0.011601896           51 
 4968000   0.45865703   -8.0374095    790.69251  0.013263092  0.011598282           37 
 4969000   0.46033907   -8.0466389     791.1919  0.013268798  0.011594671           26 
 4970000   0.45679934   -8.0538865    789.70286  0.013241161  0.011591059           36 
 4971000   0.45468623   -8.0540581    790.28673  0.013248286   0.01158745           27 
 4972000   0.43732784   -8.0463849    790.83991  0.013254892  0.011583841           48 
 4973000   0.45575218   -8.0512757    790.72689  0.013250333  0.011580235           49 
 4974000   0.45295764   -8.0492936     789.9864  0.013235263  0.011576628           60 
 4975000   0.44429328   -8.0442054    789.68803  0.013227605  0.011573023           66 
 4976000   0.46224734   -8.0502762    791.23893   0.01325092  0.011569421           37 
 4977000   0.46189196   -8.0610699    789.48302  0.013218857  0.011565817           37 
 4978000   0.45166938   -8.0427644    790.95114  0.013240778  0.011562215           62 
 4979000   0.45449359   -8.0522766    790.92085  0.013237612  0.011558617           33 
 4980000   0.45600501    -8.052658    791.77314  0.013249216  0.011555017           58 
 4981000   0.45605459   -8.0493021    790.64144  0.013227622   0.01155142           39 
 4982000   0.45611692   -8.0536337    791.00893  0.013231114  0.011547822           62 
 4983000   0.44245475    -8.053214    790.66995   0.01322279  0.011544228           38 
 4984000   0.44613973   -8.0564103    790.67103  0.013220155  0.011540635           47 
 4985000   0.45549368   -8.0600143    789.89818  0.013204583  0.011537044           37 
 4986000   0.44168642   -8.0579972    790.83907  0.013217661  0.011533453           36 
 4987000   0.45539078   -8.0548506     788.8736  0.013182167  0.011529862           43 
 4988000   0.44567188   -8.0472903    790.50532  0.013206785  0.011526273           29 
 4989000   0.44605517   -8.0510011    789.34268  0.013184718  0.011522686           48 
 4990000   0.46233718   -8.0606526    789.47207  0.013184236  0.011519099           40 
 4991000   0.45495948   -8.0465198    791.11066  0.013208954  0.011515513           36 
 4992000   0.44705536   -8.0690772    790.97141  0.013203983  0.011511929           71 
 4993000   0.45360902   -8.0575907     790.6243  0.013195545  0.011508347           36 
 4994000   0.44882236   -8.0514844    790.80176  0.013195864  0.011504766           44 
 4995000   0.45439886   -8.0556584    790.80201  0.013193227  0.011501186           64 
 4996000     0.452995   -8.0684149    790.52031  0.013185887   0.01149761           47 
 4997000   0.44704637   -8.0639143    789.62862  0.013168378  0.011494034           41 
 4998000   0.44215304   -8.0702516    789.92048   0.01317061  0.011490459           44 
 4999000    0.4454106    -8.039776    789.40948  0.013159457  0.011486886           48 
 5000000   0.45907743   -8.0598877    791.33222   0.01318887  0.011483313           34 
 5001000   0.46330452   -8.0572212    791.20937  0.013184186  0.011479744           43 
 5002000   0.44795311   -8.0599155    791.44802  0.013185526  0.011476175           61 
 5003000   0.45163809   -8.0663642    789.89545   0.01315703  0.011472606           39 
 5004000   0.44632001   -8.0539003    790.21498  0.013159722  0.011469039           35 
 5005000   0.44507356   -8.0645053    790.32023  0.013158845  0.011465472           52 
 5006000   0.44876929   -8.0544279    791.06833   0.01316867  0.011461908           34 
 5007000   0.46210929   -8.0637699    789.61739  0.013141891  0.011458343           67 
 5008000   0.45246511   -8.0557401    789.80179  0.013142335  0.011454785           47 
 5009000   0.45336871   -8.0505661    790.00284  0.013143056  0.011451223           53 
 5010000   0.44533425   -8.0614129    790.02998  0.013140885  0.011447665           46 
 5011000   0.45897805   -8.0643548    791.09067  0.013155902   0.01144411           51 
 5012000   0.45390766   -8.0512352    789.59118  0.013128345  0.011440553           25 
Loop time of 11351.7 on 48 procs for 5000000 steps with 4000 atoms

Performance: 76111.817 tau/day, 440.462 timesteps/s
99.4% CPU use with 48 MPI tasks x no OpenMP threads

MPI task timing breakdown:
Section |  min time  |  avg time  |  max time  |%varavg| %total
---------------------------------------------------------------
Pair    | 729.24     | 772.8      | 827.37     |  94.4 |  6.81
Neigh   | 71.748     | 73.589     | 77.468     |  13.6 |  0.65
Comm    | 666.97     | 716.17     | 758.72     |  95.1 |  6.31
Output  | 13.895     | 13.899     | 13.98      |   0.3 |  0.12
Modify  | 9630.4     | 9659.4     | 9686       |  12.3 | 85.09
Other   |            | 115.9      |            |       |  1.02

Nlocal:        83.3333 ave          92 max          76 min
Histogram: 1 3 5 10 7 12 6 1 1 2
Nghost:        1881.98 ave        1908 max        1851 min
Histogram: 2 2 3 3 9 10 9 3 3 4
Neighs:        11821.4 ave       13685 max       10392 min
Histogram: 2 2 8 11 7 9 5 2 1 1
FullNghs:      23625.6 ave       26476 max       21964 min
Histogram: 5 5 9 8 11 3 4 1 1 1

Total # of neighbors = 1134027
Ave neighs/atom = 283.50675
Neighbor list builds = 268985
Dangerous builds = 0

#clear
#
#next RN
#
#jump SELF
Total wall time: 3:09:15
